LAMMPS (10 Feb 2015)
# ---- initialize simulations
clear
units metal
dimension 3
boundary p p p
atom_style charge
atom_modify map array
# ---- create atoms
read_data /Users/eugeneragasa/pyflamestk_git/pypospack/tests/tests_integration/workflow/WorkflowLammpsThermalExpansion/param_8221/MgO_NaCl_unit.npt.T500/lammps.structure
  triclinic box = (0 0 0) to (4.2565 4.2565 4.2565) with tilt (0 0 0)
  1 by 1 by 1 MPI processor grid
  reading atoms ...
  8 atoms
# ---- define interatomic potential
include potential.mod
mass 1 24.305
mass 2 15.999

group Mg type 1
4 atoms in group Mg
group O type 2
4 atoms in group O

set group Mg charge 1.65389423724
  4 settings made for charge
set group O charge -1.65389423724
  4 settings made for charge

variable R_cut equal 10.0

pair_style buck/coul/long ${R_cut}
pair_style buck/coul/long 10
pair_coeff 1 1 0.0 0.5 0.0 ${R_cut}
pair_coeff 1 1 0.0 0.5 0.0 10
pair_coeff 1 2 1300.0678519 0.288744572517 0.0 ${R_cut}
pair_coeff 1 2 1300.0678519 0.288744572517 0.0 10
pair_coeff 2 2 40472.9144105 0.202420171096 26.2679081719 ${R_cut}
pair_coeff 2 2 40472.9144105 0.202420171096 26.2679081719 10

kspace_style pppm 1.0e-5

neighbor 1.0 bin
neigh_modify every 1 delay 0 check yes
# ---- define settings
compute eng all pe/atom
compute eatoms all reduce sum c_eng
# ---- run minimization
reset_timestep 0
fix 1 all box/relax iso 0.0 vmax 0.001
thermo 10
thermo_style custom step pe lx ly lz xy xz yz press pxx pyy pzz pxy pxz pyz c_eatoms
min_style cg
minimize 1e-25 1e-25 5000 10000
PPPM initialization ...
  G vector (1/distance) = 0.352799
  grid = 8 8 8
  stencil order = 5
  estimated absolute RMS force accuracy = 3.93787e-05
  estimated relative force accuracy = 2.7347e-06
  using double precision FFTs
  3d grid and FFT values/proc = 3375 512
Neighbor list info ...
  1 neighbor list requests
  update every 1 steps, delay 0 steps, check yes
  master list distance cutoff = 11
Memory usage per processor = 4.06549 Mbytes
Step PotEng Lx Ly Lz Xy Xz Yz Press Pxx Pyy Pzz Pxy Pxz Pyz eatoms 
       0   -110.27609       4.2565       4.2565       4.2565            0            0            0    110960.29    110960.29    110960.29    110960.29 9.3314123e-11 1.6239754e-10 5.8891323e-11   -110.27609 
      10   -110.39349     4.299065     4.299065     4.299065            0            0            0    52923.265    52923.265    52923.265    52923.265 1.8718586e-11 -3.674075e-11 -9.001309e-11   -110.39349 
      20   -110.43343      4.34163      4.34163      4.34163            0            0            0    2089.5567    2089.5567    2089.5567    2089.5567 6.9298069e-11 -1.296578e-10 -9.997383e-11   -110.43343 
      22   -110.43352     4.343513     4.343513     4.343513            0            0            0   -5.7193123   -5.7193123   -5.7193123   -5.7193123 4.586585e-11 9.062077e-11 2.6249224e-10   -110.43352 
Loop time of 0.0139909 on 1 procs for 22 steps with 8 atoms

Minimization stats:
  Stopping criterion = linesearch alpha is zero
  Energy initial, next-to-last, final = 
        -110.276087498     -110.433524975     -110.433524975
  Force two-norm initial, final = 16.0227 0.00180648
  Force max component initial, final = 16.0227 0.000859982
  Final line search alpha, max atom move = 0.00390625 3.35931e-06
  Iterations, force evaluations = 22 39

Pair  time (%) = 0.00378323 (27.0407)
Kspce time (%) = 0.00218964 (15.6505)
Neigh time (%) = 0 (0)
Comm  time (%) = 0.000440836 (3.15088)
Outpt time (%) = 3.12328e-05 (0.223237)
Other time (%) = 0.00754595 (53.9348)

Nlocal:    8 ave 8 max 8 min
Histogram: 1 0 0 0 0 0 0 0 0 0
Nghost:    2189 ave 2189 max 2189 min
Histogram: 1 0 0 0 0 0 0 0 0 0
Neighs:    2344 ave 2344 max 2344 min
Histogram: 1 0 0 0 0 0 0 0 0 0

Total # of neighbors = 2344
Ave neighs/atom = 293
Neighbor list builds = 0
Dangerous builds = 0
unfix 1
# ---- define output variables ----
variable natoms equal "count(all)"
variable tot_energy equal "c_eatoms"
variable length_x equal "lx"
variable length_y equal "ly"
variable length_z equal "lz"
variable tilt_xy equal "xy"
variable tilt_xz equal "xz"
variable tilt_yz equal "yz"
variable tot_press equal "press"
variable press_xx equal "pxx"
variable press_yy equal "pyy"
variable press_zz equal "pzz"
variable press_xy equal "pxy"
variable press_xz equal "pxz"
variable press_yz equal "pyz"

# ---- output ----
print "pypospack:output_section:begin"
pypospack:output_section:begin
print "tot_energy = ${tot_energy}"
tot_energy = -110.433524975286
print "num_atoms = ${natoms}"
num_atoms = 8
print "xx = ${length_x}"
xx = 4.34351296178449
print "yy = ${length_y}"
yy = 4.34351296178449
print "zz = ${length_z}"
zz = 4.34351296178449
print "xy = ${tilt_xy}"
xy = 0
print "xz = ${tilt_xz}"
xz = 0
print "yz = ${tilt_yz}"
yz = 0
print "tot_press = ${tot_press}"
tot_press = -5.71931225965551
print "pxx = ${press_xx}"
pxx = -5.71931225981032
print "pyy = ${press_yy}"
pyy = -5.71931225968463
print "pzz = ${press_zz}"
pzz = -5.71931225947158
print "pxy = ${press_xy}"
pxy = 4.5865850341772e-11
print "pxz = ${press_xz}"
pxz = 9.06207702771322e-11
print "pyz = ${press_yz}"
pyz = 2.62492238241466e-10
print "pypospack:output_section:done"
pypospack:output_section:done
print "pypospack:lammps_sim:done"
pypospack:lammps_sim:done
#------------------------------------------------------------------------------
# RUN THERMOSTAT
# running using an NPT Nose-Hoover style thermostat
#------------------------------------------------------------------------------
variable tempdamp equal 0.1
variable pressdamp equal 1.0
# set initial velocities
velocity all create 500 6221019 mom yes dist gaussian loop all
# fix for Nose-Hoover style thermostat
fix 20 all npt temp 500 500 0.1 aniso 0.0 0.0 1.0 drag 1.0 couple xyz
variable boxx equal lx
variable boxy equal ly
variable boxz equal lz
variable boxp equal press
variable boxt equal temp
# calculate averages every 10000 steps
reset_timestep 0
fix 21 all ave/time 10 10 100 v_boxx v_boxy v_boxz v_boxp v_boxt file lattice.out
thermo_style custom step temp pe ke etotal press lx ly lz press pxx pyy pzz pxy pxz pyz vol
thermo_modify flush yes
thermo 100
run 100000
PPPM initialization ...
  G vector (1/distance) = 0.351923
  grid = 8 8 8
  stencil order = 5
  estimated absolute RMS force accuracy = 4.10067e-05
  estimated relative force accuracy = 2.84776e-06
  using double precision FFTs
  3d grid and FFT values/proc = 3375 512
Memory usage per processor = 3.06549 Mbytes
Step Temp PotEng KinEng TotEng Press Lx Ly Lz Press Pxx Pyy Pzz Pxy Pxz Pyz Volume 
       0          500   -110.43354   0.45241051   -109.98113    5889.1688     4.343513     4.343513     4.343513    5889.1688    1253.8595    13049.899    3363.7481    1106.1759    642.65213    388.73879    81.945171 
     100    197.09106   -110.09477   0.17833213   -109.91644   -7490.0898    4.3665561    4.3665561    4.3665561   -7490.0898    -20731.08    5128.6872   -6867.8766    619.34806   -1228.4634    1809.2081    83.256307 
     200     223.5537   -109.99776   0.20227609   -109.79549    6665.9433    4.3567935    4.3567935    4.3567935    6665.9433   -13925.631     36215.23   -2291.7683    3389.9066   -1659.3654    4296.3249     82.69913 
     300    495.62416   -110.13978   0.44845115   -109.69133    6980.6176    4.3605673    4.3605673    4.3605673    6980.6176   -19494.343    50848.102   -10411.906   -656.13444    1391.7341   -1420.9276    82.914211 
     400     448.4415    -110.0175    0.4057593   -109.61174   -168.89273    4.3714511    4.3714511    4.3714511   -168.89273   -26151.078    23108.071    2536.3287    2418.9788    -2859.949    1271.1506    83.536613 
     500    535.99546   -110.04202   0.48497995   -109.55704   -10372.607    4.3663336    4.3663336    4.3663336   -10372.607     -20931.4   -619.31528   -9567.1044    3571.9891   -1650.6337    1854.0661    83.243579 
     600    550.06622   -110.03207   0.49771147   -109.53436    5191.7237    4.3668356    4.3668356    4.3668356    5191.7237   -21433.893    46989.467   -9980.4032   -926.52464    1572.5009   -2494.7219    83.272296 
     700    359.63862    -109.8548   0.32540858   -109.52939    17765.695    4.3694344    4.3694344    4.3694344    17765.695   -26518.668    70557.383     9258.369   -898.51993   -3296.2443   -1734.3573    83.421052 
     800    531.09868   -110.01302   0.48054925   -109.53247   -7735.8791    4.3678255    4.3678255    4.3678255   -7735.8791   -18854.354    13649.226   -18002.509    2763.0245   -1149.5688     5894.255    83.328935 
     900    581.29433      -110.06   0.52596732   -109.53403   -6819.6028    4.3625071    4.3625071    4.3625071   -6819.6028   -18619.647    1378.5097   -3217.6711   -4217.8931     1050.047   -3134.7394    83.024918 
    1000     536.0411   -110.02161   0.48502125   -109.53659   -966.16066    4.3763405    4.3763405    4.3763405   -966.16066    -31630.27    33672.232   -4940.4441     -2452.71   -2621.0396    1038.8087    83.817233 
    1100    470.66411   -109.96308   0.42586678   -109.53721    4467.2334    4.3641018    4.3641018    4.3641018    4467.2334   -20529.257    50372.467    -16441.51   -1095.0429   -1099.3867    5110.7496    83.115998 
    1200    291.20739   -109.80393   0.26349057   -109.54044     6847.619    4.3627196    4.3627196    4.3627196     6847.619   -20253.573    43305.051   -2508.6211   -3105.2094    561.52051   -3139.7969    83.037048 
    1300    650.97508   -110.12286   0.58901593   -109.53385   -14043.168    4.3789647    4.3789647    4.3789647   -14043.168   -31724.862   -3246.6752   -7157.9679   -4437.2159    118.04537    -5270.971    83.968104 
    1400    823.85549   -110.27465   0.74544176    -109.5292    1855.3922    4.3573162    4.3573162    4.3573162    1855.3922   -9539.9266    23342.816   -8236.7134    3031.2346    -1938.256    2311.1205    82.728894 
    1500    152.23419   -109.67635   0.13774469   -109.53861    6325.1245    4.3743617    4.3743617    4.3743617    6325.1245   -30366.082    53020.755   -3679.2988   -4334.9325    1388.3506   -669.40611     83.70359 
    1600    419.75393    -109.9137   0.37980218    -109.5339    4356.5362    4.3712281    4.3712281    4.3712281    4356.5362   -25380.809    40529.188   -2078.7699   -148.01071    2037.9652    1034.0522     83.52383 
    1700    735.95182   -110.19294   0.66590467   -109.52703    8212.5384    4.3576717    4.3576717    4.3576717    8212.5384   -8956.2382    39635.575   -6041.7219    5129.8118   -2479.7287     3440.804    82.749145 
    1800    431.60745   -109.92585   0.39052749   -109.53532   -15183.849    4.3755301    4.3755301    4.3755301   -15183.849   -32737.035   -9372.0803   -3442.4311   -3506.3056     138.1448    -2108.209    83.770676 
    1900    441.27586   -109.93426   0.39927567   -109.53498    4098.1949    4.3616556    4.3616556    4.3616556    4098.1949   -17689.476    33372.823   -3388.7623   -1037.3115    674.61655   -7661.2549    82.976309 
    2000    521.66499   -110.00552   0.47201344   -109.53351    1880.3464    4.3740466    4.3740466    4.3740466    1880.3464   -28255.948    53242.239   -19345.253    1879.5611   -1292.8685   -1354.4605    83.685501 
    2100    420.75134   -109.91388   0.38070465   -109.53318    12346.974    4.3613186    4.3613186    4.3613186    12346.974   -14663.893    42710.777    8994.0368   -8782.0548     680.0548   -7504.2546    82.957078 
    2200    566.47035   -110.04907   0.51255428   -109.53651   -18177.057    4.3715484    4.3715484    4.3715484   -18177.057   -23479.869   -13285.996   -17765.306   -2462.5601    150.03609   -5617.1216    83.542195 
    2300    602.52679     -110.079    0.5451789   -109.53382   -4792.6226    4.3688971    4.3688971    4.3688971   -4792.6226   -21267.305    14352.562   -7463.1256    4099.0259   -1994.0401    1686.0858    83.390283 
    2400    473.39346   -109.96028   0.42833635   -109.53194    12579.471    4.3644734    4.3644734    4.3644734    12579.471   -19141.177    52261.775    4617.8152    -2608.811     1382.942    5497.3151    83.137228 
    2500    330.93991   -109.83605   0.29944138   -109.53661   -5104.8734    4.3744268    4.3744268    4.3744268   -5104.8734   -29184.727    31679.481   -17809.374   -4021.7803    875.37056   -1009.7125    83.707324 
    2600    430.79302   -109.92352   0.38979057   -109.53373    5553.5579    4.3622916    4.3622916    4.3622916    5553.5579   -20994.616    34481.944    3173.3465     10345.38   -1771.2282    5295.6083     83.01261 
    2700    757.81912   -110.21689   0.68569067    -109.5312   -10162.134    4.3719086    4.3719086    4.3719086   -10162.134     -24319.6   -3567.7102   -2599.0905   -5370.4823    595.15562   -543.93497    83.562848 
    2800    421.08638   -109.91647   0.38100781   -109.53546    4685.4199    4.3647272    4.3647272    4.3647272    4685.4199   -12281.871    29990.769   -3652.6382   -3000.5183    197.23849   -7349.4652    83.151733 
    2900    316.87179    -109.8243   0.28671225   -109.53759    2440.3435    4.3684718    4.3684718    4.3684718    2440.3435   -27360.707    38881.113    -4199.376    6012.9395   -1035.2401   -1782.0214    83.365933 
    3000    521.35337   -110.00433   0.47173148    -109.5326    5021.9422    4.3700043    4.3700043    4.3700043    5021.9422   -14334.932    31384.984   -1984.2251   -3194.4152   -196.79959   -2217.4607    83.453699 
    3100    595.20057   -110.07073   0.53854998   -109.53218   -1191.8229    4.3662474    4.3662474    4.3662474   -1191.8229   -12811.337    14065.842   -4829.9741   -850.46672   -2237.3785   -5224.6146    83.238648 
    3200    436.19071   -109.92648   0.39467452    -109.5318   -17202.254    4.3714967    4.3714967    4.3714967   -17202.254   -26322.562    -17770.63   -7513.5702    6456.5852    468.34781    1713.7091    83.539231 
    3300    491.70591   -109.97644   0.44490584   -109.53154    12925.087    4.3586025    4.3586025    4.3586025    12925.087   -5130.7791    43078.058    827.98259    1260.5414     276.9571      9425.41    82.802186 
    3400    494.31759   -109.97912   0.44726894   -109.53185    738.67827    4.3755677    4.3755677    4.3755677    738.67827   -20663.785    42885.315   -20005.496    3647.3179    277.82499   -205.76282    83.772839 
    3500    320.79107   -109.82254    0.2902585   -109.53228    11295.115    4.3608505    4.3608505    4.3608505    11295.115   -12682.658    44079.888    2488.1162     5199.803    1447.1892    6127.6761    82.930367 
    3600    606.79713    -110.0788   0.54904279   -109.52976   -10007.327    4.3736414    4.3736414    4.3736414   -10007.327    -17320.99     785.3567   -13486.347     709.1784    -104.4424    1432.9099    83.662245 
    3700    752.76872   -110.20787   0.68112095   -109.52675   -2667.1631    4.3645219    4.3645219    4.3645219   -2667.1631   -9673.2906    14682.399   -13010.598   -568.77592   -68.679833   -352.61557    83.140004 
    3800    262.92294   -109.77116    0.2378982   -109.53326    11007.096    4.3642279    4.3642279    4.3642279    11007.096   -18707.738    45731.048    5997.9774    4132.9414    1401.2134   -2249.1558    83.123201 
    3900    319.11339   -109.82065    0.2887405   -109.53191   -1451.7798    4.3747913    4.3747913    4.3747913   -1451.7798   -17479.632    36088.033    -22963.74    1167.3919    876.48716     2624.509    83.728254 
    4000    769.97641   -110.22215   0.69669084   -109.52546     1493.922    4.3617469    4.3617469    4.3617469     1493.922   -9923.3286    26643.706   -12238.612   -2574.2551   -579.86827   -2109.9493    82.981519 
    4100    430.05336   -109.92084   0.38912132   -109.53172   -6470.4593    4.3729897    4.3729897    4.3729897   -6470.4593   -15658.509    4769.4008   -8522.2692    6244.2709    238.86107    3711.2423    83.624855 
    4200    522.19402   -110.00464   0.47249212   -109.53215    -2489.309    4.3610945    4.3610945    4.3610945    -2489.309   -1957.8047    10281.403   -15791.526   -3324.3959    1578.4965       9189.5    82.944289 
    4300    567.51409   -110.04816   0.51349867   -109.53466    3828.2071    4.3678814    4.3678814    4.3678814    3828.2071   -14294.298      41510.6   -15731.681    -2804.548   -148.91064     406.7108    83.332138 
    4400    529.29124   -110.01087   0.47891383   -109.53195    11211.634    4.3653128    4.3653128    4.3653128    11211.634   -7073.7368    43669.073   -2960.4344    4356.7424    587.43188    117.68381    83.185206 
    4500    455.08098    -109.9457   0.41176683   -109.53394    -10858.44    4.3712128    4.3712128    4.3712128    -10858.44   -13822.891    3588.9186   -22341.348   -4252.8221    1597.8535    5546.2684    83.522952 
    4600      577.998   -110.05387   0.52298474   -109.53088   -2032.8376    4.3627268    4.3627268    4.3627268   -2032.8376   -8652.8722    13131.402   -10577.043   -3666.8332    236.55357    -5390.182    83.037462 
    4700    611.97576   -110.08468   0.55372853   -109.53095    3340.0728    4.3675173    4.3675173    4.3675173    3340.0728   -6393.4843    25577.993   -9164.2899    6174.9795   -138.09925   -3723.5961    83.311297 
    4800    337.26764   -109.83868   0.30516685   -109.53351    -1777.541    4.3713277    4.3713277    4.3713277    -1777.541   -16342.065     35580.73   -24571.288   -156.52695    2297.1406    4403.6761     83.52954 
    4900     365.0935   -109.86178   0.33034427   -109.53144    12312.385    4.3578706    4.3578706    4.3578706    12312.385   -5255.1779    50159.892   -7967.5585   -664.41246   -145.00057    -5739.407    82.760479 
    5000    699.89488   -110.16273    0.6332796   -109.52945   -12850.268    4.3783513    4.3783513    4.3783513   -12850.268   -15295.984    1264.6746   -24519.495    646.90286    1321.4656    1998.8162    83.932822 
    5100    546.66656   -110.02598   0.49463539   -109.53134    1450.2781    4.3600154    4.3600154    4.3600154    1450.2781    -2242.844    21226.572   -14632.894   -6060.5889    1499.0222     7614.715    82.882733 
    5200    374.93486   -109.87323   0.33924894   -109.53398    1683.9766    4.3652667    4.3652667    4.3652667    1683.9766    -9498.629    28460.837   -13910.278   -8383.1235   -354.16014   -933.62146    83.182574 
    5300    444.55565   -109.93259    0.4022433   -109.53035    3632.3357    4.3734328    4.3734328    4.3734328    3632.3357   -10932.378    41889.772   -20060.387   -274.21765    2419.4844    -955.9039    83.650275 
    5400    634.64544   -110.10063   0.57424053   -109.52639    11718.786    4.3564019    4.3564019    4.3564019    11718.786    3678.5621    36556.875   -5079.0777   -3340.2065    209.99244    7640.4465    82.676832 
    5500    474.70936   -109.95932     0.429527    -109.5298   -17394.117    4.3759876    4.3759876    4.3759876   -17394.117   -13798.799   -11348.631   -27034.922   -1290.1277    422.47535   -7161.9128    83.796959 
    5600    449.30833   -109.93535   0.40654362    -109.5288      11120.5    4.3610452    4.3610452    4.3610452      11120.5    6269.7034    31124.637   -4032.8407    5204.8793     3706.386   -3847.9331    82.941478 
    5700    704.51631   -110.16625   0.63746116   -109.52879   -8925.6382    4.3714807    4.3714807    4.3714807   -8925.6382   -19493.523    15844.524   -23127.916    5762.6159    139.97491   -3245.3116    83.538314 
    5800    214.00421   -109.72727    0.1936355   -109.53364    14922.853    4.3604706    4.3604706    4.3604706    14922.853     11033.82    43775.278    -10040.54   -5504.4585    1553.3267   -6651.5158    82.908699 
    5900    493.52607   -109.98119   0.44655276   -109.53464   -4686.7386    4.3700926    4.3700926    4.3700926   -4686.7386   -14184.334    11801.392   -11677.274    3489.0818    1316.0934   -7498.8929    83.458761 
    6000    740.47291   -110.19708   0.66999545   -109.52709   -6058.1208    4.3687292    4.3687292    4.3687292   -6058.1208   -12605.098    9918.7579   -15488.023    1229.3032    651.19545    3688.7915    83.380668 
    6100    404.68215   -109.89645   0.36616491   -109.53028    8153.7775    4.3577162    4.3577162    4.3577162    8153.7775    9319.9901    17709.572   -2568.2295   -7972.6091    512.53145   -2806.5202    82.751683 
    6200    427.33302   -109.91878    0.3866599   -109.53212   -15978.985    4.3808066    4.3808066    4.3808066   -15978.985   -32472.908    11069.183    -26533.23    2869.0357    1243.1525    468.68422    84.074102 
    6300    524.00915   -110.00051   0.47413449   -109.52638    26888.192    4.3507252    4.3507252    4.3507252    26888.192    7295.0627    66243.728    7125.7843   -663.55593   -1108.9513    6019.8457     82.35405 
    6400    535.67726     -110.019   0.48469205   -109.53431   -11333.582    4.3751205    4.3751205    4.3751205   -11333.582   -14288.528     1153.095   -20865.313    1605.7105    198.31824    -2398.053    83.747153 
    6500    467.73494   -109.95495    0.4232164   -109.53174   -7436.0741    4.3670068    4.3670068    4.3670068   -7436.0741   -10816.751   -1655.2797    -9836.192     5502.487   -513.87841   -6146.0746    83.282085 
    6600     532.8733   -110.01145   0.48215496   -109.52929    16359.309    4.3590738    4.3590738    4.3590738    16359.309    2486.2666    41893.965    4697.6954    2486.5899   -1648.5593    -2444.088    82.829045 
    6700    546.12412   -110.02272   0.49414458   -109.52857    -13785.83     4.380003     4.380003     4.380003    -13785.83   -25255.151    10998.773   -27101.111     -2312.26    1188.8537   -7342.9133    84.027845 
    6800    294.71925   -109.79269   0.26666817   -109.52602    23862.763    4.3483615    4.3483615    4.3483615    23862.763    12277.189    52564.086     6747.014    665.18192   -2565.8211    -9154.096    82.219899 
    6900    512.32426   -109.99295   0.46356176   -109.52938   -15517.235    4.3786101    4.3786101    4.3786101   -15517.235   -18804.337   -15644.528   -12102.839   -105.82043    493.16144    4423.8536    83.947707 
    7000    614.28867     -110.081    0.5558213   -109.52518    4713.8836    4.3610151    4.3610151    4.3610151    4713.8836   -6289.0759    11759.101    8671.6255   -751.53593   -964.84816   -2961.1953    82.939758 
    7100    440.48074   -109.92768   0.39855623   -109.52912    204.26267    4.3651433    4.3651433    4.3651433    204.26267    6621.4944    4539.3116   -10548.018      1459.05   -1233.0469    689.67728     83.17552 
    7200    349.42923   -109.84555   0.31617091   -109.52938    1419.7572    4.3719604    4.3719604    4.3719604    1419.7572   -24841.127    28775.314    325.08424    8810.3343     526.3979    9106.2382    83.565817 
    7300    472.97046   -109.95583   0.42795361   -109.52788    13752.533    4.3608626    4.3608626    4.3608626    13752.533    -4777.625    53008.145   -6972.9205   -1128.6658   -584.06816   -1227.8231    82.931057 
    7400    515.58967   -109.99675   0.46651637   -109.53023   -572.98551    4.3714378    4.3714378    4.3714378   -572.98551   -1795.9105    13798.181   -13721.227    7191.6483   -740.10819   -1469.0607    83.535852 
    7500    444.36686    -109.9318   0.40207248   -109.52972   -3243.0079    4.3710193    4.3710193    4.3710193   -3243.0079   -13353.928    3315.7304    309.17383    3435.0949   -514.11606    3141.9122    83.511862 
    7600     683.4426   -110.14323   0.61839323   -109.52484   -808.49654    4.3637987    4.3637987    4.3637987   -808.49654   -3451.6623    2028.6805   -1002.5078   -5936.4337   -783.96918   -6869.4142    83.098679 
    7700    478.81458   -109.96058    0.4332415   -109.52734    7992.6518    4.3693474    4.3693474    4.3693474    7992.6518    8034.2322    25705.481   -9761.7578   -371.65378    -413.0785   -5281.2694    83.416069 
    7800     317.5059   -109.81485   0.28728601   -109.52757   -791.68501    4.3733703    4.3733703    4.3733703   -791.68501   -19974.509    23245.394   -5645.9403   -429.44908   -1326.8157   -4956.8193     83.64669 
    7900    467.04585   -109.94704    0.4225929   -109.52444    14255.802    4.3583223    4.3583223    4.3583223    14255.802    -968.2403    48526.947   -4791.3009   -11835.741    948.49846   -997.78462    82.786217 
    8000    592.75187   -110.06375   0.53633435   -109.52741   -10178.315     4.377962     4.377962     4.377962   -10178.315   -16309.581    8519.1088   -22744.472    2164.3235   -1787.4067   -706.15346    83.910431 
    8100    476.75014   -109.96187   0.43137354    -109.5305   -7621.0077    4.3593039    4.3593039    4.3593039   -7621.0077   -12621.391    -6725.018   -3516.6138    2336.3417    437.11132    2987.8692    82.842166 
    8200    545.10864   -110.02675   0.49322576   -109.53352   -586.43911    4.3644752    4.3644752    4.3644752   -586.43911   -6833.8258    7322.2979   -2247.7894   -1989.4844    3833.9051     6453.883    83.137332 
    8300    678.64237   -110.14154   0.61404988   -109.52749    -17812.55    4.3808753    4.3808753    4.3808753    -17812.55   -25919.662    4937.7403   -32455.729    3891.2904   -3709.4742     -808.798    84.078061 
    8400    385.94769   -109.87195   0.34921358   -109.52273     25189.82    4.3424987    4.3424987    4.3424987     25189.82    8261.6737    54305.857    13001.928    2787.3768    6750.9226    8643.5461    81.887777 
    8500    384.62153   -109.87603   0.34801364   -109.52802   -21429.893    4.3886252    4.3886252    4.3886252   -21429.893   -40330.827     11791.39   -35750.242   -3806.1508    1298.2368   -2841.6277     84.52506 
    8600    741.34616    -110.1909   0.67078558   -109.52011    8975.5073     4.352903     4.352903     4.352903    8975.5073   -2873.8142     33404.17   -3603.8337    -798.9466   -4146.7351   -321.63903     82.47778 
    8700    506.84482   -109.98804   0.45860384   -109.52944   -6511.3475    4.3659943    4.3659943    4.3659943   -6511.3475   -15155.634    4952.0638   -9330.4724   -1237.0351    6647.4922    355.71774    83.224173 
    8800    466.71419   -109.94827   0.42229281   -109.52598   -18565.901    4.3753244    4.3753244    4.3753244   -18565.901   -21140.396    -16605.35   -17951.956   -7336.8695   -2339.4433   -3226.6599    83.758863 
    8900     614.5974   -110.07769   0.55610064   -109.52159    17653.485     4.351272     4.351272     4.351272    17653.485   -1672.9653    54834.633   -201.21166    238.71803   -2083.2431   -2082.7453    82.385102 
    9000    505.11011   -109.98099   0.45703424   -109.52395   -8670.6507    4.3779225    4.3779225    4.3779225   -8670.6507   -15874.719    11766.975   -21904.208   -1064.0348    4456.5559    -1911.855    83.908162 
    9100    366.78622   -109.85847   0.33187588   -109.52659    4751.4363      4.35709      4.35709      4.35709    4751.4363   -17182.459    30135.651    1301.1168   -5737.0521   -3482.5903    1860.6238    82.716011 
    9200    511.50488   -109.99023   0.46282036   -109.52741    -3230.679    4.3685337    4.3685337    4.3685337    -3230.679    -10883.14    15786.025   -14594.921   -2783.3704   -3101.8724   -2478.5996    83.369478 
    9300    753.91072   -110.20647   0.68215426   -109.52432    -4076.625    4.3629681    4.3629681    4.3629681    -4076.625   -6054.3597    7207.4587   -13382.974    4166.6011     4061.438    5128.0596    83.051238 
    9400    321.40079   -109.82052   0.29081019   -109.52971    -10624.42    4.3684449    4.3684449    4.3684449    -10624.42   -18980.269   -5304.5191    -7588.471   -10236.169    -6992.168    1630.0361    83.364392 
    9500    521.04368   -109.99919   0.47145127   -109.52774    1687.5194    4.3611222    4.3611222    4.3611222    1687.5194   -10581.565    26841.125   -11197.001    333.79277    -4187.213    595.17547    82.945872 
    9600    599.14013   -110.06813   0.54211458   -109.52601    181.76452    4.3677653    4.3677653    4.3677653    181.76452   -10496.104    26033.966   -14992.568    -16.02601    3783.8235    638.64498    83.325491 
    9700    311.35893   -109.81296    0.2817241   -109.53123   -6905.8662    4.3660696    4.3660696    4.3660696   -6905.8662   -30015.382    23489.576   -14191.792    -10116.31   -9928.1472    3420.4506    83.228482 
    9800    448.41032   -109.93594   0.40573108   -109.53021    4968.7443    4.3581135    4.3581135    4.3581135    4968.7443   -487.35595    14666.596    726.99273    2863.3211   -111.09336   -7214.3997     82.77432 
    9900    815.31942   -110.26375   0.73771814   -109.52603     -16679.2    4.3732485    4.3732485    4.3732485     -16679.2   -20547.963   -5883.4313   -23606.207    -1391.279    118.89628    -1246.538    83.639703 
   10000    395.18546   -109.88755   0.35757211   -109.52997    1124.0409    4.3582895    4.3582895    4.3582895    1124.0409   -9928.6834    15982.338   -2681.5319   -8335.4751   -10487.552    1542.4627    82.784346 
   10100    363.99023   -109.86159   0.32934601   -109.53224   -1811.5166    4.3663477    4.3663477    4.3663477   -1811.5166   -17723.489    17215.432   -4926.4928    1225.8099    2618.4315   -8137.6003    83.244387 
   10200    681.21882   -110.14379    0.6163811   -109.52741   -6141.5216    4.3684813    4.3684813    4.3684813   -6141.5216   -16875.998    18114.216   -19662.783    5190.0255   -1845.2911    4655.9472    83.366478 
   10300    336.64461   -109.83314   0.30460312   -109.52853    10347.573    4.3581797    4.3581797    4.3581797    10347.573   -10815.825    46587.097   -4728.5526    -5871.435   -5807.9214   -4578.2783    82.778088 
   10400    433.95307   -109.92204   0.39264986   -109.52939   -15607.001    4.3724791    4.3724791    4.3724791   -15607.001   -18132.821   -12694.245   -15993.938    1436.9735   -28.470642   -1821.9959    83.595564 
   10500    626.21475   -110.09062   0.56661227     -109.524     3696.159    4.3581344    4.3581344    4.3581344     3696.159   -811.96657    15742.365   -3841.9217    6571.0823   -2095.1679    1032.7154    82.775507 
   10600    613.53683   -110.08104   0.55514102    -109.5259   -11670.072     4.370418     4.370418     4.370418   -11670.072   -18720.121    1026.5187   -17316.615   -2412.2651   -3447.7016   -1768.1731      83.4774 
   10700    424.09725   -109.91066    0.3837321   -109.52692   -3610.3396    4.3648148    4.3648148    4.3648148   -3610.3396   -13114.327     3385.338   -1102.0299    2498.3513   -423.50313   -836.88718    83.156744 
   10800    462.40727   -109.94572   0.41839581   -109.52732    4490.7006    4.3620228    4.3620228    4.3620228    4490.7006   -3737.9538    35324.357   -18114.302    7416.9575   -1626.9425   -3557.3884    82.997266 
   10900    578.78231   -110.05061   0.52369439   -109.52692    458.34194    4.3662192    4.3662192    4.3662192    458.34194   -14478.992    31045.835   -15191.817   -6914.4728    -3672.361    2861.7496    83.237037 
   11000    399.49744   -109.89114   0.36147368   -109.52967    4330.2897    4.3652564    4.3652564    4.3652564    4330.2897   -3543.9729    24188.542   -7653.7005   -275.36545     500.6162   -4123.9206    83.181984 
   11100    528.89951   -110.00762   0.47855939   -109.52906   -11838.241     4.366788     4.366788     4.366788   -11838.241   -5960.9796   -7633.1143   -21920.629    6960.3438   -749.52387   -2795.0862    83.269568 
   11200    635.37468   -110.10088   0.57490036   -109.52598    3137.8407    4.3605571    4.3605571    4.3605571    3137.8407    7129.9784    13444.611   -11161.067   -5876.8999   -3904.4545     3813.839    82.913632 
   11300    526.70547   -110.00395   0.47657417   -109.52738   -13121.596     4.374003     4.374003     4.374003   -13121.596   -13210.521    -9472.182   -16682.084    7565.3537    969.12104   -5150.1146    83.682999 
   11400    385.25708    -109.8762    0.3485887   -109.52761    10343.137    4.3544237    4.3544237    4.3544237    10343.137    6247.8983    35942.382   -11160.869    6042.3684   -867.37585    38.411519    82.564255 
   11500    446.63437   -109.93176   0.40412416   -109.52764   -1213.8984    4.3769679    4.3769679    4.3769679   -1213.8984    3478.0073     20562.54   -27682.243    5498.0034   -3632.7395    4651.5214    83.853286 
   11600    569.47088   -110.03933   0.51526922   -109.52406    8081.6392    4.3605483    4.3605483    4.3605483    8081.6392   -2193.4225    30670.968   -4232.6282    7472.6245   -365.70004   -547.64364    82.913131 
   11700    337.46019   -109.83436   0.30534107   -109.52902    1451.5758    4.3648424    4.3648424    4.3648424    1451.5758    11164.021    6318.4238   -13127.717     4586.902   -4965.9497    4685.5862    83.158317 
   11800    595.45455    -110.0621   0.53877979   -109.52332   -10084.248       4.3725       4.3725       4.3725   -10084.248    3496.2451   -10119.253   -23629.737   -224.49782   -5631.5717    4885.5934     83.59676 
   11900     672.6698   -110.13123   0.60864578   -109.52258    9355.9771    4.3553984    4.3553984    4.3553984    9355.9771    8414.1052    14538.473    5115.3529    -3089.508    -735.8421    932.82535    82.619711 
   12000    434.43708   -109.92136    0.3930878   -109.52827   -10546.853    4.3737784    4.3737784    4.3737784   -10546.853    550.97507   -11161.676   -21029.857    2181.2459   -4982.1375    1646.1318     83.67011 
   12100    415.51954   -109.90119   0.37597082   -109.52522    11537.378    4.3653979    4.3653979    4.3653979    11537.378    9954.1146    33155.736   -8497.7178   -3352.4577   -6565.0485    80.763559    83.190075 
   12200    729.35706   -110.17983    0.6599376   -109.51989    1335.2777    4.3634966    4.3634966    4.3634966    1335.2777   -4485.7463     18034.76   -9543.1806   -2757.5047     1545.175    -2.497846    83.081423 
   12300     279.6381   -109.77981   0.25302243   -109.52679    10794.384    4.3635241    4.3635241    4.3635241    10794.384    13213.525    26592.843   -7423.2164    6258.8332   -4852.1742    -5064.805    83.082995 
   12400    507.72798   -109.99053   0.45940294   -109.53112   -11346.358    4.3696559    4.3696559    4.3696559   -11346.358   -8599.5437   -2434.6697    -23004.86    551.20788   -4463.7778    3487.5825     83.43374 
   12500    621.37486   -110.08894   0.56223303   -109.52671    15309.566    4.3575771    4.3575771    4.3575771    15309.566    27858.067    18252.909   -182.27735    8308.5423     3697.845    -2903.966    82.743757 
   12600    530.65438   -110.01021   0.48014723   -109.53007   -19147.785    4.3769742    4.3769742    4.3769742   -19147.785   -13885.902   -15047.505   -28509.949    4188.2477   -3792.3371   -2327.7216    83.853649 
   12700    285.83621   -109.78759   0.25863061   -109.52896    9606.6866    4.3562078    4.3562078    4.3562078    9606.6866    28269.385    4611.8252     -4061.15    953.76605   -1242.8078    4760.6807    82.665782 
   12800    707.56771   -110.16567   0.64022214   -109.52545    277.05896    4.3635342    4.3635342    4.3635342    277.05896     6211.105    8267.2694   -13647.198   -1004.6737    4315.6753   -1360.2449    83.083569 
   12900    430.86429   -109.91741   0.38985507   -109.52756   -10256.355    4.3737083    4.3737083    4.3737083   -10256.355   -7014.8016   -459.59481   -23294.668    41.737215    -2395.905      2972.37    83.666084 
   13000    283.58046   -109.78355   0.25658956   -109.52696     15239.89    4.3504383    4.3504383    4.3504383     15239.89    26771.105    21801.292    -2852.727    1163.5045   -1220.9323    4621.8139    82.337762 
   13100     656.9933   -110.11701   0.59446134   -109.52255   -10836.872    4.3768321    4.3768321    4.3768321   -10836.872   -9059.0729    2188.6353    -25640.18   -4721.9083     2190.348    2835.0375    83.845482 
   13200    546.88091   -110.01758   0.49482934   -109.52275    7402.7522    4.3562705    4.3562705    4.3562705    7402.7522    2902.7437    21447.499   -2141.9864    3650.4435   -3016.0327    2814.1681    82.669347 
   13300    344.16671    -109.8415   0.31140927   -109.53009   -8063.3443    4.3657829    4.3657829    4.3657829   -8063.3443    8106.6394   -12523.914   -19772.758     3259.508    -1128.114    5687.3325    83.212088 
   13400     566.9876   -110.04105   0.51302229   -109.52803   -511.27565    4.3640198    4.3640198    4.3640198   -511.27565    7816.5893    1855.0435    -11205.46   -7561.9267    2106.4624   -412.88378    83.111314 
   13500    694.05482   -110.15529   0.62799539    -109.5273     1923.049    4.3585375    4.3585375    4.3585375     1923.049     5566.063    5326.9894   -5123.9052    5553.1383   -3630.9655    3372.5468    82.798479 
   13600    257.46206   -109.76477   0.23295708   -109.53181   -1256.2144    4.3710477    4.3710477    4.3710477   -1256.2144    23677.952   -3963.1113   -23483.484   -6552.1306   -1853.5992    2336.2296    83.513489 
   13700     573.4017   -110.04495   0.51882591   -109.52612    4369.4205    4.3569737    4.3569737    4.3569737    4369.4205    489.42396    16963.279    -4344.441   -4240.9932    4728.5067   -3561.2549     82.70939 
   13800    568.04686   -110.03895   0.51398074   -109.52497    4203.4485    4.3657985    4.3657985    4.3657985    4203.4485    7453.6474    12060.517   -6903.8194   -186.60513    -4114.156    2676.0587    83.212979 
   13900    500.22204   -109.97976   0.45261141   -109.52715   -5209.9727    4.3644802    4.3644802    4.3644802   -5209.9727    1765.4113    5976.6666   -23371.996   -2397.2324    -1508.139   -2714.8473    83.137619 
   14000    319.63341   -109.82011   0.28921103    -109.5309     8669.846    4.3586114    4.3586114    4.3586114     8669.846    15873.889     14061.31   -3925.6603   -4078.6074    7422.2548    -1510.354    82.802689 
   14100    745.74232   -110.20129   0.67476332   -109.52653   -7526.3326    4.3664713    4.3664713    4.3664713   -7526.3326   -6121.1156    -3313.947   -13143.935   -2879.8821   -4276.5804   -1418.5319    83.251452 
   14200    358.18158   -109.85325   0.32409022   -109.52916    4343.8796    4.3634044    4.3634044    4.3634044    4343.8796    23803.034    7130.1347    -17901.53    2242.1378     376.1192    386.59876    83.076154 
   14300    514.34423   -109.99352   0.46538947   -109.52813   -10559.219    4.3618326    4.3618326    4.3618326   -10559.219   -2616.6276   -10478.339   -18582.691   -10394.424    6960.6273   -221.31745    82.986408 
   14400     518.9435   -109.99524   0.46955098   -109.52569   -2028.9103    4.3675844    4.3675844    4.3675844   -2028.9103    1030.8212    1284.0409   -8401.5928    1730.7395   -5607.6871   -2440.5108    83.315135 
   14500    577.59173   -110.04777   0.52261713   -109.52515   -4609.5533    4.3597161    4.3597161    4.3597161   -4609.5533    3063.6331    2613.7536   -19506.046   -1189.7737    2863.0676    7515.8443    82.865668 
   14600    286.50118   -109.78899   0.25923229   -109.52976    1975.9332    4.3645937    4.3645937    4.3645937    1975.9332    5801.0543    17163.275    -17036.53   -6149.7364     6387.065   -3435.1159    83.144106 
   14700    665.46122   -110.12732   0.60212329   -109.52519   -7082.5252    4.3670654    4.3670654    4.3670654   -7082.5252   -13314.129    8100.7068   -16034.154     3285.384    -2918.971    2399.1473    83.285439 
   14800    413.54669    -109.8997   0.37418573   -109.52551    10793.592     4.359328     4.359328     4.359328    10793.592    12764.346    34487.081   -14870.652    4540.6414    3149.5565    2257.4749    82.843541 
   14900    501.11114    -109.9806   0.45341589   -109.52719   -14053.645    4.3693972    4.3693972    4.3693972   -14053.645   -7426.1114   -7969.2787   -26765.545   -1623.7151    5231.6511   -4678.7952     83.41892 
   15000    427.64361   -109.91329   0.38694092   -109.52635    11405.565    4.3588275    4.3588275    4.3588275    11405.565    19862.987    16492.583   -2138.8732    3894.9788   -1217.0986    2810.9672    82.815007 
   15100    652.93791   -110.11763   0.59079194   -109.52683    -5999.906    4.3662225    4.3662225    4.3662225    -5999.906    1484.2501    1012.2647   -20496.233    949.30689   -2129.1456   -2458.0287    83.237223 
   15200    355.66791   -109.85177    0.3218158   -109.52995    6107.3586    4.3635541    4.3635541    4.3635541    6107.3586    20330.836    16840.803   -18849.563   -8055.9557    4913.5685   -1960.8892    83.084707 
   15300    631.98217   -110.09906   0.57183075   -109.52723    5138.6886    4.3581819    4.3581819    4.3581819    5138.6886   -7205.6435    23986.658   -1364.9489   -1984.9791   -1845.7307   -1854.3401    82.778212 
   15400    424.93651   -109.91124   0.38449149   -109.52674    1327.4379    4.3729959    4.3729959    4.3729959    1327.4379    9011.5044    19304.821   -24334.011    3821.9686   -893.66313   -1065.8691     83.62521 
   15500    592.56262    -110.0603   0.53616311   -109.52414    1471.4482     4.355189     4.355189     4.355189    1471.4482    994.03196    15266.228   -11845.916   -5210.6963    6814.0894   -2632.4161    82.607793 
   15600    435.81471   -109.92129   0.39433431   -109.52696    4938.6624     4.364433     4.364433     4.364433    4938.6624    9355.0536    10385.698   -4924.7644    414.68828   -1544.6476    730.60788    83.134922 
   15700    552.43638    -110.0272   0.49985604   -109.52734   -10028.471    4.3672822    4.3672822    4.3672822   -10028.471   -185.90213   -9649.6157   -20249.894    10258.082    1002.6476   -48.073918    83.297848 
   15800    380.79563   -109.87357   0.34455189   -109.52902    6699.0825    4.3563958    4.3563958    4.3563958    6699.0825    25553.502    9630.9657    -15087.22   -6666.5598    8162.7646   -2628.6358    82.676484 
   15900    585.05249   -110.05673   0.52936778   -109.52736   -17107.345    4.3733181    4.3733181    4.3733181   -17107.345   -16918.646   -18002.081   -16401.309    1844.8808     371.7503    3622.0746    83.643692 
   16000    391.29935   -109.88153   0.35405588   -109.52747     6214.897    4.3548006    4.3548006    4.3548006     6214.897    14739.217    8841.2082   -4935.7346    5191.3619    1936.2913   -2116.2092    82.585696 
   16100    499.57258   -109.98075   0.45202377   -109.52872   -7214.6254    4.3642344    4.3642344    4.3642344   -7214.6254   -1648.4374    6397.1438   -26392.583   -2309.1514    6430.2437    223.19694    83.123572 
   16200    534.78894    -110.0096   0.48388827   -109.52571   -5865.1352     4.369219     4.369219     4.369219   -5865.1352   -4606.8692   -1422.9509   -11565.585    4563.2188   -1466.3423    1469.7648    83.408715 
   16300     501.4643   -109.97811   0.45373544   -109.52437    4870.3219    4.3541188    4.3541188    4.3541188    4870.3219    6106.8562    13186.215   -4682.1054    5687.3388    1734.5693     372.0345    82.546911 
   16400    445.96822     -109.931   0.40352142   -109.52748   -8937.0178    4.3712846    4.3712846    4.3712846   -8937.0178    8102.5265   -2589.7904   -32323.789   -6.6588629    2404.6589    2136.9652    83.527072 
   16500    547.40254     -110.021   0.49530133   -109.52569    4924.1841    4.3600393    4.3600393    4.3600393    4924.1841     10685.41    7275.9364   -3188.7947   -2643.5699   -1491.2931   -367.37911    82.884099 
   16600    508.59027   -109.98644   0.46018316   -109.52625    3225.8465    4.3593836    4.3593836    4.3593836    3225.8465    8068.0628    8969.6909   -7360.2143    8777.6049    1137.3439    505.06997    82.846707 
   16700    429.23302   -109.91531   0.38837906   -109.52693     869.1034    4.3684227    4.3684227    4.3684227     869.1034    11093.782    20823.198    -29309.67   -4319.1337     2387.988   -275.66709    83.363121 
   16800    624.56488   -110.09002   0.56511943    -109.5249    4585.6923    4.3587406    4.3587406    4.3587406    4585.6923   -3470.9013    24693.203    -7465.225     2550.258    35.972859    1592.8857    82.810057 
   16900    447.17158   -109.93274   0.40461025   -109.52813     3259.528    4.3665388    4.3665388    4.3665388     3259.528     8763.101    13726.113    -12710.63    9476.4473    1512.6481   -1034.7704    83.255318 
   17000    570.61529   -110.04297   0.51630471   -109.52666   -6666.5601    4.3654571    4.3654571    4.3654571   -6666.5601    1491.2365    6065.1017   -27556.019   -1609.6978    5809.3292    1275.8308    83.193458 
   17100    464.67767   -109.94662   0.42045012   -109.52617     14224.35    4.3543124    4.3543124    4.3543124     14224.35    27967.242    16349.944    -1644.136    1926.1064   -1871.4786    618.20849    82.557923 
   17200    511.37041   -109.98997   0.46269869   -109.52727    -12071.45     4.373474     4.373474     4.373474    -12071.45   -123.28206   -16741.792   -19349.275     3289.289    3646.1881   -1369.6653    83.652639 
   17300    403.50315   -109.89136   0.36509813   -109.52627    4969.3069    4.3588161    4.3588161    4.3588161    4969.3069        25819    12008.103   -22919.183   -2680.6521    7451.3773    3608.4681    82.814359 
   17400    644.98279   -110.10985   0.58359398   -109.52626   -4911.9455    4.3626067    4.3626067    4.3626067   -4911.9455   -707.66907    1153.0672   -15181.235   -5870.1788   -591.05087   -125.51914    83.030601 
   17500     374.3467   -109.86766   0.33871676   -109.52894   -6688.4143    4.3706533    4.3706533    4.3706533   -6688.4143   -723.51665   -149.59739   -19192.129    8978.6615    3621.0859    155.69334    83.490884 
   17600    583.00714   -110.05272   0.52751711    -109.5252    1467.1408    4.3514856    4.3514856    4.3514856    1467.1408    6699.8745     11665.19   -13963.642   -1943.2768    6479.6547    2654.9025    82.397235 
   17700    474.84687   -109.95606   0.42965142   -109.52641   -6333.1018    4.3753889    4.3753889    4.3753889   -6333.1018    5826.3096   -1504.7483   -23320.867    6270.5542   -2783.9341    2363.6292    83.762566 
   17800     526.5965   -110.00323   0.47647558   -109.52675    3324.9722    4.3547156    4.3547156    4.3547156    3324.9722    11177.108    3034.0098   -4236.2012    11529.175    63.946269    1156.4353    82.580859 
   17900    321.63401   -109.82199   0.29102121   -109.53097    4278.0213    4.3619029    4.3619029    4.3619029    4278.0213    37440.029   -1737.9845    -22867.98   -481.59903    6533.7879    5002.3133    82.990421 
   18000    638.10471   -110.10066   0.57737055   -109.52329   -14418.991    4.3740706    4.3740706    4.3740706   -14418.991    2668.7065   -16133.881   -29791.798    5260.1747   -4208.3255    3175.9483    83.686879 
   18100    464.00324   -109.94188   0.41983988   -109.52204    12538.025     4.349856     4.349856     4.349856    12538.025    19075.455    13024.512    5514.1081    1763.0943   -2738.3992     763.9049    82.304703 
   18200    494.75596   -109.97359   0.44766559   -109.52592   -18506.582    4.3714175    4.3714175    4.3714175   -18506.582    964.59613    -22673.14   -33811.203    -22.22391    5457.4126    8909.8905    83.534691 
   18300    604.10582   -110.07121   0.54660764    -109.5246    1506.4626    4.3619915    4.3619915    4.3619915    1506.4626   -1908.8016    15971.923   -9543.7339   -2704.3277   -1960.6922   -1088.0291     82.99548 
   18400    532.75702   -110.00797   0.48204975   -109.52592   -1806.5024    4.3613704    4.3613704    4.3613704   -1806.5024    10813.138   -2029.0442   -14203.601    8350.0222   -3116.2076    275.46697     82.96003 
   18500    375.14191   -109.86905   0.33943629   -109.52962   -4056.5459     4.365872     4.365872     4.365872   -4056.5459    12535.114   -103.75953   -24600.992    712.45891    7952.7231    6458.7264    83.217183 
   18600    508.56564    -109.9865   0.46016088   -109.52634    3375.5954    4.3638708    4.3638708    4.3638708    3375.5954    20065.585    11172.836   -21111.635    1251.5551   -1935.6755   -7125.9637    83.102798 
   18700    455.51498   -109.93835   0.41215953   -109.52619    10017.074    4.3606854    4.3606854    4.3606854    10017.074    23620.205    16540.444   -10109.427    14173.642   -2903.8664    2989.5617    82.920947 
   18800    376.67189   -109.86875   0.34082064   -109.52793   -536.32905    4.3673401    4.3673401    4.3673401   -536.32905    14795.072    7948.4154   -24352.474   -2401.4187     9271.416   -1059.4252    83.301156 
   18900    509.62601   -109.98476   0.46112033   -109.52364    3435.6304    4.3633934    4.3633934    4.3633934    3435.6304    4658.1434    23501.295   -17852.547    6847.9983   -3085.4868   -5015.0798    83.075527 
   19000    607.47777   -110.07493   0.54965865   -109.52527    2614.5254    4.3603187    4.3603187    4.3603187    2614.5254    3565.8925    10997.161    -6719.477      465.743   -2286.3561    2072.5314    82.900031 
   19100     451.6243   -109.93474   0.40863915    -109.5261   -11695.336    4.3714185    4.3714185    4.3714185   -11695.336   -11242.216    5190.3818   -29034.175   -668.73611    8323.6098   -1345.5076    83.534749 
   19200    612.53478    -110.0787   0.55423434   -109.52447    1862.3757    4.3544774    4.3544774    4.3544774    1862.3757    4547.8399    8507.0614   -7467.7743   -8258.1043   -4970.5562   -1104.9877    82.567309 
   19300    610.69321   -110.07879   0.55256805   -109.52622   -10320.397    4.3752759    4.3752759    4.3752759   -10320.397   -10018.906    4378.2913   -25320.575   -1865.5002   -3351.5104    232.89662    83.756076 
   19400     541.7769   -110.01536   0.49021112   -109.52515   -1735.5859    4.3607777    4.3607777    4.3607777   -1735.5859    2057.5032    6356.5478   -13620.809    3829.6149    5041.8389    2555.8759    82.926217 
   19500    462.88844    -109.9453   0.41883119   -109.52647    335.05776    4.3616568    4.3616568    4.3616568    335.05776    9841.8443    10437.183   -19273.854   -6407.4454    -8336.228   -2166.9407    82.976376 
   19600    524.91813   -109.99931   0.47495696   -109.52435   -4028.1795     4.372214     4.372214     4.372214   -4028.1795   -7905.1962    19690.236   -23869.578    10355.849   -5084.2461    4044.8457    83.580359 
   19700    489.31614    -109.9659   0.44274352   -109.52315    17105.755    4.3509864    4.3509864    4.3509864    17105.755    27542.258    24566.945   -791.93659    5813.6936    2149.1328    631.35906    82.368883 
   19800    308.08118    -109.8068   0.27875833   -109.52804   -10490.829    4.3758322    4.3758322    4.3758322   -10490.829    7900.0184   -3968.0953   -35404.409   -1915.5913   -12063.524   -1119.0682     83.78803 
   19900    616.54043   -110.07969   0.55785874   -109.52183    3274.7993    4.3583455    4.3583455    4.3583455    3274.7993    4370.1706    10645.741   -5191.5137    4829.0268   -5909.8199    1685.8815     82.78754 
   20000    465.87765     -109.946   0.42153589   -109.52447   -2693.1536    4.3660654    4.3660654    4.3660654   -2693.1536    18272.201   -6212.6894   -20138.973    2562.2122   -1070.5247    2133.8621    83.228242 
   20100     444.7202   -109.93067   0.40239218   -109.52827   -11921.256    4.3621701    4.3621701    4.3621701   -11921.256   -6758.7715   -6141.8793   -22863.118   -3804.8889   -12199.188   -4501.6409    83.005677 
   20200    452.32194   -109.94092    0.4092704   -109.53165    7667.5771    4.3589529    4.3589529    4.3589529    7667.5771   -7141.5713    33302.206   -3157.9039   -4716.3388   -4452.7814   -998.90313    82.822156 
   20300    580.91178   -110.05573   0.52562118   -109.53011   -58.471747    4.3658518    4.3658518    4.3658518   -58.471747   -6361.2743    19827.046   -13641.187    1011.3193   -1485.0803   -1796.3762    83.216027 
   20400    275.17796    -109.7805    0.2489868   -109.53151    2083.1439    4.3669641    4.3669641    4.3669641    2083.1439   -12906.024     37867.08   -18711.624    -4944.297   -9934.0448   -7540.5613    83.279645 
   20500    606.60138   -110.07341   0.54886567   -109.52454   -835.48218    4.3628673    4.3628673    4.3628673   -835.48218    -16209.96    18099.336    -4395.823   -3936.2452   -1807.3267   -373.19034    83.045484 
   20600    645.88695   -110.10812   0.58441208   -109.52371    7593.1222    4.3562278    4.3562278    4.3562278    7593.1222     4055.996    21860.532   -3137.1616    2736.9788    171.74253   -3182.1741     82.66692 
   20700    324.55343   -109.82339   0.29366277   -109.52973   -16461.313    4.3756058    4.3756058    4.3756058   -16461.313   -27253.806    4913.5387   -27043.671     -3199.72   -9291.9289   -1264.4362    83.775027 
   20800    491.86683   -109.97079   0.44505144   -109.52573    16477.637    4.3506797    4.3506797    4.3506797    16477.637    4094.6249    35856.571    9481.7149   -8184.2718     470.0856    511.11774    82.351467 
   20900    598.80525   -110.06725   0.54181157   -109.52544   -5019.0899    4.3725988    4.3725988    4.3725988   -5019.0899   -15609.445    23074.095    -22521.92    6456.6017    2159.0509    3687.2507    83.602431 
   21000     314.1363   -109.81436   0.28423713   -109.53012   -3841.1977    4.3631297    4.3631297    4.3631297   -3841.1977    -7861.364    9084.8546   -12747.084   -9005.4158   -8142.6192   -3033.1176    83.060465 
   21100    515.20313   -109.99488   0.46616662   -109.52872    9107.2431    4.3521141    4.3521141    4.3521141    9107.2431    5660.4589    17879.768    3781.5026   -5824.4306    5434.8453    3370.1954    82.432947 
   21200    626.89575   -110.09275   0.56722845   -109.52552   -12596.514    4.3770642    4.3770642    4.3770642   -12596.514   -5925.5123   -11171.158   -20692.872    8363.4722    3555.9882   -1674.5334    83.858819 
   21300    429.91621   -109.91622   0.38899722   -109.52723    6131.2888    4.3498689    4.3498689    4.3498689    6131.2888    9158.1877    3129.7605    6105.9182   -10691.593    -6330.971   -4751.3828    82.305433 
   21400    313.01238   -109.81568   0.28322018   -109.53246   -1250.4229    4.3709591    4.3709591    4.3709591   -1250.4229   -1866.8937     15192.17   -17076.545    953.59464    6805.0749   -805.75628    83.508415 
   21500    694.93466    -110.1547   0.62879148    -109.5259    4022.5307    4.3621346    4.3621346    4.3621346    4022.5307   -2733.5479    20555.845   -5754.7051    472.16877    3738.8998   -4774.3827    83.003648 
   21600    330.64341   -109.82774   0.29917311   -109.52857    11884.259    4.3558553    4.3558553    4.3558553    11884.259    2891.9358    31691.131    1069.7099   -2627.6818   -5601.0297   -6075.0973    82.645713 
   21700    404.46094   -109.89486   0.36596475    -109.5289   -13751.291    4.3737781    4.3737781    4.3737781   -13751.291   -16346.044    4005.5026    -28913.33   -10429.118    3894.4465   -2143.5588    83.670088 
   21800    701.89634   -110.15694   0.63509055   -109.52185    13122.102    4.3555526    4.3555526    4.3555526    13122.102    10697.636    24296.598    4372.0725   -3.2099944    3299.4201   -856.64074    82.628482 
   21900    596.93381   -110.06662   0.54011826    -109.5265     -8127.39    4.3688684    4.3688684    4.3688684     -8127.39   -15139.843    1414.5562   -10656.883   -3658.9161   -5916.1038   -1691.6541    83.388642 
   22000    381.93324    -109.8752   0.34558123   -109.52962   -2517.7044    4.3624838    4.3624838    4.3624838   -2517.7044    6859.5598   -119.52419   -14293.149   -12449.198    3965.3553    6393.0837    83.023584 
   22100    605.84318   -110.07648   0.54817964    -109.5283    7287.4653    4.3632346    4.3632346    4.3632346    7287.4653   -2352.5917    29168.217   -4953.2297     7239.868    1107.0916    4545.7055     83.06646 
   22200    555.17392   -110.02999   0.50233303   -109.52765    3913.4142    4.3656453    4.3656453    4.3656453    3913.4142     3905.831    20861.676   -13027.265   -2598.4877   -5335.3971    3579.5879    83.204215 
   22300    151.68802   -109.66991    0.1372505   -109.53266    5591.3785    4.3623469    4.3623469    4.3623469    5591.3785    7408.2798    26147.447   -16781.591    -5798.807    7373.3123    3514.7633    83.015767 
   22400    619.42799    -110.0884   0.56047146   -109.52792    1007.6441    4.3623236    4.3623236    4.3623236    1007.6441    4092.9029    11259.397   -12329.368    2147.9291    641.23834    6729.2549    83.014437 
   22500    574.85208    -110.0478   0.52013825   -109.52767    1939.7968     4.365409     4.365409     4.365409    1939.7968    5527.9145    4103.1376   -3811.6618   -3571.0284   -4786.6332   -2663.0319    83.190705 
   22600    363.17458    -109.8604   0.32860799    -109.5318   -11646.227    4.3628625    4.3628625    4.3628625   -11646.227   -14911.248   -10315.447   -9711.9868   -14425.658    9393.7369    2721.4527    83.045206 
   22700    556.74789   -110.03332   0.50375719   -109.52956    1974.2516    4.3615584    4.3615584    4.3615584    1974.2516   -2581.1846    14640.729   -6136.7897     249.1938    1188.0865   -1330.8574     82.97076 
   22800    641.51101   -110.10626   0.58045265    -109.5258   -3702.9809    4.3690732    4.3690732    4.3690732   -3702.9809   -13220.694    9981.0162    -7869.265   -3950.8417   -1248.5602   -7318.9836    83.400366 
   22900    332.46331   -109.83025   0.30081979   -109.52943    3002.8402      4.35754      4.35754      4.35754    3002.8402   -12080.315    24510.585   -3421.7492   -10166.044    9242.5566    690.59563    82.741644 
   23000    423.37699    -109.9119    0.3830804   -109.52882   -2090.3184    4.3698032    4.3698032    4.3698032   -2090.3184   -6710.6337    21007.044   -20567.365    6172.4533    1342.5356   -3566.2048    83.442179 
   23100    689.52664    -110.1487   0.62389819   -109.52481     8192.158    4.3577423    4.3577423    4.3577423     8192.158    4634.5569    14765.859    5176.0579    703.34126    4033.5246    -984.4098    82.753166 
   23200     377.6076   -109.87196   0.34166729   -109.53029   -5764.5461    4.3696567    4.3696567    4.3696567   -5764.5461   -8786.7004    3571.4717    -12078.41   -1417.8315     9472.573    2918.0805    83.433785 
   23300    517.22491   -109.99341   0.46799597   -109.52542   -4553.4047    4.3662535    4.3662535    4.3662535   -4553.4047    9234.4702   -7509.7008   -15384.983   -766.55178    1340.5378    3831.6877    83.238995 
   23400    601.29951   -110.06631   0.54406843   -109.52225    2933.8375     4.364157     4.364157     4.364157    2933.8375    2429.9194    12923.703   -6552.1093    -1667.461    5467.2252    2940.6478    83.119152 
   23500     394.9821   -109.88252   0.35738811   -109.52513    668.42956    4.3658782    4.3658782    4.3658782    668.42956     1184.291    12546.206   -11725.208   -12499.435    6347.4733    6923.5074    83.217532 
   23600    361.95331   -109.85474   0.32750296   -109.52724    8279.4599     4.361208     4.361208     4.361208    8279.4599    9566.1361    32924.899   -17652.655   -1851.7095    556.37361    2672.1129    82.950766 
   23700    552.02958   -110.02428   0.49948797   -109.52479   -3034.6397    4.3698097    4.3698097    4.3698097   -3034.6397   -278.51028    8680.7381   -17506.147   -2855.9765    697.18265    1073.5027    83.442553 
   23800    533.43944   -110.00605   0.48266722   -109.52338    10383.029     4.357957     4.357957     4.357957    10383.029    9342.1559    24544.538   -2737.6072    -13145.71    2060.8796   -1701.3688    82.765403 
   23900     444.4527   -109.92801   0.40215014   -109.52586   -15629.533     4.372441     4.372441     4.372441   -15629.533    9386.1706   -19485.064   -36789.706    7481.2806   -574.08194    -615.7735     83.59338 
   24000    624.14673   -110.08663   0.56474108   -109.52189    2377.4276    4.3539488    4.3539488    4.3539488    2377.4276    12801.794     -623.781   -5045.7302   -6073.5938   -2500.1402   -6537.4276    82.537241 
   24100    618.08768   -110.08437   0.55925872   -109.52511   -9235.1803    4.3720066    4.3720066    4.3720066   -9235.1803     -4064.59   -3169.6137   -20471.337    290.53125    1109.3936    63.581416    83.568463 
   24200     427.9216   -109.91495   0.38719245   -109.52776     -6976.08    4.3624302    4.3624302    4.3624302     -6976.08    7040.9311   -5209.0307    -22760.14    5341.9215   -4188.0279   -1271.5686    83.020527 
   24300    505.84455    -109.9837   0.45769878     -109.526    3073.8341    4.3588632    4.3588632    4.3588632    3073.8341    7748.3257    12378.801   -10905.625   -2115.2572   -3904.6566   -5941.2209    82.817045 
   24400    685.54301   -110.14156   0.62029372   -109.52126   -13474.921    4.3742152    4.3742152    4.3742152   -13474.921   -18641.476   -4003.4895   -17779.798    403.56971    1840.0781    6031.3617    83.695181 
   24500    305.05571   -109.80037   0.27602081   -109.52435    13686.089    4.3482411    4.3482411    4.3482411    13686.089    41681.745    13048.703   -13672.182   -4211.8042   -6866.3777    1686.1068    82.213067 
   24600    522.14341   -109.99878   0.47244633   -109.52633    -14712.92     4.372896     4.372896     4.372896    -14712.92   -6800.0688   -17020.216   -20318.475    5342.4996   -228.54967   -3179.7973    83.619474 
   24700    669.83728   -110.12671   0.60608285   -109.52062    4962.1291    4.3603058    4.3603058    4.3603058    4962.1291    15600.056    8364.9005   -9078.5696   -7779.0696   -76.216496     5102.482    82.899295 
   24800    324.46355   -109.81965   0.29358144   -109.52607   -1472.2548    4.3585966    4.3585966    4.3585966   -1472.2548    17904.426   -13247.945   -9073.2454    2710.5811   -2403.3615     -198.538    82.801847 
   24900    462.35295   -109.94429   0.41834667   -109.52594   -4881.2444    4.3665294    4.3665294    4.3665294   -4881.2444    7018.7705     -6119.35   -15543.154    3198.8482    1307.3372   -5336.1644    83.254778 
   25000      686.663   -110.14335   0.62130712   -109.52204    3676.4394    4.3610973    4.3610973    4.3610973    3676.4394   -30.803032    14368.364   -3308.2423    -8944.816    23.168268     2207.791    82.944451 
   25100    313.86373   -109.81339    0.2839905    -109.5294   -1010.4209    4.3592481    4.3592481    4.3592481   -1010.4209     18191.44   -4692.7385   -16529.965     10264.49    1231.8909   -1087.0219    82.838982 
   25200    416.27873   -109.90751   0.37665775   -109.53085   -2668.7684    4.3627027    4.3627027    4.3627027   -2668.7684   -10095.676    12495.825   -10406.454   -1479.1522   -2557.7379   -4810.6905    83.036084 
   25300    697.95976   -110.15629   0.63152866   -109.52476   -2505.1561    4.3642016    4.3642016    4.3642016   -2505.1561   -5473.3093    6510.4879   -8552.6469    449.78927    4728.1791    233.88379      83.1217 
   25400    408.16335   -109.89758   0.36931478   -109.52827    819.26613    4.3592894    4.3592894    4.3592894    819.26613    2057.6702     8747.399   -8347.2709    3612.0457    -545.6481    804.12867    82.841338 
   25500    423.27645   -109.91022   0.38298943   -109.52723   -7109.6104     4.367583     4.367583     4.367583   -7109.6104   -5980.4088    1434.7515   -16783.174    104.15981   -2796.7229   -2097.2494    83.315055 
   25600    723.37969   -110.17768   0.65452914   -109.52315    5787.9839      4.35432      4.35432      4.35432    5787.9839   -5925.8662    23889.696    -599.8779     4656.049    7679.3778   -602.19663    82.558353 
   25700    459.34285   -109.94573   0.41562307    -109.5301    -1878.524       4.3639       4.3639       4.3639    -1878.524    2131.9873    10957.394   -18724.953   -3491.5854   -3789.1928    4477.3044    83.104468 
   25800    375.36242   -109.86943   0.33963581   -109.52979   -3102.0483    4.3656131    4.3656131    4.3656131   -3102.0483   -10271.014    18450.457   -17485.588    7712.4661    -800.7631   -4988.4733    83.202376 
   25900    636.09465   -110.09893   0.57555181   -109.52337    13304.205    4.3539039    4.3539039    4.3539039    13304.205    2529.1442    27553.589    9829.8822   -1059.1601    6252.7811    1386.5792    82.534688 
   26000    493.89786   -109.97238   0.44688916   -109.52549   -4228.5006     4.369299     4.369299     4.369299   -4228.5006    -6703.771    12531.101   -18512.832   -156.17825   -2636.9387   -445.86964    83.413296 
   26100    373.39293   -109.86619   0.33785377   -109.52834   -1017.8098    4.3575594    4.3575594    4.3575594   -1017.8098    3140.7068    918.58847   -7112.7247    8438.9743    2807.5129   -6814.0727    82.742751 
   26200     535.2845   -110.01252   0.48433666   -109.52818     3023.867    4.3580369    4.3580369    4.3580369     3023.867   -4262.1254    20672.133   -7338.4065   -5250.5355    9839.1148    2823.2847     82.76995 
   26300    606.48747   -110.07479   0.54876261   -109.52603   -8738.4405    4.3687987    4.3687987    4.3687987   -8738.4405   -3625.0783   -7204.7399   -15385.503    4432.7845   -1485.1954   -1993.7069    83.384649 
   26400    317.38357    -109.8151   0.28717532   -109.52792    931.74911    4.3575626    4.3575626    4.3575626    931.74911    4436.5714    8923.2593   -10564.583   -413.03036    4541.0487     563.7242    82.742931 
   26500    518.44876   -109.99566   0.46910333   -109.52656   -614.31727    4.3607545    4.3607545    4.3607545   -614.31727   -1862.1359    9114.4019   -9095.2178   -1192.3682    11529.338   -262.83699    82.924889 
   26600    629.50993   -110.09409   0.56959381    -109.5245   -1724.9061    4.3654303    4.3654303    4.3654303   -1724.9061    602.70499    8958.3325   -14735.756   -2575.5131   -1724.9339   -381.09573    83.191924 
   26700     379.8631   -109.87261   0.34370811    -109.5289   -2321.2859    4.3574353    4.3574353    4.3574353   -2321.2859    7645.9273   -1048.5726   -13561.212   -2190.7545    5128.2484   -82.604646    82.735681 
   26800    372.57081   -109.86711    0.3371099      -109.53    738.65067    4.3625647    4.3625647    4.3625647    738.65067   -3468.8417    19653.376   -13968.582    642.68787    10472.254   -4311.9388    83.028201 
   26900    739.98597   -110.19298   0.66955486   -109.52342   -2922.1554    4.3654678    4.3654678    4.3654678   -2922.1554   -3068.4782   -2119.3689    -3578.619   -7764.9609   -4088.0185    3670.7188    83.194069 
   27000    360.43435   -109.85412   0.32612857     -109.528    5667.0844    4.3564898    4.3564898    4.3564898    5667.0844    9795.3486    14761.767    -7555.862    6461.3649    4944.1155    -5970.036    82.681836 
   27100    396.43146   -109.88982   0.35869951   -109.53112   -7516.3816    4.3652857    4.3652857    4.3652857   -7516.3816   -13138.827    7499.0784   -16909.397   -2100.1168    7411.7869   -279.39642    83.183658 
   27200    695.95446   -110.15578   0.62971422   -109.52607    4651.3585    4.3610215    4.3610215    4.3610215    4651.3585    896.26543    14725.647   -1667.8371    691.20954   -4754.7203    1269.6805    82.940125 
   27300    543.03189    -110.0205   0.49134667   -109.52916    1929.0654    4.3568678    4.3568678    4.3568678    1929.0654    1796.0155    16008.236   -12017.055    7443.3917    6661.9659   -3312.2308    82.703361 
   27400    297.08452   -109.80052   0.26880832   -109.53171   -10598.222     4.369957     4.369957     4.369957   -10598.222   -20709.818    14489.766   -25574.615   -1550.4087    5371.1773    314.60157    83.450988 
   27500     716.8568   -110.17323    0.6486271    -109.5246    7517.7343     4.355037     4.355037     4.355037    7517.7343    3510.9301    12088.654    6953.6184    4167.4837   -3719.3712    23.834551    82.599145 
   27600    597.62733   -110.06857   0.54074577   -109.52782   -7080.1414    4.3652096    4.3652096    4.3652096   -7080.1414   -12553.888    11886.395   -20572.931   -2219.6637    6825.6719   -1585.9987    83.179306 
   27700    251.64785   -109.75971   0.22769627   -109.53202   -8581.4719    4.3634927    4.3634927    4.3634927   -8581.4719   -13951.761    3422.2734   -15214.928    4249.8044    3914.5896   -1824.8168    83.081201 
   27800    640.28826   -110.10614   0.57934627    -109.5268    6553.9554    4.3549938    4.3549938    4.3549938    6553.9554    10747.734    11539.425   -2625.2935   -9649.7597   -3818.4724    1525.4189    82.596688 
   27900    598.87998   -110.06834   0.54187919   -109.52646   -7765.1297    4.3700102    4.3700102    4.3700102   -7765.1297   -12300.419     660.6824   -11655.653    1900.5427    3945.1198   -1346.7998    83.454036 
   28000    277.90489    -109.7807   0.25145418   -109.52925    7492.7834    4.3547362    4.3547362    4.3547362    7492.7834    15643.816     11243.12   -4408.5866    16.447874    3631.9039   -761.26102    82.582031 
   28100     502.1815   -109.98282   0.45438437   -109.52843   -1481.6862     4.367584     4.367584     4.367584   -1481.6862    10125.654   -2541.4393   -12029.273   -8424.8966   -7753.7294    1710.0029    83.315114 
   28200    651.70525   -110.11429    0.5896766   -109.52462    6302.4106    4.3596543    4.3596543    4.3596543    6302.4106    7984.0386    8277.7221     2645.471    9328.6031    3649.4857    1671.3433    82.862143 
   28300    361.54065   -109.85677   0.32712958   -109.52964   -410.91458    4.3605757    4.3605757    4.3605757   -410.91458    6664.5614    2353.4367   -10250.742    -5178.044     1387.788    843.32821    82.914694 
   28400    479.97443   -109.96293   0.43429095   -109.52864   -5970.7767    4.3640032    4.3640032    4.3640032   -5970.7767    2479.4249   -490.29913   -19901.456    1466.9396   -5598.2317    3306.0188    83.110362 
   28500    668.40883    -110.1285   0.60479036    -109.5237    7523.5633    4.3598629    4.3598629    4.3598629    7523.5633    4234.8362    4498.1768    13837.677    3727.7385    5359.1107    1159.3696    82.874035 
   28600    566.60108   -110.03942   0.51267257   -109.52675   -13101.298    4.3676807    4.3676807    4.3676807   -13101.298   -9405.3177   -4071.2746   -25827.302   -2977.8335    696.69019    1145.1183    83.320649 
   28700    343.58217   -109.83954   0.31088037   -109.52865    6423.5922    4.3560235    4.3560235    4.3560235    6423.5922    5647.0256    13689.539   -65.788089    3997.2788   -2085.7651     1790.947     82.65529 
   28800    672.23777   -110.13426   0.60825486     -109.526   -3347.7548    4.3687155    4.3687155    4.3687155   -3347.7548    2057.0357   -3637.9172   -8462.3829   -3385.9909    1426.7172   -2522.5849    83.379885 
   28900    567.23388    -110.0403   0.51324514   -109.52705    6510.0097    4.3564649    4.3564649    4.3564649    6510.0097    9831.0218     14713.08   -5014.0732    3767.8089    274.56737    -157.4738    82.680417 
   29000     176.1584   -109.69216   0.15939182   -109.53277    1469.8288    4.3662387    4.3662387    4.3662387    1469.8288    16036.618   -311.61539   -11315.516   -7100.9514   -5965.2766    1093.6557    83.238151 
   29100    636.49375   -110.10153   0.57591292   -109.52562    2974.5433    4.3638434    4.3638434    4.3638434    2974.5433    16001.588   -4958.1002   -2119.8583    1709.6105   -2753.0578   -2814.8032    83.101233 
   29200    519.25964   -109.99572   0.46983704   -109.52588     15315.66    4.3548666    4.3548666    4.3548666     15315.66    27727.258    16810.174    1409.5491   -734.36241    37.116326    394.36108    82.589448 
   29300    236.89492    -109.7469    0.2143475   -109.53255   -12923.513     4.373603     4.373603     4.373603   -12923.513    5897.1825   -21238.669   -23429.052   -3225.0529   -8697.0131    1150.9823    83.660044 
   29400    602.39737   -110.07082    0.5450618   -109.52576    11777.175    4.3547987    4.3547987    4.3547987    11777.175    33092.374    7148.4912   -4909.3393    1821.8189    1573.8526   -2563.2437    82.585587 
   29500    749.43564   -110.20315   0.67810511   -109.52505    -1876.983    4.3633156    4.3633156    4.3633156    -1876.983   -4542.6495   -517.60893   -570.69067   -4297.8288    1446.7166    2588.5395    83.071084 
   29600    254.64186   -109.76187   0.23040531   -109.53146   -6714.2938    4.3665823    4.3665823    4.3665823   -6714.2938    22485.746   -14280.205   -28348.422    3210.1657   -6120.5779    3965.4908    83.257803 
   29700    647.50664   -110.11413   0.58587761   -109.52825    1038.0609    4.3578307    4.3578307    4.3578307    1038.0609    5852.9816    1896.5707   -4635.3696   -5847.8151     4017.048   -200.91283    82.758206 
   29800    706.47834   -110.16531   0.63923645   -109.52608    -2990.152    4.3671601    4.3671601    4.3671601    -2990.152    10835.552   -8083.0023   -11723.006    7455.8539      994.532     2553.565    83.290856 
   29900    305.50887   -109.80662   0.27643084   -109.53019   -7060.9317    4.3640966    4.3640966    4.3640966   -7060.9317    15288.287    -9667.764   -26803.318   -4375.1085   -3783.8085    1104.7522    83.115697 
   30000    525.10999   -110.00311   0.47513055   -109.52798    208.74082    4.3590534    4.3590534    4.3590534    208.74082    14265.911    1186.3756   -14826.064    1750.5414   -946.82529   -1663.8436    82.827885 
   30100    580.53404   -110.05015    0.5252794   -109.52487    6831.3087    4.3647009    4.3647009    4.3647009    6831.3087    13266.609    4477.0937    2750.2231    3342.0858    1886.8547    1092.2551    83.150231 
   30200    457.36492   -109.94204   0.41383339   -109.52821   -9477.1449    4.3638236    4.3638236    4.3638236   -9477.1449    8360.9298   -16732.755   -20059.609   -8352.3607   -7236.8636    1354.6477    83.100102 
   30300    289.94797   -109.79178   0.26235101   -109.52943    9051.6802    4.3568835    4.3568835    4.3568835    9051.6802     9037.324    12421.679    5696.0374    3255.8772   -1667.0775   -2834.8293    82.704251 
   30400    728.02465   -110.18382   0.65873201   -109.52509   -11952.755    4.3682543    4.3682543    4.3682543   -11952.755   -15059.874   -9585.0025   -11213.389   -6782.7789     6317.177      1608.68    83.353479 
   30500    348.89859   -109.84312   0.31569078   -109.52743    5387.7728     4.359852     4.359852     4.359852    5387.7728    19592.921   -497.73631   -2931.8662    101.92311    -8339.513    -3151.153    82.873416 
   30600     515.8541   -109.99411   0.46675563   -109.52735     -6102.43    4.3594377    4.3594377    4.3594377     -6102.43   -10484.059     1246.481   -9069.7124   -2417.5383     6080.846   -4165.3737    82.849792 
   30700    466.16222   -109.94855   0.42179338   -109.52675   -3250.4989    4.3699184    4.3699184    4.3699184   -3250.4989    3453.0556    1509.7972    -14714.35   -834.41327    12969.349    1927.1548    83.448781 
   30800    683.34908   -110.14293   0.61830861   -109.52462    6716.3058    4.3490376    4.3490376    4.3490376    6716.3058    19524.112    1639.9621   -1015.1572    4653.2304   -4738.7439   -7499.7552    82.258254 
   30900    299.48696   -109.80267   0.27098209   -109.53169    -4581.055    4.3707675    4.3707675    4.3707675    -4581.055    16843.209   -3434.4232   -27151.951   -1722.1342    8931.9761   -1191.6091     83.49743 
   31000    557.22225   -110.03047    0.5041864   -109.52628   -6212.5843    4.3637465    4.3637465    4.3637465   -6212.5843    11113.286   -3390.9401   -26360.099    7038.5155    12521.889   -722.55456      83.0957 
   31100    628.33013   -110.09049   0.56852631   -109.52196    18548.054    4.3492059    4.3492059    4.3492059    18548.054    36386.547     11893.98    7363.6334    1245.6667   -7133.9619   -4733.5969    82.267807 
   31200    431.10524   -109.91632   0.39007308   -109.52624   -19749.921    4.3783515    4.3783515    4.3783515   -19749.921    -1802.918   -20154.318   -37292.527    1351.7192     10386.75   -64.420801    83.932833 
   31300    487.01781   -109.96548   0.44066395   -109.52482    7174.2457    4.3505687    4.3505687    4.3505687    7174.2457    6987.4509    18453.667   -3918.3813    1683.6928    10938.394   -834.54954    82.345161 
   31400    659.16727   -110.12106    0.5964284   -109.52463     2709.786    4.3632853    4.3632853    4.3632853     2709.786    28507.896   -10134.355   -10244.183   -2615.0756   -4152.0031   -974.47033    83.069356 
   31500    386.96521   -109.87715   0.35013425   -109.52701   -10060.425     4.370716     4.370716     4.370716   -10060.425    9430.2738   -11955.842   -27655.706   -2434.3255    15677.477   -1044.2472    83.494478 
   31600    324.59871   -109.81948   0.29370373   -109.52578    15525.709    4.3518263    4.3518263    4.3518263    15525.709    42073.663    14430.238   -9926.7744   -94.854377    12412.988    2088.8294    82.416591 
   31700    685.97642   -110.14465   0.62068588   -109.52396   -8174.9386    4.3726826    4.3726826    4.3726826   -8174.9386    5263.2674   -20560.215   -9227.8677   -6276.9456   -4899.6953   -848.94435    83.607237 
   31800    359.55033   -109.85483   0.32532869    -109.5295    3088.5987    4.3564968    4.3564968    4.3564968    3088.5987    8357.8732    8358.4324   -7450.5095   -1963.5777    20900.274    958.91943    82.682231 
   31900    500.91219   -109.98298   0.45323588   -109.52974    -2932.503    4.3595102    4.3595102    4.3595102    -2932.503    -5337.721    7274.7879   -10734.576    1117.8319    4314.4516    4514.5041    82.853924 
   32000    582.86734   -110.05051   0.52739062   -109.52312    -5242.187    4.3737289    4.3737289    4.3737289    -5242.187    10451.004   -18802.289   -7375.2758   -4603.2206   -9754.8312   -1723.2253    83.667268 
   32100    451.55478   -109.93122   0.40857626   -109.52265    5765.2945    4.3517426    4.3517426    4.3517426    5765.2945    12940.518    9298.3379   -4942.9726    3541.0898    15211.915     3275.372    82.411837 
   32200    419.27658   -109.90756   0.37937026   -109.52819   -4646.5871    4.3667804    4.3667804    4.3667804   -4646.5871    9730.1333     1012.318   -24682.213   -1134.0568   -3287.7642    2627.1071    83.269135 
   32300    576.49868   -110.04592   0.52162812   -109.52429    8718.3843    4.3626149    4.3626149    4.3626149    8718.3843    23743.696   -174.55925     2586.016    4903.2812   -6495.4887   -1324.5648    83.031072 
   32400    557.73505   -110.03064   0.50465039   -109.52599   -4980.8539    4.3604862    4.3604862    4.3604862   -4980.8539    5301.8712   -636.47433   -19607.958    1125.1462    15854.841    3497.0218    82.909585 
   32500    426.19002   -109.91331   0.38562568   -109.52769   -4347.1084    4.3647467    4.3647467    4.3647467   -4347.1084   -512.04026    3987.3311   -16516.616    715.16524   -752.88283   -61.121882    83.152847 
   32600    727.80467    -110.1825   0.65853296   -109.52397   -2178.6897    4.3623828    4.3623828    4.3623828   -2178.6897    12766.078   -7673.0633   -11629.084    4054.4398   -6031.4419     964.6795    83.017821 
   32700    419.65071   -109.90616   0.37970878   -109.52645    1957.7064    4.3624889    4.3624889    4.3624889    1957.7064    21531.528   -2492.9572   -13165.452    -4367.364    12194.329    881.04869    83.023875 
   32800     381.5168   -109.87408   0.34520441   -109.52888    501.16112    4.3584422    4.3584422    4.3584422    501.16112    10061.797    4032.8255   -12591.139    2875.8478   -7541.2423    498.85054    82.793049 
   32900    614.15739   -110.08186   0.55570252   -109.52616   -3265.0203    4.3664115    4.3664115    4.3664115   -3265.0203    4401.4233   -7412.8769   -6783.6074   -3030.7884   -10786.002   -286.69341    83.248034 
   33000    553.76436   -110.02689   0.50105763   -109.52584   -49.629926    4.3592459    4.3592459    4.3592459   -49.629926    8522.9423   -6464.4379   -2207.3942   -6029.9672    11046.807   -495.94853     82.83886 
   33100    360.12114   -109.85423   0.32584517   -109.52839   -9207.7457    4.3639683    4.3639683    4.3639683   -9207.7457   -13474.104     1628.225   -15777.358    756.41819   -6942.8914    454.98361    83.108368 
   33200    500.42278   -109.98012   0.45279305   -109.52733    5387.6923     4.360105     4.360105     4.360105    5387.6923    27651.632   -6047.3505   -5441.2045   -4637.9489   -6722.9573   -2267.0882    82.887846 
   33300    591.49768     -110.063   0.53519954    -109.5278    5287.3556    4.3583017    4.3583017    4.3583017    5287.3556    18668.123   -6411.7265    3605.6703   -2219.8416    11962.185   -305.42169     82.78504 
   33400     282.6046   -109.78679   0.25570659   -109.53108   -6351.7861    4.3703404    4.3703404    4.3703404   -6351.7861    15054.917   -6051.8118   -28058.463    1043.2295   -10565.529   -584.31632    83.472959 
   33500    637.86535   -110.10274   0.57715398   -109.52559   -603.38691    4.3549917    4.3549917    4.3549917   -603.38691    6557.3118   -3032.4657   -5335.0067   -3175.4813   -10384.548   -1048.6152    82.596567 
   33600    609.57364   -110.07889   0.55155504   -109.52733    4791.6505    4.3587664    4.3587664    4.3587664    4791.6505    25686.862   -5396.4133   -5915.4966   -97.573623    6189.8314   -1055.5854    82.811527 
   33700    434.76366   -109.92201   0.39338329   -109.52863   -14738.829    4.3705249    4.3705249    4.3705249   -14738.829   -348.27513   -6749.1978   -37119.015    3027.0811   -14709.866    411.55563    83.483529 
   33800    470.58595   -109.95047   0.42579606   -109.52467    8669.2857    4.3543656    4.3543656    4.3543656    8669.2857    32149.323     1078.825   -7220.2913   -580.83473    -10528.17   -539.90876    82.560949 
   33900    685.81627   -110.14418   0.62054097   -109.52364   -2509.1893    4.3634357    4.3634357    4.3634357   -2509.1893    19548.691   -16145.751   -10930.508    2389.4521    7057.7586   -1973.3901    83.077942 
   34000    362.06166   -109.85596     0.327601   -109.52836   -6863.8358    4.3652433    4.3652433    4.3652433   -6863.8358    4353.3669    2759.8429   -27704.717   -2601.1348   -10792.066    1144.5845    83.181235 
   34100    510.45811   -109.98897   0.46187323    -109.5271    1337.6614    4.3559194    4.3559194    4.3559194    1337.6614    11532.823    1420.9838   -8940.8224     -1367.91   -7005.8887   -978.33563    82.649361 
   34200    711.98517   -110.16898   0.64421915   -109.52476   -6218.9256    4.3655566    4.3655566    4.3655566   -6218.9256    8374.0784   -15571.474   -11459.381    -3405.633    2838.7148    121.44706    83.199146 
   34300    259.66683   -109.76525   0.23495201    -109.5303   -3543.3564    4.3635334    4.3635334    4.3635334   -3543.3564    11192.347    3520.7091   -25343.125    -2717.102   -17773.232   -197.39889    83.083524 
   34400    506.69405   -109.98689   0.45846742   -109.52842    369.94663    4.3566566    4.3566566    4.3566566    369.94663    11650.854   -2771.2703   -7769.7443    2505.4268   -7880.2693   -741.22243    82.691329 
   34500    627.60034   -110.09224   0.56786598   -109.52438    -2058.166    4.3675724    4.3675724    4.3675724    -2058.166    19856.562   -18844.558   -7186.5018    -6387.877   -559.93342    1066.7149    83.314449 
   34600    340.20832   -109.83813   0.30782764    -109.5303   -5173.2364    4.3578206    4.3578206    4.3578206   -5173.2364   -10088.256    12535.582   -17967.036    5423.9374   -20816.677    930.96518    82.757632 
   34700    457.67617   -109.94385   0.41411502   -109.52973   -2002.1429    4.3601235    4.3601235    4.3601235   -2002.1429    5083.8198   -3675.1498   -7415.0987   -5497.1104    305.65283   -604.88857    82.888897 
   34800     692.8756   -110.15084    0.6269284   -109.52391   -7431.3439    4.3689643    4.3689643    4.3689643   -7431.3439    4365.7689   -16615.773   -10044.027   -3231.3361    1690.6454    1000.9481    83.394129 
   34900    296.66526   -109.79618   0.26842896   -109.52776    2554.1189     4.354246     4.354246     4.354246    2554.1189    8404.1261    13574.413   -14316.182    2726.3962   -16056.668    373.65049    82.554143 
   35000    398.19016   -109.88911   0.36029083   -109.52882   -2930.3855    4.3654206    4.3654206    4.3654206   -2930.3855    8725.5001   -4997.4171    -12519.24    -6098.908    5835.7365    1690.9951     83.19137 
   35100    755.69599   -110.20684   0.68376961   -109.52307     145.4079    4.3604407    4.3604407    4.3604407     145.4079    14578.566   -3895.3437   -10246.999    781.16608   -929.87638    635.69625    82.906989 
   35200     347.9558   -109.84431   0.31483772   -109.52947   -4262.3467    4.3627046    4.3627046    4.3627046   -4262.3467    2686.4139    7949.0523   -23422.506    261.62272   -17340.344    142.38967    83.036192 
   35300    524.21934   -110.00087   0.47432467   -109.52655   -10590.874    4.3655255    4.3655255    4.3655255   -10590.874   -5967.4989   -3107.6582   -22697.464    1309.1458    6103.2218    1045.4384    83.197367 
   35400    658.75548   -110.11845    0.5960558   -109.52239    13787.148    4.3524571    4.3524571    4.3524571    13787.148     35448.99    7564.3463    -1651.892    3259.8844   -2074.5052    678.11429    82.452437 
   35500    378.17041   -109.87068   0.34217653   -109.52851   -16263.736    4.3734159    4.3734159    4.3734159   -16263.736   -2884.8495   -8618.7795    -37287.58    1836.7212   -13979.339    779.53374    83.649305 
   35600    358.81807   -109.85126   0.32466613   -109.52659     8011.887    4.3553257    4.3553257    4.3553257     8011.887    19436.088    10982.375   -6382.8024    4625.1822    13714.308   -1454.5288    82.615573 
   35700    752.74076   -110.20393   0.68109566   -109.52284   -2026.9535    4.3605299    4.3605299    4.3605299   -2026.9535    8752.3539   -1154.5449    -13678.67   -1814.0842    110.75827   -410.63789    82.912079 
   35800    312.95985   -109.81119   0.28317265   -109.52802   -15074.927    4.3716336    4.3716336    4.3716336   -15074.927   -13856.201   -4587.5752   -26781.006    3772.6873    -11452.46      57.7212    83.547076 
   35900    477.13742   -109.95685   0.43172396   -109.52512    7834.8094    4.3489092    4.3489092    4.3489092    7834.8094    14152.887    16211.833   -6860.2923   -1306.7553    12577.249   -1082.5239    82.250971 
   36000    617.74458   -110.08242   0.55894827   -109.52347   -2488.5826    4.3708208    4.3708208    4.3708208   -2488.5826    18080.154   -12552.195   -12993.707   -3603.8957   -4186.2036   -1369.2215    83.500488 
   36100    348.49984   -109.84185   0.31532998   -109.52652    2111.1702      4.36033      4.36033      4.36033    2111.1702    22229.325   -581.09155   -15314.723    917.44061   -11980.921   -1507.7006    82.900678 
   36200    444.54632   -109.92906   0.40223485   -109.52683   -2755.8116    4.3606755    4.3606755    4.3606755   -2755.8116    3473.2209    1685.9328   -13426.589   -4892.4002    14934.336   -1528.7794    82.920383 
   36300    639.83888   -110.10167   0.57893967   -109.52273      2360.48    4.3639044    4.3639044    4.3639044      2360.48    18640.371   -3488.6521   -8070.2787   -165.83638   -3511.4435   -1425.4945    83.104718 
   36400    509.18244   -109.98663   0.46071898   -109.52591   -8054.3952    4.3599667    4.3599667    4.3599667   -8054.3952   -7816.2265   -1041.0876   -15305.872   -1119.1862   -4261.3641    57.541591    82.879958 
   36500    336.76652   -109.83312   0.30471343   -109.52841    1044.3928    4.3632027    4.3632027    4.3632027    1044.3928    28189.795   -1278.9457   -23777.671    1403.0643    19834.114   -3416.7829    83.064639 
   36600    691.60162   -110.14875   0.62577568   -109.52298    4017.7485    4.3611852    4.3611852    4.3611852    4017.7485     19882.18   -3252.3013   -4576.6329   -231.20557   -1141.5091    -770.6922    82.949465 
   36700    365.38221   -109.85751    0.3306055   -109.52691   -294.49793    4.3629231    4.3629231    4.3629231   -294.49793    18861.971   -1943.8923   -17801.572    2871.1167   -153.88539   -1105.6772    83.048667 
   36800    462.30069   -109.94677   0.41829938   -109.52847   -5800.7737     4.360145     4.360145     4.360145   -5800.7737    3207.8741    2123.7314   -22733.927    1132.9491    17943.439   -2528.9679    82.890124 
   36900     739.8055   -110.19363   0.66939156   -109.52424    740.39825    4.3622973    4.3622973    4.3622973    740.39825    13413.365   -5579.4749   -5612.6951    3308.1258   -4199.8338    162.23879    83.012936 
   37000    481.10532   -109.96225    0.4353142   -109.52693    -10772.48    4.3682668    4.3682668    4.3682668    -10772.48   -60.762461   -6700.9349   -25555.744    4804.3534    861.70739   -2679.9804    83.354193 
   37100     415.9481   -109.90313   0.37635858   -109.52677    501.47318    4.3547046    4.3547046    4.3547046    501.47318    14718.311    7527.9633   -20741.855    -543.2544    16504.631     312.1657    82.580232 
   37200    610.46234   -110.07756   0.55235915    -109.5252    4466.4458    4.3642147    4.3642147    4.3642147    4466.4458    31718.563   -8155.7305   -10163.495   -74.319048   -2716.7017   -1437.7096    83.122448 
   37300    503.98529   -109.98393   0.45601648   -109.52791   -10913.171    4.3677437    4.3677437    4.3677437   -10913.171   -2925.3943   -7052.3452   -22761.773   -2384.0085    8249.9316   -1010.9562    83.324256 
   37400    425.51027   -109.91194   0.38501063   -109.52693    617.42687    4.3515747    4.3515747    4.3515747    617.42687    5650.2306    14963.437   -18761.387   -985.27756    17777.838    529.64703    82.402297 
   37500    698.74122   -110.15769   0.63223574   -109.52546   -10283.534    4.3704019    4.3704019    4.3704019   -10283.534    2485.7534    -19167.69   -14168.664   -4387.1692   -4788.6827    -2494.776     83.47648 
   37600    425.25815   -109.91256   0.38478251   -109.52778    -4343.696    4.3634756    4.3634756    4.3634756    -4343.696    7103.6585    1647.6544   -21782.401   -2866.5834    10046.271    908.82725    83.080226 
   37700    352.29516   -109.84542   0.31876407   -109.52666    7863.7634    4.3510184    4.3510184    4.3510184    7863.7634    17125.107    14076.819   -7610.6364    922.84418    10062.434    -2655.918    82.370699 
   37800    673.62825   -110.13228     0.609513   -109.52277   -12667.313    4.3746441    4.3746441    4.3746441   -12667.313    4452.8522   -23223.817   -19230.974   -2215.5671   -6656.7363   -1219.7635    83.719801 
   37900    500.09183   -109.97604    0.4524936   -109.52355    3175.9632    4.3576293    4.3576293    4.3576293    3175.9632    4228.9621    7883.3788   -2584.4515     4270.162    10163.632   -541.44375     82.74673 
   38000    485.20414   -109.96427    0.4390229   -109.52524   -9746.5264    4.3617533    4.3617533    4.3617533   -9746.5264   -7215.1658    1841.3372   -23865.751   -498.04212    9043.1082   -3439.0792    82.981883 
   38100    506.25005    -109.9839   0.45806568   -109.52583    5285.6616    4.3636053    4.3636053    4.3636053    5285.6616    28198.347   -7229.4246   -5111.9372   -677.73645   -3738.1162    666.67158    83.087631 
   38200    565.12092   -110.03871   0.51133328   -109.52738    2118.8897    4.3580599    4.3580599    4.3580599    2118.8897    21408.757    2540.6565   -17592.744    1161.1576     14208.42   -2118.7815    82.771265 
   38300     345.9531    -109.8417   0.31302563   -109.52868   -298.25086    4.3677632    4.3677632    4.3677632   -298.25086    22292.156   -2980.7983    -20206.11   -284.73215     6224.629   -478.60311    83.325372 
   38400     681.3679   -110.13936     0.616516   -109.52285     1003.074    4.3576469    4.3576469    4.3576469     1003.074    8347.5574   -2724.5409   -2613.7945    -1614.276   -8219.5928    483.64757    82.747735 
   38500    524.07365   -109.99969   0.47419285    -109.5255   -3823.6423    4.3638052    4.3638052    4.3638052   -3823.6423    3970.4332   -163.30268   -15278.057   -3497.5632    13453.682   -1743.8576    83.099049 
   38600    443.92009   -109.92763   0.40166822   -109.52596   -6332.3068    4.3643094    4.3643094    4.3643094   -6332.3068     3830.369   -1731.2136   -21096.076    3.2280406    1049.5824    980.15412    83.127858 
   38700    559.07852   -110.03056     0.505866    -109.5247    4664.7832     4.356878     4.356878     4.356878    4664.7832    23257.336   -3628.5685   -5634.4183    -4671.591   -13590.715    500.31071    82.703939 
   38800    473.28978   -109.95421   0.42824254   -109.52596   -4702.7437    4.3672396    4.3672396    4.3672396   -4702.7437    14635.803   -8672.2562   -20071.778   -1943.2302    14315.369    488.30249     83.29541 
   38900    476.68615   -109.95746   0.43131565   -109.52614   -6975.7933    4.3607748    4.3607748    4.3607748   -6975.7933   -988.56529    3756.4962   -23695.311    2044.3618    1246.0046    2260.0397    82.926051 
   39000    540.74944   -110.01413   0.48928146   -109.52485    1868.3007    4.3595698    4.3595698    4.3595698    1868.3007    12140.384   -6210.9514   -324.53034   -2770.6281   -11837.125   -319.35515    82.857326 
   39100    686.64565   -110.14594   0.62129141   -109.52465   -10286.282    4.3629808    4.3629808    4.3629808   -10286.282   -2218.9148    -4799.688   -23840.243    2287.9361    17619.756    1594.8705    83.051963 
   39200    304.89952   -109.80377   0.27587949   -109.52789    2704.6058    4.3621016    4.3621016    4.3621016    2704.6058    22130.524    2111.0511   -16127.758     6.346479   -1796.9769    2202.3046    83.001764 
   39300    601.60208   -110.06888    0.5443422   -109.52454   -6470.1384    4.3634613    4.3634613    4.3634613   -6470.1384    12890.073   -12781.777   -19518.711   -3525.2999   -12698.101   -366.26769    83.079408 
   39400    515.04321   -109.98999   0.46602192   -109.52397    7201.8287    4.3568706    4.3568706    4.3568706    7201.8287    24899.538    867.27384   -4161.3262    1789.2186    13586.128    686.22205     82.70352 
   39500    456.21766   -109.94142   0.41279532   -109.52863   -12611.222     4.365566     4.365566     4.365566   -12611.222    -8607.152   -1895.8976   -27330.616   -1679.9811    -6338.878   -469.76642    83.199683 
   39600    555.55844   -110.02872   0.50268096   -109.52604      1347.24    4.3587691    4.3587691    4.3587691      1347.24    9431.1451   -3545.0115   -1844.4136   -2956.8155   -15786.899    255.64842    82.811679 
   39700    623.25434   -110.08903   0.56393362    -109.5251    -2275.927    4.3635865    4.3635865    4.3635865    -2275.927    11411.395    -6262.262   -11976.914    480.83454    13742.117   -837.60478     83.08656 
   39800    377.98754   -109.87029   0.34201107   -109.52828   -4532.1779    4.3622411    4.3622411    4.3622411   -4532.1779    8098.9203   -1941.3783   -19754.076   -1069.6445   -6367.8644   -1506.5229    83.009728 
   39900    420.25714   -109.90776   0.38025749   -109.52751    5212.2006    4.3581112    4.3581112    4.3581112    5212.2006    26726.883   -2694.8903   -8395.3912    657.67579   -12922.251   -692.57276    82.774188 
   40000    679.72048   -110.13922   0.61502537    -109.5242   -5613.5727    4.3658832    4.3658832    4.3658832   -5613.5727     4622.073   -13006.093   -8456.6983    484.14698    11946.214   -1894.2416    83.217821 
   40100    382.54686   -109.87409   0.34613644   -109.52795      -3043.6    4.3588258    4.3588258    4.3588258      -3043.6    815.28284     5039.529   -14985.612    2454.6447   -10597.426     480.7685    82.814909 
   40200    558.24624   -110.03302   0.50511293    -109.5279    -6670.805    4.3610019    4.3610019    4.3610019    -6670.805   -481.74875   -6226.8489   -13303.817   -259.62703   -15981.801   -1622.1436    82.939008 
   40300    588.78415   -110.05783   0.53274427   -109.52509   -1279.8632    4.3657274    4.3657274    4.3657274   -1279.8632    18571.939   -14174.557   -8236.9719   -867.45549    7410.6449    -1335.989    83.208914 
   40400    345.23001   -109.84119   0.31237137   -109.52882   -1089.2872    4.3565963    4.3565963    4.3565963   -1089.2872    13545.761    5970.5221   -22784.144    759.25248    -13287.17    197.36775    82.687901 
   40500    482.16751   -109.96514   0.43627529   -109.52887   -3986.7734    4.3630953    4.3630953    4.3630953   -3986.7734    9979.6769   -6993.0636   -14946.933   -5252.7006   -12754.526   -337.99155    83.058504 
   40600    744.17508   -110.19707   0.67334525   -109.52372     -4160.61    4.3640884    4.3640884    4.3640884     -4160.61    15696.377    -14982.71   -13195.497   -136.82912    8179.0082   -93.332478    83.115233 
   40700    375.33863   -109.86833   0.33961428   -109.52872   -7823.8305    4.3601143    4.3601143    4.3601143   -7823.8305    -10562.67    5283.2231   -18192.045   -3937.7095   -17366.873   -1807.9884    82.888374 
   40800    442.45662    -109.9303   0.40034405   -109.52996    2589.0527    4.3597257    4.3597257    4.3597257    2589.0527    28499.876   -5489.4455   -15243.273   -100.26419   -10757.317    1503.1131    82.866212 
   40900    738.83901   -110.19474   0.66851706   -109.52623    496.00494    4.3621583    4.3621583    4.3621583    496.00494    23503.802   -15184.886   -6830.9012   -3121.6481    3826.3542   -2995.3586    83.005001 
   41000    235.39528   -109.74451    0.2129906   -109.53152    3886.3049    4.3608141    4.3608141    4.3608141    3886.3049    29567.711    3440.4991   -21349.295    5808.5444    -21052.63    191.01254    82.928292 
   41100    527.03272   -110.00497   0.47687028    -109.5281   -5461.6953    4.3635616    4.3635616    4.3635616   -5461.6953    4517.2272   -10914.681   -9987.6316    417.98906   -5146.3663     859.2971    83.085137 
   41200    733.42364   -110.18716   0.66361712   -109.52355    2645.1665    4.3568707    4.3568707    4.3568707    2645.1665    19585.675   -7819.1427   -3831.0332    278.22938    2040.0734   -4174.9386    82.703524 
   41300    258.70324   -109.76464   0.23408013   -109.53056   -1721.3874    4.3642868    4.3642868    4.3642868   -1721.3874    6152.3799   -24.974333   -11291.568    4434.3157     -17999.8    2502.9028     83.12657 
   41400    508.27203   -109.98896   0.45989522   -109.52906   -1287.6618    4.3609274    4.3609274    4.3609274   -1287.6618     20449.11   -8705.4601   -15606.636    -5784.062     1500.304   -2771.4502    82.934758 
   41500    589.64762   -110.05912   0.53352556   -109.52559    9548.9025    4.3572076    4.3572076    4.3572076    9548.9025    31997.231    -6169.173    2818.6496     4328.384    3659.5566   -1703.6776    82.722713 
   41600    428.67398   -109.91782   0.38787322   -109.52995   -13165.429    4.3680559    4.3680559    4.3680559   -13165.429   -6641.1593   -8127.7361   -24727.391   -2858.5036   -19490.295    1778.0409    83.342125 
   41700    443.41681   -109.92914   0.40121285   -109.52793    6339.8723    4.3554755    4.3554755    4.3554755    6339.8723    21372.109    3750.4531   -6102.9448   -1219.1586    2488.6058   -1750.1596    82.624098 
   41800    776.72375    -110.2272   0.70279598   -109.52441   -5744.9958    4.3616332    4.3616332    4.3616332   -5744.9958    6518.5122   -12675.323   -11078.177   -12.757245    682.46129    869.25398    82.975028 
   41900     302.6007   -109.80316   0.27379947   -109.52936    2815.3046    4.3651167    4.3651167    4.3651167    2815.3046    23076.701   -2475.5441   -12155.243   -223.46144   -19012.836   -24.154597    83.173998 
   42000    535.54167   -110.01127   0.48456936    -109.5267   -1199.1519    4.3568963    4.3568963    4.3568963   -1199.1519    19539.503   -4789.9446   -18347.014    3235.3167     5682.045   -834.43597    82.704981 
   42100     513.7866   -109.98977   0.46488492   -109.52489    2451.7651    4.3638467    4.3638467    4.3638467    2451.7651    22138.305   -9094.7504   -5688.2595    834.39178    4542.6225   -984.55312    83.101423 
   42200    497.64812   -109.97747   0.45028248   -109.52719   -6468.7792    4.3622307    4.3622307    4.3622307   -6468.7792   -5791.4994    -1492.441   -12122.397    4343.6945   -13531.074    1341.8813    83.009135 
   42300    459.13814   -109.94318   0.41543784   -109.52774    1269.3249    4.3561489    4.3561489    4.3561489    1269.3249    7984.1085    2480.2273    -6656.361    -613.2001    6668.2726   -1336.5983    82.662424 
   42400     593.5187   -110.06328   0.53702819   -109.52626   -7650.6678    4.3687918    4.3687918    4.3687918   -7650.6678     2053.559   -11400.041   -13605.522    2336.8956    4079.5541   -1965.2467    83.384254 
   42500    483.75956   -109.96336   0.43771582   -109.52564   -199.74346    4.3600674    4.3600674    4.3600674   -199.74346    5911.2062   -1265.7081   -5244.7285   -645.16087    -15974.84    1973.6947      82.8857 
   42600    375.85794   -109.86715   0.34008416   -109.52707    7805.6179    4.3545594    4.3545594    4.3545594    7805.6179    30727.732    5253.9906   -12564.869   -772.09708    6050.4868   -5521.5869    82.571974 
   42700     545.3869   -110.02062   0.49347753   -109.52714    -8390.906    4.3714022    4.3714022    4.3714022    -8390.906    3918.7765   -10804.742   -18286.752   -5405.8444    3389.2717    564.68889    83.533811 
   42800    555.46628   -110.02686   0.50259756   -109.52427    10276.565    4.3557943    4.3557943    4.3557943    10276.565    24105.724    5400.1261    1323.8455   -1107.6594   -9437.2162   -1813.8384    82.642241 
   42900    526.43947   -110.00325    0.4763335   -109.52692   -8697.1394     4.362605     4.362605     4.362605   -8697.1394   -7230.8123    490.94811   -19351.554   -308.87732     8924.401   -6027.0674    83.030503 
   43000    455.66742   -109.93917   0.41229746   -109.52688   -2494.7167    4.3661177    4.3661177    4.3661177   -2494.7167    -404.8659     3894.156    -10973.44   -1269.9512    8339.7635    3997.5838    83.231231 
   43100    673.32112   -110.13297    0.6092351   -109.52373    600.47864     4.360755     4.360755     4.360755    600.47864      9101.04   -1340.4031   -5959.2009    4939.9796   -5377.0344   -2901.4449    82.924922 
   43200    394.34344    -109.8847   0.35681023   -109.52789    6540.1815    4.3591427    4.3591427    4.3591427    6540.1815    22070.637    16563.363   -19013.456   -381.57864    10066.182   -832.79428    82.832972 
   43300    323.28402   -109.82224   0.29251418   -109.52972   -2160.4829    4.3696968    4.3696968    4.3696968   -2160.4829    14697.482     3523.719    -24702.65    7053.4033    7156.8127    3917.9255    83.436084 
   43400    558.80931   -110.03031   0.50562241   -109.52469    13122.094      4.35518      4.35518      4.35518    13122.094    25879.922    9328.0567    4158.3045    229.04483   -4166.2455    1226.7475    82.607278 
   43500      419.463    -109.9081   0.37953894   -109.52856    425.29085    4.3658926    4.3658926    4.3658926    425.29085    11366.243    14785.545   -24875.915    4144.3712     6505.846    2386.7796    83.218359 
   43600    410.82934   -109.90007   0.37172702   -109.52834    -4599.618    4.3665076    4.3665076    4.3665076    -4599.618    257.44006    2146.0103   -16202.304   -254.44195     2422.147    6736.9904    83.253533 
   43700    669.91108   -110.13032   0.60614962   -109.52417    5049.0928    4.3561282    4.3561282    4.3561282    5049.0928    7771.7573      11305.6   -3930.0786    -1952.138   -2799.8196    3595.0414    82.661248 
   43800    561.76637   -110.03489   0.50829801   -109.52659   -10477.818    4.3674953    4.3674953    4.3674953   -10477.818   -19750.759    3947.8163   -15630.511   -1732.3584    7780.6693    1341.4488    83.310039 
   43900    472.39533   -109.95449   0.42743322   -109.52706    -5681.017    4.3622564    4.3622564    4.3622564    -5681.017    6841.2847   -7126.6915   -16757.644   -4555.2146    5748.7695     6409.883      83.0106 
   44000    595.09663   -110.06315   0.53845594   -109.52469   -718.26113    4.3632462    4.3632462    4.3632462   -718.26113    11551.251   -9400.0684   -4305.9661    1719.6688   -2620.2386    2059.0104     83.06712 
   44100    564.28084   -110.03543   0.51057316   -109.52485    1285.5936    4.3622082    4.3622082    4.3622082    1285.5936    5801.5179    5657.8488   -7602.5858   -4997.9242    12931.789   -1749.9568    83.007853 
   44200    383.83053   -109.87335   0.34729793   -109.52605   -1168.5487    4.3683128    4.3683128    4.3683128   -1168.5487    18632.124   -2960.6869   -19177.083    6372.7364    3296.0829    5153.1113    83.356827 
   44300    520.84421   -109.99401   0.47127079   -109.52274     7761.199     4.356677     4.356677     4.356677     7761.199    6299.2818     18577.98    -1593.665    1498.0296    277.56078    114.38783    82.692494 
   44400    405.89068   -109.89357   0.36725842   -109.52631     6181.612      4.36496      4.36496      4.36496     6181.612   -383.72451    29002.512   -10073.952    405.54232    10753.332   -4082.0284    83.165044 
   44500    448.18979   -109.93196   0.40553154   -109.52642    55.945638    4.3653804    4.3653804    4.3653804    55.945638    5206.4061    15871.233   -20909.802    4925.2844    2742.2063    5766.3224    83.189074 
   44600    476.30703   -109.95765   0.43097261   -109.52668    8059.0123    4.3543649    4.3543649    4.3543649    8059.0123    8394.9893    15524.957    257.09028   -4703.0506   -602.70738   -6065.9996    82.560906 
   44700    480.77095   -109.96246   0.43501166   -109.52745   -10967.186    4.3703565    4.3703565    4.3703565   -10967.186   -20629.249   -4471.9568   -7800.3511    -3516.828    8216.6237   -1003.6402     83.47388 
   44800    584.90338   -110.05361   0.52923287   -109.52438    -1781.983    4.3576757    4.3576757    4.3576757    -1781.983    6824.5328   -5581.8082   -6588.6735   -1488.4479    37.073226     7920.745    82.749377 
   44900    501.57736   -109.97943   0.45383773   -109.52559   -3635.8839    4.3616594    4.3616594    4.3616594   -3635.8839   -3600.0496    1283.1544   -8590.7565   -360.20659   -3172.9278   -2015.4989    82.976526 
   45000    459.69704   -109.94173   0.41594354   -109.52579   -3002.4635    4.3660097    4.3660097    4.3660097   -3002.4635   -6594.8864    5495.6744   -7908.1784     113.4682    9266.1213     3017.513    83.225053 
   45100    512.16087   -109.98809   0.46341392   -109.52467    11293.582    4.3555467    4.3555467    4.3555467    11293.582    10521.646    29932.286   -6573.1861   -296.57904   -3392.5196    9279.9075    82.628152 
   45200    427.95997   -109.91466   0.38722718   -109.52743    4088.1164    4.3648927    4.3648927    4.3648927    4088.1164    1711.3773    30996.022    -20443.05     3435.887   -695.70451   -1945.6133    83.161195 
   45300    368.25847   -109.86063     0.333208   -109.52742    3288.6872    4.3647512    4.3647512    4.3647512    3288.6872   -11097.952    28296.913   -7332.8994   -3129.6805    9262.6008    787.41321    83.153109 
   45400    628.05972   -110.09257   0.56828163   -109.52429    2290.6288     4.357272     4.357272     4.357272    2290.6288    9991.8085     7573.624   -10693.546   -1618.1674   -4683.2918    5310.7567     82.72638 
   45500    589.27832   -110.05988    0.5331914   -109.52669   -11643.196    4.3674358    4.3674358    4.3674358   -11643.196   -1246.5503   -9575.9257   -24107.112   -399.66968    4512.3844   -10047.342    83.306635 
   45600    464.99716   -109.94884    0.4207392    -109.5281   -4796.6565    4.3627097    4.3627097    4.3627097   -4796.6565   -11973.214    6758.0909   -9174.8467   -10020.867    7442.2295   -2073.0236    83.036484 
   45700    609.71312   -110.07672   0.55168125   -109.52504   -464.58672    4.3609567    4.3609567    4.3609567   -464.58672   -2158.3716    12067.759   -11303.147    580.23052   -3461.4071   -2624.2461    82.936427 
   45800    429.59402   -109.91484   0.38870569   -109.52613   -2989.4237    4.3680218    4.3680218    4.3680218   -2989.4237   -16696.131    33680.206   -25952.346   -3295.9417    6903.5683    -8601.648    83.340171 
   45900    411.98254   -109.89848   0.37277046   -109.52571   -152.13052    4.3621251    4.3621251    4.3621251   -152.13052   -17326.504    29655.774   -12785.661   -380.73365    8050.6537   -5401.3944    83.003106 
   46000     541.1116   -110.01316   0.48960915   -109.52355    1864.7609    4.3616742    4.3616742    4.3616742    1864.7609   -8958.2432    21136.138   -6583.6122    6361.2165   -1448.4812    1364.5859    82.977372 
   46100    492.56098   -109.97057   0.44567953   -109.52489   -9602.8228    4.3686054    4.3686054    4.3686054   -9602.8228   -5547.4747    6844.8097   -30105.803    4423.7206    10182.644   -7945.0363    83.373584 
   46200    520.97083   -109.99517   0.47138536   -109.52378   -2422.2482    4.3594911    4.3594911    4.3594911   -2422.2482   -844.25827   -1495.8674    -4926.619     4694.323    9280.1522    398.98712    82.852836 
   46300    596.09674   -110.06334   0.53936086   -109.52398   -5762.2284    4.3659399    4.3659399    4.3659399   -5762.2284    4187.3358   -11005.179   -10468.842   -3064.4477    911.43994    3174.1247    83.221066 
   46400    369.01801   -109.86204   0.33389525   -109.52815   -577.01377    4.3662011    4.3662011    4.3662011   -577.01377    11711.985    12730.354    -26173.38    365.84479    11841.882   -5652.6987       83.236 
   46500    418.29782   -109.90446   0.37848466   -109.52598    12963.364    4.3568443    4.3568443    4.3568443    12963.364    10151.258    32100.529   -3361.6953    -12105.23    5116.4501    3464.3788    82.702018 
   46600    395.27369   -109.88435   0.35765194    -109.5267    3059.2036    4.3709924    4.3709924    4.3709924    3059.2036   -2021.4528    28161.206   -16962.142   -6458.1679   -253.82087    1632.7861    83.510322 
   46700    350.46277   -109.84512   0.31710608   -109.52802     5117.792    4.3593798    4.3593798    4.3593798     5117.792     16509.32    22492.758   -23648.701   -3252.2857    11977.045   -7142.5428     82.84649 
   46800    547.69953   -110.02207   0.49557005    -109.5265    5664.4888    4.3599047    4.3599047    4.3599047    5664.4888     2048.272    25046.256   -10101.062    -4902.041    1305.0585   -1703.0973     82.87642 
   46900    593.57942   -110.06032   0.53708314   -109.52324   -17309.275    4.3769771    4.3769771    4.3769771   -17309.275   -9787.3502   -18453.023   -23687.453   -1195.7994   -107.04235    1.7543602    83.853816 
   47000    453.00226   -109.93299   0.40988596    -109.5231    2950.2757    4.3503577    4.3503577    4.3503577    2950.2757    13560.879    7897.8325   -12607.884    8600.0348    11084.797   -13783.721    82.333182 
   47100    588.96205   -110.05831   0.53290524    -109.5254   -8283.5685    4.3712093    4.3712093    4.3712093   -8283.5685   -9109.8883    4543.9006   -20284.718   -400.91016    -2365.269    -522.3273    83.522753 
   47200    590.50266   -110.06069   0.53429922   -109.52639   -3752.5267    4.3631793    4.3631793    4.3631793   -3752.5267   -14808.754    17750.014    -14198.84    6065.6437   -1497.7234   -4882.3769      83.0633 
   47300    301.08956   -109.80162   0.27243217   -109.52919     9543.585      4.35255      4.35255      4.35255     9543.585    11429.528    33579.729   -16378.501    2454.1461    9163.8448   -9893.9822    82.457719 
   47400    573.65271   -110.04259   0.51905303   -109.52353   -15853.466     4.376099     4.376099     4.376099   -15853.466   -21116.461    3572.9614   -30016.899    -1461.762   -3299.0329   -2802.9606    83.803354 
   47500    477.30889   -109.95208   0.43187911    -109.5202    11794.129    4.3528479    4.3528479    4.3528479    11794.129    4814.7475    33812.522   -3244.8836   -3384.9474   -3859.0971    754.64129     82.47465 
   47600    487.23675   -109.96476   0.44086205    -109.5239   -16071.283     4.366606     4.366606     4.366606   -16071.283   -14773.583   -1987.0469   -31453.219   -760.83658    12027.852   -9686.6864    83.259162 
   47700    489.76744   -109.96725   0.44315187    -109.5241    2966.4453    4.3601999    4.3601999    4.3601999    2966.4453    19551.474      5256.67   -15908.808    263.07265    -5202.422   -188.95476    82.893259 
   47800    713.60041   -110.17042   0.64568064   -109.52474   -8029.7154    4.3590812    4.3590812    4.3590812   -8029.7154   -8445.5751    941.31597   -16584.887   -11872.932   -7324.7977    3867.7311     82.82947 
   47900    385.55542   -109.87804   0.34885865   -109.52918    460.83219    4.3620567    4.3620567    4.3620567    460.83219     13782.34    6940.5508   -19340.394    7036.3305    10965.571   -9105.4113    82.999203 
   48000     582.6292   -110.05516   0.52717515   -109.52798   -5104.1255    4.3607115    4.3607115    4.3607115   -5104.1255     1918.848    5056.4534   -22287.678   -857.98563   -8089.3536    4022.1348    82.922441 
   48100    465.11568   -109.94717   0.42084644   -109.52633    2939.8018    4.3614761    4.3614761    4.3614761    2939.8018    1334.9119    23331.293     -15846.8   -1361.5464   -6868.9278    1124.9279    82.966066 
   48200    523.71058    -110.0002   0.47386434   -109.52633    2292.7488    4.3564416    4.3564416    4.3564416    2292.7488    3128.9342    18053.083   -14303.771    8050.2926     7385.364   -7654.6492    82.679092 
   48300    361.13914   -109.85506   0.32676628    -109.5283   -1429.2072    4.3654736    4.3654736    4.3654736   -1429.2072     12108.87    8380.1262   -24776.618   -609.08765   -6565.1821   -1912.7415    83.194399 
   48400    555.79774   -110.02858   0.50289747   -109.52569    4029.3484    4.3550769    4.3550769    4.3550769    4029.3484   -8294.2466    34174.772    -13792.48    4747.7308   -9377.3222    5288.0415    82.601414 
   48500    564.05306   -110.03682   0.51036706   -109.52645    -3974.945     4.362831     4.362831     4.362831    -3974.945    10162.421   -5591.7275   -16495.529   -3426.5426    6075.1738   -11763.276    83.043409 
   48600    437.19979   -109.92361   0.39558756   -109.52803   -8459.1609    4.3600218    4.3600218    4.3600218   -8459.1609   -6433.2312    4713.6276   -23657.879    5094.3315   -6352.9234    339.21976    82.883101 
   48700    523.35688   -110.00129   0.47354431   -109.52774   -256.72301    4.3565168    4.3565168    4.3565168   -256.72301    3673.0421    13688.315   -18131.527   -5397.9136   -13009.978     7313.898    82.683372 
   48800    638.78036   -110.10304   0.57798189   -109.52505   -7956.7911    4.3658386    4.3658386    4.3658386   -7956.7911   -8688.0454    794.19612   -15976.524   -4361.7328    7421.6978   -7568.6628    83.215273 
   48900    382.52007   -109.87403    0.3461122   -109.52792   -1284.6153     4.355345     4.355345     4.355345   -1284.6153    477.02834    16157.738   -20488.612     7491.041   -10653.015    4137.1668    82.616668 
   49000    372.27509   -109.86762   0.33684232   -109.53078    48.570546     4.361196     4.361196     4.361196    48.570546   -8933.6878    34562.609    -25483.21   -6844.3569   -10823.008    10936.286    82.950079 
   49100    757.40893   -110.21064   0.68531952   -109.52532    1194.5844    4.3593428    4.3593428    4.3593428    1194.5844    1224.1303     11062.91    -8703.287    4367.4463    5428.5759    1514.4318    82.844383 
   49200     312.3676   -109.81402   0.28263677   -109.53139   -7560.1613    4.3643573    4.3643573    4.3643573   -7560.1613   -17772.239    24168.119   -29076.364    3129.4778   -14169.263    1917.7612    83.130597 
   49300    478.06515   -109.96221   0.43256339   -109.52964   -2330.6619    4.3535842    4.3535842    4.3535842   -2330.6619    6561.1971    5806.4211   -19359.604    256.33316   -7050.1818    16557.895    82.516511 
   49400    730.80541   -110.18607   0.66124809   -109.52482    -2790.807    4.3652752    4.3652752    4.3652752    -2790.807   -7057.3356    9401.7952    -10716.88   -275.46107    2547.7397   -5010.2281    83.183059 
   49500    412.50302   -109.90343    0.3732414   -109.53019   -11274.169    4.3622882    4.3622882    4.3622882   -11274.169   -16579.826    10107.691   -27350.373    4302.2439   -13610.089     4316.937    83.012415 
   49600     329.6557    -109.8298   0.29827941   -109.53152    9151.0559    4.3498794    4.3498794    4.3498794    9151.0559    14398.973     26348.46   -13294.266   -778.21783    -3874.981    11632.277    82.306027 
   49700    707.11299   -110.16373    0.6398107   -109.52392   -11372.049    4.3739412    4.3739412    4.3739412   -11372.049   -17739.762    7014.2034   -23390.589   -2753.8398    1967.8164    -5700.339    83.679451 
   49800    388.44682   -109.87788   0.35147485   -109.52641    6344.0062    4.3508824    4.3508824    4.3508824    6344.0062    895.52222    27498.424   -9361.9279    3938.5591   -12110.194    3749.8967    82.362975 
   49900    376.46077   -109.87013   0.34062961    -109.5295   -6094.1935    4.3631549    4.3631549    4.3631549   -6094.1935    4736.3007    2706.2309   -25725.112   -2567.4078   -2445.3687    8995.2478    83.061909 
   50000    729.79715   -110.18338    0.6603358   -109.52304   -233.96797    4.3623239    4.3623239    4.3623239   -233.96797    2507.6466    7430.1111   -10639.662    1157.4304    3250.6914   -1227.5421    83.014458 
   50100     460.7079    -109.9445   0.41685819   -109.52765    6036.3952    4.3526643    4.3526643    4.3526643    6036.3952    6506.7558     20272.45   -8670.0206   -174.52171   -10152.849    5259.3521    82.464213 
   50200     329.0401   -109.82808    0.2977224   -109.53036    -4959.169    4.3685194    4.3685194    4.3685194    -4959.169    16287.911   -47.197685    -31118.22    5757.4625    312.45541    16389.484    83.368659 
   50300    629.31491   -110.09208   0.56941736   -109.52266    6143.0862    4.3596162    4.3596162    4.3596162    6143.0862   -3505.3079    29739.998   -7805.4315   -2650.0717    5146.2363   -5339.7384    82.859973 
   50400    461.29244   -109.94188   0.41738709   -109.52449    5513.5108    4.3542493    4.3542493    4.3542493    5513.5108    11969.907    14355.298   -9784.6726    3939.3598   -10219.963    11234.174    82.554332 
   50500    352.17502   -109.84842   0.31865536   -109.52976   -6785.4578    4.3661024    4.3661024    4.3661024   -6785.4578   -3181.8338    7149.3146   -24323.854    2857.0364    3330.2508    14629.718    83.230354 
   50600     634.4432   -110.09934   0.57405754   -109.52528    2177.7915    4.3583928    4.3583928    4.3583928    2177.7915    8889.5151    4256.5385   -6612.6793   -7296.1169    4048.0423   -6897.2516    82.790233 
   50700    590.62403   -110.06004   0.53440903   -109.52563   -4000.7061    4.3600172    4.3600172    4.3600172   -4000.7061   -150.74872    -1319.949   -10531.421    8566.6172   -5676.1683     8063.621    82.882838 
   50800    357.30337   -109.85088    0.3232956   -109.52759   -6895.5443    4.3657744    4.3657744    4.3657744   -6895.5443    7017.2164    -6865.221   -20838.628   -3297.3071    2616.6251     10887.13    83.211601 
   50900    635.45762   -110.09861   0.57497541   -109.52363    1280.1136    4.3565531    4.3565531    4.3565531    1280.1136   -2370.5058    15826.863   -9616.0159    754.55202    2866.6312    -9273.132     82.68544 
   51000    478.51155   -109.95886   0.43296731   -109.52589    5000.5609    4.3606025    4.3606025    4.3606025    5000.5609    15218.961    11154.628   -11371.906    6429.4321     1084.249    4143.5346    82.916219 
   51100    390.47108   -109.88129   0.35330644   -109.52798   -8504.5693    4.3662604    4.3662604    4.3662604   -8504.5693   -5759.4909    7434.5481   -27188.765    2463.3766   -1662.4763    11422.102     83.23939 
   51200    426.80883   -109.91193    0.3861856   -109.52575    9281.1264    4.3553975    4.3553975    4.3553975    9281.1264    19736.288     20953.16   -12846.069    4821.1686    11373.426   -13893.733    82.619659 
   51300    595.22447    -110.0644   0.53857161   -109.52583   -2363.7865    4.3622831    4.3622831    4.3622831   -2363.7865    6003.4755    2222.3542   -15317.189    76.821538   -2043.5584    6683.7333    83.012128 
   51400    336.80201   -109.83252   0.30474554   -109.52777   -8515.9844    4.3672641    4.3672641    4.3672641   -8515.9844    13682.005   -12708.284   -26521.674    7703.9462    2257.3412    11044.476    83.296807 
   51500    533.07679   -110.00786   0.48233908   -109.52552    2438.9104    4.3519018    4.3519018    4.3519018    2438.9104    17152.568    4972.7884   -14808.625   -5890.3154    12691.326   -14366.851     82.42088 
   51600     612.0736   -110.07763   0.55381706   -109.52382   -10161.411     4.371483     4.371483     4.371483   -10161.411    6734.2146    -19106.31   -18112.138    3672.8294   -4850.1203    6456.5379    83.538443 
   51700     543.9695   -110.01744   0.49219504   -109.52525   -5782.3918    4.3572791    4.3572791    4.3572791   -5782.3918     9952.339   -11205.228   -16094.287    295.41669    7053.5301    6306.8514    82.726785 
   51800    488.94228    -109.9692   0.44240525   -109.52679   -4813.2518     4.360761     4.360761     4.360761   -4813.2518    5407.0536   -141.75517   -19705.054   -4452.5515    3920.0552   -12641.572     82.92526 
   51900    677.33101   -110.13793   0.61286333   -109.52506   -5721.4236    4.3654203    4.3654203    4.3654203   -5721.4236    4528.6196   -5876.2954   -15816.595    4032.4592   -620.51459    2402.6754    83.191354 
   52000    542.44848   -110.01609   0.49081879   -109.52527    2944.8088    4.3566618    4.3566618    4.3566618    2944.8088    14150.095    2414.9443   -7730.6126   -1624.3992    612.01391    2934.6745    82.691627 
   52100    261.79519   -109.76542   0.23687779   -109.52854   -1900.3061    4.3667383    4.3667383    4.3667383   -1900.3061    24818.661    1318.3425   -31837.922    3244.0532    5965.1386   -11956.598    83.266726 
   52200    609.40581   -110.07568   0.55140319   -109.52427    6552.6267    4.3562026    4.3562026    4.3562026    6552.6267    13352.424    6061.3766    244.07975    762.71344   -4206.2983    3002.6014    82.665485 
   52300    432.04214    -109.9158   0.39092081   -109.52488    3419.9581     4.363553     4.363553     4.363553    3419.9581    20041.157    3522.2394   -13303.522    9820.1938    1645.6406    1185.8168    83.084642 
   52400    317.07029   -109.81559   0.28689186    -109.5287   -4254.9077    4.3601374    4.3601374    4.3601374   -4254.9077    2892.0663    6823.8775   -22480.667   -1772.2042    6437.3306   -11635.663    82.889691 
   52500    546.08403   -110.01973   0.49410831   -109.52562    2535.2164    4.3604098    4.3604098    4.3604098    2535.2164    5445.6845    8559.3153   -6399.3504    5060.4454   -4600.4111    4418.2896    82.905227 
   52600    643.57534   -110.10625   0.58232049   -109.52393   -4494.6391    4.3638616    4.3638616    4.3638616   -4494.6391   -2089.4168    -2226.007   -9168.4933    5322.7262    3599.5236    632.15649    83.102275 
   52700    278.55851   -109.78212    0.2520456   -109.53007    937.17241    4.3543925    4.3543925    4.3543925    937.17241    7802.1376    10853.533   -15844.153   -7179.9237    8441.5241   -13379.146    82.562476 
   52800    538.19856   -110.01664   0.48697337   -109.52966   -4597.1669    4.3644237    4.3644237    4.3644237   -4597.1669   -1708.9958   -3450.3197   -8632.1854    6301.2368   -2741.5618    2722.2849    83.134391 
   52900    644.11268   -110.10927   0.58280669   -109.52647    1292.0759      4.36075      4.36075      4.36075    1292.0759    19185.942   -6710.1229   -8599.5911   -6964.2282    2400.7902    -2510.426    82.924634 
   53000    271.27758   -109.77686   0.24545766    -109.5314    2414.5447    4.3550416    4.3550416    4.3550416    2414.5447    21211.483   -1677.3161   -12290.533   -605.08353    7766.6776   -12140.025    82.599403 
   53100    517.38292   -109.99703   0.46813894    -109.5289   -8536.0618    4.3672591    4.3672591    4.3672591   -8536.0618    8205.3522   -10372.009   -23441.529   -2317.9026    -11463.02    1275.8809    83.296523 
   53200    634.54903   -110.09847    0.5741533   -109.52432    8513.4659    4.3561964    4.3561964    4.3561964    8513.4659    27402.375    -1959.842    97.864981   -2383.3175     1399.035   -3308.6832    82.665131 
   53300    476.41041   -109.95955   0.43106615   -109.52848   -8699.9832    4.3607418    4.3607418    4.3607418   -8699.9832    1755.3738   -10605.722   -17249.601    1471.7425    2028.9814   -9372.6039    82.924169 
   53400    465.65588    -109.9477   0.42133523   -109.52637   -3664.0902     4.364844     4.364844     4.364844   -3664.0902     13245.37     -4321.26    -19916.38   -2498.9044   -11047.339    1185.3781    83.158413 
   53500    751.99419   -110.20287   0.68042014   -109.52245    3852.8305    4.3547216    4.3547216    4.3547216    3852.8305    16429.988   -4734.2267      -137.27    6007.5702   -786.96792   -1475.2434    82.581199 
   53600    349.31389   -109.84495   0.31606655   -109.52888     1754.809    4.3658559    4.3658559    4.3658559     1754.809    32977.921    -16567.73   -11145.764   -1123.2978     6196.884   -8370.6375    83.216259 
   53700    422.00982   -109.91052   0.38184336   -109.52868    -2175.338    4.3615623    4.3615623    4.3615623    -2175.338    14436.382   -1921.2892   -19041.107    1458.4304   -4765.8979    1162.1417    82.970983 
   53800    578.20431   -110.04893   0.52317141   -109.52576    13338.918    4.3511948    4.3511948    4.3511948    13338.918    31309.332    -3527.537    12234.959    3014.4986   -1866.5327   -565.88832    82.380722 
   53900    460.97518   -109.94524   0.41710003   -109.52814   -9178.8456    4.3720697    4.3720697    4.3720697   -9178.8456    8452.9729   -22932.343   -13057.166   -1995.8689    11521.878   -8398.9682    83.572084 
   54000    431.49023   -109.91906   0.39042143   -109.52864    3714.5351    4.3509421    4.3509421    4.3509421    3714.5351   -1110.9424    9499.7621    2754.7855   -1412.6019   -11375.052    838.84572     82.36637 
   54100    555.40918   -110.03261    0.5025459   -109.53006   -1485.6079    4.3641024    4.3641024    4.3641024   -1485.6079     12686.76   -15290.418   -1853.1658    2152.9361   -6153.0414   -732.89254    83.116029 
   54200    511.98686   -109.98979   0.46325647   -109.52654   -9015.8723    4.3685666    4.3685666    4.3685666   -9015.8723     10123.31   -19973.339   -17197.588   -3945.6833   -1947.9236   -7757.2192    83.371361 
   54300    284.25048   -109.78156   0.25719581   -109.52436     17750.43    4.3442547    4.3442547    4.3442547     17750.43    37037.793    16756.708   -543.21209    53.008355   -12351.202    2119.7676    81.987159 
   54400    489.19492   -109.96685   0.44263384   -109.52422   -16292.375    4.3789153    4.3789153    4.3789153   -16292.375    15576.084   -30839.659    -33613.55     1085.969   -6308.4375    237.87556     83.96526 
   54500    603.75113   -110.06739   0.54628671   -109.52111    10745.069    4.3498446    4.3498446    4.3498446    10745.069    32941.491   -704.97074   -1.3131707   -6296.3488    3247.8601   -7225.1299    82.304051 
   54600    385.04626   -109.87676   0.34839795   -109.52836   -11223.852    4.3619917    4.3619917    4.3619917   -11223.852   -10086.436    3264.9406    -26850.06     3455.466   -3940.2574    4718.3539    82.995493 
   54700    595.79325   -110.06448   0.53908626   -109.52539   -13770.718    4.3682756    4.3682756    4.3682756   -13770.718    7164.0136   -20791.768   -27684.401   -3741.8535   -848.20193    1304.1543    83.354698 
   54800    727.25249   -110.17948   0.65803334   -109.52145    13752.662    4.3476611    4.3476611    4.3476611    13752.662     28345.88    9507.2597    3404.8475   -1265.9485    4606.6625   -4399.1573    82.180172 
   54900    298.54575    -109.8006   0.27013047   -109.53047   -7880.5792    4.3690917    4.3690917    4.3690917   -7880.5792    22810.595   -8822.4005   -37629.933    786.86417   -5106.7544    5694.2463    83.401425 
   55000    485.24695   -109.96897   0.43906164    -109.5299    4670.3253    4.3593127    4.3593127    4.3593127    4670.3253    38677.396    -9682.684   -14983.736   -2953.0626   -4989.3863    2685.4302    82.842669 
   55100    752.71533   -110.20604   0.68107265   -109.52496    12700.203    4.3537362    4.3537362    4.3537362    12700.203    30370.887   -1809.1873    9538.9084    3618.4737    -3356.751   -3218.6896    82.525152 
   55200    337.01362   -109.83786     0.304937   -109.53293   -13361.726    4.3693764    4.3693764    4.3693764   -13361.726   -1723.9911   -9712.2828   -28648.905   -1123.8245   -5631.2166    4100.5202    83.417731 
   55300    479.92517   -109.96523   0.43424637   -109.53098    4792.3185    4.3548786    4.3548786    4.3548786    4792.3185    4190.8077    4300.7458     5885.402    976.62755   -4314.4252    3032.5792     82.59013 
   55400    748.81659   -110.20326   0.67754499   -109.52572    2642.2341    4.3632055    4.3632055    4.3632055    2642.2341    20432.431   -15197.375     2691.646    4769.7313    7611.5535   -3265.3735    83.064796 
   55500     190.8305   -109.70442   0.17266745   -109.53176    605.35981    4.3648206    4.3648206    4.3648206    605.35981     22524.17   -4415.8414   -16292.249    1185.5207     4846.497    3555.8935    83.157071 
   55600    365.39032   -109.86027   0.33061284   -109.52965    8822.3397    4.3573147    4.3573147    4.3573147    8822.3397    31980.846     289.1934   -5803.0205     2982.807    4704.8836    1320.7344    82.728809 
   55700    649.91315   -110.11152   0.58805507   -109.52347    7034.7795    4.3635925    4.3635925    4.3635925    7034.7795    40881.822   -17121.424   -2656.0596    3409.7423     5648.116   -2993.6585      83.0869 
   55800    320.81206    -109.8213   0.29027749   -109.53103   -8164.3194    4.3625418    4.3625418    4.3625418   -8164.3194   -5227.9923   -4666.0962    -14598.87   -1258.9552    3651.5177    5032.6112    83.026894 
   55900    505.22927   -109.98567   0.45714207   -109.52852    -561.3197     4.354388     4.354388     4.354388    -561.3197   -1815.3555    4704.9118   -4573.5154    4561.9174   -8667.9517   -1055.1166    82.562225 
   56000    718.86693   -110.17491   0.65044591   -109.52447   -9467.6565     4.370424     4.370424     4.370424   -9467.6565    5577.0084   -22413.433   -11566.545    340.61352   -2245.5915   -4363.5446    83.477744 
   56100    416.83198   -109.90629   0.37715833   -109.52913    2820.1638    4.3521111    4.3521111    4.3521111    2820.1638    13045.481    2993.0602   -7578.0503   -4803.8748   -2137.9932    4817.5174    82.432778 
   56200    419.28216    -109.9108   0.37937531   -109.53142   -1128.5429    4.3627969    4.3627969    4.3627969   -1128.5429    22129.541   -3769.6524   -21745.517    3329.3046   -11599.303   -1804.6179    83.041465 
   56300    641.66558   -110.10639    0.5805925   -109.52579   -5363.3823    4.3667031    4.3667031    4.3667031   -5363.3823    24095.928    -25520.26   -14665.815   -5975.2523     5213.163   -6965.0752    83.264712 
   56400    461.06891   -109.94192   0.41718484   -109.52474    17996.489    4.3461162    4.3461162    4.3461162    17996.489    37556.971    8805.5517    7626.9457    -3547.373     137.3873    3397.3063    82.092598 
   56500    458.95606   -109.93971   0.41527309   -109.52444   -21978.878    4.3786612    4.3786612    4.3786612   -21978.878   -15011.286   -20261.117   -30664.233    1192.9972   -487.68962   -1180.3574    83.950641 
   56600    593.99406   -110.05794   0.53745831   -109.52048     13907.49    4.3460959    4.3460959    4.3460959     13907.49    28834.506   -4700.9816    17588.946   -8003.5734    2630.3788   -11119.333    82.091446 
   56700    625.88809     -110.091    0.5663167   -109.52468   -10178.416    4.3645197    4.3645197    4.3645197   -10178.416   -5632.2896   -13469.535   -11433.424    1867.7924   -1415.1485    3711.3775    83.139877 
   56800    346.94972   -109.84024   0.31392739   -109.52631   -2053.4425    4.3633533    4.3633533    4.3633533   -2053.4425    11822.755    -5928.493    -12054.59    -2095.809   -10772.796    -2898.122    83.073236 
   56900     527.8031   -110.00149   0.47756734   -109.52392    4401.9288    4.3548965    4.3548965    4.3548965    4401.9288    29819.353   -17525.295    911.72807   -1591.1543   -1862.6971   -11158.256    82.591151 
   57000    545.38312   -110.01645   0.49347411   -109.52298    3244.7327    4.3625504    4.3625504    4.3625504    3244.7327    32108.667   -12614.096   -9760.3722    -890.1752   -7865.0493     3730.422    83.027389 
   57100    336.50422   -109.83406   0.30447609   -109.52958   -627.56912    4.3585086    4.3585086    4.3585086   -627.56912    14302.306   -588.98643   -15596.027   -348.71537   -13249.821   -5105.8238    82.796834 
   57200    489.08162   -109.97161   0.44253133   -109.52908   -7643.6596    4.3606187    4.3606187    4.3606187   -7643.6596    17507.701   -18197.411   -22241.269    1930.9248    6230.3664   -12778.607    82.917147 
   57300    748.68819   -110.20293   0.67742881    -109.5255    2085.3512    4.3557474    4.3557474    4.3557474    2085.3512    12508.131   -3657.4682   -2594.6094   -599.89877   -6883.0402    3989.5419     82.63957 
   57400    383.88905   -109.87812   0.34735088   -109.53077   -19515.638    4.3671223    4.3671223    4.3671223   -19515.638   -13699.438   -11618.609   -33228.868    2836.9685   -6133.8061   -9426.3874    83.288699 
   57500    418.00573   -109.90791   0.37822037   -109.52969    6266.1718    4.3492938    4.3492938    4.3492938    6266.1718    34517.111     -5050.86   -10667.736   -564.77338    7847.6121    -12661.82     82.27279 
   57600    752.65478   -110.20562   0.68101786    -109.5246   -8502.1621    4.3679047    4.3679047    4.3679047   -8502.1621    7743.1511   -17372.569   -15877.068    3616.9782   -708.52236    3942.0201    83.333469 
   57700     265.7873   -109.77153   0.24048994   -109.53104     3936.512     4.354836     4.354836     4.354836     3936.512    30947.134   -887.41883   -18250.179   -631.30492   -9866.7851   -10087.781    82.587708 
   57800    411.82343   -109.90431   0.37262649   -109.53168   -4429.5634     4.358328     4.358328     4.358328   -4429.5634    15293.889   -7411.5477   -21171.032    2976.3736    10303.484   -11156.593    82.786539 
   57900    711.94613   -110.16785   0.64418382   -109.52367   -99.291622    4.3624389    4.3624389    4.3624389   -99.291622    11532.077   -8198.4261    -3631.526   -4759.9922   -3588.8162     5772.579     83.02102 
   58000    441.45095   -109.92772    0.3994341   -109.52829   -6757.5435    4.3575541    4.3575541    4.3575541   -6757.5435    8639.8537   -7250.0735   -21662.411   -1412.6512   -5883.1868   -12732.425    82.742447 
   58100    398.92063    -109.8894   0.36095177   -109.52845   -8095.1378    4.3614568    4.3614568    4.3614568   -8095.1378    2610.0681   -9576.6775   -17318.804    48.912352    7495.3752   -10563.794    82.964964 
   58200      734.815   -110.18958   0.66487606    -109.5247    1822.5108    4.3560907    4.3560907    4.3560907    1822.5108    14820.231   -4469.8064   -4882.8926     -7656.98    1534.6172    10518.196    82.659113 
   58300    436.89757    -109.9251    0.3953141   -109.52979   -7168.7419    4.3623919    4.3623919    4.3623919   -7168.7419    19819.129   -18299.286   -23026.069    4448.8816   -2308.9083   -15831.547     83.01834 
   58400    341.97825   -109.83984   0.30942911   -109.53041     2505.059    4.3555232    4.3555232    4.3555232     2505.059    27659.691   -2357.6998   -17786.814   -2331.6802    5886.0716   -6891.4138     82.62681 
   58500    587.46511   -110.05825   0.53155077    -109.5267   -4174.8329     4.363203     4.363203     4.363203   -4174.8329    17632.223   -14593.386   -15563.336     3540.425     5711.561    12038.041    83.064652 
   58600    458.78462   -109.94107   0.41511796   -109.52595    2221.0046    4.3574766    4.3574766    4.3574766    2221.0046    35424.534   -13444.706   -15316.815    381.89388   -6383.4919   -15295.518    82.738031 
   58700    475.11468   -109.95626   0.42989375   -109.52637   -9391.5358    4.3602744    4.3602744    4.3602744   -9391.5358   -293.50436   -10084.136   -17796.967    3255.3535    11163.875    -1315.862    82.897507 
   58800    536.18847   -110.00987   0.48515459   -109.52472   -4358.8178    4.3608146    4.3608146    4.3608146   -4358.8178    17164.177   -12878.517   -17362.114    3729.7123    1230.7755    13551.275    82.928318 
   58900    631.36754   -110.09564   0.57127461   -109.52437   -3609.3309    4.3566095    4.3566095    4.3566095   -3609.3309    8302.0421   -9306.6784   -9823.3565   -2687.8541    19.110211   -10465.612    82.688649 
   59000    492.72631   -109.97399   0.44582912   -109.52817   -9124.7563    4.3602524    4.3602524    4.3602524   -9124.7563   -2935.8615   -3764.8343   -20673.573    4388.5616    1631.1991    1177.1022    82.896249 
   59100    375.44048   -109.86941   0.33970643    -109.5297   -399.80897    4.3626549    4.3626549    4.3626549   -399.80897    28919.716    -10625.11   -19494.033   -2910.0837    5939.3848    15459.986    83.033356 
   59200    650.52519   -110.11318   0.58860886   -109.52457    6661.2381    4.3556669    4.3556669    4.3556669    6661.2381    35278.559   -7984.2605   -7310.5839     1348.745   -3662.6962   -6515.9453    82.634988 
   59300    340.69956   -109.83685   0.30827212   -109.52858    4766.2111    4.3601895    4.3601895    4.3601895    4766.2111    26621.815    1991.1477   -14314.329   -2836.7696     1698.632     2224.452    82.892663 
   59400     382.7761    -109.8771   0.34634386   -109.53076   -6970.8374    4.3627369    4.3627369    4.3627369   -6970.8374    12504.899   -4966.6912    -28450.72    27.549702    4752.3386    16713.698    83.038039 
   59500    690.16236   -110.14868   0.62447341   -109.52421    15754.454     4.351667     4.351667     4.351667    15754.454    31439.357    5878.3953    9945.6086   -2926.2737   -4878.9541    -6529.651    82.407543 
   59600    512.98184   -109.99425   0.46415675   -109.53009   -14759.197    4.3682702    4.3682702    4.3682702   -14759.197   -8099.9113   -7547.5933   -28630.085   -532.32244    6124.6694    4965.9804    83.354392 
   59700    284.42091   -109.78871   0.25735002   -109.53136    3561.9873     4.354483     4.354483     4.354483    3561.9873    15608.321    6751.4386   -11673.798    2419.0261    1649.6285    16554.704    82.567624 
   59800    820.08389   -110.26628   0.74202914   -109.52425     123.6083     4.361778     4.361778     4.361778     123.6083    12363.826   -7220.2829   -4772.7184   -1801.9727    3645.8262   -7409.5179    82.983294 
   59900    334.70658   -109.83438   0.30284954   -109.53153   -1234.3865    4.3623109    4.3623109    4.3623109   -1234.3865      21139.8   -5719.1973   -19123.762    5646.7385    3344.3885    10422.256    83.013712 
   60000    188.95693   -109.70488    0.1709722   -109.53391    5600.7048    4.3546339    4.3546339    4.3546339    5600.7048    35900.815   -934.86154   -18163.839   -1246.9722     7419.223    14641.174    82.576209 
   60100    768.23575   -110.22004   0.69511585   -109.52493   -381.76642    4.3642757    4.3642757    4.3642757   -381.76642    20908.581   -11979.248   -10074.633    6532.4886   -2940.9213   -7356.9614    83.125932 
   60200    393.80588   -109.88685   0.35632384   -109.53053    2682.0407    4.3588714    4.3588714    4.3588714    2682.0407    21133.741   -1972.5525   -11115.066   -2054.8666    2620.8056    13544.046    82.817511 
   60300    403.43683    -109.8949   0.36503812   -109.52986   -12714.423     4.362118     4.362118     4.362118   -12714.423   -4327.0465   -8211.9645   -25604.258     2374.643    1468.0068    10186.601      83.0027 
   60400    744.87569    -110.1974   0.67397918   -109.52342    5896.6153    4.3571605    4.3571605    4.3571605    5896.6153    18908.862    256.96253   -1475.9784   -623.97385   -3397.3425   -5418.3987     82.72003 
   60500    563.25709    -110.0377   0.50964685   -109.52805   -7698.2294    4.3615829    4.3615829    4.3615829   -7698.2294    5422.1975   -13087.457   -15429.429    -5483.055    -928.5333    13735.628    82.972161 
   60600    354.19295   -109.84977   0.32048122   -109.52929    2636.4846    4.3569126    4.3569126    4.3569126    2636.4846    24329.883   -1514.2804   -14906.148    1297.0805    7314.8875    7628.4101    82.705912 
   60700     579.2384   -110.05016   0.52410708   -109.52605    193.57656     4.364206     4.364206     4.364206    193.57656    24394.047   -15294.578   -8518.7394   -4398.4489   -964.99515   -5515.1803    83.121951 
   60800    495.16729   -109.97471   0.44803777   -109.52667    12949.126    4.3517764    4.3517764    4.3517764    12949.126    37485.177   -7126.0974    8488.2988   -1941.1396    6275.5476    10763.366    82.413756 
   60900    343.58794   -109.84089   0.31088559   -109.53001   -2414.2096    4.3668802    4.3668802    4.3668802   -2414.2096    17308.147   -12379.021   -12171.755   -678.91873    12421.866    5294.0367    83.274848 
   61000    560.28855   -110.03404   0.50696086   -109.52708    1887.5063    4.3548733    4.3548733    4.3548733    1887.5063    6458.9916   -3666.8785    2870.4057   -30.481845   -3594.2843   -6028.3367    82.589832 
   61100    530.51426   -110.00829   0.48002045   -109.52827     2806.374    4.3582481    4.3582481    4.3582481     2806.374    16068.097   -12764.531    5115.5564   -924.84784    1022.0825    10837.655    82.781989 
   61200     520.7351   -109.99713   0.47117206   -109.52596    -16039.36    4.3691712    4.3691712    4.3691712    -16039.36   -14267.677   -16569.729   -17280.674    1059.8673    3316.0653     3244.435    83.405978 
   61300    481.87889   -109.95967   0.43601415   -109.52366    7728.4963    4.3485819    4.3485819    4.3485819    7728.4963     18235.79    1700.1622    3249.5371    530.74681   -9438.8691   -6298.5973    82.232399 
   61400    589.94112   -110.05657   0.53379113   -109.52278   -16575.869    4.3736245    4.3736245    4.3736245   -16575.869    9809.1414   -32492.515   -27044.234   -274.24703   -4942.1782    8255.9676    83.661275 
   61500    430.25481   -109.91308   0.38930359   -109.52377    6799.9434    4.3538982    4.3538982    4.3538982    6799.9434    28384.002    728.34514   -8712.5167    1634.3765    12583.496    1017.1898    82.534363 
   61600    422.12196   -109.90921   0.38194482   -109.52726   -1296.8737      4.35872      4.35872      4.35872   -1296.8737    18336.403   -7426.1067   -14800.917   -821.71082   -881.27432   -6261.6362    82.808879 
   61700    559.86671   -110.03053   0.50657916   -109.52395   -1470.5235    4.3669822    4.3669822    4.3669822   -1470.5235    17771.233   -23249.502    1066.6989     3240.694    2677.6291    5152.6453     83.28068 
   61800    472.99325   -109.95258   0.42797423   -109.52461    431.79389     4.357757     4.357757     4.357757    431.79389   -1431.5692   -3143.5184    5870.4694    769.15944    19844.613   -317.97297    82.754006 
   61900    384.75606   -109.87517   0.34813537   -109.52703    1554.5412    4.3577136    4.3577136    4.3577136    1554.5412    978.92019   -5750.9906     9435.694    683.67945   -3622.9872   -7821.4493    82.751537 
   62000    643.85305   -110.10789   0.58257177   -109.52532   -3558.3148    4.3662448    4.3662448    4.3662448   -3558.3148    1978.9653   -21735.716    9081.8059     1852.489   -4975.6157    3171.5542      83.2385 
   62100    478.68229   -109.96216    0.4331218   -109.52904    2242.6923     4.352995     4.352995     4.352995    2242.6923   -297.26685    390.64726    6634.6966    313.85114    11715.349   -1516.0655    82.483013 
   62200    388.94182   -109.88485   0.35192273   -109.53292   -1105.0106    4.3604758    4.3604758    4.3604758   -1105.0106    23675.493   -10491.964   -16498.561    2264.6287   -7373.7713   -6663.5538    82.908995 
   62300    662.09361   -110.12364   0.59907621   -109.52457   -6589.8784    4.3693251    4.3693251    4.3693251   -6589.8784    11915.572    -22002.32   -9682.8872    -1044.074   -5416.5804    1650.1644    83.414791 
   62400    521.43026   -109.99392   0.47180105   -109.52211    14413.168    4.3437974    4.3437974    4.3437974    14413.168    28826.151     9653.519    4759.8342    406.12282    19254.873   -2925.0626     81.96127 
   62500    335.90929   -109.83198   0.30393778   -109.52804   -15834.571    4.3743794    4.3743794    4.3743794   -15834.571   -4116.7698   -23212.611   -20174.333    132.75762   -972.69703   -5760.3744    83.704603 
   62600    665.21298   -110.12454   0.60189868   -109.52264    12238.544    4.3519532    4.3519532    4.3519532    12238.544    15238.296   -3174.1122    24651.449   -1962.0613   -4107.5679   -1147.4977      82.4238 
   62700    489.97118   -109.97039   0.44333622   -109.52705   -1283.1921    4.3600368    4.3600368    4.3600368   -1283.1921   -3375.3478   -6592.5301    6118.3016     28.63293    20330.284   -2606.4973    82.883954 
   62800    319.51994   -109.81625   0.28910836   -109.52714   -5592.9577    4.3660473    4.3660473    4.3660473   -5592.9577    654.90955   -11852.256   -5581.5262   -1375.3588    -11167.01   -5176.5585    83.227206 
   62900    734.52952   -110.18641   0.66461775   -109.52179    3614.3609    4.3516447    4.3516447    4.3516447    3614.3609    10845.925   -1531.2438    1528.4018    -361.3814   -8506.0745    705.46075    82.406274 
   63000    412.88298     -109.901    0.3735852   -109.52742    -2410.827    4.3629989    4.3629989    4.3629989    -2410.827    15088.219    -6087.754   -16232.946   -724.26386    17213.509   -2213.6707    83.052995 
   63100    396.50927   -109.88879   0.35876992   -109.53002   -8326.7001    4.3607925    4.3607925    4.3607925   -8326.7001    4643.7632   -6325.2437    -23298.62    781.86479     -7445.13   -3140.0028    82.927058 
   63200    606.88892   -110.07533   0.54912584   -109.52621    7129.6126    4.3536922    4.3536922    4.3536922    7129.6126    13429.754   -70.785155    8029.8688    -2084.626   -7579.5159    1555.5734    82.522651 
   63300    508.87059   -109.98894   0.46043681    -109.5285   -6443.7484    4.3639736    4.3639736    4.3639736   -6443.7484   -7020.4593   -10695.821    -1614.965    703.59501    19473.768     850.3161    83.108674 
   63400    252.55628   -109.75907   0.22851823   -109.53055   -2399.8108    4.3611719    4.3611719    4.3611719   -2399.8108    -10601.47   -1662.0352    5064.0728    532.35399   -11447.139   -1947.1106    82.948707 
   63500    709.56253   -110.16603   0.64202709   -109.52401    7278.1937    4.3515842    4.3515842    4.3515842    7278.1937    6799.6196    100.50864    14934.453   -2627.8643   -11980.379    1622.0555    82.402839 
   63600    483.99319   -109.96413   0.43792721    -109.5262   -9632.8918    4.3701616    4.3701616    4.3701616   -9632.8918   -7611.4894   -15665.755   -5621.4305    4732.1327    13572.349    2527.9802    83.462709 
   63700    394.68083   -109.88404   0.35711551   -109.52693    2561.5665    4.3511997    4.3511997    4.3511997    2561.5665     12629.98    7146.7189   -12091.999   -487.41272   -14936.874   -4492.3821       82.381 
   63800     653.8562   -110.11633   0.59162283   -109.52471   -2900.4827    4.3642687    4.3642687    4.3642687   -2900.4827    6781.4843   -12070.298    -3412.634   -232.09908   -6784.8068     550.7078    83.125532 
   63900    528.65309   -110.00441   0.47833643   -109.52607    496.33906    4.3608469    4.3608469    4.3608469    496.33906    8638.4861   -9890.5922    2741.1232     4757.796    18463.821    1172.4267    82.930164 
   64000    338.92048   -109.83458   0.30666237   -109.52792    4421.7749    4.3523925    4.3523925    4.3523925    4421.7749    5459.3656    3881.4224    3924.5366   -586.31275   -8946.9541   -2805.9279    82.448764 
   64100    526.37507   -110.00241   0.47627523   -109.52614   -1104.6932    4.3661565    4.3661565    4.3661565   -1104.6932   -6203.1271   -15244.888    18133.936    1874.4542   -5450.5107    272.95185     83.23345 
   64200    589.85759   -110.05885   0.53371554   -109.52514    602.59514    4.3566293    4.3566293    4.3566293    602.59514    2510.0948   -6360.7732    5658.4638    166.76868    13681.988    2436.6717    82.689778 
   64300    337.84728    -109.8343   0.30569132   -109.52861   -703.41327     4.356097     4.356097     4.356097   -703.41327   -4810.0426     2456.316    243.48678   -631.61006   -10776.802   -7380.7424    82.659472 
   64400    661.52922   -110.12357   0.59856554   -109.52501   -12989.439    4.3653965    4.3653965    4.3653965   -12989.439   -9727.1379   -14904.656   -14336.523    -104.1306   -12946.859    226.02065    83.189991 
   64500    567.84429   -110.03831   0.51379745   -109.52451   -1105.3753    4.3565038    4.3565038    4.3565038   -1105.3753    7128.4442   -3215.5493   -7229.0209   -1321.9075    14961.282    1614.8403    82.682635 
   64600    443.83647   -109.92886   0.40159257   -109.52727   -4565.1092    4.3565348    4.3565348    4.3565348   -4565.1092   -471.26129   -392.08552   -12831.981    2583.3538   -10058.493   -10096.195    82.684394 
   64700    488.48122   -109.96865   0.44198807   -109.52667   -4948.8116    4.3642634    4.3642634    4.3642634   -4948.8116   -4050.8857   -14196.548    3400.9988   -5494.6562   -7618.9886    4194.4693    83.125228 
   64800    548.07818   -110.02024   0.49591265   -109.52433    2358.1058    4.3552661    4.3552661    4.3552661    2358.1058    4141.2018   -6427.1557    9360.2713    773.86502    15427.352    285.31328    82.612181 
   64900    356.67923   -109.84982   0.32273086   -109.52709   -1468.8598    4.3601358    4.3601358    4.3601358   -1468.8598    -5730.864   -3521.2907    4845.5752    1961.3429   -9339.2849    -6788.103      82.8896 
   65000    491.04859   -109.96989   0.44431108   -109.52558    -1756.018    4.3597665    4.3597665    4.3597665    -1756.018   -4549.5828   -6919.4769    6201.0056   -5411.8554   -6713.9684    4774.3964    82.868543 
   65100    593.42018   -110.06113   0.53693905   -109.52419   -713.76376    4.3579259    4.3579259    4.3579259   -713.76376    3011.6415   -6496.0392    1343.1064     281.1521    9882.6266    4259.1317     82.76363 
   65200    491.12971    -109.9716   0.44438448   -109.52722   -1391.9204    4.3570372    4.3570372    4.3570372   -1391.9204     1876.982    127.37548   -6180.1186   -1491.4585   -8010.0965     -7256.05    82.713007 
   65300    509.83005   -109.98886   0.46130495   -109.52755   -4313.9041    4.3595379    4.3595379    4.3595379   -4313.9041    974.50463   -6731.8282   -7184.3888   -6355.9353   -5916.4744    5288.8255    82.855503 
   65400    561.25639   -110.03269   0.50783658   -109.52485   -762.11234     4.360787     4.360787     4.360787   -762.11234   -2985.1166   -9948.9177    10647.697   -2356.8641    7443.3321    7476.4284    82.926748 
   65500    459.90985   -109.94123   0.41613609   -109.52509    4367.8116    4.3564125    4.3564125    4.3564125    4367.8116     7244.608   -2277.6283    8136.4551   -497.43744   -4201.2161   -9697.5487    82.677433 
   65600    353.66717   -109.84727   0.32000549   -109.52727     4805.198    4.3596438    4.3596438    4.3596438     4805.198    4828.5711   -12723.037     22310.06   -8432.3956   -7011.2661    5807.8147    82.861543 
   65700    600.62228   -110.06955   0.54345566    -109.5261    1091.9993    4.3575431    4.3575431    4.3575431    1091.9993    4180.5008   -10215.942    9311.4395   -1332.4809    5830.8172    5828.9693    82.741823 
   65800    476.86131   -109.96008   0.43147414    -109.5286    4451.5601    4.3570173    4.3570173    4.3570173    4451.5601    13814.169   -4619.8571    4160.3688    2662.1352   -2037.3258   -10274.512    82.711873 
   65900    461.61436   -109.94503   0.41767837   -109.52735   -11186.209     4.366092     4.366092     4.366092   -11186.209   -6766.1126   -17240.325   -9552.1904   -8726.0799   -9613.0445    4920.7644    83.229761 
   66000     693.7396   -110.15082   0.62771016   -109.52311    1425.8744    4.3518246    4.3518246    4.3518246    1425.8744    11137.384   -5005.3694   -1854.3912    4681.3834    4162.7563    8877.9206    82.416495 
   66100    531.33012   -110.00781   0.48075866   -109.52705   -1228.0898    4.3611841    4.3611841    4.3611841   -1228.0898      2054.52   -4722.3707   -1016.4186    599.12934   -6709.2138   -10706.512    82.949405 
   66200    365.16769    -109.8589    0.3304114   -109.52849   -9776.1652    4.3661729    4.3661729    4.3661729   -9776.1652   -8928.0453   -21874.881    1474.4308   -9015.3377    -6847.736    6365.2433    83.234386 
   66300    566.38665   -110.03513   0.51247855   -109.52265    14420.817    4.3481202    4.3481202    4.3481202    14420.817    9325.7903    6010.7979    27925.863    3719.2393    2381.2842    9775.3569    82.206209 
   66400    539.95619   -110.01431   0.48856371   -109.52575   -10634.783    4.3690682    4.3690682    4.3690682   -10634.783   -16832.424   -21379.502    6307.5782   -2486.4021   -2008.4608   -12417.948    83.400078 
   66500    242.36944   -109.74916   0.21930097   -109.52986    4975.0761    4.3546575    4.3546575    4.3546575    4975.0761   -1007.1545   -4362.9074     20295.29   -9311.5726    -3981.868    9061.0752    82.577552 
   66600    705.97809   -110.16455   0.63878381   -109.52577   -1451.5951    4.3578396    4.3578396    4.3578396   -1451.5951    109.41433   -7852.3874    3388.1877   -1482.6935   -143.65989    6177.6271    82.758711 
   66700    569.98499   -110.04182   0.51573439   -109.52609   -7389.5476    4.3660142    4.3660142    4.3660142   -7389.5476   -5121.8005   -11961.281   -5085.5618   -1798.5431    5086.5681   -7622.4964    83.225313 
   66800    384.47247   -109.87491   0.34787877   -109.52703   -3815.1323    4.3538479    4.3538479    4.3538479   -3815.1323    2987.8861   -8849.7554   -5583.5277     -10776.9   -8948.8891    5064.3819    82.531505 
   66900    667.39498   -110.12878   0.60387301   -109.52491     -3859.58    4.3607722    4.3607722    4.3607722     -3859.58   -5136.4174   -2648.9219   -3793.4006    233.07456    1910.3694    6800.7714    82.925901 
   67000    556.52593   -110.03029   0.50355635   -109.52673    2821.2659    4.3585928    4.3585928    4.3585928    2821.2659    2353.9074   -12189.342    18299.232    1304.3952    728.12814   -7006.3092    82.801633 
   67100    306.60999     -109.809   0.27742716   -109.53157   -2391.6488    4.3578511    4.3578511    4.3578511   -2391.6488   -5433.0904   -12309.503    10567.647   -13231.827   -6740.8107    1092.9075    82.759365 
   67200    506.08932   -109.98571   0.45792025   -109.52779    6816.1425    4.3588394    4.3588394    4.3588394    6816.1425   -2935.5595   -3091.4885    26475.476    5265.4706   -652.33577    10795.351    82.815688 
   67300    604.73477   -110.07267   0.54717673   -109.52549   -3916.6394    4.3617714    4.3617714    4.3617714   -3916.6394   -4711.8602   -15623.027    8584.9687   -925.45034   -1912.7397   -8435.6271    82.982918 
   67400    283.22028   -109.78504   0.25626367   -109.52877     2068.727    4.3538749    4.3538749    4.3538749     2068.727   -3994.6032   -6900.6016    17101.386   -13596.657   -6850.5852    3896.6561    82.533041 
   67500    621.57532   -110.09008   0.56241441   -109.52766   -7358.1175    4.3610558    4.3610558    4.3610558   -7358.1175   -7295.5859    1400.7856   -16179.552    6816.2624   -7922.5216    8149.3974    82.942082 
   67600    585.43714   -110.05648   0.52971582   -109.52676   -1934.1599    4.3593229    4.3593229    4.3593229   -1934.1599   -1312.2871   -10879.457    6389.2644   -2668.0448    3927.0565   -5712.4924    82.843248 
   67700    447.16426   -109.93272   0.40460362   -109.52812   -5530.7201    4.3569017    4.3569017    4.3569017   -5530.7201   -8333.9915   -3959.3346   -4298.8341    -9664.844   -8957.9128     558.4055    82.705291 
   67800    462.89495   -109.94555   0.41883708   -109.52671   -2849.2986    4.3622528    4.3622528    4.3622528   -2849.2986   -7473.6023    767.29381   -1841.5874    6283.0946     1270.496    5391.8738    83.010397 
   67900    595.40393   -110.06227   0.53873399   -109.52354    4875.6287    4.3550962    4.3550962    4.3550962    4875.6287   -2465.6887   -7936.4224    25028.997   -4043.1661    3277.3653   -2913.1436    82.602512 
   68000    370.08461   -109.86206   0.33486033    -109.5272   -1632.8121     4.362137     4.362137     4.362137   -1632.8121   -12398.631   -7476.8403    14977.035   -7505.2269   -2501.2401   -2723.6474    83.003786 
   68100    446.50699   -109.93093    0.4040089   -109.52692    4732.4693    4.3550167    4.3550167    4.3550167    4732.4693   -47.728105    4524.5771    9720.5591    5058.5592    3878.1927    8021.7531    82.597988 
   68200    567.62221   -110.03994    0.5135965   -109.52635   -3745.8389    4.3617787    4.3617787    4.3617787   -3745.8389   -8425.5063   -12665.847    9853.8365   -2761.8818    2961.5929     -1703.15    82.983332 
   68300    506.31559   -109.98466   0.45812499   -109.52654    1556.5247    4.3563279    4.3563279    4.3563279    1556.5247   -2452.3518   -610.52618     7732.452   -7364.6067   -2445.5527   -782.21463    82.672616 
   68400    497.29673   -109.97682   0.44996453   -109.52686   -3966.8421    4.3593199    4.3593199    4.3593199   -3966.8421   -456.77644    2910.1393   -14353.889    5816.9396   -4544.0596     5547.949    82.843077 
   68500    500.80929   -109.97957   0.45314277   -109.52643   -6681.4726    4.3624359    4.3624359    4.3624359   -6681.4726    -8377.397   -17448.947    5781.9259   -4050.8659     5823.196    1863.8716    83.020853 
   68600     623.6587   -110.08812    0.5642995   -109.52382    6194.6717    4.3518174    4.3518174    4.3518174    6194.6717    3343.7578    8107.8149    7132.4424   -9230.4476   -11116.363   -3108.5165    82.416089 
   68700    390.62552   -109.88051   0.35344618   -109.52707   -3907.1036    4.3656135    4.3656135    4.3656135   -3907.1036   -7431.5176   -8273.6074    3983.8141    5721.1339   -823.31675    5568.9765    83.202399 
   68800     400.4445   -109.89007    0.3623306   -109.52773    5639.9001    4.3537733    4.3537733    4.3537733    5639.9001     -4272.68   -4564.3234    25756.704    -6031.421    4378.5549    2588.3444    82.527264 
   68900    580.22402   -110.05051   0.52499889   -109.52551    3873.2925    4.3601046    4.3601046    4.3601046    3873.2925   -1828.2794   -8082.4861    21530.643   -8613.3596   -5192.0023   -4647.3627    82.887819 
   69000    469.39736   -109.95125   0.42472059   -109.52653   -295.51399    4.3610442    4.3610442    4.3610442   -295.51399   -2138.7364   -3785.1879    5037.3823    5636.6515    2798.6673    5303.1506     82.94142 
   69100     346.2777   -109.84101   0.31331934   -109.52769   -2170.0977    4.3571381    4.3571381    4.3571381   -2170.0977     -6890.46   -12518.012    12898.179   -9777.6103    4208.2076    1414.3941    82.718755 
   69200    701.55032   -110.15921   0.63477747   -109.52443   -1074.9277    4.3590917    4.3590917    4.3590917   -1074.9277    767.09919   -5136.6644    1144.7822   -5228.2935    4360.4637   -2427.1335     82.83007 
   69300    605.14808   -110.07493    0.5475507   -109.52738   -891.13576    4.3585483    4.3585483    4.3585483   -891.13576    3891.2465    689.05832   -7253.7121    5005.3077   -1308.4647    253.79307    82.799095 
   69400    352.45889   -109.84993   0.31891221   -109.53101   -6072.5709    4.3584239    4.3584239    4.3584239   -6072.5709   -4274.6125   -14720.886      777.786   -8939.9694     9651.824    5871.0648    82.792005 
   69500    628.43078   -110.09619   0.56861737   -109.52757   -1301.9962    4.3608449    4.3608449    4.3608449   -1301.9962    1919.4003   -8848.3921    3023.0031   -2097.1787   -791.49377   -5891.7106    82.930049 
   69600    608.95252   -110.07676   0.55099304   -109.52577    5043.9276    4.3574079    4.3574079    4.3574079    5043.9276    8435.7979   -3381.1733    10077.158     4072.125    -487.4367   -310.12899     82.73412 
   69700    311.78457   -109.81195   0.28210923   -109.52984    3107.6504    4.3572077    4.3572077    4.3572077    3107.6504    -830.2463   -12595.692    22748.889    -10053.32    4665.6789    5282.3683    82.722716 
   69800    446.85996   -109.93354   0.40432828   -109.52922    504.19441    4.3622775    4.3622775    4.3622775    504.19441   -6062.8618   -8441.9018    16017.347   -2820.7451   -993.75366   -7903.2489    83.011809 
   69900    609.54786   -110.07695   0.55153171   -109.52541    13899.807     4.352563     4.352563     4.352563    13899.807    23715.102    3886.9523    14097.368    1402.6753   -824.40296    -1631.634    82.458453 
   70000    391.20699    -109.8823   0.35397231   -109.52833   -7858.7188    4.3661174    4.3661174    4.3661174   -7858.7188   -9663.9361   -23220.932    9308.7119   -13650.025    604.92676    1960.2557    83.231216 
   70100    431.50697    -109.9171   0.39043657   -109.52666    3519.3508    4.3530154    4.3530154    4.3530154    3519.3508    3271.7703    5505.5897    1780.6922   -2328.3295    6885.0574   -7786.3038    82.484169 
   70200    668.01738   -110.13045   0.60443616   -109.52601   -4263.0324    4.3606034    4.3606034    4.3606034   -4263.0324    5830.7972   -8217.8165   -10402.078   -2755.3265   -5633.2521   -6948.1673    82.916269 
   70300    488.19501   -109.97003    0.4417291    -109.5283   -8340.1663    4.3615437    4.3615437    4.3615437   -8340.1663   -11998.582   -8300.1885   -4721.7284   -14067.204    6347.3812    4361.9813    82.969921 
   70400    469.31432   -109.95269   0.42464546   -109.52805   -2851.8351    4.3530266    4.3530266    4.3530266   -2851.8351   -6542.4779    4791.7023   -6804.7297    1045.8316    6116.1374   -7933.3586    82.484804 
   70500    529.84357   -110.00453    0.4794136   -109.52511   -11278.978    4.3678876    4.3678876    4.3678876   -11278.978   -5624.2567   -17700.183   -10512.495    -1514.652   -4179.3198   -4714.3005    83.332491 
   70600    536.07735   -110.00903   0.48505405   -109.52398     1406.573    4.3514756    4.3514756    4.3514756     1406.573   -8332.2367   -1749.9469    14301.903   -11782.838    7875.9776    9408.1314    82.396669 
   70700    381.26744   -109.87214   0.34497879   -109.52716   -5744.7102    4.3604295    4.3604295    4.3604295   -5744.7102    -13814.67   -4760.2618    1340.8015    802.56662    1982.0971   -7702.4325     82.90635 
   70800    495.53445   -109.97545   0.44836999   -109.52708   -5454.0296    4.3601255    4.3601255    4.3601255   -5454.0296   -1106.0278    -15479.24    223.17899    3970.5421   -2249.0755   -5349.7344    82.889013 
   70900    440.25825   -109.92537   0.39835492   -109.52701    5640.6078    4.3552555    4.3552555    4.3552555    5640.6078   -3709.8215   -4509.6324    25141.277   -13946.824    326.48359    8673.5706    82.611575 
   71000    564.19635   -110.03666   0.51049672   -109.52617   -9788.0356    4.3614815    4.3614815    4.3614815   -9788.0356    -10814.33   -11414.747   -7135.0297   -1381.1929    2821.7346   -5017.4866    82.966371 
   71100    409.54661   -109.89825   0.37056638   -109.52768    1768.0953    4.3570696    4.3570696    4.3570696    1768.0953    14450.108   -10240.769    1094.9472    2670.2377    -4424.613   -11675.665     82.71485 
   71200    599.18089   -110.06946   0.54215146   -109.52731   -4711.3722     4.355816     4.355816     4.355816   -4711.3722   -4755.8778   -7476.2304   -1902.0083   -14726.211   -613.53065    10099.637    82.643477 
   71300    542.57732   -110.01868   0.49093536   -109.52774    1767.9364     4.359399     4.359399     4.359399    1767.9364    9395.4475   -1342.3193    -2749.319    772.30554    5039.2848   -5920.7809    82.847586 
   71400    520.46178   -109.99754   0.47092475   -109.52662   -3246.6115    4.3609958    4.3609958    4.3609958   -3246.6115    4438.4425   -8226.5361   -5951.7411    806.24189   -4249.7955   -10253.734    82.938657 
   71500    440.51004   -109.92483   0.39858274   -109.52625    8005.3111    4.3528858    4.3528858    4.3528858    8005.3111     683.8955     2223.091    21108.947   -9544.1324    3681.0911    11230.755    82.476805 
   71600    541.53489   -110.01685   0.48999215   -109.52686    479.26891    4.3611415    4.3611415    4.3611415    479.26891    3526.6749   -6587.9393    4499.0711    1115.2492    3382.7431   -1660.3028     82.94697 
   71700     512.5085     -109.991   0.46372846   -109.52727    5897.2496    4.3556521    4.3556521    4.3556521    5897.2496    2092.8578    4871.6712     10727.22    1290.3732    -11.20695   -4380.5189    82.634147 
   71800    360.16928   -109.85618   0.32588873   -109.53029    1649.7236    4.3573454    4.3573454    4.3573454    1649.7236    -2745.119   -7936.7581    15631.048   -3538.6275    1534.8675    9422.1066    82.730557 
   71900    550.45353   -110.02448   0.49806193   -109.52641    2184.2418    4.3586921    4.3586921    4.3586921    2184.2418     11202.84    377.82891   -5027.9437   -3550.2767    2191.4399    8880.2951    82.807288 
   72000    642.44694   -110.10628   0.58129949   -109.52498    1804.1304    4.3562753    4.3562753    4.3562753    1804.1304   -2220.8153    3144.4438    4488.7627     2689.678    545.10059   -7592.2765    82.669621 
   72100    347.11055   -109.84424   0.31407292   -109.53017    -6084.464    4.3580953    4.3580953    4.3580953    -6084.464    98.343205   -14886.886   -3464.8491   -3465.1597   -2831.4545    10524.852    82.773282 
   72200    499.92184   -109.98216   0.45233979   -109.52982    135.54215    4.3563726    4.3563726    4.3563726    135.54215    3389.6226   -77.663542   -2905.3326   -6039.8273    6596.4464    9859.2538    82.675161 
   72300    749.68416   -110.20344   0.67832998   -109.52511   -4237.2406    4.3603779    4.3603779    4.3603779   -4237.2406   -8985.7499    2839.8831   -6565.8549    6470.3377   -2381.8166   -11159.184     82.90341 
   72400     264.1997   -109.76989   0.23905344   -109.53084    5393.3825    4.3526586    4.3526586    4.3526586    5393.3825    6023.7428   -7125.9225    17282.327   -4884.2827   -2240.8001    14561.513    82.463889 
   72500    427.12516   -109.91895   0.38647182   -109.53248   -7141.9691    4.3619325    4.3619325    4.3619325   -7141.9691   -11866.179   -3839.9495   -5719.7791   -4472.3767    6998.9437    4829.9378    82.992113 
   72600    696.63934   -110.15666   0.63033391   -109.52633    6842.0193    4.3544769    4.3544769    4.3544769    6842.0193   -5460.3083    9634.9886    16351.378    3941.1045   -835.30647   -5801.8327    82.567279 
   72700    374.55298   -109.87226   0.33890341   -109.53336   -3580.1289    4.3563694    4.3563694    4.3563694   -3580.1289    -2257.937   -11558.123    3075.6728   -2825.8701   -30.798785    14582.733    82.674977 
   72800    324.57574    -109.8257   0.29368295   -109.53202   -8675.2788    4.3629899    4.3629899    4.3629899   -8675.2788   -16982.761    -9524.382     481.3062   -3491.1069    3611.5911    8390.1141    83.052483 
   72900     771.3074   -110.22108   0.69789514   -109.52318    7677.6189    4.3520724    4.3520724    4.3520724    7677.6189    1021.8081    18515.834    3495.2143    983.12167    3102.8528    144.33647    82.430577 
   73000     505.4118   -109.98722   0.45730721   -109.52991   -6907.9056    4.3597523    4.3597523    4.3597523   -6907.9056   -7943.2971   -12788.229    7.8097605   -2059.4085   -1025.9212    9602.6767    82.867733 
   73100    321.50018   -109.82343   0.29090012   -109.53253   -4767.5967    4.3573588    4.3573588    4.3573588   -4767.5967   -11340.488    4861.0269   -7823.3292   -4692.9923    5916.6726    12214.752    82.731324 
   73200    681.28358   -110.14442    0.6164397   -109.52798    426.04896    4.3570188    4.3570188    4.3570188    426.04896   -4248.2716    5386.6377    139.78079    796.81282    3760.6151   -10736.699    82.711959 
   73300    566.26976    -110.0404   0.51237278   -109.52803    805.65067     4.356602     4.356602     4.356602    805.65067   -3762.9501    4039.7701     2140.132   -3443.8802   -2356.0946    6377.7008    82.688222 
   73400    247.16114   -109.75512   0.22363659   -109.53148   -7849.6591    4.3627882    4.3627882    4.3627882   -7849.6591   -18170.435   -6113.4308    734.88886   -4464.7632    9725.7075    9514.2016    83.040964 
   73500    528.16714   -110.00662   0.47789672   -109.52872    12036.043    4.3474408    4.3474408    4.3474408    12036.043    7118.3899    20518.919    8470.8189     595.6613     5326.002   -18291.189    82.167683 
   73600    634.66219   -110.10346   0.57425569   -109.52921   -3207.4612    4.3642695    4.3642695    4.3642695   -3207.4612   -10840.152   -9149.3321      10367.1   -3097.8993   -3507.0517    6839.0954    83.125581 
   73700    315.30219    -109.8176   0.28529205   -109.53231   -6860.5915    4.3596987    4.3596987    4.3596987   -6860.5915   -13815.194   -2430.8694   -4335.7113   -3133.8741    10273.622    7412.7933    82.864675 
   73800    517.78563     -109.996   0.46850332   -109.52749     6498.408    4.3462612    4.3462612    4.3462612     6498.408    8207.2498     9886.673    1401.3013    1074.1413    5400.5302   -12142.411    82.100816 
   73900    720.93446   -110.17473   0.65231665   -109.52241   -15317.468    4.3721653    4.3721653    4.3721653   -15317.468   -17186.334   -12328.455   -16437.617    351.07594   -2797.5766    2396.1719    83.577566 
   74000    434.40118   -109.92015   0.39305531   -109.52709    6815.2282    4.3447077    4.3447077    4.3447077    6815.2282    4156.4126    8759.8856    7529.3864   -5208.0825    9063.0858    8086.7558    82.012812 
   74100    376.83932   -109.87338   0.34097214   -109.53241   -10358.027      4.36151      4.36151      4.36151   -10358.027    -7162.208   -4469.6476   -19442.227     2419.322    5405.4245   -12337.738    82.967999 
   74200    683.03799    -110.1429   0.61802713   -109.52487    -3744.942    4.3632823    4.3632823    4.3632823    -3744.942   -3137.6512    -8362.267    265.09208     1285.083   -3266.2969    -6226.493    83.069184 
   74300    472.07944    -109.9522    0.4271474   -109.52505    7065.8947     4.348728     4.348728     4.348728    7065.8947   -200.70423    9144.4028    12253.986   -7205.6281    5398.5367    7232.7691    82.240688 
   74400    257.36089    -109.7633   0.23286554   -109.53044   -9346.3652    4.3639357    4.3639357    4.3639357   -9346.3652   -4994.0818   -12136.892   -10908.121    4707.2612    5332.5906   -18203.676    83.106506 
   74500    638.91164   -110.10451   0.57810068   -109.52641    7668.9438    4.3562622    4.3562622    4.3562622    7668.9438    1098.1053     10652.65    11256.077   -4648.9432   -5511.0268   -8888.1274    82.668877 
   74600     577.9345   -110.05058   0.52292728   -109.52765    7376.5674     4.354889     4.354889     4.354889    7376.5674    1427.3633     14735.53    5966.8089   -4150.0413    3545.7705    3389.1501    82.590726 
   74700    224.30178   -109.73633   0.20295297   -109.53337    -1393.176    4.3615483    4.3615483    4.3615483    -1393.176   -1783.3073     11782.88   -14179.101    3804.7938    6977.6118   -18681.295    82.970186 
   74800    556.45339    -110.0318   0.50349072   -109.52831    2704.4971    4.3604951    4.3604951    4.3604951    2704.4971    6264.7253    14539.504   -12690.738    -3510.614    -7018.894   -3299.4101    82.910097 
   74900    720.80072   -110.17775   0.65219564   -109.52555    11658.213    4.3494376    4.3494376    4.3494376    11658.213    3685.2706    27988.518    3300.8501    2236.2105    4488.6706    2774.4025    82.280954 
   75000    251.39209   -109.76125   0.22746484   -109.53378   -12130.361    4.3683709    4.3683709    4.3683709   -12130.361    2810.3201   -11603.459   -27597.943     1760.858     5787.871   -14498.985    83.360155 
   75100    553.24288   -110.02837   0.50058578   -109.52778   -542.21773    4.3540788    4.3540788    4.3540788   -542.21773    8012.0743    1747.9766   -11386.704    5266.6472   -4679.9454    1070.2866    82.544633 
   75200    790.68841   -110.23956   0.71543149   -109.52412   -275.85615    4.3580359    4.3580359    4.3580359   -275.85615    881.67686    4049.2272   -5758.4726    638.48853    1389.4383    3708.0636    82.769895 
   75300    421.73248   -109.90976   0.38159241   -109.52817   -12366.407       4.3658       4.3658       4.3658   -12366.407    620.98446   -17539.329   -20180.878    3459.9066    5527.0561   -14556.369    83.213061 
   75400    490.11458   -109.96896   0.44346597    -109.5255    3533.8015    4.3515788    4.3515788    4.3515788    3533.8015    7832.1667    11953.894   -9184.6563    8324.5216   -4283.1141    4056.7253    82.402533 
   75500    725.93261   -110.17979   0.65683908   -109.52295   -3860.7793    4.3641262    4.3641262    4.3641262   -3860.7793   -10473.635    7555.3471   -8664.0501   -1942.7898     404.0976    3456.9925    83.117388 
   75600    433.62438   -109.91922   0.39235245   -109.52687    5899.6132    4.3570324    4.3570324    4.3570324    5899.6132    3808.7837    20466.368   -6576.3121    4785.6038     6276.845   -15637.323    82.712733 
   75700    383.00281   -109.87488   0.34654899   -109.52834   -6869.4102    4.3612961    4.3612961    4.3612961   -6869.4102   -11388.059    8426.0509   -17646.222     2697.879   -7477.4963    1655.7801    82.955792 
   75800    586.02001   -110.05585   0.53024322    -109.5256    6776.1647    4.3551306    4.3551306    4.3551306    6776.1647     3678.101    11374.286    5276.1068   -3232.4458   -1998.2723    5587.8645    82.604472 
   75900    528.19126   -110.00473   0.47791855   -109.52682   -2204.9629    4.3637438    4.3637438    4.3637438   -2204.9629    -2629.771    486.15897   -4471.2767   -2077.5936    2983.6151   -15528.514    83.095547 
   76000    379.40703   -109.87226   0.34329545   -109.52897   -921.11741    4.3544818    4.3544818    4.3544818   -921.11741    5215.5153   -4348.7767   -3630.0908    1107.2778    -8059.837    1647.0819     82.56756 
   76100    480.82177   -109.96429   0.43505764   -109.52923    3194.7758    4.3605313    4.3605313    4.3605313    3194.7758    15609.288   -7648.2187    1623.2583   -1532.1414   -7839.3969    10869.993    82.912158 
   76200    679.26876   -110.14017   0.61461665   -109.52555   -6290.7404    4.3624443    4.3624443    4.3624443   -6290.7404    7094.0564   -13000.466   -12965.811   -2885.9519     2709.693   -14889.125    83.021331 
   76300    251.30261   -109.75665   0.22738388   -109.52926    11960.008    4.3466474    4.3466474    4.3466474    11960.008     28398.64    6710.5292    770.85483    6193.4336   -8566.4266    9533.4092    82.122705 
   76400    453.56439   -109.94112   0.41039459   -109.53073   -15395.057    4.3708981    4.3708981    4.3708981   -15395.057   -5604.3789   -12671.496   -27909.295   -98.437273   -8118.1228    12111.143    83.504917 
   76500    654.79355   -110.11565   0.59247097   -109.52318    19038.776    4.3480118    4.3480118    4.3480118    19038.776    33581.409    20496.151    3038.7685    3183.6578    2254.4413   -10515.809    82.200062 
   76600     344.3578   -109.84331   0.31158218   -109.53173   -9385.2175    4.3620585    4.3620585    4.3620585   -9385.2175    3360.5932    -5333.763   -26182.483    5920.3731   -4912.4179    12734.172    82.999306 
   76700    311.53836   -109.81295   0.28188645   -109.53107   -2869.5997    4.3607871    4.3607871    4.3607871   -2869.5997   -1539.6891    15379.595   -22448.706    4846.9762   -7083.5862    12646.867     82.92675 
   76800     882.4451   -110.32115   0.79845487   -109.52269    13145.333    4.3471705    4.3471705    4.3471705    13145.333    13154.685    23860.892    2420.4233    2458.8552    2526.1473   -3785.9729    82.152355 
   76900    338.44695   -109.84042   0.30623391   -109.53418   -12769.708     4.367633     4.367633     4.367633   -12769.708   -16470.721    9817.3078    -31655.71   -3782.5487   -3890.3134    10768.579    83.317918 
   77000    331.68233   -109.83281   0.30011314    -109.5327    2574.4188    4.3492636    4.3492636    4.3492636    2574.4188    601.81667    18979.897   -11858.458    7333.2879   -9573.4356    13048.134    82.271079 
   77100    910.63629   -110.34936   0.82396286    -109.5254   -5513.0032    4.3618461    4.3618461    4.3618461   -5513.0032   -5956.2651    1060.1623   -11642.907   -8795.7901    5001.6797   -6633.3462    82.987183 
   77200    374.09201   -109.87041   0.33848631   -109.53193   -2344.0159    4.3571162    4.3571162    4.3571162   -2344.0159   -4152.9971    12563.705   -15442.756    1467.8343   -7536.7227    12237.966    82.717505 
   77300    348.93873   -109.84819    0.3157271   -109.53246   -6915.9583    4.3546251    4.3546251    4.3546251   -6915.9583   -4924.8578    1979.7484   -17802.765    2930.5746   -6437.7117    9908.3884    82.575708 
   77400    712.57884   -110.17022   0.64475631   -109.52546     99.28046    4.3603381    4.3603381    4.3603381     99.28046   -1451.5147    10671.824   -8922.4684   -4103.7587    3904.2733   -11861.417    82.901137 
   77500    520.14813   -109.99973   0.47064096   -109.52909    294.09275    4.3533443    4.3533443    4.3533443    294.09275   -3289.7077    16363.537   -12191.551     6754.615   -6259.6947    8959.5094    82.502867 
   77600    242.06981   -109.75186   0.21902985   -109.53283   -2621.6679    4.3609703    4.3609703    4.3609703   -2621.6679   -1869.6232    14151.274   -20146.655    3126.8531   -5662.5961    9508.7751    82.937204 
   77700    715.04056   -110.17195   0.64698373   -109.52497     429.4021    4.3565367    4.3565367    4.3565367     429.4021    3749.2649     9210.956   -11672.015    7115.5672    2777.7087   -13198.465    82.684502 
   77800    471.68385   -109.95334   0.42678946   -109.52655   -635.39571    4.3598285    4.3598285    4.3598285   -635.39571   -3732.5361    14130.521   -12304.172    759.66526   -5891.6594    6321.9469    82.872077 
   77900    464.86336   -109.94794   0.42061813   -109.52732   -3882.9273    4.3539199    4.3539199    4.3539199   -3882.9273     3026.294   -621.47332   -14053.603    7340.1031   -6598.0635    12354.493    82.535597 
   78000    533.61567   -110.01016   0.48282667   -109.52734   -3122.2695    4.3609449    4.3609449    4.3609449   -3122.2695    1396.7617    3329.1809   -14092.751    608.95395    3956.4723   -17637.863    82.935754 
   78100    632.80083   -110.09905   0.57257149   -109.52648    549.22706    4.3561499    4.3561499    4.3561499    549.22706    3667.0878    5945.2721   -7964.6787   -3739.9129   -7237.7107    3643.6467    82.662484 
   78200    405.08992     -109.895   0.36653387   -109.52847    4108.2867    4.3574452    4.3574452    4.3574452    4108.2867     5394.793    17563.734   -10633.667    5434.1504   -4031.7366    6039.6653    82.736245 
   78300    384.73091   -109.87725   0.34811261   -109.52914   -2930.5987    4.3615219    4.3615219    4.3615219   -2930.5987    1149.5095    5481.4088   -15422.714        -3118    2282.9485   -20844.138    82.968676 
   78400    603.28844   -110.07016   0.54586806   -109.52429    11179.924    4.3515106    4.3515106    4.3515106    11179.924    7460.8372    24687.294    1391.6404    -1607.985   -5757.7547   -687.12778    82.398657 
   78500    440.85784   -109.92496   0.39889744   -109.52606   -6534.2463    4.3662605    4.3662605    4.3662605   -6534.2463    -4519.696    5494.1572     -20577.2   -89.476562   -4586.4401    846.38734    83.239395 
   78600     363.0494   -109.85733   0.32849473   -109.52883    2566.3832    4.3486085    4.3486085    4.3486085    2566.3832    15726.235   -8061.8424    34.756656    2984.5667     45.84674   -18433.655     82.23391 
   78700    588.12085   -110.06035    0.5321441    -109.5282   -860.10398    4.3616488    4.3616488    4.3616488   -860.10398   -5708.1276    6321.6313   -3193.8155   -2994.0878    -4625.529    -2444.524    82.975919 
   78800    595.68639    -110.0665   0.53898957   -109.52751   -4368.0584    4.3600607    4.3600607    4.3600607   -4368.0584   -353.79977   -3171.3269   -9579.0485    333.76543   -6728.8868    3535.6334    82.885316 
   78900    203.19922   -109.71435   0.18385893    -109.5305    10506.476    4.3492602    4.3492602    4.3492602    10506.476    16315.778    18383.613   -3179.9624    6359.9866    1964.0368   -18431.681    82.270886 
   79000    574.74252   -110.04688   0.52003911   -109.52684   -6583.3867    4.3667069    4.3667069    4.3667069   -6583.3867   -13955.472    9273.9033   -15068.591   -6199.4837   -4516.1058    941.45641     83.26493 
   79100    564.59491   -110.03589   0.51085734   -109.52503    16034.797    4.3496456    4.3496456    4.3496456    16034.797    10538.039    31432.661    6133.6923    2966.2896   -4994.2415     616.5655    82.292756 
   79200    364.57168   -109.86043   0.32987211   -109.53056   -9396.4713    4.3626656    4.3626656    4.3626656   -9396.4713    2728.5257    -6031.399   -24886.541    4853.5652     4055.797   -20498.064    83.033967 
   79300    548.10687    -110.0229   0.49593861   -109.52696    4745.7441    4.3554486    4.3554486    4.3554486    4745.7441    874.89308    11089.185    2273.1543   -8063.1174   -2651.7968   -1305.7333    82.622566 
   79400     661.4673   -110.12333   0.59850951   -109.52482    709.23599    4.3602059    4.3602059    4.3602059    709.23599   -3453.2289    13230.427   -7649.4903   -2579.5421   -1077.9118   -3468.9511    82.893601 
   79500     380.7189   -109.87313   0.34448246   -109.52865    1037.7188    4.3558346    4.3558346    4.3558346    1037.7188    10216.668    13857.047   -20960.558      -189.91     2667.976   -20887.136    82.644538 
   79600    422.15134   -109.91089   0.38197141   -109.52892    6421.2251    4.3560018    4.3560018    4.3560018    6421.2251   -4837.5466    22113.054    1988.1684   -9502.4159    580.73446    3391.2196    82.654052 
   79700    576.08696   -110.04635   0.52125558    -109.5251   -713.62522    4.3622506    4.3622506    4.3622506   -713.62522   -12018.686     15654.02   -5776.2092    -4923.359   -1037.8998    505.63001     83.01027 
   79800    482.91559   -109.96282   0.43695217   -109.52587    6358.5301    4.3504781    4.3504781    4.3504781    6358.5301     12607.95    13582.009   -7114.3683    1747.3429    2771.7165   -16656.825    82.340018 
   79900    440.51544   -109.92673   0.39858763   -109.52814   -9182.1446    4.3613372    4.3613372    4.3613372   -9182.1446   -12977.013   -14414.457   -154.96406   -9821.4728    1188.5636    8296.0628    82.958139 
   80000    562.69289   -110.03591   0.50913636   -109.52677   -309.56345    4.3552924    4.3552924    4.3552924   -309.56345   -11065.944    8095.6826    2041.5711   -1837.3102   -2398.2219   -4495.2351    82.613679 
   80100    501.60952   -109.98151   0.45386683   -109.52764    2654.7211    4.3562081    4.3562081    4.3562081    2654.7211    3531.9947    13953.963   -9521.7938    5233.6133    3534.6452   -15851.538    82.665795 
   80200    374.67841   -109.86875    0.3390169   -109.52973    1419.4433    4.3580436    4.3580436    4.3580436    1419.4433   -13435.578    18272.923   -579.01539   -7375.2071    100.98044    6956.3409    82.770337 
   80300    420.44545    -109.9101   0.38042788   -109.52967    260.18088    4.3593306    4.3593306    4.3593306    260.18088   -19906.933    16731.395    3956.0799   -1510.1455   -1717.4668     -5178.72    82.843686 
   80400    694.58661    -110.1535   0.62847656   -109.52502    6633.0349    4.3525197    4.3525197    4.3525197    6633.0349    3143.3032    18897.023   -2141.2214    4387.4111    1848.5715   -6503.2821    82.455995 
   80500    433.23384   -109.92149   0.39199909    -109.5295   -6580.8244    4.3636742    4.3636742    4.3636742   -6580.8244   -17712.775    398.26808    -2427.966   -10954.275    -214.7683    7779.8673     83.09157 
   80600     458.8878   -109.94395   0.41521132   -109.52874    86.482897     4.354234     4.354234     4.354234    86.482897   -19609.462    12663.313    7205.5981   -1819.3722   -1045.4006    4168.0179    82.553464 
   80700    618.32855   -110.08583   0.55947667   -109.52635    13435.257    4.3548327    4.3548327    4.3548327    13435.257   -3358.8241    41963.699    1700.8954    4097.8245    59.123811   -1447.2967    82.587517 
   80800    466.09445   -109.95124   0.42173205    -109.5295   -4683.9561    4.3634123    4.3634123    4.3634123   -4683.9561   -18820.985    14123.454   -9354.3375   -10567.464   -306.63722     8546.345     83.07661 
   80900    308.80574   -109.80919   0.27941392   -109.52977    4011.7137    4.3509004    4.3509004    4.3509004    4011.7137   -20200.955    17253.314    14982.783    3582.6921   -3013.4109    4732.8614    82.363998 
   81000    771.99203    -110.2244   0.69851461   -109.52588    -3973.183    4.3588146    4.3588146    4.3588146    -3973.183   -13184.921    5097.2064   -3831.8339    7436.3589    442.23165   -6234.8226    82.814272 
   81100    511.13649   -109.99159   0.46248704    -109.5291   -9881.9682    4.3625921    4.3625921    4.3625921   -9881.9682    -12179.32   -9536.6302   -7929.9542   -4812.3811   -1278.9886    7606.0571    83.029771 
   81200    319.95414   -109.82003   0.28950123   -109.53053     70.18684    4.3504087    4.3504087    4.3504087     70.18684   -22140.131    10051.824    12298.868    6150.4525    -4346.125     1857.837    82.336076 
   81300    665.34074   -110.12953   0.60201429   -109.52751   -1168.0034    4.3623921    4.3623921    4.3623921   -1168.0034    -19317.21    20882.526   -5069.3257    9724.5194       218.78   -6787.0271    83.018347 
   81400    478.31091   -109.96149   0.43278577    -109.5287    4999.2543    4.3568906    4.3568906    4.3568906    4999.2543   -8970.6485    25018.665    -1050.254   -6167.7482   -2687.0727    9413.8691    82.704658 
   81500    330.37267   -109.82978   0.29892813   -109.53085   -8477.5222    4.3568944    4.3568944    4.3568944   -8477.5222   -31084.789    1528.9121    4123.3102    10047.828   -3533.4839    4328.3307    82.704876 
   81600    663.87588   -110.12579   0.60068885   -109.52511   -1005.7563    4.3591034    4.3591034    4.3591034   -1005.7563   -17635.472    8553.5806    6064.6219    5098.1153     672.2629    -2395.936    82.830736 
   81700    694.71949   -110.15391   0.62859679   -109.52532   -7373.0862    4.3595409    4.3595409    4.3595409   -7373.0862   -14076.939    277.37693   -8319.6967   -3916.3402   -2180.6204    11341.063    82.855675 
   81800    312.77212   -109.81304   0.28300279   -109.53004   -1697.6629     4.353653     4.353653     4.353653   -1697.6629   -25753.711    8093.3208    12567.401    10154.015   -2005.7522    4973.3497     82.52042 
   81900    551.37994   -110.02833   0.49890016   -109.52943    66.774981     4.358578     4.358578     4.358578    66.774981    -20001.28    16799.464     3402.141    2653.2508    793.76198   -3250.6976    82.800786 
   82000    623.10355   -110.08993   0.56379719   -109.52613    812.11869    4.3597639    4.3597639    4.3597639    812.11869   -12180.084    20740.127   -6123.6873   -2002.7862   -283.85985    1203.9767    82.868393 
   82100    385.43906   -109.87693   0.34875336   -109.52818    376.68234     4.353891     4.353891     4.353891    376.68234   -23469.367    9600.0793    14999.335    11996.728    -1565.989    1595.6917    82.533956 
   82200    467.32474    -109.9505   0.42284525   -109.52766   -8386.5388    4.3600549    4.3600549    4.3600549   -8386.5388   -19398.952   -7187.8917    1427.2271    2900.1487    1899.1816   -6864.7305    82.884987 
   82300    665.97569   -110.12778    0.6025888   -109.52519     776.6071    4.3536224    4.3536224    4.3536224     776.6071    -4277.975    6855.6419   -247.84566   -1930.2985    1920.6095   -10718.523    82.518681 
   82400    480.27965   -109.96313   0.43456712   -109.52856   -4768.9386    4.3582457    4.3582457    4.3582457   -4768.9386    -26040.49   -6068.1713    17801.845    16055.697    -1986.207    6131.7793    82.781853 
   82500    375.31381    -109.8698   0.33959182   -109.53021    2146.9524     4.354578     4.354578     4.354578    2146.9524   -14988.624    18563.135    2866.3464    -674.4446    5016.1916   -8663.8194     82.57303 
   82600    539.75814   -110.01586   0.48838451   -109.52748   -29.297505    4.3595814    4.3595814    4.3595814   -29.297505   -11491.623    17494.405    -6090.675   -925.82135    2760.0411   -10040.077    82.857986 
   82700    592.55431   -110.06317   0.53615559   -109.52701    7075.2278     4.350132     4.350132     4.350132    7075.2278   -13276.966    20227.391    14275.259    12834.518    -62.89917    9246.9146    82.320367 
   82800    349.44617   -109.84675   0.31618624   -109.53056   -7671.6772    4.3631108    4.3631108    4.3631108   -7671.6772   -21794.029   -1337.6233    116.62072    -3066.567    3773.0523   -12199.177    83.059388 
   82900    584.47906   -110.05662   0.52884894   -109.52777   -261.54846    4.3521333    4.3521333    4.3521333   -261.54846    -2991.367    7388.2801   -5181.5586   -4474.1139    2423.9818   -8576.9695    82.434038 
   83000    627.88427   -110.09518   0.56812289   -109.52705    4462.3816    4.3546332    4.3546332    4.3546332    4462.3816   -13150.262    11675.715    14861.691     10841.02   -688.02184    4117.8541    82.576172 
   83100    393.97851   -109.88606   0.35648004   -109.52958   -10293.836    4.3627832    4.3627832    4.3627832   -10293.836   -22548.241    933.61038   -9266.8768   -4132.1723    1564.3481   -10478.805    83.040678 
   83200     381.1441   -109.87372   0.34486719   -109.52885    6341.6141    4.3497949    4.3497949    4.3497949    6341.6141    347.22739    13318.004    5359.6107   -6582.5306    4389.0179   -11118.671    82.301234 
   83300    732.03752   -110.18642   0.66236294   -109.52406   -3108.4539    4.3597827    4.3597827    4.3597827   -3108.4539   -17988.077    7742.7359    919.97909     9742.641   -4176.5072    837.23631    82.869464 
   83400    320.82094   -109.82068   0.29028552    -109.5304    3272.1503     4.356207     4.356207     4.356207    3272.1503   -9960.4121    12410.352    7366.5113   -4025.4866    4089.0087   -5138.1526    82.665733 
   83500    428.83564   -109.91861    0.3880195   -109.53059   -6842.5568    4.3546516    4.3546516    4.3546516   -6842.5568   -6791.7566   -6087.7666   -7648.1473   -5738.3521    3431.0594   -17574.167    82.577216 
   83600    740.62974   -110.19564   0.67013735    -109.5255    1438.7901     4.358113     4.358113     4.358113    1438.7901   -10524.754    9230.1439    5610.9807    6666.7556   -3645.7047    4612.6232    82.774289 
   83700    512.97655    -109.9954   0.46415196   -109.53125   -7620.3326    4.3561957    4.3561957    4.3561957   -7620.3326   -11460.328   -6196.2307   -5204.4395   -3338.7459    5418.8046    -7770.292    82.665093 
   83800    197.49288   -109.71385   0.17869571   -109.53515    880.04509    4.3543348    4.3543348    4.3543348    880.04509   -3630.7339    4472.4095    1798.4596   -9066.0085     489.5152   -17926.003    82.559193 
   83900    811.13865   -110.26143    0.7339353    -109.5275    707.12945    4.3589744    4.3589744    4.3589744    707.12945   -11633.028    18578.007   -4823.5912    3922.1283    317.85862    11322.588    82.823382 
   84000    438.53087   -109.92826   0.39679194   -109.53147    4955.3291    4.3562826    4.3562826    4.3562826    4955.3291   -7872.8993    17224.548    5514.3388   -5366.0049    2480.8464    -10228.98     82.67004 
   84100    237.81509   -109.74969   0.21518009   -109.53451   -9627.6559    4.3576626    4.3576626    4.3576626   -9627.6559   -11894.272   -753.58906   -16235.107   -12168.741    4018.8385     -10452.9    82.748631 
   84200    752.07343   -110.20734   0.68049184   -109.52684    5477.4224    4.3534832    4.3534832    4.3534832    5477.4224   -3700.6377    11956.706    8176.1987    2840.6272   -1606.0043    6735.6159    82.510765 
   84300    581.80628   -110.05724   0.52643055   -109.53081    -6727.594    4.3611337    4.3611337    4.3611337    -6727.594   -13664.117    1458.6969   -7977.3619   -5622.1708    2049.3316   -10878.837    82.946528 
   84400    221.03668   -109.73466   0.19999863   -109.53466    467.71545    4.3525453    4.3525453    4.3525453    467.71545   -4058.6822    7234.5992   -1772.7707   -8998.8161      6239.15   -13260.203    82.457452 
   84500    696.94086   -110.15882   0.63060674   -109.52821    764.08522    4.3609724    4.3609724    4.3609724    764.08522    -10391.02    17946.701   -5263.4257    2276.9953    -3847.153    2903.4471    82.937325 
   84600    496.05206    -109.9783   0.44883833   -109.52946   -413.91152    4.3574383    4.3574383    4.3574383   -413.91152   -8467.1351    17720.828   -10495.427    65.591714    4606.1863    -8024.625    82.735854 
   84700     242.6737   -109.75213   0.21957626   -109.53255    1659.4636    4.3506904    4.3506904    4.3506904    1659.4636    118.03476    16488.583   -11628.227   -7667.3916     1901.068   -15230.152    82.352072 
   84800    650.75041   -110.11579   0.58881264   -109.52698   -7552.0782    4.3642746    4.3642746    4.3642746   -7552.0782    -12976.05     -3797.04   -5883.1447    3035.2135   -427.61658    8703.2534    83.125869 
   84900    585.56034   -110.05676    0.5298273   -109.52693    2472.2393    4.3507418    4.3507418    4.3507418    2472.2393   -3713.5334     12490.64   -1360.3889    8912.9494    4409.6025   -5023.7672     82.35499 
   85000    346.07687   -109.84421   0.31313762   -109.53107   -10540.193    4.3609059    4.3609059    4.3609059   -10540.193   -7058.8433    -8164.608   -16397.127   -10586.658    736.12898   -12665.948    82.933528 
   85100    681.70795   -110.14101   0.61682368   -109.52418   -2877.3139    4.3589372    4.3589372    4.3589372   -2877.3139   -10879.676    4179.1068   -1931.3727    5267.6879    2530.0025    5750.6349    82.821263 
   85200    456.01306   -109.93907    0.4126102   -109.52646   -680.79225    4.3558695    4.3558695    4.3558695   -680.79225   -8678.0287    12387.591   -5751.9391    8354.4208    1567.4338   -2802.7474    82.646524 
   85300    403.77578   -109.89402   0.36534481   -109.52868    53.448065    4.3535278    4.3535278    4.3535278    53.448065   -2221.0966    14729.169   -12347.728   -9980.3273    4560.2258   -18661.024    82.513304 
   85400    564.45984   -110.03761   0.51073513   -109.52688   -3646.6561     4.364598     4.364598     4.364598   -3646.6561   -17072.431    5145.2653    987.19697    6811.7268    141.91033     2915.821    83.144353 
   85500    530.06658   -110.00722   0.47961538   -109.52761    1260.3728    4.3501644    4.3501644    4.3501644    1260.3728   -6682.5841    3500.2977    6963.4047    9091.2046   -1643.3204   -5163.7292    82.322208 
   85600    391.96525   -109.88437   0.35465839   -109.52971   -6177.0371    4.3587926    4.3587926    4.3587926   -6177.0371   -5652.1176   -4907.8879   -7971.1058   -6806.5531    5024.2256   -19709.192    82.813016 
   85700    639.72004   -110.10408   0.57883214   -109.52525   -10948.822    4.3630207    4.3630207    4.3630207   -10948.822    -22098.61   -12794.826     2046.969    6306.3947   -3951.5442    5045.4284     83.05424 
   85800    476.92391   -109.95653   0.43153077   -109.52499    15370.379    4.3445204    4.3445204    4.3445204    15370.379     -376.033    21394.595    25092.576    13017.057    999.64569   -3299.5024    82.002203 
   85900    402.43872   -109.89232   0.36413501   -109.52818   -8475.9805    4.3665592    4.3665592    4.3665592   -8475.9805   -15973.178     4088.828   -13543.591    -5896.951    2199.8318   -8700.9164    83.256482 
   86000    470.39238   -109.95167   0.42562091   -109.52605    10092.089    4.3530061    4.3530061    4.3530061    10092.089   -13552.617    22755.429    21073.455    7398.6421   -3642.0505    1083.2207    82.483639 
   86100    559.32261   -110.03142   0.50608685   -109.52534     3137.745    4.3561386    4.3561386    4.3561386     3137.745    -15043.55     10162.75    14294.035    12309.174    2917.7634    2374.6491     82.66184 
   86200    447.55794     -109.931   0.40495983   -109.52604   -4854.0576    4.3608775    4.3608775    4.3608775   -4854.0576    -11115.46    5593.1996   -9039.9122   -5769.6221    1143.8687    -10361.24    82.931909 
   86300    483.17183   -109.96349   0.43718403   -109.52631    -1057.441    4.3528999    4.3528999    4.3528999    -1057.441   -15474.324   -1647.3099    13949.311    10188.397   -438.35848   -5366.4775    82.477606 
   86400    614.19336   -110.08154   0.55573506    -109.5258    -2966.982    4.3589977    4.3589977    4.3589977    -2966.982   -19636.053    -6.337188    10741.444    11398.451    618.20933    4351.1967    82.824711 
   86500    492.18532   -109.97248   0.44533962   -109.52714    1979.4776    4.3574604    4.3574604    4.3574604    1979.4776   -2817.0317    14216.344     -5460.88   -5880.5369    2744.2507   -19831.209    82.737109 
   86600    403.03217   -109.89226   0.36467198   -109.52759   -310.68889    4.3565925    4.3565925    4.3565925   -310.68889   -22270.958    12304.351      9034.54    11684.857    -104.0137   -141.14608    82.687681 
   86700    531.29548   -110.00557   0.48072732   -109.52485    1689.7542    4.3583846    4.3583846    4.3583846    1689.7542   -18893.564    20084.418    3878.4087    8735.1325    896.69938    -1182.969    82.789765 
   86800    597.50257   -110.06563   0.54063288     -109.525    2441.7457    4.3536474    4.3536474    4.3536474    2441.7457   -799.57898    8094.5647    30.251293   -4875.5007    2249.0443    -16047.62    82.520103 
   86900    417.22471   -109.90702   0.37751368    -109.5295   -7769.1328    4.3581543    4.3581543    4.3581543   -7769.1328   -25551.945   -3438.3586    5682.9057    16336.874   -1761.3188    4122.4789    82.776645 
   87000    539.00121   -110.01651   0.48769962   -109.52881    -1799.105    4.3553547    4.3553547    4.3553547    -1799.105   -18423.261   -4518.2108    17544.157     7177.249   -297.34385   -5205.8305    82.617223 
   87100    627.69278   -110.09458   0.56794962   -109.52663   -3194.6039    4.3580076    4.3580076    4.3580076   -3194.6039   -1825.7759   -2059.1188    -5698.917   -3087.2648   -313.12199   -7979.5246    82.768286 
   87200      385.106   -109.87745     0.348452     -109.529   -4431.2439    4.3554345    4.3554345    4.3554345   -4431.2439   -22189.944    3533.8344    5362.3777    17233.474    -1913.276   -1943.6058    82.621763 
   87300    427.70728   -109.91654   0.38699854   -109.52955   -1634.4859    4.3557425    4.3557425    4.3557425   -1634.4859   -21173.473    9098.3422    7171.6733    4758.0506   -4371.9428    1787.5512    82.639291 
   87400    555.97461   -110.02869   0.50305751   -109.52563    2683.2608    4.3598046    4.3598046    4.3598046    2683.2608   -4284.2577    14190.044   -1856.0043   -6788.3626    1042.2285   -8443.2044    82.870714 
   87500    490.21239   -109.97027   0.44355448   -109.52671    2466.0515    4.3523168    4.3523168    4.3523168    2466.0515     -16928.2    14402.039     9924.316    15158.348   -3814.9616    -6407.598    82.444464 
   87600    436.60087   -109.92377   0.39504564   -109.52872   -7087.1549    4.3590131    4.3590131    4.3590131   -7087.1549   -21646.797   -6300.2632    6685.5957      3076.67    -3435.926    3879.5944    82.825586 
   87700    651.16542   -110.11474   0.58918815   -109.52556    165.86796    4.3566264    4.3566264    4.3566264    165.86796   -4214.8426    9344.0583   -4631.6118   -10445.841    2077.4827    -13163.81    82.689614 
   87800    544.95164    -110.0196   0.49308369   -109.52651   -1840.1233    4.3575812    4.3575812    4.3575812   -1840.1233    -15718.32    9059.7059    1138.2445    17788.226    -3794.205   -133.73768    82.743993 
   87900    377.22041   -109.86988   0.34131695   -109.52856    2660.2037    4.3530631    4.3530631    4.3530631    2660.2037   -16805.444    15825.124    8960.9315    2817.7308    313.45078     1837.129    82.486883 
   88000    522.63582   -110.00182   0.47289187   -109.52892   -4666.9917    4.3597658    4.3597658    4.3597658   -4666.9917    -7134.133    5192.6975    -12059.54   -11345.723     1274.369   -13987.997    82.868499 
   88100    548.81796    -110.0236   0.49658202   -109.52702    8619.0973    4.3519544    4.3519544    4.3519544    8619.0973    163.12163    21188.315     4505.855    16124.336    -567.7086    64.996482    82.423869 
   88200    441.32908   -109.92732   0.39932383     -109.528   -10186.366    4.3621266    4.3621266    4.3621266   -10186.366   -21258.499   -4188.3029   -5112.2949    1273.5721   -81.635966   -146.11336     83.00319 
   88300    465.65088   -109.94909   0.42133071   -109.52776   -2814.3298     4.354457     4.354457     4.354457   -2814.3298    -3239.381    1621.3729   -6824.9812   -16504.235    2017.6825   -11087.701    82.566145 
   88400    659.34928   -110.12255   0.59659308   -109.52595    4557.1144    4.3512751    4.3512751    4.3512751    4557.1144    3344.4693    12794.837   -2467.9629    11951.434    1539.0831   -191.21257    82.385281 
   88500    368.93127   -109.86367   0.33381677   -109.52985   -6246.6286    4.3650046    4.3650046    4.3650046   -6246.6286   -25586.533    10390.643   -3543.9968   -4788.5988   -2925.6545    1151.0493    83.167587 
   88600    388.59705   -109.88032   0.35161078   -109.52871    8706.5018     4.349432     4.349432     4.349432    8706.5018    3831.9836    21571.198    716.32343   -17891.842     3143.399   -8399.8897    82.280636 
   88700    647.32193   -110.11015   0.58571048   -109.52444   -1430.6296     4.362058     4.362058     4.362058   -1430.6296   -5630.4299     15005.39   -13666.849    7360.4948    378.56408    4810.1486    82.999274 
   88800    476.94466   -109.95927   0.43154956   -109.52772   -436.35182    4.3552885    4.3552885    4.3552885   -436.35182   -10584.405    5588.2901    3687.0594   -7252.4203   -4150.7888    1452.5413    82.613455 
   88900    410.34612   -109.90128   0.37128979   -109.52999    -3643.644    4.3552218    4.3552218    4.3552218    -3643.644    -6243.572   -543.85654   -4143.5033   -12559.585    4537.0424   -6026.2479    82.609662 
   89000    662.11819   -110.12473   0.59909845   -109.52563    1547.5564    4.3592404    4.3592404    4.3592404    1547.5564   -1899.6456    20665.605   -14123.291    5605.2054    1249.2848     3233.753    82.838546 
   89100    510.12895   -109.98929   0.46157539   -109.52771    5027.3198    4.3527379    4.3527379    4.3527379    5027.3198   -8569.9448    20716.148    2935.7567   -2549.8028    -4122.141   -286.01913    82.468398 
   89200    299.77283   -109.80217   0.27124075   -109.53093    -1787.418    4.3610028    4.3610028    4.3610028    -1787.418   -16148.721    18504.283   -7717.8161   -12564.606     3665.019    -4039.088    82.939058 
   89300    694.09868   -110.15325   0.62803507   -109.52521    5944.2037    4.3519258    4.3519258    4.3519258    5944.2037    479.98108     25782.36   -8429.7301    4829.9465    5763.0078    -3459.251    82.422246 
   89400    490.97368    -109.9729    0.4442433   -109.52865    -3539.483    4.3585664    4.3585664    4.3585664    -3539.483   -13300.325     6297.279   -3615.4034    -6524.478   -4720.5975      4874.43    82.800127 
   89500    397.56377    -109.8904   0.35972405   -109.53068   -8059.1121    4.3560251    4.3560251    4.3560251   -8059.1121   -19002.693    -4725.788   -448.85496   -19828.096    3789.5004   -8491.6844    82.655378 
   89600    614.95405   -110.08447   0.55642334   -109.52805    -1435.446     4.355177     4.355177     4.355177    -1435.446   -3935.3102    10211.633   -10582.661    5627.8027    9571.5226    1483.4539    82.607112 
   89700    563.30859   -110.03755   0.50969345   -109.52786   -8059.4054    4.3599723    4.3599723    4.3599723   -8059.4054   -12762.791   -4849.1245   -6566.3004   -10252.171   -6360.6654    9306.2537    82.880274 
   89800    328.74773   -109.82783   0.29745785   -109.53038   -2285.3159    4.3547019    4.3547019    4.3547019   -2285.3159   -21300.073    11744.393    2699.7325   -14133.463    5163.5965   -5733.2575    82.580078 
   89900    499.06684   -109.97912   0.45156616   -109.52756   -2332.5778    4.3604732    4.3604732    4.3604732   -2332.5778   -8135.9005    15895.306   -14757.139    7038.7722    8284.9297    8248.3569    82.908847 
   90000    589.86225   -110.05918   0.53371976   -109.52546    4903.9799    4.3538158    4.3538158    4.3538158    4903.9799   -4333.8888    16478.801    2567.0275   -5910.5333   -5592.2369    6316.2203    82.529678 
   90100    338.47086   -109.83551   0.30625555   -109.52925    -1037.149    4.3598837    4.3598837    4.3598837    -1037.149   -20171.726    12092.202    4968.0762    -8673.433     5480.827    135.30986    82.875221 
   90200    516.98941    -109.9947   0.46778288   -109.52692   -270.01831    4.3558025    4.3558025    4.3558025   -270.01831   -10322.501    9894.1967   -381.75094    7525.0603    7055.6427    1497.0645     82.64271 
   90300    584.40067   -110.05297     0.528778    -109.5242    379.13588    4.3601328    4.3601328    4.3601328    379.13588    -6075.415    2979.9176    4232.9051   -4168.6638   -3984.5603    5052.5147    82.889427 
   90400    507.09933   -109.98476   0.45883413   -109.52593   -6305.8399     4.358127     4.358127     4.358127   -6305.8399     -23017.9   -329.68776    4430.0676   -7791.6788    4030.2343   -2550.1346    82.775089 
   90500    346.27096   -109.84239   0.31331324   -109.52907    8249.1833    4.3519747    4.3519747    4.3519747    8249.1833   -1704.6268    25780.957    671.21918     6907.562    8692.9151   -2880.1431    82.425022 
   90600    607.42283   -110.07699   0.54960894   -109.52738   -5125.5224    4.3629821    4.3629821    4.3629821   -5125.5224   -11737.731    849.35952    -4488.196    535.17681   -3891.4281    7299.0987    83.052038 
   90700    539.09857   -110.01486   0.48778772   -109.52708    8621.8587    4.3509055    4.3509055    4.3509055    8621.8587   -7962.3339    29968.847    3859.0634   -5878.6173     5274.444   -5452.5496    82.364289 
   90800     320.5022   -109.82017   0.28999712   -109.53017   -6812.5517    4.3624488    4.3624488    4.3624488   -6812.5517   -18393.246    13741.371    -15785.78    7271.7008    8825.4026    2456.8272    83.021585 
   90900    605.48238    -110.0738   0.54785319   -109.52594   -70.361889    4.3533953    4.3533953    4.3533953   -70.361889   -1232.3272    3521.9839   -2500.7423    9199.7052   -2459.3841    6464.1201    82.505767 
   91000    644.75941   -110.10952   0.58339187   -109.52613   -2347.8126    4.3558638    4.3558638    4.3558638   -2347.8126   -15476.522    18174.992   -9741.9081   -6779.0374    8069.8105    1457.0992    82.646197 
   91100    380.65875   -109.87424   0.34442804   -109.52982   -10632.881    4.3599108    4.3599108    4.3599108   -10632.881   -17547.288    -4280.053     -10071.3    10511.624    6665.4802    64.673182     82.87677 
   91200    491.15236   -109.97288   0.44440498   -109.52848    1481.9067    4.3544617    4.3544617    4.3544617    1481.9067    1694.7364    -3448.444    6199.4279    9457.4783    -1987.933    6101.3974    82.566413 
   91300    658.29418   -110.12078    0.5956384   -109.52515   -4990.9444    4.3604607    4.3604607    4.3604607   -4990.9444   -19237.853    12892.986   -8627.9663   -8212.9722    5640.3558    1417.3322    82.908132 
   91400    324.21729   -109.82237   0.29335861   -109.52901    8139.1832    4.3519742    4.3519742    4.3519742    8139.1832   -5274.0709     20129.23    9562.3901     13154.02    3278.7869   -6938.2536    82.424996 
   91500    408.88256   -109.89998   0.36996553   -109.53001   -4998.2814    4.3616832    4.3616832    4.3616832   -4998.2814   -13174.913   -391.85454   -1428.0766    4306.7024   -4568.0531    4334.9056    82.977883 
   91600    516.27311   -109.99317   0.46713476   -109.52604    10367.714    4.3527696    4.3527696    4.3527696    10367.714   -3483.1237    26401.388    8184.8761   -6765.0379    5488.7988   -2492.8893    82.470201 
   91700    513.82676   -109.99237   0.46492125   -109.52745   -4262.2358    4.3615948    4.3615948    4.3615948   -4262.2358   -17672.339    5576.9211    -691.2894    10180.024    883.13349   -4215.5934     82.97284 
   91800    412.29871   -109.89996   0.37305653    -109.5269    357.28379    4.3562541    4.3562541    4.3562541    357.28379    2786.1294   -7076.7962    5362.5182    2328.6031    -2207.006    2304.0495    82.668416 
   91900     541.1692   -110.01611   0.48966127   -109.52645   -1193.1116    4.3516301    4.3516301    4.3516301   -1193.1116   -9702.9865    9477.1359   -3353.4841   -8046.9207    5994.8598    3549.1853    82.405447 
   92000    606.66653   -110.07317   0.54892462   -109.52425   -11921.631    4.3666753    4.3666753    4.3666753   -11921.631   -19496.523   -7530.9498   -8737.4194    6098.4959    954.49136   -529.98687    83.263125 
   92100    538.99006   -110.01171   0.48768954   -109.52402    3255.4057    4.3486532    4.3486532    4.3486532    3255.4057    2608.7899    1918.1578    5239.2694    3908.9599    2159.7591    2294.9714    82.236447 
   92200    378.72384   -109.87085   0.34267729   -109.52817   -8726.5603    4.3619084    4.3619084    4.3619084   -8726.5603   -17574.034    985.23526   -9590.8818   -10357.086    4292.7536     5488.639    82.990738 
   92300    675.26295    -110.1365    0.6109921   -109.52551    3392.1841    4.3555131    4.3555131    4.3555131    3392.1841   -11754.901    14901.041    7030.4122    330.86904     3922.951   -910.30984    82.626234 
   92400    544.31318   -110.01974     0.492506   -109.52724     6893.501       4.3537       4.3537       4.3537     6893.501    1974.2944    12435.943    6270.2662    2615.7326    305.84796   -954.85677    82.523094 
   92500    268.02334   -109.77456   0.24251315   -109.53205   -6934.2545    4.3616783    4.3616783    4.3616783   -6934.2545   -26694.376    1677.5802    4214.0326   -14542.719    6022.8432     1989.554    82.977606 
   92600    623.73209    -110.0909    0.5643659   -109.52653    7418.5321    4.3537062    4.3537062    4.3537062    7418.5321   -9725.6709    13706.503    18274.764   -1891.9269    1955.6675   -2881.2507    82.523447 
   92700     642.3278   -110.10812   0.58119169   -109.52692    1695.0495    4.3559053    4.3559053    4.3559053    1695.0495   -4249.5796    5016.0713    4318.6567   -262.25085   -4754.2637   -1838.6331    82.648562 
   92800    227.13365   -109.73882    0.2055153    -109.5333   -1868.0662    4.3575469    4.3575469    4.3575469   -1868.0662   -13285.538   -8264.7699    15946.109   -18299.108    5991.9778    4811.3946    82.742037 
   92900    595.54759   -110.06841   0.53886398   -109.52955   -3662.4188    4.3573196    4.3573196    4.3573196   -3662.4188   -13886.415    3814.3566   -915.19817    1465.1259   -1783.7339   -2091.4979    82.729089 
   93000    675.27004   -110.13718   0.61099853   -109.52618    2236.0548    4.3547532    4.3547532    4.3547532    2236.0548    3361.5875    -2852.457    6199.0339    884.45776   -3303.8446    1030.8373    82.582996 
   93100    333.20408   -109.83236   0.30149005   -109.53087   -11363.982    4.3607844    4.3607844    4.3607844   -11363.982   -14098.619   -15219.163   -4774.1626   -13420.122    4278.3165    5181.0709    82.926597 
   93200    468.49336   -109.95255   0.42390264   -109.52865    3177.3106    4.3516735    4.3516735    4.3516735    3177.3106   -7527.0606    8047.7696    9011.2227    5389.4449    4572.8956   -1282.0648     82.40791 
   93300    655.74576   -110.11942   0.59333254   -109.52609   -1416.8633    4.3599559    4.3599559    4.3599559   -1416.8633    1302.2254   -2108.2713   -3444.5441    3437.7828   -1325.4333    2491.1543    82.879341 
   93400    392.65483   -109.88479   0.35528234   -109.52951    2992.2846    4.3558409    4.3558409    4.3558409    2992.2846   -1514.9461    2379.3326    8112.4673   -9063.8727    8320.2248   -37.004186    82.644896 
   93500    386.21086   -109.87945    0.3494517      -109.53    3045.9227    4.3554798    4.3554798    4.3554798    3045.9227   -16381.949    14754.349    10765.368    5772.2699    10100.926    221.37439    82.624342 
   93600    535.85489   -110.01083   0.48485276   -109.52598    3363.9966    4.3610464    4.3610464    4.3610464    3363.9966   -3721.5122    4844.8928    8968.6092    7205.3418   -3681.8224   -4652.2997    82.941548 
   93700    558.14098   -110.02992   0.50501769    -109.5249    9608.6236    4.3505673    4.3505673    4.3505673    9608.6236    949.67307    14144.319    13731.878   -6822.3742    9394.1226   -2456.6877    82.345083 
   93800    316.62701   -109.81633   0.28649077   -109.52984   -5981.7944    4.3628974    4.3628974    4.3628974   -5981.7944   -30030.514    7590.0397     4495.091    8005.3402    7183.6838    -770.3071    83.047199 
   93900    531.64096   -110.00797   0.48103991   -109.52693    7037.3751    4.3511922    4.3511922    4.3511922    7037.3751   -5696.7766    17828.423    8980.4784    8783.4594   -5970.0107   -6094.3888    82.380573 
   94000    644.57873   -110.11004   0.58322838   -109.52681   -1797.8155    4.3605414    4.3605414    4.3605414   -1797.8155    -10721.67    1245.3674    4082.8557   -5869.8845    2660.0875    4601.8734    82.912733 
   94100    403.67023   -109.89444   0.36524931   -109.52919   -9365.3344    4.3589165    4.3589165    4.3589165   -9365.3344   -26396.837    2938.5233   -4637.6895      9283.57    8885.1535    402.88862    82.820083 
   94200    479.32443    -109.9617   0.43370282   -109.52799     1932.689    4.3502201    4.3502201    4.3502201     1932.689   -11213.871    11677.631    5334.3068    6464.0319   -11417.686   -880.36463     82.32537 
   94300    734.86253   -110.18819   0.66491906   -109.52327   -15786.761    4.3671218    4.3671218    4.3671218   -15786.761   -15445.052   -13641.689   -18273.541   -5238.5401   -1061.3034    5334.1807    83.288666 
   94400    468.30072   -109.95084   0.42372833   -109.52711    3632.2679    4.3465756    4.3465756    4.3465756    3632.2679   -11614.308    16315.666    6195.4454    9714.0737     8275.566    1627.5707    82.118632 
   94500     434.9387   -109.92389   0.39354168   -109.53035   -11564.102    4.3643522    4.3643522    4.3643522   -11564.102   -28532.349    1745.3176   -7905.2747    3096.6725   -14072.043     931.6885    83.130307 
   94600    666.48775   -110.12901   0.60305212   -109.52596   -422.55463    4.3567809    4.3567809    4.3567809   -422.55463   -5263.8421    468.78081    3527.3974   -5770.3713   -1521.1041   -1834.2039    82.698411 
   94700    524.37348   -110.00073   0.47446415   -109.52627    8362.2454    4.3489796    4.3489796    4.3489796    8362.2454    -5904.269    20228.416     10762.59    9924.0605    7459.8189    2150.1485    82.254963 
   94800    342.95642   -109.83877   0.31031417   -109.52846   -11072.252    4.3684756    4.3684756    4.3684756   -11072.252   -34383.508    2090.5528   -923.80042    1800.8369   -8624.7345    -3659.489     83.36615 
   94900    569.18466   -110.03908   0.51501024   -109.52407    15786.427     4.346995     4.346995     4.346995    15786.427    9340.3789      19938.2    18080.704   -5356.0845   -2298.6578   -5883.1233    82.142405 
   95000    574.32255   -110.04481   0.51965911   -109.52515     2011.738    4.3620498    4.3620498    4.3620498     2011.738   -12721.873    13585.708    5171.3791    8617.9357    7837.2968    1851.0232    82.998809 
   95100    339.89434   -109.83598   0.30754355   -109.52843    1616.8185    4.3574115    4.3574115    4.3574115    1616.8185   -11185.426    10395.932      5639.95    3222.3815   -4212.8157    -3662.059    82.734323 
   95200    451.63658   -109.93761   0.40865027   -109.52896    4810.4975     4.350916     4.350916     4.350916    4810.4975    2981.4025    6572.5109    4877.5793   -8162.0974   -5912.7104   -3291.2734    82.364886 
   95300    664.35882   -110.12653   0.60112583   -109.52541   -3495.3661    4.3625704    4.3625704    4.3625704   -3495.3661    58.863574   -3607.1833   -6937.7787    5761.7297    6798.4809    220.26348     83.02853 
   95400    394.84137   -109.88643   0.35726077   -109.52916   -4563.0083    4.3552656    4.3552656    4.3552656   -4563.0083   -15193.708    7561.7294   -6057.0464    3797.0832    -6541.124    -508.8937    82.612154 
   95500    346.27945   -109.84318   0.31332092   -109.52986   -6142.3336    4.3563984    4.3563984    4.3563984   -6142.3336   -6130.2055   -7211.6524    -5085.143   -13934.688   -9040.2362   -2393.4296     82.67663 
   95600    774.05459   -110.22492   0.70038086   -109.52454   -3430.9451     4.357388     4.357388     4.357388   -3430.9451   -2260.3382   -2524.1706   -5508.3265     3690.174    5478.8255    3329.0398    82.732989 
   95700    472.96673   -109.95825   0.42795024    -109.5303   -3859.5713    4.3554531    4.3554531    4.3554531   -3859.5713   -12996.723    5145.9448   -3727.9354   -2274.4078   -9238.9512   -863.74732     82.62282 
   95800    302.66494   -109.80764    0.2738576   -109.53379   -5625.1456    4.3558114    4.3558114    4.3558114   -5625.1456   -18631.342   -5998.0719    7753.9767   -15963.765   -8009.9052   -6524.6827    82.643216 
   95900    737.63146   -110.19359   0.66742444   -109.52616   -578.38072    4.3606386    4.3606386    4.3606386   -578.38072   -2597.4275     320.9875    541.29779    2989.3513    2972.8241    3703.5582    82.918279 
   96000    564.99048    -110.0397   0.51121526   -109.52849    4060.8066    4.3509214    4.3509214    4.3509214    4060.8066   -11674.971    11245.111     12612.28    -5757.239   -5765.9215   -2090.0419    82.365193 
   96100    197.06803    -109.7136   0.17831129   -109.53529    188.11911    4.3572264    4.3572264    4.3572264    188.11911   -9135.1681   -1231.0286    10930.554   -10306.375   -5535.3734   -7350.9232    82.723781 
   96200    670.33812   -110.13563   0.60653602   -109.52909    732.88241    4.3593919    4.3593919    4.3593919    732.88241   -1539.6621    2992.1185     746.1908    1238.4688    1944.9021    585.71349    82.847184 
   96300    531.82907   -110.00911   0.48121012    -109.5279     13029.48     4.350159     4.350159     4.350159     13029.48    3377.8019    17336.278    18374.359    444.28537   -961.27905   -44.784611    82.321903 
   96400    288.70718   -109.79291   0.26122832   -109.53168   -9782.4402    4.3627245    4.3627245    4.3627245   -9782.4402   -18077.449   -1001.7076   -10268.164    -8714.164   -7143.3904   -6923.3228    83.037327 
   96500    551.34087   -110.02579   0.49886481   -109.52692    6897.5372    4.3523406    4.3523406    4.3523406    6897.5372    12560.019    3992.5058    4140.0864    2429.7271    3836.5732   -1286.5582    82.445815 
   96600    663.43131   -110.12735   0.60028659   -109.52707     1349.384    4.3549578    4.3549578    4.3549578     1349.384   -5573.2141    6507.1269    3114.2393    6841.3887   -3565.4756    5341.3116     82.59464 
   96700    362.12074   -109.85794   0.32765446   -109.53029   -6072.6341    4.3622927    4.3622927    4.3622927   -6072.6341   -2572.0935   -1748.6221   -13897.187   -12104.251   -8120.7506   -7290.6379    83.012675 
   96800    580.59873   -110.05171   0.52533794   -109.52638    368.11878    4.3506683    4.3506683    4.3506683    368.11878    -3642.566   -3137.6111    7884.5334    5852.0742    3221.0491   -2160.8955     82.35082 
   96900    591.96091   -110.06086   0.53561867   -109.52525   -1346.0338    4.3588677    4.3588677    4.3588677   -1346.0338   -5105.5466     1225.572   -158.12692    6423.4398   -7473.6577    5601.2222    82.817297 
   97000    514.08625   -109.99188   0.46515604   -109.52672   -7341.5057    4.3584433    4.3584433    4.3584433   -7341.5057   -12863.091   -1857.6588   -7303.7676   -12063.083   -5857.9935   -7685.0887    82.793113 
   97100    430.51812   -109.91697   0.38954184   -109.52743    4681.5218     4.351171     4.351171     4.351171    4681.5218    5227.1489   -4781.0835      13598.5    8863.1766    1963.0436   -2909.5832    82.379367 
   97200    590.79514    -110.0612   0.53456386   -109.52664   -2035.2344    4.3593391    4.3593391    4.3593391   -2035.2344   -9435.2249    829.38923    2500.1325    6428.5792   -5277.0594    3082.4756    82.844172 
   97300    448.73829   -109.93292   0.40602783   -109.52689    3144.7848    4.3570868    4.3570868    4.3570868    3144.7848    3391.1123    7872.4475   -1829.2053   -4609.0859    -4404.372   -5395.8848    82.715829 
   97400    435.81827   -109.92146   0.39433753   -109.52712    2446.1311    4.3518004    4.3518004    4.3518004    2446.1311   -4645.0966    814.60229    11168.888     8923.237    1011.0007   -8405.7882    82.415124 
   97500    470.63841   -109.95245   0.42584353    -109.5266    2441.8313    4.3596519    4.3596519    4.3596519    2441.8313    1869.7403    5071.6928     384.0608    9673.9981   -2704.8592     4814.595    82.862008 
   97600     563.9582     -110.036   0.51028123   -109.52571   -198.70352     4.354811     4.354811     4.354811   -198.70352   -7352.0653    8858.9459   -2102.9912   -658.72828   -5824.0444   -2723.2434    82.586287 
   97700    356.01542   -109.85154   0.32213024   -109.52941    6432.7301     4.351199     4.351199     4.351199    6432.7301    8378.6762    554.63619    10364.878    5578.4144    2109.5559   -12292.716    82.380959 
   97800    559.91762   -110.03345   0.50662523   -109.52683   -5923.6294       4.3621       4.3621       4.3621   -5923.6294   -15296.665   -1705.5482   -768.67479    10718.046    462.63192    6140.0597    83.001676 
   97900    552.74772   -110.02564   0.50013775    -109.5255    5270.1798    4.3516467    4.3516467    4.3516467    5270.1798     4229.346    11908.625   -327.43143   -4184.0319   -7172.3482   -269.07393    82.406387 
   98000    452.55808   -109.93756   0.40948406   -109.52807   -3551.9554    4.3547943    4.3547943    4.3547943   -3551.9554   -8951.1653   -3754.3899     2049.689    6401.2969    5345.1115   -9768.3304    82.585335 
   98100    512.42036   -109.98987   0.46364871   -109.52622   -3028.2182     4.360249     4.360249     4.360249   -3028.2182   -4576.3816   -3470.8317   -1037.4413    9304.2504   -1180.9804    4496.1605    82.896058 
   98200    648.20112   -110.11152     0.586506   -109.52501    3930.4535    4.3493719    4.3493719    4.3493719    3930.4535    1261.1901    11882.933   -1352.7622   -8321.1227   -9009.1909    4068.4116    82.277223 
   98300    388.35074   -109.88107   0.35138791   -109.52969   -1981.8958    4.3569126    4.3569126    4.3569126   -1981.8958   -1395.0896   -2303.4741   -2247.1238    11067.561    4842.1098   -5857.1597    82.705907 
   98400    511.97931   -109.99153   0.46324964   -109.52828   -6525.3971    4.3596224    4.3596224    4.3596224   -6525.3971   -16207.511   -850.48507   -2518.1955    7874.3458   -2832.8413    945.91778    82.860326 
   98500    572.23963   -110.04316   0.51777445   -109.52539    6275.8069    4.3492855    4.3492855    4.3492855    6275.8069    13629.983    9428.4318   -4230.9944   -4888.4165   -6379.6152    10599.456    82.272319 
   98600    436.39372   -109.92352   0.39485821   -109.52866   -7253.4547    4.3585911    4.3585911    4.3585911   -7253.4547   -16922.958    658.17722   -5495.5834    13590.219    4076.0886   -7018.8899    82.801533 
   98700    406.31189   -109.89725   0.36763954   -109.52961   -1645.0833    4.3562946    4.3562946    4.3562946   -1645.0833   -6536.3759   -3272.5233    4873.6494    7332.5923    525.22126   -3936.1404    82.670721 
   98800    614.85682   -110.08271   0.55633538   -109.52638    5407.7708    4.3494064    4.3494064    4.3494064    5407.7708    5477.1662    12715.029   -1968.8832   -2474.0754    -3464.744    15111.246    82.279181 
   98900     444.6085   -109.93153   0.40229111   -109.52924   -5139.1952    4.3612149    4.3612149    4.3612149   -5139.1952   -9308.9504   -550.04075   -5558.5945    9786.6712    2900.8722   -6345.9306     82.95116 
   99000    451.41325   -109.93686    0.4084482   -109.52841   -2356.8563    4.3531143    4.3531143    4.3531143   -2356.8563   -8004.4779   -5511.6371    6445.5463    7332.7425    6501.8867    -3335.108    82.489793 
   99100    552.27618   -110.02646    0.4997111   -109.52675     1082.497    4.3527567    4.3527567    4.3527567     1082.497    10754.604    -1876.864    -5630.249   -6605.3989   -2713.6687    17152.384    82.469466 
   99200    551.01632   -110.02537   0.49857115    -109.5268   -7344.4787    4.3596456    4.3596456    4.3596456   -7344.4787   -15299.408   -2394.3583   -4339.6696    5091.6089    3481.1215   -3170.8993    82.861649 
   99300    433.30763   -109.91998   0.39206585   -109.52792     1924.032    4.3511261    4.3511261    4.3511261     1924.032    2820.3898   -6122.9591    9074.6654    7494.3283      6494.15   -1521.8131    82.376817 
   99400    482.15405   -109.96522   0.43626312   -109.52896   -1707.3183      4.35572      4.35572      4.35572   -1707.3183     3301.536    2663.6931   -11087.184   -9887.6113   -4048.8619    14484.324     82.63801 
   99500    559.75752   -110.03343   0.50648037   -109.52695    205.44381    4.3574712    4.3574712    4.3574712    205.44381    -3246.338    3703.4639    159.20548    1681.3117     3540.689    2090.3751    82.737725 
   99600     503.0608    -109.9819   0.45517998   -109.52672    3733.7185    4.3526484    4.3526484    4.3526484    3733.7185    425.79446    8689.4932    2085.8677    9857.0985    3147.0789   -3311.8227    82.463311 
   99700     361.8886   -109.85622   0.32744441   -109.52878   -1065.0491    4.3575246    4.3575246    4.3575246   -1065.0491    3193.7924    3786.0752   -10175.015   -11094.079   -3351.8004    11634.845     82.74077 
   99800    575.05655   -110.04723   0.52032325    -109.5269    6458.2311    4.3530407    4.3530407    4.3530407    6458.2311   -863.39116    15941.615      4296.47    2034.7144    1683.7011    5995.1392    82.485607 
   99900     672.8315   -110.13521   0.60879208   -109.52642    1923.7102    4.3560733    4.3560733    4.3560733    1923.7102   -473.75855    11741.916   -5497.0267    8176.9809    2711.7555   -5724.3241    82.658122 
  100000      305.211   -109.80821   0.27616133   -109.53205   -3922.5392    4.3561368    4.3561368    4.3561368   -3922.5392     2808.398   -6648.3671   -7927.6485   -10843.303   -3119.6439    13171.386    82.661736 
Loop time of 23.6377 on 1 procs for 100000 steps with 8 atoms

Pair  time (%) = 7.33146 (31.016)
Kspce time (%) = 5.83076 (24.6672)
Neigh time (%) = 0 (0)
Comm  time (%) = 1.17841 (4.98531)
Outpt time (%) = 0.0473106 (0.200149)
Other time (%) = 9.24977 (39.1314)

Nlocal:    8 ave 8 max 8 min
Histogram: 1 0 0 0 0 0 0 0 0 0
Nghost:    2189 ave 2189 max 2189 min
Histogram: 1 0 0 0 0 0 0 0 0 0
Neighs:    2056 ave 2056 max 2056 min
Histogram: 1 0 0 0 0 0 0 0 0 0

Total # of neighbors = 2056
Ave neighs/atom = 257
Neighbor list builds = 0
Dangerous builds = 0
unfix 20
unfix 21
print "seeds:6221019"
seeds:6221019
