LAMMPS (10 Feb 2015)
# ---- initialize simulations
clear
units metal
dimension 3
boundary p p p
atom_style charge
atom_modify map array
# ---- create atoms
read_data /Users/eugeneragasa/pyflamestk_git/pypospack/tests/tests_integration/workflow/WorkflowLammpsThermalExpansion/param_2856/MgO_NaCl_unit.npt.T2000/lammps.structure
  triclinic box = (0 0 0) to (4.2565 4.2565 4.2565) with tilt (0 0 0)
  1 by 1 by 1 MPI processor grid
  reading atoms ...
  8 atoms
# ---- define interatomic potential
include potential.mod
mass 1 24.305
mass 2 15.999

group Mg type 1
4 atoms in group Mg
group O type 2
4 atoms in group O

set group Mg charge 1.71287520642
  4 settings made for charge
set group O charge -1.71287520642
  4 settings made for charge

variable R_cut equal 10.0

pair_style buck/coul/long ${R_cut}
pair_style buck/coul/long 10
pair_coeff 1 1 0.0 0.5 0.0 ${R_cut}
pair_coeff 1 1 0.0 0.5 0.0 10
pair_coeff 1 2 1268.25800143 0.292150986054 0.0 ${R_cut}
pair_coeff 1 2 1268.25800143 0.292150986054 0.0 10
pair_coeff 2 2 34972.2762623 0.190168709461 15.9037418312 ${R_cut}
pair_coeff 2 2 34972.2762623 0.190168709461 15.9037418312 10

kspace_style pppm 1.0e-5

neighbor 1.0 bin
neigh_modify every 1 delay 0 check yes
# ---- define settings
compute eng all pe/atom
compute eatoms all reduce sum c_eng
# ---- run minimization
reset_timestep 0
fix 1 all box/relax iso 0.0 vmax 0.001
thermo 10
thermo_style custom step pe lx ly lz xy xz yz press pxx pyy pzz pxy pxz pyz c_eatoms
min_style cg
minimize 1e-25 1e-25 5000 10000
PPPM initialization ...
  G vector (1/distance) = 0.353245
  grid = 8 8 8
  stencil order = 5
  estimated absolute RMS force accuracy = 4.15075e-05
  estimated relative force accuracy = 2.88254e-06
  using double precision FFTs
  3d grid and FFT values/proc = 3375 512
Neighbor list info ...
  1 neighbor list requests
  update every 1 steps, delay 0 steps, check yes
  master list distance cutoff = 11
Memory usage per processor = 4.06549 Mbytes
Step PotEng Lx Ly Lz Xy Xz Yz Press Pxx Pyy Pzz Pxy Pxz Pyz eatoms 
       0    -118.2398       4.2565       4.2565       4.2565            0            0            0    92099.563    92099.563    92099.563    92099.563 -2.6648665e-10 1.3518399e-10 2.2028947e-10    -118.2398 
      10   -118.33067     4.299065     4.299065     4.299065            0            0            0    34673.493    34673.493    34673.493    34673.493 -1.1760899e-11 -1.3745134e-10 -5.0678772e-11   -118.33067 
      18   -118.34767    4.3277342    4.3277342    4.3277342            0            0            0    -4.391814    -4.391814    -4.391814    -4.391814 -1.1240186e-10 -1.6034703e-10 -8.891662e-11   -118.34767 
Loop time of 0.0126979 on 1 procs for 18 steps with 8 atoms

Minimization stats:
  Stopping criterion = linesearch alpha is zero
  Energy initial, next-to-last, final = 
        -118.239795936     -118.347671294     -118.347671294
  Force two-norm initial, final = 13.2992 0.00175014
  Force max component initial, final = 13.2992 0.000655584
  Final line search alpha, max atom move = 0.00390625 2.56088e-06
  Iterations, force evaluations = 18 35

Pair  time (%) = 0.00346184 (27.263)
Kspce time (%) = 0.00214195 (16.8685)
Neigh time (%) = 0 (0)
Comm  time (%) = 0.000426769 (3.36093)
Outpt time (%) = 1.50204e-05 (0.11829)
Other time (%) = 0.00665236 (52.3893)

Nlocal:    8 ave 8 max 8 min
Histogram: 1 0 0 0 0 0 0 0 0 0
Nghost:    2189 ave 2189 max 2189 min
Histogram: 1 0 0 0 0 0 0 0 0 0
Neighs:    2344 ave 2344 max 2344 min
Histogram: 1 0 0 0 0 0 0 0 0 0

Total # of neighbors = 2344
Ave neighs/atom = 293
Neighbor list builds = 0
Dangerous builds = 0
unfix 1
# ---- define output variables ----
variable natoms equal "count(all)"
variable tot_energy equal "c_eatoms"
variable length_x equal "lx"
variable length_y equal "ly"
variable length_z equal "lz"
variable tilt_xy equal "xy"
variable tilt_xz equal "xz"
variable tilt_yz equal "yz"
variable tot_press equal "press"
variable press_xx equal "pxx"
variable press_yy equal "pyy"
variable press_zz equal "pzz"
variable press_xy equal "pxy"
variable press_xz equal "pxz"
variable press_yz equal "pyz"

# ---- output ----
print "pypospack:output_section:begin"
pypospack:output_section:begin
print "tot_energy = ${tot_energy}"
tot_energy = -118.347671293792
print "num_atoms = ${natoms}"
num_atoms = 8
print "xx = ${length_x}"
xx = 4.32773421076983
print "yy = ${length_y}"
yy = 4.32773421076983
print "zz = ${length_z}"
zz = 4.32773421076983
print "xy = ${tilt_xy}"
xy = 0
print "xz = ${tilt_xz}"
xz = 0
print "yz = ${tilt_yz}"
yz = 0
print "tot_press = ${tot_press}"
tot_press = -4.39181402043263
print "pxx = ${press_xx}"
pxx = -4.39181402021402
print "pyy = ${press_yy}"
pyy = -4.39181402042068
print "pzz = ${press_zz}"
pzz = -4.39181402066319
print "pxy = ${press_xy}"
pxy = -1.12401857084108e-10
print "pxz = ${press_xz}"
pxz = -1.60347032595802e-10
print "pyz = ${press_yz}"
pyz = -8.89166196817966e-11
print "pypospack:output_section:done"
pypospack:output_section:done
print "pypospack:lammps_sim:done"
pypospack:lammps_sim:done
#------------------------------------------------------------------------------
# RUN THERMOSTAT
# running using an NPT Nose-Hoover style thermostat
#------------------------------------------------------------------------------
variable tempdamp equal 0.1
variable pressdamp equal 1.0
# set initial velocities
velocity all create 2000 6478557 mom yes dist gaussian loop all
# fix for Nose-Hoover style thermostat
fix 20 all npt temp 2000 2000 0.1 aniso 0.0 0.0 1.0 drag 1.0 couple xyz
variable boxx equal lx
variable boxy equal ly
variable boxz equal lz
variable boxp equal press
variable boxt equal temp
# calculate averages every 10000 steps
reset_timestep 0
fix 21 all ave/time 10 10 100 v_boxx v_boxy v_boxz v_boxp v_boxt file lattice.out
thermo_style custom step temp pe ke etotal press lx ly lz press pxx pyy pzz pxy pxz pyz vol
thermo_modify flush yes
thermo 100
run 100000
PPPM initialization ...
  G vector (1/distance) = 0.352508
  grid = 8 8 8
  stencil order = 5
  estimated absolute RMS force accuracy = 4.29555e-05
  estimated relative force accuracy = 2.9831e-06
  using double precision FFTs
  3d grid and FFT values/proc = 3375 512
Memory usage per processor = 3.06549 Mbytes
Step Temp PotEng KinEng TotEng Press Lx Ly Lz Press Pxx Pyy Pzz Pxy Pxz Pyz Volume 
       0         2000   -118.34768     1.809642   -116.53804    23840.406    4.3277342    4.3277342    4.3277342    23840.406    26803.778     21605.86     23111.58    1317.3776    -10409.93    11579.962    81.055361 
     100      1544.88   -117.69318    1.3978399   -116.29534    15009.858    4.3470985    4.3470985    4.3470985    15009.858    31147.301   -1816.1214    15698.394     5646.331    2835.8832   -13251.778    82.148276 
     200    1854.4805   -117.47633     1.677973   -115.79836   -15243.601    4.3795831    4.3795831    4.3795831   -15243.601    20645.384   -29579.845   -36796.341    11852.074    6849.6976   -25771.954    84.003679 
     300    2797.3988   -117.89534    2.5311452   -115.36419     -14334.3    4.3882873    4.3882873    4.3882873     -14334.3   -5549.6207    -21215.49   -16237.791   -23628.629   -1952.6577    3680.7605    84.505534 
     400    2268.1898   -117.07884    2.0523058   -115.02653    16942.342    4.3792606    4.3792606    4.3792606    16942.342    93435.575   -22475.727   -20132.821   -4803.5801    1769.2969   -27459.256    83.985125 
     500    2912.9243   -117.43705    2.6356751   -114.80138   -4296.9028    4.3723017    4.3723017    4.3723017   -4296.9028    23244.023   -20239.268   -15895.463    15959.748   -15445.209   -20512.096     83.58539 
     600    2439.1396   -116.91236    2.2069848   -114.70538    39013.324    4.3763723    4.3763723    4.3763723    39013.324    102227.33    17224.535   -2411.8894    4023.4796    1490.0024    16654.269    83.819059 
     700    2253.8143   -116.72419    2.0392986   -114.68489   -10752.518    4.3910834    4.3910834    4.3910834   -10752.518     63122.26     -17402.7   -77977.115   -5815.7762      13106.3   -16177.559    84.667171 
     800    2237.0572   -116.69522    2.0241364   -114.67108   -12190.034    4.3908657    4.3908657    4.3908657   -12190.034    75841.847   -23788.911   -88623.038    13458.369    11942.125   -7665.3569    84.654579 
     900    1790.9661   -116.29549    1.6205038   -114.67499    66.800454    4.3858921    4.3858921    4.3858921    66.800454    60537.059    10801.119   -71137.776    8518.4416   -17784.288    8021.8228    84.367239 
    1000    1906.6657   -116.40101    1.7251912   -114.67582   -1281.7488    4.3795241    4.3795241    4.3795241   -1281.7488    27938.903    6243.6876   -38027.837   -14516.651    4649.8987   -28909.711    84.000287 
    1100    1608.3876   -116.13532    1.4553029   -114.68002    37884.209    4.3784056    4.3784056    4.3784056    37884.209    140463.48   -34370.784    7559.9289    1553.5629    10584.697   -4266.3621     83.93594 
    1200    1600.1851   -116.13711    1.4478811   -114.68923   -45662.131    4.3983807    4.3983807    4.3983807   -45662.131   -24705.244   -58680.367   -53600.784    20496.731    -3232.582   -1133.3009    85.089985 
    1300    992.29631   -115.57384   0.89785056   -114.67599   -31168.994    4.3972234    4.3972234    4.3972234   -31168.994    17778.304   -44535.273   -66750.014      1902.15   -11734.177   -26207.417    85.022839 
    1400    1540.5615   -116.04808    1.3939324   -114.65414    17992.686    4.3775982    4.3775982    4.3775982    17992.686    83595.053    -18881.38   -10735.616   -12587.947   -8560.0226    6923.2414    83.889516 
    1500    1314.0427   -115.85966    1.1889734   -114.67068   -15163.682    4.3776677    4.3776677    4.3776677   -15163.682    2211.8751    -50483.12    2780.1995    23481.975    9710.7754    1012.5883    83.893511 
    1600    793.69046   -115.40218   0.71814781   -114.68403   -27231.368     4.390131     4.390131     4.390131   -27231.368   -1095.4372   -60897.534   -19701.133    11060.153    2864.1801   -22537.746    84.612092 
    1700    1941.0538   -116.42226    1.7563062   -114.66596   -25510.844    4.3982518    4.3982518    4.3982518   -25510.844    -33557.23   -31300.232   -11675.072    647.59629    16158.869    8436.4981    85.082502 
    1800    1361.2712   -115.89222    1.2317068   -114.66051   -18278.377     4.402866     4.402866     4.402866   -18278.377     -229.408   -27953.061   -26652.662    21254.298   -10136.535   -6772.0211    85.350564 
    1900     1766.947   -116.26091    1.5987708   -114.66214   -37238.598    4.3860546    4.3860546    4.3860546   -37238.598   -67663.434    236.54043   -44288.901    31802.524   -7643.0895   -21051.927    84.376617 
    2000     2195.193   -116.63392    1.9862567   -114.64766    37042.121    4.3576363    4.3576363    4.3576363    37042.121    31468.198    60842.326    18815.839   -19156.487    6914.6682   -499.48213    82.747131 
    2100    2197.0692   -116.68716    1.9879544    -114.6992   -3171.0726    4.3767769    4.3767769    4.3767769   -3171.0726    9949.7957    227.11495   -19690.128   -30420.927   -4104.9519   -10402.185    83.842307 
    2200    2155.1695   -116.63619    1.9500426   -114.68614   -30842.114    4.4014402    4.4014402    4.4014402   -30842.114   -27208.117    841.19374   -66159.419    11685.051   -16975.994   -5289.6383    85.267677 
    2300    2547.4961   -116.96974     2.305028   -114.66471   -873.92539    4.3858203    4.3858203    4.3858203   -873.92539   -27793.937    5868.8073    19303.354    6910.9362    2138.6115    16294.623    84.363097 
    2400    2171.4704   -116.62965     1.964792   -114.66486    16858.553    4.3755776    4.3755776    4.3755776    16858.553    64888.438   -25027.456    10714.678   -18800.096   -8651.7845   -10901.538    83.773408 
    2500    2573.3401   -117.01167    2.3284122   -114.68326   -13216.978    4.3841158    4.3841158    4.3841158   -13216.978      10556.8   -32529.187   -17678.548   -18828.663    977.52711   -17662.225    84.264773 
    2600    2270.4135    -116.7394    2.0543179   -114.68508    16936.636     4.386878     4.386878     4.386878    16936.636    84867.547   -38499.176    4441.5361   -10720.029   -14117.725    3862.1137    84.424144 
    2700    1917.9142   -116.41898    1.7353691   -114.68361   -9388.4454    4.3976488    4.3976488    4.3976488   -9388.4454   -2708.4822   -49834.195    24377.341   -25628.829   -15376.318   -7423.0071    85.047514 
    2800    1824.3052   -116.30838    1.6506697   -114.65771    4589.5766    4.3988695    4.3988695    4.3988695    4589.5766    55624.826    -44534.83    2678.7337   -2893.5889    -8130.392    283.06976    85.118359 
    2900    1863.3469   -116.32613    1.6859954   -114.64013    2972.0391    4.3856535    4.3856535    4.3856535    2972.0391    57073.012   -37636.627   -10520.267   -6757.8466   -5872.5634    6129.6819    84.353468 
    3000    1662.7413   -116.15729    1.5044833   -114.65281     -8693.93    4.3803384    4.3803384    4.3803384     -8693.93    15337.539   -68075.508    26656.179   -20374.286    564.75801   -16893.236    84.047147 
    3100    1969.1497   -116.45054    1.7817281   -114.66881   -16100.191    4.3886782    4.3886782    4.3886782   -16100.191    8201.6077   -50106.445   -6395.7349    18545.203   -9279.1402   -1511.2194    84.528123 
    3200    2186.3891   -116.64213    1.9782908   -114.66384   -30721.867    4.3940015    4.3940015    4.3940015   -30721.867   -24349.824   -24204.344   -43611.432     3544.445   -2404.2476    4026.0182    84.836083 
    3300    1909.6018   -116.39279    1.7278478   -114.66494   -9003.2863    4.3964256    4.3964256    4.3964256   -9003.2863    22270.797   -8700.2991   -40580.357   -21322.968   -5246.4446    1181.9725    84.976566 
    3400    2231.7431   -116.67751     2.019328   -114.65818    14362.939    4.3958119    4.3958119    4.3958119    14362.939    17588.521    723.92903    24776.367    18208.914    15633.943     4711.671    84.940984 
    3500    2400.5708   -116.82761    2.1720869   -114.65552   -649.42959    4.3854053    4.3854053    4.3854053   -649.42959   -14168.899   -1485.5662    13706.176   -1607.5406   -6676.7107   -11111.411    84.339151 
    3600     1959.575   -116.43957    1.7730647   -114.66651    9759.0149    4.3764044    4.3764044    4.3764044    9759.0149    21912.778   -18034.083     25398.35   -28189.555   -14769.772    4223.7491    83.820903 
    3700    1714.3583    -116.2345    1.5511874   -114.68331    4952.9877    4.3910693    4.3910693    4.3910693    4952.9877    32851.424   -48977.195    30984.734    26392.259    6560.4593    7365.9202    84.666356 
    3800    1779.7312     -116.277    1.6103382   -114.66666   -47868.718    4.4046176    4.4046176    4.4046176   -47868.718   -39216.942   -103533.16   -856.05185    14642.966    10172.004    7030.8174     85.45247 
    3900    1374.1814   -115.89994    1.2433882   -114.65656   -20311.598    4.3868234    4.3868234    4.3868234   -20311.598       -22287   -111505.48    72857.687   -28954.588     15079.45     60.65419     84.42099 
    4000    1357.0532   -115.88535    1.2278903   -114.65746    11597.176    4.3738943    4.3738943    4.3738943    11597.176    22321.375   -73993.152    86463.305    9792.5755   -4225.9561    1015.1673     83.67676 
    4100    1714.9436   -116.22426     1.551717   -114.67255   -3906.3984    4.3875309    4.3875309    4.3875309   -3906.3984    5795.6089   -49424.233    31909.429    12237.346   -2744.4245    2767.1036    84.461847 
    4200    2353.4641   -116.78854    2.1294637   -114.65908    -35277.21    4.3969026    4.3969026    4.3969026    -35277.21   -39476.228   -69686.555    3331.1529   -22514.144   -8527.6799   -7091.8774    85.004228 
    4300    2075.4788   -116.53219    1.8779369   -114.65425   -1013.6635    4.3932303    4.3932303    4.3932303   -1013.6635   -8068.4888   -22454.226    27481.724    19934.158   -12751.673    9403.5641    84.791422 
    4400     2485.235   -116.89868    2.2486929   -114.64999    21897.356    4.3902697    4.3902697    4.3902697    21897.356   -5429.6788    45769.103    25352.643    15843.392    16068.392    14076.675    84.620113 
    4500    2347.9808   -116.77567    2.1245024   -114.65116    6339.4772    4.3948226    4.3948226    4.3948226    6339.4772   -1795.6509    12597.752    8216.3309    -10962.29    974.95112    23796.948    84.883651 
    4600    2239.5627   -116.67766    2.0264034   -114.65126   -36054.756    4.3867813    4.3867813    4.3867813   -36054.756   -40388.195   -12804.847   -54971.226    3053.9947   -6184.6427     11430.81    84.418564 
    4700    1976.0542     -116.453    1.7879753   -114.66502    19504.694    4.3749061    4.3749061    4.3749061    19504.694   -21978.741    18297.994    62194.828    28774.005   -3268.6119   -8663.2764    83.734844 
    4800    1960.7187   -116.46277    1.7740995   -114.68867     5350.197    4.3893391    4.3893391    4.3893391     5350.197    2163.6257    24249.332   -10362.367   -6563.0218   -3048.0989    26559.126    84.566315 
    4900    1382.1676   -115.93054    1.2506143   -114.67993   -15767.023    4.3976372    4.3976372    4.3976372   -15767.023    28975.836    -28050.08   -48226.825    398.35247   -7952.7025    23898.729    85.046842 
    5000    1525.9592   -116.03419      1.38072   -114.65347   -25252.682    4.3952656    4.3952656    4.3952656   -25252.682   -15348.863   -53020.483   -7388.7018    17328.241   -7158.8037   -16009.384    84.909322 
    5100    1071.4766   -115.61975    0.9694945   -114.65025   -16718.922    4.3951432    4.3951432    4.3951432   -16718.922    24480.679   -31744.968   -42892.478   -7185.5714   -2017.5771   -11193.854    84.902231 
    5200    1009.7825   -115.56674   0.91367242   -114.65306   -5756.4969    4.3804773    4.3804773    4.3804773   -5756.4969    60307.794   -70002.494   -7574.7909    1780.3779    3362.9374    10342.081    84.055143 
    5300    1289.4647   -115.84422    1.1667348   -114.67749    30091.165    4.3795185    4.3795185    4.3795185    30091.165    30085.812    52598.047    7589.6359    11536.344   -7605.7303     2555.508    83.999962 
    5400    1836.0047   -116.35409    1.6612556   -114.69283   -10689.204     4.397218     4.397218     4.397218   -10689.204   -11811.633   -20564.006    308.02803   -3848.3769    5056.3031   -4741.0439    85.022522 
    5500    1942.4868    -116.4364    1.7576028    -114.6788    799.30762    4.3966687    4.3966687    4.3966687    799.30762   -19915.603    42441.108   -20127.582   -3025.7247     4991.775    2542.4019    84.990663 
    5600    2565.3043   -116.99678    2.3211412   -114.67564    1416.6139    4.3986753    4.3986753    4.3986753    1416.6139    6809.1426   -11421.821    8862.5207     6019.828   -15658.351    2182.9191    85.107082 
    5700    2572.0755   -117.00201     2.327268   -114.67474    162.84051    4.4085822    4.4085822    4.4085822    162.84051    -11000.85    44005.002   -32515.631    12003.935   -6202.5717   -11758.672    85.683429 
    5800    2559.5324   -116.97349    2.3159187   -114.65757   -22072.695    4.4068007    4.4068007    4.4068007   -22072.695   -46385.151    37851.128   -57684.061     21098.95   -5579.7062    9051.8075    85.579593 
    5900    2621.2722   -117.02075    2.3717822   -114.64897     15233.29    4.3838028    4.3838028    4.3838028     15233.29    14710.727    84094.625   -53105.483    3679.2576    1355.8932    28429.361    84.246726 
    6000    2632.3868   -117.03935    2.3818389   -114.65751    10736.758    4.3780233    4.3780233    4.3780233    10736.758    2132.7513    84494.472   -54416.949   -8729.2821    -630.1688    1648.5333    83.913956 
    6100    2058.4385   -116.54787    1.8625184   -114.68535   -30987.015    4.3986372    4.3986372    4.3986372   -30987.015    -29628.53      2725.27   -66057.787    -11267.19    2389.8745    3827.3137    85.104872 
    6200    2070.7433   -116.53362    1.8736521   -114.65997    26387.282     4.386835     4.386835     4.386835    26387.282    25175.294    64367.697   -10381.144    13720.299    4876.4164   -945.86721    84.421664 
    6300     2560.856   -116.96967    2.3171163   -114.65255   -5710.1928    4.3808268    4.3808268    4.3808268   -5710.1928    5845.5334    4697.3316   -27673.443    26452.412   -7640.4944   -25413.541    84.075267 
    6400    1624.5847    -116.1404    1.4699584   -114.67044   -45933.868    4.4053545    4.4053545    4.4053545   -45933.868    17979.804   -72217.193   -83564.215   -2598.9519    10333.955    299.82642    85.495369 
    6500    1910.9693   -116.37441    1.7290851   -114.64533   -21280.532    4.3966746    4.3966746    4.3966746   -21280.532   -3915.4134    -36713.27   -23212.913    -14900.88    24110.938    6574.6262    84.991009 
    6600     2237.156   -116.65849    2.0242257   -114.63426    23865.415    4.3710581    4.3710581    4.3710581    23865.415    26714.051    6363.8448    38518.348   -20850.342   -15845.007    4499.3004    83.514089 
    6700    1922.8366    -116.4177     1.739823   -114.67788   -13754.124    4.3864946    4.3864946    4.3864946   -13754.124    44637.728   -65034.548   -20865.553   -6450.2618   -12424.618    5613.0279    84.402011 
    6800    1833.6063   -116.32611    1.6590855   -114.66702    -17840.93    4.4099668    4.4099668    4.4099668    -17840.93     4532.815   -108708.81    50653.206    7466.2502    16805.307    561.74917    85.764182 
    6900    2196.0854   -116.62572    1.9870643   -114.63866   -41110.707    4.4102903    4.4102903    4.4102903   -41110.707   -31187.831   -96512.358    4368.0693    6488.4235   -826.88188    412.41498    85.783057 
    7000    2163.2793    -116.5899    1.9573806   -114.63252   -18145.889    4.3923795    4.3923795    4.3923795   -18145.889   -11864.939   -37295.007   -5277.7223   -9182.4571   -2724.9587    22597.369    84.742167 
    7100    2180.8898   -116.61191    1.9733149    -114.6386    25841.683    4.3823801    4.3823801    4.3823801    25841.683    30448.691   -2172.0433    49248.402   -10467.047     27850.87    409.04914     84.16473 
    7200    2420.7877   -116.85235    2.1903796   -114.66197   -20451.372    4.3962676    4.3962676    4.3962676   -20451.372   -34200.712   -7871.9656   -19281.438    7878.5406   -34008.191   -12704.374    84.967409 
    7300     1905.391   -116.39046    1.7240378   -114.66642   -23563.697    4.4041757    4.4041757    4.4041757   -23563.697   -86718.425    15327.692    699.64147    1713.7612   -25401.057    13443.874    85.426753 
    7400    2445.2426   -116.86001    2.2125069   -114.64751   -14956.137    4.3986025    4.3986025    4.3986025   -14956.137   -68966.281    40001.299   -15903.429    15132.592    10509.168    23952.475     85.10286 
    7500    2432.7969    -116.8511    2.2012458   -114.64985   -20046.477     4.400767     4.400767     4.400767   -20046.477   -73766.729    57493.212   -43865.915     4245.806   -13242.282    24093.435    85.228554 
    7600     1855.829   -116.32771    1.6791931   -114.64852    5765.5658    4.3989585    4.3989585    4.3989585    5765.5658       -33789    39670.744    11414.953   -24453.906   -19663.719     12700.83    85.123527 
    7700    2769.5303   -117.14956    2.5059292   -114.64363   -6346.1627    4.3907441    4.3907441    4.3907441   -6346.1627   -13185.112    35142.572   -40995.948    -5213.505    23386.804   -1092.9049    84.647545 
    7800    1633.2328   -116.14985    1.4777834   -114.67206   -28355.393    4.3994529    4.3994529    4.3994529   -28355.393   -34391.609   -8541.3725   -42133.198   -5533.7517   -35978.182   -19152.475    85.152229 
    7900     1474.949   -116.01022    1.3345648   -114.67566   -23254.284    4.3895823    4.3895823    4.3895823   -23254.284   -13301.505   -38238.024   -18223.321    434.94751   -17354.405    4036.7214     84.58037 
    8000    1484.7301   -116.01616     1.343415   -114.67275    41941.505    4.3769733    4.3769733    4.3769733    41941.505    50293.946    13150.174    62380.393    717.22074   -647.29621     6839.911    83.853594 
    8100    1272.0146   -115.83641    1.1509455   -114.68546   -10296.051    4.3948731    4.3948731    4.3948731   -10296.051    4990.4388   -44989.584    9110.9922   -14887.383    -12384.36    1697.2074    84.886578 
    8200    828.33092    -115.4268   0.74949122   -114.67731   -45727.342     4.404632     4.404632     4.404632   -45727.342   -29463.112   -84965.479   -22753.434   -495.62732   -5153.4306     3885.042    85.453311 
    8300    1245.4828   -115.77909     1.126939   -114.65215    15879.479    4.3898804    4.3898804    4.3898804    15879.479    24402.376    -61733.76    84969.821    4850.6884    12707.275    7878.1204    84.597603 
    8400    1945.5357   -116.42098    1.7603616   -114.66062    -24280.17    4.3913013    4.3913013    4.3913013    -24280.17    -17104.76   -25197.996   -30537.756   -5857.2785   -4981.5917    16394.811    84.679779 
    8500     1710.404   -116.22792    1.5476095   -114.68031   -34525.438    4.3896339    4.3896339    4.3896339   -34525.438    -35820.73   -44204.691   -23550.891   -19154.485   -14803.766    1748.3349    84.583355 
    8600    2435.2173    -116.8832    2.2034358   -114.67976    34978.111    4.3776576    4.3776576    4.3776576    34978.111    14757.453    10405.319    79771.562   -17130.892    1793.2216   -19939.507    83.892931 
    8700     2507.606      -116.97    2.2689346   -114.70106    4404.6844    4.3952799    4.3952799    4.3952799    4404.6844    19435.787    35551.128   -41772.861    6926.8933   -15177.488     978.8982    84.910151 
    8800    2568.8835   -117.00577    2.3243798   -114.68139   -29513.686    4.4073734    4.4073734    4.4073734   -29513.686   -54599.953    12567.972   -46509.077    9508.1941   -10790.315    23065.796    85.612967 
    8900    2909.3478   -117.28659    2.6324391   -114.65415     -1021.55    4.3997447    4.3997447    4.3997447     -1021.55   -52527.502    30638.221    18824.632    15267.997    8353.5692    11460.412    85.169175 
    9000    2432.3091    -116.8628    2.2008043   -114.66199    22079.656    4.3970699    4.3970699    4.3970699    22079.656     53958.54     47060.18   -34779.753    6535.5426   -3415.9165   -19256.358    85.013931 
    9100    2415.1633   -116.84929    2.1852905     -114.664    7008.2224    4.4013922    4.4013922    4.4013922    7008.2224   -5037.4487    39460.804   -13398.688   -21922.153   -13303.047   -12983.985    85.264882 
    9200    2211.0569   -116.65786    2.0006108   -114.65725    16137.696    4.4045231    4.4045231    4.4045231    16137.696    33220.933    8686.4985    6505.6566   -6792.9691   -1483.1316    4365.3296    85.446972 
    9300    1712.1002   -116.20269    1.5491442   -114.65355   -16327.128    4.4101562    4.4101562    4.4101562   -16327.128     29072.22   -36009.568   -42044.036    14249.614    17089.005    9882.1879    85.775233 
    9400    1674.2181   -116.15277    1.5148677    -114.6379   -17932.747    4.3992287    4.3992287    4.3992287   -17932.747    30056.187   -59461.445   -24392.983    41.559007   -1226.1673    -2614.909     85.13921 
    9500    1345.4824   -115.85862    1.2174207    -114.6412     27969.75    4.3829412    4.3829412    4.3829412     27969.75    105139.94   -28450.674     7219.988    2576.4686   -9711.9821   -2717.7465    84.197061 
    9600    1269.3285   -115.83129    1.1485151   -114.68278    6921.2695    4.3900037    4.3900037    4.3900037    6921.2695    23910.091    -22589.62    19443.338    10116.789    22554.053    554.36679    84.604731 
    9700    1714.9689   -116.24051    1.5517399   -114.68877   -27455.801    4.4050452    4.4050452    4.4050452   -27455.801    26493.995   -74914.324   -33947.075   -13844.468    11517.453    725.31263    85.477361 
    9800    1703.9089     -116.221    1.5417326   -114.67927   -7307.4848    4.4095141    4.4095141    4.4095141   -7307.4848    5651.1306   -5818.0017   -21755.583   -5938.6142    6756.8846    138.59388    85.737775 
    9900    2291.9552   -116.73686    2.0738092   -114.66305   -13952.129    4.4000572    4.4000572    4.4000572   -13952.129    13269.246    14902.797   -70028.432    5662.2391    4111.7334   -11048.499    85.187324 
   10000    2242.0757   -116.69013    2.0286772   -114.66145    36789.979    4.3879725    4.3879725    4.3879725    36789.979    29872.275     58016.03    22481.631   -16774.109     4618.589    -23705.73    84.487349 
   10100    2522.4566   -116.95724    2.2823717   -114.67487    -734.4224    4.3980577    4.3980577    4.3980577    -734.4224   -10940.955    28760.779   -20023.092   -17172.215   -5801.2378   -1859.4026    85.071242 
   10200     2376.729    -116.8146    2.1505143   -114.66408   -6784.5978    4.4053737    4.4053737    4.4053737   -6784.5978   -2843.7802    28360.928   -45870.941   -1235.5099    8243.5538    21573.676    85.496484 
   10300    2520.1825   -116.93446    2.2803141   -114.65414    1642.2422    4.3971263    4.3971263    4.3971263    1642.2422    10543.523   -8890.9452    3274.1482    9425.0652    6041.2067    11290.847    85.017203 
   10400    2056.7939   -116.52019    1.8610304   -114.65916      26556.6    4.3963824    4.3963824    4.3963824      26556.6    31666.945   -4256.7519    52259.606   -10937.345   -17240.982   -6215.7964    84.974063 
   10500    2266.9095   -116.71283    2.0511473   -114.66169   -24257.823    4.4055408    4.4055408    4.4055408   -24257.823   -24074.051   -49726.111    1026.6945   -1122.8038    10861.209    -7216.128    85.506213 
   10600    1878.6362    -116.3507    1.6998295   -114.65087    10736.506    4.4072057    4.4072057    4.4072057    10736.506   -5372.0946    15143.113      22438.5   -6992.9473     10125.02   -19710.248    85.603194 
   10700    1930.7729   -116.39276    1.7470039   -114.64576    3412.7125    4.4092841    4.4092841    4.4092841    3412.7125    23011.232   -11069.175   -1703.9194     2295.835    3246.4128    5636.0895    85.724357 
   10800    1706.8862   -116.18992    1.5444265   -114.64549   -24446.291    4.4060598    4.4060598    4.4060598   -24446.291    55256.403   -58944.223   -69651.053    17728.921     11274.72   -3402.1861    85.536439 
   10900    1184.6289   -115.72542    1.0718772   -114.65354    6014.4983    4.3995687    4.3995687    4.3995687    6014.4983    44055.686    55086.662   -81098.853    2391.5106   -114.92404   -11364.857    85.158953 
   11000    1762.3759   -116.26071    1.5946348   -114.66608   -12210.457    4.4093051    4.4093051    4.4093051   -12210.457    26753.229    16269.929   -79654.529    15586.353   -5038.1172    14395.815    85.725587 
   11100    1625.3729   -116.13285    1.4706715   -114.66217    6780.6779    4.4050758    4.4050758    4.4050758    6780.6779    -998.9149    86092.251   -64751.302    11096.643   -84.934846    2307.3837    85.479145 
   11200     1951.361   -116.44348    1.7656325   -114.67785   -14791.054     4.395636     4.395636     4.395636   -14791.054    12627.767    -19105.73   -37895.199    3235.3573    -6811.479   -31997.249    84.930793 
   11300    2187.1286    -116.6711    1.9789599   -114.69214    2677.3069    4.3943028    4.3943028    4.3943028    2677.3069     -8487.01    50122.953   -33604.022    17827.926    288.29767    6090.6849    84.853535 
   11400    2648.9584   -117.09451    2.3968332   -114.69767    6886.1426    4.3947547    4.3947547    4.3947547    6886.1426   -21197.562    72973.715   -31117.725   -16771.951    905.69465    5664.8648    84.879717 
   11500    2795.4029    -117.2368    2.5293392   -114.70746   -10028.533    4.4083875    4.4083875    4.4083875   -10028.533   -39808.486    18892.429   -9169.5427   -16598.436     5105.555   -28616.823    85.672073 
   11600    2203.8758   -116.68285    1.9941132   -114.68874   -9562.2699    4.4199726    4.4199726    4.4199726   -9562.2699   -83490.194    73805.144   -19001.759    7715.5959   -2037.3157    5702.1934    86.349282 
   11700    2872.4245   -117.25148    2.5990301   -114.65245   -19801.601    4.4094009    4.4094009    4.4094009   -19801.601   -57285.946    21702.552   -23821.407     5838.425   -2307.9755    20810.588    85.731173 
   11800    2535.8985   -116.94772    2.2945342   -114.65318    18496.026    4.3885504    4.3885504    4.3885504    18496.026    4541.6037    59026.846   -8080.3718   -29013.844   -7899.5538   -11700.571    84.520736 
   11900    1911.8303   -116.41686    1.7298643     -114.687    34987.361    4.3858457    4.3858457    4.3858457    34987.361    39301.103    41292.919    24368.059    9049.1013     -22559.5   -20237.558    84.364558 
   12000    1547.2953   -116.10966    1.4000253   -114.70963   -9023.4323    4.4172047    4.4172047    4.4172047   -9023.4323     14180.84    9752.8651   -51004.002    12050.889    1928.7255    15102.119     86.18716 
   12100    1925.6621    -116.3803    1.7423796   -114.63792   -56206.928    4.4353133    4.4353133    4.4353133   -56206.928   -56668.598   -35482.753   -76469.431   -22615.368    13628.713    9599.5573    87.251502 
   12200    1565.4175    -116.0086    1.4164227   -114.59218   -14730.306    4.4116487    4.4116487    4.4116487   -14730.306    36903.312   -24933.248   -56160.981   -8865.7176    5025.8365    4307.9702    85.862346 
   12300    1856.0812    -116.2719    1.6794213   -114.59248   -20638.499    4.3852371    4.3852371    4.3852371   -20638.499   -18600.837   -27405.743   -15908.918    5733.7163    1156.8845    7525.2867    84.329445 
   12400    1995.0209   -116.46211    1.8051368   -114.65697    6295.5029    4.3937287    4.3937287    4.3937287    6295.5029   -21346.892    40806.547   -573.14603    2155.0826    6890.9319   -7371.1645    84.820284 
   12500    1534.1246    -116.0749    1.3881082   -114.68679   -6914.4527    4.4298674    4.4298674    4.4298674   -6914.4527    5821.7086   -18974.789    -7590.278   -1327.6528    11049.042   -14523.789    86.930501 
   12600    1438.9425   -115.94017    1.3019854   -114.63818   -43361.363    4.4437409    4.4437409    4.4437409   -43361.363   -61336.761   -37157.492   -31589.836    16269.195    8743.0843    5600.7767    87.749812 
   12700    2320.9702   -116.70362    2.1000626   -114.60356   -32359.136     4.406404     4.406404     4.406404   -32359.136   -91023.309   -1524.5452   -4529.5545    2097.2926    7325.3333    7428.4673    85.556483 
   12800    1737.5692   -116.17606    1.5721891   -114.60387    64084.068    4.3677143    4.3677143    4.3677143    64084.068    10852.806    133454.18    47945.212   -5604.6891    979.33066    67.565765    83.322573 
   12900    2097.4176   -116.57988    1.8977875   -114.68209   -9155.2808    4.3851031    4.3851031    4.3851031   -9155.2808    16023.928   -11480.182   -32009.588    26031.479    -4115.631    7271.9399    84.321713 
   13000    1787.3745    -116.3149     1.617254   -114.69765   -12949.759    4.4169508    4.4169508    4.4169508   -12949.759   -5056.4439    32939.887   -66732.721   -6261.3492    5207.7586    4331.6426    86.172301 
   13100    2098.7314   -116.56264    1.8989763   -114.66367   -5486.3974      4.42433      4.42433      4.42433   -5486.3974    32721.752     15647.95   -64828.894   -9317.0769   -5231.3091   -68.758137    86.604912 
   13200    2460.0752   -116.86292    2.2259278   -114.63699   -2440.6383    4.4051309    4.4051309    4.4051309   -2440.6383    30057.022     15883.67   -53262.607    12.504786   -7961.7873    2549.2084    85.482349 
   13300    2372.1274   -116.77727    2.1463507   -114.63092    35137.893    4.3812314    4.3812314    4.3812314    35137.893    76161.916    38072.648   -8820.8842    9419.6481    10341.158    1725.3539    84.098562 
   13400     2783.626   -117.18303    2.5186833   -114.66435    5008.4836     4.391206     4.391206     4.391206    5008.4836    23019.359    11070.064   -19063.972    1307.7516    1944.3443    3924.3284    84.674263 
   13500    2570.5439   -116.99529    2.3258821    -114.6694   -28941.728    4.4189815    4.4189815    4.4189815   -28941.728   -21881.045   -34961.955   -29982.185   -1071.6111    10804.157    13601.967     86.29121 
   13600    1834.0571    -116.3029    1.6594934   -114.64341    -7877.837    4.4169533    4.4169533    4.4169533    -7877.837    26152.699   -34472.696   -15313.514    11952.608     13613.26   -13667.628    86.172448 
   13700    1866.5903   -116.33111    1.6889301   -114.64217   -9458.8923    4.3903009    4.3903009    4.3903009   -9458.8923   -14055.033   -39395.584     25073.94   -13499.445    11087.124   -10558.937    84.621919 
   13800    1650.6472   -116.15021    1.4935402   -114.65667    19749.891    4.3869519    4.3869519    4.3869519    19749.891   -43244.811    42889.817    59604.666   -11863.009    4041.2772   -3244.2598    84.428409 
   13900    1352.2265   -115.90136     1.223523   -114.67784   -5537.7168    4.4071458    4.4071458    4.4071458   -5537.7168   -18494.812    4903.1974   -3021.5356    16312.057   -874.30913   -16423.527    85.599703 
   14000    1264.9928   -115.80507    1.1445921   -114.66048   -24917.224    4.4107214    4.4107214    4.4107214   -24917.224   -19239.738   -55839.843    327.90833   -12783.054    12912.494   -174.55039    85.808217 
   14100    1896.1097   -116.36168    1.7156399   -114.64604   -12175.626    4.3892569    4.3892569    4.3892569   -12175.626   -6567.0764   -43677.847    13718.045   -13701.654   -1136.6301     4098.063    84.561561 
   14200    1715.9738   -116.20844    1.5526491   -114.65579    1029.3248    4.3773437    4.3773437    4.3773437    1029.3248    41668.095   -22074.297   -16505.823    11420.155   -2331.7051     3153.239    83.874889 
   14300    1237.4087   -115.81713    1.1196334   -114.69749    11145.988    4.3925818    4.3925818    4.3925818    11145.988   -26708.075    29742.969     30403.07    -6428.835    2713.1677    -14009.53    84.753877 
   14400    2105.9526   -116.57949    1.9055102   -114.67398    8599.8145    4.4041725    4.4041725    4.4041725    8599.8145    42373.926   -31738.029    15163.546    13141.765    14628.957   -1316.0309    85.426568 
   14500    2127.1408    -116.5837    1.9246817   -114.65901   -23952.303    4.4119661    4.4119661    4.4119661   -23952.303    42553.175   -41672.765   -72737.318    19331.022    15600.393    12240.968    85.880881 
   14600    1832.4105   -116.30253    1.6580035   -114.64453    -25284.88    4.4106379    4.4106379    4.4106379    -25284.88    3168.6153   -15691.476    -63331.78   -356.52692    1446.6561   -19648.396    85.803342 
   14700    2153.1761   -116.58578    1.9482389   -114.63754    15995.164    4.3858307    4.3858307    4.3858307    15995.164    45482.198   -4927.2066    7430.4996    10782.342    2954.5008   -1472.5743    84.363696 
   14800    1838.1263   -116.31602    1.6631753   -114.65285    45740.789    4.3760502    4.3760502    4.3760502    45740.789    83234.253    56686.637   -2698.5229    3381.3903    4038.7768     19808.49    83.800552 
   14900    2564.9629   -117.00071    2.3208324   -114.67988   -22998.157    4.4000329    4.4000329    4.4000329   -22998.157    -819.4262   -15624.468   -52550.575   -16829.333    3247.9654   -14202.492    85.185912 
   15000    1959.2854   -116.44361    1.7728026   -114.67081   -12037.246    4.4092784    4.4092784    4.4092784   -12037.246    32898.461    10106.129   -79116.327     8185.636   -2137.2898    19875.222    85.724026 
   15100    2402.5834   -116.83075    2.1739079   -114.65684    -3361.647    4.3965918    4.3965918    4.3965918    -3361.647    13033.358    7707.3321   -30825.631   -6841.3185     14223.78     33846.91    84.986203 
   15200    3032.3433    -117.3996    2.7437279   -114.65587    7536.7634    4.3876042    4.3876042    4.3876042    7536.7634   -23486.868    21204.169    24892.989    16979.089   -1800.0028   -23905.879    84.466076 
   15300    2478.5706    -116.9214    2.2426627   -114.67874    2844.7917    4.3786063    4.3786063    4.3786063    2844.7917    23511.869    5160.5884   -20138.083   -10998.137   -12455.241    34709.039    83.947484 
   15400     2073.141   -116.58044    1.8758215   -114.70462    28735.285    4.3811613    4.3811613    4.3811613    28735.285    15120.041    103869.89   -32784.075   -10651.688   -12266.123    29166.042    84.094524 
   15500    2808.8528   -117.23339    2.5415091   -114.69188   -12766.084    4.4026474    4.4026474    4.4026474   -12766.084    -18559.21    658.41252   -20397.454    13136.262    6203.2498   -15334.596    85.337853 
   15600    2178.5456   -116.64987    1.9711939   -114.67868   -23847.953    4.4014654    4.4014654    4.4014654   -23847.953    719.14075   -5470.9285   -66792.072   -3567.2196     3870.835    11291.997    85.269139 
   15700    1545.0625   -116.06346     1.398005   -114.66546    29074.582    4.3867521    4.3867521    4.3867521    29074.582    35539.517    114319.46   -62635.231   -1588.5538   -10261.009   -1169.2087    84.416877 
   15800    1648.0871   -116.17235    1.4912239   -114.68112   -9527.0722    4.3966991    4.3966991    4.3966991   -9527.0722    28400.449    -22200.53   -34781.136    5191.6643   -5910.5331   -6782.5836    84.992427 
   15900    1731.7694   -116.23409    1.5669414   -114.66715   -6160.0578    4.3992607    4.3992607    4.3992607   -6160.0578    1197.6975    44224.595   -63902.466    1624.3842    7168.7113   -9457.5905    85.141068 
   16000    1436.0354   -115.97099     1.299355   -114.67164   -21875.201    4.4092597    4.4092597    4.4092597   -21875.201    22799.085   -11805.606   -76619.083    24265.706     2067.928    7578.2629    85.722934 
   16100    1420.2126   -115.94415    1.2850382   -114.65911   -35141.015    4.4124861    4.4124861    4.4124861   -35141.015    -15073.21   -39804.905    -50544.93   -4233.1592    15031.395   -11552.394     85.91125 
   16200     1940.782    -116.3831    1.7560603   -114.62704    33978.637    4.3869218    4.3869218    4.3869218    33978.637    75070.683     23806.35    3058.8784   -11090.224    7229.3532    6063.6407    84.426673 
   16300    1929.4937   -116.39415    1.7458465    -114.6483    20151.888    4.3894823    4.3894823    4.3894823    20151.888    22095.833   -11071.538    49431.369    6802.1395   -7038.8322    16184.121     84.57459 
   16400    2247.7813   -116.68754    2.0338398    -114.6537   -37626.258    4.4092645    4.4092645    4.4092645   -37626.258   -54521.233   -46040.115   -12317.424   -4894.6894    6426.7087   -11890.547    85.723218 
   16500    1944.7669   -116.39805    1.7596659   -114.63839   -18033.241    4.4091873    4.4091873    4.4091873   -18033.241   -37519.654   -14134.648   -2445.4207   -5803.1233     9889.045   -16131.807    85.718714 
   16600    1956.3142   -116.40353    1.7701142   -114.63341    14216.406    4.4030128    4.4030128    4.4030128    14216.406    6468.6574    31381.714    4798.8475   -2349.7102   -2745.1157    7570.7727    85.359101 
   16700    1917.4066   -116.37766    1.7349098   -114.64275    -9941.204    4.3970437    4.3970437    4.3970437    -9941.204   -35306.005    55532.007   -50049.614      5842.72    18709.758   -923.61195    85.012411 
   16800    1504.0089   -116.02201    1.3608589   -114.66115   -4890.2527    4.3809484    4.3809484    4.3809484   -4890.2527   -6315.5784    50783.193   -59138.373    7870.5487    13952.413   -5865.6155    84.082265 
   16900     2235.482   -116.69989    2.0227111   -114.67718    17969.233    4.3751223    4.3751223    4.3751223    17969.233    42147.513    60165.283   -48405.096    415.93365   -21900.813    14750.841    83.747257 
   17000    2356.9068   -116.83172    2.1325788   -114.69914    14007.091    4.3898435    4.3898435    4.3898435    14007.091    47471.678    19443.866   -24894.273    17726.205    2649.1138   -3926.7619    84.595471 
   17100    1963.6139   -116.47504    1.7767191   -114.69832   -10276.469    4.4014594    4.4014594    4.4014594   -10276.469   -44.809712    956.39141   -31740.988   -104.46679    2831.8915   -11612.882    85.268793 
   17200    2178.7847   -116.64548    1.9714102   -114.67407    6032.7964    4.4020772    4.4020772    4.4020772    6032.7964    94464.229   -15409.272   -60956.568    13815.005   -22383.727    15942.904    85.304702 
   17300    2600.5793   -117.01693    2.3530588   -114.66388     31110.98    4.4024449    4.4024449    4.4024449     31110.98    97374.344    17950.436   -21991.838     7626.484   -11553.132    17888.434     85.32608 
   17400    2805.9597   -117.19797    2.5388913   -114.65908    20240.129    4.4012708    4.4012708    4.4012708    20240.129    41500.303    45894.656   -26674.571    7082.7437     4220.425   -1375.9118    85.257831 
   17500    2332.3148   -116.76772    2.1103275   -114.65739   -19936.061    4.4121345    4.4121345    4.4121345   -19936.061    26106.025    -6235.737    -79678.47   -750.31616   -10369.231    22290.419    85.890718 
   17600    2429.9377   -116.83137    2.1986587   -114.63271   -17718.833    4.4136714    4.4136714    4.4136714   -17718.833    32592.771   -19234.773   -66514.497    10065.039   -3548.4358    11314.056    85.980504 
   17700    2640.0278   -117.00889    2.3887526   -114.62014    24110.807    4.3939045    4.3939045    4.3939045    24110.807     72416.11    27280.232   -27363.923     13728.21    1720.8929    11852.301    84.830463 
   17800    1836.7941   -116.31233    1.6619699   -114.65036    18053.451    4.3944712    4.3944712    4.3944712    18053.451    18422.653    30196.268    5541.4329    1956.5968   -21826.245    23589.825    84.863289 
   17900    1807.0341   -116.30047    1.6350425   -114.66543   -38065.196    4.4050774    4.4050774    4.4050774   -38065.196   -24384.578    2240.9753   -92051.986     3218.667   -4068.5665   -11602.707    85.479234 
   18000     2412.344   -116.83544    2.1827395    -114.6527   -27933.807    4.4006698    4.4006698    4.4006698   -27933.807    11728.347   -35173.765   -60356.004    -8028.594    -1538.794   -13479.055    85.222909 
   18100    2092.9665   -116.54905      1.89376   -114.65529    -5624.084    4.4069531    4.4069531    4.4069531    -5624.084    8217.3983    15750.385   -40840.036    12842.063   -2153.1034    4001.5942    85.588477 
   18200    1188.9777   -115.72517     1.075812   -114.64936   -38960.417    4.4124254    4.4124254    4.4124254   -38960.417   -45073.936    -2183.591   -69623.723    2372.3947    14688.286   -5450.5759     85.90771 
   18300    1559.4011   -116.05088    1.4109789    -114.6399     -31571.3    4.3912071    4.3912071    4.3912071     -31571.3   -6600.3764   -58593.894   -29519.629    5525.0955    1138.9828   -19097.783    84.674329 
   18400    1772.3009   -116.25801    1.6036151    -114.6544    25312.518    4.3793526    4.3793526    4.3793526    25312.518    28452.903     37171.55    10313.101    17680.212    2486.1162    560.95455    83.990418 
   18500    1057.1125   -115.65099   0.95649759   -114.69449    19958.726    4.3971688    4.3971688    4.3971688    19958.726   -14961.739    97274.318   -22436.399    9859.8215    6025.6691   -16916.646    85.019672 
   18600    733.19236   -115.35917   0.66340785   -114.69576   -22299.947    4.4205085    4.4205085    4.4205085   -22299.947   -25575.926    11237.478   -52561.394     2662.109   -11191.097   -8778.5075    86.380697 
   18700    1290.0322   -115.82573    1.1672482   -114.65849    11219.887    4.4139759    4.4139759    4.4139759    11219.887    92498.844    -23089.61   -35749.571    6474.4461   -11284.692    24510.552    85.998302 
   18800    1717.1685   -116.18985    1.5537302   -114.63612    23142.427    4.3919541    4.3919541    4.3919541    23142.427    47640.613     49461.45   -27674.783    20003.623   -5329.9487   -2992.9174    84.717547 
   18900    1242.1583    -115.7835    1.1239309   -114.65957    8692.0203    4.3895353    4.3895353    4.3895353    8692.0203    108976.91   -20250.382   -62650.469    16662.007   -10314.927   -6829.1613    84.577652 
   19000    1343.0196   -115.90046    1.2151924   -114.68527   -32035.752    4.4055188    4.4055188    4.4055188   -32035.752    13332.532   -11282.719    -98157.07    22933.141   -3478.7255    35330.313    85.504936 
   19100    1883.2154   -116.37202    1.7039729   -114.66805    1367.3179    4.4011875    4.4011875    4.4011875    1367.3179    1189.1942    58892.434   -55979.675    11117.089    9837.2802    871.66091    85.252986 
   19200    2101.2488   -116.57427    1.9012541   -114.67302    25169.785    4.3952053    4.3952053    4.3952053    25169.785    32016.359    67355.947   -23862.949    5864.6271    3682.5601    -18055.65    84.905829 
   19300    1861.1047   -116.37057    1.6839666   -114.68661    15354.873    4.4034197    4.4034197    4.4034197    15354.873    34468.065    28807.415    -17210.86    27047.253    5035.7998    7816.8008    85.382771 
   19400    2605.8682    -117.0277    2.3578443   -114.66986   -224.06791    4.4132864    4.4132864    4.4132864   -224.06791    5346.2407    48995.779   -55014.223    14575.139    14488.885    7954.6283    85.958005 
   19500    3173.6714   -117.51329    2.8716046   -114.64168   -10015.106    4.4110919    4.4110919    4.4110919   -10015.106   -16473.274    38974.038   -52546.083    7281.2974   -6212.8356   -4957.5823    85.829842 
   19600     2452.588   -116.85356    2.2191532    -114.6344    47786.339    4.3885265    4.3885265    4.3885265    47786.339    53918.653    62539.093    26901.273   -12335.184    16505.116    19195.664    84.519356 
   19700    2684.5432    -117.0852    2.4290311   -114.65617    26229.411    4.3947231    4.3947231    4.3947231    26229.411    52202.825      33757.9   -7272.4926    7469.0297    16261.765    15531.025    84.877887 
   19800    2693.8222   -117.08961    2.4374269   -114.65218   -26362.455    4.4167349    4.4167349    4.4167349   -26362.455   -3768.6181    -25107.26   -50211.488   -3009.5955   -1978.7222   -9214.0274    86.159666 
   19900    2069.2855   -116.50456     1.872333   -114.63222    5373.6453    4.4047843    4.4047843    4.4047843    5373.6453   -13075.319    30729.429   -1533.1744   -5936.9899    17037.473    6437.9774    85.462172 
   20000    2258.2204   -116.66646    2.0432852   -114.62318    16994.548    4.3883095    4.3883095    4.3883095    16994.548    2488.2402    12360.636    36134.767   -2199.9825    15204.991    12007.097    84.506816 
   20100    1706.2793     -116.196    1.5438773   -114.65213   -10841.511    4.3894441    4.3894441    4.3894441   -10841.511   -47033.976   -37002.398    51511.842   -961.12005    9185.9488   -6350.5564    84.572386 
   20200    1184.2291   -115.74775    1.0715154   -114.67624   -4720.5439    4.3937418    4.3937418    4.3937418   -4720.5439   -78067.277    13996.142    49909.503     2422.729    12131.402   -7541.4502    84.821042 
   20300    1531.9816   -116.05805    1.3861692   -114.67188   -15232.558    4.4026021    4.4026021    4.4026021   -15232.558   -85607.076   -255.55614    40164.957   -8724.7069   -5825.0845    3862.4067    85.335218 
   20400    1473.2597   -115.99355    1.3330363   -114.66052   -5838.8852    4.3926338    4.3926338    4.3926338   -5838.8852   -49202.538   -2753.6738    34439.556   -5119.2692     7160.598   -16536.776    84.756886 
   20500     988.0081   -115.55942    0.8939705   -114.66545    33131.223    4.3778896    4.3778896    4.3778896    33131.223   -7483.4187    44731.428     62145.66    9917.3273    14047.857   -23220.399    83.906271 
   20600    2370.9078   -116.81774    2.1452472   -114.67249   -14159.573     4.383273     4.383273     4.383273   -14159.573   -23933.096   -12571.772   -5973.8512   -4492.9041    2718.5978    884.95391    84.216183 
   20700    2413.4136    -116.8608    2.1837074   -114.67709    38887.376     4.378818     4.378818     4.378818    38887.376   -1289.0845    101189.53    16761.687    2.8229777   -10130.542    1657.5783    83.959665 
   20800     2446.692   -116.91898    2.2138184   -114.70516   -12082.711    4.3897117    4.3897117    4.3897117   -12082.711   -15786.809   -5349.7051   -15111.618    25309.124    8201.0399    -23554.37    84.587852 
   20900    2230.5662   -116.71329    2.0182632   -114.69502   -24899.514    4.4047757    4.4047757    4.4047757   -24899.514   -32622.099   -35509.948   -6566.4935    9869.3981    6083.1701   -19903.722    85.461672 
   21000    3479.3704   -117.81033    3.1482075   -114.66212   -12914.578     4.387424     4.387424     4.387424   -12914.578   -25022.687    13799.756   -27520.804   -29639.774   -2261.4855    14141.159    84.455673 
   21100     2574.134    -117.0006    2.3291305   -114.67147     22371.67    4.3847789    4.3847789    4.3847789     22371.67   -30156.002    92871.539    4399.4728   -9001.3072    15539.183   -7394.4101    84.303011 
   21200    2324.0216      -116.78    2.1028236   -114.67718   -22858.788    4.4054899    4.4054899    4.4054899   -22858.788   -48858.765   -21939.012    2221.4122    3207.6897    -6224.684   -11120.606    85.503249 
   21300    1881.5845   -116.35961    1.7024972   -114.65712   -21000.937    4.4117135    4.4117135    4.4117135   -21000.937   -93501.205     59717.42   -29219.027   -16447.589    785.02713   -4835.7204    85.866131 
   21400    1679.3717   -116.18223    1.5195308    -114.6627   -16066.826    4.3918577    4.3918577    4.3918577   -16066.826   -72574.274    21016.074    3357.7202    -7635.836     11739.16    7002.8969    84.711972 
   21500    1857.4017   -116.33158    1.6806161   -114.65096    27679.752    4.3611475    4.3611475    4.3611475    27679.752    5343.0185    20304.229    57392.007    21113.992   -696.98428    7887.6529    82.947313 
   21600    1680.8136   -116.21571    1.5208354   -114.69488    2521.3767    4.3738541    4.3738541    4.3738541    2521.3767   -23503.998    20261.062    10807.065   -8969.2377   -5008.4466   -7077.0592    83.674454 
   21700    1142.7104   -115.74636    1.0339484   -114.71241   -60148.982    4.4085963    4.4085963    4.4085963   -60148.982   -63404.359   -69094.585   -47948.001   -19239.331    14928.763    14153.629    85.684247 
   21800    1590.2788   -116.10711    1.4389176   -114.66819   -44551.449    4.4100309    4.4100309    4.4100309   -44551.449   -49153.645   -68022.788   -16477.914     5048.156    14552.129    31543.951    85.767926 
   21900    1206.5524    -115.7389    1.0917139   -114.64719    7593.1657    4.4070291    4.4070291    4.4070291    7593.1657    -17333.71   -17750.694    57863.901    13035.976    568.83124   -5157.3641    85.592902 
   22000    1534.4228   -116.03521     1.388378   -114.64683   -18207.353    4.3917285    4.3917285    4.3917285   -18207.353   -30761.738   -20845.263   -3015.0595    14001.171    6498.8036   -5849.9549    84.704491 
   22100    950.82296   -115.51438   0.86032459   -114.65406    24327.713    4.3644212    4.3644212    4.3644212    24327.713   -6190.6724    47901.961    31271.851    1478.5311    8813.3745    49945.469    83.134246 
   22200     1671.846   -116.22373    1.5127214   -114.71101   -3191.1647     4.385045     4.385045     4.385045   -3191.1647   -23495.652    10855.717    3066.4406    12076.618   -8240.1992    4102.4383    84.318363 
   22300    1709.4525   -116.22205    1.5467485    -114.6753    18530.725    4.4124033    4.4124033    4.4124033    18530.725   -41737.947    94842.801    2487.3208    10201.281   -1324.4499   -9444.1701    85.906418 
   22400    1425.2969   -115.96564    1.2896386     -114.676   -9282.7389    4.4115782    4.4115782    4.4115782   -9282.7389   -25894.514   -40595.069    38641.367   -5061.2325    5562.9401    13518.035    85.858233 
   22500    2047.1826   -116.50289    1.8523338   -114.65055   -13987.453    4.3891413    4.3891413    4.3891413   -13987.453    -44631.71    -37500.14    40169.491   -21060.401    -13947.24    20813.106    84.554879 
   22600    2757.1831   -117.13365    2.4947572    -114.6389    20586.663    4.3685516    4.3685516    4.3685516    20586.663   -36743.658    51046.671    47456.976    -9220.941     4136.111    18272.448    83.370501 
   22700    2397.9052   -116.85731    2.1696751   -114.68763    11168.495    4.3855598    4.3855598    4.3855598    11168.495   -22492.709    40296.728    15701.465    -16289.55    12004.819    5601.7716    84.348061 
   22800    2254.5179   -116.72777    2.0399351   -114.68784   -18129.317    4.4073819    4.4073819    4.4073819   -18129.317   -8223.8515    4187.4155   -50351.516   -4995.6931   -17522.598    9053.8948    85.613463 
   22900    2959.6213   -117.34542    2.6779276   -114.66749    9493.5245    4.3887371    4.3887371    4.3887371    9493.5245   -28806.416    34317.704    22969.286    11393.831   -6839.9296   -17373.333    84.531527 
   23000    2808.1729   -117.20159    2.5408939    -114.6607    35491.483    4.3684992    4.3684992    4.3684992    35491.483    12979.918    71056.684    22437.847    6126.4386    11189.085    9945.8959    83.367498 
   23100    2271.1841   -116.75679    2.0550151   -114.70177    8690.5367    4.3829622    4.3829622    4.3829622    8690.5367    14300.642    42148.215   -30377.247   -180.37597   -8221.2029    25303.145    84.198271 
   23200    2519.2246    -116.9659    2.2794474   -114.68646   -7045.0025    4.4083664    4.4083664    4.4083664   -7045.0025   -14985.689    37622.204   -43771.522   -8426.3766    2321.3783   -4988.2917    85.670846 
   23300    2466.5879   -116.88001    2.2318205   -114.64819   -31300.765    4.4172719    4.4172719    4.4172719   -31300.765    681.77367   -52482.051   -42102.017    658.02464    3059.9664    -2463.943    86.191093 
   23400    1440.7628   -115.92742    1.3036324   -114.62379   -14692.176    4.4009867    4.4009867    4.4009867   -14692.176   -21768.217   -14304.243   -8004.0691   -2706.8688    3252.7712    21658.941     85.24132 
   23500    1634.8666   -116.09296    1.4792616    -114.6137    3296.4606    4.3867189    4.3867189    4.3867189    3296.4606   -52118.725    43318.904    18689.203   -4570.6053   -1438.5424   -5221.3708    84.414962 
   23600    1758.5172   -116.23292    1.5911433   -114.64178   -172.07633    4.3995576    4.3995576    4.3995576   -172.07633   -45591.678    25480.721    19594.728    7411.1078    1997.1951   -12508.533    85.158308 
   23700    692.83757   -115.27995   0.62689399   -114.65305   -11996.899    4.4171749    4.4171749    4.4171749   -11996.899   -64793.604    38446.005   -9643.0986    7620.1922    24013.904    16575.689     86.18542 
   23800    1203.0284   -115.72746    1.0885254   -114.63894    -3804.691    4.4042553    4.4042553    4.4042553    -3804.691   -22406.393     13614.24   -2621.9202    19955.781    34355.565   -2472.0654    85.431384 
   23900    2243.7015   -116.65846    2.0301482   -114.62831    21239.137     4.378327     4.378327     4.378327    21239.137    23524.067    6710.0942    33483.249   -7525.6842    6802.3897   -4797.8301     83.93142 
   24000    1699.2656   -116.20554    1.5375312   -114.66801    12152.419    4.3843753    4.3843753    4.3843753    12152.419    2863.8014    24198.408    9395.0473   -19328.923   -1321.3355    23665.464    84.279734 
   24100     1512.583   -116.06186    1.3686169   -114.69325   -1992.2879    4.4102831    4.4102831    4.4102831   -1992.2879   -47388.859    50107.476   -8695.4803    7753.9715    25299.034    2621.3864    85.782639 
   24200    2927.2173   -117.29422    2.6486078   -114.64561   -28650.799    4.4196172    4.4196172    4.4196172   -28650.799   -24658.622   -10233.088   -51060.687    9532.1081    9433.5601   -9668.4614    86.328453 
   24300    2553.3743   -116.94861    2.3103468   -114.63826    10576.914    4.3963166    4.3963166    4.3963166    10576.914    81426.155   -27285.237   -22410.178    1898.7349      4420.23     17308.52    84.970247 
   24400    2507.6207    -116.9003    2.2689479   -114.63136    29196.971     4.368917     4.368917     4.368917    29196.971    23670.753     63945.75   -25.590746   -4074.7685    41345.561   -5544.3667    83.391422 
   24500    2665.6453    -117.0979    2.4119319   -114.68597    31867.414    4.3856585    4.3856585    4.3856585    31867.414    29195.741    80157.822   -13751.321   -9854.1964    13405.188   -9622.7223    84.353759 
   24600    2660.5301   -117.07585    2.4073036   -114.66855   -10659.503    4.4135046    4.4135046    4.4135046   -10659.503   -5506.4345   -17304.607   -9167.4671   -3528.1815   -8977.3857    22283.477     85.97076 
   24700    1737.3924   -116.22138    1.5720292   -114.64935   -14922.666    4.4077071    4.4077071    4.4077071   -14922.666   -31470.264    30576.813   -43874.546    14479.354    28368.729    18627.328    85.632416 
   24800    1795.5549   -116.25882    1.6246558   -114.63416   -12026.664    4.3906461    4.3906461    4.3906461   -12026.664    -27089.51    6111.9114   -15102.393    8351.5332   -3409.6324    13938.623    84.641879 
   24900    1472.5949   -115.96843    1.3324348     -114.636    25310.598    4.3763906    4.3763906    4.3763906    25310.598    87572.626   -28696.909    17056.078   -12108.635    5863.7161    10570.863     83.82011 
   25000    1567.4735   -116.09096    1.4182829   -114.67267    7123.2864    4.3860848    4.3860848    4.3860848    7123.2864    26314.182   -20447.797    15503.474    2225.8914    24211.314    2457.1493     84.37836 
   25100    1584.2038   -116.10202    1.4334209    -114.6686   -37687.801    4.4194305    4.4194305    4.4194305   -37687.801   -61650.111   -68426.962    17013.668    14619.373     2276.919     240.4281    86.317512 
   25200    1257.8989   -115.78629    1.1381733   -114.64811    -41252.33    4.4075239    4.4075239    4.4075239    -41252.33   -39347.928   -68435.536   -15973.527    1495.4324   -9284.4304    7212.0138    85.621735 
   25300    1678.5534   -116.14118    1.5187904   -114.62239    19637.449    4.3580582    4.3580582    4.3580582    19637.449   -6589.0442   -10204.494    75705.886   -346.30292   -8803.1273    8317.3365    82.771166 
   25400    1947.4247   -116.42531    1.7620708   -114.66324    46442.576    4.3612705    4.3612705    4.3612705    46442.576    64640.809   -24566.552    99253.469    4091.8939    17909.437   -11091.191    82.954332 
   25500     1607.312     -116.162    1.4543297   -114.70767    -4202.039    4.4005643    4.4005643    4.4005643    -4202.039   -23448.309   -46299.426    57141.619   -4387.6462    899.74348   -13641.658    85.216777 
   25600    1562.2246    -116.0882    1.4135336   -114.67467   -16546.742    4.4286059    4.4286059    4.4286059   -16546.742   -34421.832   -19413.196    4194.8028    8859.4306   -2428.3506    18633.525    86.856254 
   25700    2673.6285   -117.03967    2.4191553   -114.62051   -14808.819    4.4106856    4.4106856    4.4106856   -14808.819    -37788.89   -5419.0908   -1218.4765     7000.843    10781.657   -19450.563    85.806126 
   25800    1894.4458   -116.32757    1.7141344   -114.61344    40455.493    4.3643794    4.3643794    4.3643794    40455.493    84215.352    33822.567      3328.56   -4651.8202   -13664.907   -45537.977    83.131861 
   25900    2122.3623   -116.56389     1.920358   -114.64353    29142.176    4.3597017    4.3597017    4.3597017    29142.176    48290.119    57975.638   -18839.229    14835.616    7692.1163    23925.887    82.864847 
   26000    2368.6697   -116.82436    2.1432221   -114.68114    13354.626    4.3913051    4.3913051    4.3913051    13354.626    19485.956    28948.087    -8370.166   -2378.4519    15026.917   -9223.3329        84.68 
   26100    1658.3522   -116.16351    1.5005119   -114.66299    14786.172    4.4159494    4.4159494    4.4159494    14786.172    21142.256    47715.495   -24499.236   -4013.4591   -8856.9011   -37429.218    86.113704 
   26200    2263.5997   -116.66605    2.0481526   -114.61789   -16243.074     4.417001     4.417001     4.417001   -16243.074    -18675.02    22580.382   -52634.585    -8106.585   -1321.4347    31359.619    86.175239 
   26300    2053.4362   -116.47968    1.8579922   -114.62168    1912.2422    4.3917148    4.3917148    4.3917148    1912.2422    5514.9691    29984.976   -29763.219   -16355.405   -11776.245   -19720.359    84.703702 
   26400    2185.1206   -116.60437     1.977143   -114.62722    11854.301    4.3594487    4.3594487    4.3594487    11854.301    16636.891    33408.387   -14482.375    6343.4888   -3549.1643   -54016.605    82.850423 
   26500    2288.9997   -116.74886     2.071135   -114.67772    19023.047    4.3682099    4.3682099    4.3682099    19023.047    44779.175   -16782.865    29072.832   -14858.635   -1491.9479    11593.498    83.350938 
   26600    2102.2314    -116.5884    1.9021431   -114.68625   -18965.379    4.4010822    4.4010822    4.4010822   -18965.379   -5863.0144   -35687.097   -15346.024   -9934.6677   -17736.277   -16070.681    85.246869 
   26700    2129.8568   -116.57865    1.9271392   -114.65151   -17541.767    4.4034797    4.4034797    4.4034797   -17541.767    20307.147    -46742.21    -26190.24    7739.3072   -3698.3472   -12175.961    85.386262 
   26800    2262.2731   -116.68173    2.0469522   -114.63478    7702.1371    4.3838251    4.3838251    4.3838251    7702.1371    20406.366    2930.9379   -230.89217    9277.0598   -1298.1953    8971.4277    84.248012 
   26900    1628.8318   -116.12958    1.4738012   -114.65578    32667.119    4.3663877    4.3663877    4.3663877    32667.119    70837.927    35015.994    -7852.564   -7651.9717    10405.639   -52191.604    83.246673 
   27000    1464.8276   -116.00939    1.3254068   -114.68399    19093.509    4.3788436    4.3788436    4.3788436    19093.509    32261.796    66309.493   -41290.762   -2733.5312    1274.5094   -25314.274    83.961137 
   27100    2258.6324   -116.70934    2.0436581   -114.66568   -17820.737    4.3922973    4.3922973    4.3922973   -17820.737   -25206.273    28405.815   -56661.754     12388.82    -14400.74    7894.0989    84.737411 
   27200    1725.3112   -116.22821    1.5610978   -114.66711   -12991.727    4.3883826    4.3883826    4.3883826   -12991.727    18225.529    34940.931    -92141.64     -6533.53    5660.3823   -29472.576    84.511042 
   27300    1589.0974   -116.11542    1.4378488   -114.67757   -20721.754    4.3870769    4.3870769    4.3870769   -20721.754    -3948.094    34620.117   -92837.284   -1158.7481   -14216.615    -18770.61     84.43563 
   27400    2187.1902   -116.64685    1.9790157   -114.66783    16773.364    4.3727723    4.3727723    4.3727723    16773.364    3414.7846     91904.23   -44998.921    3481.9247   -14813.965    676.46601    83.612379 
   27500    2565.9752   -117.00122    2.3217483   -114.67947   -12083.986    4.3776839    4.3776839    4.3776839   -12083.986    16217.597   -16541.432   -35928.124    14984.985    11666.739    -28493.45    83.894443 
   27600    2104.3564   -116.58316    1.9040659    -114.6791   -19787.947    4.3992483    4.3992483    4.3992483   -19787.947   -10931.528     16647.39   -65079.704   -17112.958   -6048.2909     -19499.1    85.140348 
   27700    2716.7044   -117.10853    2.4581312    -114.6504   -7127.1192    4.3894841    4.3894841    4.3894841   -7127.1192   -27858.978    21424.454   -14946.834     5890.117   -13112.902   -4324.0575    84.574693 
   27800    2362.8423   -116.78404    2.1379494   -114.64609    40098.188    4.3761704    4.3761704    4.3761704    40098.188    8081.4153    48365.529    63847.619    6933.2848   -693.09993   -20816.066    83.807462 
   27900    2456.4046     -116.892    2.2226065   -114.66939    -21607.35    4.3970341    4.3970341    4.3970341    -21607.35   -62549.546    5564.6882   -7837.1916   -11115.948   -14676.039    5737.4861    85.011856 
   28000    1971.2971   -116.44309     1.783671   -114.65942   -17948.023    4.3975356    4.3975356    4.3975356   -17948.023   -61917.781    22241.205   -14167.494    7767.9892   -30846.917     13276.84     85.04095 
   28100    2105.4614   -116.54441    1.9050657   -114.63935    27518.244    4.3765342    4.3765342    4.3765342    27518.244    48303.255   -1779.7398    36031.216    -9992.448    7027.5633   -34033.808    83.828364 
   28200    1697.9883    -116.1998    1.5363755   -114.66342   -12501.056    4.3871733    4.3871733    4.3871733   -12501.056   -27266.776    38250.205   -48486.598    5757.2644   -5575.5113   -3073.8605    84.441193 
   28300    1278.6245   -115.81321    1.1569263   -114.65628   -40990.423    4.3973142    4.3973142    4.3973142   -40990.423   -45386.503   -1071.3044   -76513.462    2292.4414    -42087.67    11132.607    85.028103 
   28400    1472.3102   -115.97266    1.3321772   -114.64048    11371.396    4.3841811    4.3841811    4.3841811    11371.396    47674.689   -20365.242    6804.7406   -5982.3654    1730.0102   -21560.113    84.268537 
   28500    1491.1538   -116.00389    1.3492273   -114.65466   -18970.626    4.3860875    4.3860875    4.3860875   -18970.626      19797.2   -126.03767    -76583.04    14341.709    2470.1953    4688.6034    84.378517 
   28600    1167.4545   -115.72037    1.0563373   -114.66404   -35984.574    4.3943523    4.3943523    4.3943523   -35984.574   -24017.353    15550.871    -99487.24   -4454.8347   -33411.729    3275.3808    84.856402 
   28700    1934.4694   -116.39833    1.7503486   -114.64798    6085.1069    4.3890202    4.3890202    4.3890202    6085.1069    28993.401    17394.389   -28132.469   -9160.7701    8150.1539    -19634.94    84.547886 
   28800    2214.5719   -116.65492    2.0037912   -114.65113   -8494.5514    4.3910666    4.3910666    4.3910666   -8494.5514    4291.1928    4547.1674   -34322.014    13715.079   -10863.943    3988.3534      84.6662 
   28900    1996.3079   -116.46859    1.8063013   -114.66229   -30784.792    4.3883896    4.3883896    4.3883896   -30784.792   -22456.927   -30529.256   -39368.193    665.34417   -24939.283     -7723.06    84.511444 
   29000    2404.9015   -116.83172    2.1760054   -114.65572    27462.385    4.3767799    4.3767799    4.3767799    27462.385    89159.781   -39787.598    33014.973   -11259.777    10562.229    -13863.13    83.842479 
   29100     2535.649   -116.96281    2.2943085    -114.6685    4667.6584    4.3899635    4.3899635    4.3899635    4667.6584    32687.768   -37741.377    19056.585    215.52433   -1001.1666    2169.5205    84.602407 
   29200    2027.6732   -116.50128    1.8346813    -114.6666    7569.6984    4.3980768    4.3980768    4.3980768    7569.6984    60961.117    240.02985   -38492.052    7926.1758   -26664.433   -7094.0539    85.072347 
   29300    2502.3277   -116.91137    2.2641587   -114.64721     23221.06    4.3930131    4.3930131    4.3930131     23221.06    57275.934    684.71244    11702.534   -2147.2196    9864.4875   -3136.9992    84.778844 
   29400    2306.6705   -116.74427    2.0871239   -114.65714   -7678.1332    4.3880593    4.3880593    4.3880593   -7678.1332   -10150.586    -23561.79    10677.977   -15945.784    17889.365    22448.923    84.492363 
   29500    1912.0584   -116.39255    1.7300706   -114.66248   -3418.1508    4.3794526    4.3794526    4.3794526   -3418.1508    8383.6812    27400.979   -46039.113   -9821.6475   -26662.031    4610.2241     83.99617 
   29600     2218.915   -116.67621    2.0077209   -114.66849    337.75548     4.382051     4.382051     4.382051    337.75548   -8327.8764    42397.785   -33056.642   -5809.6027   -20372.354   -8399.4817    84.145771 
   29700    1222.4379   -115.78368    1.1060875    -114.6776   -1226.3855    4.4054702    4.4054702    4.4054702   -1226.3855   -2138.4997   -11067.747    9527.0905   -24576.564    27426.936    26586.862    85.502103 
   29800     1491.429   -115.97888    1.3494763    -114.6294   -24179.088     4.415457     4.415457     4.415457   -24179.088   -23691.828   -41348.877   -7496.5578   -13683.058    3420.1631    2911.9173    86.084897 
   29900    1425.8414    -115.8876    1.2901313   -114.59746   -11604.638    4.4007646    4.4007646    4.4007646   -11604.638    -15901.49    9871.3372    -28783.76   -705.08433   -5856.3351   -8338.0806    85.228416 
   30000     1401.029   -115.87952    1.2676805   -114.61184   -13845.474    4.3897362    4.3897362    4.3897362   -13845.474   -23799.095   -5046.0671    -12691.26   -937.00704    6391.2232    13752.513    84.589265 
   30100    2229.0404   -116.64087    2.0168826   -114.62399   -14526.499    4.3922391    4.3922391    4.3922391   -14526.499    -37248.76    7864.1838   -14194.921    15848.691   -14131.125   -7085.7139    84.734043 
   30200    2421.1957    -116.8223    2.1907488   -114.63155   -22193.323    4.4049578    4.4049578    4.4049578   -22193.323   -69963.108    21937.578   -18554.439    7990.3585   -9123.1864    7005.3322    85.472273 
   30300    2178.1702   -116.59651    1.9708541   -114.62565   -16368.941    4.4222644    4.4222644    4.4222644   -16368.941   -52340.881   -40824.005    44058.062   -6454.3473    10114.396    11614.772    86.483668 
   30400    2512.0751   -116.87332    2.2729784   -114.60034   -4637.9796    4.4135466    4.4135466    4.4135466   -4637.9796   -826.22989   -38819.383    25731.675    1460.5073    10596.307    10371.016    85.973209 
   30500    2300.2795   -116.68159    2.0813412   -114.60025    31754.097    4.3817619    4.3817619    4.3817619    31754.097    21524.802    41710.761    32026.727    -9736.022    15648.106   -7265.8908    84.129114 
   30600    1791.4224   -116.25727    1.6209167   -114.63635    46702.539    4.3833119    4.3833119    4.3833119    46702.539    23234.605    80061.329    36811.685    -24649.72    21777.778    12387.525    84.218429 
   30700    2172.3984   -116.60458    1.9656317   -114.63895    -13818.84     4.418481     4.418481     4.418481    -13818.84    8429.3641   -10730.037   -39155.846    19750.636   -541.69085   -48.402702    86.261893 
   30800    1624.9142   -116.07379    1.4702565   -114.60353   -56959.491     4.432235     4.432235     4.432235   -56959.491   -23159.774   -60529.003   -87189.695    21213.646    10109.701   -12325.185    87.069959 
   30900    2264.0793   -116.62292    2.0485865   -114.57433    -20062.75    4.4027119    4.4027119    4.4027119    -20062.75   -9940.0686   -32813.607   -17434.574    4097.4964   -11004.464    5906.1629    85.341606 
   31000    1569.8069   -116.00756    1.4203943   -114.58716    40129.011    4.3660933    4.3660933    4.3660933    40129.011    59879.997     30388.12    30118.916     22947.38     720.5211   -848.77525    83.229838 
   31100    1393.1258   -115.90568    1.2605295   -114.64515    7678.6525    4.3674673    4.3674673    4.3674673    7678.6525    24322.919    1252.2377   -2539.1986   -1181.9076    42064.649    1876.9694    83.308438 
   31200    2011.8757   -116.49179    1.8203874    -114.6714   -15133.175    4.4024867    4.4024867    4.4024867   -15133.175    1229.3843   -57688.654    11059.743   -13630.618   -1063.0389     9028.352    85.328511 
   31300    1628.9115   -116.12224    1.4738734   -114.64836   -22919.008    4.4179925    4.4179925    4.4179925   -22919.008    24955.571   -81986.307   -11726.288   -903.88552    4156.3515   -14632.945    86.233281 
   31400    1703.3017   -116.17108    1.5411832    -114.6299   -8725.3586     4.398429     4.398429     4.398429   -8725.3586   -46507.085   -31661.468    51992.478    2188.6251    34665.678    1633.2512    85.092788 
   31500    2372.8504    -116.7669    2.1470049    -114.6199    54407.563    4.3697636    4.3697636    4.3697636    54407.563    26885.011    49460.748     86876.93   -5432.8925    5803.4995    8195.9597    83.439908 
   31600    2041.3006    -116.5149    1.8470117   -114.66788    27761.136    4.3742736    4.3742736    4.3742736    27761.136    19246.326   -17662.536    81699.618    8370.0788    16746.776     4788.741    83.698528 
   31700     2474.118   -116.92577     2.238634   -114.68714   -40930.977    4.4139147    4.4139147    4.4139147   -40930.977   -78880.108   -33658.038   -10254.785    6885.6974    47666.212    5582.9383    85.994725 
   31800    3138.6724   -117.48014    2.8399368   -114.64021   -28096.653    4.4113784    4.4113784    4.4113784   -28096.653   -38651.475   -24055.458   -21583.027   -8794.5636    1737.0374   -10603.264    85.846566 
   31900    2800.0046   -117.16762     2.533503   -114.63412    23092.699    4.3667126    4.3667126    4.3667126    23092.699    22264.889    44152.638    2860.5689   -1058.3678    3385.3544   -20591.233    83.265255 
   32000     2576.253   -116.99082    2.3310479   -114.65977    28851.762     4.361725     4.361725     4.361725    28851.762    -21051.98    56861.032    50746.235    1575.9553     37510.09    11302.597    82.980268 
   32100    2995.4192   -117.39389    2.7103182   -114.68357    301.77803    4.3893326    4.3893326    4.3893326    301.77803   -30129.907    34188.597   -3153.3557    4266.0593    8615.6018    8272.2936    84.565938 
   32200    2076.4197   -116.54932    1.8787882   -114.67053    16254.051    4.3991558    4.3991558    4.3991558    16254.051    21959.113   -8503.3641    35306.405     5293.483    2564.3864   -12917.936    85.134978 
   32300    1486.4469   -115.99457    1.3449684    -114.6496   -38.499752    4.4069424    4.4069424    4.4069424   -38.499752   -799.84626   -24100.108    24784.455    11215.657    26948.461   -13568.158     85.58785 
   32400    1659.7496    -116.1375    1.5017763   -114.63573   -38165.691    4.3948258    4.3948258    4.3948258   -38165.691   -7629.9639   -90204.986   -16662.123   -14318.503    3153.5503    17830.857    84.883835 
   32500    1166.5906   -115.69908    1.0555557   -114.64352    31135.392    4.3489257    4.3489257    4.3489257    31135.392    48136.795    39317.405    5951.9756   -14737.492    4969.9657   -12544.754    82.251902 
   32600    1377.7296    -115.9219    1.2465987    -114.6753    22874.963    4.3473446    4.3473446    4.3473446    22874.963    63106.831    8018.3773   -2500.3179   -23.615753    21845.234   -13179.791    82.162227 
   32700    1285.3308   -115.85488    1.1629943   -114.69188   -26142.003    4.3865003    4.3865003    4.3865003   -26142.003    11981.043   -57146.998   -33260.056   -1139.4479    7672.3795    22097.231    84.402342 
   32800    863.74958   -115.45094   0.78153877    -114.6694   -10866.499     4.396555     4.396555     4.396555   -10866.499   -2911.2488   -40794.499    11106.251   -4149.9372   -2464.6985   -18340.365    84.984071 
   32900    1875.6564   -116.34438    1.6971333   -114.64725   -4294.7077    4.3892984    4.3892984    4.3892984   -4294.7077   -20415.968    20231.148   -12699.304   -4801.6523    23878.864   -17035.237    84.563959 
   33000    2374.9855   -116.78747    2.1489368   -114.63854    5467.0305    4.3774226    4.3774226    4.3774226    5467.0305   -13401.874    51122.181   -21319.215    10299.657     14363.87    19123.089    83.879421 
   33100    1933.7677   -116.41099    1.7497137   -114.66128    7170.4475    4.3685171    4.3685171    4.3685171    7170.4475    9841.3874   -270.88989    11940.845   -10385.934   -1360.1308   -6343.4762    83.368526 
   33200     2668.171    -117.0926    2.4142172   -114.67839   -5312.1398    4.3803233    4.3803233    4.3803233   -5312.1398   -22315.576    15926.083   -9546.9268   -6092.1479    2601.9641   -34398.312    84.046281 
   33300    2992.6382   -117.37036    2.7078019   -114.66256   -18487.952    4.3962169    4.3962169    4.3962169   -18487.952   -43135.014    13422.581   -25751.423    25533.897   -3055.0324   -10685.208    84.964466 
   33400    2331.9118    -116.7596    2.1099628   -114.64964   -12690.606    4.3918817    4.3918817    4.3918817   -12690.606   -21970.434    -13853.84   -2247.5449   -6395.8242    2002.6085   -4921.4123    84.713358 
   33500    2489.7082   -116.89014    2.2527403    -114.6374    1641.6207    4.3741734    4.3741734    4.3741734    1641.6207   -23729.393    14141.866    14512.389    -8013.863   -2348.8472   -6554.0925    83.692779 
   33600    2556.8461   -116.96096    2.3134881   -114.64747    17250.676    4.3663807    4.3663807    4.3663807    17250.676    20839.148    18561.783    12351.098    29273.234    -1242.808    17229.555    83.246272 
   33700    2081.7153   -116.55352    1.8835798   -114.66994    3557.6145    4.3804676    4.3804676    4.3804676    3557.6145    35875.402   -40897.065    15694.506   -697.51621   -1998.4994    16000.635    84.054588 
   33800    1992.0843   -116.47556    1.8024798   -114.67308   -26002.326    4.3901661    4.3901661    4.3901661   -26002.326   -17016.736   -51647.004   -9343.2398    24943.505   -7269.8892   -17771.184    84.614122 
   33900     1842.402   -116.33774     1.667044    -114.6707    9483.6428    4.3714839    4.3714839    4.3714839    9483.6428   -21608.499    3416.5995    46642.828    45588.704    6908.7776   -13896.255    83.538493 
   34000    2557.2252   -116.98278    2.3138311   -114.66895    9744.8596    4.3529417    4.3529417    4.3529417    9744.8596    28201.868   -10125.042    11157.753   -16785.042   -4333.5091    29444.037    82.479983 
   34100    2025.1847   -116.53737    1.8324297   -114.70494    -5220.364    4.3721837    4.3721837    4.3721837    -5220.364   -8788.2504   -296.25902   -6576.5825    15775.573    739.76589    5115.6143    83.578621 
   34200    1979.3758   -116.47586    1.7909808   -114.68488   -40829.319     4.399601     4.399601     4.399601   -40829.319    -58840.89   -70639.101    6992.0326     45193.41    -5741.368   -13203.065    85.160826 
   34300    2450.5957   -116.86658    2.2173505   -114.64923     -2790.03    4.3873882    4.3873882    4.3873882     -2790.03   -22771.451    4940.4312    9460.9301   -15546.021    571.65215    18225.429    84.453605 
   34400    2026.6816   -116.48518    1.8337841    -114.6514   -3317.0275     4.371387     4.371387     4.371387   -3317.0275   -37190.207    19860.209    7378.9154    11748.745   -10510.457     18017.12     83.53294 
   34500    1897.0523   -116.38049    1.7164928   -114.66399   -8844.4116    4.3679256    4.3679256    4.3679256   -8844.4116   -73917.389    7591.7593    39792.395    26990.787   -4163.1532    6979.4754    83.334664 
   34600    2051.4747   -116.53123    1.8562174   -114.67501    10677.207    4.3743304    4.3743304    4.3743304    10677.207   -45745.386    57020.183    20756.824   -35108.923    6525.6612   -20851.221     83.70179 
   34700    2374.4433   -116.82205    2.1484462   -114.67361    5206.5241    4.3907701    4.3907701    4.3907701    5206.5241   -44490.886    68429.998   -8319.5389   -4402.7632   -1655.7383    8355.5385     84.64905 
   34800    2062.9376   -116.53512    1.8665893   -114.66853   -11585.311    4.3852863    4.3852863    4.3852863   -11585.311   -84504.983    40715.376    9033.6738   -6926.0224    1880.2603     26735.68    84.332281 
   34900    1404.3586   -115.94301    1.2706931   -114.67232   -2425.1871    4.3660825    4.3660825    4.3660825   -2425.1871   -80139.694      15629.1    57235.033   -54252.945    -2751.837   -13743.786    83.229219 
   35000    2631.3044   -117.05042    2.3808595   -114.66956    1943.4705     4.359246     4.359246     4.359246    1943.4705   -24025.931    21113.594    8742.7484    3890.6622    2054.7881   -3899.9108    82.838866 
   35100    2243.2851   -116.72022    2.0297715   -114.69045    12703.726    4.3718814    4.3718814    4.3718814    12703.726   -25394.075    16284.016    47221.238   -11216.086    263.89482     9346.882    83.561284 
   35200    1508.0533   -116.05775    1.3645183   -114.69323   -31382.855    4.3940601    4.3940601    4.3940601   -31382.855   -63008.323   -64455.858    33315.616   -48212.065    5809.4421   -3494.6131    84.839475 
   35300    1934.6007   -116.41499    1.7504673   -114.66452   -10059.396    4.3838786    4.3838786    4.3838786   -10059.396     14608.97    -36779.11   -8008.0484    2270.9483    9651.2627    6881.6732    84.251095 
   35400     1614.443   -116.11161     1.460782   -114.65082    49794.769    4.3626523    4.3626523    4.3626523    49794.769    50811.088    49745.158    48828.061   -12307.042   -431.78158    28457.058    83.033206 
   35500    1755.3545   -116.26921    1.5882816   -114.68093   -14050.142    4.3730412    4.3730412    4.3730412   -14050.142   -17195.638   -73326.828    48372.039   -16519.836     6348.669   -2772.9238    83.627808 
   35600    1937.9994   -116.43421    1.7535426   -114.68067    3750.0111    4.3792355    4.3792355    4.3792355    3750.0111   -26340.947   -18681.644    56272.624    20220.827   -3111.0684   -9576.9059     83.98368 
   35700    2237.4125   -116.70829    2.0244578   -114.68383    7914.9408    4.3850527    4.3850527    4.3850527    7914.9408   -3302.3142   -4279.9207    31327.057   -8253.6915   -4747.6968   -5105.8266    84.318806 
   35800    2329.1938   -116.78621    2.1075035    -114.6787   -6819.7114    4.3913248    4.3913248    4.3913248   -6819.7114   -46265.432     -13066.2    38872.498    3568.5925    5990.8217    6868.0185    84.681139 
   35900    2190.1717   -116.64934    1.9817134   -114.66762    10935.406    4.3848096    4.3848096    4.3848096    10935.406   -73848.807    68705.978    37949.047    40389.213    1995.1522   -12768.299    84.304783 
   36000    2786.1287   -117.17989    2.5209478   -114.65894    9760.0424    4.3759081    4.3759081    4.3759081    9760.0424   -10793.705    56160.123   -16086.291    1021.0079   -3621.6385   -24224.149    83.792392 
   36100         1978   -116.46082    1.7897359   -114.67108    22969.898    4.3685138    4.3685138    4.3685138    22969.898   -6391.7778    51975.642     23325.83   -1726.5789   -1234.8479    10043.121    83.368338 
   36200    2017.5344   -116.51938    1.8255075   -114.69387    -26961.56    4.3783511    4.3783511    4.3783511    -26961.56   -78992.865   -21307.941    19416.124    42541.552    -157.2836    13274.404    83.932807 
   36300    1718.8526   -116.23524     1.555254   -114.67999   -10530.057    4.3870658    4.3870658    4.3870658   -10530.057   -18511.346   -27884.649    14805.825    6242.5479    2532.3366   -11984.993    84.434991 
   36400    1521.8433   -116.04712    1.3769958   -114.67012   -3432.6897    4.3844152    4.3844152    4.3844152   -3432.6897    23514.697   -21098.417    -12714.35    9784.7632   -4006.8847    20029.193     84.28204 
   36500    755.50162   -115.36065   0.68359374   -114.67705     24418.48    4.3874517    4.3874517    4.3874517     24418.48   -32216.628    41551.974    63920.094     30874.58    4691.5931   -9666.3814     84.45727 
   36600    1560.5727   -116.07473     1.412039   -114.66269    7221.4773    4.3922472    4.3922472    4.3922472    7221.4773   -34157.184    37897.754    17923.862   -27772.384    607.09247    2453.3339    84.734509 
   36700    1829.3447   -116.31071    1.6552295   -114.65548    7890.4672     4.389781     4.389781     4.389781    7890.4672    6858.7719    31609.659   -14797.029    8901.8875    10119.155    10781.643    84.591857 
   36800    1765.9461   -116.27144    1.5978651   -114.67357   -25990.884    4.3995205    4.3995205    4.3995205   -25990.884   -43292.987   -71129.973    36450.308    15673.986   -2942.2422    10407.367    85.156152 
   36900    2004.2276   -116.47246    1.8134672   -114.65899     -25014.3    4.4025568    4.4025568    4.4025568     -25014.3   -64084.003    -64233.49    53274.593   -41955.035   -3188.7414   -2230.1879    85.332586 
   37000    2762.3533   -117.14085    2.4994353   -114.64142    24082.471    4.3881282    4.3881282    4.3881282    24082.471   -34088.064    90256.029    16079.448    22856.695    3904.2584   -1730.8221    84.496346 
   37100    2601.0768   -117.00782     2.353509   -114.65431    18381.189     4.381762     4.381762     4.381762    18381.189    -26324.56    80877.451    590.67535    26132.241   -14471.921    19716.108     84.12912 
   37200    2101.4636   -116.59788    1.9014484   -114.69643    3714.6468    4.3908033    4.3908033    4.3908033    3714.6468   -69952.442    61102.107    19994.275   -40889.158   -6305.0646   -9006.6073    84.650971 
   37300    3069.9581   -117.44844    2.7777626   -114.67067   -34109.552    4.4103372    4.4103372    4.4103372   -34109.552   -69448.365   -5997.0766   -26883.214   -9146.7101   -11089.397   -23102.202    85.785796 
   37400    2512.2307   -116.93198    2.2731192   -114.65886   -10731.682    4.3971901    4.3971901    4.3971901   -10731.682   -25928.084   -26892.276    20625.313    1670.2569   -3075.5369    15508.131    85.020905 
   37500    1685.4218   -116.17969     1.525005   -114.65469     30656.33    4.3734434    4.3734434    4.3734434     30656.33    28620.301    18419.548    44929.141   -17342.515    6257.8474   -11493.276    83.650885 
   37600    1628.3624   -116.15748    1.4733765    -114.6841    2225.1194    4.3871756    4.3871756    4.3871756    2225.1194   -31650.137    14512.878    23812.617    11357.993   -6672.5011   -4519.9242    84.441329 
   37700    1770.1603   -116.27013    1.6016782   -114.66845   -26431.166    4.4017684    4.4017684    4.4017684   -26431.166   -21382.679   -31757.818   -26153.002    5808.1827    347.20958    34681.299     85.28675 
   37800    1296.8585   -115.83454    1.1734248   -114.66111    5498.5061     4.401668     4.401668     4.401668    5498.5061   -22542.814    524.03712    38514.295   -8424.4083    3452.0375   -1492.4868    85.280913 
   37900     1326.605   -115.86109    1.2003401   -114.66075   -14924.676    4.4043161    4.4043161    4.4043161   -14924.676   -10453.964   -22826.724   -11493.342    30683.545   -9633.5301    8709.9862    85.434922 
   38000    1785.7512   -116.27057    1.6157852   -114.65479    10968.717    4.3814752    4.3814752    4.3814752    10968.717    20939.795    28732.452   -16766.096    21978.029   -12690.702    28489.622    84.112603 
   38100    2853.5671   -117.23234    2.5819675   -114.65038    24503.103    4.3688856    4.3688856    4.3688856    24503.103    32679.272    24584.975    16245.061   -21943.694    6017.1889   -11899.601    83.389624 
   38200    1963.9926   -116.47605    1.7770617   -114.69899   -19880.987    4.4065056    4.4065056    4.4065056   -19880.987     17143.43   -28519.767   -48266.625    14852.957   -22719.626   -5351.9644    85.562405 
   38300    1756.1004     -116.247    1.5889566   -114.65804   -36000.091     4.423721     4.423721     4.423721   -36000.091    32597.502   -35298.118   -105299.66    18661.364   -14144.203    23239.245    86.569158 
   38400    2877.8857   -117.22131    2.6039715   -114.61734   -15146.595    4.4056224    4.4056224    4.4056224   -15146.595    6090.9483    13242.672   -64773.406   -5043.5646    20271.802    21665.079    85.510967 
   38500    2351.7665   -116.74999    2.1279277   -114.62206   -6722.9364    4.3899277    4.3899277    4.3899277   -6722.9364   -28872.358    18618.636   -9915.0881    14870.087   -14772.838    10100.654    84.600337 
   38600    1978.0316   -116.44074    1.7897645   -114.65098    5788.7719    4.3767494    4.3767494    4.3767494    5788.7719   -13054.028    36680.063   -6259.7199    8275.4161   -13894.703    10111.951    83.840726 
   38700    2237.0006   -116.71789    2.0240852    -114.6938    15282.469    4.3850581    4.3850581    4.3850581    15282.469   -46403.052    81231.835    11018.623   -17066.105    21795.059     12696.59    84.319115 
   38800    2485.4825   -116.94593    2.2489168   -114.69702   -26184.502    4.4154938    4.4154938    4.4154938   -26184.502   -67377.671    -36374.86    25199.026   -17236.296   -8765.4836    11681.535    86.087052 
   38900    2101.7358   -116.55707    1.9016947   -114.65537    18383.205    4.4141499    4.4141499    4.4141499    18383.205   -23944.541    87198.924   -8104.7685   -11217.175   -10062.239    20323.635    86.008472 
   39000    1740.0124   -116.21528    1.5743998   -114.64088   -23101.801    4.4060799    4.4060799    4.4060799   -23101.801   -4208.5449   -8094.0568   -57002.801     2757.259    6583.5843   -5912.1427    85.537611 
   39100    1706.9168   -116.19614    1.5444542   -114.65168   -11579.093     4.405638     4.405638     4.405638   -11579.093   -47318.486    58256.588   -45675.381   -9542.7561   -13967.983    4541.7804    85.511873 
   39200    1790.8902   -116.27231    1.6204351   -114.65187    15273.532    4.4090112    4.4090112    4.4090112    15273.532   -15715.896    60633.467    903.02508    10237.428    20107.734    4356.7582    85.708442 
   39300    907.08873   -115.47869   0.82075295   -114.65794    12987.901    4.4179957    4.4179957    4.4179957    12987.901    10949.696    62894.749   -34880.742    6464.4917    11281.366   -9245.9173     86.23347 
   39400    1771.9853    -116.2392    1.6033295   -114.63587   -36506.729    4.4185032    4.4185032    4.4185032   -36506.729   -20156.368   -12690.492   -76673.327    10245.351    1048.4846    14410.197    86.263192 
   39500     2223.921   -116.63225    2.0122505      -114.62    10432.793    4.4003181    4.4003181    4.4003181    10432.793   -7667.5606    36889.636     2076.305    6726.1368   -8782.4022   -4468.5629    85.202477 
   39600    2286.0251   -116.71201    2.0684436   -114.64357    29811.082    4.3893159    4.3893159    4.3893159    29811.082   -17947.381    61769.553    45611.074   -8613.8424   -17105.512    24265.594    84.564973 
   39700    1537.6081   -116.09881    1.3912601   -114.70755    4198.3381    4.4040242    4.4040242    4.4040242    4198.3381    6806.8829   -49524.649    55312.781   -2265.3884   -2812.6489   -17302.776    85.417941 
   39800    2558.5293   -117.00973    2.3150111   -114.69472   -11939.026    4.4034604    4.4034604    4.4034604   -11939.026   -17674.471   -23983.924    5841.3166    5369.3191    20532.751   -18581.114    85.385137 
   39900    3002.2711   -117.38822     2.716518    -114.6717    14254.574    4.3896479    4.3896479    4.3896479    14254.574    -8055.637    6353.8147    44465.544   -8407.0005   -14289.819   -7466.0441    84.584161 
   40000    2168.0872   -116.65577    1.9617308   -114.69404      3857.78    4.3975085    4.3975085    4.3975085      3857.78    -14955.79   -41090.324    67619.454   -21158.411    1111.3623   -13420.999    85.039374 
   40100    2044.9641   -116.53185    1.8503265   -114.68152   -12914.383    4.4087195    4.4087195    4.4087195   -12914.383    5861.1916   -54274.882    9670.5415    5129.3234   -5675.5075    -13476.41    85.691434 
   40200    2255.3808   -116.70197    2.0407159   -114.66125   -16589.834    4.4136616    4.4136616    4.4136616   -16589.834   -33339.345    4456.9648   -20887.123    5204.3117   -19339.556    13452.413    85.979932 
   40300    1875.7316   -116.34279    1.6972014   -114.64558   -16655.444    4.4093258    4.4093258    4.4093258   -16655.444   -19579.495    -30482.18     95.34351   -4839.1176   -2326.5653    370.17894    85.726793 
   40400    1591.5395   -116.07937    1.4400583   -114.63931   -14624.794    4.3940871    4.3940871    4.3940871   -14624.794    27269.297   -57109.315   -14034.365     3088.608   -2608.2934   -26697.665    84.841039 
   40500    1628.8612   -116.15355    1.4738278   -114.67972    10257.308    4.3903087    4.3903087    4.3903087    10257.308    11730.553   -22054.709    41096.081    7797.5768   -22529.225   -3465.9711     84.62237 
   40600    1803.4228   -116.33853    1.6317749   -114.70676    6042.4866    4.4062299    4.4062299    4.4062299    6042.4866    36293.398   -10916.307   -7249.6312    3860.6534   -11172.129   -1325.5246    85.546346 
   40700     1670.749   -116.19443    1.5117288    -114.6827   -22313.972    4.4182325    4.4182325    4.4182325   -22313.972   -17639.364    -52687.21    3384.6576   -10018.568   -5949.3864   -6322.1728    86.247335 
   40800    1629.0274   -116.12694    1.4739782   -114.65296    7524.9101     4.404576     4.404576     4.404576    7524.9101    22216.568   -221.69723    579.85909   -2726.1146   -2196.3618    8393.2672    85.450052 
   40900    1950.2633   -116.41423    1.7646392    -114.6496    12654.009    4.4048964    4.4048964    4.4048964    12654.009   -20781.602    12326.212    46417.418    4304.7606   -16095.226   -26548.723    85.468699 
   41000      1990.59   -116.45153    1.8011277    -114.6504    27237.327    4.4203986    4.4203986    4.4203986    27237.327    39516.923   -22999.107    65194.166   -17151.026    6414.2737    -16879.92    86.374249 
   41100    2285.8981   -116.69706    2.0683286   -114.62873   -21263.503    4.4269349    4.4269349    4.4269349   -21263.503   -45051.305   -24176.984    5437.7784   -5047.8815   -2986.0102    31460.279    86.757974 
   41200    2042.0033   -116.45957    1.8476475   -114.61192    1263.3684    4.4074035    4.4074035    4.4074035    1263.3684   -38921.761   -3884.1766    46596.043   -2420.7043    -13853.99     4484.305    85.614718 
   41300    2705.7469   -117.06427    2.4482166   -114.61605   -892.71442    4.3863429    4.3863429    4.3863429   -892.71442   -11322.131   -37236.347    45880.335   -33277.073   -247.69906   -22381.808    84.393253 
   41400    2389.5599   -116.82976     2.162124   -114.66764    12601.223    4.3958632    4.3958632    4.3958632    12601.223    44309.259   -24038.949    17533.359    2602.2995   -28867.151    3972.8661    84.943961 
   41500    2037.7426   -116.52737    1.8437923   -114.68358    9762.4922    4.4125601    4.4125601    4.4125601    9762.4922    30634.611   -5921.8268    4574.6928   -16626.933   -10346.003    -17552.59    85.915572 
   41600     1747.455   -116.24406     1.581134   -114.66292    14832.396    4.4221517    4.4221517    4.4221517    14832.396    51509.671   -21561.482    14548.998   -35065.598    28874.852    6688.8667    86.477056 
   41700    2374.4886   -116.77161    2.1484872   -114.62312   -17361.788    4.4108619    4.4108619    4.4108619   -17361.788     -5457.99   -29867.936   -16759.438    11279.749   -17463.239    7548.6026    85.816419 
   41800    1960.2004   -116.38725    1.7736305   -114.61362    12539.143    4.3887017    4.3887017    4.3887017    12539.143    44929.485    28126.365   -35438.422    13861.247   -12269.669    -9042.137    84.529478 
   41900    1214.0732   -115.77471    1.0985189   -114.67619   -28051.217    4.4073237    4.4073237    4.4073237   -28051.217   -61171.344   -894.67956   -22087.627   -35755.421    24705.568   -2529.5044     85.61007 
   42000    1861.7577   -116.34295    1.6845575   -114.65839   -50711.844    4.4141074    4.4141074    4.4141074   -50711.844   -66803.805    -44408.47   -40923.258   -4770.2445   -4918.8337   -5082.1594     86.00599 
   42100    2264.5542   -116.68446    2.0490163   -114.63545    52689.514    4.3815606    4.3815606    4.3815606    52689.514    76766.241    3603.8697    77698.432    14474.154   -6019.5382   -8062.1069    84.117522 
   42200    1614.2546   -116.14951    1.4606115    -114.6889    -5415.851    4.3847179    4.3847179    4.3847179    -5415.851   -46657.826    25742.426    4667.8462     -23030.9    19761.457    5373.4391    84.299493 
   42300     1764.387   -116.31676    1.5964544   -114.72031   -11985.476    4.4054675    4.4054675    4.4054675   -11985.476   -53681.713    1203.9729    16521.312   -18449.264    11506.035    71.483566    85.501945 
   42400     1946.422    -116.4553    1.7611636   -114.69414   -5018.9512    4.4271467    4.4271467    4.4271467   -5018.9512    63713.879   -39225.013   -39545.719    4061.8141    8419.0515   -15223.929     86.77043 
   42500    2447.3947   -116.87268    2.2144542   -114.65823   -12513.227    4.4077718    4.4077718    4.4077718   -12513.227    9582.8326   -57729.484    10606.971   -19021.889    5752.1359   -2305.9601    85.636183 
   42600    1752.2627   -116.22265    1.5854841   -114.63717    72910.912    4.3735871    4.3735871    4.3735871    72910.912    85659.941   -196.52754    133269.32   -15501.289    28596.441    5502.1494    83.659131 
   42700    2537.7965   -116.98281    2.2962516   -114.68656     7471.571     4.391542     4.391542     4.391542     7471.571    38676.922   -26821.681    10559.472    10739.741   -17224.933   -6593.1547    84.693701 
   42800    2352.6313    -116.7972    2.1287102   -114.66849   -31572.544    4.4129502    4.4129502    4.4129502   -31572.544   -27481.136   -53906.052   -13330.445    2233.4162   -9939.7645   -2046.6491    85.938366 
   42900    1798.0847   -116.26707    1.6269448   -114.64012    16721.322    4.4064729    4.4064729    4.4064729    16721.322    20686.667   -44559.757    74037.056   -2978.2023    19807.336    2961.3511    85.560497 
   43000    2043.8654   -116.49614    1.8493324    -114.6468    38763.438    4.4111749    4.4111749    4.4111749    38763.438    72063.596   -42588.137    86814.855     15332.53    4139.7981    7277.7707    85.834689 
   43100    1786.0683   -116.25715    1.6160722   -114.64108    9240.6661    4.4276422    4.4276422    4.4276422    9240.6661   -47094.946    33194.249    41622.696    7207.6348    11134.217   -15179.139    86.799566 
   43200    1679.6008   -116.14102    1.5197381   -114.62128    -8409.304    4.4125687    4.4125687    4.4125687    -8409.304   -48610.529    1772.5139    21610.103    -5166.228    14088.327    12137.339    85.916078 
   43300    2142.8499   -116.54762    1.9388956   -114.60872    32717.669    4.3827237    4.3827237    4.3827237    32717.669    26402.356   -317.95772    72068.607    12156.138   -16689.023   -3175.1881    84.184529 
   43400    2514.1284   -116.92427    2.2748362   -114.64944    47060.734    4.3880215    4.3880215    4.3880215    47060.734    6372.6009    58694.688    76114.913    13348.152    731.82298     -23845.9    84.490183 
   43500    1924.7043   -116.42172    1.7415129   -114.68021   -25316.419    4.4192094    4.4192094    4.4192094   -25316.419    -24220.08   -14850.013   -36879.163      1051.89    7588.8748    31334.426    86.304557 
   43600    1735.9614   -116.22051    1.5707343   -114.64977   -44300.529    4.4219353    4.4219353    4.4219353   -44300.529    17455.576    -81073.35   -69283.813   -979.38067   -7189.0168     23271.27    86.464365 
   43700    2702.9551   -117.07208    2.4456906   -114.62639   -2719.9559    4.3954501    4.3954501    4.3954501   -2719.9559    4193.7478    -3826.386   -8527.2296   -15792.389    4043.8448   -15386.061    84.920018 
   43800    1546.4826   -116.05367    1.3992899   -114.65438    17491.828    4.3854789    4.3854789    4.3854789    17491.828      25592.4    36793.823   -9910.7387     3531.701   -16735.472    3162.4981    84.343396 
   43900    1562.0942   -116.09877    1.4134156   -114.68535   -21783.325    4.4002233    4.4002233    4.4002233   -21783.325    18116.035    -61325.35    -22140.66     7343.697    7127.9117    17803.984    85.196968 
   44000     2206.184   -116.66559    1.9962017   -114.66939   -29098.571    4.4202625    4.4202625    4.4202625   -29098.571   -30157.465   -42890.629   -14247.619   -21419.657   -9410.4894   -7358.5085    86.366272 
   44100    1315.1162   -115.84708    1.1899448   -114.65713   -22346.477    4.4309492    4.4309492    4.4309492   -22346.477   -33700.198   -3125.0418   -30214.191    12305.322   -21634.669   -3833.1633    86.994205 
   44200    1478.3425   -115.95844    1.3376353    -114.6208    3824.4084    4.4089319    4.4089319    4.4089319    3824.4084   -6007.2953    27398.039   -9917.5189    26927.325    390.35801    7637.2038    85.703818 
   44300    2400.4248   -116.77784    2.1719548   -114.60588    999.53058    4.3844312    4.3844312    4.3844312    999.53058   -33552.014    17240.171    19310.435   -4927.5224    3292.6873   -1541.1461    84.282957 
   44400      1518.19    -116.0485    1.3736902   -114.67481    16911.151    4.4022304    4.4022304    4.4022304    16911.151   -48367.694    79601.196    19499.952      13249.1   -18762.074   -1375.4387    85.313607 
   44500    2310.8495   -116.74931    2.0909052    -114.6584   -41484.798    4.4302771    4.4302771    4.4302771   -41484.798   -51751.158   -27246.243   -45456.994    18480.838    13045.403    4463.7429    86.954624 
   44600    2659.7453   -117.02485    2.4065934   -114.61826    -25765.88    4.4323322    4.4323322    4.4323322    -25765.88   -8314.9949   -34230.809   -34751.837   -9916.4154    7141.5227   -15054.385    87.075688 
   44700    2562.6706   -116.92016    2.3187582    -114.6014   -4415.2814    4.4157758    4.4157758    4.4157758   -4415.2814    52987.201   -34183.024   -32050.021    1271.0385    390.96813   -6433.1857     86.10355 
   44800    2289.0493   -116.69727    2.0711799   -114.62609   -15350.168    4.3941837    4.3941837    4.3941837   -15350.168   -35137.496    554.76794   -11467.776    17673.544    45611.242    14285.279    84.846634 
   44900     1865.474   -116.34065    1.6879201   -114.65273    26667.556    4.3864721    4.3864721    4.3864721    26667.556    17636.611     15481.21    46884.847   -9782.2609   -22560.068   -14178.584    84.400716 
   45000    2131.0203   -116.59796    1.9281919   -114.66977    410.61473    4.3955937    4.3955937    4.3955937    410.61473    37534.365   -13059.138   -23243.383    789.19584    12051.026   -23018.683    84.928335 
   45100    1405.2707   -115.93599    1.2715185   -114.66447    34501.349    4.4068742    4.4068742    4.4068742    34501.349    10879.533    6946.8621    85677.651    9495.9172    34625.403    5880.4627     85.58388 
   45200    1732.2289   -116.21404    1.5673571   -114.64668   -3316.8219     4.413617     4.413617     4.413617   -3316.8219   -3650.4744   -55891.155    49591.163    5880.4708   -20004.819   -6325.4976    85.977328 
   45300     1417.181   -115.92344    1.2822952   -114.64114   -7220.3613    4.4037106    4.4037106    4.4037106   -7220.3613   -11428.228   -12211.382    1978.5259   -2798.5898     6178.163   -8407.5292    85.399693 
   45400    2052.1747   -116.48656    1.8568508   -114.62971     18929.46     4.377478     4.377478     4.377478     18929.46   -48264.921    42911.612     62141.69    1498.8936    31897.795    12678.872    83.882606 
   45500    1714.8347   -116.21488    1.5516185   -114.66326    17974.818    4.3813071    4.3813071    4.3813071    17974.818    100340.89   -49002.987    2586.5512    1914.3642    6565.2506   -20282.294     84.10292 
   45600    1678.6486   -116.20428    1.5188765    -114.6854   -31801.191    4.4044946    4.4044946    4.4044946   -31801.191    32353.802   -82712.436   -45044.938    4316.7565   -12308.282   -12996.293    85.445313 
   45700    3002.9855   -117.36516    2.7171644   -114.64799   -16830.954    4.4044807    4.4044807    4.4044807   -16830.954   -27612.012   -29161.137    6280.2872    10735.568   -11287.638    17530.823    85.444502 
   45800    2284.1255   -116.70819    2.0667247   -114.64146    22555.078     4.397141     4.397141     4.397141    22555.078    104219.15   -21749.336   -14804.584   -12134.761   -2951.3517   -1132.5022     85.01806 
   45900    1932.8702   -116.40697    1.7489016   -114.65807   -14329.989     4.399437     4.399437     4.399437   -14329.989    38348.841   -36682.895   -44655.912   -18308.625    1978.4729    6491.9352    85.151302 
   46000    3114.3037     -117.462    2.8178874   -114.64411   -19391.852    4.3998374    4.3998374    4.3998374   -19391.852   -25044.281   -19340.845   -13790.429      11635.6    24175.474     2120.019    85.174558 
   46100     1813.876   -116.29469    1.6412332   -114.65346    4173.6179    4.4041348    4.4041348    4.4041348    4173.6179    79062.707   -30362.979   -36178.874    1811.5276   -1917.5961   -14448.755    85.424373 
   46200    1445.4054   -115.96916    1.3078331   -114.66133   -20079.213    4.3995003    4.3995003    4.3995003   -20079.213    22339.248   -43657.589     -38919.3   -579.20219   -8599.5456   -3701.2373    85.154978 
   46300    2708.6893   -117.10378     2.450879    -114.6529   -16904.073    4.3923634    4.3923634    4.3923634   -16904.073   -35010.522   -13648.574   -2053.1225    7380.1423   -24502.832    6071.8068    84.741236 
   46400    1411.7481   -115.96088    1.2773793    -114.6835   -12650.746    4.4021688    4.4021688    4.4021688   -12650.746    27798.878   -51657.358   -14093.756   -5909.7355    13432.145    8295.7097    85.310027 
   46500    1094.0144   -115.66674   0.98988725   -114.67685   -26443.564    4.4064229    4.4064229    4.4064229   -26443.564   -34736.752   -46320.707     1726.766   -3965.5495    -21048.38   -4013.7489    85.557588 
   46600    2341.7107   -116.77052    2.1188291    -114.6517   -15613.184     4.404609     4.404609     4.404609   -15613.184   -44570.093   -31669.051    29399.591    8369.3165    1099.0653    6304.6056    85.451972 
   46700    1723.3913   -116.20979    1.5593606   -114.65043   -10250.415    4.4019301    4.4019301    4.4019301   -10250.415   -29523.993   -59492.478    58265.226   -7151.4996    5523.8415   -2999.3578    85.296149 
   46800    1357.7743   -115.88134    1.2285428    -114.6528   -18495.959    4.3980922    4.3980922    4.3980922   -18495.959   -37913.511   -31992.157    14417.792   -9048.8246   -14772.599   -6748.7745    85.073242 
   46900    2209.6353   -116.64427    1.9993244   -114.64495   -25905.275    4.3989329    4.3989329    4.3989329   -25905.275   -69211.309   -23712.486    15207.971    7728.2901   -25883.871   -10031.804    85.122039 
   47000    2487.5815   -116.89651     2.250816    -114.6457   -7627.8973    4.3994824    4.3994824    4.3994824   -7627.8973    16256.887   -33353.689   -5786.8903    10255.728    17027.142    11724.366    85.153943 
   47100    1504.6264   -116.03071    1.3614176   -114.66929    4864.5472    4.4077832    4.4077832    4.4077832    4864.5472   -5169.1652   -6330.6255    26093.432   -4624.1278   -29914.063    2356.4166    85.636849 
   47200    2090.8925   -116.54165    1.8918834   -114.64977    16207.586    4.4072203    4.4072203    4.4072203    16207.586   -11242.882        32514     27351.64   -5672.6831   -36875.136   -18841.362    85.604044 
   47300    2613.1964   -116.99831     2.364475   -114.63383   -7121.8999     4.404286     4.404286     4.404286   -7121.8999    51728.514   -37117.391   -35976.822   -6637.2029    6937.0794    34396.529    85.433172 
   47400    2121.5546   -116.56266    1.9196272   -114.64303   -22138.332     4.405791     4.405791     4.405791   -22138.332    28330.156   -57352.219   -37392.934   -6115.7496    1142.1315    5284.5653    85.520783 
   47500    2504.1078   -116.89855    2.2657694   -114.63279    7554.9153    4.4041737    4.4041737    4.4041737    7554.9153    6109.3721    29328.157   -12772.783    2959.0653   -7352.3689   -20445.734    85.426639 
   47600    1872.2756   -116.33492    1.6940743   -114.64085    15555.014    4.4145929    4.4145929    4.4145929    15555.014     236.0641   -7503.4904    53932.468    10428.449    11826.752    41130.118    86.034372 
   47700    1935.1347   -116.38351    1.7509505   -114.63256   -20288.841    4.4179518    4.4179518    4.4179518   -20288.841    8707.2437   -38703.863   -30869.902    15084.801   -1707.0305   -3223.8933      86.2309 
   47800    1829.4323   -116.27816    1.6553088   -114.62286    14759.319       4.4036       4.4036       4.4036    14759.319   -36406.139    -6919.828    87603.924    22196.127   -11875.831    383.79415    85.393262 
   47900    2135.8669   -116.56395    1.9325772   -114.63137   -23588.067    4.3978236    4.3978236    4.3978236   -23588.067   -55934.155   -39466.043    24635.996    12135.431    3378.7667    19053.715    85.057659 
   48000    1938.5207   -116.40423    1.7540143   -114.65022   -24088.526    4.3992613    4.3992613    4.3992613   -24088.526   -16796.733   -58620.604    3151.7576   -15571.003    -16424.71   -5394.7682    85.141106 
   48100    1829.4424   -116.32587    1.6553179   -114.67055    5254.4358    4.4083805    4.4083805    4.4083805    5254.4358   -14230.894   -26618.099      56612.3    18153.549   -16310.258   -17323.011    85.671668 
   48200    2193.7354   -116.64622    1.9849379   -114.66128    -10691.62    4.4138768    4.4138768    4.4138768    -10691.62   -63512.425   -36556.473    67994.038    2046.5317    1693.0629    24103.281     85.99251 
   48300    1837.7218   -116.33829    1.6628093   -114.67549   -20398.633    4.4113406    4.4113406    4.4113406   -20398.633      2423.27   -45670.477   -17948.692   -3734.8817    19120.585   -45434.735    85.844364 
   48400    1993.3075    -116.4844    1.8035865   -114.68081   -27471.555    4.4030139    4.4030139    4.4030139   -27471.555    4888.0007   -61979.224   -25323.443    16920.124    3540.9738   -35101.659    85.359168 
   48500    2286.2935   -116.74207    2.0686864   -114.67338   -5326.6281    4.4013784    4.4013784    4.4013784   -5326.6281     9251.903   -18284.617   -6947.1699    8456.1199    6889.6904    4681.4734    85.264082 
   48600    1488.2735   -116.03428    1.3466212   -114.68766   -25633.657    4.4152901    4.4152901    4.4152901   -25633.657    44568.067   -55013.251   -66455.787     -1416.01    21606.774   -39090.758    86.075139 
   48700    1854.5819   -116.34124    1.6780646   -114.66318   -1951.9533    4.4156533    4.4156533    4.4156533   -1951.9533    41877.679    -67408.27    19674.731   -8480.0898   -15967.137   -22370.347    86.096381 
   48800    3076.2083   -117.42197    2.7834179   -114.63856   -28857.804    4.4250234    4.4250234    4.4250234   -28857.804   -16966.256    -44061.55   -25545.606   -11133.722    4978.2404   -3642.9669    86.645637 
   48900     1636.297   -116.10787    1.4805559   -114.62731   -5468.4004    4.4378374    4.4378374    4.4378374   -5468.4004    27665.469   -48120.882    4050.2114    -5347.507   -22578.851   -40465.061    87.400548 
   49000    2333.2789   -116.69893    2.1111998   -114.58773    2444.2552    4.4321057    4.4321057    4.4321057    2444.2552    34735.109   -59308.597    31906.253   -1774.5563    11695.462    25404.751    87.062338 
   49100    2161.4347   -116.53054    1.9557115   -114.57483   -20601.379      4.41837      4.41837      4.41837   -20601.379   -49376.411   -13079.321    651.59664   -14392.139    2416.6914   -7840.6467    86.255392 
   49200     1830.138    -116.2381    1.6559473   -114.58216    6460.8813    4.3891451    4.3891451    4.3891451    6460.8813    55210.236   -7303.9561   -28523.636   -15532.885     8082.144     -8229.37    84.555099 
   49300    1750.8277   -116.24639    1.5841857    -114.6622    22789.668    4.3970704    4.3970704    4.3970704    22789.668    30340.514   -10459.065    48487.555    9310.3951    26636.933    12527.365    85.013963 
   49400    1496.1151   -116.02862    1.3537164    -114.6749    -5672.854    4.4292011    4.4292011    4.4292011    -5672.854   -57140.752   -31309.397    71431.587     -33959.9    5877.7941   -16039.396    86.891278 
   49500    1976.4355   -116.42541    1.7883204   -114.63709   -19904.298    4.4181195    4.4181195    4.4181195   -19904.298   -14305.717   -66970.145    21562.967   -20022.545   -330.11562    3468.6705    86.240723 
   49600    1431.6091   -115.91712      1.29535   -114.62177    14905.332    4.3950212    4.3950212    4.3950212    14905.332    63778.211   -5572.7709   -13489.445   -14899.471   -3005.0792    21040.859    84.895156 
   49700    1428.8344   -115.95885    1.2928394   -114.66601    8993.2684    4.4074586    4.4074586    4.4074586    8993.2684   -43627.263   -25264.015    95871.083    -10468.41    19625.396    3555.0608    85.617929 
   49800    2332.6036   -116.76696    2.1105887   -114.65638    4559.0884    4.4239385    4.4239385    4.4239385    4559.0884   -29276.172   -23987.018    66940.455    975.59431    7196.3759    15058.483    86.581929 
   49900     2342.365   -116.76653    2.1194211   -114.64711    -13465.16    4.4135291    4.4135291    4.4135291    -13465.16    2031.8397   -65045.265    22617.945   -10009.315    14373.989    35815.372     85.97219 
   50000    2133.6103   -116.57068    1.9305354   -114.64015    31906.014    4.3980055    4.3980055    4.3980055    31906.014   -16370.792    37796.238    74292.595   -582.09942    28266.898    21557.208    85.068213 
   50100     2757.749   -117.16027    2.4952693     -114.665   -21516.962    4.4273819    4.4273819    4.4273819   -21516.962   -25544.193   -34899.456   -4107.2385   -6458.8968    22011.526      9452.62    86.784258 
   50200    2244.2951   -116.65788    2.0306854    -114.6272    -36645.32     4.442702     4.442702     4.442702    -36645.32   -60428.655   -34010.539   -15496.764   -41785.749   -9037.9385      -3503.3    87.688277 
   50300    2266.7104    -116.6219    2.0509672   -114.57093    17450.798    4.4263432    4.4263432    4.4263432    17450.798   -14947.053    24843.865    42455.583    5809.3454   -27705.867   -22194.686    86.723194 
   50400    2063.8877   -116.43821    1.8674489   -114.57076     6031.229    4.4318578    4.4318578    4.4318578     6031.229    49548.536   -15941.471   -15513.378   -27354.963    -22118.52   -20626.188    87.047732 
   50500    2008.1835    -116.3984    1.8170466   -114.58136   -21535.289    4.4412182    4.4412182    4.4412182   -21535.289    32321.234     -34549.5     -62377.6   -25495.951   -4535.2826    5008.4838    87.600446 
   50600    1836.6253   -116.24277    1.6618172   -114.58095   -8933.3636    4.4392678    4.4392678    4.4392678   -8933.3636    53645.417   -10588.565   -69856.943    6477.7739    15203.132    22525.281    87.485091 
   50700    2133.1149   -116.53093    1.9300872   -114.60085   -34092.911    4.4463653    4.4463653    4.4463653   -34092.911    14831.932   -84216.241   -32894.423   -24723.626    13630.695   -7872.3231    87.905372 
   50800    1879.2889   -116.29967    1.7004201   -114.59925   -30053.958    4.4456724    4.4456724    4.4456724   -30053.958    9309.8867   -34594.504   -64877.258    485.45204    24808.031    11686.809    87.864282 
   50900    2539.5885   -116.87118    2.2978731   -114.57331   -2075.2203    4.4269198    4.4269198    4.4269198   -2075.2203     63986.23   -38667.023   -31544.868   -2668.0134   -15567.926    3386.4116    86.757089 
   51000    2669.8002   -117.00888    2.4156914   -114.59319   -20205.506    4.4132069    4.4132069    4.4132069   -20205.506    3696.7964   -4218.8483   -60094.465   -29713.945   -3282.2882    12965.902     85.95336 
   51100    1610.2876   -116.09494    1.4570221   -114.63792    22183.727    4.4047802    4.4047802    4.4047802    22183.727    95606.232    15080.573   -44135.624   -5950.3772    18866.159   -874.03404    85.461934 
   51200    2161.5175   -116.63591    1.9557864   -114.68013    19898.187    4.4096666    4.4096666    4.4096666    19898.187      48600.7    690.09881    10403.762    25737.073   -24223.803   -5463.8241     85.74667 
   51300    1378.5927   -115.94473    1.2473796   -114.69735   -14720.747    4.4333939    4.4333939    4.4333939   -14720.747    48693.277   -23669.196   -69186.321    14752.617    26562.051    5429.5312    87.138274 
   51400    1847.6731   -116.32879    1.6718135   -114.65698   -23546.768    4.4178103    4.4178103    4.4178103   -23546.768   -21794.041   -5571.8878   -43274.375   -6931.2933     20488.92    2830.4369    86.222613 
   51500    2305.6708   -116.70153    2.0862194   -114.61531    35887.693    4.3897579    4.3897579    4.3897579    35887.693    92666.987    12456.684    2539.4096    2906.4255   -4444.5633   -14267.756     84.59052 
   51600    1477.0897   -116.00547    1.3365018   -114.66897   -15428.957    4.4128632    4.4128632    4.4128632   -15428.957   -39613.062   -8038.4642    1364.6569    36693.391    34047.004   -6833.7968    85.933282 
   51700    1541.0733   -116.05181    1.3943955   -114.65742   -14052.484    4.4248091    4.4248091    4.4248091   -14052.484    27925.116   -75991.994    5909.4251    12734.051    8851.9119    21165.842    86.633054 
   51800    2644.3983   -117.02807    2.3927071   -114.63537   -20955.302    4.4176869    4.4176869    4.4176869   -20955.302    20077.334   -72513.855   -10429.386   -15494.316   -352.91442    10955.231    86.215392 
   51900    1471.1805   -115.99303    1.3311551   -114.66187   -2166.4171    4.4128759    4.4128759    4.4128759   -2166.4171    13584.596   -31336.508     11252.66    41791.439    14533.316    8460.8209    85.934022 
   52000    1725.3646   -116.22957    1.5611461   -114.66843    16851.564    4.3910969    4.3910969    4.3910969    16851.564    39865.926    -5730.674    16419.439   -7410.1873    -3828.783   -5388.9275    84.667951 
   52100    2672.2606   -117.10038    2.4179176   -114.68247   -9161.2312    4.3890634    4.3890634    4.3890634   -9161.2312    1210.7877   -35344.677    6650.1962    10569.267   -5901.4515   -27433.661    84.550382 
   52200    2431.1834   -116.92445    2.1997858   -114.72466    -2485.115    4.4162102    4.4162102    4.4162102    -2485.115    4623.3702   -49419.231    37340.516    25808.007   -2300.7243   -213.64344    86.128962 
   52300    2495.4976   -116.94107    2.2579786   -114.68309   -23462.891    4.4315666    4.4315666    4.4315666   -23462.891   -26949.217   -43575.705    136.24895    23294.917    10884.359    8767.1485    87.030571 
   52400    1427.0174   -115.93702    1.2911953   -114.64582    49214.583    4.4098325    4.4098325    4.4098325    49214.583    32352.128    62012.818    53278.803     7261.342    339.74794   -15205.787    85.756349 
   52500    2278.1308   -116.69775    2.0613006   -114.63645    13210.343    4.4058109    4.4058109    4.4058109    13210.343    25825.266    22863.596   -9057.8325   -2569.8888   -5860.0183   -3027.6425    85.521942 
   52600    2450.3914   -116.85131    2.2171656   -114.63415    11538.459    4.4210143    4.4210143    4.4210143    11538.459    47009.149   -21845.931    9452.1588    4443.3492   -7411.1066   -5395.9765     86.41035 
   52700    1457.1568   -115.95008    1.3184661   -114.63162    15597.626    4.4214554    4.4214554    4.4214554    15597.626   -59707.983    54943.324    51557.539    792.76955   -17005.507   -1811.5935    86.436215 
   52800    1679.5089   -116.16501     1.519655   -114.64535     -15751.3     4.424631     4.424631     4.424631     -15751.3   -49366.706   -7013.6136    9126.4206    12101.642    -1770.561    15326.494    86.622594 
   52900    2369.5374   -116.78034    2.1440072   -114.63633   -43575.669    4.4252609    4.4252609    4.4252609   -43575.669   -74117.483   -26564.483   -30045.041    16397.703    26434.671    18332.161    86.659592 
   53000    2258.9937   -116.67797     2.043985   -114.63398    7162.5501    4.3829195    4.3829195    4.3829195    7162.5501   -31331.348    52679.698    139.30044   -6749.6538    -20895.03    3033.8571    84.195813 
   53100    1629.7067   -116.12825    1.4745928   -114.65365    54275.319    4.3707472    4.3707472    4.3707472    54275.319    77405.071    72589.877     12831.01   -17311.708   -21254.787   -29057.926    83.496265 
   53200      1641.96   -116.21145    1.4856799   -114.72577   -26540.999    4.4287862    4.4287862    4.4287862   -26540.999   -56765.832   -2216.5027   -20640.663   -17951.177    13710.135    8722.0268    86.866862 
   53300    1615.5267   -116.10243    1.4617625   -114.64067   -46681.647    4.4601711    4.4601711    4.4601711   -46681.647   -38297.459   -35726.558   -66020.925   -22848.845   -2198.0549   -20958.896    88.726746 
   53400    2400.0147   -116.73366    2.1715837   -114.56208   -25860.068     4.435427     4.435427     4.435427   -25860.068    14013.855   -51893.731   -39700.328    13437.616    8462.1141   -18314.697    87.258213 
   53500    2419.1333   -116.75043    2.1888827   -114.56155    15.431122    4.3891153    4.3891153    4.3891153    15.431122    12769.044   -8232.1486   -4490.6022   -21178.041    8990.7982   -7790.3893    84.553382 
   53600    2110.9271   -116.51384    1.9100112   -114.60383    31245.363    4.3626043    4.3626043    4.3626043    31245.363    95716.437    18163.411   -20143.761   -7434.8729   -21205.996   -19798.528    83.030463 
   53700    2623.3731   -117.07287    2.3736831   -114.69919    5195.5843    4.3898466    4.3898466    4.3898466    5195.5843     10169.84    20183.456   -14766.543    8705.1949    -781.9353   -13039.114    84.595652 
   53800    1861.9827   -116.38733    1.6847611   -114.70257   -20741.612    4.4300535    4.4300535    4.4300535   -20741.612    17183.786   -61208.455   -18200.167   -29352.339      7437.69   -3117.6615    86.941454 
   53900    2075.6754   -116.51556    1.8781147   -114.63744   -40006.014    4.4411359    4.4411359    4.4411359   -40006.014   -38400.421   -36677.162    -44940.46    502.80584   -31660.489   -22451.765    87.595582 
   54000    2443.6823   -116.80199    2.2110951   -114.59089   -42146.397    4.4193296    4.4193296    4.4193296   -42146.397   -20148.114   -28896.739    -77394.34    4564.5323    1194.9277    23467.861    86.311603 
   54100    1569.4468   -116.01548    1.4200684   -114.59541    4306.9153    4.3952927    4.3952927    4.3952927    4306.9153    70885.378   -37582.675   -20381.956   -29889.038   -2723.6693    -8403.445    84.910891 
   54200     2019.804   -116.46706    1.8275611    -114.6395   -27827.179    4.4097475    4.4097475    4.4097475   -27827.179    27653.502   -27927.285   -83207.753    12051.871    -6123.499    4062.1204    85.751389 
   54300    2063.7688   -116.51436    1.8673413   -114.64702   -60843.441    4.4433606    4.4433606    4.4433606   -60843.441    -52436.85   -46376.028   -83717.446   -3168.1352    4094.9613    38340.318    87.727286 
   54400    2644.8314   -116.99775     2.393099   -114.60466   -54557.301     4.433281     4.433281     4.433281   -54557.301   -31852.517   -78733.006    -53086.38   -9424.0779   -3852.4596   -16299.423    87.131618 
   54500    2361.1956   -116.71545    2.1364594   -114.57899    10716.239    4.3804808    4.3804808    4.3804808    10716.239     58848.33    3177.8867     -29877.5    9096.4696    8256.9703    39716.429    84.055349 
   54600    2455.2619   -116.84856    2.2215726   -114.62699    10037.007    4.3788333    4.3788333    4.3788333    10037.007    48875.028   -6666.3968    -12097.61    4100.5759    6477.7866    25386.674    83.960542 
   54700     2504.858   -116.91735    2.2664482   -114.65091   -8240.8972    4.4091416    4.4091416    4.4091416   -8240.8972    2720.8805   -29232.958    1789.3861    9230.0305   -11587.137   -18353.117     85.71605 
   54800    1650.7856   -116.14148    1.4936655   -114.64781    1684.2381    4.4178045    4.4178045    4.4178045    1684.2381    36198.304     247.8949   -31393.484     21663.97    7674.1097    31327.513    86.222273 
   54900     2287.691   -116.70373    2.0699509   -114.63378     13557.07    4.4190301    4.4190301    4.4190301     13557.07    3034.7552    25438.611    12197.843    33549.736    11825.203   -20290.721    86.294054 
   55000    2020.6106   -116.44996    1.8282909   -114.62167    7240.4197    4.4024385    4.4024385    4.4024385    7240.4197    1634.9615    22946.055   -2859.7575    9705.1923    11395.782    14163.012    85.325706 
   55100    1553.0401   -116.03372    1.4052233   -114.62849    25885.417    4.3887772    4.3887772    4.3887772    25885.417    108814.18   -13348.114   -17809.814    1090.7159   -330.11428    55077.564    84.533841 
   55200     2336.487   -116.74768    2.1141026   -114.63357    9480.2374    4.4012363    4.4012363    4.4012363    9480.2374    10380.458     27782.47   -9722.2155    21059.167    19444.397   -15554.452    85.255824 
   55300    1200.0575    -115.7262    1.0858372   -114.64037    -20321.58    4.4078126    4.4078126    4.4078126    -20321.58    29479.208   -79940.343   -10503.606     23045.01    17926.308    31572.938    85.638563 
   55400    1949.3517   -116.41255    1.7638144   -114.64873   -20712.277    4.4054755    4.4054755    4.4054755   -20712.277     25201.26   -57123.272   -30214.818    14040.033    1600.3582    16234.328    85.502412 
   55500    2143.4468   -116.59922    1.9394358   -114.65978    12847.655     4.399028     4.399028     4.399028    12847.655    19471.733     16207.84    2863.3931   -19636.726    12573.279   -22701.097    85.127561 
   55600    1143.6375   -115.70363    1.0347873   -114.66884    41027.653    4.3842217    4.3842217    4.3842217    41027.653    99240.137   -4081.6657    27924.489     840.8507     5512.834    46775.069    84.270876 
   55700    2198.9987    -116.6761    1.9897002    -114.6864   -28597.786     4.404461     4.404461     4.404461   -28597.786   -53012.799    4854.2605   -37634.819    33271.806   -4896.1124    22382.173    85.443359 
   55800    2569.9035   -116.97425    2.3253027   -114.64895    -22451.26    4.4166315    4.4166315    4.4166315    -22451.26   -52962.583    5430.2575   -19821.454   -7046.4355     8034.647   -20575.016    86.153612 
   55900    2096.3784   -116.53139    1.8968472   -114.63454     37733.63    4.3850356    4.3850356    4.3850356     37733.63    80515.012    58814.202   -26128.324   -23264.933    9379.1374    16650.918    84.317822 
   56000    1749.0231   -116.24417    1.5825528   -114.66161    20133.193    4.3866686    4.3866686    4.3866686    20133.193    13185.855     60197.11   -12983.388    50145.738    -25167.29   -6229.1022    84.412055 
   56100     2525.147    -116.9378    2.2848061     -114.653   -34361.285    4.4043604    4.4043604    4.4043604   -34361.285   -47582.881    -25757.64   -29743.334    18845.751    -16021.51    7947.4198    85.437501 
   56200    1848.1207    -116.3203    1.6722184   -114.64808    38160.767    4.3790424    4.3790424    4.3790424    38160.767    19189.781     90618.13    4674.3902   -20089.958     21219.04    27401.407    83.972572 
   56300    1769.0233   -116.28878    1.6006495   -114.68814     24695.15     4.387506     4.387506     4.387506     24695.15    59148.057    5058.8665    9878.5259    12742.924   -2648.0302   -16529.189    84.460405 
   56400    2218.9411   -116.67874    2.0077446     -114.671   -21998.025    4.4224477    4.4224477    4.4224477   -21998.025   -5759.2924    -55714.99   -4519.7936    818.72058    13572.851    47.552312    86.494426 
   56500    1553.5073   -116.03782     1.405646   -114.63217    5599.3115    4.4215489    4.4215489    4.4215489    5599.3115    45659.311    12930.709   -41792.085   -18503.381    17237.869     17190.76    86.441698 
   56600    2626.9458   -116.97212    2.3769158    -114.5952    -12537.01    4.4160058    4.4160058    4.4160058    -12537.01   -20514.778    32525.181   -49621.434   -4415.0319   -31000.102    2625.5189    86.117005 
   56700    2119.6663   -116.52399    1.9179186   -114.60608    13988.291    4.3972441    4.3972441    4.3972441    13988.291    -14255.63    64779.355   -8558.8509   -32226.237    3585.0855   -5750.7298    85.024037 
   56800    1619.6847   -116.09952    1.4655247     -114.634    40092.934     4.383204     4.383204     4.383204    40092.934    57864.081    72123.364   -9708.6441   -47116.892    20571.893    -20122.66    84.212205 
   56900    2505.6125    -116.9341    2.2671308   -114.66697    5623.3021    4.4037216    4.4037216    4.4037216    5623.3021   -1027.6288    24983.359   -7085.8235    12635.483   -8771.1801   -13179.538    85.400335 
   57000    1622.7486   -116.11824    1.4682971   -114.64994   -11061.901    4.4161432    4.4161432    4.4161432   -11061.901     7675.283    17385.819   -58246.804   -2957.5231    7733.3414    17794.463    86.125043 
   57100    1777.3545   -116.24751    1.6081877   -114.63932    6503.1654    4.3957765    4.3957765    4.3957765    6503.1654   -24031.132     47138.81   -3598.1814   -32385.821    -11159.17    166.91134    84.938935 
   57200    2433.4529   -116.82874    2.2018393    -114.6269   -16054.363    4.3832332    4.3832332    4.3832332   -16054.363    13501.313   -40936.564   -20727.839    6177.9135    20821.081   -11841.744     84.21389 
   57300    1107.0919   -115.66688      1.00172   -114.66516     12056.54    4.3773991    4.3773991    4.3773991     12056.54   -11495.482    34038.244    13626.858    17790.002    31554.173    662.62508    83.878071 
   57400    2580.1288    -117.0038    2.3345547   -114.66925     4544.555    4.3864705    4.3864705    4.3864705     4544.555     16348.56   -27050.708    24335.813   -2784.3258   -10992.202    5132.2279     84.40062 
   57500    1854.2148   -116.36037    1.6777325   -114.68264   -11859.564    4.4126425    4.4126425    4.4126425   -11859.564    38019.999   -57201.149   -16397.542   -13545.025    18525.208   -6338.1826    85.920388 
   57600    1486.7124   -116.00111    1.3452086    -114.6559    -30904.77    4.4173157    4.4173157    4.4173157    -30904.77   -57350.795   -41100.736    5737.2217    22855.054     17021.91   -9952.8263    86.193657 
   57700    2701.2712   -117.05232     2.444167   -114.60815    19728.313    4.3958848    4.3958848    4.3958848    19728.313    2353.0359   -7303.8999    64135.803   -3563.0212    -1751.888    14624.443    84.945211 
   57800    2561.6633    -116.9381    2.3178468   -114.62026    6136.6782    4.3830972    4.3830972    4.3830972    6136.6782    3901.5829    13438.804    1069.6481    12039.021    25832.711    11526.018    84.206051 
   57900    1978.8218   -116.45316    1.7904796   -114.66268    2133.2782    4.3971528    4.3971528    4.3971528    2133.2782   -64612.665   -5583.1211    76595.621    28337.318     25162.11    9438.8914    85.018744 
   58000    2585.3779   -116.97039    2.3393043   -114.63108    12346.946    4.4193573    4.4193573    4.4193573    12346.946    39961.502    3648.1563   -6568.8208   -1937.3554   -4027.5219    19103.832    86.313223 
   58100    1468.9134   -115.96001    1.3291037   -114.63091    4792.6773    4.4182686    4.4182686    4.4182686    4792.6773   -17044.424    59790.257     -28367.8     31161.01     18106.25    5911.7502    86.249452 
   58200    1713.8174   -116.17097     1.550698   -114.62027   -13353.311    4.4066532    4.4066532    4.4066532   -13353.311    11024.888   -7314.6318    -43770.19    18988.164    25984.928   -11196.341    85.571004 
   58300    3053.6091   -117.36353    2.7629697   -114.60056   -10915.744    4.3868936    4.3868936    4.3868936   -10915.744    9321.9618   -16868.462   -25200.731   -27110.226   -6894.3372    15024.428    84.425043 
   58400    1022.4221   -115.54343   0.92510897   -114.61832    45368.162    4.3789703    4.3789703    4.3789703    45368.162    100458.23    22770.032    12876.228     41500.51    16278.103    7395.9489    83.968422 
   58500    1721.1384   -116.23065    1.5573222   -114.67332   -381.85553    4.4146336    4.4146336    4.4146336   -381.85553    14995.069   -11219.363   -4921.2725   -4654.6001    39128.253    6754.6126    86.036748 
   58600    1861.4197   -116.30634    1.6842517   -114.62209   -16331.106    4.4257112    4.4257112    4.4257112   -16331.106   -55032.472   -15366.976     21406.13    8424.4035    -10735.09   -4509.2454    86.686048 
   58700    1713.3045   -116.13327    1.5502339   -114.58304    11945.457    4.3912719    4.3912719    4.3912719    11945.457   -17981.796    3375.2795    50442.888    37938.483    4623.1668   -16273.278    84.678078 
   58800    2669.1483   -117.01218    2.4151014   -114.59708    11646.466    4.3884003    4.3884003    4.3884003    11646.466   -32811.812    64588.315    3162.8952    3655.3245    12045.834   -16513.169    84.512066 
   58900    2187.5703   -116.60905    1.9793596   -114.62969   -31818.694    4.4023334    4.4023334    4.4023334   -31818.694    -90736.67    -40031.78    35312.369    62538.845   -22322.206   -17248.695    85.319594 
   59000    1753.0285   -116.22848    1.5861771    -114.6423    13060.196    4.3909206    4.3909206    4.3909206    13060.196   -43650.546    19104.693    63726.442    25305.257   -11103.019    16973.787    84.657758 
   59100    2674.2033   -117.06216    2.4196754   -114.64249    29436.988    4.3951935    4.3951935    4.3951935    29436.988    43974.796    20170.925    24165.243   -22664.857    10761.753   -11806.559    84.905145 
   59200     1547.183   -116.05809    1.3999237   -114.65816   -2769.5321     4.406484     4.406484     4.406484   -2769.5321   -68147.837     10224.31    49614.931    56738.889    -3611.872   -9702.5692    85.561145 
   59300    1699.8024   -116.17418    1.5380169   -114.63616    17571.525    4.4062446    4.4062446    4.4062446    17571.525    27981.178   -1153.8189    25887.215    4667.7687    673.70356   -1278.3548    85.547203 
   59400    2141.5196   -116.55777    1.9376919   -114.62008   -24215.937    4.4143037    4.4143037    4.4143037   -24215.937   -2526.0641   -53876.366    -16245.38    12950.564    10230.802   -7576.7544    86.017461 
   59500    1449.2985   -115.93974    1.3113557   -114.62838   -28577.545    4.4068137    4.4068137    4.4068137   -28577.545      -2739.6   -83109.987    116.95338    54054.558   -10027.731    20018.882    85.580354 
   59600    1828.3195   -116.28431    1.6543019   -114.63001    43481.773    4.3846807    4.3846807    4.3846807    43481.773    33936.062    67016.508     29492.75   -866.52225   -19529.228    13704.732    84.297351 
   59700    2052.0767   -116.52288    1.8567621   -114.66611    30785.916    4.3860956    4.3860956    4.3860956    30785.916    62358.868   -13673.506    43672.385     19904.42    9720.0439    1458.2412     84.37898 
   59800    1542.7328   -116.07962     1.395897   -114.68372   -12274.073    4.4060587    4.4060587    4.4060587   -12274.073    7915.5365    -33664.14   -11073.614    45940.692   -17000.562    4721.2582    85.536375 
   59900    2311.8726   -116.75146    2.0918309   -114.65963   -27707.407    4.4055984    4.4055984    4.4055984   -27707.407   -40144.246   -6574.3694   -36403.606   -27582.669   -21716.091   -83.872426    85.509566 
   60000     2148.789   -116.59186    1.9442694    -114.6476    247.41658    4.3927985    4.3927985    4.3927985    247.41658   -20580.421   -3947.1565    25269.828    5396.3662    32645.947    1029.6848    84.766424 
   60100    1597.4975   -116.11038    1.4454493   -114.66493    23546.929    4.3927546    4.3927546    4.3927546    23546.929    9945.4185    12314.953    48380.415    42070.488   -3971.9065    13225.846    84.763879 
   60200    2283.4249   -116.72805    2.0660909   -114.66196    1008.6746    4.4048117    4.4048117    4.4048117    1008.6746    19018.853    27414.422   -43407.252    -43902.03   -4829.8366    5290.7064    85.463768 
   60300    1836.8514   -116.32058    1.6620218   -114.65855   -1725.3276    4.4174249    4.4174249    4.4174249   -1725.3276   -10605.859    40916.911   -35487.035   -6444.4318    32257.956     531.6791    86.200053 
   60400    1683.2132   -116.15631    1.5230067    -114.6333    7574.9273    4.4166416    4.4166416    4.4166416    7574.9273   -7420.5201   -4664.5187    34809.821    39884.939   -20345.816    4651.6777    86.154202 
   60500    2068.0542   -116.49097    1.8712189   -114.61975    7543.8072    4.4031282    4.4031282    4.4031282    7543.8072   -16581.842    41674.267   -2461.0027    -3569.187   -1077.9933   -2519.0674    85.365817 
   60600    1591.7193   -116.06249    1.4402211   -114.62226    38600.545    4.3895784    4.3895784    4.3895784    38600.545    28146.272    67487.377    20167.987   -7891.2956    38940.917     -3215.02    84.580145 
   60700    1373.6967   -115.92046    1.2429496   -114.67751    21633.335    4.4026083    4.4026083    4.4026083    21633.335    23278.737    30279.385    11341.882    13131.184   -8395.0088    10613.941    85.335582 
   60800    2228.1237   -116.67445    2.0160532    -114.6584   -8414.6537    4.4268926    4.4268926    4.4268926   -8414.6537    1085.4124   -3042.6967   -23286.677    4181.3053   -7143.2227    -7863.681    86.755491 
   60900    2169.3005   -116.57958    1.9628287   -114.61675    -20682.73    4.4268329    4.4268329    4.4268329    -20682.73   -54346.627    10521.551   -18223.115    19599.945    10482.851   -9421.8175    86.751976 
   61000     1717.296   -116.16161    1.5538455   -114.60777   -9796.3471    4.4017443    4.4017443    4.4017443   -9796.3471    8921.0836   -7107.6209   -31202.504    37246.016    -10726.78    21150.932    85.285349 
   61100    2465.4378   -116.84271    2.2307799   -114.61193    9880.3014     4.378689     4.378689     4.378689    9880.3014    23469.251    12322.412   -6150.7593   -9458.3384   -7771.6315   -5920.6026    83.952244 
   61200    2205.1398   -116.65816    1.9952568    -114.6629    14835.733    4.3978441    4.3978441    4.3978441    14835.733    72582.397    17953.869   -46029.066    2839.4388    21810.848   -26375.158    85.058849 
   61300    1656.1364    -116.1639     1.498507    -114.6654   -48374.169    4.4285593    4.4285593    4.4285593   -48374.169   -39202.938   -35136.632   -70782.937    5664.0765   -15737.204   -8807.5722    86.853513 
   61400    2178.9075   -116.58942    1.9715213    -114.6179   -45842.058    4.4207484    4.4207484    4.4207484   -45842.058   -67949.041   -33901.153   -35675.978   -11315.247    -31199.13     21734.15    86.394758 
   61500    2566.0667   -116.91961     2.321831   -114.59777    15160.847    4.3943246    4.3943246    4.3943246    15160.847    35282.054    -29118.77    39319.257    17442.339    11348.283   -11572.096    84.854799 
   61600    1454.5005   -115.95233    1.3160626   -114.63627      38591.2    4.3853285    4.3853285    4.3853285      38591.2    28653.963    77453.486    9666.1499    23568.992   -28346.827   -5891.3442    84.334717 
   61700    1752.7776   -116.26151      1.58595   -114.67556    17324.406    4.4127414    4.4127414    4.4127414    17324.406    19826.443   -15222.596    47369.371   -9791.2803   -19921.135    4564.4465    85.926163 
   61800    2458.2529   -116.84967    2.2242789   -114.62539   -30330.922    4.4303995    4.4303995    4.4303995   -30330.922   -39646.634   -36974.863   -14371.268    9693.5948    31461.621   -4229.8432    86.961827 
   61900    1431.7649   -115.90392     1.295491   -114.60843   -8513.1816    4.4055823    4.4055823    4.4055823   -8513.1816   -3486.1301    27068.743   -49122.158     29268.56   -34475.855    10046.864    85.508633 
   62000    2222.2524   -116.60824    2.0107407    -114.5975    35000.531    4.3804286    4.3804286    4.3804286    35000.531    33508.131    63528.263    7965.1977   -12828.008    2049.0577   -4087.3992    84.052339 
   62100      2676.63   -117.05351    2.4218711   -114.63164    21487.896    4.3742763    4.3742763    4.3742763    21487.896    74085.177    12787.575   -22409.063    2741.1112    17808.755     5481.025    83.698685 
   62200     1774.973    -116.3108    1.6060329   -114.70476    1785.8989    4.4044567    4.4044567    4.4044567    1785.8989   -30944.669    49753.077   -13450.712    45110.363   -52524.422   -7271.3479    85.443106 
   62300     2430.986   -116.86875    2.1996072   -114.66914   -14276.385    4.4261244    4.4261244    4.4261244   -14276.385    28160.672   -25529.752   -45460.075   -6781.7091   -2244.3811   -6911.6564    86.710331 
   62400    1907.6912    -116.3667    1.7261191   -114.64058   -11247.704    4.4062289    4.4062289    4.4062289   -11247.704    14187.693   -18689.131   -29241.673   -9317.3475    25781.809   -3043.5401    85.546288 
   62500     1674.875   -116.13391    1.5154621   -114.61845    34404.623    4.3912003    4.3912003    4.3912003    34404.623    6961.5588    74142.002    22110.308    19139.613   -23633.673    11891.089    84.673937 
   62600    1944.6046   -116.38617    1.7595191   -114.62665    1548.8027    4.4054601    4.4054601    4.4054601    1548.8027   -44930.426    46668.951    2907.8827   -11882.226    18577.142   -10567.738    85.501519 
   62700    1439.3324   -115.92936    1.3023382   -114.62703   -43871.313    4.4175511    4.4175511    4.4175511   -43871.313   -115970.44    19098.954   -34742.455   -1560.7076    9909.8924     200.0113    86.207438 
   62800    2383.9399   -116.76169    2.1570389   -114.60465    19715.402    4.4097443    4.4097443    4.4097443    19715.402    42712.574     18240.35   -1806.7192    362.76218    -8378.072    3718.9272    85.751204 
   62900    2746.9578   -117.09607    2.4855051   -114.61057    -20696.22    4.3991064    4.3991064    4.3991064    -20696.22   -16853.721    19576.855   -64811.794   -23640.232    19559.505     -19515.6    85.132112 
   63000    1809.6152   -116.27764    1.6373779   -114.64026    14896.618    4.3947347    4.3947347    4.3947347    14896.618    10242.122    12263.419    22184.312    -2203.546    643.91497   -8771.4229    84.878556 
   63100    3017.1826   -117.38245    2.7300102   -114.65244   -8623.1252    4.4142914    4.4142914    4.4142914   -8623.1252    41211.793   -3453.9974   -63627.171   -13793.314    13323.526   -3967.7401    86.016743 
   63200    1397.2481   -115.91311    1.2642594   -114.64885    -23812.35    4.4275042    4.4275042    4.4275042    -23812.35   -927.13618   -2918.9883   -67590.927   -6831.7494    41524.181    156.98302    86.791448 
   63300    1909.4416    -116.3418    1.7277028    -114.6141    13241.243    4.4033421    4.4033421    4.4033421    13241.243    37646.916    7777.9415   -5701.1299    -3864.096   -16424.088   -2589.6115    85.378258 
   63400    2212.1308   -116.61141    2.0015824   -114.60983    32298.508    4.3900124    4.3900124    4.3900124    32298.508    53324.719    20065.168    23505.638   -6331.7787    14405.964    1538.0247    84.605238 
   63500    1416.4214   -115.94547    1.2816079   -114.66386   -35054.343     4.413246     4.413246     4.413246   -35054.343   -90627.852    10243.549   -24778.727    29846.275    35018.198   -8382.7494    85.955645 
   63600    2700.9744   -117.06114    2.4438984   -114.61724   -46759.757    4.4262106    4.4262106    4.4262106   -46759.757   -74570.635    -19128.04   -46580.596    873.07291    8068.9352     6830.557      86.7154 
   63700    2088.2667   -116.48578    1.8895076   -114.59627    5295.1206    4.4150796    4.4150796    4.4150796    5295.1206    25220.532   -39920.948    30585.778    25510.704    28666.278    2028.8004     86.06283 
   63800    1825.9145   -116.25971    1.6521258   -114.60758   -2075.5603    4.4103716    4.4103716    4.4103716   -2075.5603     -16108.1   -10063.137    19944.556    41037.634    49707.782   -14577.556    85.787803 
   63900    2817.0009   -117.15883    2.5488817   -114.60995    13166.962    4.4202975    4.4202975    4.4202975    13166.962    59986.768    9013.0144   -29498.897    15110.303    2044.1181    -4523.304    86.368327 
   64000    1751.0374   -116.21111    1.5843754   -114.62674   -37649.637    4.4371509    4.4371509    4.4371509   -37649.637   -36512.718   -11190.318   -65245.875    8127.7414    29680.128   -9796.1345    87.359995 
   64100     2176.869   -116.57899    1.9696768   -114.60931   -24332.306     4.422497     4.422497     4.422497   -24332.306   -39239.507    -1390.769   -32366.641   -4875.2506   -2587.4772    8882.2136    86.497315 
   64200    2279.8458   -116.67113    2.0628524   -114.60828    18389.817    4.3742286    4.3742286    4.3742286    18389.817     25458.13    63495.029   -33783.709    14320.972   -1375.0193   -15736.418    83.695945 
   64300    1504.5215   -115.99227    1.3613227   -114.63095    68043.267    4.3496033    4.3496033    4.3496033    68043.267     81436.24    112918.02    9775.5398   -3595.6412     41688.76    3753.3008    82.290355 
   64400    2212.8669   -116.70227    2.0022485   -114.70002   -22394.207    4.3892061    4.3892061    4.3892061   -22394.207   -55960.775   -8275.1369   -2946.7099    19205.996   -10257.542   -10820.748    84.558629 
   64500    1729.1918   -116.23294    1.5646091   -114.66833   -20003.774    4.4232385    4.4232385    4.4232385   -20003.774   -40377.227    29881.756   -49515.852   -7257.8263    12502.288   -6690.7784    86.540832 
   64600    1570.5154   -116.04674    1.4210353   -114.62571   -22764.554    4.4260457    4.4260457    4.4260457   -22764.554   -8616.5954    14848.294   -74525.361    24383.717    32821.644   -2855.5403    86.705708 
   64700     2369.145   -116.76047    2.1436522   -114.61682    -6990.777    4.4018264    4.4018264    4.4018264    -6990.777    7174.5289    6823.4271   -34970.287    22325.203    -1464.026   -4835.3321    85.290121 
   64800    2521.7376   -116.88448    2.2817212   -114.60275     27205.14    4.3574575    4.3574575    4.3574575     27205.14    72586.458    51283.881   -42254.917   -31074.285    35293.527   -2079.8968    82.736943 
   64900    1744.7711    -116.2439    1.5787056   -114.66519    14420.237    4.3615565    4.3615565    4.3615565    14420.237    5055.5924     68577.55   -30372.431    4211.4173    38041.083    6764.3741    82.970654 
   65000    2528.6004   -116.95636    2.2879308   -114.66843    12769.314    4.4060533    4.4060533    4.4060533    12769.314    98730.011   -36743.258   -23678.812    10658.494    1829.9181    5220.4064     85.53606 
   65100    1693.0342   -116.19135    1.5318929   -114.65946    5331.0914    4.4307424    4.4307424    4.4307424    5331.0914    -16043.92     65789.58   -33752.386   -5920.1971     28341.31   -4344.2368    86.982021 
   65200     1798.907   -116.24081    1.6276889   -114.61312   -37147.302    4.4246911    4.4246911    4.4246911   -37147.302   -58203.551    31360.311   -84598.665   -839.96297   -32185.502    2782.6376    86.626119 
   65300    3112.7172   -117.39824     2.816452   -114.58179   -4738.3656    4.3709852    4.3709852    4.3709852   -4738.3656    10528.061   -3539.6603   -21203.498   -21109.088    -2995.731    4332.2313    83.509907 
   65400    1252.0184   -115.76348    1.1328526   -114.63063    44279.075     4.354218     4.354218     4.354218    44279.075    65598.257    97632.538   -30393.571   -32348.914    38220.422   -2793.0836     82.55255 
   65500    2063.9606   -116.57485    1.8675149   -114.70733   -5984.7244    4.3960081    4.3960081    4.3960081   -5984.7244    11690.482    45008.021   -74652.676    2111.7279   -34669.937    441.11173    84.952363 
   65600    2057.7733   -116.52066    1.8619165   -114.65874   -20009.012    4.4303874    4.4303874    4.4303874   -20009.012    22379.537   -18863.141   -63543.432   -6105.9604   -2270.6849    215.49729    86.961115 
   65700    1310.6509    -115.8384    1.1859045    -114.6525   -26933.153    4.4100823    4.4100823    4.4100823   -26933.153   -60369.453    26798.517   -47228.523   -47310.652    28525.917   -10423.019     85.77092 
   65800    1953.9112   -116.40919    1.7679399   -114.64125    3566.3587    4.3624471    4.3624471    4.3624471    3566.3587    -23503.22    60957.771   -26755.475    20814.516   -14497.902   -3832.5417    83.021489 
   65900    2535.3852   -116.95506    2.2940698   -114.66099    36758.373    4.3596144    4.3596144    4.3596144    36758.373    88022.738    42985.649   -20733.267   -13237.222   -4324.0409   -3129.0794    82.859869 
   66000    1486.8276   -116.05141    1.3453128    -114.7061   -49209.452      4.40661      4.40661      4.40661   -49209.452   -87708.291   -31684.689   -28235.377   -25816.501    24791.455   -3713.0842    85.568485 
   66100    2115.4357   -116.56158    1.9140907   -114.64749   -49888.667    4.4160427    4.4160427    4.4160427   -49888.667   -34057.146   -42627.279   -72981.575    12559.742    11071.388    1091.4103    86.119163 
   66200    2341.8796   -116.73829    2.1189819   -114.61931    16426.276    4.3918007    4.3918007    4.3918007    16426.276    57507.778    5430.5725   -13659.522   -16420.256   -8985.8298    -7915.232    84.708673 
   66300    2093.9808   -116.52398    1.8946778   -114.62931   -17335.026    4.3788585    4.3788585    4.3788585   -17335.026   -31643.431   -14889.886   -5471.7617   -15925.559    16249.803   -6486.1674    83.961993 
   66400    2025.1832   -116.49228    1.8324283   -114.65985    5733.6544    4.3777871    4.3777871    4.3777871    5733.6544   -12925.022    41141.807   -11015.822    29713.607    19507.924    5585.2786    83.900379 
   66500    2297.9209    -116.7531    2.0792071   -114.67389    37010.193     4.388619     4.388619     4.388619    37010.193    59657.495    50511.555    861.52826   -19455.943   -17985.537   -16882.898    84.524699 
   66600    1136.8057   -115.71283    1.0286057   -114.68422    14882.145    4.4180748    4.4180748    4.4180748    14882.145   -4572.9922    73721.066   -24501.637   -23962.409    4994.2983   -8795.5638    86.238101 
   66700    1977.9932   -116.40791    1.7897298   -114.61818   -29336.239    4.4247865    4.4247865    4.4247865   -29336.239   -83150.204    22106.092   -26964.606    56292.033   -804.00113    3962.5702    86.631726 
   66800    1678.3421   -116.12267    1.5185992   -114.60407    13312.177    4.3793386    4.3793386    4.3793386    13312.177    822.16153    21768.538     17345.83   -44816.003    -9539.951    -11188.36    83.989613 
   66900    1333.9864   -115.83442    1.2070189    -114.6274   -1589.4874    4.3525067    4.3525067    4.3525067   -1589.4874   -61815.577    64963.412    -7916.298   -34711.118    45899.946   -3397.9101    82.455255 
   67000    2269.8046   -116.72318    2.0537669   -114.66941    16485.775    4.3686165    4.3686165    4.3686165    16485.775    32197.733    40581.135   -23321.542    29090.824   -2736.9274   -19548.885    83.374214 
   67100    1966.0634   -116.47822    1.7789355   -114.69928   -50756.646    4.4061755    4.4061755    4.4061755   -50756.646   -45055.175   -69843.415   -37371.347   -44949.516    1248.6837   -14416.832    85.543179 
   67200    1166.6517   -115.73018     1.055611   -114.67457   -62118.783    4.4111483    4.4111483    4.4111483   -62118.783   -87848.876   -30285.743    -68221.73   -49736.715    36696.714    5584.9702    85.833134 
   67300    2750.0515   -117.10589    2.4883044   -114.61758     11134.05    4.3792983    4.3792983    4.3792983     11134.05    27734.225    33782.998   -28115.072    14866.613    740.03199     3794.756    83.987295 
   67400    2095.2423   -116.52877    1.8958193   -114.63295    6077.3607    4.3745904    4.3745904    4.3745904    6077.3607    -5085.746    24615.916   -1298.0878   -31977.575    17770.908   -2887.1954    83.716717 
   67500    1165.4286   -115.73704    1.0545043   -114.68254    -23940.25    4.3904958    4.3904958    4.3904958    -23940.25   -73006.246    36726.113   -35540.617   -29953.754    26074.757    15940.126     84.63319 
   67600    2455.4349   -116.89654    2.2217291   -114.67481    15517.988    4.3995148    4.3995148    4.3995148    15517.988    -6677.796    99407.493   -46175.734    31685.597    -16240.21    13842.209    85.155823 
   67700    1737.7958   -116.25393    1.5723941   -114.68153    26855.914    4.4048525    4.4048525    4.4048525    26855.914   -23291.141     69975.98    33882.904   -16334.621    28384.625    12790.397    85.466143 
   67800    1652.9019   -116.16481    1.4955804   -114.66923    12203.746    4.4270864    4.4270864    4.4270864    12203.746   -22801.155    48810.279    10602.114   -3663.0706    16038.732    7971.3003    86.766883 
   67900     2604.521   -116.96338    2.3566254   -114.60676   -1663.0483     4.419065     4.419065     4.419065   -1663.0483   -13722.799   -22016.164    30749.818    8301.6955   -6278.1233   -8265.1881    86.296101 
   68000    976.55427   -115.48403   0.88360682   -114.60042     54934.49    4.3667972    4.3667972    4.3667972     54934.49    37685.342    9903.4971    117214.63   -45055.321     34067.87    -24882.96    83.270098 
   68100    2147.1393    -116.5832    1.9427767   -114.64042    34306.148    4.3719031    4.3719031    4.3719031    34306.148    10207.662     31368.32    61342.462    2382.2741   -12101.486   -9020.6172    83.562533 
   68200    2307.0917   -116.74003    2.0875051   -114.65252     -20073.7     4.404555     4.404555     4.404555     -20073.7   -39924.964   -46241.405    25945.267    33890.191    17.805044    5178.0662     85.44883 
   68300    1552.2624   -116.06435    1.4045196   -114.65983   -53610.495    4.4063465    4.4063465    4.4063465   -53610.495   -88835.737   -36173.018   -35822.729    -47615.53    61460.905     1772.996    85.553136 
   68400    2299.5895   -116.73503    2.0807169   -114.65431   -4650.1056     4.383006     4.383006     4.383006   -4650.1056    -32249.88    58753.578   -40454.015   -11672.685    17553.721    -15747.46    84.200797 
   68500    2835.6476   -117.21905    2.5657535   -114.65329    9764.0527     4.372466     4.372466     4.372466    9764.0527   -3065.9754    4937.8562    27420.277     32687.75   -12430.581    22440.203    83.594811 
   68600     1690.559   -116.22759    1.5296533   -114.69793    10074.968    4.3863877    4.3863877    4.3863877    10074.968   -37950.575     66266.08    1909.3995   -30764.983    40579.028   -10897.978    84.395842 
   68700    1681.7996   -116.21407    1.5217276   -114.69234   -57751.933    4.4106423    4.4106423    4.4106423   -57751.933   -64174.091   -44832.265   -64249.443   -44861.297     9708.625     8890.924    85.803603 
   68800    2504.8962   -116.92397    2.2664827   -114.65748   -20720.536    4.3941421    4.3941421    4.3941421   -20720.536   -5322.5037   -17770.976   -39068.128    17783.708   -19663.136    2450.4273    84.844228 
   68900    1536.1646   -116.04602     1.389954   -114.65606    33332.005    4.3823143    4.3823143    4.3823143    33332.005    7758.6672    97046.141   -4808.7926   -19514.524    55076.713    1860.8879    84.160939 
   69000    1776.0912   -116.27625    1.6070447   -114.66921   -29421.205    4.3999792    4.3999792    4.3999792   -29421.205   -27497.983   -41617.305   -19148.328   -24583.519   -12896.241    3075.2365     85.18279 
   69100    1905.6776   -116.36705    1.7242972   -114.64276   -17330.975    4.3955949    4.3955949    4.3955949   -17330.975    21745.523   -56062.551   -17675.897    852.23278    3239.2744    11394.618    84.928406 
   69200    1918.3698   -116.38488    1.7357813    -114.6491   -3179.2786    4.3826933    4.3826933    4.3826933   -3179.2786    21886.726    23037.474   -54462.036   -1777.0108    47003.701    15368.437    84.182774 
   69300    1950.3925   -116.42462    1.7647561   -114.65986     12699.97    4.3924165    4.3924165    4.3924165     12699.97   -15468.573    32153.668    21414.816   -25347.465   -16039.216   -17200.655    84.744311 
   69400    2082.2943   -116.54369    1.8841037   -114.65959   -19977.899    4.4055239    4.4055239    4.4055239   -19977.899    13475.286    -32965.23   -40443.752     8628.625    13789.951    28381.321    85.505228 
   69500     2439.371   -116.84536    2.2071942   -114.63816   -22706.976    4.4099205    4.4099205    4.4099205   -22706.976   -17168.742    6872.0908   -57824.276    10759.018    23149.397    18317.424    85.761485 
   69600    1724.1402   -116.20286    1.5600383   -114.64282   -37786.744    4.3988952    4.3988952    4.3988952   -37786.744   -85872.269   -66349.703     38861.74   -47350.412     -16062.2   -760.33522    85.119847 
   69700    2333.7533    -116.7519    2.1116291   -114.64027   -10681.302    4.3732879    4.3732879    4.3732879   -10681.302    24479.938   -25426.489   -31097.356   -296.96598    9765.5765    14921.321    83.641961 
   69800    2812.9092   -117.19083    2.5451794   -114.64565    7926.6814    4.3743318    4.3743318    4.3743318    7926.6814      16624.7   -31587.697    38743.041    10062.541    1421.0389   -6811.8303     83.70187 
   69900    1539.8429   -116.07005    1.3932822   -114.67677   -41135.722    4.4033657    4.4033657    4.4033657   -41135.722   -54749.448    -97375.68    28717.963   -19075.733    5071.9506    10619.266    85.379628 
   70000    2501.5353   -116.89333    2.2634417   -114.62988   -28007.763    4.4072578    4.4072578    4.4072578   -28007.763     7646.719   -54483.604   -37186.403    11953.282    7177.8173    14338.173    85.606228 
   70100     1919.912   -116.36554    1.7371767   -114.62836    2599.4937    4.4077502    4.4077502    4.4077502    2599.4937    66908.863   -27004.886   -32105.496   -23014.695    16172.358   -3324.5793    85.634927 
   70200    1426.7995   -115.93515    1.2909981   -114.64415   -29114.605    4.4071065    4.4071065    4.4071065   -29114.605   -61425.113   -51045.899    25127.197   -24383.926   -6163.4335   -8507.0642    85.597415 
   70300    1933.1612   -116.38999    1.7491648   -114.64082     17362.91    4.3827296    4.3827296    4.3827296     17362.91    57077.606   -12878.868    7889.9919   -3479.4085   -12902.294     -8214.25    84.184866 
   70400    2278.8793    -116.7124    2.0619779   -114.65042   -19418.195    4.3747136    4.3747136    4.3747136   -19418.195   -14243.838   -29961.729   -14049.019   -11812.914    10415.969    7081.7414     83.72379 
   70500    1384.0275   -115.92756    1.2522972   -114.67526   -48528.402    4.3898199    4.3898199    4.3898199   -48528.402   -97236.524   -98146.713     49798.03   -8653.5106    23190.592   -3536.9056    84.594109 
   70600    1965.3195   -116.44382    1.7782624   -114.66555    10272.644    4.3995009    4.3995009    4.3995009    10272.644    4664.6932   -21224.904    47378.143    14352.551     -30251.9   -10925.789    85.155013 
   70700    2248.3113   -116.68872    2.0343193    -114.6544   -24502.065    4.4147639    4.4147639    4.4147639   -24502.065   -31382.641    13424.686    -55548.24   -882.82811   -27638.681    19347.691    86.044366 
   70800    1962.1929   -116.42074    1.7754333    -114.6453   -10679.164    4.3952071    4.3952071    4.3952071   -10679.164   -24079.945    -55547.78    47590.234    16199.858    28463.031    2126.9925    84.905929 
   70900    2184.0057   -116.59456    1.9761343   -114.61842     30224.79    4.3685816    4.3685816    4.3685816     30224.79    30896.428    12774.845    47003.096    10191.828   -23226.989   -7059.2001     83.37222 
   71000    1744.1393   -116.24945    1.5781339   -114.67132    7432.1233     4.397132     4.397132     4.397132    7432.1233    10399.184    31951.327   -20054.141   -9507.4438   -36914.741    10270.376    85.017533 
   71100    2109.1274   -116.54749    1.9083828    -114.6391   -35920.881    4.4205439    4.4205439    4.4205439   -35920.881   -58976.971   -93273.537    44487.866    36943.247    23486.926    16100.987    86.382771 
   71200    1468.0651   -115.94611    1.3283362   -114.61778    15321.692    4.4022415    4.4022415    4.4022415    15321.692    2689.1184   -20385.074    63661.031    11550.616   -27872.717     3218.406    85.314253 
   71300    1403.3201   -115.88285    1.2697535   -114.61309    46396.447     4.391665     4.391665     4.391665    46396.447    122147.45   -11470.969    28512.855    3656.8434   -17683.121   -5286.1121    84.700822 
   71400    2252.7126   -116.66865    2.0383017   -114.63035    2086.1938    4.4072214    4.4072214    4.4072214    2086.1938    29076.761   -83804.832    60986.652    25557.975    15644.057   -9653.1381    85.604107 
   71500    1870.8865   -116.31176    1.6928174   -114.61895    21088.478    4.4109664    4.4109664    4.4109664    21088.478    61110.596   -9935.0643    12089.902   -11948.618   -17732.105   -6353.8753    85.822517 
   71600    1921.4495   -116.34658    1.7385679   -114.60801    14932.716     4.407961     4.407961     4.407961    14932.716    44571.406   -44716.504    44943.246    26259.749    9472.0405    5437.7992    85.647211 
   71700    1845.7783   -116.30068     1.670099   -114.63058   -14965.983    4.4100468    4.4100468    4.4100468   -14965.983   -16633.194   -105810.98    77546.225   -20858.119     4302.109   -3115.1509    85.768851 
   71800    2061.4879     -116.494    1.8652776   -114.62872    11954.553    4.4019812    4.4019812    4.4019812    11954.553    -26229.66   -49504.255    111597.58   -21247.049    4363.4745    5180.7582     85.29912 
   71900    1885.0372   -116.34319    1.7056212   -114.63757    36841.864    4.3871524    4.3871524    4.3871524    36841.864    28668.082   -40571.467    122428.98     7303.087     12406.13    15320.257    84.439986 
   72000    1161.5216    -115.7417    1.0509691   -114.69073    8172.0202    4.3980773    4.3980773    4.3980773    8172.0202    -12540.68   -80642.365    117699.11   -24300.462    19733.843    -4789.041    85.072378 
   72100    1940.2382   -116.41413    1.7555683   -114.65856     6777.895    4.4196998    4.4196998    4.4196998     6777.895    32771.055   -76514.181    64076.811    34040.061    33461.588   -12106.585    86.333294 
   72200    2021.0553   -116.46226    1.8286933   -114.63357    6448.6361    4.4168017    4.4168017    4.4168017    6448.6361    107379.02   -107660.95    19627.835    -38973.29    28420.175   -5619.4423    86.163572 
   72300    1606.4241   -116.08635    1.4535263   -114.63282    6708.5563     4.402323     4.402323     4.402323    6708.5563    22776.159   -77995.339    75344.849   -11570.428    -6876.889    11853.733    85.318991 
   72400    1480.3282   -115.97105    1.3394321   -114.63162    16103.481    4.3949045    4.3949045    4.3949045    16103.481    300.61309    6127.3259    41882.505    11417.889    15436.096    3360.2398    84.888397 
   72500    2297.4632   -116.71156    2.0787929   -114.63277    12689.714      4.40717      4.40717      4.40717    12689.714    81860.006   -24639.155   -19151.708   -8595.6825    9583.9519    6994.1825    85.601115 
   72600    2235.0804    -116.6499    2.0223477   -114.62755   -8191.4307    4.4200783    4.4200783    4.4200783   -8191.4307    67790.877   -75510.515   -16854.654    52151.016    3821.6869    486.61961    86.355477 
   72700    2183.8982   -116.60558     1.976037   -114.62954   -12260.775    4.4038519    4.4038519    4.4038519   -12260.775    23842.921   -807.88289   -59817.363    12331.929    20081.665    165.75239    85.407916 
   72800    2147.5193   -116.57261    1.9431206   -114.62949   -11360.987    4.3860499    4.3860499    4.3860499   -11360.987    7977.4604    11335.635   -53396.057     9339.672    1612.6943    3059.2405    84.376346 
   72900    2488.4267   -116.90168    2.2515807    -114.6501    -26869.72    4.4000856    4.4000856    4.4000856    -26869.72   -12238.099   -62039.566   -6331.4944    37200.176    7200.5019    15061.243    85.188972 
   73000    2106.4357   -116.54237    1.9059473   -114.63643   -29968.738    4.4191677    4.4191677    4.4191677   -29968.738   -69439.317   -16396.608   -4070.2887    -22244.72   -4852.7025    -5337.387     86.30212 
   73100    1664.0029   -116.12313    1.5056248    -114.6175   -3841.5684    4.4112001    4.4112001    4.4112001   -3841.5684    1414.8267    14279.312   -27218.844    -9395.172    936.81019   -12580.551    85.836162 
   73200     1987.843   -116.42415    1.7986421   -114.62551     14054.97     4.400219     4.400219     4.400219     14054.97    47406.069   -9907.9657    4666.8075    6681.5154   -838.73454   -2082.7697    85.196718 
   73300    2488.6885   -116.87444    2.2518177   -114.62262    309.37508    4.3931969    4.3931969    4.3931969    309.37508    6571.9305   -8549.9573     2906.152   -35349.875   -3790.2975    26011.224    84.789486 
   73400     1891.057   -116.35688    1.7110681   -114.64581   -3657.5904    4.3981087    4.3981087    4.3981087   -3657.5904    38273.479    1907.5816   -51153.831   -15641.191   -8262.8165    3853.9071    85.074203 
   73500    3027.7837    -117.3776    2.7396024     -114.638   -40005.107    4.4116516    4.4116516    4.4116516   -40005.107   -29267.923   -11761.411   -78985.988   -3817.3861    16395.899    7890.5935    85.862518 
   73600    1837.9536    -116.3141    1.6630191   -114.65108    -24306.62    4.4012166    4.4012166    4.4012166    -24306.62   -14812.281   -31735.152   -26372.426   -767.35268   -2704.2057    40358.882    85.254678 
   73700    1294.7453    -115.8234    1.1715127   -114.65189    12492.295    4.3762803    4.3762803    4.3762803    12492.295    6026.9043    20966.699    10483.281   -18257.685   -4178.9746    20431.846    83.813775 
   73800    2646.3425   -117.06599    2.3944663   -114.67152    22652.179    4.3819502    4.3819502    4.3819502    22652.179   -9112.5581    89929.063   -12859.968    7.5320884    8856.7846   -20018.182    84.139962 
   73900    1489.6594   -116.03771    1.3478751   -114.68983   -547.44172    4.3956419    4.3956419    4.3956419   -547.44172   -40754.193    50710.102   -11598.234    8262.0547   -7308.5117   -1206.5934     84.93113 
   74000    1914.0228   -116.40405    1.7318481    -114.6722   -14061.109    4.4056541    4.4056541    4.4056541   -14061.109   -26855.288    9972.6356   -25300.675   -22384.671    -13212.62    27934.888    85.512812 
   74100    2012.5549   -116.46625     1.821002   -114.64524    -22485.37    4.4059281    4.4059281    4.4059281    -22485.37    628.27318   -22618.821   -45465.561   -6435.2903    5859.0084   -57215.264    85.528768 
   74200     2199.422   -116.61052    1.9900833   -114.62043     -24971.1    4.3988662    4.3988662    4.3988662     -24971.1   -37639.085   -19198.565   -18075.651     17296.16    18776.985   -14578.677    85.118163 
   74300    2488.5193   -116.85884    2.2516645   -114.60717    14130.238    4.4022646    4.4022646    4.4022646    14130.238    -17522.92     28946.92    30966.713   -19567.353   -5167.1763    18351.645    85.315595 
   74400    1492.4558   -115.98298    1.3504053   -114.63257   -31180.533    4.4010975    4.4010975    4.4010975   -31180.533    14400.197   -43338.449   -64603.348    6673.6754    5999.2128   -69685.727     85.24776 
   74500    2113.8125   -116.54396     1.912622   -114.63134    3552.8838    4.3853726    4.3853726    4.3853726    3552.8838    17677.094    27428.541   -34446.983    6003.9867    8415.5874    -13273.75    84.337262 
   74600    2093.9264   -116.54967    1.8946286   -114.65504    14365.579    4.3886659    4.3886659    4.3886659    14365.579    20991.725     45981.74   -23876.727   -9148.0316    -14996.59     8890.594    84.527412 
   74700    1336.5879   -115.87434    1.2093728   -114.66497   -24573.386     4.408066     4.408066     4.408066   -24573.386   -21600.312    42135.834   -94255.679   -9316.6069   -8949.2249   -5893.7205    85.653335 
   74800    2535.8519   -116.91171    2.2944921   -114.61722   -8330.5474    4.4123241    4.4123241    4.4123241   -8330.5474   -58909.134    24839.678    9077.8143    20745.938    2737.9317    5730.8287    85.901791 
   74900    2183.4496   -116.58984    1.9756311   -114.61421   -32363.882    4.4232749    4.4232749    4.4232749   -32363.882   -26463.428   -47244.436   -23383.782    10390.723   -1309.2386   -17036.634    86.542967 
   75000     2422.594   -116.77055     2.192014   -114.57854   -20559.419    4.4266931    4.4266931    4.4266931   -20559.419   -27081.256   -37818.498    3221.4963    2745.1863    15439.266    8328.3947    86.743759 
   75100    1928.6701   -116.32142    1.7451012   -114.57632    11542.729    4.3983105    4.3983105    4.3983105    11542.729   -25270.867   -37951.364    97850.417    17839.236   -1703.8848   -10033.294    85.085913 
   75200    1750.1858   -116.17664    1.5836049   -114.59304    -33.10805    4.3797113    4.3797113    4.3797113    -33.10805    40086.338   -22062.736   -18122.926    -7324.207    10.382576   -26172.856    84.011055 
   75300    2276.1877   -116.67526    2.0595425   -114.61572    151.02632    4.3934565    4.3934565    4.3934565    151.02632   -11189.007   -8007.7879    19649.874    27080.997     4306.573    12358.211    84.804517 
   75400    1446.4281   -115.93899    1.3087586   -114.63024   -9520.9575    4.3973915    4.3973915    4.3973915   -9520.9575   -44661.688   -25825.613    41924.428    42598.099   -13330.422    8796.0322    85.032588 
   75500    1847.6473   -116.29353    1.6717901   -114.62174    14166.404     4.402302     4.402302     4.402302    14166.404    13894.372    23037.843    5566.9968    -5306.778    3320.2044   -18596.617    85.317768 
   75600    1939.6949   -116.37407    1.7550767   -114.61899   -29909.256    4.4220118    4.4220118    4.4220118   -29909.256   -60594.944    -53387.93    24255.105    32685.369   -9483.9506     1759.774    86.468854 
   75700    2250.5281   -116.61465    2.0363251   -114.57833   -41372.557     4.415718     4.415718     4.415718   -41372.557   -64423.422   -39745.241   -19949.006   -7155.1946    537.59645    1710.3194    86.100168 
   75800    2060.5726   -116.43576    1.8644494   -114.57131    29714.642    4.3738795    4.3738795    4.3738795    29714.642     60604.02    22414.896    6125.0091    18309.395    17823.136   -19784.568    83.675908 
   75900    1863.2612   -116.29944    1.6859179   -114.61352    30360.377    4.3646831    4.3646831    4.3646831    30360.377   -9148.3755   -34523.309    134752.82    63562.703   -16571.292    10397.898    83.149214 
   76000    2917.4701   -117.28287    2.6397882   -114.64308   -7691.9813    4.3968073    4.3968073    4.3968073   -7691.9813    10662.008   -21804.766   -11933.186   -22530.102    725.97231    2281.5574    84.998704 
   76100    1183.5353   -115.71734    1.0708876   -114.64645   -7942.4608    4.4178648    4.4178648    4.4178648   -7942.4608    45613.961   -23024.164   -46417.179    55068.351     1630.656   -3782.8771    86.225805 
   76200    2423.3452   -116.79722    2.1926937   -114.60453   -12479.245    4.4062005    4.4062005    4.4062005   -12479.245      25763.2   -54628.846   -8572.0888    14845.283    5857.9554   -9500.7595    85.544635 
   76300    2013.9772   -116.41655    1.8222889   -114.59426    45546.905    4.3794238    4.3794238    4.3794238    45546.905    68446.951    20544.644    47649.118   -19596.063    9596.3547    1641.4235    83.994513 
   76400    2057.2885   -116.49578    1.8614779    -114.6343   -10723.638     4.400266     4.400266     4.400266   -10723.638   -5759.1503    -2836.523   -23575.239    28187.973   -6099.8434   -7538.8024    85.199449 
   76500    1996.9468   -116.42617    1.8068794   -114.61929   -7876.9169    4.4146189    4.4146189    4.4146189   -7876.9169   -11995.066   -15441.945    3806.2612   -23136.039    4431.8959    13018.642    86.035891 
   76600     1198.337   -115.69752    1.0842805   -114.61324    27469.166    4.3931511    4.3931511    4.3931511    27469.166    22096.586    26589.491    33721.421   -54547.572    23794.785    10221.243    84.786834 
   76700    2652.3173    -117.0198    2.3998724   -114.61992     23341.78    4.3896708    4.3896708    4.3896708     23341.78    26098.826    68709.314   -24782.802    535.48867   -1857.0291   -7036.1818     84.58549 
   76800    1553.6979   -116.05839    1.4058185   -114.65257    28530.578    4.4031989    4.4031989    4.4031989    28530.578   -12133.753    76011.313    21714.174   -24135.082   -3074.3049     14371.26    85.369925 
   76900    1366.3124   -115.89372    1.2362681   -114.65746       -13542    4.4194178    4.4194178    4.4194178       -13542   -49412.109    25115.762   -16329.652   -38262.159   -12076.473    9415.9682     86.31677 
   77000    2478.5932   -116.85512    2.2426832   -114.61244    7030.3838    4.4201095    4.4201095    4.4201095    7030.3838    17498.177    19581.258   -15988.283    22310.119    8293.8353    12257.573    86.357308 
   77100    1331.0911    -115.8224    1.2043992     -114.618    15327.437    4.3961495    4.3961495    4.3961495    15327.437    2961.8248    17326.744    25693.743   -32569.055   -1125.7285    21788.353    84.960556 
   77200    1880.4263   -116.32275    1.7014493    -114.6213     20873.31    4.3773209    4.3773209    4.3773209     20873.31    46316.034    1683.2705    14620.625   -26832.325   -4756.2962    9504.5015    83.873575 
   77300         2196   -116.63932     1.986987   -114.65233    20063.141    4.3876589    4.3876589    4.3876589    20063.141    38709.558    22279.838   -799.97322    32156.479     8173.819   -13217.905    84.469239 
   77400    1739.4634   -116.24435    1.5739031   -114.67045   -36671.447    4.4098791    4.4098791    4.4098791   -36671.447   -35506.853   -35168.814   -39338.674   -8633.0576   -17325.495   -511.41106    85.759068 
   77500    2343.8064   -116.75782    2.1207253    -114.6371    11321.588    4.4088497    4.4088497    4.4088497    11321.588    45258.556    14881.324   -26175.115   -16431.012   -8165.3961   -8116.8415    85.699024 
   77600    1903.6346   -116.36023    1.7224486   -114.63778    20668.489    4.3890099    4.3890099    4.3890099    20668.489   -15322.315    51972.694    25355.088    25907.704    15553.196    -6140.176    84.547291 
   77700    1480.4037   -115.99806    1.3395004   -114.65856    33951.673    4.3865638    4.3865638    4.3865638    33951.673    22745.118    13068.265    66041.634   -21682.863   -9976.2944    245.27773    84.406008 
   77800    2614.6313   -117.00651    2.3657734   -114.64074    23379.494    4.3951033    4.3951033    4.3951033    23379.494    32294.981    22489.383    15354.116   -30694.034   -12417.675    12557.687    84.899914 
   77900    1730.2748   -116.20965     1.565589   -114.64406    11223.757    4.3955729    4.3955729    4.3955729    11223.757   -12385.156    2529.0964     43527.33    16500.208    6337.7718   -3693.6053    84.927133 
   78000    1883.1527   -116.35532    1.7039161   -114.65141   -3780.0274    4.4124767    4.4124767    4.4124767   -3780.0274    3774.0991   -18213.123    3098.9415     2818.035   -12468.351    781.43833    85.910702 
   78100    2253.9369   -116.65379    2.0394095   -114.61438    -1849.446    4.4124398    4.4124398    4.4124398    -1849.446    54364.114     -20753.5   -39158.952   -10980.432    6779.4702    14718.699    85.908546 
   78200    1461.4007    -115.9319    1.3223061   -114.60959    24845.552    4.3921663    4.3921663    4.3921663    24845.552    -18788.19    45003.486    48321.359     21061.28   -978.46718   -13696.273     84.72983 
   78300     2201.949   -116.60805    1.9923697   -114.61568    10051.275    4.4010423    4.4010423    4.4010423    10051.275    32794.189    -23834.18    21193.815    6897.4051     12215.41    14330.171    85.244552 
   78400    2075.8758   -116.48791    1.8782961   -114.60961   -26654.563    4.4048877    4.4048877    4.4048877   -26654.563    6776.9696   -15025.693   -71714.965    6424.4645   -14430.551    23499.012    85.468191 
   78500    1702.3262   -116.15398    1.5403005   -114.61368    27161.091    4.3995056    4.3995056    4.3995056    27161.091     11585.56    30223.172    39674.542   -1196.1753   -3744.5735   -24965.973    85.155287 
   78600    2551.2405   -116.92362     2.308416    -114.6152   -42312.629    4.4018137    4.4018137    4.4018137   -42312.629    5828.1917   -80360.888    -52405.19   -136.19604    11966.237    79246.959    85.289382 
   78700    1817.1222   -116.26857    1.6441704    -114.6244    19948.914    4.3726697    4.3726697    4.3726697    19948.914    69132.415    6266.7354    -15552.41    9613.4574   -13605.389     39627.93    83.606494 
   78800    2651.8653   -117.04122    2.3994634   -114.64176   -14126.843    4.3823165    4.3823165    4.3823165   -14126.843    243.11827   -22353.599   -20270.048   -2765.3606   -5002.1537   -30266.604    84.161063 
   78900    1133.2003   -115.68654    1.0253434    -114.6612   -48485.607    4.4175458    4.4175458    4.4175458   -48485.607    28512.552   -77511.978   -96457.395    11820.773   -14946.685    94916.924    86.207127 
   79000    2784.6551   -117.12744    2.5196145   -114.60783   -24500.984    4.4043715    4.4043715    4.4043715   -24500.984   -12365.858   -11526.082   -49611.011    1069.1009    577.85976    8368.0213    85.438147 
   79100    1770.1369   -116.21676     1.601657    -114.6151   -2839.6058    4.3888165    4.3888165    4.3888165   -2839.6058    54077.597   -40871.162   -21725.252   -10561.849   -14894.141    21792.288     84.53611 
   79200    1626.2811   -116.12226    1.4714933   -114.65077   -28456.163    4.4016726    4.4016726    4.4016726   -28456.163    32215.139   -71598.641   -45984.986     4163.822    1446.6552    76789.212    85.281184 
   79300    2717.4891   -117.06618    2.4588412   -114.60734    -15783.68    4.4240879    4.4240879    4.4240879    -15783.68   -43032.563    15611.271   -19929.749   -6195.4982    9073.1025   -28812.938    86.590699 
   79400    1345.5994   -115.80249    1.2175266   -114.58496   -20902.643    4.4357975    4.4357975    4.4357975   -20902.643   -30004.182   -45111.548    12407.802   -9237.7612   -16550.281    56903.438    87.280081 
   79500    2863.6136   -117.12709    2.5910577   -114.53603   -9946.7627    4.4192891    4.4192891    4.4192891   -9946.7627   -6311.8428   -44646.284    21117.838   -16930.306    4595.5516   -9387.4354    86.309229 
   79600    1543.4576   -115.95072    1.3965529   -114.55417     5122.683    4.3902768    4.3902768    4.3902768     5122.683     27175.88   -41704.746    29896.914    3791.8731   -9468.3753     49639.57    84.620524 
   79700    1177.2833   -115.67138    1.0652307   -114.60615   -19311.596    4.3736692    4.3736692    4.3736692   -19311.596    47757.287   -33843.993   -71848.081     11257.13   -35371.745    95777.002    83.663843 
   79800    2590.5561   -116.96077    2.3439896   -114.61678    14263.854    4.3750918    4.3750918    4.3750918    14263.854   -4222.3813    27467.162    19546.782    5139.8803    8467.7894   -20017.134    83.745508 
   79900    1370.5517   -115.91108     1.240104   -114.67098   -31566.298    4.4178877    4.4178877    4.4178877   -31566.298    11028.666   -90652.302   -15075.259   -882.86802     12779.48    56957.329    86.227147 
   80000    2233.0282   -116.62224    2.0204908   -114.60175   -31940.928    4.4316571    4.4316571    4.4316571   -31940.928   -45405.049   -72787.581    22369.847    743.18977   -18751.321   -134.98361    87.035903 
   80100    2304.4492   -116.66701     2.085114   -114.58189   -12943.632    4.3963163    4.3963163    4.3963163   -12943.632    1013.6718   -38822.146    -1022.421    10878.957    6580.3473     31682.69    84.970228 
   80200    1620.4558    -116.0669    1.4662224   -114.60068   -12713.622    4.3693927    4.3693927    4.3693927   -12713.622    64279.595   -57829.151   -44591.312   -8700.9636    30631.847    53030.449    83.418663 
   80300    2683.7644   -117.06497    2.4283265   -114.63664    27222.939    4.3695885    4.3695885    4.3695885    27222.939    18209.723   -13183.878    76642.971    5975.3371   -25093.665   -37548.145    83.429882 
   80400    2038.5766   -116.53321    1.8445469   -114.68866   -575.29334    4.3918631    4.3918631    4.3918631   -575.29334    1294.8159   -64517.588    61496.892    4518.2593    -14077.32    42891.827    84.712283 
   80500    1303.9299   -115.87187    1.1798232   -114.69204    10074.144    4.4006241    4.4006241    4.4006241    10074.144    27471.007   -53948.727    56700.152   -3994.3305    32014.693    34041.275     85.22025 
   80600    2281.7544    -116.7385    2.0645793   -114.67392   -6683.7283    4.4120033    4.4120033    4.4120033   -6683.7283   -17074.302   -42045.368    39068.485    2660.8097   -12317.733   -41773.428    85.883054 
   80700    1885.7302   -116.36357    1.7062483   -114.65732   -8593.4111    4.3966668    4.3966668    4.3966668   -8593.4111   -23157.094   -48802.554    46179.414   -5518.5528   -4899.3776    55361.107    84.990557 
   80800    1911.6165   -116.38375    1.7296708   -114.65408   -2096.0794    4.3702819    4.3702819    4.3702819   -2096.0794    19379.197   -4526.4298   -21141.005    9710.9352    24162.715    30612.396    83.469606 
   80900    2660.8735   -117.08812    2.4076143    -114.6805     2734.978    4.3743901    4.3743901    4.3743901     2734.978    4729.8629   -14417.516    17892.587   -8275.0325   -6428.9222   -39838.679    83.705215 
   81000    1928.1294   -116.44218     1.744612   -114.69757   -4340.5642    4.3940604    4.3940604    4.3940604   -4340.5642    2480.0262   -29657.029     14155.31   -28956.936   -24828.841     23285.09    84.839492 
   81100    1412.8566   -115.96907    1.2783824   -114.69069   -23923.397    4.4029715    4.4029715    4.4029715   -23923.397    26571.238   -18176.881   -80164.549    672.20754    35100.667    57600.983    85.356699 
   81200     2446.057   -116.85896    2.2132437   -114.64572    31329.016    4.3884633    4.3884633    4.3884633    31329.016    29840.587    17247.016    46899.445    -7410.382    8683.6143   -22858.336    84.515704 
   81300    2597.4559   -116.99257    2.3502327   -114.64234   -11323.917    4.3797361    4.3797361    4.3797361   -11323.917    12490.669   -49019.837    2557.4153    -6851.937   -3442.9964     21605.33    84.012484 
   81400    1104.0512   -115.67821   0.99896871   -114.67924    19477.862    4.3832795    4.3832795    4.3832795    19477.862    93328.906   -10325.244   -24570.075    7152.4787    19365.328    45486.694    84.216559 
   81500    2067.8027   -116.55667    1.8709914   -114.68568    6523.0383    4.4039013    4.4039013    4.4039013    6523.0383    14342.464   -17756.368    22983.019   -14272.776   -6644.6393   -21798.047    85.410786 
   81600    2401.5492   -116.81892    2.1729722   -114.64595    -55158.12    4.4202839    4.4202839    4.4202839    -55158.12    -21688.71   -70265.577   -73520.073   -20471.352     258.8477   -14455.338    86.367528 
   81700    1879.8311   -116.36293    1.7009107   -114.66202   -4122.0087    4.3743047    4.3743047    4.3743047   -4122.0087    41159.235    6667.2768   -60192.538    6052.3385    37152.392    41145.449    83.700316 
   81800    1724.9808   -116.18918    1.5607988   -114.62838    25901.952    4.3350683    4.3350683    4.3350683    25901.952    50470.002    40465.685   -13229.832   -11925.387        25513   -670.16959    81.468146 
   81900    1680.7851   -116.21953    1.5208097   -114.69872   -12794.316    4.3699759    4.3699759    4.3699759   -12794.316    56157.058   -59532.051   -35007.955   -16122.716   -23477.914   -76730.367     83.45207 
   82000    2369.0526   -116.81551    2.1435685   -114.67194   -16197.272    4.3934118    4.3934118    4.3934118   -16197.272    724.01034   -2876.4564   -46439.371   -2090.1813    16397.603   -12944.378    84.801928 
   82100    1552.8499   -116.07982    1.4050512   -114.67477   -3402.7511    4.4004497    4.4004497    4.4004497   -3402.7511    25879.427    6090.1045   -42177.784    10841.717    43696.721    12523.783    85.210124 
   82200     1440.863     -115.962    1.3037231   -114.65828   -32237.275    4.4094565    4.4094565    4.4094565   -32237.275    39086.322     -45493.3   -90304.848    -20410.84   -38487.098   -23734.243    85.734417 
   82300    2521.8772    -116.9125    2.2818475   -114.63066    3632.1149    4.3898584    4.3898584    4.3898584    3632.1149    1077.3619    9898.6845   -79.701705   -5659.8937   -10234.808    10226.911    84.596332 
   82400    2578.3956   -116.97391    2.3329865   -114.64092    15335.354    4.3707636    4.3707636    4.3707636    15335.354    8662.9852    25561.252    11781.823    1489.6247    34001.319   -43180.278    83.497207 
   82500    1780.6791   -116.29294    1.6111959   -114.68175     5123.598    4.3716661    4.3716661    4.3716661     5123.598    6806.8292    15315.339   -6751.3744    2259.7212    7586.0411   -58904.583    83.548944 
   82600    2824.9181   -117.24034    2.5560452    -114.6843     2533.308     4.375901     4.375901     4.375901     2533.308   -15724.675    6131.4769    17193.123    6835.0492    -27605.43    43210.894    83.791982 
   82700     1618.431   -116.16556    1.4643903   -114.70117    2002.9756    4.3861241    4.3861241    4.3861241    2002.9756    19631.809   -9446.6658   -4176.2163   -12238.918    -79.80584   -19449.411    84.380629 
   82800     1679.388   -116.20881    1.5195456   -114.68926    12477.413    4.3898831    4.3898831    4.3898831    12477.413    40341.608   -41494.291    38584.923   -2520.4491     15404.33   -61053.707    84.597759 
   82900    2792.8422   -117.18956    2.5270223   -114.66254   -8740.4042    4.3902341    4.3902341    4.3902341   -8740.4042   -43971.279   -24701.997    42452.064    1717.0086   -14136.463    20380.214    84.618057 
   83000    1447.9914   -115.97836     1.310173   -114.66819    30253.158    4.3737819    4.3737819    4.3737819    30253.158    94868.681   -49128.545    45019.338   -7006.0519   -4008.2657   -47433.948     83.67031 
   83100    2004.7485   -116.47903    1.8139386   -114.66509   -5798.1787    4.3742561    4.3742561    4.3742561   -5798.1787    15223.993   -29063.672   -3554.8577   -1659.9364    13310.284   -27538.285    83.697527 
   83200    1994.7614   -116.46792     1.804902   -114.66302    24372.261    4.3864049    4.3864049    4.3864049    24372.261    505.18624   -12761.533     85373.13     18796.63   -2708.8775    15404.676    84.396834 
   83300    2171.8139   -116.63292    1.9651028   -114.66782   -26724.805    4.3979312    4.3979312    4.3979312   -26724.805    17008.724   -50120.463   -47062.677   -12835.986   -75.293014   -65930.705    85.063902 
   83400    2481.5519    -116.8906    2.2453603   -114.64524   -22529.511     4.402579     4.402579     4.402579   -22529.511   -7317.9631   -53140.179   -7130.3921   -5701.5955   -121.65116    25046.641    85.333874 
   83500    1768.8744    -116.2418    1.6005148   -114.64129    12245.014    4.3860223    4.3860223    4.3860223    12245.014   -15070.458    -21276.83    73082.332    29647.664   -7185.8834    23245.363    84.374752 
   83600    2285.4926   -116.70044    2.0679617   -114.63248    19686.508    4.3767498    4.3767498    4.3767498    19686.508    25552.937    9826.7066    23679.881   -9300.2097   -14280.173   -32042.797    83.840753 
   83700    1542.7103   -116.04732    1.3958767   -114.65144    5022.8361    4.3937986    4.3937986    4.3937986    5022.8361    31438.695   -63133.967     46763.78    9036.4751   -1696.9626    50135.479    84.824332 
   83800    1407.9636   -115.92083    1.2739551   -114.64688    -38509.07    4.4077206    4.4077206    4.4077206    -38509.07   -47924.388   -99202.662    31599.841    35181.059   -10234.891    35709.875    85.633197 
   83900    2714.4806   -117.07693    2.4561191   -114.62081    -19819.12    4.3944077    4.3944077    4.3944077    -19819.12   -24753.015   -18694.547   -16009.797   -8586.7586   -26810.185   -20654.849    84.859612 
   84000    2131.8751   -116.55873    1.9289654   -114.62977    6942.5291    4.3717543    4.3717543    4.3717543    6942.5291    30640.681   -23449.749    13636.655   -32170.932    14567.007    40199.184    83.553999 
   84100    1589.1196   -116.10549    1.4378688   -114.66762   -12934.377    4.3662998    4.3662998    4.3662998   -12934.377    15499.257   -53236.448     -1065.94    23264.026   -4227.0781    57694.704    83.241644 
   84200    2428.3731   -116.87617     2.197243   -114.67893    25078.324     4.379617     4.379617     4.379617    25078.324    29101.365    48319.811   -2186.2049    31534.434   -17888.726    -27329.83    84.005631 
   84300    1875.4465   -116.37551    1.6969434   -114.67856   -26951.708     4.408796     4.408796     4.408796   -26951.708    3002.5675   -32322.343    -51535.35   -11419.239   -103.86895   -11212.216    85.695892 
   84400    1665.5757    -116.1441    1.5070479   -114.63705   -37726.558    4.4145429    4.4145429    4.4145429   -37726.558   -35366.422    2326.4625   -80139.713    1662.6194   -835.99452    54479.086    86.031444 
   84500    1977.1008   -116.40927    1.7889224   -114.62035   -19336.638    4.3869133    4.3869133    4.3869133   -19336.638   -9759.1674    7347.6185   -55598.366   -468.05383   -1141.5644   -82121.952    84.426182 
   84600    1736.3177   -116.21284    1.5710567   -114.64179   -8367.7218    4.3681118    4.3681118    4.3681118   -8367.7218    7106.7793   -40528.288    8318.3428   -4182.7157   -1209.7013   -24921.619    83.345324 
   84700    2395.7305   -116.81785    2.1677073   -114.65015    12914.095    4.3660329    4.3660329    4.3660329    12914.095   -7899.7404    9812.3444    36829.682    13452.556   -4854.3004    48902.077    83.226383 
   84800    901.16463   -115.51307   0.81539269   -114.69767    11838.277    4.3849486    4.3849486    4.3849486    11838.277    18898.538    39452.191   -22835.898    3237.8769   -13978.709   -65577.196    84.312803 
   84900    1868.1307   -116.38821     1.690324   -114.69788   -30614.198    4.4062771    4.4062771    4.4062771   -30614.198   -70180.785   -17583.564   -4078.2448   -9891.3586   -14844.653   -30837.169    85.549096 
   85000    2357.7854   -116.79322    2.1333738   -114.65985   -28.817754     4.405497     4.405497     4.405497   -28.817754   -48850.318    34127.796    14636.069   -6181.2529   -1500.5621    15702.088    85.503663 
   85100    1616.6207   -116.11178    1.4627524   -114.64903   -6974.4764     4.382569     4.382569     4.382569   -6974.4764    46131.936   -43450.375    -23604.99   -6657.7418    6830.0663    -64275.08    84.175614 
   85200    1970.2865   -116.43068    1.7827566   -114.64793    16892.519    4.3823407    4.3823407    4.3823407    16892.519    233.64429    58362.178   -7918.2653    -19280.48    6010.1351    8853.7415    84.162457 
   85300     2294.943   -116.70382    2.0765126   -114.62731   -1851.8549    4.3980783    4.3980783    4.3980783   -1851.8549    45270.983   -19706.536   -31120.012   -14737.203    -5067.825   -5140.8476    85.072436 
   85400    1676.6581   -116.15116    1.5170755   -114.63408   -31579.629    4.4011884    4.4011884    4.4011884   -31579.629    24252.232   -22201.343   -96789.777    14107.676   -2159.3561   -53602.671    85.253042 
   85500    3260.9609   -117.55847     2.950586   -114.60789   -17097.528    4.4014004    4.4014004    4.4014004   -17097.528   -41332.357    39220.261   -49180.489    14098.913   -1546.5696    21615.993    85.265364 
   85600    1977.9886   -116.41698    1.7897256   -114.62725    14392.078    4.3795227    4.3795227    4.3795227    14392.078    77819.822    8440.3216    -43083.91    1371.2807    7397.9266   -47054.494    84.000204 
   85700    1711.1597   -116.19389    1.5482933   -114.64559    18120.075    4.3751535    4.3751535    4.3751535    18120.075    33357.771    71819.028   -50816.574    5809.1702   -2523.3954   -16043.687    83.749049 
   85800    3200.6903   -117.53077    2.8960519   -114.63471   -5281.4778    4.3941685    4.3941685    4.3941685   -5281.4778   -9316.7314    12114.819   -18642.521   -8965.0072    1006.2974    6600.5892    84.845755 
   85900     914.4705   -115.48791   0.82743213   -114.66047    22179.539    4.3927238    4.3927238    4.3927238    22179.539     31278.72    79751.119   -44491.222    6678.6571    28645.983   -33485.971    84.762099 
   86000    2463.9041   -116.85666    2.2293922   -114.62726   -5135.4046    4.4023659    4.4023659    4.4023659   -5135.4046    5987.6213    16133.488   -37527.323    3343.3921   -14406.058    11986.964    85.321487 
   86100    2263.2374   -116.65607    2.0478247   -114.60825   -7898.3936     4.403352     4.403352     4.403352   -7898.3936    -29409.21    7566.6531   -1852.6236   -19443.852    25075.343   -8379.8531    85.378835 
   86200    1573.6302   -116.02542    1.4238537   -114.60156   -19248.552    4.3961421    4.3961421    4.3961421   -19248.552   -50721.666    59918.028    -66942.02    -237.6232    15522.716   -37756.358    84.960129 
   86300    3183.6779   -117.47409    2.8806587   -114.59343   -18333.781    4.3997185    4.3997185    4.3997185   -18333.781   -35361.157   -18030.529   -1609.6588   -4383.8147   -13045.951    21026.686     85.16765 
   86400    1389.6984   -115.89255    1.2574283   -114.63512   -6537.7586    4.4023314    4.4023314    4.4023314   -6537.7586    23974.142   -10218.492   -33368.926    13937.034    53815.644   -23632.228    85.319478 
   86500    2101.3197     -116.532    1.9013182   -114.63068    1297.5161     4.402224     4.402224     4.402224    1297.5161     6799.525    -4080.318    1173.3413   -11633.637      18664.4   -25002.467    85.313238 
   86600     3023.421   -117.34535    2.7356548    -114.6097   -30777.199    4.4051573    4.4051573    4.4051573   -30777.199   -9889.3756   -37928.198   -44514.025    -9643.478   -9463.6397    8054.6267    85.483887 
   86700    1260.9213   -115.77792    1.1409081   -114.63701    -24522.43    4.3904045    4.3904045    4.3904045    -24522.43    16490.147     -23761.4   -66296.036    15191.017    53928.688   -36750.415    84.627906 
   86800    2794.0077   -117.15387    2.5280769   -114.62579    8090.2985     4.373226     4.373226     4.373226    8090.2985     12287.98    26438.338   -14455.423   -23383.548     1818.198   -23545.536    83.638407 
   86900    1877.4263   -116.34813    1.6987348   -114.64939    6741.8067    4.3737274    4.3737274    4.3737274    6741.8067    10291.837    40447.546   -30513.963    11740.298   -35108.929    21876.779    83.667179 
   87000    2173.2988   -116.63675    1.9664464    -114.6703    7022.9385    4.3795969    4.3795969    4.3795969    7022.9385    39479.868    21706.193   -40117.245    -8356.125    29696.524   -34444.766    84.004473 
   87100    2229.0665   -116.67011    2.0169062    -114.6532    5359.0284    4.4060412    4.4060412    4.4060412    5359.0284   -3255.1216    61988.478   -42656.271   -9449.2949   -19905.051     9462.981    85.535356 
   87200    1119.0967   -115.64488    1.0125822    -114.6323   -25441.162    4.4050436    4.4050436    4.4050436   -25441.162   -18652.036    902.97892   -58574.429   -7479.9322   -30334.814    16955.004    85.477269 
   87300    3002.1849   -117.29839      2.71644   -114.58195    7013.4108    4.3747136    4.3747136    4.3747136    7013.4108    4443.2331    9590.3483    7006.6511    10817.342    23124.419    694.61455    83.723792 
   87400     1214.724    -115.7219    1.0991078    -114.6228   -18340.099    4.3690204    4.3690204    4.3690204   -18340.099   -87045.836    16843.946    15181.593   -57371.261   -35938.118     1039.707    83.397343 
   87500    1515.8029   -116.02121    1.3715304   -114.64968   -10851.898    4.3813181    4.3813181    4.3813181   -10851.898   -3274.2027     5016.371   -34297.861   -14970.898   -15151.795    5135.3967    84.103558 
   87600     2616.116    -117.0036    2.3671167   -114.63649    8541.5668     4.388996     4.388996     4.388996    8541.5668    21092.798   -6595.4031    11127.305    7321.4278    13194.279    28782.084    84.546487 
   87700    1661.5047   -116.14722    1.5033643   -114.64385   -22524.137    4.3944966    4.3944966    4.3944966   -22524.137   -36829.794   -29345.718   -1396.8995   -39078.249   -7339.3754   -4905.2126    84.864763 
   87800    2333.3415   -116.73942    2.1112565   -114.62816     10596.95    4.3855957    4.3855957    4.3855957     10596.95    17089.862    13527.089     1173.899   -13.768458   -15046.151    2729.9757    84.350136 
   87900    2054.5427   -116.49254    1.8589934   -114.63354    20910.002    4.3796888    4.3796888    4.3796888    20910.002    34528.469    -32375.21    60576.749     -30158.3    10455.463    19758.021    84.009763 
   88000    1998.2961   -116.45291    1.8081003   -114.64481    8308.8164    4.4016378    4.4016378    4.4016378    8308.8164   -28267.829     24437.07    28757.209    -35174.78    34522.406    5489.3894    85.279161 
   88100    2555.4673   -116.92242    2.3122405   -114.61018   -28767.056    4.4195491    4.4195491    4.4195491   -28767.056    9572.5478    -65902.82   -29970.896    10351.864   -18682.583    14124.497    86.324465 
   88200     1767.912   -116.21438    1.5996439   -114.61473   -19415.947    4.3965189    4.3965189    4.3965189   -19415.947   -15199.101   -81318.675    38269.936   -23627.201    13904.785    16600.289     84.98198 
   88300    1886.0718   -116.31688    1.7065574   -114.61032    14664.742    4.3673526    4.3673526    4.3673526    14664.742   -42533.271    17875.214    68652.283   -15210.705     43758.97    -16042.94    83.301874 
   88400    2033.2168   -116.48725    1.8396973   -114.64755   -5717.8382    4.3769242    4.3769242    4.3769242   -5717.8382   -19629.982   -32317.225    34793.692    218.17645    7805.3423    9023.5143    83.850772 
   88500    1619.1863    -116.1332    1.4650738   -114.66813    -11775.02    4.3925093    4.3925093    4.3925093    -11775.02   -80182.926   -59491.788    104349.66   -30845.564    -5414.756    20569.297    84.749682 
   88600    2218.7037   -116.66531    2.0075297   -114.65778   -45521.475    4.4073652    4.4073652    4.4073652   -45521.475   -66358.278   -22541.447   -47664.701   -4660.9029    61265.288   -9351.5276    85.612487 
   88700    1912.9767   -116.36954    1.7309015   -114.63864   -28856.145    4.4108346    4.4108346    4.4108346   -28856.145    14616.672    -87595.26   -13589.847    7047.7039   -6951.0928   -29682.847    85.814827 
   88800    2732.9406   -117.07804    2.4728221   -114.60521   -18915.427    4.4110324    4.4110324    4.4110324   -18915.427   -35056.808    14708.838   -36398.311   -4879.5752     16678.25    19524.988     85.82637 
   88900    1984.4634   -116.39847    1.7955842   -114.60289   -24374.143    4.4126743    4.4126743    4.4126743   -24374.143   -27198.823   -3477.5536   -42446.051   -2209.7786    22112.984   -11554.975    85.922244 
   89000      2216.56   -116.59633    2.0055901   -114.59074   -34654.881    4.4136569    4.4136569    4.4136569   -34654.881    4159.6975   -64167.208   -43957.133    -6909.279   -6069.5382   -22919.903    85.979659 
   89100    2552.6478   -116.90234    2.3096893   -114.59265    13791.773     4.390972     4.390972     4.390972    13791.773    -10870.13    27489.697     24755.75    5662.6852    35950.126    14721.898    84.660729 
   89200    1222.8241   -115.73858    1.1064369   -114.63214    22332.537    4.3807395    4.3807395    4.3807395    22332.537      26413.5    797.42412    39786.686    9005.2846    36492.521   -39560.769    84.070237 
   89300      2617.27   -117.00712    2.3681609   -114.63896   -7457.4222    4.4132479    4.4132479    4.4132479   -7457.4222   -15103.882    13109.694   -20378.078   -29368.096   -15335.306    15976.323    85.955759 
   89400    1612.1004    -116.0622    1.4586623   -114.60354   -14585.784    4.4226228    4.4226228    4.4226228   -14585.784    -53701.95    29181.365   -19236.768    -7108.575    35082.719   -353.45287    86.504702 
   89500    1289.9417   -115.74963    1.1671663   -114.58246    19263.674    4.3967672    4.3967672    4.3967672    19263.674   -28446.092    81391.337     4845.776     9783.755    4372.1618   -40426.144    84.996375 
   89600    2729.5324   -117.05817    2.4697383   -114.58843     10601.82    4.3818549    4.3818549    4.3818549     10601.82   -45434.313    61266.464    15973.309   -10841.995    14570.704    1954.3964     84.13447 
   89700    1953.8488   -116.41602    1.7678835   -114.64814    23577.053    4.3893611    4.3893611    4.3893611    23577.053   -15053.311    48856.799     36927.67   -1479.1306    33541.515   -7783.4716    84.567587 
   89800    2205.5625   -116.67079    1.9956393   -114.67515   -36534.975    4.4291513    4.4291513    4.4291513   -36534.975    -22112.75   -92673.426    5181.2511    14153.982   -34608.377   -57432.867    86.888347 
   89900     2081.005   -116.48419     1.882937   -114.60125   -28451.489    4.4525842    4.4525842    4.4525842   -28451.489   -77846.296   -19463.947    11955.775    -7523.797    37334.675   -2136.9004    88.274733 
   90000    1978.8925   -116.32687    1.7905435   -114.53633   -29145.272    4.4449633    4.4449633    4.4449633   -29145.272   -60794.329   -340.04544    -26301.44    16444.185   -10430.191    4101.2759    87.822245 
   90100    1498.8775   -115.89136    1.3562158   -114.53514    -18799.26    4.4085548    4.4085548    4.4085548    -18799.26   -20106.689     6455.095   -42746.187   -7545.9131    2441.6162    893.27144    85.681832 
   90200    2737.8489   -117.01698    2.4772632   -114.53971    38548.404     4.361706     4.361706     4.361706    38548.404   -3205.3728    84264.005    34586.579   -20672.674   -4208.4536    -228.9002    82.979183 
   90300    1723.1344   -116.18678    1.5591282   -114.62765    27089.634    4.3606143    4.3606143    4.3606143    27089.634    5980.1063    18760.328    56528.469    42683.408    -24650.02    20361.454    82.916894 
   90400    1666.0899   -116.19816    1.5075131   -114.69065   -13579.175     4.410718     4.410718     4.410718   -13579.175   -37182.825   -13378.573     9823.872   -11678.876   -8952.6561   -6494.2787    85.808019 
   90500    2537.7033   -116.90736    2.2961673   -114.61119   -36537.545    4.4376512    4.4376512    4.4376512   -36537.545   -48588.312   -51756.816   -9267.5057    10013.962   -18083.661    1190.1034    87.389545 
   90600     1629.404    -116.0759     1.474319   -114.60159   -30238.774    4.4130593    4.4130593    4.4130593   -30238.774   -82553.104   -18907.932    10744.715    30330.291   -40736.468    28280.056    85.944736 
   90700    3068.2445   -117.34768    2.7762121   -114.57146    12023.243     4.385405     4.385405     4.385405    12023.243    5699.6879    7306.2525    23063.787   -10961.282    2513.8802    6708.2502    84.339129 
   90800    1691.8027   -116.15619    1.5307787   -114.62541   -24320.498     4.396795     4.396795     4.396795   -24320.498    -22281.91    1666.4046   -52345.989    23956.801   -10319.577    -18011.55    84.997989 
   90900    1786.9173    -116.2546    1.6168403   -114.63776   -18216.063    4.4016836    4.4016836    4.4016836   -18216.063   -64131.671   -13679.435    23162.917     29024.41   -11055.745    12896.887    85.281821 
   91000     2636.144   -117.01463    2.3852385   -114.62939    30995.935    4.3873718    4.3873718    4.3873718    30995.935    17155.474    85869.453    -10037.12    1849.0868    6563.4027    45310.284    84.452659 
   91100    2054.4337   -116.52894    1.8588948   -114.67005   -3835.8462    4.3814533    4.3814533    4.3814533   -3835.8462   -41469.839    42846.601     -12884.3    9857.6117   -2491.0247   -15084.115     84.11134 
   91200    1720.2993   -116.23598     1.556563   -114.67942    812.21155    4.3875932    4.3875932    4.3875932    812.21155   -44088.618     74163.03   -27637.777    35905.999   -5399.5411    3915.4493    84.465444 
   91300    2114.7479   -116.57845    1.9134684   -114.66498    13540.131    4.3965052    4.3965052    4.3965052    13540.131    11736.543    19692.056    9191.7947   -17097.071    1043.8647    42870.837    84.981181 
   91400    2062.4572   -116.52063    1.8661546   -114.65448   -17505.953    4.4132756    4.4132756    4.4132756   -17505.953    -62062.33     2378.075    7166.3963    3975.6451    13406.818   -1176.0158    85.957376 
   91500    2411.3751   -116.78924    2.1818629   -114.60738    8678.5394    4.4134453    4.4134453    4.4134453    8678.5394   -44649.642    22365.413    48319.848    15312.114   -863.71915   -16899.699    85.967293 
   91600     1193.631   -115.69055    1.0800224   -114.61053     29724.96    4.4003934    4.4003934    4.4003934     29724.96    1440.7089    41333.135    46401.036   -25374.873     -6616.98    13354.837     85.20685 
   91700    2512.1754   -116.88631    2.2730691   -114.61324   -8115.8295    4.4095705    4.4095705    4.4095705   -8115.8295    -58069.31   -25314.172    59035.993    -19073.44    6723.9036    12263.239    85.741063 
   91800    1962.1235   -116.38283    1.7753706   -114.60746    23456.089    4.4085198    4.4085198    4.4085198    23456.089    67975.224   -12477.161    14870.204   -12694.171    134.94116   -8903.0757    85.679788 
   91900    1599.7745   -116.05742    1.4475096   -114.60991    445.25798    4.4133466    4.4133466    4.4133466    445.25798    9170.7624   -13110.152     5275.164   -23973.643   -16682.881    18848.833    85.961527 
   92000    2645.1766   -116.96794    2.3934114   -114.57453   -9413.1771    4.4235801    4.4235801    4.4235801   -9413.1771   -40270.265   -16356.505     28387.24     16518.77    15399.142   -5524.5366    86.560883 
   92100    1941.0347   -116.34305     1.756289   -114.58676   -12697.873    4.3956852    4.3956852    4.3956852   -12697.873    37319.091   -28490.083   -46922.628    9536.7932    10624.166    18136.153    84.933644 
   92200    1628.5447   -116.06079    1.4735415   -114.58725    62020.908    4.3647645    4.3647645    4.3647645    62020.908     94014.25    48414.045    43634.429   -31656.819   -17402.686    38083.417    83.153869 
   92300    2261.0738   -116.68825    2.0458671   -114.64238    7216.0362    4.3768293    4.3768293    4.3768293    7216.0362   -4470.8828   -10408.591    36527.582    41088.794    41265.601   -6820.6284     83.84532 
   92400    2412.3661    -116.8406    2.1827595   -114.65784   -2765.4888    4.4062617    4.4062617    4.4062617   -2765.4888     6952.471    4184.5637   -19433.501    6574.2651    5972.0312    4969.2553    85.548197 
   92500    2069.6696   -116.50768    1.8726805     -114.635   -16143.259    4.4199995    4.4199995    4.4199995   -16143.259   -2341.6364   -24649.512   -21438.627    3386.0009     -1108.46    14409.113     86.35086 
   92600    1488.3441   -115.96757     1.346685   -114.62088     6549.389    4.4050768    4.4050768    4.4050768     6549.389   -11627.277   -7969.0808    39244.524    22405.914    72226.926    2977.2027    85.479198 
   92700    2293.0774   -116.67654    2.0748246   -114.60171    49960.531    4.3801335    4.3801335    4.3801335    49960.531    42758.325    55169.973    51953.295   -2222.2785   -1898.4516   -6464.0695    84.035358 
   92800    1630.5135   -116.10535    1.4753229   -114.63003    44991.513    4.3785079    4.3785079    4.3785079    44991.513    45813.963    22517.729    66642.847   -5202.5824    23108.205    21102.592    83.941827 
   92900     1635.215   -116.13075    1.4795769   -114.65117    33731.945    4.4131236    4.4131236    4.4131236    33731.945    23907.875      43513.1    33774.859    10027.594    45192.224    10443.345    85.948496 
   93000    1862.0881   -116.29283    1.6848564   -114.60798   -29099.431    4.4378816    4.4378816    4.4378816   -29099.431   -20970.641   -68835.105    2507.4512   -7491.9674   -11725.336   -27745.123    87.403162 
   93100    1679.5515   -116.09362    1.5196935   -114.57393   -50415.724    4.4282991    4.4282991    4.4282991   -50415.724   -88681.719   -11773.522   -50791.932   -1862.0214    16512.361    24471.648    86.838207 
   93200    2476.3253    -116.7875    2.2406312   -114.54686    4663.0182    4.3926449    4.3926449    4.3926449    4663.0182    1846.4455    57544.924   -45402.315   -3146.4026    29888.856   -12666.551    84.757532 
   93300     1760.588   -116.17236     1.593017   -114.57934    26448.775    4.3665297    4.3665297    4.3665297    26448.775    59126.895   -15322.286    35541.717   -23352.646   -4251.9941   -26482.278    83.254796 
   93400     2235.848   -116.66229    2.0230422   -114.63925     8489.516    4.3892121    4.3892121    4.3892121     8489.516   -3185.3905    30891.438   -2237.4998   -17548.779    951.46592      49193.9    84.558975 
   93500    2049.6631    -116.4804    1.8545782   -114.62582   -33026.648    4.4290463    4.4290463    4.4290463   -33026.648    24303.653   -40475.723   -82907.874    26131.764    16031.664    -44386.07    86.882169 
   93600    2090.4762   -116.47477    1.8915068   -114.58327   -9260.1404    4.4277775    4.4277775    4.4277775   -9260.1404    47841.706   -36533.769   -39088.358   -24056.115    -9436.195   -500.95269    86.807524 
   93700    2469.8462   -116.80994    2.2347688   -114.57517    20078.152    4.3871074    4.3871074    4.3871074    20078.152    22855.407   -13777.486    51156.534     8233.913    16048.417     10544.53     84.43739 
   93800    1360.9054   -115.83148    1.2313758    -114.6001    39743.394    4.3533699    4.3533699    4.3533699    39743.394    55133.929    3017.3068    61078.946    53233.102   -519.14553   -63637.335    82.504322 
   93900    3014.6048   -117.37264    2.7276778   -114.64497    4403.7011    4.3784696    4.3784696    4.3784696    4403.7011    18749.324    5825.6817   -11363.902   -13024.751   -1912.8645   -2574.1718    83.939623 
   94000    1813.0796   -116.29397    1.6405125   -114.65346    20885.743    4.4097268    4.4097268    4.4097268    20885.743   -2176.0697    35318.589    29514.709    9483.7167    34553.221   -9847.3747    85.750183 
   94100    1426.8174   -115.90856    1.2910144   -114.61754    13770.583    4.4286042    4.4286042    4.4286042    13770.583    5940.3222    10432.434    24938.992    27403.431   -7085.6455    -36019.43    86.856155 
   94200    3072.6173   -117.33077    2.7801687    -114.5506   -28087.049    4.4216329    4.4216329    4.4216329   -28087.049   -34462.903   -19325.464   -30472.779    487.05262    6492.1608    11924.934    86.446627 
   94300     806.4289   -115.29011   0.72967381   -114.56044    42881.057    4.3783785    4.3783785    4.3783785    42881.057     17309.75    29414.047    81919.374    56637.422    43868.509   -37028.345    83.934387 
   94400    3173.0636   -117.42146    2.8710547   -114.55041    25118.618    4.3894068    4.3894068    4.3894068    25118.618    61191.967    7401.1181    6762.7677   -14360.054   -18269.072    27193.113    84.570226 
   94500    895.75045    -115.3817   0.81049383   -114.57121   -53721.165    4.4432382    4.4432382    4.4432382   -53721.165   -78989.616   -53186.285   -28987.595    43886.505    43868.994    -22959.28    87.720034 
   94600    2424.6824   -116.69311    2.1939036    -114.4992   -37475.082    4.4390927    4.4390927    4.4390927   -37475.082    -73227.57    -52117.58    12919.905    22490.904   -13456.701   -7990.2389    87.474735 
   94700     2148.572   -116.45238    1.9440731   -114.50831    -32017.83    4.3971964    4.3971964    4.3971964    -32017.83   -43965.631   -626.25926   -51461.601   -7979.4139    29158.054    15728.407    85.021268 
   94800    813.80971   -115.30438   0.73635213   -114.56803   -16877.132    4.3594357    4.3594357    4.3594357   -16877.132   -45208.673   -28330.044    22907.321    90084.334    63274.122   -24778.736    82.849679 
   94900    2983.0009   -117.31381    2.6990819   -114.61473    40434.032    4.3586871    4.3586871    4.3586871    40434.032    85840.629    1233.5035    34227.964   -21647.014   -23979.323    16794.488    82.807006 
   95000    1512.1287   -116.03669    1.3682058   -114.66849   -38628.532    4.4065559    4.4065559    4.4065559   -38628.532   -68838.788    37636.506   -84683.312   -6429.6895    46648.481   -12737.484    85.565333 
   95100    1333.2322   -115.84157    1.2063365   -114.63523    -34733.04    4.4145705    4.4145705    4.4145705    -34733.04   -92582.131    17656.066   -29273.055    46598.124    24364.477   -11093.885    86.033062 
   95200    2448.8628    -116.7834    2.2157825   -114.56762    10997.655    4.4041236    4.4041236    4.4041236    10997.655    17396.642   -27932.095    43528.416    -21048.44    934.36965    19653.431    85.423725 
   95300    1674.8053   -116.08965     1.515399   -114.57425   -48340.577    4.4173172    4.4173172    4.4173172   -48340.577   -42577.054    -31535.51   -70909.166    18310.015    68592.218    5472.4267    86.193746 
   95400     2966.626   -117.21803    2.6842656   -114.53376    -5451.307    4.4153004    4.4153004    4.4153004    -5451.307   -21654.913   -9746.3174    15047.309    39214.663   -6678.4023    6651.6862     86.07574 
   95500    1830.7746   -116.20727    1.6565233   -114.55075   -18068.116    4.4012345    4.4012345    4.4012345   -18068.116   -41261.947    31079.525   -44021.926   -18483.722    39904.027   -9423.8609    85.255722 
   95600    1884.4298   -116.28338    1.7050716    -114.5783    10444.381    4.3857988    4.3857988    4.3857988    10444.381    8749.5667    50258.698   -27675.122    4533.8582    53057.291   -18442.974    84.361854 
   95700    2778.0263   -117.09635    2.5136166   -114.58273    55266.994    4.3674936    4.3674936    4.3674936    55266.994    19009.164    93837.398     52954.42   -3437.5973   -32299.282    5579.9569    83.309942 
   95800     1222.797   -115.77269    1.1064124   -114.66628   -36218.481    4.3814353    4.3814353    4.3814353   -36218.481   -106484.91    40116.371   -42286.901   -37291.997    47746.399    2369.1463    84.110304 
   95900     2728.866   -117.11062    2.4691353   -114.64149   -32546.557     4.395739     4.395739     4.395739   -32546.557   -71933.445   -31585.455    5879.2299   -541.59575    31647.829   -17614.075    84.936762 
   96000      2128.46   -116.55784    1.9258754   -114.63197    22454.422    4.3839362    4.3839362    4.3839362    22454.422   -48034.138     29277.48    86119.925    31081.432   -19170.571    6675.2641    84.254417 
   96100    1405.0705   -115.90083    1.2713373   -114.62949    41143.914    4.3826518    4.3826518    4.3826518    41143.914   -48923.713     95913.85    76441.605   -30510.983    56387.582   -10828.843    84.180383 
   96200    2809.5901   -117.13603    2.5421762   -114.59385   -3542.7366    4.3988431    4.3988431    4.3988431   -3542.7366   -12931.539    13711.253   -11407.924     12402.48   -180.41228   -8425.5271    85.116822 
   96300    1259.5941   -115.75077    1.1397072   -114.61106    10546.283    4.3953133    4.3953133    4.3953133    10546.283   -48912.537    78146.741    2404.6442     23347.59    23620.427    3876.7273    84.912088 
   96400    2578.2004   -116.93615    2.3328099   -114.60334   -9853.7476    4.3913354    4.3913354    4.3913354   -9853.7476   -52720.927    37091.909   -13932.225   -16233.859    51111.099     7802.837     84.68175 
   96500    1615.0145    -116.0867     1.461299    -114.6254    30362.314    4.3840498    4.3840498    4.3840498    30362.314    53688.889   -23141.628    60539.681    20534.709   -22261.817   -19957.943    84.260969 
   96600    2029.3614   -116.46171    1.8362088    -114.6255   -16748.632    4.3974181    4.3974181    4.3974181   -16748.632   -18055.865   -11785.203   -20404.827    34540.468    34709.042   -6004.5276    85.034132 
   96700    2523.5823   -116.87629    2.2833903    -114.5929    10539.353    4.3980187    4.3980187    4.3980187    10539.353    35519.067   -20556.615    16655.608   -12434.111   -8628.5011    10512.279    85.068981 
   96800    1369.4091   -115.85556    1.2390701   -114.61649   -11034.146    4.3907792    4.3907792    4.3907792   -11034.146     5728.607   -41538.835    2707.7905    27553.222   -17044.759   -40845.068     84.64958 
   96900    2296.5655   -116.69169    2.0779807   -114.61371   -11229.526    4.3907779    4.3907779    4.3907779   -11229.526   -11267.289    5426.7146   -27848.003    14655.917    14019.996    9779.8055    84.649503 
   97000    1668.1259   -116.13898    1.5093553   -114.62962   -14599.343     4.383932     4.383932     4.383932   -14599.343    36648.066   -36201.693   -44244.403   -16697.353   -7616.6098    67994.977    84.254174 
   97100    1649.7616   -116.13787     1.492739   -114.64513    8609.9688    4.3758848    4.3758848    4.3758848    8609.9688    9430.8975   -14349.676    30748.685    32652.767   -15558.223   -35421.925    83.791053 
   97200    2567.5519   -116.97151    2.3231749   -114.64834   -19940.378     4.387374     4.387374     4.387374   -19940.378    20078.995   -31718.408   -48181.721    5731.3262   -6207.8044    35681.803    84.452785 
   97300    1500.5231    -116.0151    1.3577049   -114.65739   -17674.633    4.3924656    4.3924656    4.3924656   -17674.633    47271.173   -94643.186   -5651.8859   -9277.4747   -621.28042    62551.977    84.747149 
   97400     2579.795   -116.95591    2.3342528   -114.62166    11826.497    4.3829844    4.3829844    4.3829844    11826.497    36132.405   -11036.591    10383.679    20063.371   -9208.2995   -36412.906    84.199552 
   97500    1652.8962   -116.12514    1.4955753   -114.62956   -22073.056    4.3857006    4.3857006    4.3857006   -22073.056     53205.19   -80039.083   -39385.274     1728.254   -11489.395    101108.77    84.356189 
   97600    2357.8884   -116.74991     2.133467   -114.61644   -10028.104    4.3829199    4.3829199    4.3829199   -10028.104    22858.625   -52891.833   -51.105122   -2239.8894    26592.877    19524.031    84.195835 
   97700    1562.7044   -116.03482    1.4139678   -114.62085    36677.566    4.3793775    4.3793775    4.3793775    36677.566    96237.637   -4485.7404    18280.803    26460.723    1390.9406    23743.792    83.991848 
   97800    1489.2076   -115.99091    1.3474663   -114.64345   -39692.462    4.3916766    4.3916766    4.3916766   -39692.462    57688.811   -121706.99   -55059.212    1147.0178     1572.882     106154.8    84.701489 
   97900    3331.7172   -117.62138    3.0146078   -114.60677    7130.3549    4.3769908    4.3769908    4.3769908    7130.3549   -10983.519    33629.198   -1254.6134   -7223.9018    7975.9945   -40918.158    83.854602 
   98000     1110.054   -115.64507    1.0044002   -114.64067   -2894.0954    4.3695359    4.3695359    4.3695359   -2894.0954    65730.202   -40462.906   -33949.582    32450.277   -16972.496    87824.123    83.426868 
   98100    2271.4539   -116.68726    2.0552592     -114.632    21066.785    4.3843557    4.3843557    4.3843557    21066.785    42891.452    36726.492    -16417.59    1019.1604   -13638.627    23227.791    84.278608 
   98200    2445.1429   -116.83519    2.2124167   -114.62278   -29758.825    4.4016814    4.4016814    4.4016814   -29758.825    -18899.47   -2935.7773   -67441.226   -19862.705    7296.6457    15530.611    85.281693 
   98300    1045.5956   -115.57187   0.94607683   -114.62579   -40831.427    4.3995016    4.3995016    4.3995016   -40831.427    41078.464   -44169.505   -119403.24    20440.082    -4256.818    88266.722    85.155057 
   98400    3402.5869   -117.66354    3.0787321    -114.5848    22235.098    4.3684008    4.3684008    4.3684008    22235.098   -9766.8774    75681.658     790.5131   -18250.339    3879.2645    -34542.49    83.361868 
   98500    824.51454   -115.38579   0.74603808   -114.63975    1842.2302    4.3649372    4.3649372    4.3649372    1842.2302    68619.267   -44519.179   -18573.397   -12565.732   -138.24723    111710.02    83.163737 
   98600     2435.831   -116.83273    2.2039911   -114.62874   -10973.618    4.3781864    4.3781864    4.3781864   -10973.618     16731.34   -16169.077   -33483.115     5977.309    14000.673    -8273.265    83.923335 
   98700    2111.2744   -116.53569    1.9103254   -114.62536    8288.3952    4.3933508    4.3933508    4.3933508    8288.3952    34190.828   -18757.858    9432.2151    -14040.12    5498.3501    20798.196    84.798397 
   98800    1118.5387    -115.6457    1.0120773   -114.63362   -46758.529    4.4034181    4.4034181    4.4034181   -46758.529    180.85101   -104579.58    -35876.86   -18962.425    12094.222    82662.022    85.382677 
   98900    3033.9393   -117.34788    2.7451721    -114.6027   -5191.5637    4.3788838    4.3788838    4.3788838   -5191.5637   -30000.253    -29540.38    43965.942    -12653.77    5552.5239   -39604.986    83.963448 
   99000    1634.3592   -116.10298    1.4788026   -114.62418     22441.74    4.3529503    4.3529503    4.3529503     22441.74    94387.384    1510.1325   -28572.297    2415.2119   -1944.2231    90301.092    82.480469 
   99100    1817.3432    -116.2958    1.6443703   -114.65143    6131.4294    4.3669195    4.3669195    4.3669195    6131.4294    3730.0146    10040.935    4623.3388   -45211.167    33007.172    36406.011    83.277095 
   99200    2896.0765   -117.24815    2.6204309   -114.62772    -27631.86    4.4000041    4.4000041    4.4000041    -27631.86   -10013.964   -30062.725   -42818.891   -394.76763   -22749.666    19721.142    85.184237 
   99300    1448.7775   -115.92481    1.3108843   -114.61393   -48233.638    4.4101159    4.4101159    4.4101159   -48233.638    12259.262   -42069.943   -114890.23   -5446.1884    25831.946    86072.555    85.772886 
   99400    2568.5093   -116.90389    2.3240412   -114.57985     -25817.7    4.3833543    4.3833543    4.3833543     -25817.7    -81583.49    16672.943   -12542.555   -25660.399    31720.793   -27804.242    84.220871 
   99500    1687.9175   -116.12886    1.5272632    -114.6016   -46337.046    4.3689297    4.3689297    4.3689297   -46337.046    37864.685   -105694.83    -71180.99   -6722.5664   -12035.087    102831.11     83.39215 
   99600    2012.3269    -116.4376    1.8207957   -114.61681    10152.299    4.3665826    4.3665826    4.3665826    10152.299    74099.135   -18841.435   -24800.803     11113.31    2795.3739    41907.479    83.257823 
   99700    2213.2749    -116.6412    2.0026176   -114.63858    1824.8875    4.3747304    4.3747304    4.3747304    1824.8875   -14967.311   -1173.8141    21615.788   -29445.393    39581.943    876.75014    83.724754 
   99800    1497.3165   -116.00622    1.3548034   -114.65142   -30869.508    4.4020693    4.4020693    4.4020693   -30869.508    22732.906   -86416.148   -28925.281   -26320.902   -3274.7566    72952.292    85.304242 
   99900    2953.5563   -117.25675    2.6724399   -114.58431   -27242.533    4.4152704    4.4152704    4.4152704   -27242.533   -64533.642   -10904.467   -6289.4901    9128.5822    4792.6302   -32036.094    86.073987 
  100000    835.90534   -115.33598   0.75634472   -114.57963    21293.337    4.3977372    4.3977372    4.3977372    21293.337    9093.7293    45327.693    9458.5882   -29770.759    26749.653    53677.378    85.052644 
Loop time of 21.6822 on 1 procs for 100000 steps with 8 atoms

Pair  time (%) = 6.40271 (29.5298)
Kspce time (%) = 5.3594 (24.718)
Neigh time (%) = 0.219431 (1.01203)
Comm  time (%) = 0.943552 (4.35173)
Outpt time (%) = 0.0239344 (0.110387)
Other time (%) = 8.73318 (40.2781)

Nlocal:    8 ave 8 max 8 min
Histogram: 1 0 0 0 0 0 0 0 0 0
Nghost:    1684 ave 1684 max 1684 min
Histogram: 1 0 0 0 0 0 0 0 0 0
Neighs:    2031 ave 2031 max 2031 min
Histogram: 1 0 0 0 0 0 0 0 0 0

Total # of neighbors = 2031
Ave neighs/atom = 253.875
Neighbor list builds = 2829
Dangerous builds = 0
unfix 20
unfix 21
print "seeds:6478557"
seeds:6478557
