LAMMPS (10 Feb 2015)
# ---- initialize simulations
clear
units metal
dimension 3
boundary p p p
atom_style charge
atom_modify map array
# ---- create atoms
read_data /Users/eugeneragasa/pyflamestk_git/pypospack/tests/tests_integration/workflow/WorkflowLammpsThermalExpansion/param_2632/MgO_NaCl_unit.npt.T1100/lammps.structure
  triclinic box = (0 0 0) to (4.2565 4.2565 4.2565) with tilt (0 0 0)
  1 by 1 by 1 MPI processor grid
  reading atoms ...
  8 atoms
# ---- define interatomic potential
include potential.mod
mass 1 24.305
mass 2 15.999

group Mg type 1
4 atoms in group Mg
group O type 2
4 atoms in group O

set group Mg charge 1.63285961235
  4 settings made for charge
set group O charge -1.63285961235
  4 settings made for charge

variable R_cut equal 10.0

pair_style buck/coul/long ${R_cut}
pair_style buck/coul/long 10
pair_coeff 1 1 0.0 0.5 0.0 ${R_cut}
pair_coeff 1 1 0.0 0.5 0.0 10
pair_coeff 1 2 1437.07173936 0.281984725072 0.0 ${R_cut}
pair_coeff 1 2 1437.07173936 0.281984725072 0.0 10
pair_coeff 2 2 17907.6681412 0.158842179647 12.0518239093 ${R_cut}
pair_coeff 2 2 17907.6681412 0.158842179647 12.0518239093 10

kspace_style pppm 1.0e-5

neighbor 1.0 bin
neigh_modify every 1 delay 0 check yes
# ---- define settings
compute eng all pe/atom
compute eatoms all reduce sum c_eng
# ---- run minimization
reset_timestep 0
fix 1 all box/relax iso 0.0 vmax 0.001
thermo 10
thermo_style custom step pe lx ly lz xy xz yz press pxx pyy pzz pxy pxz pyz c_eatoms
min_style cg
minimize 1e-25 1e-25 5000 10000
PPPM initialization ...
  G vector (1/distance) = 0.352629
  grid = 8 8 8
  stencil order = 5
  estimated absolute RMS force accuracy = 3.86465e-05
  estimated relative force accuracy = 2.68385e-06
  using double precision FFTs
  3d grid and FFT values/proc = 3375 512
Neighbor list info ...
  1 neighbor list requests
  update every 1 steps, delay 0 steps, check yes
  master list distance cutoff = 11
Memory usage per processor = 4.06549 Mbytes
Step PotEng Lx Ly Lz Xy Xz Yz Press Pxx Pyy Pzz Pxy Pxz Pyz eatoms 
       0   -108.26668       4.2565       4.2565       4.2565            0            0            0     68174.25     68174.25     68174.25     68174.25 -1.8708973e-11 1.9918278e-11 -1.4539535e-10   -108.26668 
      10   -108.32672     4.299065     4.299065     4.299065            0            0            0    15974.818    15974.818    15974.818    15974.818 2.7247293e-10 7.4247233e-11 1.7340321e-10   -108.32672 
      14   -108.33064    4.3118345    4.3118345    4.3118345            0            0            0    1605.1095    1605.1095    1605.1095    1605.1095 -5.9694499e-11 -6.7982128e-11 4.9253128e-12   -108.33064 
Loop time of 0.0153971 on 1 procs for 14 steps with 8 atoms

Minimization stats:
  Stopping criterion = linesearch alpha is zero
  Energy initial, next-to-last, final = 
        -108.266678614      -108.33063925      -108.33063925
  Force two-norm initial, final = 9.8444 0.23785
  Force max component initial, final = 9.8444 0.237844
  Final line search alpha, max atom move = 1.28309e-07 3.05176e-08
  Iterations, force evaluations = 14 44

Pair  time (%) = 0.00415659 (26.996)
Kspce time (%) = 0.0024693 (16.0375)
Neigh time (%) = 0 (0)
Comm  time (%) = 0.000492334 (3.19758)
Outpt time (%) = 1.88351e-05 (0.122329)
Other time (%) = 0.00826001 (53.6466)

Nlocal:    8 ave 8 max 8 min
Histogram: 1 0 0 0 0 0 0 0 0 0
Nghost:    2189 ave 2189 max 2189 min
Histogram: 1 0 0 0 0 0 0 0 0 0
Neighs:    2344 ave 2344 max 2344 min
Histogram: 1 0 0 0 0 0 0 0 0 0

Total # of neighbors = 2344
Ave neighs/atom = 293
Neighbor list builds = 0
Dangerous builds = 0
unfix 1
# ---- define output variables ----
variable natoms equal "count(all)"
variable tot_energy equal "c_eatoms"
variable length_x equal "lx"
variable length_y equal "ly"
variable length_z equal "lz"
variable tilt_xy equal "xy"
variable tilt_xz equal "xz"
variable tilt_yz equal "yz"
variable tot_press equal "press"
variable press_xx equal "pxx"
variable press_yy equal "pyy"
variable press_zz equal "pzz"
variable press_xy equal "pxy"
variable press_xz equal "pxz"
variable press_yz equal "pyz"

# ---- output ----
print "pypospack:output_section:begin"
pypospack:output_section:begin
print "tot_energy = ${tot_energy}"
tot_energy = -108.330639250266
print "num_atoms = ${natoms}"
num_atoms = 8
print "xx = ${length_x}"
xx = 4.3118345
print "yy = ${length_y}"
yy = 4.3118345
print "zz = ${length_z}"
zz = 4.3118345
print "xy = ${tilt_xy}"
xy = 0
print "xz = ${tilt_xz}"
xz = 0
print "yz = ${tilt_yz}"
yz = 0
print "tot_press = ${tot_press}"
tot_press = 1605.10951764203
print "pxx = ${press_xx}"
pxx = 1605.10951764176
print "pyy = ${press_yy}"
pyy = 1605.10951764198
print "pzz = ${press_zz}"
pzz = 1605.10951764233
print "pxy = ${press_xy}"
pxy = -5.96944985898881e-11
print "pxz = ${press_xz}"
pxz = -6.79821282837662e-11
print "pyz = ${press_yz}"
pyz = 4.92531279854496e-12
print "pypospack:output_section:done"
pypospack:output_section:done
print "pypospack:lammps_sim:done"
pypospack:lammps_sim:done
#------------------------------------------------------------------------------
# RUN THERMOSTAT
# running using an NPT Nose-Hoover style thermostat
#------------------------------------------------------------------------------
variable tempdamp equal 0.1
variable pressdamp equal 1.0
# set initial velocities
velocity all create 1100 6381015 mom yes dist gaussian loop all
# fix for Nose-Hoover style thermostat
fix 20 all npt temp 1100 1100 0.1 aniso 0.0 0.0 1.0 drag 1.0 couple xyz
variable boxx equal lx
variable boxy equal ly
variable boxz equal lz
variable boxp equal press
variable boxt equal temp
# calculate averages every 10000 steps
reset_timestep 0
fix 21 all ave/time 10 10 100 v_boxx v_boxy v_boxz v_boxp v_boxt file lattice.out
thermo_style custom step temp pe ke etotal press lx ly lz press pxx pyy pzz pxy pxz pyz vol
thermo_modify flush yes
thermo 100
run 100000
PPPM initialization ...
  G vector (1/distance) = 0.352078
  grid = 8 8 8
  stencil order = 5
  estimated absolute RMS force accuracy = 3.96373e-05
  estimated relative force accuracy = 2.75266e-06
  using double precision FFTs
  3d grid and FFT values/proc = 3375 512
Memory usage per processor = 3.06549 Mbytes
Step Temp PotEng KinEng TotEng Press Lx Ly Lz Press Pxx Pyy Pzz Pxy Pxz Pyz Volume 
       0         1100   -108.33065   0.99530312   -107.33535     14864.92    4.3118345    4.3118345    4.3118345     14864.92    13978.551    14879.713    15736.496    7482.5467   -3213.8981    1686.9129    80.165268 
     100    290.76661   -107.46975   0.26309174   -107.20666    23002.207     4.334208     4.334208     4.334208    23002.207    31247.581    18607.478    19151.561    -13919.53    7500.3356   -1662.5161    81.419651 
     200    722.26176    -107.5807   0.65351761   -106.92718   -29901.663    4.3643674    4.3643674    4.3643674   -29901.663   -22741.689   -25993.494   -40969.806   -10190.972    5367.8894    10335.338    83.131176 
     300    1003.4929   -107.61024   0.90798144   -106.70226    11146.693    4.3386006    4.3386006    4.3386006    11146.693    40485.163    9120.5378   -16165.621     468.0792    336.35971   -4103.7215    81.667451 
     400    705.47781    -107.1564   0.63833115   -106.51806     20176.79    4.3284055    4.3284055    4.3284055     20176.79   -111.11268    20907.425    39734.057   -27363.979    19649.958    1734.7062    81.093086 
     500    1401.0897    -107.6597    1.2677354   -106.39196   -14630.627    4.3671951    4.3671951    4.3671951   -14630.627   -28312.956   -6733.3528   -8845.5723    1280.3587   -2292.2704    10641.255    83.292859 
     600    1214.6592   -107.42282    1.0990492   -106.32377   -4227.1318    4.3629578    4.3629578    4.3629578   -4227.1318    1273.4646    7520.5471   -21475.407   -9948.3029   -6733.2269   -11068.103    83.050652 
     700    613.55527   -106.85755    0.5551577   -106.30239    10446.596    4.3451619    4.3451619    4.3451619    10446.596   -22872.713    32373.233    21839.269   -13689.992    18083.222    4733.6966    82.038534 
     800     1404.196   -107.57296    1.2705461   -106.30241   -240.92637    4.3524574    4.3524574    4.3524574   -240.92637    17585.869   -4674.0655   -13634.583    12611.828   -12113.398   -3055.9659    82.452451 
     900    1162.6935   -107.36487    1.0520295   -106.31284   -14529.504    4.3656894    4.3656894    4.3656894   -14529.504    -20048.09   -20581.274   -2959.1472   -17118.902    141.71782   -2084.7297    83.206737 
    1000     1068.247   -107.28255   0.96657235   -106.31598   -17341.598    4.3558111    4.3558111    4.3558111   -17341.598   -19080.726   -26600.562   -6343.5052   -2576.6246    12810.889    8483.5593    82.643199 
    1100    1226.1101   -107.41593    1.1094102   -106.30652    20544.139    4.3382687    4.3382687    4.3382687    20544.139    31919.436    44494.473   -14781.494   -74.502914   -5109.4656    1128.0492    81.648715 
    1200     890.1695   -107.14249   0.80544407   -106.33705   -21586.297    4.3658551    4.3658551    4.3658551   -21586.297     -29458.6   -29448.361   -5851.9311    -19470.15     17934.79     564.0867    83.216217 
    1300     936.6529   -107.16745   0.84750323   -106.31995   -11918.364    4.3708943    4.3708943    4.3708943   -11918.364   -20004.214   -5070.1166    -10680.76   -5766.1999    2422.7232    21455.297    83.504696 
    1400    1576.5092   -107.72808    1.4264587   -106.30162    20634.799    4.3277877    4.3277877    4.3277877    20634.799    7956.8855    36107.625    17839.888     -613.214    6698.7148     2408.558    81.058367 
    1500    864.11077   -107.11713   0.78186559   -106.33527    3733.9991    4.3430926    4.3430926    4.3430926    3733.9991   -30057.796    30032.759    11227.035   -23566.703    22133.709    14011.035    81.921382 
    1600    1084.5667   -107.29604    0.9813387    -106.3147   -16932.244    4.3750688    4.3750688    4.3750688   -16932.244   -4505.9204   -15213.784   -31077.027    3363.2226   -10263.505     20751.35    83.744188 
    1700    1140.1919   -107.33678    1.0316696   -106.30511   -11224.386    4.3572448    4.3572448    4.3572448   -11224.386    -11059.98   -20683.544   -1929.6339    1629.5853    23386.086   -3994.1318    82.724829 
    1800    917.91736   -107.13967   0.83055092   -106.30912    17314.274    4.3462427    4.3462427    4.3462427    17314.274   -6632.5894    40745.836    17829.577   -11982.499    11860.921      15338.4    82.099765 
    1900    1588.2086   -107.74783    1.4370445   -106.31078    3974.3291    4.3500688    4.3500688    4.3500688    3974.3291    10567.113    6155.3517   -4799.4777    15036.678   -3512.4282   -5962.7172     82.31678 
    2000     750.1784   -107.00775   0.67877718   -106.32897    1413.3896    4.3624389    4.3624389    4.3624389    1413.3896   -8648.7524    36469.084   -23580.163   -11178.108    15596.076    6834.5852    83.021021 
    2100    1086.8564    -107.3082   0.98341052   -106.32479   -27289.617    4.3612914    4.3612914    4.3612914   -27289.617   -14407.017   -51931.864    -15529.97    4480.8291   -1113.2603    26974.994    82.955524 
    2200    1162.2034   -107.36425    1.0515861   -106.31267    20901.169    4.3283935    4.3283935    4.3283935    20901.169    12222.045    8778.9327     41702.53    5172.2319    8589.4714   -7586.1451    81.092409 
    2300    969.00142    -107.2194   0.87677285   -106.34263   -3961.0762    4.3514449    4.3514449    4.3514449   -3961.0762   -7821.5065   -14567.082     10505.36   -4011.2731    12372.952    13196.412    82.394924 
    2400    1039.2127   -107.25753    0.9403015   -106.31723   -13867.648    4.3710064    4.3710064    4.3710064   -13867.648    -22684.77   -1749.9005   -17168.272    10923.749   -5153.6369    10594.039    83.511126 
    2500    1176.5392   -107.36683    1.0645574   -106.30227    4175.6512    4.3421037    4.3421037    4.3421037    4175.6512   -27289.018    30265.105    9550.8659    -5339.282    15675.395   -6775.5387    81.865434 
    2600     964.8975   -107.19046   0.87305954   -106.31741   -10613.738    4.3469746    4.3469746    4.3469746   -10613.738    7018.7174    -20143.69   -18716.242    -1349.199    6780.8822    47416.802    82.141249 
    2700    1136.9303   -107.35556    1.0287184   -106.32684   -4313.0277    4.3599101    4.3599101    4.3599101   -4313.0277   -30324.953    22049.362   -4663.4923    8138.7894    2728.0755   -2026.8993    82.876727 
    2800    1422.9838   -107.61847    1.2875456   -106.33093   -13944.367    4.3504735    4.3504735    4.3504735   -13944.367   -25430.136   -471.63493   -15931.332    -499.0624    12971.822    10401.122    82.339755 
    2900    872.30901   -107.11542   0.78928352   -106.32613    20267.517    4.3357007    4.3357007    4.3357007    20267.517      14259.2    46972.558   -429.20862   -1324.1227   -5720.5686    19689.337    81.503806 
    3000    1057.5588   -107.28621   0.95690146   -106.32931   -3372.7153     4.356652     4.356652     4.356652   -3372.7153   -42454.266    14577.454    17758.667    11896.857    6103.8496   -19166.359    82.691073 
    3100    985.01061   -107.21254    0.8912583   -106.32129   -14937.876     4.361878     4.361878     4.361878   -14937.876   -20667.835   -12377.354   -11768.441   -2815.8496    6908.5405    12706.232    82.989003 
    3200    995.10311   -107.21616   0.90039021   -106.31577    12625.549    4.3380572    4.3380572    4.3380572    12625.549    8897.1288     10338.75    18640.769    5261.4847   -7849.8262    25755.526    81.636771 
    3300    1476.2496   -107.65539    1.3357416   -106.31965   -8947.4827    4.3447831    4.3447831    4.3447831   -8947.4827   -29263.399    3371.8055   -950.85456    4640.3478    12366.748    -10498.33    82.017078 
    3400     731.8663   -106.98491     0.662208    -106.3227   -35974.702    4.3668889    4.3668889    4.3668889   -35974.702   -14383.232   -54022.249   -39518.625   -7492.6824    2318.3808    47106.863    83.275345 
    3500    1090.4081   -107.29507   0.98662413   -106.30845     9755.565    4.3439937    4.3439937    4.3439937     9755.565   -12277.881     18472.75    23071.825    2437.4674    2086.2367   -1662.2607    81.972383 
    3600    1185.5426   -107.38649    1.0727039   -106.31379   -2497.3196    4.3415699    4.3415699    4.3415699   -2497.3196    8779.8911    7412.8787   -23684.729   -877.80943     5219.373    18321.018    81.835246 
    3700    944.12475   -107.17686   0.85426391    -106.3226   -12830.047     4.354008     4.354008     4.354008   -12830.047   -2633.9684    2921.3166    -38777.49   -5138.0865   -3478.8055    33248.198    82.540607 
    3800    1445.2308   -107.61983    1.3076752   -106.31215   -3557.8105    4.3487823    4.3487823    4.3487823   -3557.8105   -5489.4243   -5285.7854    101.77826   -1180.5678    11646.269   -15092.882     82.24377 
    3900    673.85855   -106.93674   0.60972138   -106.32702   -19255.661      4.35826      4.35826      4.35826   -19255.661    15926.925   -46536.016   -27157.892   -2611.5402   -3340.0348    31955.488    82.782668 
    4000    1141.4344   -107.35439    1.0327939   -106.32159    11257.912    4.3476643    4.3476643    4.3476643    11257.912    -14751.89     45301.82    3223.8059    5213.1095    971.73575    -9492.399    82.180354 
    4100    1278.8518   -107.48581    1.1571319   -106.32868   -8358.9282    4.3497987    4.3497987    4.3497987   -8358.9282    8862.4777   -16495.537   -17443.726    7459.7133    6052.0676    24388.681    82.301446 
    4200    854.10542   -107.10538   0.77281253   -106.33257     3664.071    4.3534228    4.3534228    4.3534228     3664.071    9039.4202    24112.822   -22160.029    -9972.979    3527.9048    17270.861    82.507332 
    4300     1385.141    -107.5756    1.2533047    -106.3223    -16255.33    4.3540809    4.3540809    4.3540809    -16255.33   -33462.124    -23255.44     7951.574    19445.584   -492.15905   -14407.652    82.544754 
    4400     927.6812   -107.16927   0.83938544   -106.32988   -22693.188    4.3503828    4.3503828    4.3503828   -22693.188   -16064.454   -35880.593   -16134.518    -5761.943   -5205.3868    41135.136    82.334609 
    4500    897.60325   -107.14258   0.81217029   -106.33041    10284.069     4.347207     4.347207     4.347207    10284.069   -897.40068    37463.837   -5714.2278    8853.8629    5368.8798   -1164.5738    82.154426 
    4600    1361.3691   -107.55895    1.2317953   -106.32715   -19727.706    4.3575603    4.3575603    4.3575603   -19727.706   -23101.464   -15791.406   -20290.248    21718.088   -4274.1309    658.20551    82.742803 
    4700    919.64085    -107.1591   0.83211037   -106.32699   -7295.8517    4.3480237    4.3480237    4.3480237   -7295.8517    -1077.137    1253.8405   -22064.259   -7342.5486   -2424.6734    38892.347    82.200734 
    4800    1118.7308   -107.33097    1.0122511   -106.31872     -6426.49    4.3451283    4.3451283    4.3451283     -6426.49   -8076.5112   -19578.106     8375.147    11880.485    1909.2984   -19934.287     82.03663 
    4900    1000.6793   -107.22548   0.90543565   -106.32005   -34507.674    4.3602109    4.3602109    4.3602109   -34507.674   -15733.792   -49203.297   -38585.933    2842.6346   -5616.4674    36176.782    82.893886 
    5000    936.08633   -107.16719   0.84699058    -106.3202     20497.65    4.3416303    4.3416303    4.3416303     20497.65     6803.705    62844.066   -8154.8209   -9035.0554    1916.3884    12122.084    81.838661 
    5100    1492.4201     -107.673     1.350373   -106.32263    7309.6843    4.3412538    4.3412538    4.3412538    7309.6843    5930.0399    5856.4992    10142.514    13732.685   -683.38156   -2448.5794    81.817372 
    5200    791.58556   -107.04347   0.71624325   -106.32723   -13394.876    4.3643443    4.3643443    4.3643443   -13394.876   -16674.947    18335.692   -41845.372   -5999.9848   -2024.9495    39946.225    83.129853 
    5300     1170.064   -107.37739    1.0586985   -106.31869   -2729.6914     4.343501     4.343501     4.343501   -2729.6914   -12096.206    5528.5462   -1621.4148    974.43273   -1257.3501   -12996.078    81.944494 
    5400    1046.6776    -107.2718   0.94705591   -106.32474     5978.648    4.3372202    4.3372202    4.3372202     5978.648    8631.0139    19191.103    -9886.173    9831.8259   -319.58304    10459.389     81.58953 
    5500    1278.2434   -107.47715    1.1565815   -106.32057   -13943.383    4.3636455    4.3636455    4.3636455   -13943.383   -14103.453    13778.997   -41505.694   -7297.8398    647.14189    23773.579     83.08993 
    5600    1387.6639   -107.57325    1.2555875   -106.31766   -18132.216    4.3476297    4.3476297    4.3476297   -18132.216   -22943.594   -22112.424   -9340.6285     13453.07   -7259.3382   -20310.704    82.178391 
    5700    575.98984   -106.84554   0.52116771   -106.32438    23546.752    4.3329309    4.3329309    4.3329309    23546.752    24509.936    50186.715   -4056.3957   -2010.2475    -3295.298    29176.164    81.347702 
    5800    1208.9764   -107.42392    1.0939072   -106.33001   -9052.5469    4.3514155    4.3514155    4.3514155   -9052.5469   -19307.156    13801.682   -21652.167    230.21082    2418.1867   -3325.6054    82.393255 
    5900    1093.3007   -107.31962   0.98924148   -106.33038   -14984.861      4.35761      4.35761      4.35761   -14984.861   -30481.504   -15729.444    1256.3635    6738.7542   -6249.5559    3580.1256    82.745631 
    6000    1176.1805   -107.38537    1.0642329   -106.32114    18076.242     4.338565     4.338565     4.338565    18076.242    9380.9769    64312.215   -19464.467   -7960.7735    1585.1191    21049.876    81.665442 
    6100    1164.6774   -107.38953    1.0538246   -106.33571   -324.81849    4.3456561    4.3456561    4.3456561   -324.81849   -32141.538    11741.642    19425.441   -10913.988    1659.0981    -4114.821    82.066531 
    6200    1161.0617   -107.38946     1.050553   -106.33891   -15941.646     4.358042     4.358042     4.358042   -15941.646   -30768.421    -5803.028   -11253.489    5727.6795   -6861.3096   -7073.0469    82.770243 
    6300    751.62222   -107.01974   0.68008358   -106.33966   -9041.4962    4.3539759    4.3539759    4.3539759   -9041.4962   -25365.793    26690.837   -28449.533   -7340.4143    13009.511    17909.962    82.538786 
    6400    1258.9266   -107.47357    1.1391032   -106.33447    7796.8908    4.3427033    4.3427033    4.3427033    7796.8908   -15154.852    20159.401    18386.124   -8650.7454   -3462.5376   -7182.0956    81.899354 
    6500    1436.3356   -107.63532    1.2996266   -106.33569   -13649.871     4.358406     4.358406     4.358406   -13649.871   -7402.0803   -16447.391   -17100.144    2950.8244   -1864.6556   -53.056242    82.790987 
    6600    1069.5639   -107.30848   0.96776392   -106.34071   -6613.6411    4.3562003    4.3562003    4.3562003   -6613.6411   -33040.286    32225.215   -19025.852   -25657.175    11621.094    14465.201    82.665355 
    6700    856.68841   -107.11911   0.77514967   -106.34396    26300.743    4.3520556    4.3520556    4.3520556    26300.743   -14399.037    86559.877    6741.3881    2584.1318   -4126.7032   -9249.9855     82.42962 
    6800    651.21604   -106.94644   0.58923396    -106.3572   -3995.6034    4.3607798    4.3607798    4.3607798   -3995.6034   -19124.684    38013.379   -30875.505   -6397.4398    5616.2598   -1190.2709    82.926337 
    6900    1227.0827   -107.46822    1.1102902   -106.35793    -2518.493    4.3548829    4.3548829    4.3548829    -2518.493   -35971.981    26547.266    1869.2357   -15455.658   -83.449552   -4333.0668    82.590378 
    7000    1627.7538   -107.82042    1.4728259   -106.34759   -14029.326    4.3582784    4.3582784    4.3582784   -14029.326   -28344.494    3906.6665   -17650.152    4787.9455    8779.8672    7017.4734    82.783712 
    7100     773.7822   -107.04925    0.7001344   -106.34912   -12299.365    4.3587179    4.3587179    4.3587179   -12299.365   -34646.966    18730.409   -20981.538   -22069.552    8882.3926    5294.8568     82.80876 
    7200    872.85025   -107.13428   0.78977325   -106.34451    18296.915    4.3473719    4.3473719    4.3473719    18296.915   -21934.407     68784.11    8041.0425   -53.120146   -7022.2976    2870.1494    82.163774 
    7300    1053.9546   -107.30865   0.95364028   -106.35501    9454.6783    4.3533099    4.3533099    4.3533099    9454.6783   -28564.123    41561.219    15366.938    7798.2745    14307.857   -6808.9782    82.500911 
    7400    1258.1851   -107.48416    1.1384323   -106.34573   -20318.981    4.3572402    4.3572402    4.3572402   -20318.981   -33315.376    -30827.62    3186.0541   -22667.659    5398.2699    7156.2308    82.724565 
    7500    1049.2646   -107.28275   0.94939669   -106.33335    4975.7424     4.348946     4.348946     4.348946    4975.7424   -32456.007    32318.109    15065.126    13939.681   -480.25384    5221.8135    82.253055 
    7600    863.34611   -107.11245   0.78117371   -106.33128   -4443.4767    4.3509849    4.3509849    4.3509849   -4443.4767   -39275.944    49990.404    -24044.89     -11224.5    16977.162   -15601.577      82.3688 
    7700    1429.8043   -107.61622     1.293717   -106.32251   -14257.931    4.3534747    4.3534747    4.3534747   -14257.931   -22123.903   -10745.548   -9904.3425   -11513.819   -5112.7284    18467.092    82.510281 
    7800    990.05255   -107.21927   0.89582035   -106.32345   -2475.4533    4.3530416    4.3530416    4.3530416   -2475.4533   -46986.848    37600.498    1959.9896    20185.214    12772.848   -8539.3427    82.485662 
    7900     1377.146   -107.56591    1.2460707   -106.31984   -6491.5252      4.34265      4.34265      4.34265   -6491.5252   -34793.704    10810.957    4508.1715   -22722.783    483.91658    16193.293     81.89634 
    8000      931.471   -107.17448   0.84281453   -106.33167   -13094.308    4.3617401    4.3617401    4.3617401   -13094.308   -33896.292   -18689.914     13303.28    16523.284    601.77519   -4325.1386    82.981132 
    8100    822.44929   -107.07336    0.7441694   -106.32919   -7071.3969    4.3607172    4.3607172    4.3607172   -7071.3969   -60965.061    33372.346    6378.5239    6641.4586      19771.3    4110.8816    82.922761 
    8200    1686.1903   -107.84018    1.5257004   -106.31448    6874.7327    4.3366253    4.3366253    4.3366253    6874.7327   -12683.053    4339.0505      28968.2   -10325.674   -8322.4219    2714.2455    81.555961 
    8300    628.70502   -106.90595   0.56886552   -106.33709    2962.2513    4.3473392    4.3473392    4.3473392    2962.2513    -43357.58    29598.101    22646.233    24848.486    11961.945    12441.293    82.161921 
    8400     1239.675   -107.44669     1.121684     -106.325   -20097.641    4.3600092    4.3600092    4.3600092   -20097.641   -42663.699   -11044.323   -6584.9001   -5177.4625    2076.0611   -9792.8458    82.882378 
    8500    1140.9817   -107.35208    1.0323842   -106.31969   -9069.8154    4.3543057    4.3543057    4.3543057   -9069.8154   -20610.508   -2612.2077   -3986.7307    6035.8818    3035.1807    6335.3963    82.557541 
    8600    893.75908    -107.1311     0.808692   -106.32241    2334.5496    4.3432121    4.3432121    4.3432121    2334.5496   -26461.179    15940.331    17524.497    16476.809    13694.057     10805.13    81.928146 
    8700    1510.4952   -107.68285    1.3667278   -106.31612   -5919.9452    4.3539949    4.3539949    4.3539949   -5919.9452   -35593.878    4637.8217    13196.221   -8998.3896    124.28588   -7461.0707    82.539862 
    8800      782.421   -107.03417   0.70795097   -106.32622   -8345.4855    4.3521803    4.3521803    4.3521803   -8345.4855   -33985.936   -14740.793    23690.273    20368.343    7334.1473    7651.2609    82.436708 
    8900    1116.8175   -107.33263    1.0105199   -106.32211     20709.92    4.3420463    4.3420463    4.3420463     20709.92   -7887.8321     38001.34    32016.252   -3273.9278    18620.007    8786.5474    81.862187 
    9000    1238.7613   -107.44267    1.1208573   -106.32181   -8455.9305    4.3621713    4.3621713    4.3621713   -8455.9305   -52428.373    8757.5045    18303.077    7074.3911   -6643.8303   -4204.2103    83.005746 
    9100    873.49789   -107.11794   0.79035925   -106.32758   -6388.9725     4.345687     4.345687     4.345687   -6388.9725   -41874.743    5153.0679    17554.758     19090.81    15458.382    -1970.988    82.068279 
    9200     1145.892   -107.36012    1.0368272   -106.32329    18640.939    4.3455277    4.3455277    4.3455277    18640.939   -16054.688    13622.544     58354.96   -12162.442     7272.129    9123.6997    82.059254 
    9300    1279.7431    -107.4768    1.1579384   -106.31886   -29099.001    4.3634021    4.3634021    4.3634021   -29099.001   -39232.463   -42138.382   -5926.1592    23336.834    -1026.443   -17495.183    83.076025 
    9400    744.81493   -106.99243   0.67392421    -106.3185    29338.107    4.3400946    4.3400946    4.3400946    29338.107   -26265.677    30523.425    83756.573   -980.85429    18198.923    6121.5268     81.75185 
    9500    1378.8891   -107.57117    1.2476478   -106.32352   -15183.317    4.3500581    4.3500581    4.3500581   -15183.317   -31063.646   -16883.711     2397.407   -6402.7884   -10619.959    4502.6869    82.316171 
    9600    1083.2727   -107.30181   0.98016786   -106.32164    20455.569     4.348025     4.348025     4.348025    20455.569   -18254.752    16594.779    63026.679    13278.396    9268.8123   -14942.224    82.200812 
    9700    1081.9812   -107.30251   0.97899934   -106.32351    4504.1178    4.3542508    4.3542508    4.3542508    4504.1178   -8221.8135    20276.889    1457.2776   -6074.9321    12299.888    6356.9956     82.55442 
    9800    1326.4344   -107.51457    1.2001857   -106.31438   -10947.962    4.3563111    4.3563111    4.3563111   -10947.962   -31504.954   -7512.4458    6173.5147    1711.6604   -11296.583   -3325.6686    82.671661 
    9900    807.16605   -107.04474   0.73034081    -106.3144    33680.031    4.3325081    4.3325081    4.3325081    33680.031   -20531.522    57191.834     64379.78    4375.1298     18854.77   -7709.3566    81.323892 
   10000     1212.963   -107.42347    1.0975144   -106.32595   -12978.713    4.3553291    4.3553291    4.3553291   -12978.713   -17021.111   -17990.251   -3924.7773   -9326.3808    3147.6732   -2623.3429    82.615763 
   10100    1307.4489    -107.4969    1.1830072   -106.31389     670.6344    4.3551245    4.3551245    4.3551245     670.6344    -17924.56   -3497.1518    23433.615     1790.789   -57.917895     2155.999    82.604126 
   10200    746.14761   -106.99546   0.67513004   -106.32033   -1671.5313    4.3390978    4.3390978    4.3390978   -1671.5313   -39383.695    26518.886    7850.2158   -5116.5385    19417.325   -11958.494    81.695535 
   10300    1164.9964   -107.37647    1.0541132   -106.32236   -183.11937    4.3443007    4.3443007    4.3443007   -183.11937   -33575.473   -9499.9419    42526.057   -21174.261   -8271.3175    1201.6596    81.989766 
   10400    1229.5152   -107.43456    1.1124912   -106.32207   -9556.0643    4.3612498    4.3612498    4.3612498   -9556.0643   -42413.729    28375.877   -14630.341    8080.9968     17872.11   -2626.7639    82.953152 
   10500    1072.9148   -107.29198   0.97079588   -106.32118   -22160.643    4.3509616    4.3509616    4.3509616   -22160.643   -32323.657   -19853.863    -14304.41   -25018.652   -4124.4671   -4144.3606    82.367475 
   10600      894.158   -107.12381   0.80905295   -106.31476    28932.708    4.3306527    4.3306527    4.3306527    28932.708    -16989.25    54361.028    49426.346   -3683.9341    4151.9065    11531.048    81.219455 
   10700    1119.0618   -107.33843    1.0125506   -106.32588   -15938.288    4.3478591    4.3478591    4.3478591   -15938.288   -46949.159    22028.662   -22894.367   -2411.1903    23463.484   -2436.6308    82.191401 
   10800     859.4378   -107.10243   0.77763738   -106.32479    10397.142    4.3534978    4.3534978    4.3534978    10397.142   -9474.3691    32126.294    8539.5004   -18294.501   -10737.287   -8780.4031    82.511597 
   10900    1539.7349   -107.70707    1.3931845   -106.31388   -9931.6769    4.3524498    4.3524498    4.3524498   -9931.6769   -22134.766    8403.5969   -16063.861    6610.3855    24233.532   -3239.8367    82.452022 
   11000    899.70566   -107.12789   0.81407259   -106.31382    3868.2555    4.3448552    4.3448552    4.3448552    3868.2555   -27232.417    35063.557    3773.6269   -16003.218    7057.6585   -5830.0471    82.021166 
   11100    947.55091   -107.17217   0.85736398   -106.31481    11258.184    4.3359366    4.3359366    4.3359366    11258.184   -7405.0816    10936.738    30242.894    -3433.387    4910.1984   -15418.197     81.51711 
   11200    1276.4245   -107.48049    1.1549357   -106.32556   -20325.109    4.3590346    4.3590346    4.3590346   -20325.109   -46319.657    7521.1213   -22176.791    12165.532     21106.41   -3359.8923    82.826814 
   11300    1076.7788   -107.29244   0.97429205   -106.31815    7029.7539    4.3544817    4.3544817    4.3544817    7029.7539   -17011.804    13016.654    25084.411   -7532.6934   -7658.0839   -13408.536     82.56755 
   11400    1025.8054     -107.245   0.92817025   -106.31683   -2821.4978    4.3385439    4.3385439    4.3385439   -2821.4978   -9084.5352   -1254.6719    1874.7139    14442.947    13806.856   -17926.179    81.664253 
   11500    905.52772   -107.14087   0.81934051   -106.32153   -10778.576    4.3520372    4.3520372    4.3520372   -10778.576   -51440.112    18733.955    370.42896    3355.7008    4060.3095    17241.808    82.428574 
   11600     1131.501   -107.33897    1.0238058   -106.31517    8249.2302    4.3440409    4.3440409    4.3440409    8249.2302   -845.71381    15062.936    10530.468   -9168.1425   -6429.9351   -13838.556    81.975053 
   11700    1248.1317   -107.44621    1.1293358   -106.31687   -12642.656    4.3540443    4.3540443    4.3540443   -12642.656   -8803.9954   -27075.888   -2048.0855    20432.221    17312.102   -263.54618    82.542673 
   11800    1102.4681   -107.30866   0.99753633   -106.31112   -5285.1253    4.3525099    4.3525099    4.3525099   -5285.1253   -32053.382    16059.765    138.24174   -11431.723   -5869.5833    10280.137    82.455438 
   11900     824.7907   -107.05772   0.74628796   -106.31143    15619.852    4.3328509    4.3328509    4.3328509    15619.852   -5833.4382    8647.7685    44045.225   -3254.6136    7422.5612   -29596.431    81.343199 
   12000    1274.4301   -107.47255    1.1531311   -106.31942    -6925.072    4.3552002    4.3552002    4.3552002    -6925.072   -12689.334    3820.6165   -11906.499    7743.4261    11386.621    15528.607    82.608431 
   12100    1042.6193   -107.25643   0.94338388   -106.31304   -59.960239    4.3555687    4.3555687    4.3555687   -59.960239   -11659.425     4174.909     7304.635   -13710.702   -3462.0214   -4941.6426    82.629401 
   12200    1047.9412    -107.2596   0.94819925    -106.3114   -14240.599    4.3403478    4.3403478    4.3403478   -14240.599   -10826.669   -30091.575   -1803.5525    4635.0698    11385.971   -27345.611    81.766161 
   12300    1175.5922   -107.37782    1.0637005   -106.31412    15598.448    4.3384618    4.3384618    4.3384618    15598.448   -3500.0444    23526.913    26768.475   -4210.4778   -1308.5468    20561.548    81.659616 
   12400    1019.7638   -107.25164   0.92270371   -106.32894   -5571.7232    4.3540615    4.3540615    4.3540615   -5571.7232   -17589.866   -10693.449    11568.146    2217.2707   -1619.0873   -34631.954    82.543652 
   12500    1232.0057   -107.43544    1.1147447    -106.3207   -22473.416    4.3618809    4.3618809    4.3618809   -22473.416   -33697.583   -18827.913   -14894.751    3823.8806    4900.5592    -6930.071    82.989167 
   12600    1050.2462    -107.2618   0.95028483   -106.31151    43845.133    4.3245232    4.3245232    4.3245232    43845.133    28468.209    49373.098    53694.093   -3072.4961    -11930.55    6332.2987    80.875073 
   12700    811.73575    -107.0676   0.73447556   -106.33312   -15820.929    4.3428833    4.3428833    4.3428833   -15820.929   -13045.079   -18954.707       -15463    5560.0813    13015.671   -35803.046    81.909536 
   12800    1279.8586   -107.46944     1.158043    -106.3114   -20618.902    4.3615496    4.3615496    4.3615496   -20618.902   -45670.682   -907.66024   -15278.365    6786.2175    824.00235    8493.5733    82.970259 
   12900    1243.3983   -107.43613    1.1250529   -106.31108    3599.6931    4.3363108    4.3363108    4.3363108    3599.6931    18757.653   -8437.4417    478.86764   -4002.1195   -2930.8173   -20520.774    81.538218 
   13000     943.6386   -107.17618   0.85382403   -106.32235   -8278.4813    4.3430141    4.3430141    4.3430141   -8278.4813   -9698.1844   -32822.821    17685.562    7502.0823    14451.942   -18671.774    81.916938 
   13100    1263.3023   -107.46055    1.1430625   -106.31749    1209.5027    4.3493932    4.3493932    4.3493932    1209.5027   -24266.562    4417.9559    23477.115   -1826.1332   -9165.0974    9916.0044    82.278431 
   13200    798.75128   -107.04493   0.72272695    -106.3222   -15657.527    4.3593257    4.3593257    4.3593257   -15657.527   -4663.6941   -18929.601   -23379.285   -1927.3358    6835.7045   -31853.993    82.843405 
   13300    1498.7712   -107.66306    1.3561197   -106.30694   -3169.3778    4.3441887    4.3441887    4.3441887   -3169.3778     1211.962   -2165.8345   -8554.2608    9151.2623   -482.90872    2595.9419    81.983421 
   13400    898.56978   -107.12822   0.81304482   -106.31517    21046.491    4.3340181    4.3340181    4.3340181    21046.491    18081.559    13532.949    31524.965   -7938.4361   -20457.193   -19206.071     81.40895 
   13500    1083.9014   -107.30055   0.98073679   -106.31981   -16398.468     4.353462     4.353462     4.353462   -16398.468    593.46663   -51175.024    1386.1532    7848.7516    12961.492   -21693.367    82.509562 
   13600    1178.6798   -107.37845    1.0664943   -106.31196    13136.093    4.3489633    4.3489633    4.3489633    13136.093   -24969.888    4802.5833    59575.582    81.097382   -12615.244    9133.6609    82.254037 
   13700    1070.0719   -107.29066   0.96822354   -106.32244   -13271.945    4.3419257    4.3419257    4.3419257   -13271.945    16096.013   -24523.522   -31388.326   -2070.5416   -5402.1978    -29627.49    81.855368 
   13800     1180.294   -107.38891    1.0679548   -106.32095    12270.104    4.3446708    4.3446708    4.3446708    12270.104    3537.0987   -14828.509    48101.722    1908.8633    6494.3864    8554.4546    82.010719 
   13900     1149.765   -107.36505    1.0403316   -106.32472   -13637.263    4.3493439    4.3493439    4.3493439   -13637.263   -27363.596   -27613.017    14064.825    1228.4675   -18897.671   -7655.5426    82.275638 
   14000    773.76143   -107.02621   0.70011561    -106.3261    14382.543    4.3406856    4.3406856    4.3406856    14382.543    9601.7259   -30.047401    33575.949   -2983.1819   -3656.7502   -23017.542    81.785249 
   14100    1600.3989   -107.76869    1.4480746   -106.32062   -4076.7706    4.3450039    4.3450039    4.3450039   -4076.7706   -14531.844   -4557.6849     6859.217    2824.9878   -12798.834     5448.677    82.029582 
   14200    1010.8245    -107.2369   0.91461524   -106.32228   -13754.298    4.3557184    4.3557184    4.3557184   -13754.298   -15778.725   -9823.2326   -15660.938     4046.841   -17898.931   -24988.434    82.637921 
   14300    1056.3985   -107.26736   0.95585155   -106.31151   -3699.8432    4.3468225    4.3468225    4.3468225   -3699.8432   -8366.5522   -37307.581    34574.604    1262.7021   -1229.5645    943.73558    82.132626 
   14400    1170.2293   -107.37138    1.0588481   -106.31253    5181.4855    4.3457651    4.3457651    4.3457651    5181.4855   -2452.7847   -23386.791    41384.032    2894.8466   -13476.686    3763.4508    82.072704 
   14500    1218.0744   -107.42009    1.1021393   -106.31795    -15663.08     4.352002     4.352002     4.352002    -15663.08   -16459.041   -27970.159   -2560.0416    2069.0586   -8872.8791   -24315.458    82.426576 
   14600    1015.3746   -107.23854   0.91873223    -106.3198   -8658.1755    4.3463232    4.3463232    4.3463232   -8658.1755   -3808.8983   -27858.657    5693.0289    9004.0084    6989.7723    16300.467    82.104329 
   14700    1056.2003   -107.27208   0.95567223   -106.31641   -7524.4235    4.3434519    4.3434519    4.3434519   -7524.4235    1327.1276    -31742.04    7841.6418   -4960.7135   -16532.245   -7854.5862    81.941714 
   14800    1128.7168    -107.3375    1.0212867   -106.31621   -14271.286    4.3467699    4.3467699    4.3467699   -14271.286   -12001.319   -13643.769    -17168.77    11152.229    2514.8957   -9459.4798    82.129648 
   14900    1188.6482   -107.39328    1.0755139   -106.31776    4171.3282    4.3451321    4.3451321    4.3451321    4171.3282   -1685.1007   -17279.253    31478.338     8826.932    1470.5775    20203.755    82.036847 
   15000    1276.0381   -107.47049     1.154586   -106.31591   -7364.9498    4.3522353    4.3522353    4.3522353   -7364.9498    1503.1944   -12811.623   -10786.421   -13062.763   -9993.4542   -15877.758    82.439834 
   15100    763.75996   -107.01255   0.69106606   -106.32148   -7105.5973    4.3430579    4.3430579    4.3430579   -7105.5973    2639.7502   -39909.055    15952.513    21740.079    -3586.614    12214.057    81.919417 
   15200    932.87161    -107.1689   0.84408183   -106.32482    13546.252    4.3368225    4.3368225    4.3368225    13546.252    46912.025   -24452.487    18179.218   -11543.933    65.603478    10411.235    81.567085 
   15300    1522.5783   -107.69591    1.3776608   -106.31825   -6705.9586    4.3540603    4.3540603    4.3540603   -6705.9586    4672.0308   -7462.5401   -17327.366    5154.7333   -10307.685     -8032.26    82.543583 
   15400    976.59279   -107.20564   0.88364168     -106.322   -866.52471    4.3417631    4.3417631    4.3417631   -866.52471    23773.342    -34163.25    7790.3347    11372.341    5228.2944    21626.985    81.846171 
   15500    1104.5266   -107.31772    0.9993989   -106.31832    534.28868    4.3368561    4.3368561    4.3368561    534.28868    29842.615   -36031.785    7792.0357   -22097.703   -7523.8854    1523.8845    81.568981 
   15600    1242.3989   -107.44488    1.1241486   -106.32073    -2257.846     4.349195     4.349195     4.349195    -2257.846    23655.201   -9463.5252   -20965.214    13894.319   -598.48219    1652.9004    82.267185 
   15700    984.29742   -107.21826   0.89061299   -106.32765   -9645.0391    4.3526164    4.3526164    4.3526164   -9645.0391    4735.3263    -27739.46   -5930.9831   -7129.2931   -1088.5869    1087.1849    82.461491 
   15800    1289.5537   -107.48425    1.1668153   -106.31743    12284.453    4.3428018    4.3428018    4.3428018    12284.453     31620.93     2652.783    2579.6464   -10749.502    6603.8738   -2822.5334    81.904925 
   15900    1099.7058   -107.31174   0.99503694    -106.3167    19489.564    4.3327966    4.3327966    4.3327966    19489.564    57430.857   -5412.6972    6450.5329    9616.1682   -399.16156    10325.883    81.340141 
   16000    760.09864   -107.01788   0.68775322   -106.33013    -14853.42    4.3580938    4.3580938    4.3580938    -14853.42     3446.302   -54562.201    6555.6392   -27326.051     6481.853   -7019.0324    82.773193 
   16100    1483.3477   -107.65609    1.3421642   -106.31393   -2906.1914    4.3504819    4.3504819    4.3504819   -2906.1914   -2374.8486    5759.2251   -12102.951    4457.3185    3057.7387   -10239.004    82.340237 
   16200    1094.6834   -107.30212   0.99049255   -106.31163    8453.1308    4.3287898    4.3287898    4.3287898    8453.1308    15551.809   -23665.136    33472.719   -19616.319   -650.50999    11498.927    81.114687 
   16300    786.98237   -107.03349   0.71207819   -106.32141   -15921.048     4.352951     4.352951     4.352951   -15921.048   -1494.6194   -54729.047    8460.5218   -12974.089     3822.116   -13273.214    82.480507 
   16400    1306.0872    -107.4898    1.1817752   -106.30802   -14574.782    4.3532005    4.3532005    4.3532005   -14574.782    6377.3446   -28863.783   -21237.907    2092.1425   -3996.1574   -9281.2139    82.494693 
   16500    1061.5012   -107.27672   0.96046856   -106.31625   -628.46925     4.341685     4.341685     4.341685   -628.46925   -26172.445    -23242.87    47529.907   -35153.197   -500.94029    9594.2492    81.841756 
   16600     1104.958   -107.31831   0.99978918   -106.31852   -2557.7379    4.3432135    4.3432135    4.3432135   -2557.7379    20427.902    -18251.21   -9849.9059    11548.076    10875.044   -27607.168    81.928221 
   16700    1018.1584   -107.24084   0.92125115   -106.31958   -6687.3363    4.3479548    4.3479548    4.3479548   -6687.3363   -18624.196    -20439.11    19001.297   -23806.777   -10353.286   -3658.7385    82.196827 
   16800    954.58834   -107.18308   0.86373159   -106.31935   -22786.891    4.3559564    4.3559564    4.3559564   -22786.891   -17816.555   -53040.259    2496.1414   -12398.709     5772.706   -3886.0627     82.65147 
   16900    1274.7069   -107.47021    1.1533816   -106.31683   -11051.751    4.3389423    4.3389423    4.3389423   -11051.751    1656.8936   -15072.915   -19739.231    6818.7164    7598.4726   -36580.054    81.686754 
   17000    1223.3048   -107.42798    1.1068719   -106.32111    8160.8476     4.341804     4.341804     4.341804    8160.8476   -12705.927   -12771.181    49959.652   -30316.856   -694.39934    6813.6497    81.848486 
   17100    1036.9313   -107.25829   0.93823723   -106.32005    -32657.11     4.359414     4.359414     4.359414    -32657.11   -15170.357   -58118.904   -24682.068    12828.172    4101.7349   -17998.614    82.848439 
   17200    797.22321   -107.03999   0.72134432   -106.31864    9638.0134    4.3382771    4.3382771    4.3382771    9638.0134    35360.245   -21227.003    14780.798   -6655.4582    6935.4072   -14339.886    81.649186 
   17300    1240.1579   -107.44178    1.1221209   -106.31966    11857.818    4.3429285    4.3429285    4.3429285    11857.818   -2473.6504    2824.4707    35222.633   -3404.0885    7237.6892    811.26847    81.912095 
   17400    1096.2222   -107.31265   0.99188488   -106.32076   -4511.8053    4.3556648    4.3556648    4.3556648   -4511.8053    18477.987   -5461.1034     -26552.3    12828.374    6864.6062   -19050.541    82.634871 
   17500     1203.325   -107.39915    1.0887937   -106.31036    3332.9517    4.3475217    4.3475217    4.3475217    3332.9517   -13622.368   -10289.285    33910.508   -14147.508    12931.709    2143.1112    82.172266 
   17600    765.09659   -107.00587   0.69227547   -106.31359   -3796.7909     4.351357     4.351357     4.351357   -3796.7909    777.58765   -17817.514     5649.554   -2790.4298   -4767.8989   -16918.067    82.389932 
   17700    1032.7902    -107.2522   0.93449025   -106.31771    -10687.14    4.3391669    4.3391669    4.3391669    -10687.14   -133.88996   -20820.431   -11107.099     6550.721    18926.161   -13292.899    81.699435 
   17800    1298.8534   -107.49992    1.1752298   -106.32469     8827.207    4.3432417    4.3432417    4.3432417     8827.207    2279.2913    4955.1836    19247.146   -18680.558    2484.5413    7129.5049    81.929818 
   17900    1030.1002    -107.2572   0.93205632   -106.32514   -11302.717    4.3567376    4.3567376    4.3567376   -11302.717   -5285.5632   -13361.039    -15261.55    605.41042   -3054.6073   -15298.822    82.695944 
   18000    1109.8445   -107.31604    1.0042107   -106.31183   -9128.3734    4.3491989    4.3491989    4.3491989   -9128.3734    12613.735   -26691.378   -13307.477   -1814.9969    17457.268   -4048.4948    82.267407 
   18100    1143.4535   -107.34236    1.0346208   -106.30774   -660.22769    4.3460408    4.3460408    4.3460408   -660.22769    1026.0397   -552.82458   -2453.8982   -14047.445   -15717.955    3858.0966    82.088324 
   18200    865.42006       -107.1   0.78305026   -106.31695   -5386.9468    4.3514124    4.3514124    4.3514124   -5386.9468   -2471.3362    19675.524   -33365.029    3534.3744    3988.0175    -22270.77    82.393078 
   18300    1607.5584   -107.76019    1.4545526   -106.30564    -7864.791    4.3526733    4.3526733    4.3526733    -7864.791   -6511.5483   -1324.6882   -15758.137   -3993.5718    1784.2926    336.02992    82.464724 
   18400     950.0152   -107.17438   0.85959372   -106.31479   -7283.5661    4.3493236    4.3493236    4.3493236   -7283.5661    3187.0355   -15477.039   -9560.6948   -3648.0906   -14380.829   -23845.717    82.274483 
   18500    1062.1863    -107.2734   0.96108849   -106.31231    5740.0383    4.3418374    4.3418374    4.3418374    5740.0383     27361.71   -8191.1185   -1950.4767    1899.5848    4465.2948   -16789.632    81.850375 
   18600    1306.1005   -107.49488    1.1817872    -106.3131   -4356.4415    4.3500148    4.3500148    4.3500148   -4356.4415    13896.883   -23910.815    -3055.392   -5429.8622   -6307.5294     -1633.06    82.313714 
   18700     767.9267   -107.01719   0.69483622   -106.32235    -4030.687    4.3484741    4.3484741    4.3484741    -4030.687   -2078.7782   -16689.498    6676.2153   -4277.8534   -4895.9406   -28497.736    82.226285 
   18800    1336.7836   -107.52426    1.2095499   -106.31471    14737.082     4.346257     4.346257     4.346257    14737.082    35650.682   -5659.2579    14219.822     205.9086    6541.4462    6380.5877    82.100578 
   18900    1156.9646   -107.36793    1.0468459   -106.32108   -18389.756    4.3491829    4.3491829    4.3491829   -18389.756     -1231.68   -36350.727   -17586.861    1913.8645   -2638.7076    -10963.16    82.266498 
   19000     856.4132   -107.09684   0.77490066   -106.32194    10710.162    4.3447155    4.3447155    4.3447155    10710.162    45301.075   -17979.308    4808.7198   -76.807382    -9062.962   -17126.062     82.01325 
   19100    1195.9617    -107.3968    1.0821313   -106.31467    17947.109    4.3498896    4.3498896    4.3498896    17947.109      45992.6    779.54601    7069.1822    17145.219    7677.0615    5255.2812    82.306606 
   19200    901.03433   -107.13555   0.81527479   -106.32027   -8324.8067    4.3508785    4.3508785    4.3508785   -8324.8067   -4666.6529   -20584.085    276.31758     4299.165   -11934.923   -25263.274    82.362757 
   19300    1315.4621   -107.50202    1.1902577   -106.31176    14020.588    4.3457403    4.3457403    4.3457403    14020.588    28491.289   -4145.7458    17716.221    7138.4437   -9312.2388    3402.3269      82.0713 
   19400    979.56903   -107.20483   0.88633464    -106.3185    8382.0388    4.3442123    4.3442123    4.3442123    8382.0388    7387.7383   -7393.8265    25152.205     9418.773   -4454.7149   -18534.137    81.984759 
   19500     1025.279   -107.25048   0.92769401   -106.32279   -1008.2073    4.3536715    4.3536715    4.3536715   -1008.2073    16911.362   -6520.8287   -13415.155     -5335.27    -21393.72   -8985.5462    82.521473 
   19600    1149.3608   -107.35338    1.0399658   -106.31341    9920.9062    4.3532881    4.3532881    4.3532881    9920.9062    27186.452   -9796.9951    12373.261    2366.9901   -2655.1164   -2750.5852    82.499674 
   19700    685.86867     -106.937   0.62058838   -106.31641    26211.061    4.3358527    4.3358527    4.3358527    26211.061    46246.965    25934.808    6451.4105   -6123.2892   -12742.072   -25869.916    81.512379 
   19800    1351.8592   -107.54286    1.2231906   -106.31967    3255.7955    4.3534079    4.3534079    4.3534079    3255.7955    23492.005   -814.92181   -12909.697    1041.9559   -9587.0752    7751.2024    82.506482 
   19900    1277.3107   -107.47332    1.1557376   -106.31759   -14056.936    4.3547113    4.3547113    4.3547113   -14056.936   -7894.9307   -8140.4327   -26135.445    4504.3268    11909.184   -20536.282    82.580612 
   20000     748.8864   -106.99376   0.67760815   -106.31615     35707.44    4.3375012    4.3375012    4.3375012     35707.44    41914.733    38305.015    26902.573    9753.7624   -21011.504   -14239.976    81.605387 
   20100    1429.3247   -107.60494     1.293283   -106.31166   -10217.827    4.3571794    4.3571794    4.3571794   -10217.827   -21058.086   -11670.447    2075.0524    2689.9875    2047.8782    3161.4043    82.721106 
   20200    894.08272   -107.12511   0.80898483   -106.31612    11697.064    4.3423323    4.3423323    4.3423323    11697.064    32607.414    7194.2786   -4710.4989    16755.432    3140.4276   -18263.111    81.878365 
   20300    1074.2411   -107.28706   0.97199597   -106.31506     15479.68    4.3472906    4.3472906    4.3472906     15479.68    27721.353    1715.1409    17002.546   -122.16863   -16288.154    988.72281    82.159162 
   20400    1329.0253   -107.51219      1.20253   -106.30966   -11612.056    4.3538461    4.3538461    4.3538461   -11612.056    6028.9273   -34438.923   -6426.1728   -9205.4447    448.23257   -5829.8745    82.531399 
   20500    1009.8209   -107.22306   0.91370714   -106.30936    11477.325    4.3317484    4.3317484    4.3317484    11477.325    29472.246    5116.5138   -156.78498    10887.882    -18170.25   -12373.809     81.28112 
   20600    1107.0712   -107.31997    1.0017013   -106.31826   -18337.911     4.353339     4.353339     4.353339   -18337.911    -35236.75   -15322.491   -4454.4914   -22002.371   -3904.4887    3795.5293    82.502565 
   20700    1170.2122   -107.37537    1.0588326   -106.31653   -19231.201    4.3483596    4.3483596    4.3483596   -19231.201    11878.356   -39618.881   -29953.077   -14508.508   -3114.6887   -16202.872    82.219789 
   20800    1261.2301   -107.45615    1.1411875   -106.31496    16320.552    4.3333395    4.3333395    4.3333395    16320.552    9164.5364    11751.739    28045.381    8956.2848   -21564.332   -2949.3815    81.370718 
   20900    1086.8443   -107.29898   0.98339954   -106.31559   -16422.081    4.3590194    4.3590194    4.3590194   -16422.081     -15366.7   -38537.824    4638.2814   -22482.775    4580.4858   -593.07603    82.825945 
   21000    809.02133   -107.04501    0.7320195   -106.31299   -3210.7068    4.3436375    4.3436375    4.3436375   -3210.7068    20624.101   -14686.725   -15569.497    9556.3229   -16435.252   -21117.788    81.952223 
   21100    1135.4285   -107.33845    1.0273596   -106.31109    7086.2867    4.3415742    4.3415742    4.3415742    7086.2867    13489.651    5443.1083    2326.1013    3239.8462   -23404.257    6963.7603    81.835492 
   21200    1244.7288    -107.4399    1.1262567   -106.31364   -11661.826    4.3524688    4.3524688    4.3524688   -11661.826    2117.7051   -27562.347   -9540.8358   -4917.1845    3143.4556   -6672.9505    82.453101 
   21300    992.30108   -107.21566   0.89785487   -106.31781    1874.8156     4.341872     4.341872     4.341872    1874.8156   -14728.362     12375.98    7976.8293    16914.473    -15907.53   -8377.2608    81.852328 
   21400    1041.9777   -107.25468   0.94280335   -106.31188   -13963.241     4.350148     4.350148     4.350148   -13963.241   -38451.562   -16765.152    13326.991   -19714.577    2815.8805    2960.3423    82.321275 
   21500    936.96965   -107.15792   0.84778983   -106.31013   -18433.082    4.3517559    4.3517559    4.3517559   -18433.082   -4630.9117   -13665.974    -37002.36   -4916.6474    923.50947   -16297.212    82.412594 
   21600    1262.3273   -107.45227    1.1421803   -106.31009    10956.886    4.3361018    4.3361018    4.3361018    10956.886    14828.859    18987.008   -945.20865   -311.88233   -6337.5703     590.1411    81.526426 
   21700    1184.7622   -107.39258    1.0719977   -106.32058   -10117.376    4.3459773    4.3459773    4.3459773   -10117.376     1517.738   -37447.133    5577.2682   -30374.595    12905.712   -14498.467    82.084725 
   21800    872.05592   -107.10727   0.78905452   -106.31821   -13013.403    4.3521771    4.3521771    4.3521771   -13013.403   -4319.7465   -8267.6139   -26452.849    18274.035   -10846.798   -12002.548    82.436526 
   21900    1148.2257   -107.34908    1.0389388   -106.31014     3951.411    4.3425117    4.3425117    4.3425117     3951.411   -18129.371    1704.8091    28278.795   -8501.6198   -7547.0839    3973.3477    81.888514 
   22000    1188.3537   -107.39253    1.0752474   -106.31728   -11622.943    4.3461008    4.3461008    4.3461008   -11622.943    9030.4408   -27325.904   -16573.365   -13309.061    9921.0663   -13076.163    82.091725 
   22100    1079.5853   -107.29575   0.97683148   -106.31892    3929.9629    4.3431843    4.3431843    4.3431843    3929.9629   -13971.059     20642.39    5118.5579    18544.561   -18663.028    2260.6211    81.926573 
   22200    1070.5603   -107.28537   0.96866546    -106.3167   -13980.063    4.3473738    4.3473738    4.3473738   -13980.063   -49591.674    2247.8067    5403.6792    -35700.44    3294.8617    6266.8685     82.16388 
   22300     898.0346   -107.12865   0.81256058   -106.31609     -2105.08    4.3476143    4.3476143    4.3476143     -2105.08    2622.8588    18228.039   -27166.138   -5454.7591   -5990.9776   -15282.194    82.177518 
   22400    1234.2002   -107.43251    1.1167303   -106.31578   -1362.2128    4.3437914    4.3437914    4.3437914   -1362.2128    5772.9837   -8267.4026   -1592.2195   -9283.5874   -9661.8311   -2033.0372     81.96093 
   22500    1151.7845   -107.36032    1.0421588   -106.31816   -14572.352    4.3465599    4.3465599    4.3465599   -14572.352   -12404.789   -29337.496   -1974.7708   -27381.808   -2757.2039   -7733.9868    82.117745 
   22600    1059.7454   -107.27451   0.95887994   -106.31563    757.76584     4.342634     4.342634     4.342634    757.76584    7554.3607   -1657.7814   -3623.2818    16350.396   -17148.537   -23739.162    81.895435 
   22700    1022.9651   -107.24148   0.92560032   -106.31588   -8332.4978    4.3496119    4.3496119    4.3496119   -8332.4978   -33702.681   -945.00319    9650.1912   -23155.766   -1498.7958    4882.6886    82.290846 
   22800    1257.1076   -107.44862    1.1374574   -106.31116   -3023.8234    4.3439857    4.3439857    4.3439857   -3023.8234     2771.765    8649.5554   -20492.791    3830.3326   -13949.512    -5496.919    81.971928 
   22900    961.39051   -107.18659   0.86988634    -106.3167   -11868.075    4.3451322    4.3451322    4.3451322   -11868.075   -19462.738   -14758.629   -1382.8594   -7838.6073   -17335.283   -10072.283    82.036851 
   23000     1154.742   -107.35898    1.0448348   -106.31414   -5990.1164    4.3432535    4.3432535    4.3432535   -5990.1164   -41204.428   -17444.824    40678.903   -34219.209    9560.7016    4410.2427    81.930484 
   23100    1233.0513   -107.42847    1.1156907   -106.31278   -4302.5798    4.3403675    4.3403675    4.3403675   -4302.5798   -4354.7153    4576.1981   -13129.222    16168.161   -11879.055    -16150.83    81.767274 
   23200     865.0059   -107.10081   0.78267552   -106.31813   -18171.987     4.350821     4.350821     4.350821   -18171.987   -25405.525   -32276.053    3165.6179   -27047.013   -1863.2465    627.01634    82.359488 
   23300    1105.0303   -107.30999   0.99985466   -106.31014    5612.1779    4.3390759    4.3390759    4.3390759    5612.1779    6677.2191   -4254.0202    14413.335   -12891.834    10009.866   -12254.405    81.694297 
   23400    922.26977   -107.15134   0.83448907   -106.31685    7104.7139    4.3389367    4.3389367    4.3389367    7104.7139    10501.088   -4619.1254    15432.179    11265.388   -3493.1678   -8696.8827    81.686432 
   23500    1178.5963   -107.38155    1.0664187   -106.31513    -16584.12    4.3551638    4.3551638    4.3551638    -16584.12   -36141.503   -29052.552    15441.695   -29534.472   -2479.7893    7115.1549    82.606358 
   23600    1122.3783   -107.32859    1.0155515   -106.31304    350.15031    4.3401999    4.3401999    4.3401999    350.15031    7152.2397    16218.443   -22320.232    8211.9367    9899.7843   -10792.315      81.7578 
   23700     968.5321   -107.19156    0.8763482   -106.31522   -5677.0154    4.3331397    4.3331397    4.3331397   -5677.0154   -4148.3022   -22929.014    10046.271   -5069.8712   -11543.794   -6426.9267    81.359463 
   23800    1221.3503   -107.42212    1.1051034   -106.31701   -14809.906    4.3441198    4.3441198    4.3441198   -14809.906   -34012.598   -8468.6593   -1948.4604   -24092.656    1842.9058    2481.0839    81.979521 
   23900    1051.1964   -107.27223   0.95114461   -106.32108   -5012.5835     4.349685     4.349685     4.349685   -5012.5835   -877.47702    -2023.209   -12137.065    14377.051    4968.6814   -12141.911    82.294995 
   24000    1255.0973   -107.45325    1.1356384   -106.31761   -8289.3106    4.3440202    4.3440202    4.3440202   -8289.3106   -23578.127   -21184.336    19894.531   -18334.622   -3356.1874   -9876.1259    81.973884 
   24100    882.00928   -107.11503   0.79806054   -106.31697    6855.7315    4.3356784    4.3356784    4.3356784    6855.7315    29058.263    15851.697   -24342.765   -3358.6419    12262.241   -556.95454    81.502547 
   24200    940.16746   -107.16891   0.85068327   -106.31822   -1777.5604    4.3492864    4.3492864    4.3492864   -1777.5604    19278.469   -15683.033   -8928.1174    7166.6162    4968.7573   -11812.296     82.27237 
   24300    1279.0695     -107.468     1.157329   -106.31067    -906.7099     4.347738     4.347738     4.347738    -906.7099   -7325.1456   -4313.8051     8918.821   -22260.626    10751.806   -1860.9361    82.184535 
   24400    882.96041   -107.11106   0.79892114   -106.31214   -5598.9215    4.3450156    4.3450156    4.3450156   -5598.9215   -2286.0607     16748.29   -31258.994    8376.5129    27185.149   -3292.2459    82.030248 
   24500    1274.0914   -107.45738    1.1528247   -106.30456   -2619.6543    4.3426445    4.3426445    4.3426445   -2619.6543    6.5084502   -14797.341    6931.8695   -9713.9894   -6519.6983   -2436.5777    81.896026 
   24600    1137.2268    -107.3426    1.0289867   -106.31361   -13074.247    4.3442457    4.3442457    4.3442457   -13074.247   -1858.0446    346.36182   -37711.058   -19076.896    14867.026    1018.6755     81.98665 
   24700    1085.0302   -107.29757   0.98175812   -106.31581   -12634.327    4.3527001    4.3527001    4.3527001   -12634.327   -10571.883   -2906.2628   -24424.835    17571.383    13053.021    526.43803    82.466249 
   24800    1339.0818   -107.52261    1.2116293   -106.31098   -7519.2513    4.3379111    4.3379111    4.3379111   -7519.2513   -30070.868   -15001.369    22514.483   -5368.8097   -17113.418    5126.4006    81.628526 
   24900    904.91516   -107.13723   0.81878625   -106.31845    3201.2479    4.3375771    4.3375771    4.3375771    3201.2479    34415.797    6895.0005   -31707.054   -10189.493    16738.358    6851.2245    81.609673 
   25000    1190.1017   -107.38911     1.076829   -106.31228   -10359.339    4.3543177    4.3543177    4.3543177   -10359.339    -17597.22   -9898.8527   -3581.9444    24613.054    5777.9117    2696.3155    82.558226 
   25100    1051.4163   -107.26504   0.95134356    -106.3137   -3267.5996    4.3429908    4.3429908    4.3429908   -3267.5996    3586.8797   -1450.6557   -11939.023   -2462.7874   -6484.2255    2904.8151     81.91562 
   25200    1161.8775   -107.36164    1.0512912   -106.31035     6705.465    4.3410532    4.3410532    4.3410532     6705.465   -4254.7297    23695.594     675.5307    6779.8825    16007.196     4594.325     81.80603 
   25300       986.78   -107.20746   0.89285928    -106.3146    889.74367    4.3411686    4.3411686    4.3411686    889.74367   -38237.593   -639.78975    41546.614    22850.762    1015.0855    -4391.009    81.812558 
   25400    1193.5716   -107.39807    1.0799687    -106.3181   -2643.3606    4.3446823    4.3446823    4.3446823   -2643.3606    15093.633    7002.3658   -30026.081   -14320.173    2260.8376   -1289.9717    82.011374 
   25500    941.63542   -107.17269   0.85201151   -106.32068   -7245.6159    4.3486832    4.3486832    4.3486832   -7245.6159   -34356.144   -16512.654    29131.951    33091.346    3784.0231    3525.6024    82.238147 
   25600    1331.9963   -107.51767    1.2052182   -106.31245   -1742.0408    4.3360673    4.3360673    4.3360673   -1742.0408   -32989.898   -3054.8079    30818.584    5480.0705   -1703.0391   -2146.4502    81.524483 
   25700    1196.9957   -107.39951    1.0830669   -106.31644   -2560.0826     4.346408     4.346408     4.346408   -2560.0826   -571.81902    4268.7741   -11377.203   -1270.5372    826.12963     7259.039    82.109136 
   25800    835.76255   -107.07646   0.75621552   -106.32024   -7513.4691    4.3464328    4.3464328    4.3464328   -7513.4691   -37240.872   -21145.011    35845.475    38838.323    3012.7079   -1322.6659    82.110542 
   25900    1447.8017   -107.61956    1.3100014   -106.30956    17316.887    4.3369037    4.3369037    4.3369037    17316.887    4003.7398    56438.823   -8491.9014   -16505.429   -5282.4079    617.81835    81.571664 
   26000    801.84498   -107.04931   0.72552619   -106.32378   -24185.359    4.3481077    4.3481077    4.3481077   -24185.359   -48918.533   -35226.295    11588.752    43972.792     1150.215    1007.4486    82.205503 
   26100    1183.3765   -107.38894    1.0707439    -106.3182    4780.5581    4.3415182    4.3415182    4.3415182    4780.5581   -33356.559   -4997.7984    52696.032    13394.106    5219.0077   -4754.3442    81.832324 
   26200    1449.9917   -107.62751    1.3119829   -106.31553   -981.47055    4.3436894    4.3436894    4.3436894   -981.47055   -20807.977    19933.923   -2070.3574    7166.9601   -7553.8205    7000.1035    81.955157 
   26300    652.87003   -106.91443   0.59073052    -106.3237    -3103.655    4.3453099    4.3453099    4.3453099    -3103.655   -29066.949   -17717.504    37473.488    42197.354    7026.8821    2939.2923    82.046919 
   26400    1142.3543   -107.34778    1.0336262   -106.31416    13619.883    4.3404764    4.3404764    4.3404764    13619.883   -7226.7626    47489.834    596.57631   -20275.998   -1450.2251    5169.2686    81.773424 
   26500    975.88272   -107.20385    0.8829992   -106.32085   -7038.3256    4.3465005    4.3465005    4.3465005   -7038.3256    -24731.22   -11413.368    15029.611    28546.887   -2641.5962   -7274.1988    82.114378 
   26600    1313.4961    -107.5028    1.1884788   -106.31432   -395.95387    4.3430885    4.3430885    4.3430885   -395.95387    12505.508   -29519.328    15825.959    11409.159    -6904.554   -3123.6939    81.921148 
   26700    1141.0679   -107.34696    1.0324622    -106.3145    7853.1548    4.3382535    4.3382535    4.3382535    7853.1548    12531.322    5104.4952    5923.6472   -8560.5061   -6805.3497    -2038.341    81.647854 
   26800    1040.3768   -107.25998   0.94135479   -106.31863    -7224.807    4.3455606    4.3455606    4.3455606    -7224.807   -10442.399   -27328.983    16096.961     33185.15   -5742.8717   -1759.8898    82.061117 
   26900     1048.202   -107.26443   0.94843523   -106.31599    4518.7882    4.3435753    4.3435753    4.3435753    4518.7882   -6260.8909    5689.4575    14127.798   -8018.7293    5705.3341    2470.9316    81.948697 
   27000    1253.9503   -107.45332    1.1346006   -106.31872   -336.39766    4.3417344    4.3417344    4.3417344   -336.39766   -16292.393   -11415.303    26698.504    5170.0986   -6931.4822    8189.0265    81.844546 
   27100    1405.5525    -107.5865    1.2717735   -106.31472    -1527.803    4.3446813    4.3446813    4.3446813    -1527.803   -3199.9761   -15545.527    14162.094    14075.572    17625.782    -1482.375    82.011315 
   27200    815.62425   -107.05716   0.73799396   -106.31917   -13041.249     4.346688     4.346688     4.346688   -13041.249   -11272.648    3021.8051   -30872.903   -21703.434    4861.8442    4128.7768    82.125001 
   27300    1059.7565   -107.27074   0.95888995   -106.31185    10419.796    4.3410491    4.3410491    4.3410491    10419.796    19822.479    9840.9306    1595.9774     4433.687   -7277.7537    5862.4356      81.8058 
   27400    1005.9248    -107.2267   0.91018193   -106.31652    13989.585    4.3402854    4.3402854    4.3402854    13989.585    27594.089    193.59131    14181.076   -6559.4497    14154.425   -1982.3455    81.762634 
   27500    1178.3781   -107.39047    1.0662213   -106.32425   -3821.1762    4.3462913    4.3462913    4.3462913   -3821.1762   -5557.7595   -16201.254    10295.485   -23369.643   -1062.6322    9257.6772    82.102518 
   27600    1283.8028   -107.47658    1.1616118   -106.31497    27432.294    4.3388418    4.3388418    4.3388418    27432.294    29053.069    21473.954    31769.859    4681.8988   -3010.6044   -1067.6042    81.681074 
   27700    686.24983   -106.94442   0.62093327   -106.32348   -21065.376    4.3447946    4.3447946    4.3447946   -21065.376   -23276.746   -3840.2901   -36079.093     -14318.7    6168.3512    392.93103    82.017732 
   27800    1176.5917   -107.37845    1.0646049   -106.31384    -8131.766    4.3452933    4.3452933    4.3452933    -8131.766   -27790.662    -162.9429    3558.3066   -16646.034   -3177.5032     2214.081    82.045976 
   27900    1367.7594   -107.55086    1.2375775   -106.31329    18711.437     4.336234     4.336234     4.336234    18711.437    19800.662    21372.505    14961.145    8304.5301    249.18583     2518.354    81.533883 
   28000    1147.5672   -107.36322    1.0383429   -106.32488   -24698.343     4.350669     4.350669     4.350669   -24698.343   -30005.697    -17981.73   -26107.602   -26477.124    1243.9055   -381.63764    82.350858 
   28100    1291.7091   -107.48567    1.1687656   -106.31691    10187.972    4.3373821    4.3373821    4.3373821    10187.972    13256.622    17468.652   -161.35987    2045.5621   -5387.0332   -10406.825    81.598665 
   28200    571.33076   -106.84193   0.51695207   -106.32498     23631.84    4.3339318    4.3339318    4.3339318     23631.84    30324.009    41171.118   -599.60677   -4045.1543    4361.0205     5486.728    81.404091 
   28300    1310.3122   -107.50414     1.185598   -106.31855   -22537.713      4.35384      4.35384      4.35384   -22537.713    -34763.93   -11160.983   -21688.225   -23554.494    2776.0091   -7334.3523    82.531054 
   28400    1322.2527   -107.51157    1.1964021   -106.31517    23128.394    4.3370862    4.3370862    4.3370862    23128.394    25716.655     33628.91    10039.615    15198.251   -5761.7687   -1824.2414    81.581965 
   28500    928.83578   -107.16446   0.84043013   -106.32403    693.64515    4.3345167    4.3345167    4.3345167    693.64515    12980.379   -11306.877    407.43338   -17880.336    12797.435    4892.1131    81.437051 
   28600    1172.3475    -107.3793    1.0607646   -106.31853   -7126.3032    4.3461892    4.3461892    4.3461892   -7126.3032   -27771.413    30448.523   -24056.019    5849.4957    8814.0051   -2592.2011    82.096734 
   28700     854.2946   -107.09555   0.77298371   -106.32257   -3884.9378    4.3461668    4.3461668    4.3461668   -3884.9378    9386.3337   -14335.851   -6705.2957    10183.073   -471.47995    6027.4305    82.095467 
   28800    1161.4228   -107.36931    1.0508798   -106.31843    12515.083    4.3396603    4.3396603    4.3396603    12515.083    9043.4982    9428.1747    19073.576   -10848.803    12359.481   -7944.9541    81.727312 
   28900    1607.5404   -107.76933    1.4545364    -106.3148    9220.6163    4.3325427    4.3325427    4.3325427    9220.6163   -4418.9051    26456.798    5623.9557    24625.262     1078.001    3404.9658     81.32584 
   29000    646.42179   -106.91154   0.58489602   -106.32665   -3749.4409    4.3476243    4.3476243    4.3476243   -3749.4409     22835.45   -11070.423   -23013.349    1395.6252    9332.4282   -7287.7671    82.178086 
   29100    1095.8619   -107.30721   0.99155888   -106.31565   -9386.6481    4.3452716    4.3452716    4.3452716   -9386.6481   -16499.808    6915.4399   -18575.576    2583.4069    3539.4069    -4556.427    82.044749 
   29200    1183.1194   -107.38749    1.0705113   -106.31698   -1425.5415    4.3302937    4.3302937    4.3302937   -1425.5415   -14331.666    9171.8926     883.1486    25318.813   -4919.4915    11.076621    81.199259 
   29300    1216.3229   -107.42458    1.1005545   -106.32402   -4092.4469    4.3403597    4.3403597    4.3403597   -4092.4469    19542.613   -30749.852   -1070.1022   -4015.9417    9503.7547   -6978.1611     81.76683 
   29400    1178.8576   -107.38551    1.0666552   -106.31886   -4011.8145    4.3457226    4.3457226    4.3457226   -4011.8145   -15785.155    5159.9511   -1410.2393    15970.288   -13020.037   -3445.4586    82.070296 
   29500    914.58963   -107.14566   0.82753992   -106.31812   -12747.225     4.342769     4.342769     4.342769   -12747.225   -20160.829   -14069.116   -4011.7296    10069.984   -3283.8153   -745.13306    81.903072 
   29600    980.94046   -107.20761   0.88757555   -106.32003   -1414.4638     4.337261     4.337261     4.337261   -1414.4638    10665.301   -374.99615   -14533.696    49.218617   -989.10226    2596.6468    81.591828 
   29700    1270.1414   -107.47348    1.1492506   -106.32423    2177.4339    4.3327279    4.3327279    4.3327279    2177.4339   -16210.212    -2768.714    25511.227    29033.923   -9115.5149    838.44508     81.33627 
   29800    1382.5794   -107.57563    1.2509869   -106.32464   -13400.623     4.346265     4.346265     4.346265   -13400.623    5555.0803   -21283.272   -24473.678    -8034.145   -3755.2708   -5878.0308    82.101033 
   29900    924.65223   -107.15865   0.83664477     -106.322   -11611.742    4.3425472    4.3425472    4.3425472   -11611.742    9715.9683   -26426.309   -18124.886    17115.261    2955.4442   -6298.3069    81.890524 
   30000    984.90672   -107.20942    0.8911643   -106.31826   -3507.9664    4.3373838    4.3373838    4.3373838   -3507.9664    -17499.95    9271.0505   -2294.9998    18330.911    -11365.81    2914.3956    81.598759 
   30100     1060.998   -107.27756   0.96001332   -106.31755   -7470.5078    4.3443599    4.3443599    4.3443599   -7470.5078     18518.52   -25438.692   -15491.352   -11461.307    1519.9727   -18974.087    81.993116 
   30200    1083.4346   -107.29893   0.98031441   -106.31861    3551.1958    4.3357146    4.3357146    4.3357146    3551.1958   -4655.3587    -15042.92    30351.867     26002.64   -1384.1369    -1178.046    81.504591 
   30300    1411.6351   -107.59607    1.2772771   -106.31879   -5138.3553    4.3412008    4.3412008    4.3412008   -5138.3553    1097.3572   -9103.7298   -7408.6932     3114.002    572.46073   -13102.649    81.814376 
   30400    806.70367   -107.05461   0.72992244   -106.32469    36.834415    4.3419339    4.3419339    4.3419339    36.834415    25777.407   -13630.685   -12036.218    3146.3515   -518.37747   -16548.719    81.855831 
   30500    994.19903   -107.22196   0.89957218   -106.32239    2958.0711    4.3358227    4.3358227    4.3358227    2958.0711   -4726.1762    1022.0359    12578.354    20302.667   -8789.4957    9309.4895    81.510684 
   30600    1216.6852   -107.42009    1.1008824   -106.31921    -9642.032    4.3467617    4.3467617    4.3467617    -9642.032    12162.714   -6240.1496    -34848.66    474.34069    4029.8761   -23035.443    82.129184 
   30700    1150.9141   -107.35939    1.0413713   -106.31802    9919.2112    4.3382212    4.3382212    4.3382212    9919.2112    32601.971   -28345.566    25501.229     15921.49   -107.02536    5947.6592     81.64603 
   30800    1313.0645   -107.50608    1.1880883   -106.31799   -4213.4715    4.3415407    4.3415407    4.3415407   -4213.4715   -6294.2392   -6517.9128    171.73755    7235.8377   -16720.942   -1851.3858    81.833594 
   30900    1173.2012   -107.37654    1.0615371     -106.315   -14945.276    4.3474196    4.3474196    4.3474196   -14945.276    17557.911   -21025.826   -41367.913    2070.9731   -3066.6712   -17659.932    82.166481 
   31000    841.65549   -107.07643   0.76154758   -106.31488    10787.504    4.3335333    4.3335333    4.3335333    10787.504    10178.462   -4400.8919    26584.941    19337.238   -107.94733    14197.311    81.381637 
   31100    1093.2969    -107.3113   0.98923799   -106.32206   -513.51993    4.3410101    4.3410101    4.3410101   -513.51993     16217.81   -11062.041   -6696.3291    -3948.349   -17199.398   -17843.894    81.803594 
   31200    1275.2563   -107.46912    1.1538787   -106.31524     9512.988    4.3491839    4.3491839    4.3491839     9512.988    42435.096    1956.3095   -15852.442    2855.3735    144.68111    1541.1262    82.266553 
   31300    1144.2583   -107.34958    1.0353489   -106.31423    11036.271    4.3364313    4.3364313    4.3364313    11036.271    15620.247   -5810.2252    23298.793     10324.44   -4778.7328    791.58492    81.545012 
   31400    1061.4399   -107.27648   0.96041312   -106.31606    7659.7499    4.3384361    4.3384361    4.3384361    7659.7499     14336.44    22519.889   -13877.079   -5769.9724   -3039.0062   -18556.632    81.658166 
   31500    917.18652   -107.14825   0.82988964   -106.31836    1795.2937    4.3400516    4.3400516    4.3400516    1795.2937    6290.4838   -7592.9524    6688.3497    5781.5479    10010.666    11406.711    81.749418 
   31600    1040.9097   -107.26528   0.94183696   -106.32344   -10083.759    4.3450431    4.3450431    4.3450431   -10083.759   -3579.6881   -25427.566   -1244.0223    2661.3875   -6789.2912   -10798.414    82.031807 
   31700    1343.6381   -107.53215     1.215752   -106.31639   -1515.4206    4.3490164    4.3490164    4.3490164   -1515.4206    31700.558   -2837.1074   -33409.712    -3255.731    13792.087   -45.792102    82.257051 
   31800     1219.649   -107.42397     1.103564   -106.32041   -1455.3435    4.3319896    4.3319896    4.3319896   -1455.3435    3065.2491   -7650.1179    218.83819    3005.5334    8972.9553    9510.7568    81.294696 
   31900    924.53683   -107.16079   0.83654035   -106.32425     8385.711    4.3348436    4.3348436    4.3348436     8385.711    24295.241    -1397.877    2259.7687    886.29223   -20467.028   -8722.1682    81.455477 
   32000    958.76761   -107.18775   0.86751309   -106.32024   -23851.981    4.3521667    4.3521667    4.3521667   -23851.981   -15884.897   -24595.632   -31075.415   -4463.9368    16209.121     12916.86    82.435936 
   32100    1207.9661   -107.40996    1.0929931   -106.31697   -1125.5471    4.3393493    4.3393493    4.3393493   -1125.5471   -11287.025    2753.6045    5156.7791    9304.7756   -5414.2444   -5464.9715    81.709743 
   32200    1344.0683   -107.52908    1.2161413   -106.31294    19788.033    4.3345785    4.3345785    4.3345785    19788.033     52882.18      12239.1   -5757.1808   -4571.6638   -5921.3548    5569.3101    81.440534 
   32300    1002.7239   -107.23183   0.90728561   -106.32454   -31500.612    4.3468893    4.3468893    4.3468893   -31500.612   -30635.048   -17137.079   -46729.708    5374.7253    28776.306    8036.3144    82.136413 
   32400    918.08328   -107.15342   0.83070104   -106.32272    9341.0179    4.3366022    4.3366022    4.3366022    9341.0179    15889.301    1202.7885    10930.964    7523.9542   -9880.4875   -14909.415    81.554655 
   32500    1197.3337   -107.40449    1.0833727   -106.32111   -12283.162    4.3428266    4.3428266    4.3428266   -12283.162   -7952.6457    -8516.223   -20380.617    -9259.157     21540.13    20120.259    81.906328 
   32600    808.23286   -107.05984   0.73130608   -106.32854    -15805.07     4.344012     4.344012     4.344012    -15805.07    11050.411   -25829.598   -32636.023    15385.197    12461.208   -8735.6775    81.973419 
   32700     1665.995   -107.82078    1.5074273   -106.31336    9245.5252    4.3347282    4.3347282    4.3347282    9245.5252     24823.39   -3365.2115    6278.3971    706.07489   -12224.387    502.18328    81.448972 
   32800    657.36256   -106.91903   0.59479546   -106.32423   -35697.829    4.3522321    4.3522321    4.3522321   -35697.829   -19657.092   -36886.951   -50549.444   -1594.7926    31006.639    16816.375    82.439654 
   32900    1063.0035    -107.2805   0.96182793   -106.31867   -17151.563    4.3360431    4.3360431    4.3360431   -17151.563   -26532.959   -25095.335    173.60598    11059.557    5464.8993    -14609.69    81.523115 
   33000    1192.2944   -107.39885     1.078813   -106.32004    11459.808    4.3327222    4.3327222    4.3327222    11459.808    39377.776    2154.8511   -7153.2047   -4225.3258    3387.4867    18644.762    81.335947 
   33100    774.04343   -107.03319   0.70037076   -106.33282   -22465.647    4.3459966    4.3459966    4.3459966   -22465.647    10439.621   -22832.338   -55004.225   -4735.8854     31532.47    5524.1244    82.085823 
   33200    1540.1836   -107.71165    1.3935905   -106.31806    935.07998    4.3434529    4.3434529    4.3434529    935.07998     39640.46    -18290.81    -18544.41   -1237.0282   -9188.2005   -2732.6335     81.94177 
   33300    839.29959   -107.08579   0.75941591   -106.32638   -26256.829    4.3454786    4.3454786    4.3454786   -26256.829   -32706.779   -14418.199   -31645.508   -2511.2189    18649.413    21171.187    82.056472 
   33400     1009.108   -107.23334   0.91306215   -106.32028    637.16999    4.3302838    4.3302838    4.3302838    637.16999    6418.7211      1159.79   -5667.0012   -2246.2304    15434.206   -983.50191    81.198704 
   33500    1292.5407   -107.49154     1.169518   -106.32202   -8495.0563    4.3429988    4.3429988    4.3429988   -8495.0563    4302.5869   -11647.282   -18140.474   -72.611234   -15350.516    6085.5037    81.916074 
   33600     736.1625   -106.99344    0.6660953   -106.32734   -12800.268    4.3479094    4.3479094    4.3479094   -12800.268    15179.246   -19368.125   -34211.925    465.36427    25007.706    12632.213    82.194256 
   33700    1556.4909   -107.72074    1.4083457    -106.3124    13567.925    4.3344382    4.3344382    4.3344382    13567.925    41230.161   -7078.2961    6551.9093   -1086.3585   -148.16266   -6182.4253    81.432626 
   33800    990.61046   -107.22245   0.89632516   -106.32613   -4062.9464    4.3406154    4.3406154    4.3406154   -4062.9464   -10309.806   -12903.577    11024.543    830.96079   -14506.314    8289.6738    81.781285 
   33900    884.35796   -107.13051   0.80018567   -106.33032   -14519.878     4.350244     4.350244     4.350244   -14519.878    2058.5954   -16760.444   -28857.786    -4956.028     22678.59    3913.7876    82.326728 
   34000    1283.1964   -107.48433    1.1610631   -106.32327   -690.46993    4.3432146    4.3432146    4.3432146   -690.46993    25749.039   -15740.113   -12080.336   -2311.7764     -11810.3   -4840.7734    81.928288 
   34100    919.73173   -107.15888    0.8321926   -106.32669     14542.88    4.3259555    4.3259555    4.3259555     14542.88    52634.679    2751.4944   -11757.535    4170.9658    8455.6685    12674.909    80.955457 
   34200     1362.575   -107.55866    1.2328865   -106.32578    6650.9904     4.339056     4.339056     4.339056    6650.9904    5214.7201   -13209.954    27948.205   -7635.6376    25057.042   -2665.8056    81.693176 
   34300    1040.5827   -107.26346   0.94154105   -106.32192   -5549.6072    4.3495416    4.3495416    4.3495416   -5549.6072   -2890.6213   -12235.628   -1522.5719   -280.07703   -24074.415   -1276.4523    82.286857 
   34400    1027.7775   -107.24519   0.92995472   -106.31523   -10796.291    4.3439869    4.3439869    4.3439869   -10796.291   -21771.851   -2454.4898   -8162.5328   -4196.9154     18420.99    11823.774    81.971996 
   34500    1434.0845   -107.60674    1.2975898   -106.30915    1095.4696    4.3377744    4.3377744    4.3377744    1095.4696    8520.6765   -21762.807     16528.54   -1734.9983   -3558.8857     -15048.4    81.620805 
   34600    1084.2616    -107.2993   0.98106271   -106.31824    2721.4203    4.3346531    4.3346531    4.3346531    2721.4203    12832.811    -1376.978   -3291.5724   -3044.8596   -20861.942    6651.1077    81.444738 
   34700    1187.9261   -107.39257    1.0748605   -106.31771    2439.7783    4.3506607    4.3506607    4.3506607    2439.7783    6286.1169   -17411.008    18444.226    -10071.99    16293.222    2996.8422    82.350389 
   34800    823.46308   -107.06524    0.7450867   -106.32015   -880.58141    4.3453033    4.3453033    4.3453033   -880.58141    46667.361   -30733.386    -18575.72   -1064.5202   -11838.376   -13058.222    82.046545 
   34900    923.13004   -107.15092   0.83526746   -106.31565    18543.562    4.3265102    4.3265102    4.3265102    18543.562    45274.009   -10758.602    21115.277   -912.50889   -14905.505    19638.003    80.986606 
   35000    1560.9683   -107.72924    1.4123969   -106.31684    9490.2925    4.3427402    4.3427402    4.3427402    9490.2925    29149.556   -27372.368    26693.689   -3288.1383     11375.72   -11510.972    81.901443 
   35100    812.52493   -107.05942   0.73518963   -106.32423   -4519.8971    4.3463994    4.3463994    4.3463994   -4519.8971    5202.5902   -30631.135    11868.854    3811.6213   -13914.993    2496.7249    82.108649 
   35200    1209.2136   -107.40738    1.0941219   -106.31326   -4152.8852    4.3431758    4.3431758    4.3431758   -4152.8852   -9404.6392   -15976.762    12922.746    208.43143    367.30163    22928.042    81.926092 
   35300    1231.6388   -107.42844    1.1144126   -106.31403    15221.779    4.3352607    4.3352607    4.3352607    15221.779    10886.705   -4537.2144    39315.846    2521.7426    9033.1736   -16284.773    81.478992 
   35400    860.13963   -107.10676   0.77827241   -106.32849   -6153.3115    4.3350626    4.3350626    4.3350626   -6153.3115    19733.826   -40064.982    1871.2213    5702.7457   -16207.886    25538.496    81.467825 
   35500    1599.1607   -107.76753    1.4469542   -106.32057   -5686.9223    4.3489071    4.3489071    4.3489071   -5686.9223   -4229.1983   -27865.849     15034.28   -5448.0081    11730.818    7112.8787    82.250849 
   35600    947.14367   -107.18078    0.8569955   -106.32378    2961.3809    4.3385501    4.3385501    4.3385501    2961.3809   -1664.6813   -14293.618    24842.442    9091.9643   -3828.2098   -2723.7342    81.664602 
   35700    871.26715   -107.11279   0.78834083   -106.32445   -22142.838    4.3350314    4.3350314    4.3350314   -22142.838    -3202.802    -31154.81   -32070.904    445.52216    -18376.87    23182.523    81.466067 
   35800    1431.6845   -107.61139    1.2954182   -106.31597   -3090.0305    4.3419053    4.3419053    4.3419053   -3090.0305   -18251.154   -25126.854    34107.917    1106.0548    14293.426   -5589.9277    81.854215 
   35900    1101.0219   -107.32192   0.99622776    -106.3257   -26738.492     4.340754     4.340754     4.340754   -26738.492   -5248.4538   -45839.441   -29127.582    5558.6916   -6196.6346    20457.099    81.789116 
   36000    963.63639   -107.19939   0.87191845   -106.32747   -4338.8039    4.3349976    4.3349976    4.3349976   -4338.8039   -12275.512    3395.8399   -4136.7395   -1533.0659   -15038.388    8789.2525    81.464158 
   36100    1319.7679    -107.5169    1.1941538   -106.32275   -1622.1201    4.3360741    4.3360741    4.3360741   -1622.1201    1673.2494    1102.5575   -7642.1672    2783.9664     22178.52    5587.5577    81.524867 
   36200    920.24066   -107.16302   0.83265308   -106.33037   -15571.438    4.3445224    4.3445224    4.3445224   -15571.438    8084.6692   -32776.415   -22022.569    1425.8508   -13113.976    32834.407    82.002315 
   36300    1022.8588   -107.24969   0.92550418   -106.32418   -8650.1338    4.3401541    4.3401541    4.3401541   -8650.1338   -8440.8207   -10307.882   -7201.6986   -3873.8005   -1507.8053   -5864.0988    81.755211 
   36400    1061.1687   -107.28145   0.96016772   -106.32128    750.49487    4.3316875    4.3316875    4.3316875    750.49487    14588.741   -5293.2447   -7044.0116   -1547.9766    26801.741    15528.359     81.27769 
   36500    1234.4254   -107.44051     1.116934   -106.32358   -2780.2382    4.3392503    4.3392503    4.3392503   -2780.2382    13304.575   -9706.2154   -11939.074   -566.98306   -17013.261        18364     81.70415 
   36600    1156.4932     -107.368    1.0464194   -106.32158   -21316.802    4.3488154    4.3488154    4.3488154   -21316.802   -34612.211   -4989.0257   -24349.169   -12792.162    24225.614   -8040.8337    82.245649 
   36700    807.94159   -107.05217   0.73104253   -106.32112   -641.26809    4.3345772    4.3345772    4.3345772   -641.26809    24393.473    -27797.96    1480.6834     8622.121    15334.227    19204.889     81.44046 
   36800    1268.7099   -107.46511    1.1479554   -106.31715   -4334.4456    4.3308914    4.3308914    4.3308914   -4334.4456    12694.013   -22719.541   -2977.8088   -7436.7883   -5433.9865   -1165.5787    81.232884 
   36900    1036.3638   -107.26295   0.93772374   -106.32523   -6977.6732    4.3457822    4.3457822    4.3457822   -6977.6732    -12374.01    21974.837   -30533.847   -7601.6525    32819.968     1437.812    82.073675 
   37000    1253.5006   -107.45334    1.1341936   -106.31914    1056.5845    4.3422772    4.3422772    4.3422772    1056.5845     14890.78   -7006.2317   -4714.7943    18454.301   -4413.5837    9268.8285    81.875247 
   37100    1029.1978   -107.24889   0.93123977   -106.31765   -1700.4286    4.3342259    4.3342259    4.3342259   -1700.4286    9306.1738   -14923.968    516.50828   -4677.0994    5854.1698   -8702.9663    81.420659 
   37200    736.53953   -106.99176   0.66643645   -106.32533    1176.0827     4.336588     4.336588     4.336588    1176.0827   -4625.3097    9763.9853   -1610.4274   -1018.3701    19574.152    6289.4374    81.553855 
   37300    1294.4949   -107.49564    1.1712862   -106.32435    771.73828    4.3435009    4.3435009    4.3435009    771.73828    6521.5782    -13574.12     9367.757    22291.041   -5958.9948    3054.3744    81.944487 
   37400    1408.0903    -107.5983    1.2740697   -106.32423   -5439.6286     4.341276     4.341276     4.341276   -5439.6286   -17342.518    13524.769   -12501.137   -7887.7172    9495.1914   -3039.0876    81.818626 
   37500    885.30721   -107.12623   0.80104457   -106.32519    11290.333    4.3343879    4.3343879    4.3343879    11290.333    7158.9611     2023.229    24688.809    2742.3773    15843.035   -1216.8482    81.429789 
   37600    1040.3573   -107.26467   0.94133717   -106.32333   -1759.2499    4.3378808    4.3378808    4.3378808   -1759.2499    21890.395   -42129.893    14961.749    21954.946   -6114.0189     5829.101    81.626812 
   37700    1024.2394   -107.25363   0.92675332   -106.32687    2545.6242    4.3408899    4.3408899    4.3408899    2545.6242   -574.17928   -3603.1049    11814.157   -15447.812    15312.413   -4574.5494      81.7968 
   37800    1271.7109   -107.47607    1.1506707    -106.3254    843.35908    4.3424219    4.3424219    4.3424219    843.35908   -26988.824    12956.786    16562.115    21511.729    11478.275   -2785.9855    81.883431 
   37900    1304.9707   -107.50183    1.1807649   -106.32107    10491.712    4.3376358    4.3376358    4.3376358    10491.712    20999.032        -4764    15240.106    6915.3769   -4292.7345    2323.9234    81.612983 
   38000     901.4461   -107.14247   0.81564737   -106.32682     4686.951    4.3340739    4.3340739    4.3340739     4686.951   -11165.214     668.4911    24557.576   -4345.1216    26548.358   -6339.6914    81.412098 
   38100    809.84241   -107.06818   0.73276244   -106.33541    93.774949    4.3493641    4.3493641    4.3493641    93.774949    2602.1656    -26628.75    24307.909     31525.39   -3535.1777    6263.8327    82.276783 
   38200    1674.7601   -107.83851    1.5153581   -106.32315     4289.543     4.341736     4.341736     4.341736     4289.543    10229.271    11245.298   -8605.9402   -4908.5199     8542.452    -7548.824    81.844639 
   38300    725.23583   -106.98636   0.65620862   -106.33015    25301.251    4.3252623    4.3252623    4.3252623    25301.251    21887.232    17743.777    36272.744    18206.091    13560.427   -1430.2494    80.916547 
   38400     995.0844   -107.23212   0.90037328   -106.33174   -20808.157     4.350763     4.350763     4.350763   -20808.157   -21046.547   -42142.791     764.8675    16187.094   -8238.1648    2756.7462    82.356198 
   38500    1563.7964   -107.73301    1.4149558   -106.31805    5016.9612    4.3447489    4.3447489    4.3447489    5016.9612    15462.019   -7299.5514    6888.4162   -2761.1167    8654.7677   -10698.566    82.015146 
   38600     912.9662   -107.15333   0.82607101   -106.32726    9041.0042    4.3284734    4.3284734    4.3284734    9041.0042   -9490.0817     3157.962    33455.132    34743.144    1989.5533    5187.3105    81.096902 
   38700    1097.3895    -107.3222   0.99294105   -106.32926   -5056.5789    4.3423294    4.3423294    4.3423294   -5056.5789    7445.2374   -6937.0016   -15677.972   -8976.1469   -2235.9643   -800.45073    81.878201 
   38800    1016.1518   -107.24305   0.91943553   -106.32361   -2228.3553    4.3483968    4.3483968    4.3483968   -2228.3553    12788.461   -20079.901    606.37458    11623.246    3023.1714    204.78641    82.221899 
   38900    1094.2817   -107.31139   0.99012904   -106.32127     -16304.8    4.3454384    4.3454384    4.3454384     -16304.8   -30917.713   -26571.425    8574.7384    21916.424     8076.179      632.437    82.054197 
   39000    1349.2503   -107.53657    1.2208301   -106.31574    14767.813    4.3349036    4.3349036    4.3349036    14767.813    25471.304    6517.1235    12315.012   -21709.907   -5632.3847    6505.4507    81.458863 
   39100    1068.2678   -107.28997   0.96659112   -106.32338   -163.75254    4.3313684    4.3313684    4.3313684   -163.75254   -4475.0906   -10064.829    14048.662    38915.696    11338.083    2022.2425    81.259728 
   39200    699.29414   -106.96236   0.63273603   -106.32962    8045.9457    4.3500957    4.3500957    4.3500957    8045.9457    33954.491   -14377.418     4560.764     1558.275   -35.488172      1455.55    82.318307 
   39300    1296.8422   -107.49512    1.1734101   -106.32171   -15762.102    4.3493537    4.3493537    4.3493537   -15762.102   -20072.649    -25097.59   -2116.0689   -2130.4515   -12689.346    7942.7304    82.276193 
   39400    1101.6756   -107.31707   0.99681921   -106.32025    9567.1123    4.3252755    4.3252755    4.3252755    9567.1123    1719.1168   -5845.0961    32827.316    43925.902    15709.918   -2631.4272    80.917291 
   39500    1378.3431   -107.56879    1.2471538   -106.32164    6260.6362    4.3349249    4.3349249    4.3349249    6260.6362    16749.695    -2808.803    4841.0168   -20067.573   -892.61341    5260.2963    81.460062 
   39600    740.51677   -106.99542   0.67003514   -106.32538   -24441.785    4.3537541    4.3537541    4.3537541   -24441.785   -17149.125   -49232.577   -6943.6541    26686.196    -4853.906    1225.4003    82.526173 
   39700    930.04754   -107.16526   0.84152656   -106.32373   -705.71585     4.339651     4.339651     4.339651   -705.71585    19691.402   -13341.539    -8467.011    14408.838    19335.922   -5974.0196    81.726783 
   39800    1561.3758   -107.72688    1.4127657   -106.31412    17228.518    4.3307658    4.3307658    4.3307658    17228.518    26326.503    1907.4803    23451.571    2503.5144    5323.6828   -3750.6854    81.225818 
   39900    1068.4635   -107.29493    0.9667682   -106.32816   -3099.8088    4.3391226    4.3391226    4.3391226   -3099.8088    8275.8823   -34224.657    16649.349    37428.602   -4636.7585    1635.8782    81.696934 
   40000    1104.4519   -107.32267   0.99933131   -106.32334   -13080.852    4.3494317    4.3494317    4.3494317   -13080.852    5756.7622   -21325.412   -23673.907   -7210.0146     21689.07   -11047.955    82.280618 
   40100    1001.8043   -107.22687   0.90645361   -106.32042     4201.604    4.3402822    4.3402822    4.3402822     4201.604    22654.313    -16030.11     5980.608    19650.885   -2109.0358    -1131.537    81.762453 
   40200    1025.4518   -107.25144   0.92785036   -106.32358    2322.0597     4.329153     4.329153     4.329153    2322.0597    12094.247   -1235.5155   -3892.5523    18562.093    11253.084   -9040.7385    81.135107 
   40300    1335.1242    -107.5327    1.2080484   -106.32465    8631.6268    4.3435702    4.3435702    4.3435702    8631.6268    43685.532    2089.4024   -19880.054   -16128.264    12001.397   -6802.1331    81.948412 
   40400     1221.499   -107.42547     1.105238   -106.32024   -15849.677    4.3516729    4.3516729    4.3516729   -15849.677   -8942.3334   -39514.185    907.48741    24753.956   -14710.697    1631.6811    82.407878 
   40500    629.23743   -106.88919   0.56934725   -106.31984    4186.5957     4.334722     4.334722     4.334722    4186.5957    48822.032   -16731.157   -19531.089     927.2666    18642.131   -18801.055    81.448621 
   40600    1238.8777   -107.44084    1.1209626   -106.31988    3835.7723    4.3268095    4.3268095    4.3268095    3835.7723    15495.692    655.41735   -4643.7923   -12647.151   -3407.5985    1865.2491    81.003414 
   40700    1346.8074   -107.54543    1.2186197   -106.32681   -9405.0092    4.3476659    4.3476659    4.3476659   -9405.0092   -7130.7383   -17439.614    -3644.675    28359.008    1278.3995   -1963.5649    82.180446 
   40800    772.33744   -107.02442   0.69882715   -106.32559    -20776.83    4.3533924    4.3533924    4.3533924    -20776.83    1302.3307   -32836.937   -30795.884   -12908.497    11638.342   -23139.998    82.505601 
   40900    1275.8096     -107.464    1.1543794   -106.30962    9604.9139    4.3263358    4.3263358    4.3263358    9604.9139    19605.111   -13530.364    22739.995    3602.4939    4646.6518    5341.3533    80.976814 
   41000    966.22045   -107.19745   0.87425657    -106.3232   -2467.8556    4.3357201    4.3357201    4.3357201   -2467.8556    24579.989   -19488.616    -12494.94    13767.031     9113.684   -14835.438    81.504899 
   41100    976.62225   -107.21311   0.88366833   -106.32944   -21348.112    4.3459705    4.3459705    4.3459705   -21348.112   -15159.383   -19425.834    -29459.12   -27020.104    15179.221   -17120.852    82.084343 
   41200    1412.8035   -107.59877    1.2783343   -106.32043    4249.3893    4.3445582    4.3445582    4.3445582    4249.3893    15865.462   -19465.727    16348.433   -529.02843   -1902.0813    3299.7214    82.004343 
   41300    938.88103   -107.17784   0.84951928   -106.32832   -20721.382    4.3398461    4.3398461    4.3398461   -20721.382   -6259.9793    -42659.21   -13244.956   -522.57057     9063.493   -15997.056    81.737807 
   41400    747.25202   -107.00625   0.67612933   -106.33012    14478.824    4.3293898    4.3293898    4.3293898    14478.824     45098.21   -9814.9702    8153.2324   -28829.978    268.04311   -3815.8775    81.148422 
   41500    1542.2906   -107.72071     1.395497   -106.32521   -1378.4408    4.3469357    4.3469357    4.3469357   -1378.4408    12020.362   -9011.3389   -7144.3453    6819.1896   -8004.9092    5011.4912    82.139045 
   41600    904.82887   -107.15244   0.81870818   -106.33373   -6931.1178    4.3416895    4.3416895    4.3416895   -6931.1178    30844.145   -31399.144   -20238.355   -17036.833    17086.026    -9418.972    81.842012 
   41700    1114.2583   -107.33675    1.0082043   -106.32855    3666.6238    4.3352112    4.3352112    4.3352112    3666.6238   -9954.6753   -7150.2399    28104.786    -23911.43   -665.18849    103.70829    81.476201 
   41800    1298.4159   -107.49654     1.174834    -106.3217   -12359.749    4.3426091    4.3426091    4.3426091   -12359.749    10769.652   -37148.856   -10700.043    13618.459    4614.6578      3710.36    81.894024 
   41900    626.51144   -106.89905   0.56688071   -106.33217   -16188.671    4.3413783    4.3413783    4.3413783   -16188.671   -1460.0797   -37988.118   -9117.8136   -37765.505    10597.236   -11087.839    81.824409 
   42000    1530.0409   -107.70419    1.3844132   -106.31977   -5570.0218    4.3363813    4.3363813    4.3363813   -5570.0218   -11653.006   -9067.2546    4010.1949    8514.2749     12506.51    13425.352    81.542191 
   42100    868.32507   -107.11115   0.78567877   -106.32547    3444.7895    4.3430967    4.3430967    4.3430967    3444.7895    35151.565   -35281.073    10463.877   -603.63454   -2734.2928   -4931.6722    81.921616 
   42200     1052.174   -107.27286   0.95202914   -106.32083   -11885.291      4.33915      4.33915      4.33915   -11885.291   -22648.008   -38156.116     25148.25   -28339.247    19894.223   -5413.5246    81.698482 
   42300    1194.8032   -107.39735     1.081083   -106.31626    5638.6965    4.3443777    4.3443777    4.3443777    5638.6965    19826.543   -5274.8951    2364.4421    21593.736    631.68424    12058.904    81.994122 
   42400    1001.2025    -107.2239   0.90590909   -106.31799   -19417.656    4.3466521    4.3466521    4.3466521   -19417.656   -7663.3802   -30852.953   -19736.635   -25194.313    6363.5525   -6765.4981    82.122968 
   42500    978.14688   -107.20122   0.88504785   -106.31617    11690.329    4.3290566    4.3290566    4.3290566    11690.329    8182.6163    12720.427    14167.945   -1549.4244    9103.0386   -990.04875    81.129685 
   42600    1367.9471   -107.55951    1.2377472   -106.32176   -5156.6401    4.3402019    4.3402019    4.3402019   -5156.6401   -12302.604   -8953.8974    5786.5811    8805.7872   -12550.044    2310.1259    81.757914 
   42700    771.66946   -107.02207   0.69822274   -106.32384     446.9511     4.347208     4.347208     4.347208     446.9511    37661.247   -32374.803    -3945.591   -23082.719    10323.231   -8137.5896    82.154481 
   42800    1355.5634   -107.54366    1.2265423   -106.31712   -70.136789    4.3375227    4.3375227    4.3375227   -70.136789   -18760.796    15379.233     3171.153    15673.734   -3840.3224    1625.8085      81.6066 
   42900    1074.0082    -107.2923    0.9717852   -106.32052    15245.077    4.3386581    4.3386581    4.3386581    15245.077    46762.177   -7411.9529    6385.0062   -9582.1772   -6960.8931   -11835.009    81.670703 
   43000    938.05858   -107.17398   0.84877512   -106.32521   -21431.845     4.343502     4.343502     4.343502   -21431.845    -32746.96   -29782.799   -1765.7748   -15143.384    13763.184   -10629.236    81.944553 
   43100    1221.7512   -107.42461    1.1054661   -106.31914    9753.1725    4.3351852    4.3351852    4.3351852    9753.1725   -12301.528    6843.0106    34718.035     19285.11     4388.713    2920.7752    81.474738 
   43200    1044.5782   -107.27054   0.94515634   -106.32539   -5515.8552     4.342554     4.342554     4.342554   -5515.8552    3457.3076   -15695.224   -4309.6488   -30497.513    1235.0198   -20273.092    81.890907 
   43300    1102.4896   -107.32611   0.99755573   -106.32856   -9690.4635    4.3407329    4.3407329    4.3407329   -9690.4635   -8398.0508   -5344.1245   -15329.215     9324.202    21266.621   -3710.9154    81.787927 
   43400    1195.0412   -107.40655    1.0812984   -106.32525    26344.361    4.3341933    4.3341933    4.3341933    26344.361    52573.331    13451.654    13008.098    9119.9983    6161.1338    1990.0094    81.418823 
   43500    838.61156   -107.08897   0.75879337   -106.33018   -20656.041    4.3494832    4.3494832    4.3494832   -20656.041   -30164.625   -30096.552   -1706.9462     -24023.5    4297.7437   -13836.228    82.283542 
   43600    1102.3157   -107.32028   0.99739839   -106.32288    3359.2539    4.3415957    4.3415957    4.3415957    3359.2539    4060.8818    1958.5452    4058.3346    6817.3022    19429.874   -1594.9881    81.836704 
   43700    1294.7992   -107.49598    1.1715615   -106.32442    9159.3445    4.3310205    4.3310205    4.3310205    9159.3445     22351.81    3576.2989    1549.9244   -14333.881   -13355.018    -470.5584     81.24015 
   43800    1044.9388     -107.276   0.94548256   -106.33052   -12247.174    4.3430502    4.3430502    4.3430502   -12247.174     6005.644   -13945.468   -28801.699   -6981.1007    18411.427    -8074.143    81.918985 
   43900    1314.9225   -107.50823    1.1897695   -106.31846    4325.7405    4.3429915    4.3429915    4.3429915    4325.7405    8788.2684    14821.761   -10632.808    949.45012    2365.0325    1515.7097    81.915658 
   44000    908.49628   -107.14462   0.82202653   -106.32259    3850.4211    4.3305101    4.3305101    4.3305101    3850.4211    15875.411     -3107.81   -1216.3372   -22044.369   -12143.425   -1766.5881     81.21143 
   44100    985.50616   -107.22049   0.89170669   -106.32878   -9076.8718    4.3418415    4.3418415    4.3418415   -9076.8718   -8521.8464    2452.2572   -21161.026    918.11394    30098.101   -6580.4958    81.850606 
   44200    1457.8245    -107.6394    1.3190702   -106.32033   -1569.7818     4.341553     4.341553     4.341553   -1569.7818    3256.8932    12454.826   -20421.065    488.16962   -11954.265    5099.9531    81.834291 
   44300    728.53271    -106.9906    0.6591917   -106.33141   -11791.741    4.3421182    4.3421182    4.3421182   -11791.741   -1900.2072   -4481.3195   -28993.696   -28019.047    1692.7442   -6043.1467    81.866257 
   44400    1384.5586   -107.57512    1.2527777   -106.32234    10452.393    4.3304502    4.3304502    4.3304502    10452.393    8023.5266    9750.2607    13583.392    11858.207     23202.65   -2009.4395    81.208063 
   44500    937.29318   -107.17916   0.84808257   -106.33107    13889.327    4.3319516    4.3319516    4.3319516    13889.327     15904.48    18910.901    6852.6019   -8007.1257   -20096.548    221.55225    81.292556 
   44600     948.4831   -107.18803   0.85820744   -106.32982   -13118.675    4.3518066    4.3518066    4.3518066   -13118.675   -9751.1883   -2206.8472   -27397.988   -18167.904    347.13877   -7687.1947    82.415471 
   44700    1569.6972   -107.73525     1.420295   -106.31496    3323.1865    4.3354513    4.3354513    4.3354513    3323.1865     24668.56   -6776.6772   -7922.3236    7427.8956    4901.4834    5565.7859    81.489739 
   44800    594.65378   -106.87062   0.53805524   -106.33257   -2492.3472    4.3336089    4.3336089    4.3336089   -2492.3472   -6462.0067    9012.7071   -10027.742   -18846.448   -17367.402    -2505.431    81.385893 
   44900    1316.3814   -107.52084    1.1910896   -106.32975    4016.5485    4.3412229    4.3412229    4.3412229    4016.5485    16308.022   -1758.5923   -2499.7843   -7807.1517    2714.2775    916.11267    81.815626 
   45000    1113.1584     -107.343    1.0072091   -106.33579   -8719.5328    4.3390138    4.3390138    4.3390138   -8719.5328    3720.0299   -18482.095   -11396.534      16011.9   -2361.7967     6121.628    81.690787 
   45100    771.30034   -107.03241   0.69788876   -106.33452    9467.0642    4.3365505    4.3365505    4.3365505    9467.0642     40885.21    15826.252    -28310.27   -28384.382   -12937.239   -3081.8298    81.551738 
   45200    1523.0551   -107.69725    1.3780922   -106.31916   -4493.9209    4.3423307    4.3423307    4.3423307   -4493.9209     10905.56   -10161.412    -14225.91    22870.067   -707.10073    8634.4727    81.878272 
   45300    882.39939   -107.12277   0.79841351   -106.32435    13954.905    4.3273939    4.3273939    4.3273939    13954.905    18020.864    1763.2528    22080.597   -3487.7552   -8554.3693    3203.6175    81.036243 
   45400    1205.9149   -107.42162    1.0911372   -106.33048   -7523.8536    4.3419105    4.3419105    4.3419105   -7523.8536   -17240.275    15671.909   -21003.195    -14371.74     -13651.2   -3548.3625     81.85451 
   45500    1132.7013   -107.34708     1.024892   -106.32219    7909.9219    4.3440922    4.3440922    4.3440922    7909.9219    51350.157   -15738.093   -11882.299    14158.033    7929.0655    8091.4253    81.977958 
   45600     871.0514   -107.11354   0.78814561    -106.3254     856.0735    4.3360294    4.3360294    4.3360294     856.0735    4816.8277    5119.6764   -7368.2836   -12307.321   -14318.379   -1124.5006    81.522341 
   45700    1161.2002   -107.37314    1.0506783   -106.32247   -3052.8533     4.339231     4.339231     4.339231   -3052.8533    7266.2692    12395.562   -28820.391   -10607.416    4542.9081   -3524.5499    81.703058 
   45800    1222.9287   -107.42936    1.1065316   -106.32283    214.83482    4.3351653    4.3351653    4.3351653    214.83482    -1580.998    367.09907    1858.4034    6275.5248    7087.3213    7708.2576    81.473615 
   45900    1051.4363   -107.27519   0.95136167   -106.32382   -9945.7698    4.3452661    4.3452661    4.3452661   -9945.7698   -21829.063    6969.0113   -14977.257   -17764.029   -6585.2507   -6648.1761    82.044434 
   46000     981.4533   -107.20944   0.88803957   -106.32141   -7065.8109    4.3416666    4.3416666    4.3416666   -7065.8109    22087.142    10739.629   -54024.204   -3084.8879    26821.012    7407.8509    81.840716 
   46100    1276.1939   -107.47463    1.1547271    -106.3199    6980.5431    4.3286342    4.3286342    4.3286342    6980.5431    24433.082   -3985.3367    493.88375   -8837.9493    3710.5878   -2818.3467    81.105937 
   46200    943.02906    -107.1835   0.85327252   -106.33023    17953.233    4.3419631    4.3419631    4.3419631    17953.233    49798.201    12656.672   -8595.1723   -6349.1287    11189.292    171.81675    81.857483 
   46300    1161.7696   -107.37922    1.0511936   -106.32802   -26799.084    4.3504844    4.3504844    4.3504844   -26799.084    -27459.06   -8428.7431   -44509.448    8413.0655    26810.976    16643.371    82.340378 
   46400    1088.9923   -107.30222   0.98534316   -106.31688     20387.99    4.3308185    4.3308185    4.3308185     20387.99    50475.672    8990.4985    1697.7986    -7196.961   -8462.3072   -6856.8174    81.228783 
   46500    1008.3272   -107.23612   0.91235567   -106.32376   -21712.623    4.3389736    4.3389736    4.3389736   -21712.623   -29867.608    22139.329   -57409.589   -1954.5165    40493.758    4187.7287    81.688518 
   46600    1185.6813   -107.39487    1.0728293   -106.32204   -6640.2037    4.3370981    4.3370981    4.3370981   -6640.2037    10036.694    970.14892   -30927.454    7545.2586    2071.2897    6668.8279    81.582637 
   46700    957.64317   -107.19535   0.86649567   -106.32886    -6486.765    4.3446879    4.3446879    4.3446879    -6486.765    1719.0416    9766.5702   -30945.907   -13598.571    12934.237   -11721.439    82.011686 
   46800    1135.0236   -107.35469    1.0269932    -106.3277   -17341.262    4.3416668    4.3416668    4.3416668   -17341.262   -20695.627    17181.529   -48509.688   -2506.1133    29592.699   -40.790582    81.840723 
   46900    1165.9624   -107.37939    1.0549873    -106.3244    17104.569    4.3265337    4.3265337    4.3265337    17104.569    53945.506    18012.115   -20643.914   -2229.1938   -10943.712   -9317.2273    80.987924 
   47000    984.15874      -107.22   0.89048751   -106.32951   -22666.462     4.346958     4.346958     4.346958   -22666.462     -30345.4    717.96323   -38371.949   -18284.671    27608.668    -8230.072    82.140307 
   47100    1201.6413   -107.40528    1.0872703   -106.31801   -13345.525    4.3439513    4.3439513    4.3439513   -13345.525   -28802.745    446.89937   -11680.731    8284.8678      1654.44     120.8784    81.969985 
   47200    914.86424   -107.14576   0.82778839   -106.31797   -3859.8236    4.3369526    4.3369526    4.3369526   -3859.8236   -6315.7136    16377.962    -21641.72   -9798.2964     4119.226   -12749.777    81.574425 
   47300    1058.4952   -107.27772    0.9577487   -106.31997   -1986.0338    4.3400912    4.3400912    4.3400912   -1986.0338    4724.1157    14133.963    -24816.18   -10107.387    20020.567    3297.3715    81.751659 
   47400    1417.6715   -107.59786     1.282739   -106.31512    7981.5493    4.3355361    4.3355361    4.3355361    7981.5493    11491.306    25621.924   -13168.583    17042.624    -10319.48   -4324.3535    81.494525 
   47500    711.20021     -106.969   0.64350889   -106.32549   -8035.8277     4.350691     4.350691     4.350691   -8035.8277    19993.165   -6794.4555   -37306.193   -11867.926    17990.664   -9552.7262    82.352108 
   47600    1201.2312   -107.40506    1.0868993   -106.31816   -6807.7533    4.3381261    4.3381261    4.3381261   -6807.7533   -13896.596    1313.3403   -7840.0045    12077.881     6448.031    7699.8384    81.640663 
   47700    1003.6776   -107.22923   0.90814856   -106.32108    15620.221     4.328237     4.328237     4.328237    15620.221    27797.335    28067.297   -9003.9689    9798.8075   -7589.0927    -10089.05    81.083616 
   47800    1195.4833   -107.40962    1.0816984   -106.32792   -14396.047    4.3466052    4.3466052    4.3466052   -14396.047   -4560.2034    6921.7039   -45549.642    5495.0687    21025.152   -953.25178    82.120312 
   47900    1083.3393   -107.30603   0.98022817    -106.3258     1146.764    4.3425682    4.3425682    4.3425682     1146.764    11551.904   -1601.9966   -6509.6154    10259.246   -22435.878     2608.069    81.891711 
   48000    1024.7364   -107.24897   0.92720306   -106.32177    15004.225    4.3330508    4.3330508    4.3330508    15004.225    6484.4985    41897.816   -3369.6399    2183.3345    5986.2275   -9425.6997    81.354454 
   48100    1025.2136   -107.25205   0.92763479   -106.32441    6364.7101    4.3418536    4.3418536    4.3418536    6364.7101    26630.341    20493.507   -28029.718    96.389594     1552.768   -2226.4761    81.851288 
   48200    1256.7206   -107.45957    1.1371072   -106.32247   -6408.8277    4.3453022    4.3453022    4.3453022   -6408.8277   -15387.238    16717.652   -20556.897    3143.4075   -25804.257    336.78571    82.046478 
   48300    1203.3638   -107.40341    1.0888288   -106.31458     13061.15    4.3384369    4.3384369    4.3384369     13061.15    39250.098    16029.969   -16096.616   -1917.3901    17493.453   -8052.5809    81.658212 
   48400    928.73588   -107.16131   0.84033974   -106.32097   -19383.134    4.3416162    4.3416162    4.3416162   -19383.134   -29783.948    -2763.153   -25602.302    3583.6133   -26427.701    810.99216    81.837867 
   48500    1287.4958   -107.48025    1.1649533   -106.31529   -203.29747    4.3372659    4.3372659    4.3372659   -203.29747    -13050.06    14276.219   -1836.0517    3387.9022   -2627.7068   -3325.3806    81.592105 
   48600    1122.9476   -107.33271    1.0160666   -106.31664   -1758.5048     4.344771     4.344771     4.344771   -1758.5048    23889.153    17935.333       -47100    3125.8461     3398.406   -6976.0591    82.016397 
   48700    887.86709   -107.12452    0.8033608   -106.32116   -20807.045    4.3447096    4.3447096    4.3447096   -20807.045   -20030.843    202.59217   -42592.883    16307.278   -32770.829     5341.577     82.01292 
   48800    1407.8936   -107.58654    1.2738917   -106.31264    23967.465    4.3311202    4.3311202    4.3311202    23967.465    47312.736     11984.44     12605.22   -1053.7618    13382.674   -11605.055    81.245762 
   48900    735.39932   -106.99253   0.66540476   -106.32713    1489.8546    4.3424787    4.3424787    4.3424787    1489.8546    8568.0194    39876.592   -43975.048    2643.6651   -20796.258      -5229.3    81.886645 
   49000    1237.4388    -107.4445    1.1196606   -106.32484   -8387.9061    4.3434016    4.3434016    4.3434016   -8387.9061    4223.9206     6527.407   -35915.046    4098.9212   -14646.071    1947.3535    81.938866 
   49100    1258.1637   -107.45398     1.138413   -106.31557    19957.082     4.339885     4.339885     4.339885    19957.082    33823.184    33487.938   -7439.8759   -646.84214    2571.5979   -8352.7348    81.740008 
   49200    604.50372   -106.87116   0.54696767    -106.3242     -17866.9    4.3448644    4.3448644    4.3448644     -17866.9   -26105.543    9022.2255   -36517.382    7642.7773   -32710.252   -1576.4017    82.021685 
   49300    1450.6953    -107.6253    1.3126196   -106.31268   -100.94444    4.3362425    4.3362425    4.3362425   -100.94444   -3287.5384   -13119.453    16104.158    2978.2483    1373.9779    9798.6048    81.534364 
   49400    1113.2319   -107.32561    1.0072756   -106.31833    894.74017    4.3426259    4.3426259    4.3426259    894.74017    12461.829    15018.761   -24796.369   -3003.0446    -23198.47   -2892.3212    81.894974 
   49500    821.67696   -107.06463   0.74347058   -106.32116   -22944.343    4.3498777    4.3498777    4.3498777   -22944.343   -26942.131   -431.66473   -41459.234    6724.7701   -15000.164    3293.9425    82.305935 
   49600    1354.1822   -107.53457    1.2252925   -106.30927     5905.057    4.3320915    4.3320915    4.3320915     5905.057    22969.034   -1360.3124   -3893.5504    1890.5993    2426.0359    15383.281    81.300435 
   49700    960.46949   -107.19191   0.86905298   -106.32286   -3543.7987    4.3401419    4.3401419    4.3401419   -3543.7987   -19576.169    29883.855   -20939.082     -5898.13   -33808.597   -2305.2874    81.754521 
   49800    1209.2303   -107.41455     1.094137   -106.32042   -9137.0874    4.3461971    4.3461971    4.3461971   -9137.0874   -9555.5114    11659.334   -29515.085    10423.608    7956.7909     12632.18    82.097184 
   49900    1258.7039   -107.45528    1.1389017   -106.31638    7571.2926    4.3382041    4.3382041    4.3382041    7571.2926    26247.076    20146.071   -23679.269    624.81035   -11028.642    3588.9773    81.645068 
   50000    766.78453   -107.01254   0.69380276   -106.31874   -6491.5487    4.3482683    4.3482683    4.3482683   -6491.5487   -27892.362    22809.963   -14392.247    2397.1211   -16296.719   -3240.7189     82.21461 
   50100    1046.9349    -107.2587   0.94728874   -106.31141   -1795.3263    4.3447667    4.3447667    4.3447667   -1795.3263    -5178.126     13244.74   -13452.593    12734.354    12523.401    7671.9449    82.016151 
   50200    1192.1624   -107.39169    1.0786936   -106.31299    14496.823    4.3346035    4.3346035    4.3346035    14496.823    22135.507    28068.796   -6713.8332   -886.23201   -19174.384   -1933.0652    81.441944 
   50300    1070.0151   -107.28656   0.96817219   -106.31839   -1913.4657    4.3447601    4.3447601    4.3447601   -1913.4657    1658.3991    13164.674    -20563.47    7075.4113    12211.925   -4052.4149    82.015779 
   50400    1042.1752   -107.25969   0.94298202   -106.31671   -4383.3513    4.3423577    4.3423577    4.3423577   -4383.3513    25813.602    1870.5552   -40834.211    1386.9586   -3287.5448    13492.547    81.879801 
   50500     898.6331   -107.13324   0.81310211   -106.32014    3050.5703    4.3364306    4.3364306    4.3364306    3050.5703   -7752.1854    27474.855   -10570.959   -2611.9865   -18494.249   -1275.6376    81.544977 
   50600    1279.1396   -107.47992    1.1573924   -106.32253   -11445.785    4.3448047    4.3448047    4.3448047   -11445.785    -9554.627   -10246.679    -14536.05   -8485.1234    16976.306    5823.1046    82.018304 
   50700    1465.0625   -107.64288    1.3256194   -106.31726   -2333.3821    4.3434767    4.3434767    4.3434767   -2333.3821    18088.002   -2872.3557   -22215.793   -678.54579   -17098.237    11154.041    81.943121 
   50800    956.23241   -107.18418   0.86521918   -106.31896   -3313.0115    4.3396918    4.3396918    4.3396918   -3313.0115   -23660.772    21218.824   -7497.0871   -11859.129    12751.527   -769.30231     81.72909 
   50900    1100.0078   -107.31148   0.99531019   -106.31617   -8129.9076    4.3449097    4.3449097    4.3449097   -8129.9076    3896.0832   -5664.2386   -22621.567   -4137.0326    15643.995    8429.4823    82.024252 
   51000    1070.9744   -107.28452   0.96904017   -106.31548   -2864.9168    4.3436161    4.3436161    4.3436161   -2864.9168    1968.2955    18241.734    -28804.78   -1727.2484   -9560.0785    1162.8451    81.951006 
   51100     954.4228    -107.1836    0.8635818   -106.32002    6312.6371    4.3387986    4.3387986    4.3387986    6312.6371    12709.015    14884.647   -8655.7508    -5426.595    25438.487   -214.02129    81.678638 
   51200    1623.8804   -107.77924    1.4693211   -106.30992   -1596.2021    4.3433393    4.3433393    4.3433393   -1596.2021    20249.897   -3193.9461   -21844.557    4710.8058   -9589.1097    7607.7782    81.935343 
   51300    631.20508   -106.89495   0.57112762   -106.32382    3838.6116    4.3404014    4.3404014    4.3404014    3838.6116   -11410.399    59914.039   -36987.806    4240.6106     11887.62    -2857.979    81.769186 
   51400    1280.6867   -107.47687    1.1587922   -106.31808    4091.7818    4.3430853    4.3430853    4.3430853    4091.7818   -329.82511     17010.22   -4405.0494    -1765.803    7138.3876    1293.1827    81.920968 
   51500    1535.8672   -107.70447    1.3896849   -106.31479    -2253.955    4.3425285    4.3425285    4.3425285    -2253.955     27110.88   -10517.334   -23355.411    6029.9036    92.807427    4131.3202    81.889466 
   51600    448.65749   -106.73429   0.40595473   -106.32833    11489.939    4.3343535    4.3343535    4.3343535    11489.939   -8440.6773    67320.443   -24409.949   -4244.1193    26261.787   -3939.8179    81.427853 
   51700    1428.2352   -107.60641    1.2922973   -106.31411    -458.9668    4.3497836    4.3497836    4.3497836    -458.9668    12402.631    8065.5625   -21845.094    2433.0326   -6556.8999   -2647.0013    82.300589 
   51800    1099.6782   -107.31634    0.9950119   -106.32133   -9424.1374    4.3413651    4.3413651    4.3413651   -9424.1374   -9342.6462    16428.917   -35358.683    4675.0682    29471.427   -27.340893    81.823665 
   51900    848.50059   -107.08915   0.76774116   -106.32141    10510.917    4.3307918    4.3307918    4.3307918    10510.917    19037.438    26295.553   -13800.241    1710.7446    4115.6014   -5521.1775    81.227281 
   52000    1376.0946   -107.56268    1.2451193   -106.31756   -10385.568    4.3475726    4.3475726    4.3475726   -10385.568    3309.0558   -20209.221   -14256.539    8838.0612   -2011.4382    2982.2881    82.175157 
   52100    771.99055   -107.02843   0.69851327   -106.32992   -5664.6321    4.3390015    4.3390015    4.3390015   -5664.6321   -12329.754    26297.962   -30962.104    8622.4306    25729.792   -8815.6668    81.690094 
   52200     1345.837   -107.54312    1.2177416   -106.32538    9904.3193    4.3351657    4.3351657    4.3351657    9904.3193    24114.841    25156.374   -19558.257    4071.4584   -24714.618   -3608.9467    81.473637 
   52300    1255.7602   -107.45615    1.1362382   -106.31992   -10475.876     4.349531     4.349531     4.349531   -10475.876    14451.474   -13664.436   -32214.665    6152.5094    20479.497    9025.2543    82.286255 
   52400    724.43058   -106.97808   0.65548001    -106.3226   -14695.423    4.3360472    4.3360472    4.3360472   -14695.423   -21141.009    854.09483   -23799.355    2815.2969    9446.0518   -10894.628    81.523347 
   52500    1205.7254   -107.41055    1.0909657   -106.31959   -5452.2579    4.3368971    4.3368971    4.3368971   -5452.2579    10313.968   -13174.917   -13495.825   -3262.1821   -16614.919    7032.0696    81.571293 
   52600    1242.3922   -107.44708    1.1241426   -106.32294   -21598.085    4.3464118    4.3464118    4.3464118   -21598.085   -23067.606     -9516.89    -32209.76    6635.2272    27638.597    10132.858     82.10935 
   52700    1174.3497   -107.38621    1.0625763   -106.32363    6872.8994    4.3338377    4.3338377    4.3338377    6872.8994    4138.2693    30582.367   -14101.938   -973.23575   -7301.2205   -1275.8055    81.398786 
   52800    1081.2739   -107.30127   0.97835937   -106.32291    -2187.155    4.3394309    4.3394309    4.3394309    -2187.155      26519.2   -23069.036   -10011.629   -6092.6247    -9039.855    11224.275    81.714349 
   52900    558.76489    -106.8336   0.50558222   -106.32801   -7814.2576    4.3385383    4.3385383    4.3385383   -7814.2576   -7719.9655    -5480.686   -10242.121    5397.4935    21786.527    4754.1889    81.663937 
   53000    1361.1503   -107.55151    1.2315974   -106.31992    3329.1216    4.3383757    4.3383757    4.3383757    3329.1216   -5258.9914    12771.322    2475.0346   -2250.5397   -16168.588    4200.6489    81.654757 
   53100    1268.4523   -107.47194    1.1477223   -106.32422   -12529.581    4.3451484    4.3451484    4.3451484   -12529.581   -23640.795   -5300.9865   -8646.9615   -5547.3548    8537.7318    1621.3137    82.037769 
   53200    991.06265   -107.21748   0.89673431   -106.32075   -6216.3045    4.3392639    4.3392639    4.3392639   -6216.3045   -17732.418   -4104.0405    3187.5453    4394.0273     19200.15    1376.5289    81.704916 
   53300    1236.8159   -107.43301     1.119097   -106.31391   -7067.5948    4.3421741    4.3421741    4.3421741   -7067.5948   -1010.9577   -17257.724    -2934.103   -4561.5376   -10980.797    -2555.393    81.869418 
   53400    707.97413   -106.96401   0.64058987   -106.32342    -3333.659     4.337817     4.337817     4.337817    -3333.659     5187.181   -8915.8488   -6272.3093   -4567.5756    24334.651    1068.4506    81.623213 
   53500    1456.5408   -107.63817    1.3179088   -106.32026    9165.2161     4.338615     4.338615     4.338615    9165.2161    4883.9093    20231.539    2380.2004    4899.7149     5687.709   -7559.7148    81.668266 
   53600    1161.1451   -107.37156    1.0506285   -106.32093     839.4103     4.343429     4.343429     4.343429     839.4103    11898.037    8502.9316   -17882.738   -9786.7862   -2576.9227   -815.23344     81.94042 
   53700    696.19926   -106.95681   0.62993572   -106.32687   -1568.4146    4.3374529    4.3374529    4.3374529   -1568.4146   -10564.205    4534.7827    1324.1782    524.12366    28152.547    1680.9117    81.602659 
   53800    1505.9153   -107.67951    1.3625838   -106.31692    2316.0811    4.3427749    4.3427749    4.3427749    2316.0811   -6262.2533    7803.0343    5407.4625    1093.7507    -6865.624   -11467.745    81.903405 
   53900    1076.6739   -107.29983   0.97419716   -106.32564   -5811.2934    4.3401613    4.3401613    4.3401613   -5811.2934   -28987.866    23997.171   -12443.185   -16913.224    14603.207    6411.2475    81.755622 
   54000    893.91809   -107.13444   0.80883588   -106.32561    9879.0503    4.3354185    4.3354185    4.3354185    9879.0503    -5981.996    19218.229    16400.918    4688.2684    23553.687    -5199.348    81.487894 
   54100    1417.3707   -107.59697    1.2824668    -106.3145    666.22365    4.3471198    4.3471198    4.3471198    666.22365    12022.265   -10104.764    81.170143   -10643.838   -13098.679   -1856.8282    82.149481 
   54200    934.95517   -107.16736   0.84596709   -106.32139    3050.5472    4.3379518    4.3379518    4.3379518    3050.5472   -20691.621    20849.067    8994.1953   -5065.1394    32268.638    4412.8849    81.630821 
   54300    1250.9423   -107.44935    1.1318789   -106.31747    10105.785    4.3359754    4.3359754    4.3359754    10105.785    2697.6013    2201.8963    25417.858     4109.316   -1382.1101   -659.49028    81.519297 
   54400    1169.5445   -107.37486    1.0582285   -106.31663   -6985.4335    4.3461081    4.3461081    4.3461081   -6985.4335   -9523.1602    28458.497   -39891.637   -4364.5751    1501.1033    2953.3548    82.092138 
   54500    787.37212   -107.03531   0.71243084   -106.32288   -2184.5224    4.3447126    4.3447126    4.3447126   -2184.5224    -19007.96    4490.1465    7964.2458    3335.3411    36679.912   -1347.3542    82.013089 
   54600    1437.6111   -107.61921    1.3007808   -106.31843     -2266.15     4.336696     4.336696     4.336696     -2266.15    -6408.925   -10855.651    10466.126    5529.9456   -19391.909    3193.3195    81.559949 
   54700    1173.2247   -107.38236    1.0615584    -106.3208    9983.2641    4.3306155    4.3306155    4.3306155    9983.2641   -23258.373    39891.723    13316.442   -2002.8985    24057.447   -10895.929    81.217362 
   54800    997.07272   -107.22712   0.90217235   -106.32495   -6296.4781    4.3457651    4.3457651    4.3457651   -6296.4781   -24276.779    8361.4102   -2974.0653    721.03245     9360.229   -4403.1315    82.072704 
   54900    950.25603   -107.18486   0.85981163   -106.32505   -19761.991    4.3439445    4.3439445    4.3439445   -19761.991    -14668.22    1004.0525   -45621.807    9181.4676   -23650.301    -7782.094    81.969598 
   55000    1159.4468   -107.36959    1.0490918    -106.3205    27959.554    4.3211091    4.3211091    4.3211091    27959.554    3393.0419    62283.452    18202.167   -6446.8628     31833.49   -2983.0595    80.683681 
   55100    1409.2499   -107.60167    1.2751189   -106.32655    -6238.515    4.3428521    4.3428521    4.3428521    -6238.515   -16307.637    5831.8276   -8239.7358    1943.2732   -19448.558   -1212.4187    81.907771 
   55200     884.0547    -107.1244   0.79991127   -106.32448    -7810.565    4.3432833    4.3432833    4.3432833    -7810.565   -15815.791    19062.664   -26678.569    1362.2437   -3727.9448   -5079.7909    81.932175 
   55300    905.67837   -107.13773   0.81947682   -106.31826    14719.499    4.3321002    4.3321002    4.3321002    14719.499    803.99735    44409.857   -1055.3561    -4550.028    22528.009    3909.4382    81.300926 
   55400    1068.4682   -107.28907   0.96677251   -106.32229   -8474.4496    4.3381729    4.3381729    4.3381729   -8474.4496   -19301.565   -2675.8217   -3445.9622   -3937.1959    -23846.22   -482.58476    81.643305 
   55500    1355.9931   -107.54946     1.226931   -106.32253    10655.332    4.3353409    4.3353409    4.3353409    10655.332   -6962.1802    27399.515    11528.661    3733.9285    13459.587    5284.0916    81.483514 
   55600    1205.4394   -107.41131    1.0907069    -106.3206   -7950.3948    4.3458251    4.3458251    4.3458251   -7950.3948   -24471.374    2809.5352   -2189.3456   -12295.243    6686.9954    2032.2806    82.076105 
   55700    841.86631   -107.08334   0.76173833    -106.3216   -8519.0086     4.337316     4.337316     4.337316   -8519.0086   -5948.9406    2261.6478   -21869.733    2076.5523   -11300.287    1331.9268    81.594931 
   55800     1177.569   -107.38453    1.0654892   -106.31904    6837.0146    4.3293389    4.3293389    4.3293389    6837.0146    10710.756    33964.425   -24164.137    3247.1792    12450.128   -953.80373    81.145558 
   55900    1108.1709   -107.32886    1.0026963   -106.32616   -11111.949    4.3427614    4.3427614    4.3427614   -11111.949   -25851.849   -15719.834    8235.8365   -21205.925   -3015.5555    4882.0051    81.902643 
   56000    1243.6698   -107.44888    1.1252986   -106.32359     10378.78    4.3360931    4.3360931    4.3360931     10378.78    5461.2589    8678.9778    16996.104    16557.922    -8972.495   -10203.994    81.525937 
   56100     1111.738   -107.32642    1.0059239    -106.3205     3545.431    4.3391871    4.3391871    4.3391871     3545.431   -6447.0614    26817.682   -9734.3276    -16145.77    5136.5085    2492.4737    81.700579 
   56200    704.04588   -106.96347   0.63703551   -106.32643   -6411.0935    4.3371275    4.3371275    4.3371275   -6411.0935   -12573.728    -4516.416   -2143.1368   -14522.178    -13151.21    6132.7381    81.584293 
   56300    1295.7211   -107.49428    1.1723957   -106.32189    15409.963    4.3325747    4.3325747    4.3325747    15409.963   -1117.4085    51837.358   -4490.0595    24638.373   -2577.1048    -12707.49    81.327644 
   56400     1231.546   -107.43883    1.1143287    -106.3245   -14050.475    4.3439245    4.3439245    4.3439245   -14050.475   -25585.484   -21446.705    4880.7632   -39681.449    68.329897    16670.664    81.968467 
   56500    1012.4869   -107.24203   0.91611938   -106.32591    -623.0747    4.3307797    4.3307797    4.3307797    -623.0747   -10737.432    4726.6982    4141.5099    12661.692   -13679.252    7217.5764    81.226601 
   56600      1121.98   -107.33745    1.0151911   -106.32226    7686.1743    4.3362237    4.3362237    4.3362237    7686.1743    2379.8066     31986.47   -11307.754     7932.234    8246.5983   -2940.0213    81.533304 
   56700    1059.5206   -107.28488   0.95867649   -106.32621   -15386.396    4.3408211    4.3408211    4.3408211   -15386.396   -20202.332   -12734.521   -13222.334   -43977.274   -10456.579    16571.654    81.792909 
   56800    1077.1644   -107.29941   0.97464099   -106.32477    20085.277    4.3331896    4.3331896    4.3331896    20085.277    6507.6519    33578.479      20169.7    29963.616   -193.62671      1597.79    81.362274 
   56900    1320.8391     -107.517     1.195123   -106.32187   -16116.865    4.3404398    4.3404398    4.3404398   -16116.865   -29741.768   -30165.185    11556.358   -13112.021    6449.0312   -868.07886    81.771358 
   57000    648.62867   -106.91673   0.58689285   -106.32984     17746.26    4.3293116    4.3293116    4.3293116     17746.26   -4444.1781    29115.278    28567.681   -20348.139   -11502.912      8491.76    81.144026 
   57100    1545.8618   -107.72711    1.3987282   -106.32838   -8244.3827    4.3396886    4.3396886    4.3396886   -8244.3827   -14508.173    359.48563   -10584.461    34212.768    3878.6194    3026.5102    81.728908 
   57200    1083.2557   -107.30898   0.98015249   -106.32883   -4370.8614     4.341831     4.341831     4.341831   -4370.8614    -14973.41    12769.649   -10908.824   -16705.953   -399.36435    6801.5532    81.850012 
   57300    903.77473   -107.14574   0.81775437   -106.32798    1915.1079    4.3280745    4.3280745    4.3280745    1915.1079   -11244.281   -7677.8878    24667.492   -7481.4753   -2515.3292    10257.618    81.074485 
   57400    1117.0646   -107.33519    1.0107435   -106.32444    2413.7456    4.3386921    4.3386921    4.3386921    2413.7456   -2560.3025    3580.2923    6221.2471    19692.813    743.80101   -4687.9482    81.672619 
   57500    1029.1688   -107.25941   0.93121354    -106.3282   -8854.9359    4.3404588    4.3404588    4.3404588   -8854.9359   -14184.013    2824.5255    -15205.32   -22077.818    2364.9269    5466.2234    81.772431 
   57600    1406.2862   -107.59737    1.2724373   -106.32493    9827.4948    4.3332364    4.3332364    4.3332364    9827.4948    5977.6726    5024.6239    18480.188   -2192.9477   -4431.1825    6650.1728    81.364908 
   57700    1193.0062   -107.40422    1.0794571   -106.32477   -2493.4223    4.3348286    4.3348286    4.3348286   -2493.4223   -14185.637    14406.037   -7700.6667    6215.2783    6557.2923   -9587.0686    81.454634 
   57800    513.35685   -106.80112   0.46449606   -106.33662   -13251.241    4.3389418    4.3389418    4.3389418   -13251.241   -21559.407   -16439.815   -1754.5006   -26738.029   -342.12924    9145.8879    81.686722 
   57900    1413.9386   -107.60583    1.2793614   -106.32647    1001.9232    4.3390842    4.3390842    4.3390842    1001.9232   -20706.482    15667.153    8045.0982    11010.521    -3094.343   -778.85101    81.694764 
   58000     1078.453   -107.30946   0.97580698   -106.33365    -7748.711    4.3400615    4.3400615    4.3400615    -7748.711   -2907.9969   -4368.9172   -15969.219   -12579.044    11450.383   -6929.7957    81.749978 
   58100    1049.1107   -107.28394   0.94925741   -106.33468   -9945.4205    4.3351522    4.3351522    4.3351522   -9945.4205   -14316.196   -18523.542    3003.4772   -28428.328   -7620.1084    3011.7505    81.472874 
   58200    1385.9434   -107.57748    1.2540307   -106.32345     6207.829    4.3351092    4.3351092    4.3351092     6207.829   -3224.4173    6418.0678    15429.836    9300.6283    6434.0305   -3898.1533    81.470449 
   58300    542.02758    -106.8256   0.49043795   -106.33516   -16958.836    4.3455547    4.3455547    4.3455547   -16958.836   -13487.642   -25299.215   -12089.649    -24583.12     7073.815   -2235.1639    82.060784 
   58400     1207.055   -107.42249    1.0921687   -106.33032   -7970.5701    4.3350075    4.3350075    4.3350075   -7970.5701   -8536.5764   -13685.531    -1689.603   -18851.021    -5612.112      3765.74    81.464717 
   58500     1405.973   -107.59949    1.2721539   -106.32733    5232.0623    4.3310972    4.3310972    4.3310972    5232.0623   -11111.893    33100.686   -6292.6057    17127.634    21867.028    1438.6858    81.244468 
   58600    1121.6935   -107.34613    1.0149319    -106.3312   -21284.946    4.3412456    4.3412456    4.3412456   -21284.946    -18546.72   -39867.721   -5440.3973   -25006.699   -6156.2893    3404.4651    81.816907 
   58700    860.06261   -107.10626   0.77820272   -106.32805   -4685.3319     4.341382     4.341382     4.341382   -4685.3319   -31841.121    20594.161    -2809.036    8757.0132        14478    6310.1154    81.824619 
   58800    1092.5369    -107.3147   0.98855034   -106.32615   -6764.8674    4.3345709    4.3345709    4.3345709   -6764.8674   -16406.356   -21307.378    17419.132    11712.869    14645.194   -3912.8589    81.440107 
   58900    1122.4807   -107.34218    1.0156442   -106.32653    11341.384    4.3332613    4.3332613    4.3332613    11341.384     10526.35    31354.245   -7856.4436   -18707.737    -6691.828     7815.275    81.366312 
   59000    1133.2444   -107.35393    1.0253833   -106.32854   -10233.845    4.3439557    4.3439557    4.3439557   -10233.845   -34517.743    9769.3855   -5953.1764    16865.635    28043.628     1904.247    81.970232 
   59100    1310.9957   -107.50796    1.1862165   -106.32175    4034.4166    4.3404772    4.3404772    4.3404772    4034.4166   -4624.5044    17674.068   -946.31331   -2163.3656   -9171.2466   -3246.7729    81.773472 
   59200    870.73043   -107.11465   0.78785519   -106.32679    863.33914    4.3328574    4.3328574    4.3328574    863.33914    9.1770291    3526.3207   -945.48029   -10209.634    9013.7452   -62.614636    81.343564 
   59300    853.54478   -107.10551   0.77230525    -106.3332   -7649.1638    4.3327371    4.3327371    4.3327371   -7649.1638   -19885.223    -2890.432   -171.83639    21017.142    16612.379   -4455.6206    81.336787 
   59400    1436.7263   -107.62452    1.2999802   -106.32454    12791.478    4.3432527    4.3432527    4.3432527    12791.478    7203.9892     36636.35    -5465.904   -6358.9377   -15082.742   -2463.2922    81.930441 
   59500    1117.2823   -107.33983    1.0109405   -106.32889   -5592.7631    4.3426453    4.3426453    4.3426453   -5592.7631   -31709.347    9935.1957     4995.862    2342.5831    26135.558   -9474.2457    81.896074 
   59600    1000.8281   -107.23052   0.90557028   -106.32495    11737.316    4.3303857    4.3303857    4.3303857    11737.316   -8152.0945    21267.139    22096.905    22235.444   -5702.2602    5418.2987    81.204434 
   59700    1129.1801   -107.34283    1.0217059   -106.32113    12645.955    4.3387746    4.3387746    4.3387746    12645.955    17170.442    6485.9839    14281.439    -9984.308   -1769.9474   -12671.253    81.677282 
   59800    949.56161   -107.18816    0.8591833   -106.32898   -15837.409     4.342407     4.342407     4.342407   -15837.409    -29034.09   -6513.8498   -11964.285     18220.38     27212.55   -6889.9656    81.882589 
   59900    1258.4068   -107.46225    1.1386329   -106.32361    16985.782    4.3321677    4.3321677    4.3321677    16985.782    12796.018    36007.338    2153.9896    15954.521   -11597.238    9502.8333    81.304723 
   60000    1445.6556   -107.63062    1.3080596   -106.32256    13227.072    4.3339558    4.3339558    4.3339558    13227.072    9051.7286    21186.666    9442.8222   -8231.1548    10205.177   -14905.337    81.405441 
   60100    736.76554     -106.998   0.66664094   -106.33136   -2528.1923    4.3433684    4.3433684    4.3433684   -2528.1923   -10386.444   -20806.076    23607.943    29200.169    18411.105    1571.0858     81.93699 
   60200    1185.1368   -107.39464    1.0723367    -106.3223    3089.1503    4.3412242    4.3412242    4.3412242    3089.1503    19680.625   -4647.5493   -5765.6246    2634.6023   -9757.9083   -319.47776      81.8157 
   60300    1222.7678   -107.42883     1.106386   -106.32244     20530.23    4.3326338    4.3326338    4.3326338     20530.23    4043.7537    23032.824    34514.112    185.00927    8081.3964   -16167.407    81.330971 
   60400    1184.5441   -107.39631    1.0718004   -106.32451    3291.1713    4.3385537    4.3385537    4.3385537    3291.1713     3459.482     7218.846   -804.81409    32163.858    8256.5181    413.24916    81.664807 
   60500    1117.6247   -107.33018    1.0112503   -106.31893    13689.599    4.3425833    4.3425833    4.3425833    13689.599    10124.847    12527.658    18416.293   -10844.861   -15494.364    961.40812    81.892563 
   60600    737.87132   -106.99343   0.66764148   -106.32579   -2475.2517    4.3373749    4.3373749    4.3373749   -2475.2517    3730.4403   -20287.528    9131.3323    17595.053    6042.9678   -10957.508    81.598256 
   60700    1166.6225   -107.38198    1.0555846    -106.3264    13033.389    4.3316298    4.3316298    4.3316298    13033.389    15273.346     15918.58      7908.24    21821.048   -174.30112    6137.8604    81.274443 
   60800    1581.8492   -107.75458    1.4312904   -106.32329    1640.9259    4.3416727    4.3416727    4.3416727    1640.9259   -8629.5358    2577.1949    10975.118   -3253.3459   -8536.7865   -679.27692    81.841058 
   60900    720.49292   -106.97769   0.65191714   -106.32577   -12216.805    4.3449165    4.3449165    4.3449165   -12216.805   -7594.2814   -43738.428    14682.294    37967.944    9099.4598   -1760.9856    82.024632 
   61000    1249.5466   -107.44365     1.130616   -106.31304    6882.5326    4.3328041    4.3328041    4.3328041    6882.5326    23721.889   -9132.2778    6057.9865   -6036.3041   -5383.6774    11788.058    81.340562 
   61100    1040.2582   -107.26325   0.94124744     -106.322   -1913.2056    4.3353037    4.3353037    4.3353037   -1913.2056   -12350.291   -17108.826      23719.5    16280.906   -529.67781   -10097.889    81.481418 
   61200    1056.9101   -107.28492   0.95631448   -106.32861   -1807.2069    4.3424466    4.3424466    4.3424466   -1807.2069   -4573.3179    6899.8365   -7748.1392    28635.271    5520.2127    9108.7898    81.884833 
   61300    1596.5174   -107.75682    1.4445625   -106.31225   -6003.3078    4.3474949    4.3474949    4.3474949   -6003.3078   -10377.175     3496.855   -11129.603   -15040.663   -4420.1814    4498.9197    82.170747 
   61400    359.41798   -106.64987   0.32520895   -106.32466   -6713.5015    4.3389725    4.3389725    4.3389725   -6713.5015    1837.4028    -44951.83    22973.923    37318.998     669.2858   -15621.211    81.688459 
   61500    1352.1583   -107.54128    1.2234613   -106.31782     9924.487     4.328851     4.328851     4.328851     9924.487    14696.075    15013.562     63.82468   -1872.0145    9474.1732    10672.588    81.118128 
   61600    1568.8641   -107.74149    1.4195412   -106.32195   -6479.3955    4.3435429    4.3435429    4.3435429   -6479.3955   -18513.602    1791.2061   -2715.7911    3577.8838    3086.4737   -5159.8833    81.946867 
   61700    680.13115   -106.94454   0.61539696   -106.32914   -13659.805    4.3427489    4.3427489    4.3427489   -13659.805    3764.3713    -43462.96   -1280.8247    27227.144     5564.605   -10801.285    81.901933 
   61800     1192.787    -107.3955    1.0792588   -106.31624    -4090.636    4.3330376    4.3330376    4.3330376    -4090.636    7753.6689   -15447.994    -4577.583   -11400.041    8969.1322    9575.0956     81.35371 
   61900     1167.772   -107.37613    1.0566246    -106.3195   -12768.371    4.3396656    4.3396656    4.3396656   -12768.371   -3195.0643    -36479.36    1369.3124    23639.393   -2180.1076   -6370.3308    81.727609 
   62000    1080.1803   -107.29928   0.97736984   -106.32191    5476.8087    4.3380307    4.3380307    4.3380307    5476.8087    19722.374   -10161.611    6869.6628    11399.436    8826.6012   -1863.9929    81.635273 
   62100    1361.5394   -107.55002    1.2319495   -106.31807   -11890.323    4.3419173    4.3419173    4.3419173   -11890.323   -11469.043   -8023.2269   -16178.698    2917.7128    4987.2487    9606.5982    81.854894 
   62200    793.89012   -107.04071   0.71832846   -106.32238    5987.9329     4.336702     4.336702     4.336702    5987.9329    35456.138   -34668.876    17176.536    27865.547   -6550.7224   -10988.891    81.560285 
   62300    991.69636   -107.21955    0.8973077   -106.32224    10801.714     4.329131     4.329131     4.329131    10801.714    20747.608   -14102.935    25760.469   -6419.7852    17544.656    8305.1256    81.133867 
   62400    1341.7605   -107.53792    1.2140531   -106.32386   -4145.6307    4.3479319    4.3479319    4.3479319   -4145.6307   -10747.992   -9662.6736    7973.7741    14138.898   -1756.5216    8314.8236     82.19553 
   62500     1175.095   -107.38501    1.0632506   -106.32176    1731.1827     4.340525     4.340525     4.340525    1731.1827    15763.977   -17987.369      7416.94    18836.162    1378.5868   -19822.982    81.776172 
   62600    766.55061   -107.01417    0.6935911   -106.32058    2194.3533    4.3228132    4.3228132    4.3228132    2194.3533    21305.872   -23916.588    9193.7763   -18795.535    15557.485    15765.957    80.779175 
   62700    1223.5995   -107.43294    1.1071385    -106.3258   -13776.647     4.340158     4.340158     4.340158   -13776.647    -8786.816   -31017.571   -1525.5531    15731.438   -6567.2622    3878.4146    81.755431 
   62800    1168.5675   -107.38154    1.0573444   -106.32419   -627.09389    4.3454394    4.3454394    4.3454394   -627.09389    8094.4261   -16528.113    6552.4047    6368.4445    4913.6665   -16406.233    82.054251 
   62900    1151.7525   -107.36496    1.0421298   -106.32283   -9343.1452    4.3381722    4.3381722    4.3381722   -9343.1452   -10940.195   -16027.595   -1061.6459    -19982.54    2043.2638    28963.114    81.643267 
   63000    1201.2501   -107.40282    1.0869164   -106.31591    16537.561    4.3290257    4.3290257    4.3290257    16537.561    3448.0483   -4223.1867    50387.822    6971.5391   -4595.6749   -6251.4409     81.12795 
   63100     690.5033   -106.95443    0.6247819   -106.32965    4573.6167    4.3357918    4.3357918    4.3357918    4573.6167    19167.204   -18758.906    13312.552   -1542.3061    1215.2086   -1141.6248    81.508945 
   63200    1310.0495   -107.50868    1.1853603   -106.32332    -10259.07    4.3492763    4.3492763    4.3492763    -10259.07   -18110.129    -19502.22    6835.1383   -20215.551    3712.0519    23215.387    82.271797 
   63300    1542.3499   -107.71063    1.3955506   -106.31507    15217.968    4.3317762    4.3317762    4.3317762    15217.968    6459.0778    24564.914    14629.911   -951.74293   -7210.9261   -17974.736    81.282685 
   63400    522.59049   -106.80098   0.47285086   -106.32813   -529.02748    4.3310198    4.3310198    4.3310198   -529.02748    19843.846   -17251.669   -4179.2587   -12538.706    5023.0309    8789.1186     81.24011 
   63500    1155.8873   -107.36787    1.0458711   -106.32199   -10751.663    4.3448967    4.3448967    4.3448967   -10751.663   -14445.045   -31280.909    13470.964   -18758.603   -7357.4565   -2871.8292    82.023515 
   63600    1180.6469    -107.3869    1.0682741   -106.31863    15439.412    4.3409518    4.3409518    4.3409518    15439.412    3284.8851    14130.514    28902.838   -529.12344   -4375.9295   -7528.8004    81.800301 
   63700    1108.2736   -107.32738    1.0027892   -106.32459   -12868.521    4.3358985    4.3358985    4.3358985   -12868.521   -16084.064    -17642.51   -4878.9887   -26165.517    3169.4836    12260.151    81.514959 
   63800    1162.2815   -107.37007    1.0516567   -106.31841    22000.801    4.3282022    4.3282022    4.3282022    22000.801   -874.52302    7228.4205    59648.505     6463.399   -3867.8681   -6624.1828    81.081659 
   63900    855.00584    -107.1006   0.77362725   -106.32697   -11859.483    4.3449475    4.3449475    4.3449475   -11859.483    434.60203   -9210.7809   -26802.271   -9706.0918   -1129.8049    12491.853    82.026392 
   64000    1076.4121   -107.29379   0.97396028   -106.31983   -19692.245    4.3486712    4.3486712    4.3486712   -19692.245   -28870.944   -29475.977   -729.81232   -14985.097    3804.0182    2948.2672    82.237464 
   64100     1645.009   -107.79678    1.4884387   -106.30834    22407.275    4.3197449    4.3197449    4.3197449    22407.275     2875.049    28949.935    35396.841    26422.286   -4526.7312    5928.8782    80.607288 
   64200    872.37825   -107.11423   0.78934617   -106.32489    1228.8827    4.3335703    4.3335703    4.3335703    1228.8827    -1052.916   -1948.1935    6687.7577   -24190.081    1621.5919    11221.304    81.383722 
   64300    871.58021   -107.10784   0.78862409   -106.31921   -21051.768    4.3512647    4.3512647    4.3512647   -21051.768   -20529.764   -48055.826    5430.2873      14032.7    4640.2601    4790.8411    82.384688 
   64400    1228.8759   -107.42526    1.1119127   -106.31335    11662.995    4.3370841    4.3370841    4.3370841    11662.995    -3728.067    1124.8572    37592.194    11924.741   -5530.6197    882.71148    81.581845 
   64500    1102.7127   -107.31729   0.99775761   -106.31953    3284.7575    4.3264552    4.3264552    4.3264552    3284.7575    4575.3386   -5868.4976    11147.431    -12691.62    11083.836    6662.3662    80.983515 
   64600    1229.9236   -107.44012    1.1128607   -106.32726    4524.0373    4.3340406    4.3340406    4.3340406    4524.0373   -21075.259   -19646.042    54293.412     29153.35   -6239.0178   -1950.6407    81.410221 
   64700    1192.3003   -107.39971    1.0788183   -106.32089   -15475.677    4.3516607    4.3516607    4.3516607   -15475.677   -1010.0333   -15395.972   -30021.025   -12619.607    6765.3215   -5627.7168    82.407186 
   64800    499.84752    -106.7874   0.45227254   -106.33513   -21706.097    4.3360461    4.3360461    4.3360461   -21706.097   -32449.115   -30445.908   -2223.2669      13928.6    6794.8846    12699.511    81.523285 
   64900     1609.203   -107.77721    1.4560407   -106.32117    23795.499    4.3174783    4.3174783    4.3174783    23795.499     4766.886    35207.245    31412.366    18470.241     455.9599   -16488.964    80.480466 
   65000    1312.6326   -107.51463    1.1876976   -106.32693    -9534.428    4.3472403    4.3472403    4.3472403    -9534.428   -17723.043   -12719.829    1839.5876   -10410.372    6102.9774    6955.1034    82.156311 
   65100    538.84572   -106.81792   0.48755893   -106.33036   -27241.533    4.3465255    4.3465255    4.3465255   -27241.533   -29505.357    -55262.93    3043.6878    33147.223    8675.5835    2581.7635    82.115793 
   65200    1279.6052   -107.47465    1.1578137   -106.31684    25111.179    4.3251199    4.3251199    4.3251199    25111.179    9025.4178    29106.953    37201.165   -9683.5639   -7265.8547   -6327.5441    80.908559 
   65300    1317.4578   -107.51697    1.1920635   -106.32491     6606.322    4.3317776    4.3317776    4.3317776     6606.322    17078.271    2157.7211    582.97397    13390.291    274.05665    11435.874    81.282764 
   65400    987.07586   -107.22395   0.89312698   -106.33082   -3745.0695    4.3433843    4.3433843    4.3433843   -3745.0695   -34643.604   -5560.3076    28968.703    23880.281    6433.9882   -3383.1565    81.937887 
   65500    978.21222   -107.20586   0.88510697   -106.32075   -3959.9855    4.3456479    4.3456479    4.3456479   -3959.9855    4747.2083   -3508.9001   -13118.265   -8503.6438     -19541.7   -5486.8833    82.066066 
   65600    1037.7544   -107.26173   0.93898203   -106.32275    3224.0005    4.3242371    4.3242371    4.3242371    3224.0005   -805.26332   -18086.762    28564.026    33456.813    7995.7475    4524.5393    80.859026 
   65700    1326.1773   -107.52954    1.1999531   -106.32958    12683.423    4.3275582    4.3275582    4.3275582    12683.423    -8455.856     27126.72    19379.406    5659.7876   -11782.469   -1243.7477    81.045473 
   65800    1130.4623   -107.34799    1.0228661   -106.32513   -20536.353    4.3534767    4.3534767    4.3534767   -20536.353   -16243.646   -25045.343   -20320.069    9081.7437   -8979.3076   -17765.514    82.510398 
   65900    921.26522   -107.15628   0.83358013    -106.3227   -6522.4553     4.332733     4.332733     4.332733   -6522.4553    8806.9026   -48050.969      19676.7    24274.586     2912.001    13847.004    81.336556 
   66000    1054.9095   -107.27179   0.95450432   -106.31729     13881.84    4.3231686    4.3231686    4.3231686     13881.84    14052.712   -5779.4066    33372.216   -4853.9564   -15060.627   -13196.521    80.799096 
   66100    1029.6194   -107.25903   0.93162131   -106.32741   -10933.319    4.3411394    4.3411394    4.3411394   -10933.319    424.38456   -14470.462   -18753.879    24185.575    1494.0945   -11862.313    81.810908 
   66200    1302.6992   -107.50271    1.1787096     -106.324    2390.5912    4.3437995    4.3437995    4.3437995    2390.5912   -9918.9261   -8742.7977    25833.497    13423.164   -109.45623    24358.238    81.961388 
   66300    1300.6119   -107.49841     1.176821   -106.32159   -527.20554    4.3339453    4.3339453    4.3339453   -527.20554   -4604.6697    5418.5474   -2395.4943   -7760.8066   -5981.7807   -27607.852    81.404849 
   66400    417.61746   -106.71012   0.37786905   -106.33226    7524.5655    4.3243806    4.3243806    4.3243806    7524.5655    13862.718   -29737.789    38448.768    33715.376   -4054.4559    11686.278    80.867072 
   66500    1317.8919   -107.52858    1.1924563   -106.33612   -8614.0581    4.3414057    4.3414057    4.3414057   -8614.0581    -2256.356   -28663.622    5077.8034   -2811.4845    9738.4921    10961.066    81.825963 
   66600    1400.3222   -107.59626     1.267041   -106.32922   -514.80749    4.3423082    4.3423082    4.3423082   -514.80749   -20572.125   -8686.2064    27713.909    4299.9944   -12140.941   -14237.411    81.877001 
   66700    910.46061   -107.15109    0.8238039   -106.32729   -3095.8168    4.3293251    4.3293251    4.3293251   -3095.8168    8068.8708   -33526.776    16170.455    23805.027    1988.4247    18326.022    81.144781 
   66800    1139.7064   -107.35286    1.0312303   -106.32163   -4002.3933    4.3403832    4.3403832    4.3403832   -4002.3933     -2007.01   -39029.541    29029.372   -13360.549   -3261.9797    6729.4807    81.768159 
   66900    1026.8294    -107.2552   0.92909686    -106.3261   -4539.8121    4.3340368    4.3340368    4.3340368   -4539.8121    2825.7798   -33197.449    16752.233    19180.899   -14474.902    -2738.773    81.410006 
   67000     998.7461   -107.23325   0.90368646   -106.32956    9964.7459    4.3356689    4.3356689    4.3356689    9964.7459    24676.242   -9058.1583    14276.154   -406.16533    4230.4114    19250.118    81.502013 
   67100    1482.0103   -107.66158    1.3409541   -106.32062   -14252.737    4.3445827    4.3445827    4.3445827   -14252.737   -22187.444    -17924.09   -2646.6779   -8896.2493    4502.6193   -2419.4637    82.005732 
   67200    852.31042   -107.09518   0.77118838   -106.32399    5663.5951    4.3297629    4.3297629    4.3297629    5663.5951    14517.155   -22081.741    24555.372    29566.193   -7898.7383    4362.7296    81.169402 
   67300    845.94323   -107.09011   0.76542721   -106.32468   -12731.925    4.3332553    4.3332553    4.3332553   -12731.925   -6928.6251   -40398.093    9130.9433   -23649.973    14232.089    16865.406    81.365974 
   67400    1188.6251   -107.39825    1.0754929   -106.32275   -5718.4483    4.3420724    4.3420724    4.3420724   -5718.4483   -3410.1453   -27918.694    14173.495    4551.0253    883.96889   -7763.7905    81.863663 
   67500    1522.6551   -107.69774    1.3777303   -106.32001   -3526.2777    4.3364351    4.3364351    4.3364351   -3526.2777    8227.8949   -13357.136   -5449.5917    8564.7099   -2606.2571      16491.8    81.545229 
   67600    818.38394   -107.06744   0.74049098   -106.32695   -5726.8263    4.3361643    4.3361643    4.3361643   -5726.8263     6699.949   -36107.352    12226.924    -27843.25    17447.272    1608.8681    81.529951 
   67700    1069.3385   -107.28817   0.96755999   -106.32061   -7109.4271    4.3378649    4.3378649    4.3378649   -7109.4271    287.27951       -41688    20072.439    6099.4152   -3567.5539    4553.4422    81.625914 
   67800     1087.956   -107.30624   0.98440546   -106.32183    6510.5031    4.3329628    4.3329628    4.3329628    6510.5031    16258.634   -11542.357    14815.232   -8579.3051    3887.8118    23466.325    81.349496 
   67900    1114.5347    -107.3373    1.0084544   -106.32885   -8153.4907    4.3411276    4.3411276    4.3411276   -8153.4907   -20680.951   -13612.986    9833.4651    -21292.97    10080.147    -3835.706    81.810236 
   68000    1441.8254   -107.62315     1.304594   -106.31856    10358.741    4.3373148    4.3373148    4.3373148    10358.741    13303.168    1140.4981    16632.557    6429.9338   -4250.6067    21334.934    81.594863 
   68100    673.43128   -106.93603   0.60933477    -106.3267   -2254.7287    4.3354118    4.3354118    4.3354118   -2254.7287    4916.1899   -34023.192    22342.816   -14250.613    5704.5173    7720.3416    81.487516 
   68200    1075.9744   -107.29634   0.97356429   -106.32278   -8183.6835    4.3394741    4.3394741    4.3394741   -8183.6835    -11605.86   -26587.292    13642.101    -9443.604    7736.6867   -2051.6346    81.716792 
   68300    1363.4815   -107.55228    1.2337067   -106.31858    13689.068     4.333863     4.333863     4.333863    13689.068    30176.654   -678.60813     11569.16     4720.126   -5639.3612    21821.083    81.400214 
   68400    997.69907   -107.22715   0.90273909   -106.32441   -11625.098    4.3407644    4.3407644    4.3407644   -11625.098   -19602.525   -22800.489    7527.7219   -22351.904    8976.4018   -5650.9255    81.789708 
   68500    1047.5595   -107.26547   0.94785388   -106.31761     6974.804    4.3358683    4.3358683    4.3358683     6974.804    24382.001   -20494.308    17036.718    4109.8216    1586.0142   -3809.5411    81.513255 
   68600    986.80095   -107.21188   0.89287823     -106.319    4319.1114    4.3358995    4.3358995    4.3358995    4319.1114    7754.6423   -15373.809    20576.501   -7048.3933   -75.676503    21822.758    81.515017 
   68700    1214.2908   -107.41892    1.0987158    -106.3202   -7821.5055    4.3408932    4.3408932    4.3408932   -7821.5055    -12330.34   -11851.696    717.51959   -21231.357    14088.398   -19926.092    81.796987 
   68800    1195.4852   -107.39845    1.0817001   -106.31675    13995.504    4.3310753    4.3310753    4.3310753    13995.504     17059.89    21138.862    3787.7589    13245.553    6265.5178    21480.174    81.243233 
   68900    982.11391   -107.21209   0.88863731   -106.32345   -9879.6343    4.3379418    4.3379418    4.3379418   -9879.6343   -2753.8172   -23246.315   -3638.7708   -21906.178   -454.20327    11023.366    81.630258 
   69000    960.06639   -107.18969   0.86868825     -106.321    421.80421    4.3423516    4.3423516    4.3423516    421.80421   -7117.5793   -23122.717    31505.709   -8064.6362    20154.982   -9427.4098    81.879455 
   69100    1357.8721   -107.54779    1.2286312   -106.31916   -3457.8002    4.3361704    4.3361704    4.3361704   -3457.8002    6495.7863   -13321.965   -3547.2223    3438.1656    1956.7893    35765.669    81.530294 
   69200    1059.0224   -107.28159   0.95822569   -106.32337    7421.7631    4.3336497    4.3336497    4.3336497    7421.7631   -16825.507    2105.5823    36985.214   -36053.182    3263.4744   -184.10248    81.388191 
   69300    1207.4207   -107.41146    1.0924996   -106.31896    152.08118    4.3355121    4.3355121    4.3355121    152.08118    6982.9198     9023.151   -15549.827    8767.4735    23946.398    10928.067    81.493172 
   69400    821.00371   -107.06699   0.74286141   -106.32413   -5447.2634    4.3439334    4.3439334    4.3439334   -5447.2634    -2772.922   -16923.869    3355.0011   -18300.525   -10501.327    18506.488    81.968968 
   69500     1356.722   -107.54549    1.2275906    -106.3179    1277.1642     4.334278     4.334278     4.334278    1277.1642   -16356.586    584.35775    19603.721    -23070.09    15887.468    598.65687      81.4236 
   69600     1197.784   -107.40328    1.0837801    -106.3195    21010.044     4.331708     4.331708     4.331708    21010.044    28529.488     26945.43     7555.214    11193.354    7845.1635    10787.647    81.278844 
   69700    1028.5962   -107.25264   0.93069547   -106.32195    -20600.33    4.3441255    4.3441255    4.3441255    -20600.33   -32025.487   -29303.962   -471.54123   -29033.655   -1425.4887    4589.2543    81.979845 
   69800    875.48589   -107.11038   0.79215803   -106.31822    12467.412     4.337338     4.337338     4.337338    12467.412    3103.2134    5547.9336    28751.089   -172.68105    17735.207    2175.1438    81.596175 
   69900    1233.4407   -107.43586    1.1160431   -106.31981   -9932.3027    4.3331941    4.3331941    4.3331941   -9932.3027   -5420.2384   -18889.038   -5487.6315   -400.53455    -863.1846    8293.2219    81.362529 
   70000    1043.1868   -107.26798   0.94389738   -106.32409    9636.9346    4.3353027    4.3353027    4.3353027    9636.9346    -7826.639    258.27186    36479.171   -25100.951    6697.7906   -724.94237    81.481359 
   70100    1416.6917   -107.60143    1.2818524   -106.31957   -9524.5928    4.3411177    4.3411177    4.3411177   -9524.5928   -13263.708    6462.8358   -21772.906    8722.1897    9082.4973   -2550.1108    81.809679 
   70200    679.60448   -106.93645   0.61492041   -106.32153   -11365.218    4.3420331    4.3420331    4.3420331   -11365.218    5333.8418   -26064.193   -13365.303   -19949.799   -2395.2136    15292.279    81.861441 
   70300    1272.0182   -107.46629    1.1509488   -106.31534    2594.4878    4.3278394    4.3278394    4.3278394    2594.4878   -53.359071   -559.22364    8396.0462   -9999.4151    5082.5334   -8550.2823    81.061272 
   70400    1146.8745   -107.35847    1.0377161   -106.32075    3867.7446    4.3392555    4.3392555    4.3392555    3867.7446    12786.412   -9632.9368    8449.7586    4683.6731    4977.7967     9268.245     81.70444 
   70500     1198.699   -107.40415    1.0846081   -106.31955   -17433.986    4.3455963    4.3455963    4.3455963   -17433.986   -22635.955   -29362.746    -303.2583   -23246.406   -10009.011    13881.808    82.063141 
   70600    1051.0976   -107.26297   0.95105518   -106.31191    22351.463    4.3296451    4.3296451    4.3296451    22351.463    23661.321    22174.933    21218.136    6393.4254    6282.0546    -12734.22    81.162779 
   70700     860.8146   -107.09755   0.77888314   -106.31867   -12773.681    4.3388076    4.3388076    4.3388076   -12773.681   -7003.0991   -32329.457     1011.514   -7230.5424   -26.031979    12584.293    81.679143 
   70800    1140.4599    -107.3464    1.0319121   -106.31448    5249.1275    4.3414739    4.3414739    4.3414739    5249.1275     7997.067    -1904.571    9654.8866   -17596.708   -8359.0259    1331.8897    81.829815 
   70900    1366.2554   -107.55177    1.2362166   -106.31556    -2496.845    4.3383017    4.3383017    4.3383017    -2496.845    7273.8221    -6376.644   -8387.7131    4970.1833    7607.1211   -13199.488    81.650579 
   71000    1188.6508   -107.39455    1.0755162   -106.31903   -7051.3293    4.3382863    4.3382863    4.3382863   -7051.3293    3841.6844    -16837.71   -8157.9618   -3409.8483   -1255.6721    2998.7917    81.649707 
   71100     999.0433   -107.22075   0.90395538    -106.3168    3377.3845     4.332237     4.332237     4.332237    3377.3845    21899.974    4453.3758   -16221.196     -7645.35   -7292.9601    -5088.363    81.308626 
   71200    814.86485   -107.06096   0.73730684   -106.32366   -15662.142    4.3436367    4.3436367    4.3436367   -15662.142     13937.96   -49636.198   -11288.188    15009.621    2786.4854   -8072.2781    81.952177 
   71300    1306.1847   -107.49886    1.1818633     -106.317    4162.2395     4.337519     4.337519     4.337519    4162.2395    3058.4122   -12954.544    22382.851    8018.0924    -3574.002    5237.4218    81.606389 
   71400    1087.7735   -107.30557   0.98424033   -106.32133    12377.319    4.3317913    4.3317913    4.3317913    12377.319    44239.727    19869.439   -26977.208   -3711.6694   -15947.213   -13222.502    81.283532 
   71500     1204.665   -107.40748    1.0900062   -106.31747   -6032.4348    4.3423827    4.3423827    4.3423827   -6032.4348   -10511.094   -23096.894    15510.684    15026.618    10111.946   -2358.9919    81.881214 
   71600    928.94072   -107.15744   0.84052508   -106.31692    13725.295    4.3311053    4.3311053    4.3311053    13725.295    44256.117    7347.6437   -10427.876   -1324.3799   -16194.066     1411.489    81.244921 
   71700    751.66341   -107.00597   0.68012085   -106.32585   -8926.6624    4.3401256    4.3401256    4.3401256   -8926.6624    19076.834   -27718.318   -18138.503    7859.4897   -6717.3079   -21718.023    81.753603 
   71800    1523.2856   -107.69197    1.3783008   -106.31367   -6300.2264    4.3416558    4.3416558    4.3416558   -6300.2264    -18684.02   -14102.773    13886.113    12723.176    3582.8756    10662.813    81.840106 
   71900    1103.2126   -107.31578   0.99820997   -106.31757    9695.1648    4.3275629    4.3275629    4.3275629    9695.1648    37051.861    12275.402   -20241.769   -7792.6981   -19261.177   -22466.033    81.045735 
   72000     1091.727   -107.30812   0.98781755    -106.3203   -18739.492    4.3420827    4.3420827    4.3420827   -18739.492    4114.9694   -46188.048   -14145.396    19285.125    2688.3371    -20431.85    81.864249 
   72100    1178.8441   -107.38055    1.0666429   -106.31391   -1522.1063    4.3383625    4.3383625    4.3383625   -1522.1063   -7534.8457   -18942.501    21911.028    2368.7188   -7690.7251    6420.4455    81.654009 
   72200    844.21891   -107.08518   0.76386701   -106.32131    6058.8676    4.3328198    4.3328198    4.3328198    6058.8676    45970.011   -11417.677   -16375.732   -2331.1244   -11358.866   -41431.694    81.341445 
   72300    1285.3544   -107.48155    1.1630157   -106.31853    2957.9362     4.340453     4.340453     4.340453    2957.9362   -26156.161    -3927.355    38957.324    19766.973    881.72857    2663.2053    81.772106 
   72400    1192.6555   -107.40067    1.0791397   -106.32153     8033.754    4.3315766    4.3315766    4.3315766     8033.754   -1583.9512    28139.774   -2454.5603    260.29223   -230.91467   -8118.4309    81.271449 
   72500    789.61974   -107.04187   0.71446454    -106.3274    5228.4596    4.3389832    4.3389832    4.3389832    5228.4596    17015.949   -13289.605    11959.035    5328.8105   -12381.606   -20644.896    81.689061 
   72600    1246.6184   -107.44639    1.1279666   -106.31843   -15332.575    4.3424148    4.3424148    4.3424148   -15332.575   -34928.898   -9371.0187   -1697.8083    16272.191    9295.8227    5432.5907    81.883032 
   72700    1038.8295     -107.257    0.9399548   -106.31704    15948.334    4.3244351    4.3244351    4.3244351    15948.334    575.97243    21708.728    25560.301   -718.34618   -8126.1165   -11745.739    80.870131 
   72800     1161.708   -107.37416    1.0511378   -106.32302   -13925.204    4.3404223    4.3404223    4.3404223   -13925.204   -16275.387   -18478.633   -7021.5907    13858.787   -1323.0098   -11848.573    81.770372 
   72900    992.42667   -107.22227    0.8979685    -106.3243   -2965.6374    4.3405158    4.3405158    4.3405158   -2965.6374   -28356.477    9561.1792     9898.386    5080.4154    21635.482    7048.0091    81.775651 
   73000    1358.6804   -107.54621    1.2293626   -106.31685    10906.608    4.3287643    4.3287643    4.3287643    10906.608    17995.192    145.88011    14578.752    1519.2696   -14376.025   -5917.5229    81.113254 
   73100    912.16762   -107.15109   0.82534843   -106.32574   -10275.931     4.335996     4.335996     4.335996   -10275.931   -35124.892   -12218.015    16515.113    11958.432    27790.627   -9829.5029    81.520461 
   73200    1150.0185   -107.36418    1.0405609   -106.32362    3662.2174    4.3364246    4.3364246    4.3364246    3662.2174   -34547.331    44593.991    939.99164   -3990.0275    11431.272    16441.286    81.544635 
   73300    1229.2051   -107.43056    1.1122106   -106.31835   -7184.0847    4.3430667    4.3430667    4.3430667   -7184.0847    -14450.81    1613.7145   -8715.1581    6343.7595    -2781.884   -6234.9269    81.919918 
   73400    678.61411   -106.94216   0.61402431   -106.32813    -13980.74    4.3327711    4.3327711    4.3327711    -13980.74   -36632.479    15863.913   -21173.655    4950.5404    36177.465    865.66251      81.3387 
   73500    1405.2502   -107.59425    1.2714999   -106.32275    23806.388    4.3282281    4.3282281    4.3282281    23806.388    14044.912    22107.507    35266.745    1480.4494   -2052.5441    18738.611    81.083113 
   73600     1350.284   -107.54852    1.2217654   -106.32676   -6025.6283    4.3435356    4.3435356    4.3435356   -6025.6283    -31848.24    13103.673    667.68265    775.81602    12846.004   -11051.205    81.946455 
   73700    629.81061   -106.89694   0.56986587   -106.32707    1508.8804    4.3409224    4.3409224    4.3409224    1508.8804   -17990.125    19341.894    3174.8721    1644.4844    14111.694    13917.863    81.798636 
   73800     1318.625   -107.50457    1.1931196   -106.31145    16958.188    4.3345695    4.3345695    4.3345695    16958.188      15581.5    20081.573    15211.492   -4508.6546   -2435.4929    7755.4872    81.440029 
   73900    1097.2635     -107.313   0.99282712   -106.32018   -3128.1526    4.3362695    4.3362695    4.3362695   -3128.1526   -23511.066    21423.965    -7297.356    5064.9487    20577.772   -9738.8394    81.535886 
   74000    1278.2698    -107.4789    1.1566054   -106.32229   -1838.7398    4.3371811    4.3371811    4.3371811   -1838.7398   -10398.525   -6980.5568    11862.862   -2650.6376    -3591.543    16088.779     81.58732 
   74100    1122.6655   -107.33701    1.0158113    -106.3212   -2764.3683    4.3398223    4.3398223    4.3398223   -2764.3683   -6624.4594    23714.233   -25382.878   -1888.9706     1420.487   -1307.8295    81.736462 
   74200    786.52897   -107.03422   0.71166794   -106.32255   -10604.001    4.3360244    4.3360244    4.3360244   -10604.001   -16351.942    24837.777   -40297.836    3956.4502    17619.543    677.22574    81.522061 
   74300    1309.0469   -107.50282    1.1844532   -106.31837    10077.055    4.3352609    4.3352609    4.3352609    10077.055    20316.184   -4149.6743    14064.654   -5312.7263   -13303.835    15993.004    81.479005 
   74400    1065.2085   -107.28827     0.963823   -106.32445     3978.189     4.340153     4.340153     4.340153     3978.189   -17260.516    41263.824   -12068.741    940.47721    10176.258   -4922.8722     81.75515 
   74500    1255.1161   -107.45662    1.1356554   -106.32097    3404.0824    4.3380326    4.3380326    4.3380326    3404.0824   -1837.1628   -4125.0717    16174.482   -3251.4518    11376.955    7364.4314    81.635385 
   74600    1005.4654   -107.23137   0.90976625   -106.32161    14928.974    4.3312413    4.3312413    4.3312413    14928.974    26441.123    22660.423   -4314.6229    3292.4218   -8526.3894    6191.0021    81.252575 
   74700    705.03699   -106.97021   0.63793228   -106.33228   -12093.075    4.3363521    4.3363521    4.3363521   -12093.075   -5310.7966    24532.637   -55501.064   -3485.5039    20244.648   -13104.038    81.540545 
   74800    1702.4717   -107.86082    1.5404322   -106.32039    810.79599    4.3452044    4.3452044    4.3452044    810.79599     6539.536   -8490.0437    4382.8957    989.63012    2091.6304    5186.4082    82.040941 
   74900    1021.3641   -107.25495    0.9241517    -106.3308    12588.244    4.3313748    4.3313748    4.3313748    12588.244     2729.644    39282.832   -4247.7442    159.39196    2668.8364    2604.3919    81.260091 
   75000     717.0907   -106.98248   0.64883873   -106.33364   -148.16074    4.3316626    4.3316626    4.3316626   -148.16074    8852.7103    26409.531   -35706.723    -3482.878    12432.952   -17818.769     81.27629 
   75100    1465.8319   -107.64158    1.3263155   -106.31527    2665.5146    4.3467355    4.3467355    4.3467355    2665.5146    9373.8082   -314.27982   -1062.9847     3168.529   -5721.8334    2994.0958    82.127699 
   75200    779.09141   -107.03433   0.70493828   -106.32939    5840.4826    4.3339368    4.3339368    4.3339368    5840.4826    11274.825    44227.001   -37980.379   -3471.8972    11326.447   -9052.7488    81.404369 
   75300     1309.883   -107.50955    1.1852097   -106.32434    10057.755    4.3321887    4.3321887    4.3321887    10057.755    8708.1196    4710.7771    16754.368   -4746.3534   -6107.4875   -11382.211    81.305908 
   75400    1305.3425   -107.50127    1.1811013   -106.32017   -1389.0276    4.3399628    4.3399628    4.3399628   -1389.0276    12316.392   -2502.3882   -13981.087    6334.8098    6733.2359    4672.9314    81.744403 
   75500    724.04253    -106.9813    0.6551289   -106.32618    -6391.211    4.3382926    4.3382926    4.3382926    -6391.211    2703.2836    39389.719   -61266.636   -2336.8106    6571.3664   -13114.695    81.650064 
   75600    1298.8481    -107.4907     1.175225   -106.31547   -755.80367    4.3428614    4.3428614    4.3428614   -755.80367     19002.42   -8648.2255   -12621.606    2133.0674   -7751.5578    7537.4961      81.9083 
   75700    1093.0662   -107.31109   0.98902925   -106.32206     -1528.14    4.3329101    4.3329101    4.3329101     -1528.14   -6067.7631    13100.649   -11617.306    4640.6496    17549.119    5387.9231    81.346532 
   75800    1269.4659   -107.47037    1.1486394   -106.32173    8785.5986    4.3329221    4.3329221    4.3329221    8785.5986   -3143.2896    23868.055    5632.0303   -145.91252    481.37863   -11766.043    81.347207 
   75900    976.21634   -107.20498   0.88330106   -106.32168    -6020.168    4.3442081    4.3442081    4.3442081    -6020.168    10342.962   -14732.995   -13670.471    6122.4308    7408.8552    28267.249    81.984518 
   76000    815.87029   -107.06422   0.73821659   -106.32601    122.29051    4.3295498    4.3295498    4.3295498    122.29051    3567.0407    32635.608   -35835.778    4136.4633    12968.486   -3965.6326    81.157415 
   76100    1394.5105   -107.58536    1.2617824   -106.32358    5358.3848    4.3352536    4.3352536    4.3352536    5358.3848     7539.593    20473.585   -11938.024   -3306.7205   -8798.3165    4862.0854    81.478593 
   76200    1026.5202    -107.2566   0.92881701   -106.32778   -8499.2743     4.346111     4.346111     4.346111   -8499.2743   -16641.286     10177.98   -19034.517    8987.5366    17255.598    26468.901    82.092304 
   76300    1087.7933   -107.30724   0.98425828   -106.32298    463.08961    4.3396436    4.3396436    4.3396436    463.08961   -18737.233    30849.815   -10723.314   -4216.0012   -7131.5965    3156.8202    81.726366 
   76400    1131.7178   -107.33847     1.024002   -106.31447    5644.6524    4.3357569    4.3357569    4.3357569    5644.6524     16465.31    4944.0728    -4475.426     3331.345   -4880.5868    16501.283    81.506972 
   76500    713.47409   -106.96783   0.64556635   -106.32226   -3992.1822    4.3370854    4.3370854    4.3370854   -3992.1822   -20949.913    11958.198   -2984.8321    8806.4374    14879.104    14461.042    81.581921 
   76600    1487.6626   -107.66188    1.3460684   -106.31581   -4597.7432    4.3439072    4.3439072    4.3439072   -4597.7432   -11024.513    5138.0498   -7906.7666   -6167.5019   -13120.521    382.38255    81.967484 
   76700    1187.3004   -107.39151    1.0742943   -106.31722   -13708.041    4.3407815    4.3407815    4.3407815   -13708.041   -12615.437   -18779.647   -9729.0372    6575.4909    8399.4442    14890.605    81.790673 
   76800    732.31607   -106.98111   0.66261497   -106.31849   -2985.7459    4.3322141    4.3322141    4.3322141   -2985.7459   -16251.814    23536.107   -16241.531     2772.723    10948.051   -715.92796    81.307336 
   76900    1231.7075   -107.42929    1.1144748   -106.31482   -5213.3735    4.3397398    4.3397398    4.3397398   -5213.3735    12576.532   -2078.2214   -26138.431    -4748.957   -12241.176    -4095.427    81.731801 
   77000    1132.9081   -107.34633    1.0250791   -106.32125   -10386.762    4.3396393    4.3396393    4.3396393   -10386.762   -24203.556   -12602.889    5646.1592    2902.2584    21282.402    9106.7781    81.726122 
   77100    1361.0915   -107.54946    1.2315442   -106.31792    1045.2842    4.3358585    4.3358585    4.3358585    1045.2842   -9318.2856     4138.989    8315.1493   -867.58527   -1881.8001   -2815.9913    81.512704 
   77200    1015.6546   -107.23662   0.91898566   -106.31763   -9280.9289    4.3370815    4.3370815    4.3370815   -9280.9289    4886.3669   -12776.587   -19952.567   -3151.8097    1350.4279   -8752.5063      81.5817 
   77300    792.26802    -107.0383   0.71686076   -106.32144   -8896.8937    4.3390703    4.3390703    4.3390703   -8896.8937   -22035.126    219.87029   -4875.4258    5971.5668    28957.827    8708.2905    81.693982 
   77400    1405.5565   -107.58795    1.2717771   -106.31617   -2361.0027    4.3391182    4.3391182    4.3391182   -2361.0027    380.53092   -2925.7121   -4537.8268   -7635.7965   -14666.407   -12982.303    81.696688 
   77500    1102.9567   -107.31908   0.99797841    -106.3211    5397.7108    4.3317022    4.3317022    4.3317022    5397.7108   -11570.191    8976.8903    18786.433   -1064.0814    19991.349   -8721.2069    81.278519 
   77600    1026.6416   -107.25155   0.92892694   -106.32262    4947.5113     4.337459     4.337459     4.337459    4947.5113   -24951.217    17798.853    21994.897    4884.6084    27696.831    9089.6203    81.603005 
   77700    1086.4991   -107.30342   0.98308721   -106.32033   -5970.6456    4.3374778    4.3374778    4.3374778   -5970.6456     3128.965    1785.5143   -22826.416   -8309.9665   -11959.792   -17487.224    81.604064 
   77800    733.12823   -106.99126   0.66334983   -106.32791    11998.546    4.3392553    4.3392553    4.3392553    11998.546   -28828.465    21474.452    43349.653    986.46299    33870.302   -3441.8684     81.70443 
   77900    1595.7303   -107.75662    1.4438503   -106.31277   -10500.546    4.3457503    4.3457503    4.3457503   -10500.546    -27124.98   -4743.3525    366.69377   -2675.8622     9680.029   -2606.9906    82.071864 
   78000    899.87723   -107.13038   0.81422783   -106.31615    14891.755     4.321726     4.321726     4.321726    14891.755    6305.5144    -1260.667    39630.416   -3562.5776    7644.5289   -16331.359    80.718243 
   78100    733.91348   -106.99578   0.66406034   -106.33172   -2817.8915    4.3378856    4.3378856    4.3378856   -2817.8915   -34290.663    30019.502   -4182.5138    3179.4044    30520.357    2613.6164    81.627083 
   78200     1427.078   -107.60492    1.2912502   -106.31367   -13112.373    4.3493923    4.3493923    4.3493923   -13112.373   -18552.099   -3524.1819   -17260.839   -5216.6728   -11059.496   -5849.4104    82.278379 
   78300    998.70888   -107.22164   0.90365278   -106.31799    20211.142    4.3243548    4.3243548    4.3243548    20211.142    25.030887    11838.667     48769.73   -1671.9371    29410.908   -12913.306    80.865629 
   78400     1268.237   -107.46761    1.1475275   -106.32008   -7100.5209    4.3391319    4.3391319    4.3391319   -7100.5209   -27830.501    16160.872    -9631.934    8767.0619    1300.3776    749.11177    81.697462 
   78500    1031.7518   -107.25141   0.93355069   -106.31786   -6603.5244    4.3382645    4.3382645    4.3382645   -6603.5244    5240.9513   -19498.668    -5552.856   -10367.494   -7622.8062   -5908.8103    81.648476 
   78600     792.9788   -107.04464   0.71750388   -106.32714   -2483.2609    4.3356097    4.3356097    4.3356097   -2483.2609     559.9919     8506.609   -16516.384    7541.2964    35409.385   -10285.966    81.498674 
   78700    1667.2232   -107.82389    1.5085386   -106.31535   -6524.5848    4.3438821    4.3438821    4.3438821   -6524.5848   -24629.955    25212.609   -20156.408    10262.576   -25517.186   -2470.4716    81.966064 
   78800    910.65658   -107.14654   0.82398121   -106.32256    16292.544    4.3259798    4.3259798    4.3259798    16292.544    38063.169    12870.314   -2055.8494   -3759.6307    20091.797   -7407.3917    80.956824 
   78900    810.38528   -107.06345   0.73325363   -106.33019   -10366.031    4.3400195    4.3400195    4.3400195   -10366.031   -5861.5059    312.00284   -25548.591     14143.98    16670.515    1060.5903    81.747604 
   79000    1257.3705   -107.45406    1.1376953   -106.31636    3231.7676    4.3435133    4.3435133    4.3435133    3231.7676    9434.4804    17844.516   -17583.693    8122.6794   -22231.012   -1301.9202    81.945193 
   79100    945.90312   -107.17629   0.85587302   -106.32041    20631.409    4.3308543    4.3308543    4.3308543    20631.409    41449.812     30144.04   -9699.6264   -1759.1391    41991.787   -2566.4336    81.230796 
   79200    1422.6385   -107.60068    1.2872332   -106.31344   -3349.0904    4.3440455    4.3440455    4.3440455   -3349.0904   -9094.6141    2192.4559   -3145.1129     6751.976   -5803.3119    8121.7114    81.975318 
   79300    835.22589   -107.07305   0.75572994   -106.31732    16997.659    4.3324977    4.3324977    4.3324977    16997.659    46372.532    31014.193   -26393.746   -8118.8193    8873.4884   -6781.7048    81.323304 
   79400    783.03341   -107.03462   0.70850509   -106.32611   -9462.1447    4.3399945    4.3399945    4.3399945   -9462.1447    14010.299   -9475.9759   -32920.757    3615.7443    31016.039   -580.36783    81.746194 
   79500    1539.1567   -107.70731    1.3926614   -106.31465    549.92936    4.3406302    4.3406302    4.3406302    549.92936    19874.149   -6040.2617   -12184.099   -2567.0009   -13380.104    15207.765     81.78212 
   79600     1044.266   -107.26638   0.94487382   -106.32151    12359.992    4.3254085    4.3254085    4.3254085    12359.992    21658.399    41343.198   -25921.622    888.43558    30438.986    -10617.94    80.924753 
   79700    1055.3338   -107.27915   0.95488824   -106.32426   -19215.172    4.3454314    4.3454314    4.3454314   -19215.172    7471.0488   -36746.727   -28369.838    1487.6655    181.09031     11807.84    82.053802 
   79800      1091.04   -107.30625   0.98719596   -106.31905     -3532.39    4.3381726    4.3381726    4.3381726     -3532.39    24048.339   -4930.1523   -29715.357    2488.5526    14235.118    11189.641    81.643286 
   79900    1045.5994   -107.26798   0.94608029    -106.3219    2122.0462    4.3337542    4.3337542    4.3337542    2122.0462     28.01037    19858.536   -13520.407    1217.6953    31495.448   -4491.3128    81.394083 
   80000    1452.4469   -107.63026    1.3142044   -106.31606   -6961.6411    4.3382826    4.3382826    4.3382826   -6961.6411    18529.473   -28499.851   -10914.545   -1275.2521   -13140.142    15458.135    81.649497 
   80100    937.82074   -107.17113   0.84855991   -106.32257    14492.169    4.3284564    4.3284564    4.3284564    14492.169    13689.055    39122.623   -9335.1725   -470.71892    47232.633   -775.28038    81.095945 
   80200    1216.2638   -107.42105     1.100501   -106.32055   -13500.748    4.3471219    4.3471219    4.3471219   -13500.748   -387.89294   -16555.102    -23559.25   -8409.4456   -800.69888     7119.238    82.149598 
   80300    920.02972   -107.15619   0.83246222   -106.32373   -11246.821    4.3371038    4.3371038    4.3371038   -11246.821    28837.187   -33012.487   -29565.165   -925.60422    12363.735    13889.319     81.58296 
   80400     1085.813    -107.3034   0.98246643   -106.32093    20952.407    4.3201342    4.3201342    4.3201342    20952.407   -5180.7148    44097.009    23940.926    1079.3699    41611.969   -2933.0997    80.629084 
   80500    1584.3637   -107.75068    1.4335656   -106.31711   -5253.1531    4.3450801    4.3450801    4.3450801   -5253.1531    8555.3545   -10908.985   -13405.829      387.648   -19415.275    10570.434    82.033899 
   80600    881.00384    -107.1239   0.79715079   -106.32675    4391.5848    4.3368264    4.3368264    4.3368264    4391.5848   -3768.9002    17416.953   -473.29849   -1935.8476    36355.042    17243.728    81.567306 
   80700    1104.6051    -107.3224    0.9994699   -106.32293     14398.18    4.3338316    4.3338316    4.3338316     14398.18    280.26118    19286.904    23627.374    14214.727    6698.3602   -9564.9107    81.398441 
   80800    1126.0909   -107.33938    1.0189107   -106.32047     2162.004    4.3364754    4.3364754    4.3364754     2162.004    30279.159   -19100.586   -4692.5601   -2576.2786    1623.0545     9143.564    81.547501 
   80900    684.50501    -106.9512   0.61935452   -106.33184    16086.536    4.3308522    4.3308522    4.3308522    16086.536   -11737.312    34974.495    25022.425     3423.349    36653.818    5947.4696    81.230678 
   81000    1700.9264   -107.85836     1.539034   -106.31932   -543.46019    4.3468842    4.3468842    4.3468842   -543.46019   -2736.5322   -1059.0989    2165.2506    19280.185   -13113.411   -11939.447    82.136128 
   81100    1131.4894   -107.35147    1.0237954   -106.32768    14586.781    4.3303636    4.3303636    4.3303636    14586.781    15832.269    22154.691    5773.3822   -6462.5802    20965.577    10307.965     81.20319 
   81200    721.71856   -106.98438   0.65302612   -106.33136    12611.349    4.3258974    4.3258974    4.3258974    12611.349   -2828.1225    5470.7497    35191.419    20840.127    21440.585    5727.5064    80.952197 
   81300    1335.3957   -107.52686    1.2082941   -106.31856   -11719.362     4.349505     4.349505     4.349505   -11719.362    7076.6739   -32390.826   -9843.9355    2580.9475   -13267.507     2838.037    82.284779 
   81400    903.49473   -107.14116   0.81750102   -106.32366    8202.9046    4.3364694    4.3364694    4.3364694    8202.9046   -5498.6628    31110.636   -1003.2597    878.48281    30668.088    9125.7493    81.547165 
   81500    1251.8152     -107.456    1.1326687   -106.32333    5237.2797    4.3342077    4.3342077    4.3342077    5237.2797    14394.463   -10065.208    11382.584    20963.323    4760.4439    9782.4521    81.419639 
   81600    1491.6441   -107.66914    1.3496709   -106.31947    10157.822    4.3328938    4.3328938    4.3328938    10157.822    12358.006    12301.572     5813.889   -12788.478    3099.5615    5184.0279    81.345612 
   81700    627.24139   -106.90127   0.56754119   -106.33373    9696.3978    4.3367363    4.3367363    4.3367363    9696.3978    32848.008   -8013.0323    4254.2181    13951.538    26236.989    1550.5226     81.56222 
   81800    1219.5058   -107.42255    1.1034344   -106.31912   -11956.088    4.3521887    4.3521887    4.3521887   -11956.088   -3568.1617   -31993.727   -306.37678    14915.517   -4877.9994    97.821623    82.437187 
   81900    1279.3287   -107.47198    1.1575635   -106.31441    20292.036      4.32612      4.32612      4.32612    20292.036    29450.818    44835.503   -13410.214   -9792.8547    19691.375   -497.47472    80.964695 
   82000    977.70466    -107.2099   0.88464772   -106.32526    14079.702    4.3325408    4.3325408    4.3325408    14079.702    4965.4155    18539.635    18734.055    27345.308    9560.3944   -4230.5057    81.325732 
   82100    1305.6058   -107.49201    1.1813396   -106.31067   -13760.108    4.3501014    4.3501014    4.3501014   -13760.108   -12065.757   -14750.206   -14464.362    6564.4912   -778.03094   -16217.323    82.318629 
   82200    785.81273   -107.02362   0.71101987    -106.3126    17271.455    4.3287598    4.3287598    4.3287598    17271.455    32137.732    33470.617   -13793.985    3744.0763     19179.86   -1773.1124    81.113001 
   82300      1048.97   -107.26805   0.94913008   -106.31892   -7675.8051    4.3417182    4.3417182    4.3417182   -7675.8051   -6910.5852   -16544.707    427.87692    33410.926   -3950.1737   -5816.9839    81.843632 
   82400    1262.3865   -107.45857    1.1422339   -106.31634    10633.264    4.3355021    4.3355021    4.3355021    10633.264    19933.453    34781.273   -22814.933   -1088.6856    12298.633   -16147.837    81.492607 
   82500    1021.5189    -107.2473   0.92429177     -106.323    13261.865    4.3328639    4.3328639    4.3328639    13261.865    12646.791    11904.644    15234.161    16372.625    7320.6201   -3733.2092     81.34393 
   82600     1251.562    -107.4454    1.1324396   -106.31296    -8857.733    4.3491506    4.3491506    4.3491506    -8857.733    436.51845   -34810.304    7800.5868    14540.584   -2398.2123   -11826.476    82.264663 
   82700    829.48625   -107.06753   0.75053659   -106.31699    16044.545    4.3298919    4.3298919    4.3298919    16044.545    19715.852    25474.295     2943.488    -9059.829    20334.456   -8918.9813    81.176657 
   82800    1014.5907   -107.23961   0.91802303   -106.32158   -5679.1971    4.3385194    4.3385194    4.3385194   -5679.1971   -22606.465   -9762.3858     15331.26    28438.914   -5812.2407   -1305.5298     81.66287 
   82900    1332.2403   -107.52047     1.205439   -106.31503   -93.363698    4.3394739    4.3394739    4.3394739   -93.363698    8653.0155   -945.92064    -7987.186   -14823.528    2299.1695   -4222.6672    81.716779 
   83000    1015.4136   -107.23745   0.91876758   -106.31868   -3146.9092    4.3383343    4.3383343    4.3383343   -3146.9092   -19898.059    1464.7172    8992.6138    7909.5975    13266.637   -799.51563    81.652416 
   83100    1390.5363     -107.567    1.2581864   -106.30882   -13432.857    4.3460097    4.3460097    4.3460097   -13432.857   -1592.2979   -39487.185    780.91085    7199.4369   -5964.0748     3087.536    82.086566 
   83200    848.07056   -107.08604   0.76735206   -106.31868    4014.2028      4.32461      4.32461      4.32461    4014.2028    20648.738    1609.4087   -10215.538   -21535.339     5672.291   -2399.6757    80.879945 
   83300    1184.6166   -107.39569     1.071866   -106.32383    11221.765    4.3374827    4.3374827    4.3374827    11221.765   -5265.7022    29378.722    9552.2757    14304.539    14074.307   -182.40341    81.604341 
   83400    1319.5088   -107.51397    1.1939193   -106.32005   -12150.051    4.3440272    4.3440272    4.3440272   -12150.051    4975.4801   -26233.981   -15191.652   -14767.438   -4490.8872    1316.3665    81.974279 
   83500    727.92054    -106.9831    0.6586378   -106.32446    25234.023     4.323639     4.323639     4.323639    25234.023    2627.1288     22569.78    50505.161   -13291.243    21235.905   -11371.207    80.825478 
   83600    1576.8754   -107.73792      1.42679   -106.31113    -46.01672    4.3395631    4.3395631    4.3395631    -46.01672   -1037.9197    -5944.571    6844.4405    1689.7631    4592.4761    7241.1317    81.721817 
   83700    690.06574   -106.95169   0.62438598    -106.3273   -7267.4422    4.3339637    4.3339637    4.3339637   -7267.4422    6185.9966   -30725.944     2737.621   -24288.588   -2725.2568   -555.08149    81.405885 
   83800    1198.0695   -107.40708    1.0840384   -106.32304    9605.1549    4.3304234    4.3304234    4.3304234    9605.1549    2966.8834    13266.143    12582.439   -6787.2215    16974.035    -4527.135    81.206552 
   83900    1359.5546   -107.54809    1.2301536   -106.31794   -13111.658    4.3402973    4.3402973    4.3402973   -13111.658   -14614.128   -26812.666    2091.8203    2454.4846   -15847.277    12178.821    81.763305 
   84000    799.55667   -107.04767   0.72345568   -106.32422   -4606.3499    4.3314324    4.3314324    4.3314324   -4606.3499   -14511.378   -31599.091    32291.419   -29057.372    5356.0407   -2073.9981    81.263329 
   84100    1386.9453   -107.57239    1.2549372   -106.31745   -2357.3607    4.3363589    4.3363589    4.3363589   -2357.3607   -4366.7626   -6443.9819    3738.6625    15508.328    2920.3837    1566.3245    81.540931 
   84200     965.1883   -107.19855   0.87332265   -106.32522    3738.8613    4.3291006    4.3291006    4.3291006    3738.8613   -1037.1116   -18549.571    30803.266    2728.2344   -9075.4269    8613.8369    81.132162 
   84300    1105.8894   -107.32632     1.000632   -106.32569    963.58099    4.3336428    4.3336428    4.3336428    963.58099   -15521.847    10751.325    7661.2646    -17374.75    13991.838   -11606.155    81.387805 
   84400    997.76393   -107.22253   0.90279777   -106.31973    -15922.02    4.3434462    4.3434462    4.3434462    -15922.02   -39463.685   -29672.048    21369.671    41742.883   -4321.0486   -256.73431    81.941391 
   84500    1128.8861   -107.33806    1.0214399   -106.31662    8684.3701    4.3231888    4.3231888    4.3231888    8684.3701    12982.243   -13990.133    27061.001   -21700.529     1137.856    1220.2968    80.800231 
   84600    1157.2515   -107.37239    1.0471055   -106.32528   -3488.1089    4.3330766    4.3330766    4.3330766   -3488.1089   -14837.442   -14853.103    19226.219    21835.516    3134.7979   -2611.5886    81.355908 
   84700    1219.9775   -107.42405    1.1038613   -106.32019   -14805.849    4.3421507    4.3421507    4.3421507   -14805.849   -27568.939     -18329.8    1481.1913    26527.324    923.88915    4893.4558    81.868096 
   84800     1092.193   -107.30352   0.98823916   -106.31528   -443.83834    4.3319096    4.3319096    4.3319096   -443.83834   -4179.7273    -1743.834    4592.0463   -24762.926   -6701.5905     13201.28    81.290194 
   84900    744.30309    -106.9973   0.67346108   -106.32384   -19103.347    4.3353282    4.3353282    4.3353282   -19103.347   -42696.353   -41887.665    27273.976      53509.4    7921.5153     1144.253    81.482799 
   85000    1525.8606   -107.69561    1.3806307   -106.31498    17088.808    4.3297427    4.3297427    4.3297427    17088.808    29081.002   -668.66903     22854.09   -16633.485    -5815.037    6785.7839    81.168267 
   85100    1054.1272   -107.28157    0.9537964   -106.32778   -17474.006      4.34072      4.34072      4.34072   -17474.006    -25539.81    -38952.17    12069.961    22433.665   -7154.1915    11515.268    81.787194 
   85200     946.5057   -107.18325   0.85641824   -106.32684   -8635.0843    4.3369963    4.3369963    4.3369963   -8635.0843   -33786.932   -20026.076    27907.755    35389.591    10191.091   -7466.2235    81.576893 
   85300    1312.1652   -107.50116    1.1872746   -106.31388     12610.27    4.3225215    4.3225215    4.3225215     12610.27    24518.348   -4641.9616    17954.425   -11495.542   -3795.4503    1893.1785    80.762821 
   85400    555.99953   -106.83341   0.50308006   -106.33033    -21427.35    4.3393044    4.3393044    4.3393044    -21427.35   -27333.574   -72159.716     35211.24    46603.901   -2618.8557   -118.31279    81.707206 
   85500    1335.0026   -107.52768    1.2079384   -106.31974    637.81499    4.3364063    4.3364063    4.3364063    637.81499    18506.303   -10613.503   -5979.3557   -6141.9644    7270.2518   -10000.531    81.543603 
   85600    1174.3526   -107.38283    1.0625789   -106.32026    8329.6427    4.3312011    4.3312011    4.3312011    8329.6427    -2585.831   -14682.107    42256.867    27507.759    6350.1202   -3516.5082    81.250316 
   85700    1078.7526   -107.29706   0.97607806   -106.32098   -13855.082    4.3393255    4.3393255    4.3393255   -13855.082   -16139.037   -44002.554    18576.345    15381.575   -7063.0672    2434.1359    81.708394 
   85800    1058.6718   -107.27714   0.95790852   -106.31923    7168.2856    4.3288134    4.3288134    4.3288134    7168.2856    26833.255   -7150.3671    1821.9692    -5547.209    18494.083    -17907.73    81.116013 
   85900    974.08763   -107.20742   0.88137496   -106.32605   -6032.0057    4.3361035    4.3361035    4.3361035   -6032.0057   -8002.2219   -41692.843    31599.048     36535.61   -68.943786    5827.9521     81.52652 
   86000    1459.4687   -107.64101    1.3205579   -106.32046    -10129.98    4.3374983    4.3374983    4.3374983    -10129.98   -5939.5553   -13079.144   -11371.241   -18066.588     630.1322   -7215.1117    81.605223 
   86100    902.00381   -107.14104   0.81615201   -106.32489    11710.953    4.3317098    4.3317098    4.3317098    11710.953     1774.411   -14107.934    47466.381    18337.073     14511.26   -15660.706    81.278946 
   86200    1210.4624   -107.41384    1.0952519   -106.31859   -9802.4946    4.3420237    4.3420237    4.3420237   -9802.4946   -20024.793   -45176.528    35793.837    11138.449   -11360.568    1199.2811    81.860911 
   86300    840.24496   -107.08219    0.7602713   -106.32192    3870.2492    4.3317818    4.3317818    4.3317818    3870.2492    9174.2778   -20488.925    22925.395   -14983.896    11357.276   -17910.606    81.282998 
   86400    1172.2591   -107.38576    1.0606847   -106.32508   -767.90669    4.3344938    4.3344938    4.3344938   -767.90669   -6136.0457   -7348.8987    11181.224    18284.875    4069.7741   -18418.695     81.43576 
   86500    1545.0481   -107.71429     1.397992    -106.3163   -6789.8358    4.3453626    4.3453626    4.3453626   -6789.8358   -17269.017   -8010.0335    4909.5429   -13412.336   -9896.2095    9376.0158      82.0499 
   86600    819.28418   -107.06436   0.74130555   -106.32306   -3817.9292    4.3350164    4.3350164    4.3350164   -3817.9292    -5267.545   -35553.618    29367.376     9879.883    14091.782   -18442.563    81.465218 
   86700    1061.4001   -107.28293    0.9603771   -106.32256   -4269.0616    4.3336724    4.3336724    4.3336724   -4269.0616   -3528.3758   -31143.915    21865.106     3663.263   -2440.0747    374.06393    81.389472 
   86800     1053.785   -107.27691   0.95348679   -106.32342     13507.53    4.3352835    4.3352835    4.3352835     13507.53     -6017.56   -15364.943    61905.094   -11052.057   -5572.7578    1055.7964     81.48028 
   86900    1180.4384   -107.39585    1.0680855   -106.32776   -25347.924    4.3448034    4.3448034    4.3448034   -25347.924   -19548.792   -24576.549   -31918.432    17960.842    16937.653   -30107.407    82.018229 
   87000    1399.6282   -107.58228     1.266413   -106.31587    8126.9431    4.3312365    4.3312365    4.3312365    8126.9431   -8517.0453   -17130.438    50028.312   -7971.0441   -10771.372    5018.1506    81.252308 
   87100    766.47263   -107.01752   0.69352054     -106.324   -2043.5095    4.3323032    4.3323032    4.3323032   -2043.5095    2523.9569   -35512.566    26858.081   -1101.3446    6286.1068   -26159.452    81.312353 
   87200    1002.0725   -107.22716   0.90669627   -106.32047   -16653.173    4.3429682    4.3429682    4.3429682   -16653.173   -12862.637   -28805.065   -8291.8168    8567.0924    12550.082   -15040.188     81.91434 
   87300    1437.5271   -107.61613    1.3007048   -106.31543    6579.6191    4.3291383    4.3291383    4.3291383    6579.6191   -14305.245     -1717.59    35761.692   -10012.524   -4080.6302     1925.571    81.134281 
   87400      968.577   -107.20442   0.87638882   -106.32803   -16190.718    4.3376806    4.3376806    4.3376806   -16190.718    1198.4538   -28096.534   -21674.072    9560.8385    6264.5689   -36811.673    81.615514 
   87500    1243.4039   -107.44164     1.125058   -106.31658    3642.0985    4.3352322    4.3352322    4.3352322    3642.0985   -10016.902    -25394.59    46337.787   -7090.5671    8840.7452    10870.237    81.477389 
   87600    904.61623   -107.13963   0.81851577   -106.32112   -11138.727     4.337903     4.337903     4.337903   -11138.727   -209.92528   -46174.665    12968.409   -7491.4888   -12779.914    -27668.31    81.628068 
   87700    1065.6115   -107.28405   0.96418769   -106.31986   -10955.706    4.3376544    4.3376544    4.3376544   -10955.706   -10460.061   -18190.682   -4216.3757    10932.435    3344.6883   -28060.342    81.614036 
   87800    1383.4092   -107.56839    1.2517377   -106.31665    908.54679     4.328655     4.328655     4.328655    908.54679   -3589.6237   -2380.6735    8695.9376   -19537.499     224.1413    4357.7512    81.107108 
   87900    730.40357   -106.99382    0.6608845   -106.33294   -12666.017    4.3373096    4.3373096    4.3373096   -12666.017    25015.813   -50733.826   -12280.038    1801.7722   -3747.6698    -46855.27     81.59457 
   88000    1472.3235   -107.65323    1.3321892   -106.32104   -1765.2619    4.3400736    4.3400736    4.3400736   -1765.2619   -15924.007   -24867.783    35496.004   -5235.0084    9246.5116    5979.9651    81.750664 
   88100    925.10543   -107.16155   0.83705483   -106.32449   -14307.685    4.3418413    4.3418413    4.3418413   -14307.685   -7765.6477   -42014.136    6856.7282   -11960.623   -458.37151   -26725.198    81.850595 
   88200    1030.7085    -107.2556   0.93260671   -106.32299    401.39037    4.3243238    4.3243238    4.3243238    401.39037    17016.525    -12855.42   -2956.9337    5263.5916    1195.7234   -29013.269    80.863887 
   88300    1234.0358   -107.43847    1.1165815   -106.32189    960.66053     4.336028     4.336028     4.336028    960.66053    -24578.53   -16000.359     43460.87   -18533.405    -1486.115    7725.1191    81.522263 
   88400    989.67515   -107.22092   0.89547887   -106.32544   -20086.185    4.3431867    4.3431867    4.3431867   -20086.185    7279.2757    -65389.97   -2147.8606    1973.4996   -1110.5344   -53118.088    81.926706 
   88500     1405.649   -107.59244    1.2718607   -106.32058    10013.353    4.3285538    4.3285538    4.3285538    10013.353   -2638.0228    -13674.31    46352.392   -3990.3249   -7017.4461    3769.1402    81.101422 
   88600    1046.9355   -107.27414   0.94728925   -106.32685    3450.8912    4.3281968    4.3281968    4.3281968    3450.8912   -9331.3871   -10162.142    29846.202   -17528.661   -4392.9692    -16838.08    81.081356 
   88700    1097.6531   -107.31952   0.99317959   -106.32634   -14447.002    4.3415235    4.3415235    4.3415235   -14447.002    7378.4883   -31191.808   -19527.687    7835.9998   -2815.2641    -32460.17    81.832621 
   88800    1021.6022   -107.24474   0.92436717   -106.32037   -15959.078    4.3434575    4.3434575    4.3434575   -15959.078   -26560.902    -28698.64    7382.3066   -13430.061   -5734.2265    21261.518    81.942033 
   88900     1043.126   -107.26041   0.94384237   -106.31657    17261.147    4.3237982    4.3237982    4.3237982    17261.147    28135.946   -11893.261    35540.755   -6448.8522   -1926.3408   -29042.572    80.834406 
   89000    1490.2097   -107.66473    1.3483731   -106.31636    -5182.202    4.3337457    4.3337457    4.3337457    -5182.202    501.77052   -13362.974   -2685.4025    2136.5723   -64.347718    6364.6636    81.393602 
   89100    775.61491   -107.02455   0.70179267   -106.32276   -16199.243     4.341011     4.341011     4.341011   -16199.243   -27806.343    -12754.43   -8036.9558   -18026.716   -2030.0604    9814.0845    81.803644 
   89200    1218.3683   -107.41764    1.1024053   -106.31523    3451.7313    4.3303311    4.3303311    4.3303311    3451.7313    20649.345   -7831.6795   -2462.4712     4717.556    2608.3827   -18979.758     81.20136 
   89300    864.27804   -107.10653   0.78201694   -106.32452   -10136.676    4.3315587    4.3315587    4.3315587   -10136.676    927.98222   -39587.244    8249.2342    4074.3748    790.14959    17970.969    81.270442 
   89400    1295.0601   -107.49618    1.1717976   -106.32438    6701.9208    4.3301145    4.3301145    4.3301145    6701.9208    22545.853   -2265.9548   -174.13547   -21486.017    4908.1428    2632.9173    81.189178 
   89500    1251.8823   -107.45452    1.1327294   -106.32179     -2146.06    4.3408825    4.3408825    4.3408825     -2146.06   -10151.977   -17450.591    21164.388    26160.661   -1745.4357   -8429.6637    81.796384 
   89600    659.01634   -106.92581   0.59629183   -106.32952   -5389.3954      4.33188      4.33188      4.33188   -5389.3954   -16.648681   -34861.786    18710.248   -4159.9444    6117.7992    15399.386    81.288524 
   89700    1206.4377   -107.41074    1.0916102   -106.31913    16555.293    4.3295032    4.3295032    4.3295032    16555.293    11676.379   -13787.787    51777.288   -5657.0745   -3608.0415    5253.3261    81.154796 
   89800     1161.195   -107.37157    1.0506736   -106.32089    -16314.43    4.3422392    4.3422392    4.3422392    -16314.43   -23940.729   -43005.076    18002.516    33552.486    3385.6179   -1488.2795    81.873101 
   89900    1256.9084   -107.45571    1.1372771   -106.31843    1590.1043    4.3301633    4.3301633    4.3301633    1590.1043    621.73075   -11088.374    15236.956   -25537.126    1757.8145     23930.65    81.191921 
   90000    1160.4638   -107.36949    1.0500121   -106.31948    2199.6933    4.3307155    4.3307155    4.3307155    2199.6933   -8978.5731   -21276.834    36854.487     29472.59   -6034.9485   -7951.2378    81.222988 
   90100    886.95755   -107.12569   0.80253783   -106.32315    -4337.128    4.3314258    4.3314258    4.3314258    -4337.128    4184.0174   -36897.587    19702.186    1188.1587   -999.82159    10189.395     81.26296 
   90200    929.37348   -107.16693   0.84091665   -106.32601    13748.371    4.3327506    4.3327506    4.3327506    13748.371    16492.155   -24807.833     49560.79   -11523.975   -4376.3436    13727.413    81.337548 
   90300     1388.033    -107.5729    1.2559215   -106.31698   -3949.1939    4.3420025    4.3420025    4.3420025   -3949.1939   -14272.933   -21464.598    23889.948    38544.991   -3287.1768   -10838.509     81.85971 
   90400    1028.7352    -107.2489    0.9308212   -106.31808    13861.832     4.325993     4.325993     4.325993    13861.832    7993.0661   -962.05199    34554.482   -31414.819   -1269.7121    18946.319    80.957562 
   90500    982.32602   -107.21173   0.88882923   -106.32291    2638.0069    4.3285956    4.3285956    4.3285956    2638.0069    444.96012   -19545.933    27014.994    15381.608    5621.7174    9847.8308     81.10377 
   90600    1102.5639    -107.3171     0.997623   -106.31947   -7565.5264    4.3408168    4.3408168    4.3408168   -7565.5264   -2744.4876   -25634.925    5682.8333    10111.374   -1376.1619   -5490.3372    81.792669 
   90700    1094.7543   -107.31156   0.99055673     -106.321   -740.02153    4.3344608    4.3344608    4.3344608   -740.02153   -2750.2271   -21395.105    21925.268   -33131.321    3697.9837    15470.541    81.433899 
   90800    1344.1636   -107.53373    1.2162275   -106.31751   -12026.508    4.3369321    4.3369321    4.3369321   -12026.508    -22476.44     -9958.39   -3644.6938    21802.306    6584.0137   -4633.6727    81.573269 
   90900    984.61894   -107.20932   0.89090391   -106.31842    5762.5598    4.3286691    4.3286691    4.3286691    5762.5598   -10278.047    431.08701     27134.64   -16075.519   -925.48921    394.35091      81.1079 
   91000    1168.6197    -107.3777    1.0573917   -106.32031   -3889.9309    4.3367386    4.3367386    4.3367386   -3889.9309    6295.1536   -27945.062     9980.116   -6726.6059    6630.6571     7276.881    81.562352 
   91100    1060.4871   -107.27912   0.95955097   -106.31957   -10443.945    4.3420228    4.3420228    4.3420228   -10443.945   -670.29627   -14221.684   -16439.855    9398.5907    1290.8279   -10879.879    81.860859 
   91200    1141.8001   -107.35074    1.0331248   -106.31761     16128.86    4.3254125    4.3254125    4.3254125     16128.86    9730.6763    9038.0991    29617.806   -16288.177   -11125.409    9089.9837     80.92498 
   91300     1321.397   -107.51241    1.1956278   -106.31678   -1640.9886    4.3344161    4.3344161    4.3344161   -1640.9886   -4490.8034   -12123.719    11691.557    15773.977      10583.5    -5643.913    81.431381 
   91400     698.9449   -106.95506   0.63242003   -106.32264   -6986.3855    4.3390154    4.3390154    4.3390154   -6986.3855   -20969.151    -16296.97    16306.965    -11694.89   -10248.155   -10325.106     81.69088 
   91500    1301.6885   -107.49054    1.1777951   -106.31275    11971.681     4.332052     4.332052     4.332052    11971.681    6096.1533   -4598.2374    34417.128   -6734.8885   -5784.8938    7066.0719    81.298209 
   91600    1045.4143   -107.26508   0.94591284   -106.31917    -16455.48    4.3383623    4.3383623    4.3383623    -16455.48   -18530.315   -16129.202   -14706.922      16756.4    15378.561   -15859.057    81.653996 
   91700    1026.4561   -107.25147   0.92875904   -106.32271    9000.1973    4.3278036    4.3278036    4.3278036    9000.1973   -21942.683    27673.585     21269.69   -21793.781   -22079.485   -6916.3785    81.059258 
   91800    1536.1669   -107.70786    1.3899561    -106.3179    8955.0623    4.3326761    4.3326761    4.3326761    8955.0623   -1016.3264    6265.1178    21616.395    8181.9672    9647.7796    5266.9774    81.333352 
   91900     619.3311   -106.88932   0.56038379   -106.32894    -24668.38    4.3432115    4.3432115    4.3432115    -24668.38   -25761.784   -28231.092   -20012.263    2734.4643    711.47706   -12224.871    81.928109 
   92000    1134.9263   -107.34332    1.0269052   -106.31642    22211.778    4.3272089    4.3272089    4.3272089    22211.778    13458.804     32601.12    20575.411   -10715.846   -17036.698    6177.5039     81.02585 
   92100    1195.6521   -107.40425    1.0818512    -106.3224   -7090.8864    4.3323239    4.3323239    4.3323239   -7090.8864   -8767.3644   -8806.5351   -3698.7596    14100.115    12056.657    6264.1475    81.313517 
   92200    1083.9854   -107.30565   0.98081278   -106.32484   -4590.2353    4.3351659    4.3351659    4.3351659   -4590.2353   -24996.621    12243.244   -1017.3283   -10008.001   -11985.582   -22370.713    81.473649 
   92300    1388.6356   -107.57355    1.2564667   -106.31709   -1109.4015    4.3361845    4.3361845    4.3361845   -1109.4015     7079.078   -17424.795    7017.5123    5339.8409    1145.6396    16007.763    81.531094 
   92400    677.77376   -106.93752   0.61326394   -106.32425   -22088.335    4.3390007    4.3390007    4.3390007   -22088.335   -20503.526   -31660.273   -14101.206    11329.529    513.09541   -7065.8806     81.69005 
   92500    1275.1922   -107.46773    1.1538207    -106.3139    11440.142    4.3257925    4.3257925    4.3257925    11440.142    7100.4792    26604.193    615.75427   -6133.7091   -6004.3171    -10900.15    80.946306 
   92600    988.85861    -107.2201   0.89474005   -106.32536   -7733.7715    4.3331488    4.3331488    4.3331488   -7733.7715    439.91054   -13393.746   -10247.479    9596.7959    7309.4258    37622.253    81.359974 
   92700    1197.5942   -107.40596    1.0836084   -106.32235   -2413.4076    4.3374297    4.3374297    4.3374297   -2413.4076    -19852.82    -209.9524     12822.55    8713.7692     2814.271    -9700.968    81.601352 
   92800    1212.3699   -107.41552    1.0969777   -106.31854    1064.7547     4.334887     4.334887     4.334887    1064.7547    18306.837   -24931.782    9819.2092   -608.18787   -1200.9372    25133.658    81.457926 
   92900    554.26334   -106.82819   0.50150911   -106.32668   -12053.811    4.3351652    4.3351652    4.3351652   -12053.811    6347.8214   -37629.225   -4880.0307    11785.469    7085.3122    14382.849    81.473612 
   93000    1492.4621   -107.66286    1.3504111   -106.31245    15042.823    4.3316652    4.3316652    4.3316652    15042.823    10557.152    9732.5969    24838.721    3186.6846   -1556.6209   -4726.5554    81.276435 
   93100    956.40229    -107.1895   0.86537289   -106.32413   -11831.288    4.3377589    4.3377589    4.3377589   -11831.288    11727.498   -28681.236   -18540.127   -1422.3708    1103.7744    34188.933     81.61993 
   93200    1197.9209   -107.40372     1.083904   -106.31981    937.82675    4.3312688    4.3312688    4.3312688    937.82675   -6152.6326   -9388.6438    18354.757    21622.499     1586.501   -10143.911    81.254124 
   93300    1238.0871   -107.43571    1.1202472   -106.31546    3050.5606    4.3337424    4.3337424    4.3337424    3050.5606    29176.726   -21588.011    1562.9664   -10434.924    -5977.467     13613.13    81.393416 
   93400    788.04532   -107.03784   0.71303997    -106.3248   -23636.792    4.3381133    4.3381133    4.3381133   -23636.792    7420.1309   -46114.239   -32216.269    1699.1377    35.590968     23132.82    81.639938 
   93500    1536.1591   -107.70458    1.3899491   -106.31463    13134.955    4.3281199    4.3281199    4.3281199    13134.955    7522.4022    31220.956    661.50617    16317.462    2137.5752    -12082.37    81.077032 
   93600    991.95635   -107.22087   0.89754295   -106.32333   -11946.845    4.3383585    4.3383585    4.3383585   -11946.845    11075.333    -28471.47   -18444.398   -17448.986    -3090.412    20257.261    81.653785 
   93700    1039.8243   -107.26262   0.94085487   -106.32177    -5048.271    4.3354351    4.3354351    4.3354351    -5048.271   -2223.3422   -8927.1118   -3994.3591    2243.7295    6852.3414    10338.331    81.488826 
   93800     1440.069   -107.61654    1.3030047   -106.31353    7233.4639     4.327722     4.327722     4.327722    7233.4639    23997.202    5613.5569    -7910.367    7334.5497    7229.4021   -5822.9359    81.054676 
   93900    618.35251   -106.88994   0.55949834   -106.33044   -12257.711     4.337188     4.337188     4.337188   -12257.711    30259.707   -38416.429   -28616.411   -19049.545   -623.46887    17284.591    81.587709 
   94000    1571.9643   -107.73638    1.4223463   -106.31403    2323.0882    4.3360021    4.3360021    4.3360021    2323.0882    1489.2133    20293.182    -14813.13   -3619.8002    9543.8499   -1853.1252    81.520805 
   94100    810.76195   -107.06113   0.73359445   -106.32753   -6563.1651    4.3330933    4.3330933    4.3330933   -6563.1651    17953.398   -15714.037   -21928.857   -6325.5566    2935.2453    14173.648    81.356851 
   94200      673.154   -106.94222   0.60908388   -106.33314    6954.4489    4.3299222    4.3299222    4.3299222    6954.4489    30171.319   -2886.7025   -6421.2696   -29167.346   -312.21296    15346.321    81.178362 
   94300    1656.2427   -107.81527    1.4986032   -106.31666    7847.7201    4.3395196    4.3395196    4.3395196    7847.7201    8735.4947    31794.907   -16987.241    2725.2166    4058.3231     581.7811    81.719363 
   94400     771.7296   -107.02963   0.69827716   -106.33136   -14863.473    4.3360548    4.3360548    4.3360548   -14863.473    27105.655   -26626.233   -45069.841   -12593.544   -899.73549    27600.545    81.523777 
   94500    1152.7575   -107.36174    1.0430392    -106.3187    14548.299    4.3272534    4.3272534    4.3272534    14548.299     5941.052    27559.004    10144.841   -8107.2519   -1668.5839    238.09587    81.028346 
   94600    945.55271   -107.17697   0.85555597   -106.32142   -11731.108    4.3377994    4.3377994    4.3377994   -11731.108   -13819.888   -26242.048    4868.6119    21639.581    2316.0631    4013.3624    81.622216 
   94700    1033.1742   -107.25741   0.93483775   -106.32258   -10559.209    4.3346573    4.3346573    4.3346573   -10559.209     15558.95   -20567.356   -26669.219   -17157.315   -4672.6556    18540.485    81.444975 
   94800    1592.9152   -107.75344    1.4413032   -106.31213     4941.365    4.3359093    4.3359093    4.3359093     4941.365    -6028.695    18580.423    2272.3667     23998.44   -1206.4607   -2939.3055    81.515572 
   94900    891.08794   -107.12854    0.8062751   -106.32226   -11037.315    4.3291416    4.3291416    4.3291416   -11037.315   -10955.277   -26138.805    3982.1374    11136.769   -3414.1591    13759.634    81.134465 
   95000     948.0457   -107.17823   0.85781167   -106.32042    9626.6095    4.3265432    4.3265432    4.3265432    9626.6095    2656.4629    29320.607   -3097.2416   -18631.668   -5770.9246    6227.2699    80.988461 
   95100    1078.2659   -107.29614   0.97563761    -106.3205   -27430.742    4.3471452    4.3471452    4.3471452   -27430.742   -45234.273    -37144.29    86.336724    43096.471   -308.14901    1202.1825    82.150922 
   95200    1346.7951   -107.53694    1.2186085   -106.31833    12837.484    4.3269022    4.3269022    4.3269022    12837.484     18627.77    19216.778    667.90508   -12875.278   -1851.3995    18469.532    81.008622 
   95300     1172.417   -107.37875    1.0608275   -106.31792    6869.0409    4.3263858    4.3263858    4.3263858    6869.0409   -3446.0342     19649.23    4403.9271    20320.253   -3235.8556   -5920.7515    80.979619 
   95400    786.95313   -107.03013   0.71205173   -106.31808   -16941.953    4.3438844    4.3438844    4.3438844   -16941.953   -37555.976   -25412.222     12142.34    37790.929    2539.6713    1878.0333    81.966198 
   95500    1165.8339   -107.36718     1.054871   -106.31231    4682.0209    4.3334238    4.3334238    4.3334238    4682.0209   -965.67554    13169.147    1842.5916    -15203.36    4952.2197     11654.42    81.375466 
   95600    933.57547   -107.17122   0.84471871    -106.3265   -15605.464    4.3319307    4.3319307    4.3319307   -15605.464   -31247.509   -26170.596    10601.712    46176.123   -3945.2062    -9663.281    81.291381 
   95700    1652.1768   -107.81132    1.4949243    -106.3164    11790.236    4.3281351    4.3281351    4.3281351    11790.236    7400.1634     21674.53    6296.0157     112.6105    3530.2024    2965.4697    81.077886 
   95800    764.63169   -107.01697   0.69185482   -106.32512   -6431.4985    4.3407515    4.3407515    4.3407515   -6431.4985   -26670.348   -7315.4664    14691.319    20390.842    6473.6782    5162.1892    81.788978 
   95900    817.85043   -107.06417   0.74000825   -106.32416    -26827.62    4.3395085    4.3395085    4.3395085    -26827.62   -49088.651   -41245.966    9851.7566    34009.338   -1603.5453   -8701.0681    81.718736 
   96000    1615.3698   -107.77253    1.4616205   -106.31091     22251.29    4.3205611    4.3205611    4.3205611     22251.29    26656.166    37441.243    2656.4601   -7660.1012    5773.6607   -4157.4144    80.652985 
   96100    875.80576   -107.12285   0.79244746    -106.3304   -8742.8625    4.3355037    4.3355037    4.3355037   -8742.8625    -9866.452   -37376.622    21014.486    56002.637    831.70381    2203.0345    81.492697 
   96200    1177.9534   -107.38393    1.0658369   -106.31809   -7997.7524     4.340463     4.340463     4.340463   -7997.7524    11817.409   -28213.808    -7596.858   -6926.1605    1168.2582   -10314.893    81.772669 
   96300    916.35494   -107.14737   0.82913721   -106.31824    1760.0418    4.3300436    4.3300436    4.3300436    1760.0418    2431.2836   -5572.7313    8421.5732    20737.693    7762.9321   -1154.3682     81.18519 
   96400    919.32744   -107.15959   0.83182679   -106.32777   -10102.424    4.3289456    4.3289456    4.3289456   -10102.424   -28683.336   -18915.805    17291.871    36753.622   -1834.2756   -6824.6494    81.123443 
   96500    1581.3319   -107.75118    1.4308223   -106.32035     13740.16    4.3322228    4.3322228    4.3322228     13740.16    47119.711    6645.0529   -12544.284   -16821.374    3682.4788   -13063.949    81.307829 
   96600    857.27785    -107.1022   0.77568302   -106.32651   -23540.931    4.3443814    4.3443814    4.3443814   -23540.931   -29576.411   -37815.149   -3231.2327    47883.294    8736.6999    7256.8011     81.99433 
   96700    944.81743   -107.17452   0.85489066   -106.31963    2819.6623    4.3282373    4.3282373    4.3282373    2819.6623    30234.674   -17518.224   -4257.4629      1195.72    38.422784   -17829.264     81.08363 
   96800       1148.8   -107.35738    1.0394584   -106.31793     13800.14    4.3216348    4.3216348    4.3216348     13800.14    12009.531    7830.2356    21560.654    17637.876   -3467.8177   -5635.0203    80.713129 
   96900    1112.0372   -107.33417    1.0061947   -106.32798   -13400.166    4.3403012    4.3403012    4.3403012   -13400.166   -17462.352   -15626.147   -7112.0008    41957.948    8319.3143    2306.2431    81.763523 
   97000    1348.8452   -107.54039    1.2204635   -106.31993    5741.4393    4.3387263    4.3387263    4.3387263    5741.4393    47180.748   -3004.6096    -26951.82   -17587.882   -7022.9566   -14443.445    81.674553 
   97100    795.50257   -107.04246   0.71978745   -106.32267    -515.9669    4.3283604    4.3283604    4.3283604    -515.9669   -6515.7316    -23606.99    28574.821    46270.068   -349.34681    2592.5399    81.090553 
   97200    1074.9105   -107.29288   0.97260164   -106.32028    12554.742    4.3257319    4.3257319    4.3257319    12554.742    23814.223    13276.851     573.1522    6295.7448     2641.688   -5036.1726    80.942904 
   97300    1342.8585   -107.53794    1.2150466   -106.32289   -15813.285    4.3402624    4.3402624    4.3402624   -15813.285   -22477.344    1162.4084   -26124.919    7546.6327   -5446.4862   -1761.7929     81.76133 
   97400    1052.8024   -107.27642   0.95259776   -106.32383    427.99982     4.333666     4.333666     4.333666    427.99982   -3132.2281    -14303.94    18720.167     51168.05    6889.6512    4556.6572     81.38911 
   97500    1241.1104   -107.43728    1.1229828    -106.3143    13944.495    4.3271469    4.3271469    4.3271469    13944.495    37996.057    6973.2227   -3135.7945   -19655.482   -3868.2377   -7442.6674    81.022365 
   97600    473.76947   -106.75849   0.42867658   -106.32982   -13735.293    4.3342542    4.3342542    4.3342542   -13735.293   -11801.217   -29977.425    572.76221    43441.627   -6240.4865    3087.7609    81.422254 
   97700    1540.8167   -107.71767    1.3941633   -106.32351    4314.7524    4.3325372    4.3325372    4.3325372    4314.7524     3677.268    5926.7799    3340.2092    15184.166    4722.3206     7048.691    81.325532 
   97800    1340.4085   -107.53869    1.2128298   -106.32586   -7328.8874    4.3361607    4.3361607    4.3361607   -7328.8874   -8961.7567   -215.71147   -12809.194    6172.9041   -4914.4102    -3846.597    81.529751 
   97900    567.23611    -106.8478   0.51324715   -106.33455   -10692.937    4.3279343    4.3279343    4.3279343   -10692.937     3539.379   -49862.035    14243.847    48616.172   -4021.7206    5365.3492    81.066605 
   98000    1412.9361   -107.59824    1.2784543   -106.31978    15785.831    4.3319985    4.3319985    4.3319985    15785.831    54357.736    4401.5888   -11401.831   -16794.588    664.46655    6247.2802    81.295196 
   98100    946.92914   -107.18985   0.85680138   -106.33305   -8803.2327    4.3352017    4.3352017    4.3352017   -8803.2327   -2255.5809   -18228.371   -5925.7456    39366.676   -2537.0259   -249.17179    81.475667 
   98200    1221.3322   -107.43651    1.1050871   -106.33142    2382.4971    4.3354946    4.3354946    4.3354946    2382.4971    26135.356    2014.6007   -21002.465    16987.976   -3984.4203    12284.763    81.492181 
   98300    1478.8126   -107.65912    1.3380607   -106.32106     3001.581    4.3335946    4.3335946    4.3335946     3001.581     26674.36   -13607.115   -4062.5027    3147.2819    -4102.068    1728.6912     81.38509 
   98400     498.6557   -106.78566   0.45119416   -106.33447   -3781.8649    4.3270494    4.3270494    4.3270494   -3781.8649    25883.854   -47762.033    10532.584    52504.918    1573.2921    3347.8892    81.016889 
   98500    1393.2315   -107.58634    1.2606251   -106.32572   -5745.9115    4.3385029    4.3385029    4.3385029   -5745.9115    16573.474    8222.5896   -42033.798   -10637.423   -5994.1967     14888.06    81.661935 
   98600      1277.91   -107.48074    1.1562798   -106.32446    3743.1677    4.3306309    4.3306309    4.3306309    3743.1677    13139.536   -6814.7705    4904.7372    32844.954    1631.6115   -1268.6958    81.218227 
   98700    867.76629    -107.1121   0.78517317   -106.32693   -15898.772    4.3296053    4.3296053    4.3296053   -15898.772   -3072.7731    -35726.58   -8896.9633    20717.537   -2943.3721    10649.264    81.160539 
   98800    1086.1256   -107.30446   0.98274925   -106.32171   -4495.9738    4.3326697    4.3326697    4.3326697   -4495.9738    25532.199   -14929.437   -24090.683   -6310.1955   -9471.4046    6929.0291    81.332993 
   98900    1001.9227   -107.23649   0.90656072   -106.32993    4610.9598    4.3339333    4.3339333    4.3339333    4610.9598    14856.101   -9967.3175    8944.0954    43569.667    2466.7354   -1875.1674    81.404176 
   99000    1409.4748    -107.6005    1.2753224   -106.32518    4426.4255    4.3330528    4.3330528    4.3330528    4426.4255    35801.866    8164.6861   -30687.276   -2259.6623   -6523.9533    12165.315    81.354569 
   99100    966.86991   -107.20279   0.87484421   -106.32795   -623.07503    4.3286535    4.3286535    4.3286535   -623.07503    6288.3058    3273.8319   -11431.363    27247.702   -6155.5455   -6120.8296    81.107025 
   99200    827.25398   -107.08015   0.74851679   -106.33163   -14397.571    4.3350667    4.3350667    4.3350667   -14397.571   -15.680348   -48883.347    5706.3125    29046.949    5206.2221    6193.3758    81.468053 
   99300    1406.7703   -107.59548    1.2728753    -106.3226    8160.7952    4.3309902    4.3309902    4.3309902    8160.7952      43706.7   -3357.4561   -15866.858   -12791.277   -7413.1269    7462.0474    81.238448 
   99400    967.46019    -107.2105   0.87537831   -106.33512   -6961.6858    4.3346681    4.3346681    4.3346681   -6961.6858   -4086.5409   -4638.5639   -12159.953    32277.187    2161.5147   -9170.4863    81.445583 
   99500    1331.9177   -107.53108    1.2051471   -106.32593    3876.1489    4.3335875    4.3335875    4.3335875    3876.1489    39195.511   -9547.4929   -18019.571    873.35155    213.85714    10566.915     81.38469 
   99600    882.34474    -107.1288   0.79836406   -106.33044   -9274.7167    4.3324714    4.3324714    4.3324714   -9274.7167    8999.0752   -36439.425   -383.80015    7761.7988   -3864.0309     1028.537    81.321826 
   99700    813.17657   -107.07142   0.73577925   -106.33564   -3549.1321    4.3317425    4.3317425    4.3317425   -3549.1321   -5410.9462   -3428.2044   -1808.2456    36272.628    1585.1251   -4351.1475    81.280785 
   99800    1761.3303   -107.91507    1.5936887   -106.32138    16438.828    4.3343903    4.3343903    4.3343903    16438.828     44997.62    17273.446   -12954.581    -12175.05   -484.97815    7071.5417    81.429925 
   99900      772.332   -107.03729   0.69882222   -106.33847   -22747.168    4.3369399    4.3369399    4.3369399   -22747.168   -42595.406   -26778.568    1132.4695    30413.409    847.11746   -4468.0475    81.573707 
  100000     949.5016   -107.18947     0.859129   -106.33035    14057.583    4.3249389    4.3249389    4.3249389    14057.583    46316.908   -5402.9224    1258.7627    16714.621   -436.10216   -2582.2539    80.898399 
Loop time of 21.781 on 1 procs for 100000 steps with 8 atoms

Pair  time (%) = 6.8862 (31.6156)
Kspce time (%) = 5.24511 (24.0811)
Neigh time (%) = 0.0144143 (0.0661783)
Comm  time (%) = 1.03201 (4.73814)
Outpt time (%) = 0.0226243 (0.103871)
Other time (%) = 8.58066 (39.3951)

Nlocal:    8 ave 8 max 8 min
Histogram: 1 0 0 0 0 0 0 0 0 0
Nghost:    2189 ave 2189 max 2189 min
Histogram: 1 0 0 0 0 0 0 0 0 0
Neighs:    2153 ave 2153 max 2153 min
Histogram: 1 0 0 0 0 0 0 0 0 0

Total # of neighbors = 2153
Ave neighs/atom = 269.125
Neighbor list builds = 172
Dangerous builds = 0
unfix 20
unfix 21
print "seeds:6381015"
seeds:6381015
