LAMMPS (10 Feb 2015)
# ---- initialize simulations
clear
units metal
dimension 3
boundary p p p
atom_style charge
atom_modify map array
# ---- create atoms
read_data /Users/eugeneragasa/pyflamestk_git/pypospack/tests/tests_integration/workflow/WorkflowLammpsThermalExpansion/param_2217/MgO_NaCl_unit.npt.T1500/lammps.structure
  triclinic box = (0 0 0) to (4.2565 4.2565 4.2565) with tilt (0 0 0)
  1 by 1 by 1 MPI processor grid
  reading atoms ...
  8 atoms
# ---- define interatomic potential
include potential.mod
mass 1 24.305
mass 2 15.999

group Mg type 1
4 atoms in group Mg
group O type 2
4 atoms in group O

set group Mg charge 1.63539617609
  4 settings made for charge
set group O charge -1.63539617609
  4 settings made for charge

variable R_cut equal 10.0

pair_style buck/coul/long ${R_cut}
pair_style buck/coul/long 10
pair_coeff 1 1 0.0 0.5 0.0 ${R_cut}
pair_coeff 1 1 0.0 0.5 0.0 10
pair_coeff 1 2 1445.86118726 0.28350177361 0.0 ${R_cut}
pair_coeff 1 2 1445.86118726 0.28350177361 0.0 10
pair_coeff 2 2 14001.7361193 0.0970682303871 13.3227844282 ${R_cut}
pair_coeff 2 2 14001.7361193 0.0970682303871 13.3227844282 10

kspace_style pppm 1.0e-5

neighbor 1.0 bin
neigh_modify every 1 delay 0 check yes
# ---- define settings
compute eng all pe/atom
compute eatoms all reduce sum c_eng
# ---- run minimization
reset_timestep 0
fix 1 all box/relax iso 0.0 vmax 0.001
thermo 10
thermo_style custom step pe lx ly lz xy xz yz press pxx pyy pzz pxy pxz pyz c_eatoms
min_style cg
minimize 1e-25 1e-25 5000 10000
PPPM initialization ...
  G vector (1/distance) = 0.35265
  grid = 8 8 8
  stencil order = 5
  estimated absolute RMS force accuracy = 3.8734e-05
  estimated relative force accuracy = 2.68993e-06
  using double precision FFTs
  3d grid and FFT values/proc = 3375 512
Neighbor list info ...
  1 neighbor list requests
  update every 1 steps, delay 0 steps, check yes
  master list distance cutoff = 11
Memory usage per processor = 4.06549 Mbytes
Step PotEng Lx Ly Lz Xy Xz Yz Press Pxx Pyy Pzz Pxy Pxz Pyz eatoms 
       0   -107.83625       4.2565       4.2565       4.2565            0            0            0    103722.55    103722.55    103722.55    103722.55 -7.9651797e-11 -6.6040977e-11 3.4954802e-10   -107.83625 
      10   -107.94585     4.299065     4.299065     4.299065            0            0            0    48505.206    48505.206    48505.206    48505.206 -1.814552e-10 -8.0829294e-11 -4.0355362e-11   -107.94585 
      20   -107.98099     4.341612     4.341612     4.341612            0            0            0  -0.16598057  -0.16598057  -0.16598058  -0.16598057 -1.539671e-10 -9.8603927e-12 -7.0562295e-11   -107.98099 
      24     -107.981    4.3416118    4.3416118    4.3416118            0            0            0 -0.022137581 -0.022137581 -0.022137581 -0.022137581 -7.2866315e-11 -1.1353573e-10 -3.1341588e-11     -107.981 
Loop time of 0.0132399 on 1 procs for 24 steps with 8 atoms

Minimization stats:
  Stopping criterion = linesearch alpha is zero
  Energy initial, next-to-last, final = 
        -107.836253395     -107.981002151     -107.981002151
  Force two-norm initial, final = 14.9776 3.56003e-06
  Force max component initial, final = 14.9776 3.3258e-06
  Final line search alpha, max atom move = 0.5 1.6629e-06
  Iterations, force evaluations = 24 36

Pair  time (%) = 0.00340796 (25.7401)
Kspce time (%) = 0.00258994 (19.5617)
Neigh time (%) = 0 (0)
Comm  time (%) = 0.00039506 (2.98387)
Outpt time (%) = 3.69549e-05 (0.279118)
Other time (%) = 0.00680995 (51.4352)

Nlocal:    8 ave 8 max 8 min
Histogram: 1 0 0 0 0 0 0 0 0 0
Nghost:    2189 ave 2189 max 2189 min
Histogram: 1 0 0 0 0 0 0 0 0 0
Neighs:    2344 ave 2344 max 2344 min
Histogram: 1 0 0 0 0 0 0 0 0 0

Total # of neighbors = 2344
Ave neighs/atom = 293
Neighbor list builds = 0
Dangerous builds = 0
unfix 1
# ---- define output variables ----
variable natoms equal "count(all)"
variable tot_energy equal "c_eatoms"
variable length_x equal "lx"
variable length_y equal "ly"
variable length_z equal "lz"
variable tilt_xy equal "xy"
variable tilt_xz equal "xz"
variable tilt_yz equal "yz"
variable tot_press equal "press"
variable press_xx equal "pxx"
variable press_yy equal "pyy"
variable press_zz equal "pzz"
variable press_xy equal "pxy"
variable press_xz equal "pxz"
variable press_yz equal "pyz"

# ---- output ----
print "pypospack:output_section:begin"
pypospack:output_section:begin
print "tot_energy = ${tot_energy}"
tot_energy = -107.981002151143
print "num_atoms = ${natoms}"
num_atoms = 8
print "xx = ${length_x}"
xx = 4.34161184326772
print "yy = ${length_y}"
yy = 4.34161184326772
print "zz = ${length_z}"
zz = 4.34161184326772
print "xy = ${tilt_xy}"
xy = 0
print "xz = ${tilt_xz}"
xz = 0
print "yz = ${tilt_yz}"
yz = 0
print "tot_press = ${tot_press}"
tot_press = -0.0221375810241508
print "pxx = ${press_xx}"
pxx = -0.0221375810918532
print "pyy = ${press_yy}"
pyy = -0.0221375807194137
print "pzz = ${press_zz}"
pzz = -0.0221375812611855
print "pxy = ${press_xy}"
pxy = -7.28663154154814e-11
print "pxz = ${press_xz}"
pxz = -1.13535727889352e-10
print "pyz = ${press_yz}"
pyz = -3.13415884666446e-11
print "pypospack:output_section:done"
pypospack:output_section:done
print "pypospack:lammps_sim:done"
pypospack:lammps_sim:done
#------------------------------------------------------------------------------
# RUN THERMOSTAT
# running using an NPT Nose-Hoover style thermostat
#------------------------------------------------------------------------------
variable tempdamp equal 0.1
variable pressdamp equal 1.0
# set initial velocities
velocity all create 1500 4824968 mom yes dist gaussian loop all
# fix for Nose-Hoover style thermostat
fix 20 all npt temp 1500 1500 0.1 aniso 0.0 0.0 1.0 drag 1.0 couple xyz
variable boxx equal lx
variable boxy equal ly
variable boxz equal lz
variable boxp equal press
variable boxt equal temp
# calculate averages every 10000 steps
reset_timestep 0
fix 21 all ave/time 10 10 100 v_boxx v_boxy v_boxz v_boxp v_boxt file lattice.out
thermo_style custom step temp pe ke etotal press lx ly lz press pxx pyy pzz pxy pxz pyz vol
thermo_modify flush yes
thermo 100
run 100000
PPPM initialization ...
  G vector (1/distance) = 0.3518
  grid = 8 8 8
  stencil order = 5
  estimated absolute RMS force accuracy = 4.02804e-05
  estimated relative force accuracy = 2.79732e-06
  using double precision FFTs
  3d grid and FFT values/proc = 3375 512
Memory usage per processor = 3.06549 Mbytes
Step Temp PotEng KinEng TotEng Press Lx Ly Lz Press Pxx Pyy Pzz Pxy Pxz Pyz Volume 
       0         1500   -107.98101    1.3572315   -106.62378    17712.101    4.3416118    4.3416118    4.3416118    17712.101    17580.574     15853.29    19702.439     9307.977     8506.651    2702.6939    81.837618 
     100    599.83917   -106.99758   0.54274709   -106.45483    15935.867    4.3687123    4.3687123    4.3687123    15935.867   -4317.0997    31129.705    20994.995   -1644.2888    693.04889   -8752.8684    83.379703 
     200    798.57231   -106.79051   0.72256501   -106.06795     -33178.8    4.4077112    4.4077112    4.4077112     -33178.8   -64483.427   -13207.371   -21845.603    2458.4997   -67.516223   -3843.2133    85.632653 
     300    1625.0211   -107.21743    1.4703532   -105.74708   -23008.862    4.4091864    4.4091864    4.4091864   -23008.862   -44152.735    624.99044   -25498.842    3103.2359    5060.9324    11763.973    85.718661 
     400    1378.1504   -106.73297    1.2469794   -105.48599    11964.902    4.3902623    4.3902623    4.3902623    11964.902    -12257.48    10076.105    38076.082   -7837.9922   -64.797264   -8386.0883    84.619688 
     500    1630.5272   -106.79933    1.4753353   -105.32399   -15152.068    4.3940123    4.3940123    4.3940123   -15152.068   -62866.649    24440.658   -7030.2122   -64.570447   -758.89582    8892.2883    84.836708 
     600    1199.5214   -106.34197    1.0853522   -105.25662    3060.5277    4.4143403    4.4143403    4.4143403    3060.5277   -60591.605   -11136.484    80909.672    588.24254    11641.441    13722.898      86.0196 
     700    1658.0175    -106.7194    1.5002091   -105.21919   -23298.716    4.4248828    4.4248828    4.4248828   -23298.716   -45023.314   -1750.2936   -23122.539    -2164.293    9560.6135   -15330.707    86.637382 
     800    1661.5992   -106.70604    1.5034498   -105.20259   -5823.7937    4.3979978    4.3979978    4.3979978   -5823.7937   -68154.209   -7305.5817    57988.409   -3202.3635   -6062.0354    10131.652    85.067765 
     900    892.56891   -106.04131    0.8076151    -105.2337    10245.266    4.3897454    4.3897454    4.3897454    10245.266   -65300.056    13142.961    82892.893   -3781.4678   -4423.9661   -87.262669      84.5898 
    1000    2155.2839   -107.20426    1.9501462   -105.25411   -26416.071    4.4073716    4.4073716    4.4073716   -26416.071   -27419.262   -30522.133   -21306.818    3935.1801   -25892.347   -9412.3664    85.612858 
    1100    1551.5438   -106.65092    1.4038695   -105.24705   -7446.5996    4.4190419    4.4190419    4.4190419   -7446.5996    -67553.39   -17224.864    62438.456      -6194.5    11393.285    5506.8866    86.294744 
    1200    1254.5938   -106.36071    1.1351828   -105.22552   -28006.099    4.4144175    4.4144175    4.4144175   -28006.099   -80227.082    4687.0692    -8478.285    5764.5048   -16798.021   -10341.418    86.024117 
    1300    1994.4677   -107.02591    1.8046363   -105.22128    7483.0117     4.398854     4.398854     4.398854    7483.0117    -4019.465   -28696.235    55164.736    13560.063    11409.357    3796.3387    85.117456 
    1400    1623.4266   -106.71596    1.4689105   -105.24705    11438.913    4.3937431    4.3937431    4.3937431    11438.913   -26442.563   -4589.9623    65349.265    12726.901      451.638   -1065.8323    84.821117 
    1500    936.49193   -106.12236   0.84735758   -105.27501    2780.7391    4.4123587    4.4123587    4.4123587    2780.7391    -56313.51   -7879.0574    72534.785   -5578.8732   -2594.3625   -7129.6598    85.903812 
    1600    1903.8449   -106.95874    1.7226388    -105.2361   -31688.466    4.4274448    4.4274448    4.4274448   -31688.466   -36678.874    -43217.56   -15168.965    15632.013    3462.3624    16613.445    86.787959 
    1700    1453.7161   -106.52814    1.3153529   -105.21279    21236.436    4.4054135    4.4054135    4.4054135    21236.436    8770.6569    17576.273    37362.378    5344.3906   -11256.922    1403.9031    85.498801 
    1800    1518.8554   -106.58569    1.3742923   -105.21139   -5501.7614     4.391531     4.391531     4.391531   -5501.7614   -5255.3346   -6611.9515    -4637.998    9204.5698   -6394.9394    5061.8873    84.693067 
    1900    923.11895   -106.07943   0.83525743   -105.24417    32828.976     4.406141     4.406141     4.406141    32828.976    11661.694    432.23567        86393    4385.0216    10579.934    8025.1575    85.541168 
    2000    2329.9331   -107.34904    2.1081724   -105.24087   -18390.356    4.4162574    4.4162574    4.4162574   -18390.356    7248.7945   -33035.045   -29384.817    10057.294   -17973.486    4456.7992    86.131724 
    2100    888.87153   -106.03811   0.80426964   -105.23384    29110.157    4.4145449    4.4145449    4.4145449    29110.157    18260.092   -22454.913    91525.291    14130.708   -5436.3973    1023.1359    86.031565 
    2200    1453.8225   -106.53019    1.3154491   -105.21474   -17388.466      4.40743      4.40743      4.40743   -17388.466   -57497.784   -2650.3215    7982.7083   -3730.5649   -7038.6671    14672.703    85.616265 
    2300    1836.3211   -106.88165     1.661542   -105.22011   -3417.0669    4.4024796    4.4024796    4.4024796   -3417.0669    821.13371   -28202.563    17130.228    3861.7193   -23998.717   -9814.4282    85.328095 
    2400    1345.1445   -106.45962     1.217115    -105.2425    2973.0926    4.4109983    4.4109983    4.4109983    2973.0926   -18058.828   -37996.455    64974.561    8583.4816     16174.64     6096.099    85.824378 
    2500    1250.4139   -106.37993    1.1314008   -105.24853   -21160.379    4.4116864    4.4116864    4.4116864   -21160.379   -63371.836    18368.599     -18477.9   -3459.3588   -6005.4094    3457.2511    85.864553 
    2600    1243.1957   -106.37252    1.1248696   -105.24765   -1124.3519    4.4146708    4.4146708    4.4146708   -1124.3519    5190.3296   -37367.444    28804.059    5236.0237    3523.0014    6184.3867    86.038923 
    2700    1881.9039   -106.94501    1.7027862   -105.24222   -21696.693    4.4112183    4.4112183    4.4112183   -21696.693    107.26066   -36357.755   -28839.583   -11892.265    17582.867    16707.758    85.837223 
    2800    1304.7872    -106.4323    1.1805989    -105.2517    27249.683     4.401761     4.401761     4.401761    27249.683    67052.579   -17376.989    32073.461    1168.3905    9805.0764   -10745.585    85.286319 
    2900    1432.9064     -106.554    1.2965239   -105.25747   -29345.841    4.4230482    4.4230482    4.4230482   -29345.841   -40385.773   -66433.619    18781.868    3885.6657    7903.8002    5379.2134    86.529664 
    3000    1755.5004   -106.81938    1.5884136   -105.23097    -19583.86    4.4298397    4.4298397    4.4298397    -19583.86    37122.513   -60470.834    -35403.26    -4505.678    5744.3342    157.88895     86.92887 
    3100    1453.7334    -106.5227    1.3153685   -105.20734    6673.2057    4.4152312    4.4152312    4.4152312    6673.2057   -19635.428   -20657.583    60312.628    13852.055   -4921.1256   -9359.1216    86.071694 
    3200    1147.7641   -106.23995    1.0385211   -105.20143   -4520.4255    4.4006341    4.4006341    4.4006341   -4520.4255   -24886.423   -21530.615    32855.762    4066.8587    6126.0156   -3303.7928    85.220833 
    3300    1684.2705   -106.75472    1.5239633   -105.23075    7372.8354    4.4109649    4.4109649    4.4109649    7372.8354   -11487.492   -43848.332    77454.329    1177.1099   -6773.5716    2002.2363    85.822431 
    3400    1351.2696   -106.45887    1.2226571   -105.23622    -20853.63    4.4352167    4.4352167    4.4352167    -20853.63    1424.0821   -39547.016   -24437.957   -6304.0618   -9145.0321   -8123.8826    87.245798 
    3500    1450.6786   -106.53659    1.3126045   -105.22398   -8896.1653    4.4212399    4.4212399    4.4212399   -8896.1653   -16.194696   -7800.0121   -18872.289   -9602.9738    15498.257   -8954.3928    86.423579 
    3600    1899.1028   -106.94818    1.7183481   -105.22984   -9180.8917    4.4053826    4.4053826    4.4053826   -9180.8917    1940.8742    -34840.19    5356.6409    4809.6632    350.05126    1822.8849    85.497005 
    3700    1354.0702    -106.4799    1.2251911   -105.25471    10006.446    4.4066476    4.4066476    4.4066476    10006.446    38689.363   -6955.7779   -1714.2469    7275.6374    22285.908     1211.742    85.570676 
    3800     1249.377    -106.3887    1.1304626   -105.25824    3047.7513     4.415365     4.415365     4.415365    3047.7513    13025.802   -27186.335    23303.787    1909.7003    3211.7181   -13021.248    86.079519 
    3900    1670.2109   -106.77195    1.5112419   -105.26071   -20890.117    4.4156002    4.4156002    4.4156002   -20890.117   -8161.6784   -50353.644   -4155.0272    2141.9254   -2073.2357   -427.57151    86.093277 
    4000    1637.1695    -106.7395    1.4813453   -105.25816    13640.719    4.4160005    4.4160005    4.4160005    13640.719    12337.175   -4946.9593     33531.94   -2794.1337    285.62512   -13663.651    86.116695 
    4100    1017.9659   -106.17104   0.92107693   -105.24996    20061.829    4.4257526    4.4257526    4.4257526    20061.829    88509.729   -34114.064    5789.8218     3569.398   -20387.985   -22964.669    86.688484 
    4200    1711.2855    -106.7859    1.5484071   -105.23749   -50643.254    4.4289162    4.4289162    4.4289162   -50643.254   -52374.789   -60397.731   -39157.241   -9079.2465    18769.476    6059.1345    86.874516 
    4300    1692.9904   -106.77992    1.5318533   -105.24807    6060.5306    4.4132787    4.4132787    4.4132787    6060.5306   -307.65249   -25327.579    43816.824    221.29629   -7602.0998    958.81168    85.957555 
    4400    1461.0645    -106.5862    1.3220019    -105.2642    19612.647    4.4069014    4.4069014    4.4069014    19612.647    26935.059    17626.067    14276.815   -9965.1662    12338.521    861.71171     85.58546 
    4500    1430.1053   -106.55033    1.2939893   -105.25634   -6921.3685    4.4179078    4.4179078    4.4179078   -6921.3685   -30648.764   -18696.842    28581.501   -1865.1574    15723.865    560.14987    86.228326 
    4600    1314.5373   -106.42268     1.189421   -105.23326    26290.815    4.4239822    4.4239822    4.4239822    26290.815    52334.839     -693.571    27231.178    2906.7507    -2619.004    1984.7953    86.584493 
    4700    2038.2795   -107.06063    1.8442781   -105.21635   -10105.611     4.419719     4.419719     4.419719   -10105.611   -13534.944   -24751.276    7969.3876   -2589.8899    11684.544   -1029.7547    86.334418 
    4800    1042.4711   -106.16414   0.94324978   -105.22089    25085.286    4.4132292    4.4132292    4.4132292    25085.286    37151.362    4579.3155     33525.18   -14313.756    10810.355    2003.6703    85.954663 
    4900    1460.5271   -106.54848    1.3215156   -105.22696    5788.5387    4.4056245    4.4056245    4.4056245    5788.5387    32714.048   -8722.3013   -6626.1302   -13321.832   -2763.3866   -748.58495    85.511089 
    5000    1550.7586   -106.64714     1.403159   -105.24399    2191.6206    4.4168343    4.4168343    4.4168343    2191.6206    28453.226    -20321.72    -1556.644   -1711.7282    10498.045   -6371.4779    86.165483 
    5100     1933.529   -106.97783    1.7494976   -105.22834   -31587.879    4.4382093    4.4382093    4.4382093   -31587.879    -29464.66   -31545.902   -33753.073    345.86733    1480.6197    9773.3206    87.422521 
    5200    779.17579   -105.91953   0.70501463   -105.21451   -12918.372     4.435796     4.435796     4.435796   -12918.372    7153.0273   -54260.743    8352.5985    10002.297    14055.319    18020.981    87.279994 
    5300     1972.201   -106.97553    1.7844889   -105.19104    27823.643    4.3945038    4.3945038    4.3945038    27823.643    17014.118    12307.391    54149.421   -7381.7561   -16646.798    6512.5816     84.86518 
    5400    1496.3421    -106.5805    1.3539218   -105.22658    9164.4783    4.3949621    4.3949621    4.3949621    9164.4783    32374.176    7123.4812   -12004.222   -2762.3925    7035.7701       2865.9    84.891732 
    5500    1118.8195   -106.27356    1.0123314   -105.26123    7823.1993    4.4265717    4.4265717    4.4265717    7823.1993    72205.356   -43535.919    -5199.838    1418.5773   -4324.7847    8080.9401    86.736621 
    5600    1795.4644   -106.84652    1.6245739   -105.22195    -34548.91    4.4482486    4.4482486    4.4482486    -34548.91   -46691.219   -48416.522   -8538.9884   -8829.5611    7074.4972    12414.882     88.01712 
    5700     904.1264   -106.02193   0.81807257   -105.20386    16825.706    4.4134517    4.4134517    4.4134517    16825.706     40279.38    24149.172   -13951.433     8443.238     3635.459     4783.681    85.967666 
    5800    1423.2876   -106.47613    1.2878205   -105.18831    45621.504    4.3837979    4.3837979    4.3837979    45621.504    54331.533     43308.82    39224.161   -5307.9436    -8225.301    7209.9131    84.246441 
    5900    1509.8185   -106.62425    1.3661155   -105.25814    -3558.756    4.4218524    4.4218524    4.4218524    -3558.756   -36751.875   -48066.163     74141.77    -9756.656     12299.03    13148.874    86.459504 
    6000    1513.3717   -106.59784    1.3693305   -105.22851   -29449.345    4.4510285    4.4510285    4.4510285   -29449.345   -24690.757   -10466.642   -53190.636    1614.9275   -5063.7878     1630.463     88.18224 
    6100     1190.632   -106.27531    1.0773089   -105.19801    3465.3193    4.4213315    4.4213315    4.4213315    3465.3193   -156.98141    969.78878    9583.1506    8725.2145   -7203.6458    4847.4209    86.428947 
    6200     1324.631   -106.37942    1.1985539   -105.18086    43791.107    4.3871206    4.3871206    4.3871206    43791.107    73170.403   -6012.8094    64215.727   -2025.1384    18184.978    1420.7264    84.438154 
    6300    1918.1784   -106.97557    1.7356081   -105.23996    5627.1808     4.408971     4.408971     4.408971    5627.1808   -34104.125   -5273.6658    56259.333    -5275.459   -14421.221   -7172.6116    85.706099 
    6400    909.12232   -106.07238   0.82259298   -105.24979   -12800.537    4.4441983    4.4441983    4.4441983   -12800.537    986.42474    -56505.32    17117.286    3578.9041    587.54093     5130.024    87.776911 
    6500    1748.7467   -106.79421    1.5823028   -105.21191   -44013.031    4.4351119    4.4351119    4.4351119   -44013.031   -64256.531   -63928.994   -3853.5683   -8129.0468   -3238.7256    1401.7638    87.239618 
    6600    1584.7827   -106.62546    1.4339447   -105.19152    43472.449    4.3899276    4.3899276    4.3899276    43472.449    20045.656    46915.901    63455.789    6465.5022   -1599.5741     16106.87    84.600334 
    6700    1840.2334   -106.87956    1.6650819   -105.21448   -6151.0256    4.3885675    4.3885675    4.3885675   -6151.0256   -12380.394   -10355.179    4282.4967    663.77271    8232.0238    -5381.622    84.521727 
    6800    1337.2434   -106.46064     1.209966   -105.25067   -24191.526    4.4378608    4.4378608    4.4378608   -24191.526   -380.90039   -63993.763   -8199.9149    645.60476   -2597.4899   -951.24333    87.401929 
    6900    1610.5246   -106.65864    1.4572365    -105.2014   -29154.052    4.4515768    4.4515768    4.4515768   -29154.052    -61186.47   -20286.008   -5989.6768    10825.781   -109.26138    21729.314    88.214833 
    7000    1743.4994   -106.74758    1.5775549   -105.17003    2687.2626    4.4086542    4.4086542    4.4086542    2687.2626   -4087.5073   -7467.8412    19617.136    15946.283    13652.059    10098.984    85.687623 
    7100    1167.0185   -106.23323    1.0559428   -105.17729    29709.545    4.3876232    4.3876232    4.3876232    29709.545    20093.501   -5171.7765     74206.91    -7621.015    -9192.903   -12320.538    84.467178 
    7200     1755.253   -106.83672    1.5881898   -105.24853   -22649.867     4.421565     4.421565     4.421565   -22649.867   -22749.563   -40348.185   -4851.8545   -18.914814    802.08632    14579.357    86.442645 
    7300    1299.2505   -106.40102    1.1755892   -105.22543   -11437.404     4.444175     4.444175     4.444175   -11437.404    5253.0591    -78110.85     38545.58    11602.652   -1446.0753   -5242.4315    87.775529 
    7400    1452.5655   -106.51797    1.3143118   -105.20366   -5604.1539     4.413617     4.413617     4.413617   -5604.1539   -28598.357    11272.579    513.31633   -2595.2862   -1557.4708    -8746.036    85.977328 
    7500    1297.6515   -106.37414    1.1741424   -105.19999     56454.78     4.391092     4.391092     4.391092     56454.78    38546.838    26926.444    103891.06     1512.009   -1398.2727    11534.194    84.667672 
    7600    1818.0867    -106.8933    1.6450431   -105.24826   -33693.992     4.422104     4.422104     4.422104   -33693.992   -45980.744   -61586.992    6485.7605    4636.0266   -2784.5139    5746.6106    86.474258 
    7700    1446.4768   -106.54086    1.3088026   -105.23206    3387.7665    4.4253495    4.4253495    4.4253495    3387.7665   -29846.395    12704.888    27304.807    6876.7445    7475.4391    8645.7966    86.664799 
    7800    1366.3064   -106.45497    1.2362627    -105.2187    7262.4179    4.4163373    4.4163373    4.4163373    7262.4179   -2293.6181    35705.983   -11625.112   -6777.9618    2679.7736   -17775.715    86.136396 
    7900    1692.3327   -106.75483    1.5312582   -105.22357   -14790.886    4.4136216    4.4136216    4.4136216   -14790.886   -45830.745   -43790.613    45248.699   -8770.1036   -6087.2194    14609.396    85.977594 
    8000    1398.7267   -106.49335    1.2655973   -105.22776    32813.568    4.4032266    4.4032266    4.4032266    32813.568    11221.227    24533.987    62685.489    -295.6229   -6691.4505   -1858.0437    85.371541 
    8100    1662.6995   -106.75685    1.5044454    -105.2524    -33082.58    4.4261637    4.4261637    4.4261637    -33082.58   -72871.608   -18127.439   -8248.6925   -9699.3365   -14746.221   -2346.0619     86.71264 
    8200    1376.5937   -106.47566    1.2455709   -105.23009     1884.753    4.4215898    4.4215898    4.4215898     1884.753    -20146.77   -28384.036    54185.065    13204.022   -62.775992    10421.252    86.444099 
    8300    1637.9643    -106.6944    1.4820645   -105.21234   -2367.9481    4.4002777    4.4002777    4.4002777   -2367.9481   -7411.9169    9785.1551   -9477.0825   -11205.662    2755.8788    -4830.155     85.20013 
    8400    1372.4661   -106.48103    1.2418362   -105.23919   -16030.175    4.4166311    4.4166311    4.4166311   -16030.175   -6112.8237   -37414.608   -4563.0922    -6604.887   -27909.996   -8564.1595     86.15359 
    8500    1642.1334   -106.71954    1.4858368   -105.23371    13407.612    4.4141703    4.4141703    4.4141703    13407.612   -45341.392    3445.6645    82118.565    13592.381    18812.304    7097.6366    86.009663 
    8600    1271.4204   -106.39148    1.1504079   -105.24107   -24701.585    4.4213438    4.4213438    4.4213438   -24701.585    -18488.46    -38552.97   -17063.325   -9030.2675   -11348.036    13103.348    86.429669 
    8700    1020.6546   -106.15022   0.92350971   -105.22671    13584.698       4.4152       4.4152       4.4152    13584.698   -40071.876    -44770.17    125596.14    6124.5016   -10313.227   -267.70252    86.069867 
    8800    1907.7605    -106.9611    1.7261818   -105.23492   -15930.314    4.4083928    4.4083928    4.4083928   -15930.314   -66565.317   -13159.058    31933.433   -7032.2189    14241.214   -1760.3113    85.672386 
    8900    1125.5108   -106.27935    1.0183858   -105.26096   -17136.954    4.4227907    4.4227907    4.4227907   -17136.954    8965.7233   -66751.366    6374.7806    13455.305   -30876.112    2877.0921    86.514554 
    9000    1992.5627   -107.05668    1.8029126   -105.25376   -31983.526    4.4169292    4.4169292    4.4169292   -31983.526   -44290.618   -63525.477    11865.518   -8562.0575    20550.806    6969.3534    86.171038 
    9100    1083.9787   -106.22921   0.98080669    -105.2484    18071.493    4.4039514    4.4039514    4.4039514    18071.493    26282.196    751.86157     27180.42   -2328.3824   -31745.895    -6722.776    85.413705 
    9200    1673.8607    -106.7619    1.5145444   -105.24736   -14638.155    4.4029297    4.4029297    4.4029297   -14638.155   -22214.055   -52961.365    31260.956   -6289.6864    19065.426    -2263.466    85.354273 
    9300    1384.5808   -106.50342    1.2527978   -105.25062    -9298.778    4.4152793    4.4152793    4.4152793    -9298.778   -5865.5489   -48232.367    26201.582   -10563.227   -18786.899   -2224.5989    86.074505 
    9400    1688.4985   -106.76519    1.5277889    -105.2374   -21523.231    4.4118472    4.4118472    4.4118472   -21523.231   -45327.573    5007.8184   -24249.938    3989.1186   -10110.782    5883.7352    85.873942 
    9500    1257.1331   -106.36735    1.1374805   -105.22987    14571.504    4.4108405    4.4108405    4.4108405    14571.504   -6627.9216   -52111.085    102453.52    3416.7067    8301.1533   -9614.8808    85.815171 
    9600    1526.6546   -106.61283    1.3813492   -105.23148    5013.9321    4.4096819    4.4096819    4.4096819    5013.9321    11199.049   -24210.818    28053.566   -1938.4274   -20584.725    3144.1207    85.747565 
    9700     1785.029   -106.85271    1.6151318   -105.23757   -1601.5253    4.4153175    4.4153175    4.4153175   -1601.5253   -26048.775   -27476.534    48720.733    11024.856   -4894.5001     20721.35     86.07674 
    9800    1488.2013   -106.58229    1.3465558   -105.23574    5678.2242    4.4235422    4.4235422    4.4235422    5678.2242   -16843.466   -40924.058    74802.196    4420.5173     4686.998    6908.4944    86.558661 
    9900    1207.2836    -106.3199    1.0923756   -105.22752   -2774.9515    4.4266566    4.4266566    4.4266566   -2774.9515    17009.005   -55579.569    30245.711   -3152.5911   -20324.163    3831.3779    86.741612 
   10000    2182.7994   -107.20278    1.9750428   -105.22774   -30445.829    4.4221581    4.4221581    4.4221581   -30445.829   -47915.884    -37842.21   -5579.3928    4875.6571    11011.458    2756.3893    86.477434 
   10100    1384.4457   -106.51142    1.2526756   -105.25875    11533.201    4.4145395    4.4145395    4.4145395    11533.201    43056.405   -31224.521    22767.718   -3088.7378   -11472.438    9057.7736    86.031249 
   10200    2106.0183   -107.16196    1.9055696   -105.25639   -12049.874    4.4140906    4.4140906    4.4140906   -12049.874   -28768.158   -51723.652    44342.189     14302.37   -9296.6565    3935.7409    86.005008 
   10300    798.17536   -105.98783   0.72220584   -105.26563    22916.712    4.4235736    4.4235736    4.4235736    22916.712     79787.02   -23070.365    12033.481    4424.9466    5124.9754    7495.4341    86.560504 
   10400    1883.6307   -106.96227    1.7043487   -105.25792   -27571.573    4.4299432    4.4299432    4.4299432   -27571.573   -46396.946    -47039.98    10722.206    1397.5431   -19732.974    5654.9066    86.934963 
   10500    2007.1572   -107.08116     1.816118   -105.26504   -24058.134    4.4263663    4.4263663    4.4263663   -24058.134    2041.3627    -71380.81   -2834.9563   -4353.4959     7219.159    10571.368     86.72455 
   10600     766.3591   -105.97936   0.69341782   -105.28594    22202.952    4.4099789    4.4099789    4.4099789    22202.952     38109.32    -35293.52    63793.055    4407.8516    7514.8945    12281.834     85.76489 
   10700    1829.3676   -106.93458    1.6552503   -105.27933   -2284.7614    4.4061888    4.4061888    4.4061888   -2284.7614     13804.04   -19669.752     -988.572   -5239.5576   -6807.1846   -5241.9472    85.543953 
   10800    1388.3631   -106.54666    1.2562201   -105.29044    -7841.101    4.4286338    4.4286338    4.4286338    -7841.101    23659.771   -76702.825    29519.751   -872.59818    13389.809    19324.133    86.857899 
   10900    1744.7289   -106.84414    1.5786674   -105.26547   -20831.558    4.4296346    4.4296346    4.4296346   -20831.558   -29117.743   -41742.045     8365.114    -7673.215   -2800.7857   -12233.782    86.916795 
   11000    1302.1425   -106.42793    1.1782059   -105.24972    30132.637       4.4087       4.4087       4.4087    30132.637     89993.85   -17101.095    17505.157   -7453.6836   -679.67114    10950.673    85.690296 
   11100    1180.5343   -106.33612    1.0681722   -105.26795    21788.381    4.4151165    4.4151165    4.4151165    21788.381    57085.497   -39411.348    47690.993    7370.4374    20262.536    5337.7346    86.064988 
   11200     1663.886   -106.77538    1.5055191   -105.26986   -28591.757    4.4236687    4.4236687    4.4236687   -28591.757   -1030.1766   -74902.154   -9842.9409   -4649.3434   -14328.505    23773.653    86.566083 
   11300    1676.5183   -106.75641     1.516949   -105.23946     11356.06    4.4063881    4.4063881    4.4063881     11356.06    457.47907   -37911.613    71522.313    8417.1048   -6015.5838   -1658.0015    85.555559 
   11400    835.79963    -106.0166   0.75624907   -105.26035    13218.191    4.4155276    4.4155276    4.4155276    13218.191     60413.23    -31100.32    10341.662   -3567.4441   -1375.0254    8132.7946    86.089031 
   11500    2284.6843   -107.31602    2.0672304   -105.24879   -38949.533    4.4309775    4.4309775    4.4309775   -38949.533   -27624.177    -63253.94   -25970.481    6857.1672   -2071.4108     14203.97    86.995871 
   11600     891.6739   -106.05249   0.80680529   -105.24569    32907.451    4.4252208    4.4252208    4.4252208    32907.451    76858.647   -35711.894    57575.601   -8959.7031    8371.3067    5740.9961    86.657234 
   11700    1590.9762   -106.69187    1.4395487   -105.25232   -10940.703    4.4181411    4.4181411    4.4181411   -10940.703   -19774.144   -38735.488    25687.523    6959.5614   -1107.2209    8350.4969    86.241985 
   11800    1960.2099     -107.054    1.7736392   -105.28036   -21575.786    4.4312678    4.4312678    4.4312678   -21575.786    -19640.75   -54807.077    9720.4699   -8609.6233   -12914.561   -708.83725    87.012972 
   11900    756.19785   -105.97857   0.68422371   -105.29435    28010.405    4.4389011    4.4389011    4.4389011    28010.405    76761.043   -55893.054    63163.225   -3580.7861    45741.867    13578.651    87.463413 
   12000    1518.3365   -106.65386    1.3738228   -105.28004    6497.7523    4.4280291    4.4280291    4.4280291    6497.7523    66234.209   -43671.046   -3069.9065   -6494.7002   -11210.923   -8976.8327    86.822324 
   12100    2052.1224   -107.13971    1.8568035   -105.28291   -16546.281    4.4257864    4.4257864    4.4257864   -16546.281    3825.7716   -47448.706   -6015.9082    1753.9642    14472.387   -2945.0569    86.690471 
   12200    1458.6043   -106.61692    1.3197758   -105.29714    4412.1845    4.4320904    4.4320904    4.4320904    4412.1845   -3579.5242   -31739.896    48555.974    6325.8371    2569.1577    410.46276    87.061439 
   12300    1094.5742   -106.28495   0.99039376   -105.29456    15178.856    4.4341411    4.4341411    4.4341411    15178.856    82699.644   -29275.948   -7887.1286     9269.728   -15051.426   -2448.5867    87.182341 
   12400    1227.5595   -106.39544    1.1107216   -105.28472    1537.1473    4.4367987    4.4367987    4.4367987    1537.1473    58620.537   -63502.238    9493.1427   -700.79529    25768.835    -459.1066    87.339194 
   12500    1426.4756   -106.56833    1.2907051   -105.27762   -18565.716    4.4381468    4.4381468    4.4381468   -18565.716    19759.333   -51409.406   -24047.074   -7471.9778   -5658.4383    569.15938    87.418833 
   12600    1161.2459   -106.30795    1.0507197   -105.25723    41616.397    4.4270442    4.4270442    4.4270442    41616.397    90762.531   -4778.2012    38864.861   -16048.635   -4590.5493   -1870.2525    86.764399 
   12700    1776.5754   -106.88524    1.6074828   -105.27776   -3730.6865    4.4391007    4.4391007    4.4391007   -3730.6865    10859.062    2979.9516   -25031.073    10735.956    13138.537   -5475.5105    87.475208 
   12800    1767.8068   -106.86243    1.5995488   -105.26288   -31590.252    4.4525624    4.4525624    4.4525624   -31590.252   -11062.399   -41449.043   -42259.315   -1185.9019   -7229.8666   -7748.4054    88.273441 
   12900    1274.1515   -106.38999    1.1528791   -105.23711    7900.6571    4.4335599    4.4335599    4.4335599    7900.6571    25539.861   -49494.882    47656.992    9513.3448   -3074.3837    530.27454    87.148062 
   13000    2186.6359    -107.2166    1.9785141   -105.23808   -10872.153    4.4163834    4.4163834    4.4163834   -10872.153    25865.725   -38945.563   -19536.621   -6006.0039   -3531.7773   -16111.593    86.139096 
   13100    1109.7993   -106.27945    1.0041697   -105.27528    29330.984    4.4287697    4.4287697    4.4287697    29330.984    116694.85   -32576.269    3874.3687    13630.457    219.66999   -4457.3101    86.865896 
   13200    1066.9157   -106.23549   0.96536775   -105.27012   -13324.303    4.4600709    4.4600709    4.4600709   -13324.303   -18930.875    -52420.09    31378.057   -17782.959   -2819.2923    1905.3602    88.720765 
   13300    2159.5556    -107.1656    1.9540113   -105.21159   -35701.121    4.4462041    4.4462041    4.4462041   -35701.121   -6136.5075   -53174.634   -47792.222   -2785.1262   -6017.9149   -12371.768    87.895811 
   13400    1515.7537   -106.57542    1.3714858   -105.20393    2741.3423    4.4242998    4.4242998    4.4242998    2741.3423   -42449.199     4193.598    46479.628   -7328.1377    9553.4531   -12879.293    86.603141 
   13500    1311.5591    -106.4175    1.1867263   -105.23077    31900.392    4.4176191    4.4176191    4.4176191    31900.392    109245.74   -4064.6018    -9479.966   -7947.5288   -20624.078   -6890.4628    86.211422 
   13600    1351.1108   -106.50499    1.2225134   -105.28247    -14440.22    4.4404395    4.4404395    4.4404395    -14440.22    11763.418   -28668.585   -26415.494   -4811.3543    13572.247   -537.95222     87.55438 
   13700    1595.7491   -106.69337    1.4438673   -105.24951   -17550.695    4.4541198    4.4541198    4.4541198   -17550.695    7086.0773   -41649.976   -18088.186   -1890.6084    9411.3438   -6524.1907    88.366101 
   13800    1499.9386   -106.57852     1.357176   -105.22135   -25260.164    4.4444357    4.4444357    4.4444357   -25260.164   -43107.348    -954.6482   -31718.497   -8484.6803    3455.8414   -2059.1116    87.790978 
   13900    1362.3149   -106.45799    1.2326512   -105.22534    11284.878    4.4224965    4.4224965    4.4224965    11284.878    55375.928    11218.903   -32740.196   -17193.489    -1757.343   -2477.9614     86.49729 
   14000    1474.8721   -106.58478    1.3344953   -105.25029    20592.195    4.4183995    4.4183995    4.4183995    20592.195    51781.583   -9250.8056    19245.809    3206.6164    10465.807    -1322.187     86.25712 
   14100    1571.4788   -106.68124     1.421907   -105.25933   -42139.396    4.4447342    4.4447342    4.4447342   -42139.396   -10310.324   -53121.326   -62986.539    416.15571   -9370.1251    1208.2875    87.808666 
   14200    1528.1133    -106.6179     1.382669   -105.23523   -19386.541    4.4458196    4.4458196    4.4458196   -19386.541    923.57146   -54279.297   -4803.8984    8711.3933   -9108.3303   -9660.4937    87.873013 
   14300     2054.308   -107.08502    1.8587811   -105.22624   -18896.787    4.4265356    4.4265356    4.4265356   -18896.787    8787.0089    -40695.17   -24782.201    7807.1575    -6267.413   -3154.3108      86.7345 
   14400    1023.3118   -106.16569   0.92591405   -105.23978    44850.219    4.4094723    4.4094723    4.4094723    44850.219    74079.056    3262.2881    57209.312    1762.2932    12585.982     9655.004    85.735336 
   14500    1297.5385   -106.44161    1.1740401   -105.26757   -4780.5681    4.4327938    4.4327938    4.4327938   -4780.5681   -4926.5581   -9789.5753    374.42923     12055.62    4825.3727    11347.578    87.102897 
   14600    1915.2525   -106.99298    1.7329607   -105.26002   -40410.192    4.4457862    4.4457862    4.4457862   -40410.192   -43013.746   -42161.046   -36055.783    6124.0524   -11008.999    11955.999     87.87103 
   14700    1622.1316    -106.7091    1.4677387   -105.24136   -18729.479    4.4382165    4.4382165    4.4382165   -18729.479    9270.9605   -53068.233   -12391.164   -32.691781    10808.684    7575.1655    87.422951 
   14800    1560.0942   -106.64405     1.411606   -105.23245    20387.953    4.4224986    4.4224986    4.4224986    20387.953    80771.205   -34254.192    14646.845    16201.747    -11871.96   -3024.6236    86.497413 
   14900      1025.03   -106.20038    0.9274687   -105.27292    3953.0915    4.4319321    4.4319321    4.4319321    3953.0915    27538.463    4688.4845   -20367.673   -10577.883   -11591.478    3689.9991    87.052105 
   15000     1407.107   -106.53465      1.27318   -105.26147    7406.3862     4.438199     4.438199     4.438199    7406.3862    48409.564   -2605.9945   -23584.411   -3608.9347    16348.464   -4768.0342    87.421914 
   15100    2154.9831   -107.18226     1.949874   -105.23239   -34974.257    4.4318078    4.4318078    4.4318078   -34974.257    -2665.465   -41712.808   -60544.499    16110.003   -10037.088   -6822.3256    87.044787 
   15200    1305.6539   -106.40719    1.1813831    -105.2258    24218.732    4.4219443    4.4219443    4.4219443    24218.732    100892.06   -8091.7704   -20144.098     7040.289   -6347.7409   -7278.7609    86.464891 
   15300    1151.1444   -106.30199    1.0415796   -105.26041    2971.9625    4.4422911    4.4422911    4.4422911    2971.9625     48070.69   -11870.466   -27284.336    5548.4061   -12021.327    1811.3598     87.66395 
   15400     1791.856     -106.855     1.621309   -105.23369    -23963.32    4.4425587    4.4425587    4.4425587    -23963.32    28095.267   -31812.315   -68172.911   -5148.5754   -4286.2624    4443.1496    87.679792 
   15500    1802.9026   -106.84758    1.6313041   -105.21627   -26798.716    4.4157912    4.4157912    4.4157912   -26798.716   -7736.0695   -50911.143   -21748.935    25764.591    2487.4833   -19486.256    86.104449 
   15600    1202.9781   -106.32281    1.0884799   -105.23433    37102.009    4.4067747    4.4067747    4.4067747    37102.009    108960.21    22589.029   -20243.212   -26188.091   -5958.7625   -4373.4316     85.57808 
   15700    1886.8314   -106.98645    1.7072447   -105.27921   -41879.409    4.4423019    4.4423019    4.4423019   -41879.409   -31945.395   -46845.376   -46847.455    31276.932    6298.2403   -6689.6924    87.664589 
   15800    1728.7093   -106.78823    1.5641725   -105.22405   -29771.104    4.4553927    4.4553927    4.4553927   -29771.104     11663.54   -58357.728   -42619.126    12782.491   -14212.126   -1319.6517    88.441879 
   15900    1148.9719   -106.23785     1.039614   -105.19824   -11006.606    4.4309642    4.4309642    4.4309642   -11006.606   -37047.136    19504.483   -15477.167    12453.554   -14255.049   -5671.8664    86.995085 
   16000    1897.4643   -106.90718    1.7168656   -105.19031   -2749.2471    4.4105811    4.4105811    4.4105811   -2749.2471    -2008.214    -28550.72    22311.193    19128.221    3464.4298   -2513.8673    85.800028 
   16100    1858.0605   -106.89688    1.6812122   -105.21566   -6925.9348    4.4265558    4.4265558    4.4265558   -6925.9348    11149.015   -25793.974   -6132.8452    104.43713    -7839.014    117.70676    86.735689 
   16200    1357.1888   -106.44393     1.228013   -105.21592   -28727.369    4.4390067    4.4390067    4.4390067   -28727.369   -28578.532   -64748.617    7145.0424    10702.086    15118.811   -13391.854     87.46965 
   16300    1680.2921   -106.72611    1.5203636   -105.20575    6146.6507    4.4265041    4.4265041    4.4265041    6146.6507     17986.18   -9661.3561    10115.128   -14460.088   -15731.397    12153.634    86.732647 
   16400    2002.8094   -107.02089     1.812184   -105.20871   -13496.996    4.4081186    4.4081186    4.4081186   -13496.996   -24719.786   -32042.734    16271.533    11914.571   -5207.5149   -18363.027    85.656397 
   16500    751.84265   -105.92532   0.68028303   -105.24504     23061.39    4.4180014    4.4180014    4.4180014     23061.39    22829.883   -1030.0546    47384.341    -10083.11   -1945.7441     7062.407    86.233803 
   16600    1913.5075    -106.9611    1.7313818   -105.22972   -22358.512    4.4352607    4.4352607    4.4352607   -22358.512   -21439.625    -43083.51   -2552.4016     11601.87   -11424.427    2882.3157    87.248399 
   16700    1384.8979   -106.46198    1.2530848    -105.2089   -26890.617    4.4354117    4.4354117    4.4354117   -26890.617   -50321.123   -72160.373    41809.646    17451.093    -5035.881   -20483.922    87.257309 
   16800    1197.9171   -106.27176    1.0839006   -105.18786    25014.906    4.4126784    4.4126784    4.4126784    25014.906   -27867.511    20874.585    82037.646   -6259.7052   -11662.905     -17362.3    85.922483 
   16900     1420.724   -106.49769    1.2855009   -105.21218    9184.4795    4.4160907    4.4160907    4.4160907    9184.4795     27869.28   -49839.566    49523.724    7683.5184   -7282.3046   -8422.8154     86.12197 
   17000    1588.7535   -106.65306    1.4375375   -105.21552    -32746.69    4.4269904    4.4269904    4.4269904    -32746.69   -12938.939   -70841.189   -14459.942   -8812.8146    1334.1625    8581.3445    86.761238 
   17100    1383.1837   -106.46515    1.2515337   -105.21361    11466.197    4.4189457    4.4189457    4.4189457    11466.197    11712.501   -41727.094    64413.183    11915.691   -2542.7144   -3053.8651     86.28911 
   17200    1944.1126   -106.98353    1.7590739   -105.22445   -31145.007    4.4223131    4.4223131    4.4223131   -31145.007   -34591.065   -69856.723    11012.768   -3981.5496   -1452.5518   -6047.4381    86.486529 
   17300    1689.2634   -106.76547     1.528481   -105.23699   -9190.3387     4.422429     4.422429     4.422429   -9190.3387   -16373.772   -77044.227    65846.982    6983.9865    11175.239   -7678.6732    86.493328 
   17400    1118.6335   -106.25222    1.0121631   -105.24006    21898.368    4.4132786    4.4132786    4.4132786    21898.368   -12085.569     16050.04    61730.632    265.61439     12384.18   -7238.8284    85.957552 
   17500    1941.9372   -106.98613    1.7571055   -105.22902   -2518.3346    4.4062852    4.4062852    4.4062852   -2518.3346    4887.0812   -24979.397    12537.312    12662.664   -4853.1916   -728.61266    85.549566 
   17600    1355.1174   -106.47221    1.2261387   -105.24608    -13465.58    4.4305935    4.4305935    4.4305935    -13465.58   -5882.8924   -58100.974    23587.125   -3697.7387    2224.4338    7708.4796    86.973252 
   17700     1268.691   -106.36015    1.1479382   -105.21221    16095.476    4.4263744    4.4263744    4.4263744    16095.476    32185.821   -31317.461    47418.068    1050.0187     778.3337   -726.99568    86.725023 
   17800    1619.1454   -106.67102    1.4650368   -105.20599   -7332.1034    4.4179965    4.4179965    4.4179965   -7332.1034   -434.84547   -25240.531    3679.0663     18623.42   -11987.967    4142.4624    86.233516 
   17900    1185.9993   -106.28747    1.0731171   -105.21435    11912.429    4.4209249    4.4209249    4.4209249    11912.429    12370.095     -33329.3    56696.491   -10515.415    8490.0816    1953.8789    86.405108 
   18000    1599.1044   -106.67085    1.4469032   -105.22395    -9516.185    4.4157382    4.4157382    4.4157382    -9516.185   -13648.502   -36542.776    21642.722    2258.1635    596.88563   -6477.0412    86.101346 
   18100    1580.1376   -106.66533    1.4297417   -105.23559   -22296.618    4.4134618    4.4134618    4.4134618   -22296.618   -15627.454   -38770.329   -12492.069   -803.27537    1939.3814    5937.9236    85.968254 
   18200    1432.9823   -106.53501    1.2965925   -105.23842   -10870.494    4.4109611    4.4109611    4.4109611   -10870.494   -12934.249   -45248.212    25570.978    3932.7587    21772.193   -4290.1653    85.822205 
   18300    1684.9725   -106.75885    1.5245985   -105.23425   -11955.553    4.4167397    4.4167397    4.4167397   -11955.553    11353.732   -23008.284   -24212.106    -8508.537   -595.43027   -17461.956    86.159945 
   18400    1325.2685   -106.41867    1.1991308   -105.21954    1946.8192    4.4206684    4.4206684    4.4206684    1946.8192    -8194.739    -16788.66    30823.857   -3839.4104    5501.2193    1806.8453    86.390067 
   18500    1276.0804   -106.37674    1.1546244   -105.22211    6204.5196    4.4185738    4.4185738    4.4185738    6204.5196    20919.189   -34171.522    31865.891    11897.909    5582.3053   -6393.7607    86.267326 
   18600    2001.3791   -107.02934    1.8108899   -105.21845   -6895.0009    4.4103516    4.4103516    4.4103516   -6895.0009    -2913.411    2814.8369   -20586.429   -15566.713   -10427.312    1096.9415    85.786635 
   18700    1087.7556   -106.22159   0.98422408   -105.23737    24431.882    4.4109163    4.4109163    4.4109163    24431.882    25335.515   -11625.312    59585.445    16941.158    5546.4787   -2633.0499    85.819593 
   18800    1551.5837   -106.63116    1.4039055   -105.22725   -1469.4862    4.4185509    4.4185509    4.4185509   -1469.4862    -30007.66    15993.922    9605.2797   -3669.7309   -2588.6165    1999.8378    86.265987 
   18900    1410.6305   -106.49615    1.2763681   -105.21979   -17500.723    4.4116308    4.4116308    4.4116308   -17500.723   -21547.092   -40573.193    9618.1161   -612.32775    14055.895   -6604.3785    85.861303 
   19000    1596.3124   -106.66119     1.444377   -105.21681    24759.341    4.4002406    4.4002406    4.4002406    24759.341     2021.197    19948.927      52307.9    6480.7693   -7189.3823    5881.0513    85.197975 
   19100    1676.1954   -106.74818    1.5166568   -105.23152   -8098.7939    4.4195474    4.4195474    4.4195474   -8098.7939   -34396.643    294.03247    9806.2284    6918.3366    12172.687     13643.27    86.324362 
   19200    1444.9755   -106.53231    1.3074442   -105.22487   -10900.931    4.4299769    4.4299769    4.4299769   -10900.931   -40711.131   -62820.077    70828.414   -1096.9706   -13629.266   -12262.575    86.936946 
   19300    1609.4195    -106.6776    1.4562366   -105.22137   -20122.132    4.4163989    4.4163989    4.4163989   -20122.132   -2971.2852   -19213.636   -38181.475   -3600.0477   -6045.6374    10882.489    86.140004 
   19400    1475.0451   -106.55321    1.3346518   -105.21856    26818.991    4.3938211    4.3938211    4.3938211    26818.991    15182.686    17300.477     47973.81    7509.0241    5217.4436   -4496.9235    84.825631 
   19500    1231.8302   -106.36198    1.1145859    -105.2474    18570.536    4.4055414    4.4055414    4.4055414    18570.536    -27199.19    5938.5668    76972.232    7434.6601    -46755.61    8319.6536     85.50625 
   19600    1392.6201   -106.51744    1.2600719   -105.25737   -810.39532    4.4271559    4.4271559    4.4271559   -810.39532   -4261.1316   -35755.421    37585.366    6540.5889    5254.3455   -21017.162    86.770969 
   19700    1498.8391   -106.59364    1.3561811   -105.23746   -9743.7623    4.4294047    4.4294047    4.4294047   -9743.7623   -55450.102    21270.436     4948.379    -4972.752   -10210.506     401.6199    86.903261 
   19800    1884.5188   -106.92227    1.7051522   -105.21712   -13642.409    4.4015806    4.4015806    4.4015806   -13642.409   -22904.249   -32557.671    14534.692    3502.9464   -11351.833    2754.7536    85.275833 
   19900     1114.601   -106.24573    1.0085144   -105.23722     24410.69    4.3996422    4.3996422    4.3996422     24410.69     -2895.28   -12789.173    88916.522    4174.3753    6496.3458   -5745.5405     85.16322 
   20000     1811.811   -106.87795    1.6393647   -105.23859   -30564.272    4.4204499    4.4204499    4.4204499   -30564.272   -49570.602   -14275.196   -27847.016    1032.2972   -15265.725     13282.68    86.377259 
   20100    1359.2259   -106.45979    1.2298562   -105.22994   -21344.622    4.4178514    4.4178514    4.4178514   -21344.622   -33470.984   -69927.842    39364.961    20342.516   -1781.6588    15827.507    86.225019 
   20200     1666.055   -106.72114    1.5074815   -105.21366   -9171.5539    4.4058898    4.4058898    4.4058898   -9171.5539    3970.1449     -38247.2    6762.3939   -7860.6557   -4467.9632   -9823.3683    85.526539 
   20300    1310.0286   -106.40831    1.1853414   -105.22297   -1304.6602    4.4155758    4.4155758    4.4155758   -1304.6602   -29419.929   -44641.383    70147.332    9564.5319   -10820.073   -8238.8965    86.091851 
   20400    1535.4835   -106.60304    1.3893377    -105.2137    -13057.19    4.4155054    4.4155054    4.4155054    -13057.19   -19832.089    5692.3352   -25031.816   -5275.2561    12786.884   -10454.276    86.087734 
   20500    1023.4206   -106.14736   0.92601247   -105.22135    27552.186    4.4070777    4.4070777    4.4070777    27552.186   -9351.1908   -4196.7947    96204.543   -1152.0464   -5442.7527    190.35987    85.595737 
   20600    1817.2184   -106.87384    1.6442574   -105.22958    6754.1845    4.4083749    4.4083749    4.4083749    6754.1845   -23924.601    19116.836    25070.319    5956.2117   -2104.7287    4415.7792    85.671339 
   20700    1311.2736    -106.4114    1.1864679   -105.22493    13401.176    4.4119067    4.4119067    4.4119067    13401.176    1819.5771   -19206.041    57589.991   -5834.9471    6474.8011    9498.4748    85.877415 
   20800    1207.9379   -106.31436    1.0929676   -105.22139    -4634.044    4.4194537    4.4194537    4.4194537    -4634.044   -22551.113      40999.6   -32350.619   -8809.1277   -2376.2783    6974.9387    86.318874 
   20900    1788.4585   -106.84303    1.6182348   -105.22479   -17850.934    4.4154589    4.4154589    4.4154589   -17850.934   -36487.103   -55614.421    38548.723   -10993.604    5291.6711   -958.81477    86.085012 
   21000     1624.216    -106.6917    1.4696248   -105.22207    15543.261     4.405159     4.405159     4.405159    15543.261   -34768.888    37414.975    43983.694    15490.813   -11261.922   -10582.427    85.483988 
   21100    1616.2377   -106.68426    1.4624058   -105.22185   -28340.573    4.3958018    4.3958018    4.3958018   -28340.573     -29817.1   -33866.592   -21338.028     8879.788    6804.6426    14065.102    84.940402 
   21200    1213.0398   -106.32807    1.0975839   -105.23048    17169.051    4.4009126    4.4009126    4.4009126    17169.051   -1041.0187   -31352.941    83901.112   -7831.5226   -9382.5745   -14357.698    85.237014 
   21300    1649.4001   -106.71648    1.4924118   -105.22407   -14524.237    4.4259464    4.4259464    4.4259464   -14524.237   -70380.318    35533.107   -8725.5001     5645.079    6802.2133   -19399.015    86.699869 
   21400    1473.4605   -106.54073    1.3332181   -105.20752   -40637.915    4.4080603    4.4080603    4.4080603   -40637.915   -32591.844    -32739.59   -56582.313   -2659.2451    1911.3505   -7558.1305    85.653002 
   21500    1262.8871   -106.33487    1.1426868   -105.19219    46181.453     4.367073     4.367073     4.367073    46181.453    13048.497    104524.19    20971.676   -13648.276    2545.6547   -1891.1232    83.285877 
   21600    1469.9151   -106.58158    1.3300101   -105.25157   -9635.8687    4.3952018    4.3952018    4.3952018   -9635.8687   -24942.068   -23236.497    19270.959     1528.022     18488.35   -16147.301    84.905622 
   21700    1620.3614   -106.69288    1.4661371   -105.22674   -28453.176     4.423259     4.423259     4.423259   -28453.176    -39532.31    7143.3105   -52970.529    1450.1929    -9921.019    8899.4258    86.542035 
   21800    1441.8347   -106.52178    1.3046023   -105.21717   -2479.7671    4.3965646    4.3965646    4.3965646   -2479.7671   -3191.9857   -10499.307    6251.9913    9610.8128    18405.823   -2712.9324    84.984631 
   21900    1347.9115   -106.44465    1.2196186   -105.22503    7210.4102    4.3927841    4.3927841    4.3927841    7210.4102   -2249.7761    2492.4355    21388.571   -15933.668     617.8716    11734.201     84.76559 
   22000    1570.3952   -106.65733    1.4209266    -105.2364   -12810.297    4.4015825    4.4015825    4.4015825   -12810.297   -33220.928    21414.818   -26624.782   -1921.1061    21715.211    6765.6625    85.275942 
   22100    1621.6958   -106.70697    1.4673444   -105.23963    32312.414    4.4044549    4.4044549    4.4044549    32312.414   -27712.181    68584.095    56065.329   -11136.843   -13155.132    7856.1876    85.443004 
   22200     1314.108   -106.42464    1.1890325    -105.2356   -26027.113    4.4197438    4.4197438    4.4197438   -26027.113   -23726.629   -12159.618    -42195.09    6998.2459    7783.7397   -8058.6274    86.335876 
   22300    1418.1172   -106.50325    1.2831422   -105.22011   -13093.607    4.3953523    4.3953523    4.3953523   -13093.607   -10343.822   -40882.197    11945.198    3110.8205    3782.3325    11251.873    84.914345 
   22400     1857.605   -106.90111       1.6808   -105.22031    27772.214    4.3862262    4.3862262    4.3862262    27772.214    9747.0862    30965.127    42604.428   -2404.4632   -15275.919    -11620.84    84.386519 
   22500    1614.4977   -106.69056    1.4608314   -105.22973   -15180.143     4.414553     4.414553     4.414553   -15180.143    14876.192   -17789.927   -42626.693   -1996.4224    18689.008   -1513.2776    86.032037 
   22600     953.0921   -106.07874   0.86237776   -105.21636   -16391.658    4.4233044    4.4233044    4.4233044   -16391.658   -11110.209   -69283.379    31218.613    14949.839    -27651.61   -2429.9334      86.5447 
   22700    1878.3551   -106.89512    1.6995751   -105.19554   -10063.332    4.4155393    4.4155393    4.4155393   -10063.332   -3813.6453   -16223.633   -10152.718   -12036.001   -4897.0227   -3886.5325    86.089715 
   22800    1558.3683   -106.60221    1.4100444   -105.19217    12109.138    4.4032241    4.4032241    4.4032241    12109.138   -26102.293    35331.312    27098.395    124.49987    -7900.203    505.87085     85.37139 
   22900    1524.5574   -106.58017    1.3794515   -105.20071   -17676.007     4.401146     4.401146     4.401146   -17676.007    17670.076   -64192.802   -6505.2962   -1095.7396   -18375.608   -11291.161    85.250575 
   23000    977.42763    -106.1012   0.88439706    -105.2168    17128.352    4.4124376    4.4124376    4.4124376    17128.352   -4618.1849    46214.298    9788.9441   -7274.9115    456.01123   -6727.4468    85.908418 
   23100    1974.8186   -107.00232    1.7868573   -105.21547    -16664.72    4.4062176    4.4062176    4.4062176    -16664.72   -32278.292    24190.918   -41906.787   -4669.8331   -22624.423   -11722.524    85.545627 
   23200    1432.4139   -106.50767    1.2960782   -105.21159    17298.663    4.3929668    4.3929668    4.3929668    17298.663   -3034.3542    19981.153    34949.191   -15507.036    10002.348       -18805    84.776164 
   23300    833.82459   -105.98186   0.75446201    -105.2274    -3555.288    4.4000414    4.4000414    4.4000414    -3555.288   -37184.343    40033.132   -13514.653    6502.8404   -24833.257    6557.3332    85.186406 
   23400    1740.7716   -106.80435    1.5750867   -105.22926    10529.527    4.4047378    4.4047378    4.4047378    10529.527    4837.7384    23161.253    3589.5901   -12995.033   -1948.0918    -19086.23    85.459469 
   23500     1754.058   -106.82343    1.5871085   -105.23632   -23135.597    4.4082258    4.4082258    4.4082258   -23135.597   -39495.888   -22875.784    -7035.119   -9760.8321   -17865.201   -11192.291     85.66265 
   23600     969.0645    -106.1202   0.87682992   -105.24337   -21473.861    4.4074219    4.4074219    4.4074219   -21473.861   -36774.495   -28801.826    1154.7376    751.51552   -30741.205     5831.483     85.61579 
   23700    1468.0589    -106.5526    1.3283305   -105.22427    27692.909    4.3931221    4.3931221    4.3931221    27692.909    48579.757   -17396.053    51895.022   -5691.4886     6172.606   -2637.6834    84.785154 
   23800    1464.7701   -106.56438    1.3253548   -105.23902   -798.09216    4.4082267    4.4082267    4.4082267   -798.09216   -34861.202    44028.445   -11561.519   -12212.891   -13599.309   -12228.659    85.662703 
   23900    1740.1142   -106.79206    1.5744919   -105.21756   -33179.842    4.4170923    4.4170923    4.4170923   -33179.842     -38496.7   -53017.105   -8025.7202   -6257.6528   -685.40452    15281.125    86.180585 
   24000    1183.2241   -106.27533     1.070606   -105.20472    6211.9896    4.4022802    4.4022802    4.4022802    6211.9896    287.21176    30009.736   -11660.979    8399.7617    2955.4836   -10236.947    85.316505 
   24100    1647.7635   -106.69814    1.4909311   -105.20721   -1486.8468    4.4018626    4.4018626    4.4018626   -1486.8468   -6205.7247    29497.127   -27751.943   -7618.4391     10352.85    15414.558    85.292224 
   24200    1623.1731   -106.68981    1.4686812   -105.22113   -9880.8361    4.4151164    4.4151164    4.4151164   -9880.8361    -46401.88    27055.146   -10295.774    5923.5041   -5940.4489      7237.03    86.064981 
   24300    1217.8468   -106.32526    1.1019334   -105.22332   -29614.539    4.4187201    4.4187201    4.4187201   -29614.539   -59243.449   -12446.544   -17153.625    674.12699    -9483.724   -11410.773    86.275897 
   24400     1582.323    -106.6411    1.4317191   -105.20938    16053.511    4.4064261    4.4064261    4.4064261    16053.511    14049.838    31238.895       2871.8   -12285.309    22407.961      21095.5    85.557775 
   24500    1483.8947   -106.55565    1.3426591   -105.21299    8979.8609    4.4070747    4.4070747    4.4070747    8979.8609   -20287.184    17005.493    30221.273    3606.0782   -20328.528    4374.4942    85.595558 
   24600    1693.9987   -106.73973    1.5327656   -105.20696   -29928.066    4.4108762    4.4108762    4.4108762   -29928.066   -23568.993   -43372.652   -22842.553   -2703.9722    4631.2712   -3615.6277    85.817251 
   24700    1913.2776   -106.93267    1.7311738    -105.2015   -13044.435    4.4175631    4.4175631    4.4175631   -13044.435   -20403.441   -21047.251     2317.387    5531.9126    -3334.479   -5713.4599    86.208142 
   24800    1444.4233   -106.50703    1.3069445   -105.20009   -31122.114    4.4207678    4.4207678    4.4207678   -31122.114   -27167.009    -15841.33   -50358.003   -3643.0362   -7192.0346    646.37077    86.395895 
   24900    1387.4746   -106.44474    1.2554162   -105.18933    826.49938    4.4010523    4.4010523    4.4010523    826.49938    27358.962   -35023.554    10144.091   -10463.141    16066.859    7823.9861    85.245132 
   25000    1581.0878    -106.6359    1.4306015   -105.20529    10801.955    4.3976221    4.3976221    4.3976221    10801.955    31465.176   -12015.433    12956.122    10393.229   -29368.213   -10485.817    85.045964 
   25100    1549.1092   -106.63067    1.4016665     -105.229   -13072.146    4.4087752    4.4087752    4.4087752   -13072.146    27405.994   -36347.131   -30275.301   -7824.4493   -402.63224     -8274.12    85.694681 
   25200    1322.9264   -106.42229    1.1970116   -105.22528    -12371.36    4.4186614    4.4186614    4.4186614    -12371.36   -19652.508   -8807.6294   -8653.9423    7646.6368   -14066.834     9472.291    86.272459 
   25300    1099.9348   -106.20557   0.99524416   -105.21032    11142.602    4.4016177    4.4016177    4.4016177    11142.602   -739.21797    1163.5195    33003.503    1951.2403   -22572.082    283.94429    85.277991 
   25400    1557.2914   -106.61376    1.4090699   -105.20469    37721.137    4.3939063    4.3939063    4.3939063    37721.137    90405.802    2473.6944    20283.915   -3847.9636   -4339.7058   -10531.816    84.830566 
   25500    1811.0671   -106.85933    1.6386916   -105.22064    -25293.26    4.4190777    4.4190777    4.4190777    -25293.26   -31649.499   -32627.089   -11603.193   -13172.998   -12588.629    2001.6916    86.296846 
   25600    1173.8532   -106.26887    1.0621271   -105.20674   -10782.834    4.4211404    4.4211404    4.4211404   -10782.834    10102.454   -54375.811    11924.854   -6038.0016    19492.303    3787.3959    86.417746 
   25700    1984.0549   -106.99185    1.7952146   -105.19664   -1747.0452    4.3993237    4.3993237    4.3993237   -1747.0452    21765.554   -20751.089   -6255.6009   -4666.4992   -7800.6919    11681.798    85.144727 
   25800      1357.76   -106.45174    1.2285298   -105.22321    -776.9146    4.3912449    4.3912449    4.3912449    -776.9146    8961.5851   -571.25468   -10721.074   -23858.361   -29043.574   -1512.7149    84.676515 
   25900    1467.8927   -106.56942    1.3281802   -105.24124    584.61338    4.4022259    4.4022259    4.4022259    584.61338    40317.808   -38627.259    63.290659    4746.3398    27847.835    3934.7728    85.313346 
   26000    1613.3938    -106.6976    1.4598326   -105.23777   -20636.178    4.4104905    4.4104905    4.4104905   -20636.178   -18788.184    -37656.87   -5463.4789   -4528.8421   -15259.887    9211.4838    85.794739 
   26100    1307.2492    -106.4098    1.1828266   -105.22697    19744.313    4.3988287    4.3988287    4.3988287    19744.313    42049.645   -17225.244    34408.539     1385.687    3099.1908   -1752.2165    85.115987 
   26200    1719.2377   -106.77613    1.5556024   -105.22052    3811.2941    4.4040993    4.4040993    4.4040993    3811.2941    41069.744   -37364.476    7728.6139    12839.086    10291.848    15247.714    85.422309 
   26300    1209.7288   -106.31806     1.094588   -105.22347   -30723.701    4.4166433    4.4166433    4.4166433   -30723.701   -31505.038   -52119.513   -8546.5517   -10331.687    -29769.21   -1231.5863    86.154303 
   26400    1426.6789   -106.50424    1.2908891   -105.21335    22036.156    4.3979152    4.3979152    4.3979152    22036.156    50373.801   -4314.7762    20049.442    3703.6686    -2655.642    677.67814    85.062972 
   26500    1388.5721   -106.48554    1.2564092   -105.22913   -1441.6165    4.4014391    4.4014391    4.4014391   -1441.6165    51459.455   -33522.612   -22261.693    -219.1353   -19951.073    8343.0563    85.267612 
   26600    1666.7844   -106.73014    1.5081416   -105.22199   -11254.751     4.409942     4.409942     4.409942   -11254.751   -1591.7341   -42655.174    10482.655   -11751.495   -9060.7857   -3618.0463    85.762739 
   26700     1216.556   -106.31771    1.1007654   -105.21695    2889.1429    4.4007641    4.4007641    4.4007641    2889.1429   -28513.805   -12777.001    49958.235   -3354.6337    7125.2452    15440.903    85.228386 
   26800    1561.9938   -106.64425    1.4133248   -105.23092   -17460.424     4.395768     4.395768     4.395768   -17460.424   -12921.894   -23827.656   -15631.721   -9104.7161   -9353.6643   -11249.713    84.938442 
   26900    1828.1108   -106.88606    1.6541131   -105.23194   -14512.733    4.4055979    4.4055979    4.4055979   -14512.733   -28517.788   -30155.957    15135.544   -6096.1252    10261.625    168.62083     85.50954 
   27000    1646.9041   -106.71514    1.4901534   -105.22499   -4556.3569    4.4071791    4.4071791    4.4071791   -4556.3569   -31795.101    19.916837    18106.114   -10417.667    2501.0699   -1930.0885    85.601643 
   27100    1518.6644   -106.60974    1.3741195   -105.23562   -5714.2374    4.4176947    4.4176947    4.4176947   -5714.2374   -25823.822   -14652.569    23333.678    6942.1325   -17455.913   -9765.0333    86.215846 
   27200    1666.0367   -106.73626     1.507465    -105.2288    18043.042     4.404922     4.404922     4.404922    18043.042    5718.7792    -28608.57    77018.917   -624.60658    -4978.629   -1078.5001     85.47019 
   27300    1037.4013   -106.17755   0.93866248   -105.23889    11296.897    4.3946332    4.3946332    4.3946332    11296.897   -35398.854    10364.458    58925.088   -6556.7685   -15573.272   -6400.4801    84.872677 
   27400    2055.2114   -107.09589    1.8595984   -105.23629   -2307.9771    4.4032316    4.4032316    4.4032316   -2307.9771   -3857.3468    5913.2937   -8979.8783    -2070.312   -6395.5973    3756.9607    85.371829 
   27500    1383.0692   -106.48927    1.2514301   -105.23784   -18119.472    4.4094369    4.4094369    4.4094369   -18119.472   -36355.738   -27553.042    9550.3638    -3286.855    7637.9777    11687.602    85.733269 
   27600     1307.399   -106.41223    1.1829621   -105.22927    3122.2297    4.3922384    4.3922384    4.3922384    3122.2297   -28255.044   -9353.2723    46975.006    14667.625   -8176.3947    7160.2947    84.734001 
   27700    1724.2761   -106.81078    1.5601612   -105.25062    17987.042    4.3992397    4.3992397    4.3992397    17987.042    -26970.26   -9268.8498    90200.235   -15011.438   -12872.493   -3241.3351    85.139848 
   27800    1474.3933   -106.58901    1.3340621   -105.25495    -40298.01    4.4149955    4.4149955    4.4149955    -40298.01   -27020.326   -50250.294   -43623.409    1158.4856   -14036.827   -6046.2482    86.057911 
   27900    1109.2554   -106.23327    1.0036776   -105.22959      9402.66    4.3966076    4.3966076    4.3966076      9402.66    15528.682   -17654.525    30333.822    11657.372   -7076.6755   -8466.0967     84.98712 
   28000    1583.2288    -106.6584    1.4325387   -105.22587    15002.723    4.4035017    4.4035017    4.4035017    15002.723    29050.602    7748.5619    8209.0062   -15205.773    -26163.61   -1657.7553     85.38754 
   28100    1516.5956   -106.59225    1.3722476   -105.22001   -37208.734    4.4159318    4.4159318    4.4159318   -37208.734    28221.593   -67861.335   -71986.459   -1150.4141   -18416.653   -15131.673    86.112672 
   28200    1408.3881   -106.47533    1.2743391   -105.20099   -1222.0313    4.4072716    4.4072716    4.4072716   -1222.0313    50768.894   -40446.833   -13988.155   -8277.4199   -621.94407    918.42985    85.607033 
   28300    1310.9871   -106.39823    1.1862087   -105.21202   -6227.7105    4.4118176    4.4118176    4.4118176   -6227.7105    1064.1928   -10480.865   -9266.4593    -5433.485   -23105.803    7593.0661    85.872213 
   28400    1823.4289   -106.85982    1.6498768   -105.20994   -22319.588    4.4075606    4.4075606    4.4075606   -22319.588   -19039.268   -47790.944   -128.55051   -8746.8506   -4073.8695    8572.6889    85.623877 
   28500    1470.3538    -106.5386     1.330407    -105.2082     9470.991    4.4037699    4.4037699    4.4037699     9470.991    67673.921   -11135.711   -28125.236   -1993.7604    2377.6796   -8543.1804    85.403146 
   28600    1309.4321   -106.40169    1.1848017   -105.21689   -16948.543    4.4133964    4.4133964    4.4133964   -16948.543   -26843.047   -25919.672    1917.0894   -6984.1777   -13209.492    376.30461    85.964433 
   28700     1875.652   -106.90641    1.6971294   -105.20928   -1115.7981    4.4064225    4.4064225    4.4064225   -1115.7981    46274.788   -48361.857   -1260.3253   -16869.908    8530.0504    8291.4494    85.557565 
   28800    1456.8462   -106.54581     1.318185   -105.22762   -915.03114     4.400055     4.400055     4.400055   -915.03114    40280.318   -6242.5435   -36782.868    383.68351   -25455.377   -4184.9584    85.187194 
   28900    1574.1302   -106.66786    1.4243061   -105.24356    8820.5481    4.4092635    4.4092635    4.4092635    8820.5481    33553.455   -12025.137    4933.3265   -5242.7516   -1086.9195   -10237.951     85.72316 
   29000    1487.3922   -106.58181    1.3458237   -105.23599   -22900.292    4.4245272    4.4245272    4.4245272   -22900.292    28741.075   -70561.448   -26880.504    5241.5383    4237.0245   -16588.014    86.616496 
   29100    1788.1249   -106.82365     1.617933   -105.20571   -23238.281    4.4041842    4.4041842    4.4041842   -23238.281    28150.713   -56353.302   -41512.253   -1599.2132   -13293.808    4789.2732    85.427252 
   29200    1179.9236   -106.28197    1.0676197   -105.21435    9755.6722     4.393504     4.393504     4.393504    9755.6722    67509.654   -27042.013   -11200.624   -1800.2674    16781.023   -5537.0081     84.80727 
   29300    1643.4157   -106.72477     1.486997   -105.23777   -9538.5663    4.4103166    4.4103166    4.4103166   -9538.5663   -7554.9595   -18231.974   -2828.7656    11798.433    11780.349   -22817.843    85.784595 
   29400    1609.5812   -106.68812    1.4563829   -105.23174   -2554.7507     4.410872     4.410872     4.410872   -2554.7507    22147.035   -16997.138    -12814.15    825.25744   -8106.9214    2944.5687    85.817007 
   29500    1510.1244   -106.59159    1.3663923    -105.2252   -42312.095    4.4147146    4.4147146    4.4147146   -42312.095    -14843.79   -35351.721   -76740.774   -8937.8056    2764.2226   -703.35899    86.041484 
   29600    1764.8718    -106.8088    1.5968931    -105.2119    24485.262    4.4050502    4.4050502    4.4050502    24485.262    63635.204    10491.599   -671.01788    5604.8451   -11627.127      -4876.5    85.477654 
   29700    1045.2937   -106.17464    0.9458037   -105.22884    18685.996    4.4027038    4.4027038    4.4027038    18685.996   -8065.5028   -25068.524    89192.016     521.4185    15195.113   -5349.4648     85.34113 
   29800    1535.3291   -106.61196     1.389198   -105.22276   -18738.777    4.4171183    4.4171183    4.4171183   -18738.777    21101.394   -35207.501   -42110.224   -335.74267    -3614.483    7999.4048    86.182107 
   29900    1921.1081   -106.94194     1.738259   -105.20368   -1191.2483    4.4137688    4.4137688    4.4137688   -1191.2483    28855.032   -42057.043    9628.2654   -2857.8032    -12054.09   -1907.3805    85.986198 
   30000    1242.8062   -106.34558    1.1245172   -105.22106    -8809.525    4.4131377    4.4131377    4.4131377    -8809.525   -10003.659    -33340.23    16915.314   -1997.0069    20614.044    4424.2318    85.949319 
   30100    1583.6633    -106.6391    1.4329319   -105.20616    16093.164    4.4013147    4.4013147    4.4013147    16093.164    38640.068    23536.906   -13897.483     3277.636    4152.2427    2989.8353    85.260382 
   30200    1312.8065    -106.4127    1.1878549   -105.22484    8236.5904    4.4008604    4.4008604    4.4008604    8236.5904    94630.588   -24670.867    -45249.95   -10431.368    21415.695    -4473.183    85.233982 
   30300    1738.3202   -106.80743    1.5728687   -105.23456   -2026.2726    4.4162693    4.4162693    4.4162693   -2026.2726    47724.241   -59907.814    6104.7552   -7543.3668    15890.773     3910.382    86.132421 
   30400    1304.7006   -106.40215    1.1805205   -105.22163   -13985.661    4.4194559    4.4194559    4.4194559   -13985.661     41716.23   -41792.428   -41880.786   -1572.1847    -9981.542   -8191.5202    86.319001 
   30500    1539.8541   -106.60924    1.3932924   -105.21594   -20569.452    4.4153177    4.4153177    4.4153177   -20569.452   -25118.939   -37520.483    931.06673    6956.2281    5063.7197    12213.821    86.076754 
   30600    1677.4153   -106.73198    1.5177606   -105.21422    966.61894    4.3996332    4.3996332    4.3996332    966.61894   -6878.6148   -25970.004    35748.476   -3514.9248   -16422.655   -1077.4963      85.1627 
   30700    1302.7577   -106.40844    1.1787626   -105.22968    30238.429    4.3959222    4.3959222    4.3959222    30238.429    44974.271   -22354.303     68095.32    8221.5758    3673.4846    7257.4373    84.947382 
   30800    1308.1256   -106.42604    1.1836195   -105.24242   -24869.993    4.4116607    4.4116607    4.4116607   -24869.993   -28231.411   -19151.384   -27227.184   -2624.8493    9264.7238    6880.6925    85.863048 
   30900    1602.6363   -106.68796     1.450099   -105.23786   -15940.124    4.4129726    4.4129726    4.4129726   -15940.124    1904.1104    -41284.94   -8439.5425   -465.94223   -15666.615   -6439.6151    85.939673 
   31000    1735.6766   -106.80676    1.5704766   -105.23628    1730.6607    4.4075793    4.4075793    4.4075793    1730.6607   -12358.373   -46786.214    64336.569    6576.2882     20802.69    9253.3324    85.624964 
   31100    1059.3437   -106.19817   0.95851641   -105.23966    3275.6938    4.3901437    4.3901437    4.3901437    3275.6938   -21090.947    4674.3623    26243.666    5349.4424   -9412.5472   -13421.317    84.612825 
   31200    1533.3648   -106.63209    1.3874207   -105.24466   -3040.4356    4.3964345    4.3964345    4.3964345   -3040.4356    9342.4558   -13248.739   -5215.0235   -7709.0531   -24813.654   -2517.6593    84.977086 
   31300    2016.0132   -107.05468    1.8241311   -105.23055   -17851.982    4.4101881    4.4101881    4.4101881   -17851.982   -27581.704   -31431.695    5457.4531   -5350.1111    -371.4789   -2314.3823    85.777095 
   31400      959.906   -106.09387   0.86854312   -105.22532    -14477.32    4.4122124    4.4122124    4.4122124    -14477.32   -37623.332   -21309.405    15500.778    6757.3149   -21644.867   -13123.803    85.895264 
   31500    1901.3015   -106.93001    1.7203375   -105.20968   -14806.277    4.3991836    4.3991836    4.3991836   -14806.277   -15695.279   -2458.9353   -26264.617   -4100.1421   -3380.0876     3305.139    85.136593 
   31600    1134.5735   -106.26116    1.0265859   -105.23457     42152.14    4.3873167    4.3873167    4.3873167     42152.14    43574.866   -10829.758    93711.311    1005.3699   -15624.943   -10478.548    84.449477 
   31700    1846.0041   -106.92815    1.6703033   -105.25785   -8807.0756    4.4030517    4.4030517    4.4030517   -8807.0756   -7068.9276   -14329.184   -5023.1155    -4122.336    12930.571    5993.7828    85.361367 
   31800    1320.2585   -106.43562    1.1945977   -105.24102   -2402.9647    4.4157814    4.4157814    4.4157814   -2402.9647    544.20373   -27975.139    20222.041    12262.187   -1594.4725    2124.5924    86.103874 
   31900    1244.5213   -106.35928     1.126069   -105.23321   -7532.3365    4.3996634    4.3996634    4.3996634   -7532.3365    3317.1385    -19260.69    -6653.458   -4319.8992   -11148.234   -10670.082    85.164454 
   32000    1635.8419   -106.71522    1.4801441   -105.23508    22170.023    4.3904125    4.3904125    4.3904125    22170.023    -11477.55    1461.3603    76526.259   -5003.0643    30084.929    4637.5638     84.62837 
   32100    1952.1029   -107.00382    1.7663037   -105.23751   -3987.6452    4.3963095    4.3963095    4.3963095   -3987.6452    546.87559   -34347.417    21837.606    15098.283   -13523.966     2042.674    84.969835 
   32200    590.53341   -105.78464   0.53432704   -105.25032   -3190.3009    4.4047924    4.4047924    4.4047924   -3190.3009    -12999.02   -26185.286    29613.404    -12415.28    11482.971   -190.33716    85.462644 
   32300      2083.67   -107.12042    1.8853484   -105.23507   -33879.112    4.4066167    4.4066167    4.4066167   -33879.112   -37065.972   -27412.381   -37158.983     -815.035    18839.581     7467.957    85.568878 
   32400     1742.847   -106.81225    1.5769646   -105.23529    11853.732    4.4001809    4.4001809    4.4001809    11853.732   -11424.212   -38729.043    85714.451   -161.05882   -4983.4161    3058.6347    85.194509 
   32500    1025.6455   -106.18117    0.9280256   -105.25314   -13125.169    4.3996355    4.3996355    4.3996355   -13125.169   -29272.986   -15525.097    5422.5768    -1848.777    17386.478    10868.047    85.162834 
   32600    1844.8174   -106.91017    1.6692295   -105.24094   -664.49504    4.3999499    4.3999499    4.3999499   -664.49504    121.33774   -15447.484    13332.661    4963.1078    -13437.96    6459.7006    85.181092 
   32700    1435.9878   -106.55496     1.299312   -105.25565   -8645.5136    4.4136096    4.4136096    4.4136096   -8645.5136   -37119.902    -27291.24    38474.601   -12198.879    21641.651   -5365.9695    85.976895 
   32800    1605.9092   -106.69179    1.4530604   -105.23873    -31518.18    4.4160328    4.4160328    4.4160328    -31518.18    -50732.54   -23894.943   -19927.056    4905.6271    5830.1998   -9392.8737    86.118581 
   32900    1812.8879   -106.86535    1.6403391   -105.22501    1815.3965      4.39609      4.39609      4.39609    1815.3965     23151.43   -7962.2375   -9743.0029    3160.4567   -13064.732   -7633.8658    84.957106 
   33000    877.03224   -106.03937    0.7935572   -105.24582    30864.747    4.3880511    4.3880511    4.3880511    30864.747    4410.7004    9183.5318    79000.009    5321.2936    24752.991   -3961.2645     84.49189 
   33100    1856.1357    -106.9371    1.6794706   -105.25763     3434.032    4.4130652    4.4130652    4.4130652     3434.032   -23312.152   -19340.142     52954.39   -2563.7931   -4508.7893     7085.377    85.945082 
   33200    1529.5307   -106.62033    1.3839515   -105.23638   -15624.536    4.4179699    4.4179699    4.4179699   -15624.536    -3445.453   -49698.094    6269.9395   -3811.6566    5925.1582    6862.6244    86.231961 
   33300    1156.2259   -106.28106    1.0461775   -105.23488   -28849.044    4.3966323    4.3966323    4.3966323   -28849.044   -17345.683   -31046.997   -38154.452    7134.1262    7845.1356    12613.989    84.988556 
   33400    1892.9707   -106.94706    1.7127997   -105.23426    37576.218    4.3870563    4.3870563    4.3870563    37576.218    30193.511   -4110.4294    86645.572   -5073.9803    5578.4301    3261.2842    84.434442 
   33500    1350.1889   -106.48063    1.2216793   -105.25895    7857.4847    4.4047723    4.4047723    4.4047723    7857.4847   -28951.976   -9127.6253    61652.056   -5421.1805    22811.173    6244.4113    85.461478 
   33600    1432.4921   -106.53978     1.296149   -105.24363   -28733.085    4.4114904    4.4114904    4.4114904   -28733.085   -35721.053    -48872.86   -1605.3408   -7503.3626   -19826.035    3352.6691    85.853109 
   33700    1445.0674    -106.5412    1.3075273   -105.23367    2192.9777    4.4096499    4.4096499    4.4096499    2192.9777   -5697.1988    -2537.143    14813.275    2610.0537    10765.321      6271.67    85.745697 
   33800    1415.7287   -106.52389    1.2809811    -105.2429     6746.523    4.3934734    4.3934734    4.3934734     6746.523   -24999.289    15798.869     29439.99   -2905.8136   -1583.0714    14940.206    84.805499 
   33900    1425.6096    -106.5419    1.2899215   -105.25198    27798.968    4.3918253    4.3918253    4.3918253    27798.968   -14120.074    11574.307    85942.672   -5652.7836   -16086.653   -14415.533    84.710095 
   34000    1614.9181   -106.71076    1.4612119   -105.24955   -10082.608     4.411965     4.411965     4.411965   -10082.608   -3157.4228   -11441.145   -15649.256    -2485.236    15713.927   -3701.5787     85.88082 
   34100    709.75866   -105.88265   0.64220455   -105.24044   -17803.272    4.4262828    4.4262828    4.4262828   -17803.272   -70692.075   -6950.9683    24233.226    2834.7286   -11376.232   -3813.4655     86.71964 
   34200    2138.4218   -107.13485     1.934889   -105.19996    10096.629    4.4026943    4.4026943    4.4026943    10096.629   -8229.3152    21434.936    17084.266   -12554.899    -95.47874   -17061.264    85.340581 
   34300    1038.0163   -106.15061   0.93921893   -105.21139    30469.929    4.3890788    4.3890788    4.3890788    30469.929    17446.001    69540.628    4423.1573   -5038.2144    -9381.588   -3816.6667    84.551268 
   34400    1297.9048   -106.41173    1.1743716   -105.23735   -12983.594    4.4123578    4.4123578    4.4123578   -12983.594   -45344.672    25392.346   -18998.455   -6767.0857   -7268.0434    1701.3823    85.903758 
   34500    1774.6866   -106.82803    1.6057738   -105.22226    29374.985    4.4131521    4.4131521    4.4131521    29374.985    9459.1221    28970.968    49694.866   -11708.579   -2488.0382     10828.01    85.950162 
   34600    1106.7489   -106.23086    1.0014097   -105.22945   -3475.1669    4.4041224    4.4041224    4.4041224   -3475.1669   -28157.627   -12030.255    29762.381   -6627.8518   -7661.0945    13216.845    85.423652 
   34700    1442.3778   -106.53342    1.3050938   -105.22833    16487.962    4.3987665    4.3987665    4.3987665    16487.962   -17421.097    2773.0238    64111.958   -5535.5395   -105.11468    13836.904    85.112377 
   34800    1510.2006   -106.60488    1.3664613   -105.23842    21921.378    4.3982123    4.3982123    4.3982123    21921.378    64784.237    11582.359   -10602.463   -1152.2732   -4340.4464   -2679.1757    85.080212 
   34900    1112.2223     -106.253    1.0063621   -105.24664   -13755.436    4.4104905    4.4104905    4.4104905   -13755.436   -3005.9152    -31343.06   -6917.3324   -6559.5979   -5191.2592    6940.1737    85.794744 
   35000    1837.4535   -106.88335    1.6625666   -105.22079   -24268.808    4.4177694    4.4177694    4.4177694   -24268.808   -6692.3569   -40444.384   -25669.684    21.972091   -7499.3893   -4510.7797    86.220221 
   35100    1615.6769   -106.66654    1.4618984   -105.20464    -1731.992    4.3979089    4.3979089    4.3979089    -1731.992    34296.133   -9557.1225   -29934.987    8423.2707    972.76318   -624.10923    85.062606 
   35200    891.03676   -106.03307   0.80622879   -105.22685    21378.219    4.3870954    4.3870954    4.3870954    21378.219   -17116.481   -35579.284    116830.42   -6291.9403     -1844.64   -1572.1959    84.436698 
   35300    1392.3765   -106.52978    1.2598515   -105.26992    24642.316    4.4020168    4.4020168    4.4020168    24642.316    -9490.779   -34727.994    118145.72    5006.6451    5930.0365   -10495.695    85.301187 
   35400    1963.7967   -107.04754    1.7768846   -105.27065   -16152.235    4.4098241    4.4098241    4.4098241   -16152.235   -14640.313   -26539.411   -7276.9813   -658.92657   -8071.6753   -12847.234    85.755858 
   35500      1441.22   -106.57662    1.3040461   -105.27258   -19179.213    4.4047328    4.4047328    4.4047328   -19179.213   -10230.775   -25744.212   -21562.651   -3833.5306    3115.7611   -2141.1393     85.45918 
   35600    1477.2697   -106.60039    1.3366647   -105.26372    10171.336    4.3929596    4.3929596    4.3929596    10171.336   -2808.5598   -46142.893    79465.461    3639.6109   -1617.0328   -15515.262    84.775745 
   35700    1766.8475   -106.85602    1.5986808   -105.25734    10508.217    4.3850061    4.3850061    4.3850061    10508.217   -18588.744    19455.062    30658.333   -4531.2583   -7339.5965    3114.0947    84.316117 
   35800    1511.0387   -106.62613    1.3672195   -105.25891   -11464.489    4.4079062    4.4079062    4.4079062   -11464.489    842.60973   -32417.873   -2818.2051    7681.1802    16464.683   -17854.412    85.644018 
   35900    1383.0073   -106.47401    1.2513741   -105.22263    -22211.47    4.4185762    4.4185762    4.4185762    -22211.47    3066.7868   -32735.224   -36965.973    2590.6717   -4015.2968   -9851.5347    86.267465 
   36000    1240.7208   -106.33251    1.1226303   -105.20988     13897.99    4.3956539    4.3956539    4.3956539     13897.99   -5114.5984    58304.822   -11496.255    638.13785    18695.562    11003.835    84.931827 
   36100    1746.1076   -106.79692    1.5799148     -105.217    28236.084    4.3904262    4.3904262    4.3904262    28236.084    20540.373   -2072.6093    66240.488    1870.7127    15853.708    1090.8429    84.629163 
   36200    1383.7464    -106.4858    1.2520428   -105.23376    6956.1565    4.4070605    4.4070605    4.4070605    6956.1565    16153.336    13613.823   -8898.6893    2251.7024    3725.4661    6413.8967    85.594732 
   36300    1053.7568   -106.18702   0.95346132   -105.23355   -11050.736    4.4116466    4.4116466    4.4116466   -11050.736   -9396.8343   -22492.912    -1262.463    1906.7209    15690.963   -10619.383    85.862225 
   36400    1939.4609    -106.9807     1.754865   -105.22583    9286.2329    4.3992588    4.3992588    4.3992588    9286.2329   -22387.369    4019.3468    46226.721    -3508.198   -7481.8871   -5250.6726    85.140958 
   36500    1753.9967   -106.81772    1.5870531   -105.23066    13979.695    4.3844764    4.3844764    4.3844764    13979.695   -3139.7836    46307.419   -1228.5508   -4655.5869    9879.3753    8422.7007    84.285569 
   36600    928.41491   -106.09143   0.84004933   -105.25138    10653.331     4.394085     4.394085     4.394085    10653.331    19833.435   -34892.639    47019.198    7725.2073    5515.4479    2153.0983    84.840918 
   36700    1597.7833   -106.69796    1.4457079   -105.25226   -28350.721    4.4211161    4.4211161    4.4211161   -28350.721   -54547.353   -36481.203    5976.3919   -4756.3262    9250.7436    18599.405    86.416319 
   36800    1945.8291   -107.00301     1.760627   -105.24239   -10607.866    4.3996187    4.3996187    4.3996187   -10607.866    -58711.15    6704.8092    20182.742   -1508.3329    10291.245   -9504.1542    85.161858 
   36900    970.60018   -106.11371   0.87821944   -105.23549    6646.1072    4.3794086    4.3794086    4.3794086    6646.1072    18493.454   -14286.451    15731.319   -3166.1525   -5935.5129    3556.3074    83.993642 
   37000    1813.4124    -106.8841    1.6408136   -105.24328   -5101.4459     4.395944     4.395944     4.395944   -5101.4459   -34324.631    13622.857    5397.4369   -171.96315    11632.623   -191.17845    84.948642 
   37100    1575.8486   -106.66454    1.4258609   -105.23868    1465.3231    4.4076966    4.4076966    4.4076966    1465.3231   -42097.023    25058.588    21434.404   -1393.1711   -3380.4707    4848.9757    85.631801 
   37200    1236.7023   -106.35784    1.1189942   -105.23885    11392.312    4.3986183    4.3986183    4.3986183    11392.312   -15366.704    28167.669    21375.971   -4348.4947    10086.604    14227.686    85.103773 
   37300    1816.2082   -106.88708    1.6433433   -105.24373   -2006.5633    4.3913581    4.3913581    4.3913581   -2006.5633   -16219.603    11637.229   -1437.3161   -1415.0636     5323.988   -9401.7352    84.683066 
   37400    1197.3583   -106.33966    1.0833949   -105.25627    25814.124    4.3886028    4.3886028    4.3886028    25814.124   -4364.3216    50242.694        31564   -319.76386    -2159.979    6586.3438    84.523762 
   37500    1870.4172   -106.93389    1.6923928    -105.2415   -21346.504    4.4045862    4.4045862    4.4045862   -21346.504   -51994.561   -22898.834    10853.885    266.94885    13749.561     3991.724    85.450645 
   37600    1506.6196   -106.59407    1.3632211   -105.23085   -5074.0063    4.3966993    4.3966993    4.3966993   -5074.0063   -29370.748   -21870.741     36019.47    325.60587   -7261.0228    11959.718    84.992438 
   37700     1632.561   -106.71678    1.4771755    -105.2396    733.07968    4.3812367    4.3812367    4.3812367    733.07968   -16902.079     34122.22   -15020.902    -3578.676    1655.3809    16233.917    84.098869 
   37800    1699.0029   -106.79996    1.5372936   -105.26267    10255.939    4.3959709    4.3959709    4.3959709    10255.939   -45023.603   -5903.2335    81694.655   -4500.3874   -3227.7975   -10965.876    84.950206 
   37900     1061.178   -106.23157    0.9601762   -105.27139    17623.781    4.4060783    4.4060783    4.4060783    17623.781   -18471.081   -38238.162    109580.59    1434.3631   -7741.0836    5797.3267    85.537514 
   38000    1817.3932   -106.89874    1.6444156   -105.25433   -6209.3597    4.4058373    4.4058373    4.4058373   -6209.3597   -42325.145    24402.851   -705.78501   -5646.8037    10845.068    13930.425    85.523483 
   38100    1446.7112   -106.54925    1.3090147   -105.24023    4713.8097    4.3986826    4.3986826    4.3986826    4713.8097   -34554.332   -22532.034    71227.796    3276.9654    -9865.258    3808.4157    85.107509 
   38200    1458.5098   -106.56291    1.3196903   -105.24322   -12594.245    4.3916524    4.3916524    4.3916524   -12594.245   -28214.989   -41765.706     32197.96   -7727.5676    7744.7063    16879.559    84.700092 
   38300    1578.1665   -106.69131    1.4279582   -105.26336    28203.514    4.4024789    4.4024789    4.4024789    28203.514   -52579.079   -963.69228    138153.31     4767.674    4644.6283   -1844.5386    85.328056 
   38400    1733.3672   -106.83885    1.5683871   -105.27046   -42961.942    4.4230387    4.4230387    4.4230387   -42961.942   -69539.104   -66225.592    6878.8698   -6343.8719    -7395.784    1350.9579    86.529105 
   38500    1187.0504   -106.33745    1.0740681   -105.26338   -5858.6381    4.4101477    4.4101477    4.4101477   -5858.6381   -26366.673   -75082.768    83873.527    1200.1845    8331.2632    15149.425     85.77474 
   38600    1559.7727   -106.67791    1.4113151    -105.2666    36545.466    4.3951631    4.3951631    4.3951631    36545.466   -28190.842   -7982.6288    145809.87   -620.22355   -22763.522    -11896.95    84.903379 
   38700    1032.7218   -106.23699   0.93442838   -105.30256   -3233.7393    4.4172521    4.4172521    4.4172521   -3233.7393   -67183.777   -59278.525    116761.08    146.23087    6487.0669    3833.6197    86.189934 
   38800    1762.1315   -106.90054    1.5944136   -105.30613   -31911.206    4.4208573    4.4208573    4.4208573   -31911.206    -68797.24   -41111.227    14174.848    5529.6923     392.9324   -13861.091    86.401145 
   38900    1901.7617   -107.02866    1.7207539   -105.30791   -15760.534    4.4049245    4.4049245    4.4049245   -15760.534   -37017.875   -26862.656    16598.929   -2958.3787    -5638.581    29368.242    85.470337 
   39000    1092.8307   -106.29611   0.98881616   -105.30729    21760.529    4.3972707    4.3972707    4.3972707    21760.529   -29355.122   -24725.207    119361.92     3025.162    21089.091    11793.136    85.025581 
   39100    1651.3503   -106.78604    1.4941765   -105.29186   -10541.721    4.4135172    4.4135172    4.4135172   -10541.721   -32490.047   -62017.622    62882.505    1770.0799   -8911.3445   -19233.405    85.971494 
   39200     1540.284    -106.6647    1.3936813   -105.27102    -9627.813    4.4114678    4.4114678    4.4114678    -9627.813   -42226.242   -23188.337    36531.141    1342.5178    1120.8171     14680.47    85.851785 
   39300    1302.4326   -106.44316    1.1784684   -105.26469    8013.8971    4.4097498    4.4097498    4.4097498    8013.8971   -48667.742   -13118.341    85827.774     4555.671    3623.5238   -8396.9792    85.751525 
   39400     985.5594    -106.1653   0.89175486   -105.27355    16675.915    4.4133987    4.4133987    4.4133987    16675.915   -28524.156   -49632.318    128184.22     2707.497   -14003.363   -11062.748    85.964571 
   39500    1456.7948   -106.59453    1.3181386   -105.27639   -12370.974    4.4112547    4.4112547    4.4112547   -12370.974   -38582.433   -28557.153    30026.663   -7699.0336    17953.831     19398.48    85.839349 
   39600    1902.7977   -106.97991    1.7216913   -105.25822   -6393.4055    4.4063094    4.4063094    4.4063094   -6393.4055   -38688.396   -15717.652    35225.832    9170.8303    1627.8898   -8445.7191    85.550978 
   39700    807.22341   -105.98288   0.73039271   -105.25248    20303.902    4.4065012    4.4065012    4.4065012    20303.902   -27680.779   -10487.746    99080.232    353.57776    15993.147     10995.91    85.562148 
   39800    1874.1544   -106.94608    1.6957743   -105.25031   -23549.698    4.4119436    4.4119436    4.4119436   -23549.698   -59975.186    -5905.834   -4768.0748    -2318.829     11392.43     5923.847    85.879571 
   39900     1643.798   -106.74722     1.487343   -105.25988    4727.5343    4.4128606    4.4128606    4.4128606    4727.5343   -46968.439    -54174.15    115325.19    5138.9355    579.22132   -19171.584    85.933128 
   40000    1635.8066   -106.74726    1.4801121   -105.26715    -1249.945     4.398538     4.398538     4.398538    -1249.945   -8904.1186   -45427.545    50581.829    1288.0611    19035.425      11027.9    85.099112 
   40100    1092.0638   -106.27819   0.98812228   -105.29007    12258.866    4.4108203    4.4108203    4.4108203    12258.866   -47274.423   -27496.586    111547.61    2789.7724   -10886.542    1116.3556    85.813989 
   40200    1416.1018   -106.56724    1.2813187   -105.28592   -20220.345    4.4151941    4.4151941    4.4151941   -20220.345   -68557.136   -41066.551    48962.652    1618.5479    7832.5603    12487.463    86.069522 
   40300     1553.581   -106.68985    1.4057127   -105.28414      6012.77    4.4131088    4.4131088    4.4131088      6012.77   -41304.285   -57274.968    116617.56   -2840.6322    1532.4392   -5368.3074    85.947631 
   40400    1939.5134   -107.03129    1.7549125   -105.27637   -17061.025    4.4180169    4.4180169    4.4180169   -17061.025   -31098.259   -26134.052    6049.2365   -1482.6261   -1177.4298   -11995.528     86.23471 
   40500    930.58569   -106.10862   0.84201349   -105.26661    30874.981    4.4219264    4.4219264    4.4219264    30874.981   -28862.989   -22855.235    144343.17   -4242.7264    13804.528    27887.385    86.463839 
   40600    1656.1353   -106.73958     1.498506   -105.24108   -2986.3145    4.4244065    4.4244065    4.4244065   -2986.3145   -53611.077   -12692.214    57344.348   -1294.7245   -6339.7177    1889.2463    86.609406 
   40700    1849.5949   -106.89758    1.6735523   -105.22403    -13211.79    4.4102547    4.4102547    4.4102547    -13211.79   -23334.084   -25236.511    8935.2263    5736.2226    8524.2251    8392.5988     85.78098 
   40800    1210.9623   -106.32693    1.0957041   -105.23123    21687.905    4.4029367    4.4029367    4.4029367    21687.905   -29344.053    -12004.95    106412.72    1478.5239   -6145.7183    9068.5951    85.354676 
   40900    1453.9145   -106.57972    1.3155324   -105.26419   -4114.1836    4.4199857    4.4199857    4.4199857   -4114.1836   -55974.123   -12268.061    55899.634    3099.9868   -43308.675     10585.22    86.350049 
   41000    1599.4413   -106.70164    1.4472081   -105.25443   -20900.026    4.4244476    4.4244476    4.4244476   -20900.026    -31018.77   -70420.353    38739.045   -3679.7191    -9579.744    20889.068    86.611822 
   41100    1797.6552   -106.85494    1.6265562   -105.22839   -25471.112    4.4013457    4.4013457    4.4013457   -25471.112   -44074.222   -19266.355   -13072.759   -7016.9245   -15120.567    6765.0228    85.262185 
   41200    1516.3646   -106.61266    1.3720386   -105.24062    3627.3022    4.3984395    4.3984395    4.3984395    3627.3022    -36867.87   -14373.902    62123.678    779.85873   -993.42556    14820.243    85.093396 
   41300    1523.2767   -106.64089    1.3782928   -105.26259    957.25574    4.4209028    4.4209028    4.4209028    957.25574   -31160.452   -35160.258    69192.477   -789.78967   -18198.264    21918.051    86.403814 
   41400    989.04529   -106.12077   0.89490896   -105.22586   -16596.847    4.4349211    4.4349211    4.4349211   -16596.847   -54151.343    5918.8673   -1558.0635    8508.4743   -22369.402    13313.126    87.228355 
   41500    1531.4271   -106.57317    1.3856674    -105.1875   -11968.754    4.4125193    4.4125193    4.4125193   -11968.754     15986.37   -7494.6125   -44398.018    15240.938   -1717.6983    20394.821    85.913195 
   41600    1425.5873   -106.48621    1.2899013   -105.19631    12553.027    4.3915153    4.3915153    4.3915153    12553.027    16211.261    10119.867    11327.953    5672.8337    -8864.191   -15329.324    84.692161 
   41700    1449.4824   -106.53366    1.3115222   -105.22214    4392.9457    4.4017592    4.4017592    4.4017592    4392.9457   -3936.5661   -25416.261    42531.664    4169.5576    12153.597    10490.217    85.286218 
   41800     1176.719   -106.28242    1.0647201    -105.2177   -18671.863    4.4228626    4.4228626    4.4228626   -18671.863   -17170.496   -17547.918   -21297.176    4744.8059   -6373.1231   -3780.5509    86.518769 
   41900    1570.5339   -106.62104    1.4210521   -105.19999   -14474.018    4.4162531    4.4162531    4.4162531   -14474.018    2552.8627    1606.0333    -47580.95   -1367.5349    16860.789   -14763.993    86.131473 
   42000    2140.1073   -107.10863     1.936414   -105.17221   -4562.6736    4.3998483    4.3998483    4.3998483   -4562.6736   -18492.232    -18579.54    23383.751   -9049.1508   -7973.9793    4284.4588     85.17519 
   42100    1102.3186   -106.19104   0.99740104   -105.19364   -8711.1198    4.3982709    4.3982709    4.3982709   -8711.1198   -54945.785    49616.721   -20804.295   -4449.8356    -9851.009   -13198.717    85.083616 
   42200    1877.3566   -106.89914    1.6986717   -105.20047    17124.107    4.4103737    4.4103737    4.4103737    17124.107    3270.1594    43121.519     4980.644   -963.46767    11731.475   -31.308382    85.787926 
   42300     1655.558   -106.70103    1.4979836   -105.20305   -13058.849    4.4160711    4.4160711    4.4160711   -13058.849   -10541.702   -14670.923   -13963.923   -5815.8052   -11862.779   -4887.3773    86.120824 
   42400     797.1602   -105.92959    0.7212873   -105.20831    27061.841    4.3996771    4.3996771    4.3996771    27061.841    -9642.347    83465.846    7362.0233    12676.665   -2696.3347   -6571.5739    85.165249 
   42500    1881.7126   -106.91022    1.7026131   -105.20761    9683.8869     4.385205     4.385205     4.385205    9683.8869   -15810.327    33179.257    11682.731    -3256.935   -10928.148    15358.153    84.327593 
   42600    1264.2691   -106.37709    1.1439372   -105.23315    28252.504    4.3925856    4.3925856    4.3925856    28252.504    12869.967     42026.23    29861.316    1347.7803    8644.9622    -9923.553    84.754097 
   42700    1338.9538    -106.4277    1.2115135   -105.21618    745.71753    4.4195503    4.4195503    4.4195503    745.71753    2872.9752    18007.824   -18643.647    15692.227   -12370.959    6595.6614    86.324534 
   42800    839.19406   -105.96338   0.75932042   -105.20406   -6851.1119    4.4118698    4.4118698    4.4118698   -6851.1119   -975.88402    20566.569    -40144.02    5792.4798   -3092.3509    3921.3087    85.875259 
   42900    2001.7634   -106.98648    1.8112376   -105.17524    16846.511    4.3878067    4.3878067    4.3878067    16846.511   -968.63887    46727.719    4780.4539    10148.159    15541.203   -3251.4467    84.477776 
   43000    1362.0131   -106.43845    1.2323781   -105.20607    -857.3832    4.3996675    4.3996675    4.3996675    -857.3832    452.14329    18891.869   -21916.162    4478.1292   -4017.6346     1205.027    85.164692 
   43100    1004.3283   -106.11456   0.90873739   -105.20582    -3242.581    4.4128122    4.4128122    4.4128122    -3242.581   -1087.9332    24754.352   -33394.161    13478.125    14126.523    4195.3319    85.930303 
   43200     1602.615   -106.64811    1.4500797   -105.19803    5830.4246    4.4001682    4.4001682    4.4001682    5830.4246   -26668.636    62211.937   -18052.027    3522.6726   -8414.7345    1803.1932    85.193772 
   43300    1861.4006   -106.89001    1.6842344   -105.20578   -10700.234    4.3967126    4.3967126    4.3967126   -10700.234   -28626.386   -11296.134    7821.8193    1207.7872     27144.15    4850.1406    84.993213 
   43400    1414.4816   -106.49062    1.2798527   -105.21077    19817.273    4.3908856    4.3908856    4.3908856    19817.273   -13278.431    72147.978    582.27065    3218.9352   -6969.3239   -7279.1442    84.655732 
   43500    1240.5203   -106.35386    1.1224489   -105.23141    -2034.486    4.3907575    4.3907575    4.3907575    -2034.486   -22796.425    35671.593   -18978.626   -167.38497    8575.4373    14298.984    84.648324 
   43600     1935.879   -106.97898     1.751624   -105.22735    19178.314    4.4020758    4.4020758    4.4020758    19178.314   -30376.603    82129.022    5782.5227   -11795.208   -982.91892   -5960.0955    85.304618 
   43700    941.63661   -106.07849    0.8520126   -105.22648   -25510.566    4.4028385    4.4028385    4.4028385   -25510.566   -67328.468    47272.893   -56476.122    -7093.675    2693.1507    7891.0768    85.348968 
   43800    1393.4323   -106.47109    1.2608068   -105.21028    22854.078    4.3833027    4.3833027    4.3833027    22854.078   -9612.7195    42765.459    35409.493     383.1813    12434.692    7667.9599    84.217897 
   43900    1848.0553   -106.89908    1.6721593   -105.22692    6776.5324    4.3951715    4.3951715    4.3951715    6776.5324    -26786.99    31377.627    15738.959    -4412.352   -7296.3932    2239.8115    84.903868 
   44000    1801.2382   -106.85197    1.6297982   -105.22217   -11123.483    4.4106503    4.4106503    4.4106503   -11123.483   -19887.841   -34257.518    20774.911   -10062.154    14983.376   -620.12945    85.804068 
   44100    1580.7534   -106.63124    1.4302989   -105.20094   -23441.235    4.4033052    4.4033052    4.4033052   -23441.235   -56103.981   -3247.2039   -10972.522   -8732.9931   -14820.815   -3045.6211     85.37611 
   44200    1278.8461    -106.3664    1.1571268   -105.20927    752.60182    4.3883543    4.3883543    4.3883543    752.60182     15426.75    21082.839   -34251.783    77.862343    31281.993   -1028.4508    84.509404 
   44300     2186.256   -107.18646    1.9781704   -105.20829   -7823.5314    4.3901153    4.3901153    4.3901153   -7823.5314   -4857.7887   -6579.5411   -12033.264   -9599.9624   -8917.6061    7483.3548    84.611186 
   44400    1158.0533   -106.26231     1.047831   -105.21448   -30923.709    4.4025417    4.4025417    4.4025417   -30923.709    -59734.59    21509.531   -54546.067   -5642.8037    13786.046     -1321.61    85.331705 
   44500     1507.436   -106.57137    1.3639598   -105.20741   -16712.279    4.4072909    4.4072909    4.4072909   -16712.279   -19101.186   -32784.708    1749.0574    4308.0897   -2341.7486    13987.017    85.608156 
   44600    1757.8984   -106.80485    1.5905834   -105.21427   -11702.874    4.3952421    4.3952421    4.3952421   -11702.874    -23397.54   -6605.1892    -5105.891   -12185.897    7110.8062    10369.315    84.907962 
   44700    1293.9253   -106.38378    1.1707708   -105.21301    39778.748    4.3748476    4.3748476    4.3748476    39778.748   -5792.8385    61790.826    63338.255    6684.3976    14570.754    7068.6641    83.731482 
   44800    1439.3142   -106.53417    1.3023217   -105.23185   -6652.0217    4.3985548    4.3985548    4.3985548   -6652.0217    -15134.08   -15971.554    11149.569   -4813.3987    2381.3265     12882.07    85.100091 
   44900    1653.5085   -106.72733    1.4961293    -105.2312   -11586.905    4.4002905    4.4002905    4.4002905   -11586.905   -60727.645    44291.631   -18324.701    1308.9744    29253.665    9523.7538    85.200876 
   45000    1551.1251   -106.61859    1.4034906    -105.2151    38549.356    4.3940097    4.3940097    4.3940097    38549.356     28393.64    22002.712    65251.715    9640.6738   -2313.0521    10742.838    84.836555 
   45100    1288.2119   -106.38296    1.1656012   -105.21736   -31546.639     4.399181     4.399181     4.399181   -31546.639   -48253.845    6814.0548   -53200.127   -8614.7652    24751.565    9070.8594     85.13644 
   45200     1529.907   -106.61144     1.384292   -105.22715    1439.8515    4.3892599    4.3892599    4.3892599    1439.8515    -42011.42    39167.359    7163.6154     9104.266    8547.9202    -6119.181    84.561739 
   45300    2023.1828   -107.06304    1.8306183   -105.23242    14527.159    4.3897096    4.3897096    4.3897096    14527.159     14778.25    9433.3237    19369.903   -8674.0976   -1753.9711    10409.457    84.587728 
   45400    788.56597   -105.95545   0.71351106   -105.24194   -2373.1355    4.3903655    4.3903655    4.3903655   -2373.1355   -33355.156    56906.736   -30670.986   -9218.6354    19878.378   -8941.8419    84.625654 
   45500    1554.1998      -106.63    1.4062727   -105.22373    21840.628     4.394294     4.394294     4.394294    21840.628   -7786.4122    39881.611    33426.684    6931.0705   -12184.398     5470.411    84.853028 
   45600    1675.2813   -106.73745    1.5158297   -105.22162     7976.549    4.4017487    4.4017487    4.4017487     7976.549   -1172.9727    885.38251    24217.237    -6807.576    21101.677    4859.9437    85.285606 
   45700     1361.159   -106.45452    1.2316053   -105.22291    2174.5652    4.3905859    4.3905859    4.3905859    2174.5652   -18401.431    30302.619   -5377.4924   -6004.8574   -13660.742   -3503.2989    84.638399 
   45800    1063.1415   -106.18475   0.96195275    -105.2228    36157.444    4.3847488    4.3847488    4.3847488    36157.444   -14497.962    37855.808    85114.484    5593.2553    22632.374    1265.3247    84.301278 
   45900     1819.497   -106.87558    1.6463191   -105.22926   -24517.351    4.3992615    4.3992615    4.3992615   -24517.351   -36767.294   -8354.1209   -28430.639    5237.2455     13640.08    704.88868    85.141115 
   46000     1546.898   -106.61621    1.3996658   -105.21655    20172.528    4.3954756    4.3954756    4.3954756    20172.528   -5969.8453    21221.572    45265.857    6251.6912   -21270.257   -9210.0707     84.92149 
   46100    1244.9904    -106.3392    1.1264935   -105.21271    3015.3763    4.3885765    4.3885765    4.3885765    3015.3763   -42286.754    50741.805    591.07842   -879.55047    27684.956   -5200.8536    84.522241 
   46200    1479.8954   -106.56546    1.3390405   -105.22642   -24458.697    4.3984439    4.3984439    4.3984439   -24458.697   -36113.861   -21401.834   -15860.395    10600.488    -38768.87    2456.9098    85.093656 
   46300    2038.5879   -107.05606    1.8445572   -105.21151    16563.797    4.3910665    4.3910665    4.3910665    16563.797    -1420.403    25120.277    25991.517    1000.8439    14841.659    2330.5584    84.666197 
   46400    895.66292   -106.03048   0.81041463   -105.22007     4600.962    4.3856893    4.3856893    4.3856893     4600.962   -45536.565    44438.728    14900.723   -6478.8589   -22752.825    715.29166    84.355536 
   46500    1716.2853   -106.77361     1.552931   -105.22068   -110.56735     4.386111     4.386111     4.386111   -110.56735   -21488.452    9733.7208    11423.029    3347.9618   -18476.667   -1174.0381    84.379871 
   46600    1487.3877   -106.58299    1.3458196   -105.23717     17909.74    4.3826676    4.3826676    4.3826676     17909.74   -10512.832    5858.2288    58383.823   -3067.3995    2672.4978   -3253.2833    84.181293 
   46700    1293.8588   -106.41604    1.1707107   -105.24533   -8691.3675    4.3944327    4.3944327    4.3944327   -8691.3675   -31037.643    10119.682   -5156.1417   -4019.2175   -21020.169    -1049.818     84.86106 
   46800    1812.0421   -106.86027    1.6395738    -105.2207    9672.8211    4.3877322    4.3877322    4.3877322    9672.8211   -18569.579    2115.1279    45472.915   -8142.3669    4100.7261    199.78755     84.47347 
   46900     1077.856   -106.21279   0.97526675   -105.23753   -9282.3036    4.3896008    4.3896008    4.3896008   -9282.3036   -14721.132   -5055.3484   -8070.4302   -5261.2185   -26735.155    9134.4043    84.581443 
   47000    1857.1594    -106.9077    1.6803968    -105.2273   -9008.7971    4.3963889    4.3963889    4.3963889   -9008.7971    18539.046   -38162.125    -7403.312   -2176.5953    4177.9556    10288.942    84.974442 
   47100    1125.6451   -106.25823    1.0185073   -105.23972   -15332.571    4.3915655    4.3915655    4.3915655   -15332.571   -36534.855    3114.2551   -12577.114   -12490.948   -15287.729   -6444.0028    84.695064 
   47200     1522.057   -106.61189    1.3771892    -105.2347    5300.5916    4.3855151    4.3855151    4.3855151    5300.5916   -6481.0633     10184.18    12198.658   -257.90077   -5368.2979    5566.5097    84.345482 
   47300    1777.1677     -106.839    1.6080187   -105.23099    2155.3821    4.3954942    4.3954942    4.3954942    2155.3821   -7676.9817   -24511.475    38654.603    4024.8052   -4043.5676   -3790.0483    84.922569 
   47400    1234.2431   -106.34576    1.1167691   -105.22899   -23612.524    4.3950723    4.3950723    4.3950723   -23612.524   -55759.536     8276.113    -23354.15   -1944.5479   -29186.231   -7422.8817     84.89812 
   47500    1880.4939   -106.91724    1.7015104   -105.21573     6266.654    4.3876948    4.3876948    4.3876948     6266.654   -43049.979    5181.7918    56668.149   -886.08521    15739.706    8972.6001    84.471308 
   47600    1477.7038   -106.56494    1.3370575   -105.22788    8410.1292    4.3822515    4.3822515    4.3822515    8410.1292   -42406.686    35126.621    32510.452   -6362.1868   -37181.581   -1761.3975     84.15732 
   47700    1387.6211   -106.49242    1.2555488   -105.23687    4327.6966    4.3902342    4.3902342    4.3902342    4327.6966   -16052.623   -1113.4418    30149.154    3207.4667    18323.014   -8196.6084    84.618058 
   47800    1771.3967   -106.82834     1.602797   -105.22555   -24214.004    4.4024855    4.4024855    4.4024855   -24214.004   -32481.481   -31698.032    -8462.497    4678.1768    130.58934    10606.522    85.328442 
   47900    1314.4787   -106.41698     1.189368   -105.22761   -12783.593     4.395948     4.395948     4.395948   -12783.593   -48967.515      16708.2   -6091.4632   -2381.7403   -14305.129   -5157.6278    84.948878 
   48000    1750.3091     -106.805    1.5837164   -105.22128    19643.015    4.3837615    4.3837615    4.3837615    19643.015    30529.961    27834.266    564.81835    2114.1911     26564.36    80.184843    84.244344 
   48100    1237.2005   -106.35086     1.119445   -105.23141     5103.783    4.3814127    4.3814127    4.3814127     5103.783    9040.6639   -22768.582    29039.267   -1641.1824   -23339.767     2095.641    84.109006 
   48200    1327.9405   -106.43999    1.2015485   -105.23844   -5939.7525    4.3944161    4.3944161    4.3944161   -5939.7525   -32880.857    33293.615   -18232.016    308.39173    23120.257   -5.1715124    84.860101 
   48300    1781.0346   -106.83407    1.6115175   -105.22255    19783.243    4.3917959    4.3917959    4.3917959    19783.243   -1404.2546    31670.012    29083.973   -5250.0309   -8848.0044   -4540.4638    84.708394 
   48400    1437.0831   -106.52484     1.300303   -105.22454    5874.3962    4.3869835    4.3869835    4.3869835    5874.3962    3804.1326   -2356.2953    16175.351    2226.4138    8539.5735    -339.0674    84.430235 
   48500    1223.3927   -106.32955    1.1069514    -105.2226    9388.9804    4.3966488    4.3966488    4.3966488    9388.9804   -12233.199    30569.308    9830.8328     -9835.55    9516.7945    22110.557    84.989511 
   48600    1662.9254   -106.72643    1.5046498   -105.22178    2601.1485      4.39506      4.39506      4.39506    2601.1485   -16546.953    17773.368    6577.0307   -10621.903     -7273.73   -10691.484    84.897409 
   48700    1780.2937   -106.83023    1.6108472   -105.21938    16904.981    4.3934897    4.3934897    4.3934897    16904.981   -7549.4868    19577.418    38687.013    12361.931    18310.139    3499.9614    84.806438 
   48800    1326.2289    -106.4236    1.1999997    -105.2236    1265.1199    4.3937959    4.3937959    4.3937959    1265.1199   -6200.7511    11305.917   -1309.8063   -11669.459   -2139.4767    599.39931    84.824172 
   48900    1174.1938   -106.29928    1.0624353   -105.23684    5636.5777    4.3851339    4.3851339    4.3851339    5636.5777   -26870.037    28095.413    15684.357    8165.4671    20735.624   -3296.3027    84.323493 
   49000    2115.5322   -107.14728     1.914178    -105.2331    10363.645    4.3874648    4.3874648    4.3874648    10363.645   -16471.544     19704.94     27857.54   -2388.0535   -7169.3948   -9406.7812     84.45803 
   49100    1404.2575   -106.50346    1.2706017   -105.23286   -23387.637    4.3899122    4.3899122    4.3899122   -23387.637   -46046.293   -14040.096   -10076.521   -20500.423    13775.979   0.88989648    84.599441 
   49200    1255.8812   -106.36385    1.1363477    -105.2275   -1391.6738    4.3969922    4.3969922    4.3969922   -1391.6738   -14321.607   -922.19004    11068.775    4760.1599    1887.4687   -1973.9384    85.009424 
   49300    1352.9505   -106.44488     1.224178    -105.2207   -11674.279    4.4013554    4.4013554    4.4013554   -11674.279    -54107.09    15657.723    3426.5299   -16254.837    16938.298   -465.94252    85.262744 
   49400    1836.4443   -106.87575    1.6616534    -105.2141   -6397.8071    4.3758852    4.3758852    4.3758852   -6397.8071   -20080.686    34220.452   -33333.188   -15025.957    21803.322    2242.9406    83.791077 
   49500    1316.6517   -106.41185    1.1913342   -105.22052    17766.068    4.3756221    4.3756221    4.3756221    17766.068    -29401.41    46854.352    35845.261   -11981.709   -5739.0901    2315.6543    83.775959 
   49600    870.53305   -106.01998    0.7876766   -105.23231   -41693.247    4.4060144    4.4060144    4.4060144   -41693.247   -77029.623   -24045.144   -24004.974   -11453.351    36632.584    1276.8228    85.533792 
   49700    2244.4453   -107.23309    2.0308213   -105.20227    8097.8306    4.3890274    4.3890274    4.3890274    8097.8306    -4518.488    2138.3543    26673.626   -8856.3376   -18516.719   -8705.7352    84.548298 
   49800    1181.2207   -106.28253    1.0687933   -105.21374   -3343.1582    4.3844914    4.3844914    4.3844914   -3343.1582    -48842.99    29068.453    9745.0625   -22116.271    24860.806    9102.0582    84.286433 
   49900    1562.9396   -106.63271    1.4141806   -105.21853   -16142.986    4.3924288    4.3924288    4.3924288   -16142.986   -34891.941    10857.561   -24394.579    7457.9269    17497.872   -1746.4625    84.745018 
   50000    1338.3161   -106.43264    1.2109366    -105.2217    44708.816    4.3847977    4.3847977    4.3847977    44708.816    15514.486    20472.206    98139.755   -19273.451    10012.319   -1313.9853      84.3041 
   50100    1833.2717   -106.88419    1.6587827   -105.22541   -20865.835    4.4049388    4.4049388    4.4049388   -20865.835   -22674.042   -879.61367   -39043.849    10725.802    20467.454   -3746.2521    85.471165 
   50200    1591.1821   -106.65049     1.439735   -105.21075   -4472.3829    4.3909237    4.3909237    4.3909237   -4472.3829    4707.0629   -2269.6978   -15854.514    541.37063   -10875.305    4903.9019    84.657933 
   50300    963.52538   -106.08453   0.87181802   -105.21271    48257.427     4.365443     4.365443     4.365443    48257.427    17287.044    50458.892    77026.345   -13083.504    30917.678    1824.1599    83.192652 
   50400    2552.8946   -107.52799    2.3099127   -105.21807   -14677.074    4.3994356    4.3994356    4.3994356   -14677.074   -2153.4993   -35750.615   -6127.1069     4115.479   -17047.207   -8517.9295    85.151224 
   50500    1248.1567   -106.34429    1.1293584   -105.21493   -39581.625    4.4006565    4.4006565    4.4006565   -39581.625   -54949.922   -15727.953       -48067    2444.1666    20376.444    484.81378    85.222134 
   50600    1378.7034   -106.44639    1.2474798   -105.19891    27303.852    4.3824651    4.3824651    4.3824651    27303.852    30382.803    14872.559    36656.193   -11372.621    11434.777    11493.245    84.169627 
   50700    1798.7615   -106.83345    1.6275572    -105.2059   -1908.1389    4.3944718    4.3944718    4.3944718   -1908.1389   -15565.547    21848.993   -12007.863   -12854.538    2727.0459   -2383.9928    84.863326 
   50800    1125.8224   -106.23552    1.0186677   -105.21686   -8785.0697    4.3849719    4.3849719    4.3849719   -8785.0697   -11114.276    2632.4445   -17873.378    -7035.349    38181.427    123.65968    84.314146 
   50900    1493.3935   -106.56331    1.3512538   -105.21205    13071.189     4.385011     4.385011     4.385011    13071.189     50914.47   -4876.4215   -6824.4816   -2341.7902   -7218.4004    2668.3209    84.316401 
   51000    1148.3572   -106.26951    1.0390577   -105.23046   -19107.142    4.4030418    4.4030418    4.4030418   -19107.142   -33182.425    9997.9366   -34136.937   -752.73058    53541.729    3930.7927     85.36079 
   51100     2077.382   -107.08893    1.8796589   -105.20927    4768.1077    4.3949389    4.3949389    4.3949389    4768.1077    16329.526   -18012.995    15987.792     5057.188    430.42538    10269.299    84.890391 
   51200    709.31873   -105.86162   0.64180649   -105.21981   -23814.079    4.3935614    4.3935614    4.3935614   -23814.079   -60908.156    20365.572   -30899.654    11541.044    41489.035    -13624.83    84.810593 
   51300    1585.9614   -106.64916    1.4350112   -105.21415   -6359.7275    4.3855217    4.3855217    4.3855217   -6359.7275   -34314.724    12061.291    3174.2509   -14153.264    22878.973    6198.7937    84.345863 
   51400    1752.1424   -106.80737    1.5853752     -105.222    6333.0814    4.3911155    4.3911155    4.3911155    6333.0814   -686.66248    21080.423   -1394.5165    18673.111    12633.579   -1548.1392    84.669031 
   51500    1170.1974   -106.28132    1.0588192    -105.2225   -33440.693    4.4067776    4.4067776    4.4067776   -33440.693    -64673.78    13968.008   -49616.305   -8871.3829    23758.176    1843.8131    85.578252 
   51600    1669.5005   -106.71838    1.5105991   -105.20778    10641.324    4.3941745    4.3941745    4.3941745    10641.324   -33340.514    28034.246    37230.242    4386.5355   -3078.3476   -6238.2505      84.8461 
   51700    1346.3803   -106.44084    1.2182332    -105.2226    5503.5844    4.3872467    4.3872467    4.3872467    5503.5844   -16622.407    61315.126   -28181.966    4275.3336    21362.928   -3533.2208    84.445435 
   51800    1840.6615   -106.88749    1.6654692   -105.22202    7805.3191    4.3976739    4.3976739    4.3976739    7805.3191    -20775.04   -14481.398    58672.395    8083.3357   -3737.9111   -14369.611     85.04897 
   51900    827.29735   -105.98168   0.74855603   -105.23312   -25448.631    4.4095222    4.4095222    4.4095222   -25448.631   -67666.982     58793.44   -67472.349    5444.2679    47978.795   -4222.1455    85.738246 
   52000    2175.9738   -107.17621    1.9688668   -105.20734     -363.501    4.4021757    4.4021757    4.4021757     -363.501   -10971.046   -1977.5857    11858.129    6981.5305    -22338.61   -361.51999    85.310427 
   52100    1220.4146   -106.32713    1.1042568   -105.22288    -3141.225    4.3932649    4.3932649    4.3932649    -3141.225   -52385.294    47917.286   -4955.6673    5972.4527    40494.393    2811.1008    84.793426 
   52200    1254.4625   -106.35319     1.135064   -105.21813    15952.104    4.3862418    4.3862418    4.3862418    15952.104   -12559.169    31164.717    29250.764    4905.8752   -18569.995   -15404.122    84.387418 
   52300     1400.578   -106.50103    1.2672725   -105.23375   -2424.7092    4.4071663    4.4071663    4.4071663   -2424.7092    -36557.92    16715.087    12568.705   -7874.1257     19794.32    12767.878    85.600897 
   52400    1748.7652   -106.80038    1.5823195   -105.21806   -33681.044    4.4144107    4.4144107    4.4144107   -33681.044   -64265.193    -12716.99    -24060.95    5589.2581    8632.3112    11978.414    86.023717 
   52500    1421.9454   -106.48683    1.2866061   -105.20022    16164.482    4.3983463    4.3983463    4.3983463    16164.482   -24245.056    41506.158    31232.345    4643.4826   -15737.428   -4405.8295     85.08799 
   52600    1161.2259   -106.26407    1.0507016   -105.21336   -19111.719    4.4037323    4.4037323    4.4037323   -19111.719   -42124.692     9634.709   -24845.174    6415.6336    41918.689    7366.6248    85.400953 
   52700    2135.8579    -107.1364    1.9325691   -105.20383   -5616.2378    4.3960382    4.3960382    4.3960382   -5616.2378   -15979.574    12232.402   -13101.542   -6095.4988   -32188.917   -760.38783    84.954107 
   52800    1387.6065   -106.47415    1.2555355   -105.21862   -9064.2355     4.401546     4.401546     4.401546   -9064.2355   -50931.874    23261.621    477.54658    4719.1587    30402.415    4308.7509    85.273822 
   52900    1100.4621   -106.22014   0.99572128   -105.22442   -17897.063    4.4116864    4.4116864    4.4116864   -17897.063   -13518.579    4073.8575   -44246.468    10426.855   -26578.694    2369.3452    85.864549 
   53000    1856.2287   -106.88906    1.6795548    -105.2095   -347.95531     4.397511     4.397511     4.397511   -347.95531    -2581.894    6310.7427   -4772.7147    1971.9653    3308.4512    2743.7464    85.039522 
   53100    1552.2859   -106.62277    1.4045409   -105.21823   -21161.639    4.4081116    4.4081116    4.4081116   -21161.639   -55057.151   -4095.1559    -4332.609    10329.579    6732.8077   -6653.2193    85.655993 
   53200    879.48917   -105.99838   0.79578028    -105.2026    2376.5755     4.412922     4.412922     4.412922    2376.5755    2935.0657    9127.7926   -4933.1317   -10902.518   -28659.597    8420.7529    85.936716 
   53300     1478.255   -106.53283    1.3375562   -105.19527    15675.912    4.3987726    4.3987726    4.3987726    15675.912    16224.122    16774.425     14029.19    21634.776     20162.62   -3323.9299    85.112733 
   53400    2078.3983   -107.08983    1.8805785   -105.20925     -16710.1    4.4053321    4.4053321    4.4053321     -16710.1   -23710.591    2.5728832   -26422.282   -17885.003   -21166.142    18288.612    85.494063 
   53500    1142.0436   -106.24682    1.0333451   -105.21347    1637.8311    4.4036987    4.4036987    4.4036987    1637.8311   -19637.906    32967.276   -8415.8767    7977.0343    16882.458    14815.026    85.398999 
   53600    1511.9856   -106.58264    1.3680764   -105.21457    34480.445    4.4065514    4.4065514    4.4065514    34480.445    13523.177    73754.286    16163.873    13368.895   -17563.586    2077.1033    85.565074 
   53700    1686.6974   -106.73992    1.5261592   -105.21376   -30175.835    4.4285044    4.4285044    4.4285044   -30175.835    -19027.76   -25709.263   -45790.482   -9103.1432    8503.9348    22466.281    86.850284 
   53800    1520.1995   -106.57322    1.3755084   -105.19771   -21334.086    4.4067652    4.4067652    4.4067652   -21334.086    -55836.49    5344.3196   -13510.087   -4233.4517    4465.5483    4471.2569    85.577528 
   53900    1267.1858   -106.33767    1.1465764   -105.19109    57210.106    4.3843642    4.3843642    4.3843642    57210.106    73245.489    83460.112    14924.716    14633.029   -22538.409    8400.6084    84.279094 
   54000    1824.6581   -106.87206     1.650989   -105.22107    -31066.34    4.4150597    4.4150597    4.4150597    -31066.34    -33450.73   -20176.867   -39571.422   -3052.9617    5671.3814    491.65043    86.061665 
   54100    1173.0708   -106.27428    1.0614191   -105.21287   -2362.7941    4.4191072    4.4191072    4.4191072   -2362.7941   -44769.172    65976.001   -28295.212    1858.0321   -26493.753   -3856.4946    86.298574 
   54200    1591.2546   -106.64303    1.4398006   -105.20323    -7202.981    4.4113854    4.4113854    4.4113854    -7202.981    5450.4853    10794.408   -37853.836     -4818.79    16013.683    2602.9594    85.846979 
   54300    1680.5464   -106.73746    1.5205937   -105.21687   -20304.069    4.4023872    4.4023872    4.4023872   -20304.069   -31967.491   -5158.2208   -23786.496    12611.247   -23134.145    12041.204    85.322725 
   54400    1399.5019   -106.48626    1.2662988   -105.21996    58731.968    4.3913508    4.3913508    4.3913508    58731.968    95077.769    47030.042    34088.093   -13596.521    9694.3184   -4498.8272    84.682638 
   54500    1069.2081   -106.20847   0.96744198   -105.24103   -28816.848    4.4227507    4.4227507    4.4227507   -28816.848   -42591.556    12868.115   -56727.104    4956.0513    -11480.11   -8308.2492    86.512204 
   54600    2077.5082   -107.08216     1.879773   -105.20238   -23369.126    4.4144309    4.4144309    4.4144309   -23369.126   -17773.359   -22061.581   -30272.437    11061.693   -12703.663    867.21708    86.024899 
   54700     1444.567   -106.49621    1.3070746   -105.18913    36927.285    4.3808944    4.3808944    4.3808944    36927.285     17799.68    53415.661    39566.515   -3395.5772     9712.626    8392.7683     84.07916 
   54800    1047.5241   -106.17909   0.94782178   -105.23126   -13786.687    4.3988295    4.3988295    4.3988295   -13786.687   -11058.149    4249.3688   -34551.279    16145.485   -19361.855   -21624.982    85.116033 
   54900     1933.373   -106.97227    1.7493565   -105.22291    -14007.06     4.418526     4.418526     4.418526    -14007.06   -19109.511   -14727.666   -8184.0025    1000.3321    2794.2645    5367.9751    86.264526 
   55000    1423.4177   -106.50453    1.2879382   -105.21659    -29244.15    4.4199335    4.4199335    4.4199335    -29244.15   -43180.234    5280.3935   -49832.611    696.51554   -19054.372   -993.49035    86.346991 
   55100    1486.1371   -106.55125    1.3446881   -105.20656     2616.781    4.3989474    4.3989474    4.3989474     2616.781    48392.983   -13794.711    -26747.93    810.85053   -909.62225    427.74616    85.122879 
   55200    1415.3008   -106.50092    1.2805939   -105.22032    31477.766    4.3886068    4.3886068    4.3886068    31477.766   -663.82705    66634.813    28462.311   -4758.2656   -3596.2388    13962.907    84.523992 
   55300    1909.5031   -106.96617    1.7277585   -105.23842   -20550.634    4.4095207    4.4095207    4.4095207   -20550.634   -13506.026   -22514.518   -25631.358    4236.2844   -26006.151   -3770.9262    85.738157 
   55400    1113.0094   -106.23269    1.0070743   -105.22561    22369.458    4.4088922    4.4088922    4.4088922    22369.458    27162.163    26370.008    13576.204   -19808.027    14865.753   -5474.8805    85.701501 
   55500    1656.6232   -106.71801    1.4989475   -105.21906   -20824.686    4.4004917    4.4004917    4.4004917   -20824.686   -30729.587   -11441.688   -20302.783   -4966.3208   -24349.521    6116.6718    85.212562 
   55600    1835.9015   -106.88234    1.6611622   -105.22118    2055.5969    4.3923612    4.3923612    4.3923612    2055.5969    6156.9038   -20606.773     20616.66    4870.0309    1988.8308    1605.0471    84.741108 
   55700    1294.6194   -106.40532    1.1713989   -105.23392    26012.183    4.3906766    4.3906766    4.3906766    26012.183    46643.279    16998.325    14394.945   -15581.242   -17054.908   -6834.9559    84.643646 
   55800    1428.2878   -106.52233    1.2923448   -105.22998   -17615.853    4.4151618    4.4151618    4.4151618   -17615.853   -25300.499    6138.0425   -33685.101    497.21646   -6139.3601    11907.922    86.067633 
   55900    1519.8347   -106.60235    1.3751784   -105.22717   -12375.612    4.3976157    4.3976157    4.3976157   -12375.612   -3374.7231    -40928.21    7176.0968    2473.8695   -2798.1531   -16200.403    85.045593 
   56000    1496.3919   -106.57236    1.3539668   -105.21839    45408.538    4.3727829    4.3727829    4.3727829    45408.538    13781.252    81233.505    41210.856   -2776.0358   -21512.707     6240.068    83.612986 
   56100    2068.0721   -107.11208    1.8712351   -105.24085   -7574.2011    4.3953278    4.3953278    4.3953278   -7574.2011    1773.0379   -4788.2912    -19707.35    9163.7948    18103.781   -5177.3392    84.912929 
   56200    740.29627   -105.91963   0.66983563   -105.24979    15726.497     4.415854     4.415854     4.415854    15726.497    31601.043    46077.182   -30498.735   -8862.7382   -20591.782   -2640.7316    86.108124 
   56300    1928.4856   -106.95453    1.7449343   -105.20959   -5188.6537    4.4276678    4.4276678    4.4276678   -5188.6537    25501.291   -48785.169    7717.9166    834.45129   -1462.2353    1796.4885    86.801069 
   56400    1190.4524   -106.28591    1.0771464   -105.20876    -26752.99    4.4034389    4.4034389    4.4034389    -26752.99   -57551.751   -469.21947       -22238     12804.23   -19872.616   -4915.3185    85.383885 
   56500    1582.6125   -106.61613     1.431981   -105.18415    41757.361    4.3706838    4.3706838    4.3706838    41757.361    74759.863    55787.697   -5275.4775   -12804.499   -4883.6576    4698.5466    83.492637 
   56600    1695.5066   -106.77788      1.53413   -105.24375   -11391.274    4.4028117    4.4028117    4.4028117   -11391.274    -4564.473    4306.8053   -33916.155   -4731.6881    11708.145    7953.1577    85.347409 
   56700    1167.8963   -106.29134    1.0567371    -105.2346   -10502.255    4.4326742    4.4326742    4.4326742   -10502.255   -9003.2305    15604.904    -38108.44    -7625.935   -21414.726   -5227.4679    87.095847 
   56800    1755.5384   -106.79271    1.5884481   -105.20427   -10474.918    4.4167381    4.4167381    4.4167381   -10474.918   -31478.555    19083.449   -19029.648   -75.640438     6628.916    7708.5134    86.159853 
   56900    1544.0815   -106.59323    1.3971174   -105.19611    10937.162    4.3911958    4.3911958    4.3911958    10937.162   -27930.158    65140.104   -4398.4588   -10760.927   -16962.016    2629.9648    84.673674 
   57000    1721.6652   -106.77079    1.5577989   -105.21299    8588.1144    4.4037658    4.4037658    4.4037658    8588.1144   -16718.145    27484.314    14998.174   -8219.3784    6781.7144   -10212.033    85.402904 
   57100    869.92279   -106.01245   0.78712442   -105.22532    18796.951    4.4179564    4.4179564    4.4179564    18796.951   -2255.5822    47534.958    11111.479    3266.3797     -16030.2    12074.407    86.231172 
   57200    2100.1803   -107.09747    1.9002873   -105.19719   -10234.768    4.4203122    4.4203122    4.4203122   -10234.768   -41260.242     23004.84   -12448.902   -2799.2993    1428.8539   -4907.8946    86.369185 
   57300    1516.4769   -106.57896    1.3721402   -105.20682    5448.9015    4.3932894    4.3932894    4.3932894    5448.9015    14699.433    25521.221    -23873.95   -5451.2162    4289.9674    1576.3396    84.794842 
   57400    1474.5095   -106.56814    1.3341672   -105.23397    22520.897    4.3901113    4.3901113    4.3901113    22520.897   -17611.595    46587.059    38587.226     6691.611   -10619.202    7246.8958    84.610957 
   57500    1420.2756   -106.52998    1.2850952   -105.24489   -11580.596    4.4223366    4.4223366    4.4223366   -11580.596   -35304.315    17108.416   -16545.888   -11063.085    1630.9796    4053.3243    86.487908 
   57600    1620.8104   -106.69287    1.4665433   -105.22633   -14297.565    4.4163573    4.4163573    4.4163573   -14297.565   -44628.647    13159.877   -11423.925    5163.8447   -9749.7782    28207.139     86.13757 
   57700    1381.2803   -106.46334    1.2498115   -105.21353    42520.635     4.401755     4.401755     4.401755    42520.635    23015.885    89746.384    14799.637   -3472.2132   -1171.8551   -1367.1032    85.285971 
   57800    1075.5304   -106.20473   0.97316254   -105.23157   -26018.783    4.4057621    4.4057621    4.4057621   -26018.783   -55392.074    9212.4608   -31876.737   -3349.1659   -41053.465   -599.55946    85.519101 
   57900    1598.5053   -106.67298    1.4463612   -105.22662    4952.5917    4.4085617    4.4085617    4.4085617    4952.5917   -57161.085    37933.239     34085.62    4301.4571    13089.304    18870.672     85.68223 
   58000    1505.0773   -106.59301    1.3618255   -105.23119    -28645.79    4.4217658    4.4217658    4.4217658    -28645.79   -62749.412   -695.55613     -22492.4   -668.94507   -28961.415   -235.07067    86.454424 
   58100    1216.1875   -106.30473     1.100432    -105.2043   -6975.8133    4.4168485    4.4168485    4.4168485   -6975.8133   -27877.018    840.35617    6109.2219    8647.0471   -8353.7615    15833.569    86.166312 
   58200    1510.0421   -106.55861    1.3663178   -105.19229   -11746.332    4.4064936    4.4064936    4.4064936   -11746.332   -39001.446    8026.1203   -4263.6699    2574.8671   -18572.235   -9529.3866    85.561707 
   58300     1642.133   -106.68673    1.4858364    -105.2009   -31054.197    4.4131025    4.4131025    4.4131025   -31054.197    -55213.21    15813.139   -53762.521   -1329.5109   -9522.3607    12128.498    85.947259 
   58400    1832.2845    -106.8504    1.6578896   -105.19251    16126.065    4.4069861    4.4069861    4.4069861    16126.065    21665.852   -6890.4294    33602.772     6702.941     2500.108   -3382.4241    85.590397 
   58500     952.1086   -106.07135   0.86148787   -105.20986   -3711.6225      4.41064      4.41064      4.41064   -3711.6225   -33546.874     39311.14   -16899.133    6379.3389   -24995.023   -10792.815    85.803467 
   58600    1778.4672   -106.81142    1.6091945   -105.20222   -402.12919    4.4155448    4.4155448    4.4155448   -402.12919    4231.4442    33305.335   -38743.166   -10301.619    12819.381    469.50127    86.090038 
   58700    1726.1695   -106.77193    1.5618745   -105.21006   -4667.2126    4.3975378    4.3975378    4.3975378   -4667.2126   -23562.174    46045.454   -36484.918    14014.464   -31358.732    -4085.851    85.041077 
   58800    1558.2383   -106.63305    1.4099267   -105.22313    19417.834    4.4003697    4.4003697    4.4003697    19417.834    5487.5947    47777.562    4988.3463    17284.556    18517.781   -7646.7935    85.205476 
   58900     860.1198   -106.01643   0.77825447   -105.23818   -25325.369    4.4241092    4.4241092    4.4241092   -25325.369   -22507.609    11402.981   -64871.478     14055.95   -35565.404   -3236.6593    86.591946 
   59000    1848.0016   -106.88171    1.6721107    -105.2096   -16250.305    4.4100495    4.4100495    4.4100495   -16250.305    12455.348   -10295.357   -50910.907    12521.997    23267.506    7379.6645    85.769011 
   59100    1433.7852   -106.50788    1.2973189   -105.21056    4372.2636    4.4099682    4.4099682    4.4099682    4372.2636   -18662.005    38331.486   -6552.6903    17041.928    -25103.49   -1094.2171    85.764265 
   59200    1146.0115   -106.25865    1.0369353   -105.22172   -22303.587    4.4155019    4.4155019    4.4155019   -22303.587   -23808.208    14414.897    -57517.45    -3985.575   -9822.9292   -9180.6664    86.087527 
   59300    1703.8937   -106.75029    1.5417188   -105.20857    11903.706    4.4090139    4.4090139    4.4090139    11903.706   -4850.2084    46680.768   -6119.4405    11056.747     12141.69    2402.2317    85.708601 
   59400    1193.5877   -106.30034    1.0799833   -105.22035     7639.529    4.4153818    4.4153818    4.4153818     7639.529   -12522.508    46401.413   -10960.318   -7954.1872   -26602.398    10202.156    86.080504 
   59500    2062.8762   -107.06377    1.8665337   -105.19724   -9563.5208    4.4183229    4.4183229    4.4183229   -9563.5208    968.83943    3769.9837   -33429.386   -6797.7699    10747.768   -679.78687    86.252632 
   59600    1099.1854    -106.1946   0.99456605   -105.20003   -12900.378    4.4176974    4.4176974    4.4176974   -12900.378   -56503.358    38959.164   -21156.939   -3250.2826   -30177.901    6238.8942    86.216005 
   59700    1734.8764   -106.76543    1.5697526   -105.19567    10198.446    4.4050598    4.4050598    4.4050598    10198.446      46706.2   -2796.9308   -13313.932   -3505.0564    17683.694    1890.4578    85.478214 
   59800    1426.8548   -106.50536    1.2910482   -105.21431    20299.726    4.4003197    4.4003197    4.4003197    20299.726   -36116.098    124956.83   -27941.556   -5554.7073   -26472.424    6050.4913    85.202571 
   59900    1890.0513   -106.93792    1.7101581   -105.22776   -30295.218    4.4170603    4.4170603    4.4170603   -30295.218   -43441.546   -15092.502   -32351.605   -6526.5249    1260.2171    6571.1709    86.178707 
   60000    1528.3283   -106.59704    1.3828635   -105.21417    3383.4419    4.4170234    4.4170234    4.4170234    3383.4419   -18082.707    62266.235   -34033.202    7538.1707   -17221.546    -2266.187    86.176547 
   60100    1248.0021    -106.3388    1.1292186   -105.20959    684.60557    4.4124025    4.4124025    4.4124025    684.60557    189.52542    29904.876   -28040.584   -1724.1278    301.45653    7248.5384     85.90637 
   60200     1773.061   -106.79942    1.6043029   -105.19511   -11215.441    4.4048629    4.4048629    4.4048629   -11215.441   -13511.513    -11239.09   -8895.7202    3459.9734   -3840.3296    11272.776    85.466751 
   60300    1427.5102   -106.49488    1.2916412   -105.20324   -1773.7639    4.4032663    4.4032663    4.4032663   -1773.7639   -43532.641    13959.781    24251.568   -16407.006   -28187.201    157.67771    85.373849 
   60400    2010.3879   -107.02808    1.8190412   -105.20904   -17768.938    4.4281632    4.4281632    4.4281632   -17768.938     7848.649   -23867.042    -37288.42   -8186.7012     2710.448   -2551.4461    86.830213 
   60500    804.11137   -105.93645   0.72757687   -105.20888    -9088.979    4.4266769    4.4266769    4.4266769    -9088.979   -59651.408    62710.349   -30325.878   -17849.256   -19262.158    7913.4598    86.742807 
   60600    1798.1521   -106.80557    1.6270058   -105.17856    27278.508    4.3897702    4.3897702    4.3897702    27278.508   -20101.666    64040.765    37896.425   -22759.533    392.01342   -1887.0513    84.591235 
   60700    1640.2508   -106.70201    1.4841334   -105.21788   -17631.395    4.4066977    4.4066977    4.4066977   -17631.395   -12385.382   -9759.6439   -30749.158    3128.7419   -18886.001   -487.67725    85.573595 
   60800    1400.3996   -106.48632     1.267111   -105.21921   -32620.375    4.4318125    4.4318125    4.4318125   -32620.375    -79425.51   -35237.646    16802.032   -29413.906    -6501.561   -9671.0942    87.045063 
   60900    1692.6186   -106.72921    1.5315169    -105.1977    1043.4524    4.4270448    4.4270448    4.4270448    1043.4524   -38757.846   -123.49565    42011.699   -4297.0347   -2312.0956   -6939.1429    86.764439 
   61000     1589.442   -106.63223    1.4381606   -105.19407   -38227.297    4.4217137    4.4217137    4.4217137   -38227.297   -79067.271   -20133.942   -15480.677   -271.41819   -13350.345    2112.0522    86.451363 
   61100    1492.0602    -106.5448    1.3500475   -105.19475    26078.904    4.4035991    4.4035991    4.4035991    26078.904   -8812.4334    51308.754    35740.392   -7654.1261   -12948.011   -3301.2073    85.393209 
   61200    1318.9852   -106.41875    1.1934455    -105.2253    19458.436    4.4084941    4.4084941    4.4084941    19458.436    7353.1663    56441.417    -5419.276    7245.6902   -4948.2121    16686.892    85.678292 
   61300    1627.2306   -106.69085    1.4723524    -105.2185   -32522.586     4.439151     4.439151     4.439151   -32522.586   -92663.308    16546.015   -21450.466   -7300.9974    318.61375   -748.99454    87.478186 
   61400    1488.6634   -106.54309    1.3469739   -105.19611   -4238.9658    4.4199516    4.4199516    4.4199516   -4238.9658   -23596.506    13195.154   -2315.5454    4893.2686   -5023.8884    13747.115    86.348049 
   61500    1482.7703   -106.53351    1.3416418   -105.19187    16293.907    4.3986336    4.3986336    4.3986336    16293.907    33434.382   -4952.6101    20399.948    1002.3416    8068.7332    5374.3619    85.104663 
   61600    1873.4444    -106.8964    1.6951319   -105.20126    2744.0531    4.4117705    4.4117705    4.4117705    2744.0531   -41687.394    20200.315    29719.238    3798.6107    2600.4663    10795.908    85.869463 
   61700    897.46075   -106.03979   0.81204135   -105.22775    8506.0901    4.4159165    4.4159165    4.4159165    8506.0901   -22377.161    26143.063    21752.368   -10776.724   -5781.2945    18807.725     86.11178 
   61800     1970.763   -107.00411    1.7831878   -105.22093    1687.9098     4.411397     4.411397     4.411397    1687.9098    16430.919   -29576.866    18209.676   -2820.8561     9607.131   -1048.4333    85.847653 
   61900    1140.7789    -106.2653    1.0322007    -105.2331    12883.605    4.4039974    4.4039974    4.4039974    12883.605   -41215.898    45257.931    34608.782    103.42849    2283.5963    14597.144    85.416379 
   62000    1356.2996     -106.465    1.2272084   -105.23779    15826.094    4.4068634    4.4068634    4.4068634    15826.094   -19005.765    9974.1174    56509.928   -17653.629   -8765.2057    15698.466    85.583248 
   62100    1311.2632   -106.41149    1.1864585   -105.22503    10783.224       4.4263       4.4263       4.4263    10783.224    24074.461    35557.141   -27281.929    2090.4866    4987.3648    -11362.38    86.720655 
   62200    1454.7469    -106.5204    1.3162856   -105.20411   -37470.024    4.4208844    4.4208844    4.4208844   -37470.024   -90299.097   -10098.396   -12012.579   -26606.125   -7403.1296    16968.783     86.40273 
   62300    1395.9369   -106.45149     1.263073   -105.18841    47051.038    4.3884956    4.3884956    4.3884956    47051.038    50159.063    45687.463    45306.589   -409.01072    1049.0684   -3932.2311    84.517569 
   62400    1829.1913   -106.88245    1.6550908   -105.22736   -9503.7891    4.3981828    4.3981828    4.3981828   -9503.7891   -12224.846   -23659.482     7372.961   -15811.571    6996.8009    -1889.076      85.0785 
   62500    1647.3399   -106.71753    1.4905477   -105.22698    16595.737    4.4246769    4.4246769    4.4246769    16595.737    20098.926    18876.333    10811.952   -5440.2767    5417.0879    -2208.109     86.62529 
   62600    1340.3531   -106.41581    1.2127796   -105.20303   -21795.863    4.4271516    4.4271516    4.4271516   -21795.863   -17363.906   -15302.015   -32721.668   -4026.7415   -5355.9846   -18377.344    86.770716 
   62700    1303.5619   -106.38077    1.1794902   -105.20128    1942.6598    4.4086081    4.4086081    4.4086081    1942.6598   -11874.008    22804.698   -5102.7107   -15240.892   -4744.3919    9669.3704    85.684936 
   62800     1971.956   -106.98832    1.7842672   -105.20405    -1325.313    4.3955592    4.3955592    4.3955592    -1325.313    10672.176    23727.706   -38375.822    15235.468    1182.7089   -26690.869    84.926337 
   62900    748.29504   -105.92223   0.67707308   -105.24516    19025.913    4.4119699    4.4119699    4.4119699    19025.913    22117.221     74188.83   -39228.312   -17289.128    9540.2124    2947.8677    85.881105 
   63000    1858.7063   -106.91343    1.6817965   -105.23163   -18798.272    4.4269335    4.4269335    4.4269335   -18798.272   -17983.011    13962.766   -52374.571    5092.6494    1731.8639   -17603.795    86.757895 
   63100    1026.6672   -106.15561    0.9289501   -105.22666    -5901.669    4.4219942    4.4219942    4.4219942    -5901.669    12506.992    24721.844   -54933.843    10837.558    13277.167   -5402.8421    86.467819 
   63200     2098.654   -107.10079    1.8989063   -105.20189    13387.126    4.3941904    4.3941904    4.3941904    13387.126    42236.541   -7493.5081    5418.3459   -1708.1212    1447.4768   -4997.0722    84.847027 
   63300    1267.3508   -106.38014    1.1467256   -105.23341    6384.6858    4.3989173    4.3989173    4.3989173    6384.6858     26224.33    17281.695   -24351.968    3762.1564    8353.0888   -15640.969    85.121133 
   63400    1911.1019   -106.95252    1.7292052   -105.22331   -29760.779    4.4280162    4.4280162    4.4280162   -29760.779   -34391.253   -36848.829   -18042.253    15614.139    6174.2684   -9640.5115    86.821563 
   63500    1477.7308   -106.54154    1.3370819   -105.20446    3786.2884    4.4247331    4.4247331    4.4247331    3786.2884    27530.261    369.87852   -16541.274   -3613.8088   -2749.9471   -11472.282    86.628586 
   63600    1553.1098   -106.59036    1.4052864   -105.18507    18190.795    4.4171155    4.4171155    4.4171155    18190.795    -3495.645    40861.876    17206.153    18566.955    12439.297   -25107.284     86.18194 
   63700    1343.8549   -106.40361    1.2159481   -105.18767     11061.09    4.4229654    4.4229654    4.4229654     11061.09    43711.553    27801.248   -38329.529   -6418.0696    6876.2793   -6800.7254    86.524806 
   63800    1266.9614   -106.34476    1.1463733   -105.19839   -2799.0669    4.4153037    4.4153037    4.4153037   -2799.0669   -4477.7725    35845.765   -39765.193    23172.462    9158.6165    -25210.61    86.075932 
   63900    1361.7381   -106.44047    1.2321293   -105.20834    39875.616    4.3975281    4.3975281    4.3975281    39875.616     31154.33    62420.163    26052.354    9550.7359    4862.0939   -5592.7708    85.040516 
   64000     1553.674   -106.63879    1.4057969   -105.23299    4708.4357    4.3996677    4.3996677    4.3996677    4708.4357    2353.1809    28372.916    -16600.79    4130.0897    9720.1311   -20943.069    85.164704 
   64100    1839.6085   -106.89068    1.6645164   -105.22616   -14132.482    4.4230584    4.4230584    4.4230584   -14132.482   -14420.881   -16900.456   -11076.108    14187.641    1642.0441    3888.0604    86.530265 
   64200    1332.3156    -106.4126    1.2055072   -105.20709   -6680.4806    4.4315042    4.4315042    4.4315042   -6680.4806   -29402.413    66321.103   -56960.132   -9612.0897   -4889.9861   -13873.865    87.026899 
   64300    1544.7148   -106.59244    1.3976904   -105.19475   -19585.805    4.4278496    4.4278496    4.4278496   -19585.805   -17875.519    5205.1272   -46087.022    32436.607   -2997.5298   -19013.312    86.811762 
   64400    1305.5416   -106.37211    1.1812815   -105.19083    21463.362    4.3951743    4.3951743    4.3951743    21463.362   -90.877647    104609.75    -40128.79    5124.6747   -657.88027    2502.3733    84.904031 
   64500    2020.1371   -107.03694    1.8278625   -105.20907   -6964.6487    4.3916116    4.3916116    4.3916116   -6964.6487    3675.0744   -1424.9115   -23144.109   -8433.1824   -2106.5796   -30957.682    84.697727 
   64600    1159.6436    -106.2887    1.0492699   -105.23943   -24557.256    4.4232986    4.4232986    4.4232986   -24557.256   -67991.882    41127.029   -46806.915    5161.3441   -14063.392    12528.869     86.54436 
   64700    1593.1183   -106.65129    1.4414869    -105.2098   -26879.979    4.4212273    4.4212273    4.4212273   -26879.979     4980.245   -27253.708   -58366.473   -1384.7671    3436.1241   -15666.065    86.422838 
   64800    1366.0168   -106.43289    1.2360007   -105.19689    44457.496    4.3915869    4.3915869    4.3915869    44457.496    12472.474    99256.887    21643.128   -4740.6116   -8232.1559   -4037.0874    84.696299 
   64900    1760.9174   -106.81579    1.5933151   -105.22247   -10041.815    4.3981408    4.3981408    4.3981408   -10041.815   -18370.697    28680.352   -40435.099    5295.9225    986.16259   -2456.6896    85.076064 
   65000    1194.3578   -106.30344      1.08068   -105.22276    1145.2102    4.4173567    4.4173567    4.4173567    1145.2102    5956.0048    43257.485    -45777.86   -17404.793    2311.9398   -1731.6574    86.196057 
   65100    2036.0257   -107.05209    1.8422388   -105.20985   -15220.776    4.4079396    4.4079396    4.4079396   -15220.776   -36437.026    -354.4214   -8870.8807    6142.9788   -2722.8723   -5431.2371    85.645962 
   65200    1476.2991   -106.55281    1.3357865   -105.21702    10188.126    4.4060304    4.4060304    4.4060304    10188.126   -1948.3108    45218.904   -12706.213   -2207.1146    1107.6219   -1489.6882    85.534725 
   65300    1315.7311   -106.41054    1.1905011   -105.22004   -3350.4486    4.4093103    4.4093103    4.4093103   -3350.4486    -36288.07    20072.462    6164.2623   -19987.506   -753.14272   -5395.4084    85.725889 
   65400    1816.3521   -106.85503    1.6434735   -105.21155    957.90953    4.4183506    4.4183506    4.4183506    957.90953   -9327.9717   -8424.8214    20626.522   -4600.2221    3750.2267    8087.8044    86.254256 
   65500    1269.0907   -106.36334    1.1482999   -105.21504   -24903.968    4.4165439    4.4165439    4.4165439   -24903.968   -61994.288   -22590.429    9872.8124   -20397.301   -11020.447   -5925.3551    86.148485 
   65600     1832.219   -106.84915    1.6578303   -105.19132    12039.306    4.4012501    4.4012501    4.4012501    12039.306   -9298.6388    30115.346     15301.21   -2326.5053    2753.4119    17493.266    85.256624 
   65700      1269.53   -106.36614    1.1486974   -105.21744   -17127.852    4.4188872    4.4188872    4.4188872   -17127.852   -39632.716   -8992.6433   -2758.1976   -2660.7175   -14225.903    4208.4763    86.285687 
   65800    1841.4031   -106.86475    1.6661402   -105.19861   -25678.287    4.4249163    4.4249163    4.4249163   -25678.287   -70850.089    3331.8788    -9516.649   -7387.4774   -5276.1197    9449.6759     86.63935 
   65900    1529.0376   -106.57789    1.3835053   -105.19438    9214.6101    4.4119788    4.4119788    4.4119788    9214.6101   -3855.5193    11930.765    19568.585   -12634.077    -2889.553     24764.41    85.881626 
   66000    1599.9513   -106.66798    1.4476696   -105.22031     -3392.49     4.422886     4.422886     4.422886     -3392.49   -26550.518    59031.145   -42658.098    -13750.59   -15639.062    11309.417    86.520144 
   66100    1597.7708   -106.64954    1.4456966   -105.20385    -18409.96    4.4367806    4.4367806    4.4367806    -18409.96   -64134.721    29422.067   -20517.225     264.7335   -859.09061   -2254.1371    87.338127 
   66200    1619.5404   -106.65974    1.4653942   -105.19434   -31988.438    4.4303435    4.4303435    4.4303435   -31988.438   -55459.719   -28810.755    -11694.84   -279.17352    6684.5187    36.984088    86.958534 
   66300    1547.8047   -106.57605    1.4004862   -105.17556    32859.961    4.4123168    4.4123168    4.4123168    32859.961   -32478.179    58476.893     72581.17    6137.4896    1365.5795   -31129.338    85.901364 
   66400    1079.0934   -106.17362   0.97638636   -105.19723    23298.247    4.4148877    4.4148877    4.4148877    23298.247   -42950.769    17433.148    95412.361   -8234.9322   -4911.5849   -4378.8054    86.051605 
   66500    1536.4676   -106.59572    1.3902282    -105.2055     8123.616    4.4325346    4.4325346    4.4325346     8123.616   -1465.0852   -23011.437     48847.37    21417.155     9979.111   -2638.0429    87.087617 
   66600    1252.6445   -106.32437    1.1334191   -105.19095    26253.293    4.4294742    4.4294742    4.4294742    26253.293    27650.563    59104.065   -7994.7474   -14796.806    3612.1827   -5686.6591    86.907353 
   66700    1437.8809   -106.49391    1.3010249   -105.19288    -3859.711    4.4200258    4.4200258    4.4200258    -3859.711   -6755.8981   -22097.896    17274.661    15126.073    6686.9698     6596.996    86.352402 
   66800    1329.6101   -106.40839    1.2030592   -105.20533     29353.47    4.4059405    4.4059405    4.4059405     29353.47   -16204.289    68352.742    35911.958    30753.873    1095.3244   -19947.978    85.529488 
   66900    1701.4164   -106.77331    1.5394773   -105.23384    14996.228    4.3999585    4.3999585    4.3999585    14996.228    38692.882    24774.477   -18478.674   -23252.851    1085.1125    19696.166    85.181587 
   67000    1226.6813   -106.36263    1.1099271    -105.2527    17151.257    4.4178818    4.4178818    4.4178818    17151.257   -13754.967    29613.612    35595.127    10755.167    2685.3291    12481.644    86.226799 
   67100    1463.7155   -106.53889    1.3244006   -105.21449   -23389.608     4.444306     4.444306     4.444306   -23389.608   -25013.591   -39815.431   -5339.8008   -12195.852    2242.2827    21096.032    87.783289 
   67200     1034.043   -106.11153   0.93562382   -105.17591   -10940.906    4.4318497    4.4318497    4.4318497   -10940.906   -18171.914   -25418.343     10767.54    36029.128    525.08571    25639.024    87.047254 
   67300    2105.9787    -107.0448    1.9055338   -105.13926    7519.2679     4.398193     4.398193     4.398193    7519.2679    21344.139   -5913.3394     7127.004    4518.6781   -5662.3763   -2401.9447    85.079095 
   67400     1622.161   -106.65252    1.4677653   -105.18476   -18361.115     4.401204     4.401204     4.401204   -18361.115   -21100.877   -34786.304     803.8358    3913.4934   -3998.0028    6800.9327    85.253948 
   67500    1433.6013   -106.52563    1.2971526   -105.22848    7751.8013    4.4314494    4.4314494    4.4314494    7751.8013    1919.5945    31571.068   -10235.259    20341.117    -1272.701    3435.6371    87.023668 
   67600    1507.2512   -106.55727    1.3637926   -105.19348    -34705.75    4.4581339    4.4581339    4.4581339    -34705.75   -48781.397   -42919.092   -12416.761    2435.9283   -4327.5985    2306.2697    88.605222 
   67700    1061.7641    -106.1351   0.96070649   -105.17439   -11673.878    4.4166436    4.4166436    4.4166436   -11673.878    -15779.67    914.65657   -20156.619    30749.257   -207.95413   -1730.1191    86.154321 
   67800    2228.1564   -107.16657    2.0160828   -105.15049     24884.76    4.3776728    4.3776728    4.3776728     24884.76    10288.335    33457.643    30908.301    11315.238   -5705.7493   -4496.3215    83.893806 
   67900    1148.6957   -106.27916     1.039364   -105.23979   -8128.3485    4.4026734    4.4026734    4.4026734   -8128.3485   -29547.819    617.84584    4544.9275    41598.573    10514.271   -1639.7816    85.339368 
   68000    1750.6996   -106.80289    1.5840698   -105.21882   -33615.631    4.4368395    4.4368395    4.4368395   -33615.631   -48045.733   -36978.824   -15822.337   -12430.827   -1133.8253    196.38858    87.341604 
   68100    1296.4916    -106.3719    1.1730928   -105.19881   -25470.872    4.4250854    4.4250854    4.4250854   -25470.872   -45328.112   -36433.555    5349.0499    44484.378    8120.5608    4458.0414     86.64928 
   68200    1838.7815   -106.83652    1.6637682   -105.17275    25255.339    4.3953147    4.3953147    4.3953147    25255.339    4855.1953    922.33224    69988.491   -14198.779     2284.965    14544.523    84.912168 
   68300    1188.3976   -106.28554    1.0752871   -105.21025    2493.0794    4.4067038    4.4067038    4.4067038    2493.0794   -21839.404   -25879.323    55197.965    26079.919   -9611.1869    91.184988    85.573951 
   68400    1399.1664    -106.4854    1.2659952    -105.2194    1690.6353    4.4279463    4.4279463    4.4279463    1690.6353   -26494.489   -22747.987    54314.381   -11732.217   -11009.448    19401.708    86.817454 
   68500    1353.4825   -106.42471    1.2246594   -105.20005   -11424.055    4.4444477    4.4444477    4.4444477   -11424.055    17765.939   -45198.569   -6839.5355    13587.463   -3174.3954    7952.5245    87.791689 
   68600    1908.7305   -106.89799    1.7270595   -105.17093   -29099.393    4.4238939    4.4238939    4.4238939   -29099.393   -33251.036   -47736.676   -6310.4667    2744.4654   -3136.8077   -1504.1537    86.579309 
   68700    1363.1964   -106.39537    1.2334488   -105.16192    36409.628    4.3850077    4.3850077    4.3850077    36409.628    95826.597   -32586.098    45988.385   -6722.4912    7109.2941   -3098.3265     84.31621 
   68800    1533.9013   -106.61956    1.3879062   -105.23166    17303.242    4.4032679    4.4032679    4.4032679    17303.242    42894.219    18071.433   -9055.9249    23985.956   -1963.9676   -5541.0255    85.373941 
   68900    1894.0318    -106.9286    1.7137598   -105.21484   -30539.553      4.43745      4.43745      4.43745   -30539.553   -7170.1648   -55629.598   -28818.897    1273.9467     2746.082    1574.0491    87.377659 
   69000     1108.541   -106.19887    1.0030312   -105.19584   -18822.139    4.4241301    4.4241301    4.4241301   -18822.139   -28580.161   -18117.642   -9768.6127     31880.08    5884.6671   -13937.824    86.593175 
   69100    1738.0648   -106.74401    1.5726376   -105.17137    21648.405    4.4014529    4.4014529    4.4014529    21648.405    -1706.168    50718.567    15932.816    -9090.412    1634.0129    17024.391    85.268413 
   69200    1697.0311   -106.72519    1.5355094   -105.18968   -14980.366    4.3993992    4.3993992    4.3993992   -14980.366   -10248.063   -40585.389    5892.3534    46646.079   -1696.1455    865.50419     85.14911 
   69300    1550.7601    -106.6101    1.4031603   -105.20694   -11439.683    4.4224274    4.4224274    4.4224274   -11439.683   -40671.316    37560.728    -31208.46   -5318.0645     12199.56   -11079.933    86.493236 
   69400    1570.9453   -106.62622    1.4214243    -105.2048   -28845.437    4.4256201    4.4256201    4.4256201   -28845.437    -51322.43   -44400.464     9186.583    17332.029    2327.2348   -1192.3125    86.680698 
   69500    1609.3096   -106.65044    1.4561371    -105.1943    14587.784    4.4011135    4.4011135    4.4011135    14587.784    7093.2921    55960.976   -19290.916     14737.37   -5898.3978   -12327.508    85.248687 
   69600    1332.4102    -106.4134    1.2055928   -105.20781   -9649.0001     4.395326     4.395326     4.395326   -9649.0001   -38697.435   -11280.417    21030.852     16293.19    5395.8029    3317.5375    84.912819 
   69700    1618.8855   -106.69007    1.4648016   -105.22527   -10298.459    4.4019784    4.4019784    4.4019784   -10298.459   -11539.954   -8133.1574   -11222.266    26129.922    2735.6286   -6216.6938     85.29896 
   69800    1674.3239   -106.73626    1.5149635    -105.2213    -20813.54    4.4206757    4.4206757    4.4206757    -20813.54   -30072.091    2426.2709   -34794.799    1247.5552   -3316.3402    -9389.932    86.390498 
   69900    1174.0868   -106.28418    1.0623385   -105.22184   -16405.958    4.4035126    4.4035126    4.4035126   -16405.958   -55855.184   -25764.343    32401.654    41246.277    6126.5722   -11412.244    85.388172 
   70000    1993.6131    -107.0081     1.803863   -105.20424    28507.194    4.3883605    4.3883605    4.3883605    28507.194    36350.072     18796.84    30374.668   -15656.593   -5782.6302    16832.205    84.509764 
   70100    1216.3259   -106.33699    1.1005572   -105.23643   -13885.511    4.4017921    4.4017921    4.4017921   -13885.511   -40502.747   -11643.562    10489.777    37326.901    -10718.19   -2584.1814     85.28813 
   70200     1522.454   -106.61762    1.3775484   -105.24007    8241.6353    4.4137402    4.4137402    4.4137402    8241.6353    5281.1666    40691.339     -21247.6   -12789.008    2127.2111    4671.4275    85.984528 
   70300    1740.5078    -106.8044    1.5748481   -105.22955   -28608.553    4.4153185    4.4153185    4.4153185   -28608.553   -29605.981   -57792.973    1573.2949    34306.528   -12194.848    2916.2057    86.076797 
   70400    1116.8894   -106.23442     1.010585   -105.22384   -1104.3253     4.392119     4.392119     4.392119   -1104.3253   -904.53698   -1956.3606   -452.07828    7354.0806   -6008.4691   -6978.4076    84.727093 
   70500    1670.1632   -106.73135    1.5111988   -105.22015    10339.091     4.390049     4.390049     4.390049    10339.091    25455.794    5822.4773   -260.99883    4322.7548   -3250.2218   -1977.5788    84.607353 
   70600    1515.1743   -106.59358    1.3709616   -105.22262   -25820.366    4.4171924    4.4171924    4.4171924   -25820.366   -62517.419   -20662.412    5718.7343    45645.742    241.55194    6837.1359    86.186443 
   70700    1405.2868    -106.4761     1.271533   -105.20457   -38887.724    4.4177339    4.4177339    4.4177339   -38887.724   -27520.287   -41220.785   -47922.099   -26906.453   -10590.291    540.41955    86.218143 
   70800    1454.7759   -106.51559    1.3163118   -105.19928    25398.985    4.3988656    4.3988656    4.3988656    25398.985    17619.571    36829.642    21747.741    18442.896    4303.4514   -3787.1967    85.118128 
   70900    1448.5195   -106.52262    1.3106508   -105.21197    15789.234    4.3944783    4.3944783    4.3944783    15789.234    242.18856    23782.473    23343.041   -836.50931   -4319.6854    6873.7354    84.863705 
   71000    1721.2724    -106.7842    1.5574434   -105.22676    -22768.36    4.4132629    4.4132629    4.4132629    -22768.36   -22736.408   -31700.097   -13868.574   -12791.871    10674.721    5648.0746    85.956631 
   71100    1372.4942   -106.45614    1.2418616   -105.21428    13248.289    4.4124846    4.4124846    4.4124846    13248.289     25596.79    30567.257   -16419.179    1651.0205   -9401.2027   -7672.8096    85.911166 
   71200    1304.5062   -106.40216    1.1803446   -105.22181    510.33844    4.3948564    4.3948564    4.3948564    510.33844   -29384.059     31278.46   -363.38536   -26504.711   -938.41167   -1685.8394    84.885608 
   71300    1917.4757   -106.95985    1.7349724   -105.22488    14267.391    4.4015875    4.4015875    4.4015875    14267.391    25487.795    13885.078    3429.2999    3369.1323    -454.1485    11.698372    85.276237 
   71400    704.82818   -105.88062   0.63774335   -105.24287   -18275.488    4.4153908    4.4153908    4.4153908   -18275.488    -9406.152   -25512.996   -19907.317   -8010.1048   -17527.426   -566.37192     86.08103 
   71500    2101.5393   -107.12265    1.9015169   -105.22113   -25342.043    4.4017877    4.4017877    4.4017877   -25342.043   -26738.089   -33778.934   -15509.106   -14430.624    14607.605    3275.7484    85.287871 
   71600    1516.4181   -106.59374    1.3720869   -105.22165    20554.359    4.3969673    4.3969673    4.3969673    20554.359    2679.7897        19798    39185.288    9409.5404    -6893.907   -2912.5711    85.007981 
   71700    1178.5747   -106.30197    1.0663991   -105.23557   -18034.955      4.40405      4.40405      4.40405   -18034.955   -13911.095   -18044.027   -22149.743   -29153.095   -984.67053    2998.5956     85.41944 
   71800     1719.033   -106.78801    1.5554172   -105.23259     21353.29    4.4067105    4.4067105    4.4067105     21353.29    23172.681    27710.194    13176.996    19195.764     2990.627    4975.6056    85.574338 
   71900    1538.4127   -106.62639    1.3919881   -105.23441    6532.0593     4.400495     4.400495     4.400495    6532.0593     7201.035    29535.772    -17140.63   -11446.181   -5606.8085   -5650.3879    85.212754 
   72000    1357.9091   -106.46477    1.2286646   -105.23611    1009.3769     4.383522     4.383522     4.383522    1009.3769    9037.7016   -38768.344    32758.773    5081.0377     8072.925   -688.40194    84.230536 
   72100    1377.5347   -106.51486    1.2464224   -105.26844    31298.306    4.4003497    4.4003497    4.4003497    31298.306    38238.634    32121.196    23535.089    25543.926   -2654.8972   -8149.6596     85.20431 
   72200    1997.9744   -107.04569    1.8078092   -105.23788   -40411.162    4.4201903    4.4201903    4.4201903   -40411.162   -39313.004   -47760.545   -34159.939   -2508.2775   -6126.4209    2062.8389    86.362039 
   72300    1197.8484   -106.31228    1.0838384   -105.22845   -1013.3834    4.3805758    4.3805758    4.3805758   -1013.3834    24681.046   -48598.988    20877.792    35064.259    3357.2728    7568.1926    84.060814 
   72400    1820.1272   -106.87998    1.6468894   -105.23309    42230.739    4.3814618    4.3814618    4.3814618    42230.739     49889.62    4926.8986    71875.699   -5066.6726   -3544.8702   -12455.293    84.111831 
   72500    1287.3743   -106.41034    1.1648433    -105.2455   -7010.8027    4.4155044    4.4155044    4.4155044   -7010.8027    38827.974   -59316.284   -544.09805    17405.219    11718.917   -13.728813     86.08767 
   72600    1092.8075    -106.2316   0.98879518    -105.2428   -19709.716    4.4082782    4.4082782    4.4082782   -19709.716    27292.597   -80983.048   -5438.6964   -5190.6209   -15121.236   -2223.7177    85.665704 
   72700    1999.8878   -107.03525    1.8095405   -105.22571   -11988.383    4.3939551    4.3939551    4.3939551   -11988.383   -1132.5431   -40324.787    5492.1826    5112.4742    22613.762    4965.6576    84.833396 
   72800    959.23355   -106.11392   0.86793467   -105.24599    32502.957    4.3951779    4.3951779    4.3951779    32502.957    83662.102   -15641.338    29488.108     24056.56    13040.398   -25409.315    84.904239 
   72900    1440.5902   -106.55115    1.3034762   -105.24767   -13156.088    4.4048989    4.4048989    4.4048989   -13156.088    19136.854   -54958.989   -3646.1288   -12959.889    8364.4246    3348.3478    85.468845 
   73000    1543.5386   -106.63609    1.3966261   -105.23947    13795.727    4.4173886    4.4173886    4.4173886    13795.727    41712.919   -43867.272    43541.533    10226.527    6721.2612   -3186.0591    86.197929 
   73100    948.79579   -106.09001   0.85849037   -105.23152    19280.981     4.417597     4.417597     4.417597    19280.981    40005.867    -31745.21    49582.287   -16139.298    12463.341   -2793.9463    86.210125 
   73200    1482.0454   -106.55187    1.3409858   -105.21088   -378.51601    4.4055155    4.4055155    4.4055155   -378.51601    -26982.08   -25225.666    51072.198   -2835.0046   -22919.755   -3771.0311    85.504742 
   73300    1122.6944   -106.22748    1.0158375   -105.21165    34532.777    4.3957271    4.3957271    4.3957271    34532.777    104315.92   -48481.229    47763.643    12175.927    14706.321   -816.02125    84.936068 
   73400    1576.0994   -106.67115    1.4260879   -105.24506   -17445.185    4.4110748    4.4110748    4.4110748   -17445.185   -25959.031   -33190.363      6813.84   -18385.781   -22496.504    5471.4812    85.828845 
   73500    1820.2318   -106.88112     1.646984   -105.23413   -32631.922    4.4294286    4.4294286    4.4294286   -32631.922   -11340.363   -64706.591   -21848.812    1900.2374   -20458.155   -15569.425    86.904669 
   73600    1579.5258   -106.64168    1.4291881    -105.2125   -18691.613    4.4156922    4.4156922    4.4156922   -18691.613    33359.055   -67476.719   -21957.174   -7984.4754   -5112.9196    10277.166     86.09866 
   73700    1852.3431   -106.88797     1.676039   -105.21193    8030.5754    4.3986234    4.3986234    4.3986234    8030.5754   -19811.753   -3336.5158    47239.995    2393.1277   -21683.837   -97.394686    85.104075 
   73800     1481.745   -106.57797     1.340714   -105.23726    7232.6493    4.4081044    4.4081044    4.4081044    7232.6493    63496.895   -43085.555    1286.6077   -6425.2942   -4388.5738   -7178.0067     85.65557 
   73900    1293.0235   -106.39732    1.1699549   -105.22736   -718.48275    4.4256962    4.4256962    4.4256962   -718.48275    18090.234    -61307.95    41062.268     12329.71    18679.463    14400.014    86.685167 
   74000    1067.3639   -106.18016   0.96577332   -105.21438    25807.745     4.412356     4.412356     4.412356    25807.745    63691.416   -21137.858    34869.677    2928.9414   -6325.3766    -5099.679    85.903656 
   74100     1483.843   -106.55349    1.3426124   -105.21088   -1696.5178    4.3906761    4.3906761    4.3906761   -1696.5178    25349.015   -48071.813    17633.244   -6909.5505    6182.1943    1075.0733    84.643616 
   74200    1230.0245   -106.34915     1.112952    -105.2362    31281.719    4.3928278    4.3928278    4.3928278    31281.719    62595.868   -19696.139    50945.428    23116.606   -10126.026   -2797.7684    84.768117 
   74300      1442.99   -106.54824    1.3056477   -105.24259   -19743.425    4.4266584    4.4266584    4.4266584   -19743.425    -32339.35    -14575.67   -12315.255   -10273.345   -16256.493    1636.4596    86.741722 
   74400    1626.6697   -106.67217     1.471845   -105.20032   -9887.4913    4.4257629    4.4257629    4.4257629   -9887.4913    16326.671   -64296.228    18307.082    21700.306   -9728.3504     7549.446     86.68909 
   74500    1084.5622    -106.1528   0.98133463   -105.17147    53370.094    4.3984334    4.3984334    4.3984334    53370.094    93051.854    25840.954    41217.474    4299.7265   -25735.744    5818.6389    85.093045 
   74600     1388.288   -106.45043    1.2561522   -105.19428    15040.181    4.4056796    4.4056796    4.4056796    15040.181    59097.256   -45007.416    31030.702    24272.409   -20123.375    12239.907    85.514296 
   74700    1601.1598   -106.65583    1.4487631   -105.20707    1174.3518      4.41823      4.41823      4.41823    1174.3518    35555.119    -21357.88   -10674.183    10145.372   -11460.721   -1200.3549    86.247192 
   74800    1134.6315   -106.24008    1.0266384   -105.21344   -7624.6506    4.4160363    4.4160363    4.4160363   -7624.6506   -41448.359   -5791.3319    24365.739    14211.937   -1854.4487     3792.568    86.118785 
   74900    1959.4544   -106.97047    1.7729555   -105.19751   -340.90565    4.3960013    4.3960013    4.3960013   -340.90565    26571.683   -46474.603    18880.203    8119.0036    13470.596   -82.705407    84.951968 
   75000    1520.0604   -106.59358    1.3753826   -105.21819    17509.613    4.3882159    4.3882159    4.3882159    17509.613    3328.2057    20790.923     28409.71   -338.57966    14590.289     721.4416    84.501413 
   75100    1657.3647   -106.73725    1.4996184   -105.23763   -11524.313    4.4171702    4.4171702    4.4171702   -11524.313   -39625.809   -26283.013    31335.884    17606.011    15952.368    7044.1749     86.18514 
   75200    1579.1614   -106.62655    1.4288585   -105.19769   -26074.962    4.4403995    4.4403995    4.4403995   -26074.962   -44288.922   -27252.577   -6683.3863   -10167.343    11531.231    10940.048    87.552013 
   75300    1634.3728   -106.64231    1.4788149    -105.1635    2181.0064    4.4261786    4.4261786    4.4261786    2181.0064   -11190.382    6743.9695    10989.432   -5440.0556    6314.6862    14692.128    86.713515 
   75400    1274.1313   -106.31486    1.1528607     -105.162    4478.3468    4.3991493    4.3991493    4.3991493    4478.3468    19954.921    5276.5206   -11796.401   -26046.594   -1732.4906    2722.6675    85.134602 
   75500    1518.0313   -106.56044    1.3735466   -105.18689     4635.983    4.3852915    4.3852915    4.3852915     4635.983    43565.137    7427.8628   -37085.051    10870.268   -8092.5372    1550.3506    84.332581 
   75600    1740.4438   -106.79132    1.5747901   -105.21653   -3798.3216    4.3965578    4.3965578    4.3965578   -3798.3216    23680.514   -25424.005   -9651.4735   -20063.202     8905.369   -3189.9241    84.984235 
   75700    1383.7974   -106.48187     1.252089   -105.22978   -17705.104    4.4155939    4.4155939    4.4155939   -17705.104   -14856.274   -29772.506   -8486.5332    9078.8983   -14430.354    5027.6621     86.09291 
   75800    1700.5611   -106.74951    1.5387035    -105.2108   -12067.038    4.4086703    4.4086703    4.4086703   -12067.038    19227.811   -43893.886    -11535.04   -172.03441    8768.4354    2419.6342    85.688565 
   75900    1539.9987   -106.60646    1.3934232   -105.21303   -6535.0079    4.3965304    4.3965304    4.3965304   -6535.0079    44714.827   -57585.054   -6734.7967   -33673.455   -18629.532   -5700.9623    84.982644 
   76000    1511.9623   -106.59109    1.3680552   -105.22303    14010.603    4.3878254    4.3878254    4.3878254    14010.603    22551.899   -10415.146    29895.057    23347.072     8103.293    10111.573    84.478853 
   76100    1505.9849   -106.58837    1.3626468   -105.22572     16209.83    4.3999644    4.3999644    4.3999644     16209.83    91157.069   -35390.807     -7136.77   -11813.644    14308.149   -2808.2244    85.181935 
   76200    1320.0995   -106.42597    1.1944538   -105.23152   -10922.912     4.411757     4.411757     4.411757   -10922.912   -558.18751   -68959.527    36748.977    9383.1169    13117.884   -8804.4228    85.868673 
   76300    1567.0206   -106.63816    1.4178731   -105.22029    30808.215    4.4084174    4.4084174    4.4084174    30808.215    83659.382   -4586.8161    13352.079     9711.113    8497.1123    -4543.618    85.673817 
   76400    1363.5883   -106.44028    1.2338033   -105.20647    8058.0388    4.4037257    4.4037257    4.4037257    8058.0388    75599.938   -39265.115   -12160.706    -5991.432   -1164.4959   -13389.191     85.40057 
   76500    1387.4286   -106.46042    1.2553746   -105.20504    4132.6725    4.3913631    4.3913631    4.3913631    4132.6725     6400.831   -35710.453    41707.639     20441.54   -6583.9075    3250.3557    84.683353 
   76600    1333.7453    -106.4313    1.2068008    -105.2245     29820.77    4.3888238    4.3888238    4.3888238     29820.77    85468.115   -13616.036     17610.23   -20847.902   -9771.0794   -18077.386    84.536535 
   76700    1632.6192     -106.702    1.4772281   -105.22477    12766.158    4.4002432    4.4002432    4.4002432    12766.158    6790.8155   -21005.234    52512.893   -3936.5377   -10157.538    8085.7681    85.198123 
   76800    1176.8835   -106.28276     1.064869   -105.21789   -1457.2843    4.4039455    4.4039455    4.4039455   -1457.2843    30653.888   -35334.927    309.18611   -8376.4395   -3130.7006   -15789.271    85.413361 
   76900     1534.497   -106.59657    1.3884451   -105.20812   -5907.9563    4.4004513    4.4004513    4.4004513   -5907.9563    30102.161   -42131.519   -5694.5104   -9737.7655     2989.139    11158.621    85.210214 
   77000    1978.3263   -106.98669    1.7900312   -105.19666    13511.566    4.3828537    4.3828537    4.3828537    13511.566    23305.694   -3707.2048    20936.208   -1500.0746   -13876.672   -1320.2727    84.192021 
   77100    1122.7592   -106.24167    1.0158961   -105.22577    -26492.66    4.3874993    4.3874993    4.3874993    -26492.66    18282.451   -50025.271    -47735.16   -18838.998    18990.352   -4985.7732    84.460023 
   77200    2017.2694   -107.04784    1.8252677   -105.22258   -1739.8411    4.3974394    4.3974394    4.3974394   -1739.8411    19412.288   -18142.362     -6489.45   -3639.1988   -1678.9213    10609.115    85.035364 
   77300    1422.6916   -106.51844    1.2872813   -105.23116   -1642.0082    4.3886898    4.3886898    4.3886898   -1642.0082    18718.694   -20321.669     -3323.05   -8790.9074    768.01929    -25900.39     84.52879 
   77400    1235.0155   -106.34943     1.117468   -105.23196   -15693.349    4.3873477    4.3873477    4.3873477   -15693.349    360.68943   -61027.496     13586.76   -6402.0156   -4209.7602    16439.893    84.451266 
   77500    1349.1647   -106.45209    1.2207525   -105.23134    15905.742    4.3871978    4.3871978    4.3871978    15905.742    37818.181   -27918.446     37817.49    9857.3847   -17863.821   -11515.441    84.442611 
   77600    1585.1619    -106.6723    1.4342878   -105.23801   -16681.551    4.3927269    4.3927269    4.3927269   -16681.551   -13633.155   -35472.769   -938.72746   -17400.849    3493.5117   -1669.5395    84.762277 
   77700    1262.1374   -106.37989    1.1420084   -105.23789   -12010.196    4.3972842    4.3972842    4.3972842   -12010.196   -14260.858   -58400.053    36630.324    37675.396    9716.2008    6107.1448    85.026364 
   77800    2026.5928   -107.05667    1.8337037   -105.22297   -7509.1126    4.3803657    4.3803657    4.3803657   -7509.1126    8356.6504    -29315.32   -1568.6688   -16472.272   -8602.0715   -4416.9536     84.04872 
   77900    1110.5821   -106.25262     1.004878   -105.24774   -6431.4912    4.3830495    4.3830495    4.3830495   -6431.4912   -33133.786   -56466.111    70305.424    27447.293    13330.186    6671.6118      84.2033 
   78000    1811.9168   -106.88269    1.6394604   -105.24323   -11884.323    4.3985809    4.3985809    4.3985809   -11884.323   -11259.597   -47531.363    23137.989    16615.146   -6143.0945    1739.6789    85.101605 
   78100    1328.6519   -106.43328    1.2021922   -105.23109    230.22787    4.4000384    4.4000384    4.4000384    230.22787    -6972.081   -58387.786     66050.55    5269.6331    1369.3698    7440.0974    85.186231 
   78200    1321.1321   -106.43141    1.1953881   -105.23602    -16515.36    4.3856749    4.3856749    4.3856749    -16515.36   -31146.398   -68939.553     50539.87     17967.59   -15762.041    18072.033    84.354702 
   78300     1961.832   -107.01049    1.7751069   -105.23538    30665.753    4.3820755    4.3820755    4.3820755    30665.753     71641.28   -29162.033    49518.012   -9347.0183   -1232.3404   -9278.5413    84.147178 
   78400    1030.7175   -106.19549   0.93261481   -105.26288    1682.3152    4.3993516    4.3993516    4.3993516    1682.3152    12336.267    -79766.23    72476.908    27387.378     2744.928    4940.8534    85.146348 
   78500    1625.5621   -106.71681    1.4708427   -105.24597   -38786.209    4.4237204    4.4237204    4.4237204   -38786.209   -18081.939   -85357.727   -12918.961    -29263.55   -4603.0842   -264.26244    86.569123 
   78600    1734.0604   -106.78343    1.5690143   -105.21442     9043.344    4.4090171    4.4090171    4.4090171     9043.344    33068.845   -64995.502    59056.689    16669.851    5484.3703   -10670.558    85.708789 
   78700    998.31597   -106.11881   0.90329727   -105.21551   -2453.0573    4.3884696    4.3884696    4.3884696   -2453.0573    3713.9867   -39044.336    27971.178   -7358.9938    24934.922    12848.247    84.516069 
   78800    1600.1957    -106.6844    1.4478907   -105.23651    9108.0963    4.3929674    4.3929674    4.3929674    9108.0963    37854.472   -16209.029    5678.8461   -6905.8356   -7689.6478   -14309.797    84.776201 
   78900    1765.1778   -106.84003      1.59717   -105.24286   -5463.3357    4.4141751    4.4141751    4.4141751   -5463.3357   -33313.241   -43608.158    60531.392     259.0668    11489.313    16783.156    86.009947 
   79000    1044.9504   -106.18197   0.94549307   -105.23648   -34108.851    4.4194088    4.4194088    4.4194088   -34108.851   -36456.176   -64603.934   -1266.4413   -13960.458     14947.25   -22493.841    86.316246 
   79100    2172.5883   -107.16964    1.9658035   -105.20383   -7733.8409    4.3946443    4.3946443    4.3946443   -7733.8409    524.94085    -14734.78   -8991.6832    6806.8195     -13733.5   -9849.5022    84.873317 
   79200    990.67116   -106.12602   0.89638008   -105.22964        24297     4.385886     4.385886     4.385886        24297   -16405.998    4904.5376     84392.46   -18965.584    19095.995    8702.1439    84.366888 
   79300    1470.5285   -106.58071    1.3305651   -105.25014   -14123.485    4.4004475    4.4004475    4.4004475   -14123.485   -21836.649   -40317.661    19783.854    13251.759   -2631.3951   -28037.521    85.209993 
   79400    1684.1555   -106.75162    1.5238593   -105.22776   -23168.528    4.4260461    4.4260461    4.4260461   -23168.528   -55974.305   -51143.849    37612.571   -5863.8565   -5828.8957    26904.988    86.705733 
   79500    1221.9253   -106.31514    1.1056236   -105.20951   -28329.859    4.4154029    4.4154029    4.4154029   -28329.859    -52968.83   -17855.233   -14165.514    -9588.061    15129.253   -15220.954    86.081736 
   79600    1507.1127   -106.55096    1.3636672    -105.1873     27408.48    4.3848216    4.3848216    4.3848216     27408.48    17235.833    21854.984    43134.623    13711.592   -13686.118   -7053.2168    84.305479 
   79700    1886.8905   -106.92909    1.7072981   -105.22179   -5094.4839    4.3974442    4.3974442    4.3974442   -5094.4839    16107.241   -18052.541   -13338.151   -7241.1479   -6237.2455   -6938.2064    85.035647 
   79800     1504.682   -106.59531    1.3614679   -105.23384   -31871.448    4.4268148    4.4268148    4.4268148   -31871.448   -49273.411   -45492.374   -848.55987    8035.6549    7424.9479    -21042.67    86.750916 
   79900     1911.759   -106.92521    1.7297997   -105.19541   -10717.948    4.4245479    4.4245479    4.4245479   -10717.948   -12171.271   -55758.058    35775.484    -3382.299   -5965.0011   -157.59093    86.617713 
   80000    1251.0748   -106.33426    1.1319988   -105.20227   -11202.731     4.395398     4.395398     4.395398   -11202.731    36462.923   -60000.354    -10070.76    6802.5167    13535.922   -15578.564    84.916993 
   80100    1665.0359   -106.72155    1.5065595   -105.21499     24328.84    4.3909155    4.3909155    4.3909155     24328.84    14996.461   -34483.829    92473.889     12513.43   -26789.755    12314.965     84.65746 
   80200     1464.004   -106.54944    1.3246616   -105.22478   -2300.8513    4.4084902    4.4084902    4.4084902   -2300.8513    64992.262   -27673.289   -44221.526   -1542.1976   -1019.4467   -16530.639    85.678064 
   80300     1002.676   -106.14598   0.90724228   -105.23874    1950.6625    4.4138551    4.4138551    4.4138551    1950.6625    35068.042   -39881.432    10665.378    9479.1082    8098.7848    4132.3901     85.99124 
   80400    1908.7767   -106.95129    1.7271013   -105.22419   -9570.4038    4.4150285    4.4150285    4.4150285   -9570.4038    24073.394   -45565.747   -7218.8589     -26687.5   -21011.704   -2258.7213    86.059842 
   80500     1660.826   -106.72668    1.5027503   -105.22393    50.622514    4.4002767    4.4002767    4.4002767    50.622514    20642.422    -40785.58    20295.026     17519.51    17650.658   -6147.6308    85.200073 
   80600    1361.1024   -106.46447    1.2315541   -105.23291   -8135.2109    4.4022063    4.4022063    4.4022063   -8135.2109   -13621.618   -48976.666    38192.652    3416.5032   -8180.7507    1481.8532    85.312209 
   80700    1753.1209   -106.81103    1.5862606   -105.22477    -12301.07    4.4253662    4.4253662    4.4253662    -12301.07   -10937.411   -32198.328      6232.53    9.1339556    11257.484   -14807.235    86.665777 
   80800    1350.6093   -106.43853    1.2220597   -105.21647   -51556.292    4.4242001    4.4242001    4.4242001   -51556.292   -28434.669   -86853.529   -39380.676    37735.851    10519.803    19511.083    86.597286 
   80900    1520.5585   -106.56792    1.3758333   -105.19209    53207.559    4.3821903    4.3821903    4.3821903    53207.559    128747.49   -13758.337    44633.527   -5767.5386   -9811.7732    3815.9775    84.153796 
   81000    1468.3667   -106.57145    1.3286091   -105.24284    -3589.514    4.3927269    4.3927269    4.3927269    -3589.514    51589.685   -20013.569   -42344.659    28281.507    24187.512    16283.394    84.762275 
   81100    1627.4208    -106.7106    1.4725245   -105.23808   -34701.116    4.4272417    4.4272417    4.4272417   -34701.116   -14459.916   -62564.607   -27078.826    4572.3214    9503.9262    6773.7279    86.776016 
   81200    1354.4638   -106.44844    1.2255473   -105.22289     23604.77    4.4193332    4.4193332    4.4193332     23604.77    108841.28   -33693.285   -4333.6823     4418.219     15400.47    2969.4028    86.311811 
   81300    1266.2346   -106.36291    1.1457157    -105.2172    29862.495    4.3937719    4.3937719    4.3937719    29862.495    70927.955   -8784.6595     27444.19    35922.021    25140.064    2039.5339    84.822784 
   81400    1795.9427   -106.85742    1.6250067   -105.23241   -15958.637    4.4004874    4.4004874    4.4004874   -15958.637   -28109.657    -12516.79   -7249.4643   -18364.575   -11027.864   -10272.754    85.212309 
   81500    1392.4531    -106.5076    1.2599208   -105.24768    15877.493    4.4090955    4.4090955    4.4090955    15877.493    115113.32   -25246.469   -42234.374   -2440.6264   -5273.2716    2147.9106     85.71336 
   81600    1305.1559   -106.43619    1.1809325   -105.25526   -21525.596    4.4280112    4.4280112    4.4280112   -21525.596    30415.727   -63482.319   -31510.197   -2954.5758    7083.2786    4340.4257    86.821272 
   81700    1587.7073   -106.65926    1.4365909   -105.22267   -33682.591    4.4243674    4.4243674    4.4243674   -33682.591    17373.089   -55828.366   -62592.495   -26774.277   -41761.117    13949.248    86.607112 
   81800    1823.1798   -106.85402    1.6496514   -105.20437   -30785.461    4.4025387    4.4025387    4.4025387   -30785.461   -8018.0295   -56153.654     -28184.7    6125.4794   -2647.4007   -11217.525     85.33153 
   81900     1192.671   -106.30849    1.0791538   -105.22933    1230.8663    4.4022155    4.4022155    4.4022155    1230.8663    58029.352   -15668.903    -38667.85   -25621.182   -11776.016    5035.4144    85.312743 
   82000    1614.1671   -106.70182    1.4605323   -105.24129   -13845.028     4.421981     4.421981     4.421981   -13845.028    44977.847   -22037.179   -64475.753    2350.1688   -19862.522   -5769.6793    86.467043 
   82100    2116.5435   -107.13649     1.915093    -105.2214   -40601.433    4.4326518    4.4326518    4.4326518   -40601.433   -34152.948   -36921.359   -50729.993   -4609.0535    4125.9906     4325.728    87.094527 
   82200    966.75115   -106.09738   0.87473676   -105.22264     5445.023    4.4099771    4.4099771    4.4099771     5445.023    76301.182    -26499.08   -33467.033   -1867.4498   -35909.181   -14588.175    85.764785 
   82300    1916.7474   -106.95573    1.7343133   -105.22142    24746.573    4.3940162    4.3940162    4.3940162    24746.573    84412.149    9945.4641   -20117.893    17224.605    3669.5241    3848.5761    84.836934 
   82400    1358.1537   -106.47238     1.228886    -105.2435    9331.0964    4.3950991    4.3950991    4.3950991    9331.0964     28860.42    44704.145   -45571.275   -3735.2572   -15909.047   -5817.5594     84.89967 
   82500    1056.6764   -106.22169   0.95610301   -105.26559   -11111.506    4.4237696    4.4237696    4.4237696   -11111.506    29309.267   -1090.6106   -61553.175   -1908.9569   -5575.0817   -6922.5404    86.572007 
   82600     1749.942   -106.82064    1.5833843   -105.23726   -1332.0831    4.4264304    4.4264304    4.4264304   -1332.0831    37994.485   -26523.973   -15466.761    5012.3116    12203.145    752.13258    86.728315 
   82700    1470.7485   -106.56191    1.3307642   -105.23115   -3315.9492    4.4016742    4.4016742    4.4016742   -3315.9492   -29915.926    7890.8043    12077.274   -5927.8223   -26238.518   -6582.7749    85.281274 
   82800    971.02584    -106.1125   0.87860459   -105.23389    69510.403    4.3997798    4.3997798    4.3997798    69510.403    155284.29    23540.426     29706.49   -25325.978    26642.442    10276.134    85.171211 
   82900    1281.1551   -106.39726     1.159216   -105.23805   -21941.136    4.4334847    4.4334847    4.4334847   -21941.136   -37359.446   -8792.6316    -19671.33   -2117.2891   -12441.846   -4287.4774    87.143631 
   83000    1838.2531    -106.8602      1.66329   -105.19691   -17923.757    4.4205711    4.4205711    4.4205711   -17923.757   -15087.929   -22558.928   -16124.415    7577.4056   -5518.3498   -10345.717    86.384366 
   83100    1250.5946   -106.31767    1.1315643   -105.18611     42589.91    4.3965705    4.3965705    4.3965705     42589.91    46583.773    60328.586    20857.371   -7189.4771    11138.732     9978.039    84.984968 
   83200    1202.9763   -106.30909    1.0884782   -105.22061    9636.0975    4.4110916    4.4110916    4.4110916    9636.0975   -2985.9532    -13440.25    45334.496   -27384.923   -18364.693   -13394.284    85.829824 
   83300    1375.2619   -106.46095    1.2443659   -105.21658    14211.111    4.4326836    4.4326836    4.4326836    14211.111   -55826.104    99355.849   -896.41274   -5438.0807    11370.008    17865.604    87.096399 
   83400     1510.383   -106.58617    1.3666263   -105.21954   -19910.671    4.4131121    4.4131121    4.4131121   -19910.671    3156.3111    -12323.57   -50564.755    1460.1554   -10855.037    144.72804    85.947821 
   83500    1796.8305   -106.83965      1.62581   -105.21384    24934.461    4.4079548    4.4079548    4.4079548    24934.461     9573.465    53917.124    11312.793   -2010.6929     1086.099   -6183.2649     85.64685 
   83600    1262.7528   -106.35171    1.1425653   -105.20914   -17048.138    4.4283775    4.4283775    4.4283775   -17048.138    2694.4321   -21291.644   -32547.203    10574.126   -1915.4331   -29897.952    86.842819 
   83700    1037.5504   -106.13041   0.93879742   -105.19161    1112.1875    4.4186647    4.4186647    4.4186647    1112.1875    41415.168   -8260.6905   -29817.915   -4838.4797   -2275.3129   -26795.893    86.272652 
   83800    1744.4369   -106.75823    1.5784032   -105.17983    8416.1105    4.4159787    4.4159787    4.4159787    8416.1105    19525.993   -8699.9418    14422.281    10229.893   -2249.9007    15565.826    86.115418 
   83900     946.4922   -106.04895   0.85640603   -105.19254   -38664.755    4.4203161    4.4203161    4.4203161   -38664.755   -532.29512   -52286.756   -63175.215    6736.8778   -32133.373   -21206.324    86.369413 
   84000    1744.8588   -106.76389    1.5787849    -105.1851    11241.101    4.4024084    4.4024084    4.4024084    11241.101    75310.813   -21794.806   -19792.703   -12357.247    33685.404    8673.6044    85.323958 
   84100    1424.8585    -106.5208    1.2892419   -105.23156    15193.975    4.4082472    4.4082472    4.4082472    15193.975    17377.083   -5960.6484     34165.49   -3157.2008   -1423.3627   -22351.597    85.663895 
   84200    1578.2595   -106.64654    1.4280424    -105.2185   -14323.557    4.4382091    4.4382091    4.4382091   -14323.557    10486.115   -24339.333   -29117.453   -9237.1664   -2235.1674    14104.959    87.422513 
   84300    1404.3129   -106.46561    1.2706518   -105.19496   -18660.282    4.4164011    4.4164011    4.4164011   -18660.282   -37800.926   -37731.007    19551.088   -3896.7397     21195.42   -13797.997    86.140129 
   84400    1923.8813    -106.9197    1.7407682   -105.17893    15357.589    4.3842381    4.3842381    4.3842381    15357.589    20046.424    6407.3053    19619.036    5126.4175   -36590.016    6236.6157    84.271826 
   84500    1196.1655   -106.30452    1.0823157   -105.22221    -14086.33    4.4068724    4.4068724    4.4068724    -14086.33   -13310.415   -40817.908    11869.332   -167.93537        18213   -1048.4897    85.583771 
   84600    1705.2263   -106.74565    1.5429246   -105.20273   -48334.176    4.4239551    4.4239551    4.4239551   -48334.176   -53650.102   -63659.313   -27693.115    11705.039   -8671.2803   -24636.032    86.582902 
   84700    1593.1878   -106.64571    1.4415498   -105.20416    16230.013    4.4067569    4.4067569    4.4067569    16230.013   -13907.947   -8306.2381    70904.225   -2709.5463   -10074.377    7817.1223    85.577046 
   84800    1354.2912   -106.44377    1.2253911   -105.21838   -26447.192    4.3902206    4.3902206    4.3902206   -26447.192   -33742.141   -49537.778    3938.3437    25848.176    26764.849   -16715.624    84.617271 
   84900    1844.8883   -106.89842    1.6692937   -105.22912     9394.684    4.3905399    4.3905399    4.3905399     9394.684    9689.9583   -31119.797    49613.891   -1685.6735   -12416.165    9309.7308    84.635739 
   85000    1169.9773   -106.32299      1.05862   -105.26437   -18852.187    4.4076752    4.4076752    4.4076752   -18852.187   -31846.514   -26575.744    1865.6977    4763.3785     9107.817   -14461.967    85.630554 
   85100    1359.4602   -106.48541    1.2300682   -105.25534    -22406.73    4.4138107    4.4138107    4.4138107    -22406.73   -10912.603   -67721.497    11413.911    15407.066     7369.452    11110.255    85.988648 
   85200    1838.9686    -106.8986    1.6639374   -105.23467    19728.901    4.3908392    4.3908392    4.3908392    19728.901   -12972.511   -8160.9025    80320.117   -362.06252   -4156.8208    4299.2456    84.653049 
   85300    816.40073   -105.99355   0.73869654   -105.25485    14590.449    4.3846484    4.3846484    4.3846484    14590.449   -22479.468    16622.719    49628.095    16674.418     28377.76   -11343.265    84.295485 
   85400    1755.4338   -106.83849    1.5883534   -105.25013    1564.9104    4.4031398    4.4031398    4.4031398    1564.9104   -14751.522   -8993.1538    28439.407   -8234.9406     12550.14    11717.135    85.366489 
   85500    1525.4873   -106.61815    1.3802929   -105.23786   -39959.107    4.4232127    4.4232127    4.4232127   -39959.107    -72444.16   -41356.008    -6077.152    11573.961    1403.3338   -3011.8638    86.539321 
   85600    1715.0432   -106.75942    1.5518071   -105.20761   -31678.099    4.4149218    4.4149218    4.4149218   -31678.099   -36844.876   -27759.715   -30429.704      6793.72    19080.445   -9125.1626    86.053602 
   85700    1598.4555   -106.63857    1.4463162   -105.19225    16302.781    4.3785469    4.3785469    4.3785469    16302.781    26657.653     -28660.2    50910.889     -5614.71    3205.7034    4382.1427    83.944071 
   85800    887.67443   -106.04254   0.80318648   -105.23935     20273.28    4.3757945    4.3757945    4.3757945     20273.28   -14601.392   -28735.392    104156.62    22095.531    21771.358   -9526.2505    83.785863 
   85900    1639.3531   -106.75024    1.4833212   -105.26692    23884.422    4.4024408    4.4024408    4.4024408    23884.422   -298.43306    -20817.27    92768.971   -8243.6744    -19211.62    9394.5145    85.325839 
   86000    1419.7688   -106.54265    1.2846367   -105.25801   -26653.036     4.422531     4.422531     4.422531   -26653.036   -27293.679     -54346.3    1680.8712    7721.4479   -689.20055   -5583.1215    86.499311 
   86100    1592.2954   -106.66491    1.4407423   -105.22417   -12501.316    4.4073511    4.4073511    4.4073511   -12501.316   -31642.662    -17714.25    11852.965   -4578.3715     12008.82   -1174.7539    85.611668 
   86200     1582.148   -106.63922    1.4315608   -105.20766    26292.232    4.3790717    4.3790717    4.3790717    26292.232    2768.2737   -21458.304    97566.726    3043.6711   -16524.646   -3108.7645    83.974257 
   86300    1808.5231   -106.88719    1.6363897    -105.2508   -21032.277    4.3907303    4.3907303    4.3907303   -21032.277   -126.65618   -34811.353   -28158.823   -4422.5024    12966.398   -27661.664    84.646751 
   86400    1670.2159   -106.77323    1.5112464   -105.26198    530.73933    4.4100256    4.4100256    4.4100256    530.73933   -54684.004   -6894.0783      63170.3    1623.7804    463.74798   -3514.9985    85.767613 
   86500    1252.0442   -106.38287    1.1328759   -105.24999   -18371.725    4.4160311    4.4160311    4.4160311   -18371.725   -35642.279   -11189.725   -8283.1723   -1505.8479   -12855.405   -19096.881    86.118484 
   86600    1276.1669    -106.3802    1.1547027    -105.2255    27627.968     4.402596     4.402596     4.402596    27627.968    2551.3903   -3480.9402    83813.455   -2595.3248    17502.008   -6305.5422    85.334863 
   86700    1958.3994   -106.99577    1.7720009   -105.22377   -357.63522    4.3945908    4.3945908    4.3945908   -357.63522   -8147.6681   -17634.144    24708.906    7639.2223   -8875.4617   -5335.7137     84.87022 
   86800    1117.4292   -106.25792    1.0110734   -105.24685    917.06165    4.3913589    4.3913589    4.3913589    917.06165   -6576.9797   -3635.2921    12963.457   -402.91161    3840.3335   -23651.701    84.683109 
   86900    1764.1477   -106.85448    1.5962379   -105.25824   -2051.6255    4.4130101    4.4130101    4.4130101   -2051.6255   -7015.7332     8915.827   -8054.9703   -1677.0414    18202.498     18262.39    85.941863 
   87000    1295.1427   -106.40521    1.1718723   -105.23333   -20328.612     4.424126     4.424126     4.424126   -20328.612    9597.8715    -73395.86    2812.1514   -255.98081   -11080.796   -34344.949    86.592933 
   87100    1328.7788   -106.42814     1.202307   -105.22583    978.06606     4.386437     4.386437     4.386437    978.06606    7756.5013   -31203.732    26381.429   -5309.9971    22043.432    18254.708    84.398687 
   87200    1768.7695   -106.84115    1.6004198   -105.24073    10788.542    4.3757009    4.3757009    4.3757009    10788.542    24919.428   -14659.697    22105.895    7843.6811    2155.5427    -13070.05    83.780487 
   87300     1628.639   -106.74553    1.4736268    -105.2719    -8533.517    4.4120048    4.4120048    4.4120048    -8533.517    23897.062   -63579.539    14081.926    3007.2022    1658.7854   -7346.9048    85.883144 
   87400    1266.3849   -106.38474    1.1458517   -105.23889   -40837.522    4.4202466    4.4202466    4.4202466   -40837.522   -42733.255   -32323.342   -47455.968   -4612.3522    11508.009    22662.822    86.365342 
   87500    1933.8431   -106.95224    1.7497819   -105.20246    14568.937     4.396636     4.396636     4.396636    14568.937    48248.598   -10857.812    6316.0238    4747.0677   -2712.5565   -26628.901    84.988769 
   87600    820.86969   -105.97872   0.74274014   -105.23598    11713.251    4.3952024    4.3952024    4.3952024    11713.251   -15505.938   -12419.929     63065.62    7586.2278    13338.798    14298.168    84.905658 
   87700    1799.9001   -106.87547    1.6285875   -105.24688   -18119.139    4.3911322    4.3911322    4.3911322   -18119.139    -44938.85   -9850.7226    432.15704   -4295.6321    13395.707   -14796.028    84.669994 
   87800      1460.06   -106.57591     1.321093   -105.25482    17742.441    4.4036738    4.4036738    4.4036738    17742.441     4938.843   -19333.276    67621.755    12097.248    819.59612    10839.775    85.397553 
   87900    1460.0726   -106.55772    1.3211044   -105.23661   -56831.435    4.4319689    4.4319689    4.4319689   -56831.435   -55910.452   -38289.936   -76293.917   -11794.572    13002.225    4109.7933    87.054278 
   88000     1659.758   -106.69916     1.501784   -105.19737    6736.6998    4.4071607    4.4071607    4.4071607    6736.6998   -27151.822   -15958.861    63320.782    5607.8495   -2561.6686   -7075.6007     85.60057 
   88100    1196.3107   -106.28251     1.082447   -105.20006    9573.2478    4.3794596    4.3794596    4.3794596    9573.2478    2603.8543   -13448.406    39564.295   -4012.5081    21211.809    22501.615    83.996572 
   88200    1603.2863   -106.69952    1.4506871   -105.24883   -10224.028    4.4000518    4.4000518    4.4000518   -10224.028   -62613.983   -6017.9233    37959.823   -1303.1338   -4335.5654   -1772.0042    85.187009 
   88300    1507.6192   -106.60917    1.3641256   -105.24504   -20238.962    4.4251839    4.4251839    4.4251839   -20238.962   -43851.056   -35963.507    19097.678    21432.369   -15438.114    14611.203    86.655067 
   88400     1418.615   -106.49798    1.2835927   -105.21438   -1947.4201    4.4144894    4.4144894    4.4144894   -1947.4201   -10843.629   -3179.3794    8180.7482   -3993.3389    10828.058    22742.374    86.028319 
   88500    1928.3583   -106.95037    1.7448192   -105.20555   -7526.4185     4.410837     4.410837     4.410837   -7526.4185   -27225.177   -2075.0896    6721.0108    30170.389   -14694.289    -7022.977    85.814962 
   88600    1310.4541   -106.41175    1.1857264   -105.22603    22637.615    4.3987774    4.3987774    4.3987774    22637.615    12856.205   -4989.7976    60046.438    603.36025    18469.175    21306.585    85.113011 
   88700    1176.1138   -106.30253    1.0641725   -105.23836    26117.139     4.399258     4.399258     4.399258    26117.139   -11439.599    27425.742    62365.274     28681.69   -920.11202   -913.64265    85.140914 
   88800    1374.9251   -106.48203    1.2440611   -105.23797    18048.788    4.4170334    4.4170334    4.4170334    18048.788   -16144.352   -13055.983    83346.699     11008.45    100.50675    743.75012    86.177134 
   88900    1776.6683   -106.83717    1.6075668    -105.2296    -23528.19    4.4229248    4.4229248    4.4229248    -23528.19   -36872.517    -7556.982   -26155.069     10593.38     22162.51    2636.0223    86.522422 
   89000    1265.2312   -106.35764    1.1448078   -105.21283    11002.047     4.415822     4.415822     4.415822    11002.047   -32832.557   -14419.965    80258.664   -5857.1131    -15939.86   -8222.9184    86.106248 
   89100    1974.0793   -106.98307    1.7861884   -105.19688   -31494.679    4.4211554    4.4211554    4.4211554   -31494.679     -19358.7   -38656.215   -36469.122    5947.9752    6177.2327    18073.139    86.418623 
   89200    1761.9758   -106.77462    1.5942727   -105.18035   -29327.771     4.428434     4.428434     4.428434   -29327.771   -49279.015   -24197.123   -14507.175    1766.7387   -2726.3915   -8060.1017     86.84614 
   89300    1510.5526   -106.54232    1.3667798   -105.17554     -19344.9     4.418607     4.418607     4.418607     -19344.9   -6157.5043   -19224.694   -32652.501   -6743.4891   -14603.255    38525.949    86.269271 
   89400    1623.8805   -106.64406    1.4693212   -105.17474    5824.4068    4.4107398    4.4107398    4.4107398    5824.4068   -24718.432   -2191.3794    44383.032    25392.076    11750.678    -3792.664    85.809292 
   89500    1358.8201   -106.41978    1.2294889   -105.19029   -13464.262    4.4163567    4.4163567    4.4163567   -13464.262   -7279.8713   -4671.0299   -28441.885   -18766.316   -19228.862    31887.261    86.137534 
   89600    2051.3268   -107.04445    1.8560836   -105.18836   -46737.372    4.4200771    4.4200771    4.4200771   -46737.372   -68827.605   -65956.549   -5427.9628    43262.873    8413.7628     7714.779    86.355405 
   89700    1138.0023   -106.22762    1.0296884   -105.19793    10887.846    4.4117732    4.4117732    4.4117732    10887.846   -16362.242    5303.4229    43722.358   -9925.5615   -4268.7334    -859.4185    85.869617 
   89800    1817.2796   -106.84153    1.6443128   -105.19722   -12983.176    4.4076041    4.4076041    4.4076041   -12983.176   -13717.356    -47781.54    22549.366    29057.159    5180.7733    23137.822    85.626409 
   89900    1332.1071   -106.41566    1.2053185   -105.21034    6628.4681    4.4168047    4.4168047    4.4168047    6628.4681   -41555.341    6909.9558     54530.79    4198.6172   -9021.9219   -2581.5861    86.163751 
   90000     1327.218   -106.40301    1.2008948   -105.20212    7765.5027    4.4181042    4.4181042    4.4181042    7765.5027   -40527.442    8454.7379    55369.213    10886.895   -14213.519    4424.8479    86.239825 
   90100    1753.7823   -106.79086    1.5868591     -105.204   -27647.856    4.4074908    4.4074908    4.4074908   -27647.856   -60240.774   -5895.4977   -16807.295    31308.558    8948.3422    1471.7055    85.619808 
   90200    1512.3292   -106.58254    1.3683872   -105.21416   -6487.9389    4.4060086    4.4060086    4.4060086   -6487.9389    -37184.68    5700.8929    12019.971   -1922.1494   -26852.138    -4043.586    85.533457 
   90300    1367.0417   -106.45399     1.236928   -105.21706   -18233.925    4.4127233    4.4127233    4.4127233   -18233.925   -33234.229    -43821.82    22354.275    38600.719   -13938.997    14340.284    85.925106 
   90400    1672.0029   -106.71468    1.5128633   -105.20182    16896.329    4.4163633    4.4163633    4.4163633    16896.329   -22674.785    41001.787    32361.986     2637.111      4140.77   -6981.3228    86.137921 
   90500    1058.0598   -106.17477   0.95735475   -105.21741   -9834.4576     4.416703     4.416703     4.416703   -9834.4576   -26171.314   -61436.129     58104.07    41321.434   -18654.076   -297.29352    86.157799 
   90600    1675.5222   -106.71433    1.5160477   -105.19829    11433.066    4.4194996    4.4194996    4.4194996    11433.066   -4220.1328    10189.655    28329.677   -9624.3511    7870.8971    7692.1126    86.321565 
   90700    1323.0577   -106.40381    1.1971304   -105.20668   -18318.461    4.4224211    4.4224211    4.4224211   -18318.461   -70210.861    -34479.84    49735.317      47388.7   -10688.945    4566.6429    86.492865 
   90800    1899.3065   -106.90917    1.7185325   -105.19064   -10277.811    4.4154682    4.4154682    4.4154682   -10277.811   -13628.496   -31952.874    14747.938   -11729.968    4994.1709    14162.848    86.085557 
   90900    940.61212   -106.05883   0.85108562   -105.20775    4750.2617    4.3966546    4.3966546    4.3966546    4750.2617   -51632.375   -7525.9479    73409.108    43568.512    10514.772    4804.1101    84.989847 
   91000    2133.8376    -107.1431    1.9307411   -105.21236   -1715.8571    4.3942589    4.3942589    4.3942589   -1715.8571   -13865.444    24408.108   -15690.235   -3634.6905   -18084.312   -1045.9419    84.850991 
   91100    894.80224   -106.04436   0.80963587   -105.23472   -24810.089    4.4274109    4.4274109    4.4274109   -24810.089   -49318.857    -62379.16     37267.75    39208.345    13780.586    296.74345    86.785964 
   91200    1925.5861   -106.93709    1.7423108   -105.19478   -29291.067    4.4182974    4.4182974    4.4182974   -29291.067   -30631.807   -46781.664   -10459.731    20755.318   -17492.929    8484.8682    86.251141 
   91300    1241.5088    -106.3174    1.1233433   -105.19406    11126.979    4.3931782    4.3931782    4.3931782    11126.979    848.02686    6070.4276    26462.483    7882.2898    12429.862    9245.8788    84.788403 
   91400    1305.7345   -106.40511     1.181456   -105.22365    6169.5334    4.3956254    4.3956254    4.3956254    6169.5334    -41283.74   -9398.8596      69191.2    32480.417    7872.1324   -14555.429    84.930175 
   91500    1734.8442   -106.81214    1.5697235   -105.24242   -4512.1295    4.4154631    4.4154631    4.4154631   -4512.1295   -18800.006   -18975.816    24239.433   -8314.1148   -2685.9139   -14552.263    86.085258 
   91600    936.14179    -106.0873   0.84704077   -105.24026   -18849.805    4.4274945    4.4274945    4.4274945   -18849.805   -71301.564   -10706.053    25458.202    43308.401    1070.6039    13646.907    86.790881 
   91700    2120.9809   -107.11833    1.9191081   -105.19923    8280.6905    4.4021455    4.4021455    4.4021455    8280.6905   -26162.198     21848.08    29156.189   -12235.142    11922.595   -14547.434    85.308673 
   91800    898.10106   -106.03441   0.81262071   -105.22178    12257.446    4.3940293    4.3940293    4.3940293    12257.446   -40552.781    8839.4324    68485.685    37244.486    3703.3392   -11596.757    84.837691 
   91900    2028.3145   -107.04924    1.8352616   -105.21398    3381.0182     4.413025     4.413025     4.413025    3381.0182   -25701.229    50012.652   -14168.369   -9241.2601    9500.5009    6149.0439    85.942733 
   92000    1061.2497   -106.17541   0.96024099   -105.21517    23779.155    4.4203176    4.4203176    4.4203176    23779.155    2266.8655    8438.6556    60631.945    44457.888     5739.761   -13513.224    86.369504 
   92100    1580.9163   -106.63213    1.4304463   -105.20169   -5959.0164    4.4248278    4.4248278    4.4248278   -5959.0164    10624.206    8554.4731   -37055.729   -18466.563     12986.04    -5153.189    86.634148 
   92200    1849.6273   -106.88057    1.6735816   -105.20699    9667.5348    4.3942515    4.3942515    4.3942515    9667.5348   -3149.4901   -4826.2534    36978.348    32258.783   -16103.874   -4186.0987    84.850566 
   92300    1478.0754   -106.56132    1.3373936   -105.22392     34085.73    4.3878117    4.3878117    4.3878117     34085.73    47882.601    32033.538    22341.051    14310.808    21282.998   -23250.713    84.478064 
   92400    1732.8634   -106.79927    1.5679312   -105.23134   -15049.267    4.4312501    4.4312501    4.4312501   -15049.267   -41769.351   -21583.114    18204.663    8082.0607   -7654.7088    4011.2572    87.011928 
   92500    1439.9821   -106.50221    1.3029261   -105.19929   -19086.016    4.4341041    4.4341041    4.4341041   -19086.016    -12893.18   -40103.197   -4261.6702    33192.951   -895.97997    -12313.85     87.18016 
   92600    1227.6781   -106.28357     1.110829   -105.17274    44074.768    4.4031479    4.4031479    4.4031479    44074.768     52383.75    34556.954    45283.601    -17741.21    4469.6605   -20510.042    85.366963 
   92700    1559.0452   -106.59788    1.4106569   -105.18722    5520.5732     4.398613     4.398613     4.398613    5520.5732   -20967.541   -11604.906    49134.166    26370.823   -22955.988   -11678.209    85.103471 
   92800    988.35754   -106.09983   0.89428667   -105.20554    36767.346    4.4170786    4.4170786    4.4170786    36767.346     11479.05    26654.052    72168.937   -11315.475   -11341.009   -26319.704    86.179779 
   92900    1079.3643   -106.16262   0.97663148   -105.18599    27811.926    4.4367749    4.4367749    4.4367749    27811.926   -1368.3293    22763.408      62040.7    -2972.996   -45402.759   -9835.3112    87.337785 
   93000    1182.8003   -106.23364    1.0702226   -105.16341    -1684.506    4.4447058    4.4447058    4.4447058    -1684.506    13856.879    22228.302   -41138.698   -14971.328    3934.9572   -19808.791    87.806981 
   93100    2049.1608   -106.99602    1.8541238   -105.14189   -12525.611    4.4117773    4.4117773    4.4117773   -12525.611    2067.0217    -1824.708   -37819.147    187.45696    14694.677    8015.8544    85.869859 
   93200    1425.7422   -106.43739    1.2900415   -105.14735    43431.306     4.390151     4.390151     4.390151    43431.306    72493.512    3675.6838    54124.721    12393.948   -19760.004    8750.1251     84.61325 
   93300    1795.9834   -106.82322    1.6250435   -105.19817   -42563.562    4.4262252    4.4262252    4.4262252   -42563.562   -38893.169   -54472.057   -34325.459   -17563.723     11797.06   -2415.9412    86.716258 
   93400    2038.1282   -107.01209    1.8441413   -105.16795   -30146.751    4.4307729    4.4307729    4.4307729   -30146.751   -16616.502   -48694.861    -25128.89    8737.0068   -19218.132     17474.96    86.983818 
   93500    1376.5761    -106.3943     1.245555   -105.14874    1957.1244    4.4314988    4.4314988    4.4314988    1957.1244     15052.47   -10191.302     1010.205    373.94406    13613.738   -1159.1012    87.026576 
   93600    1259.3806   -106.28286     1.139514   -105.14335   -22924.412    4.4400882    4.4400882    4.4400882   -22924.412   -30094.569   -39028.678    350.01251    44372.269   -7282.2499    7344.8065      87.5336 
   93700     1373.096   -106.37183    1.2424061   -105.12942    34545.968    4.4080624    4.4080624    4.4080624    34545.968    13163.268    62491.555    27983.079    8568.8395    17121.891   -2640.1977    85.653122 
   93800    1163.4891   -106.22437    1.0527494   -105.17162    18797.113    4.4007023    4.4007023    4.4007023    18797.113   -34019.851   -1830.5527    92241.741     24095.04    527.27357    13638.546    85.224796 
   93900    2139.9705   -107.12395    1.9362903   -105.18766    -12010.82    4.4157592    4.4157592    4.4157592    -12010.82   -30980.943    1366.8363   -6418.3536    -1306.442   -5049.6905    -21020.76    86.102576 
   94000    735.47851   -105.87874   0.66547641   -105.21326    18181.587      4.40154      4.40154      4.40154    18181.587   -32223.007    32800.124    53967.644    19268.045    18028.585   -5185.3095    85.273477 
   94100    2151.2446    -107.1633    1.9464913    -105.2168    7922.2955    4.3958828    4.3958828    4.3958828    7922.2955   -8812.0422     -2902.26    35481.189    11154.417   -8289.8699   -11413.273    84.945099 
   94200    1224.4103   -106.32458    1.1078721   -105.21671    15642.257    4.3996365    4.3996365    4.3996365    15642.257   -35091.008    16399.333    65618.444    3500.2855   -9413.3648    4293.9636    85.162891 
   94300    1651.4749   -106.70693    1.4942892   -105.21264   -12883.564     4.419397     4.419397     4.419397   -12883.564   -54513.542    6164.8905    9697.9589    15409.578    9520.1774   -4953.3014    86.315549 
   94400    1760.2621   -106.78276    1.5927221   -105.19003   -19396.616    4.4260122    4.4260122    4.4260122   -19396.616   -67217.686    28060.243   -19032.404    -5416.424   -17981.391   -24607.098     86.70374 
   94500    1419.0208   -106.47632    1.2839598   -105.19236    9065.8807     4.397971     4.397971     4.397971    9065.8807   -34982.095     6840.062    55339.675    7004.4911    10245.154   -20692.652    85.066211 
   94600    1430.3096   -106.50368    1.2941742   -105.20951    22504.046    4.3903439    4.3903439    4.3903439    22504.046   -29847.597    102578.39   -5218.6582   -8758.4988   -39529.187   -11528.029    84.624402 
   94700    1738.7226   -106.79413    1.5732327    -105.2209    15037.483    4.4113359    4.4113359    4.4113359    15037.483   -15592.928    37909.404    22795.974     12432.24    12818.833    6782.3356    85.844089 
   94800    1319.4472   -106.41458    1.1938636   -105.22072   -58167.946     4.427148     4.427148     4.427148   -58167.946   -91239.906   -5643.3105   -77620.621   -2207.7005   -53535.273    5581.5894    86.770505 
   94900    2230.3303   -107.20674    2.0180497   -105.18869    12540.419     4.399105     4.399105     4.399105    12540.419     1733.046     27017.13    8871.0818    728.11622   -1128.8836    26826.401    85.132028 
   95000    1018.7775    -106.1342   0.92181128   -105.21239   -26023.828    4.3927373    4.3927373    4.3927373   -26023.828   -47131.915   -7524.3618   -23415.206     12521.25   -42111.768    365.84697     84.76288 
   95100     1684.326   -106.75366    1.5240135   -105.22964    -5469.585    4.3986442    4.3986442    4.3986442    -5469.585   -6634.6487   -21370.414    11596.307   -2390.9353    3618.1137    14271.083    85.105282 
   95200    1590.5233   -106.67506    1.4391389   -105.23592   -13628.637    4.4251429    4.4251429    4.4251429   -13628.637   -43348.576   -33270.578    35733.242    5002.0306   -8878.3442    8204.0223    86.652659 
   95300    573.61169   -105.73683   0.51901591   -105.21781   -14773.617    4.4191284    4.4191284    4.4191284   -14773.617   -27364.481    17283.492   -34239.863   -10573.691   -32063.715   -10902.756    86.299816 
   95400    1960.4079   -106.94771    1.7738182   -105.17389    28667.916    4.3825856    4.3825856    4.3825856    28667.916    30660.613    442.44688    54900.687    -13053.03    29350.799    12583.844    84.176572 
   95500     1327.913   -106.42217    1.2015236   -105.22065   -26833.341    4.3945079    4.3945079    4.3945079   -26833.341   -49119.859   -8640.7818   -22739.383    14363.733   -66425.115   -2859.9137    84.865418 
   95600    1645.2454   -106.71477    1.4886526   -105.22612   -4371.3431    4.3998787    4.3998787    4.3998787   -4371.3431    26188.555   -32420.593   -6881.9917   -8028.8105    4797.7903   -18830.599    85.176953 
   95700    1549.5948   -106.63012     1.402106   -105.22801   -12968.588    4.4067452    4.4067452    4.4067452   -12968.588   -5560.5528    -29552.12    -3793.092   -8081.6112   -11186.477    10959.581    85.576362 
   95800    1321.1673   -106.41806    1.1954199   -105.22264   -35761.035    4.4080418    4.4080418    4.4080418   -35761.035    -14447.47   -42520.203   -50315.432    10045.549   -42839.436   -25599.216     85.65192 
   95900    2097.3777   -107.09063    1.8977514   -105.19288    4626.5163    4.3931519    4.3931519    4.3931519    4626.5163    8153.1174   -20538.186    26264.617   -20622.114    13295.229    10866.482    84.786881 
   96000    822.02534   -105.94968    0.7437858   -105.20589     11141.84    4.3995593    4.3995593    4.3995593     11141.84      16194.1    20570.736   -3339.3154    -1180.972   -21537.876   -5052.3951    85.158409 
   96100    1871.7184   -106.89668    1.6935701   -105.20311   -19639.622    4.4095697    4.4095697    4.4095697   -19639.622   -3960.6176   -45009.732   -9948.5163   -13390.515    6720.2084   -19015.592    85.741018 
   96200    2057.2999   -107.05634    1.8614881   -105.19485   -18624.958    4.4045988    4.4045988    4.4045988   -18624.958   -24624.159    -4614.008   -26636.706   -8697.5556   -22689.198     10702.49    85.451376 
   96300    1058.8852   -106.16393    0.9581016   -105.20583   -14592.292    4.3994661    4.3994661    4.3994661   -14592.292    33418.209    -21704.36   -55490.726    -2099.707   -12376.932   -44608.257    85.152996 
   96400    2464.3657   -107.42367    2.2298099   -105.19386   -16221.991    4.3995268    4.3995268    4.3995268   -16221.991    796.93748   -26578.837   -22884.073   -23043.504    -6281.739     14010.86    85.156517 
   96500    1119.7265   -106.22071     1.013152   -105.20756    -16552.75    4.4175578    4.4175578    4.4175578    -16552.75    37262.801   -35580.167   -51340.884    3886.3466   -25293.434   -35437.046     86.20783 
   96600     1654.996    -106.6783    1.4974752   -105.18082   -11363.027    4.4234283    4.4234283    4.4234283   -11363.027     27295.57   -6829.5013    -54555.15   -1560.9451    8901.6294    2911.3015    86.551972 
   96700    1670.4457   -106.69708    1.5114544   -105.18563   -11446.294    4.3965716    4.3965716    4.3965716   -11446.294   -1693.1759     1021.257   -33666.963   -832.71243   -27150.882   -10166.152    84.985035 
   96800    1031.2326   -106.13562   0.93308094   -105.20254    29426.125    4.3773945    4.3773945    4.3773945    29426.125      78302.1    24814.453   -14838.178    9693.6705   -3478.2304   -39785.349    83.877808 
   96900    2037.0001    -107.0604    1.8431205   -105.21728    11353.255    4.4018226    4.4018226    4.4018226    11353.255    50780.372    214.05093   -16934.659   -9993.4622    4710.6596    9286.5573      85.2899 
   97000    631.40879   -105.79341   0.57131195    -105.2221    4286.6086    4.4212455    4.4212455    4.4212455    4286.6086    31931.151   -20052.362    981.03646    2904.0171   -12421.234   -47113.322    86.423908 
   97100     1989.113   -106.97266    1.7997913   -105.17287    6699.3364    4.4158727    4.4158727    4.4158727    6699.3364    42670.151     6636.477   -29208.619    5614.4286    8380.5651    6557.3897    86.109217 
   97200    1148.2809   -106.22597    1.0389887   -105.18698     516.6967    4.3903861    4.3903861    4.3903861     516.6967    82038.521   -37488.212   -43000.219   -6731.4184   -15160.587     -42648.6    84.626842 
   97300    1647.6201   -106.69146    1.4908013   -105.20066    30507.443    4.3768874    4.3768874    4.3768874    30507.443     21786.99     50485.57    19249.769    10701.828   -1555.3644    4642.5069    83.848659 
   97400    1704.5798   -106.78222    1.5423397   -105.23988   -24460.667    4.4113178    4.4113178    4.4113178   -24460.667    15633.679   -30219.213   -58796.466   -4891.8724    8331.0845   -33166.948    85.843028 
   97500    1491.0372   -106.54951    1.3491218   -105.20039   -33324.079    4.4272216    4.4272216    4.4272216   -33324.079   -56498.134   -12882.922   -30591.181    2744.1064   -26088.168    13401.715    86.774832 
   97600    1717.1643    -106.7235    1.5537263   -105.16977   -19715.417    4.4091956    4.4091956    4.4091956   -19715.417   -5862.9794   -429.76614   -52853.507    5440.4042    14993.755   -6855.6277      85.7192 
   97700    1399.6021   -106.44846    1.2663894   -105.18207     8838.325    4.3925315    4.3925315    4.3925315     8838.325   -14329.728     73257.26   -32412.557    -12936.27   -25861.552   -18672.644    84.750966 
   97800    1533.8774   -106.59317    1.3878846   -105.20528     15163.73    4.3871683    4.3871683    4.3871683     15163.73   -29153.452     42140.67    32503.972   -526.80909   -588.41419    25775.041    84.440908 
   97900    1598.0621   -106.67676    1.4459601    -105.2308   -16549.439    4.4206346    4.4206346    4.4206346   -16549.439   -50692.016    11928.964   -10885.265   -4613.2222   -10877.747   -20398.988    86.388087 
   98000    1589.2922   -106.64634     1.438025   -105.20832   -42492.284    4.4240563    4.4240563    4.4240563   -42492.284   -79045.667   -33754.483   -14676.702   -1665.5449   -26187.664      -2228.1    86.588841 
   98100     1496.239   -106.54604    1.3538285   -105.19221    37454.413    4.3809638    4.3809638    4.3809638    37454.413   -3971.3506    68865.039    47469.551   -3065.4915    4299.1725    3502.2214    84.083153 
   98200    1234.3217   -106.33966    1.1168402   -105.22282    23126.465    4.3697764    4.3697764    4.3697764    23126.465   -15122.724    92898.179   -8396.0606    4949.3645     -53686.7   -9674.4311    83.440644 
   98300    1915.3299   -106.98817    1.7330308   -105.25514   -7747.7523    4.4007207    4.4007207    4.4007207   -7747.7523   -8204.3214   -25027.144    9988.2086   -8656.9041    10793.695   -7528.9379    85.225863 
   98400    1559.3104   -106.62542    1.4108968   -105.21452   -41005.243    4.4382895    4.4382895    4.4382895   -41005.243   -70231.361    11549.304   -64333.671    479.30184   -38642.392    7145.7414    87.427263 
   98500    1890.2424   -106.88487    1.7103311   -105.17454   -11136.815    4.4156452    4.4156452    4.4156452   -11136.815   -55831.668     41803.72   -19382.496    7021.2257    1441.3596   -13886.875    86.095906 
   98600    1389.3806   -106.42005    1.2571408   -105.16291    14369.017    4.3796696    4.3796696    4.3796696    14369.017   -13003.443    72843.052   -16732.559    8124.0002   -45047.626    6012.4652    84.008656 
   98700    2177.5798   -107.16575    1.9703199   -105.19543    14647.778    4.3958678    4.3958678    4.3958678    14647.778   -21820.034    41459.099    24304.268   -1368.5281    -6396.471   -20684.093    84.944226 
   98800    1360.7561     -106.438    1.2312407   -105.20676   -58036.863    4.4236905    4.4236905    4.4236905   -58036.863   -68143.861   -39735.508   -66231.219    19925.702   -35708.121   -494.95652    86.567363 
   98900    1438.2873   -106.50358    1.3013925   -105.20219    -9088.963    4.4091179    4.4091179    4.4091179    -9088.963   -32638.558   -2482.0945    7853.7632    3400.3397   -21074.104    3486.9249    85.714666 
   99000    1943.0684    -106.9628    1.7581291   -105.20467    25641.543    4.3752432    4.3752432    4.3752432    25641.543   -20998.116     103304.8   -5382.0568    869.33865   -16055.151   -17874.819    83.754201 
   99100    942.61619   -106.09646   0.85289894   -105.24356    6635.4803    4.3696709    4.3696709    4.3696709    6635.4803   -4865.2214    40697.832   -15926.169    10136.287   -44693.072    20241.873    83.434597 
   99200     1744.767   -106.83115    1.5787018   -105.25245    16641.401    4.4082564    4.4082564    4.4082564    16641.401   -26238.644    45851.633    30311.215    3751.7992    8951.0442    2157.2977    85.664435 
   99300    1374.5124   -106.48167    1.2436877   -105.23798   -37155.846    4.4142079    4.4142079    4.4142079   -37155.846    -72807.31    20786.442   -59446.668    8335.4217   -47847.908    8502.0512    86.011864 
   99400    1740.6301   -106.77515    1.5749587   -105.20019    10849.328    4.3852375    4.3852375    4.3852375    10849.328   -11518.041    24429.549    19636.475   -5167.2411    12539.083    30594.115    84.329467 
   99500    1453.5124    -106.5169    1.3151685   -105.20173    10100.255    4.3903581    4.3903581    4.3903581    10100.255   -35005.215    57258.754    8047.2264    4911.0272   -43226.168   -11651.165    84.625228 
   99600     1511.738   -106.58245    1.3678523   -105.21459   -10957.952    4.3990282    4.3990282    4.3990282   -10957.952   -3104.5335   -13500.909   -16268.413    11648.971     7633.513    49741.451    85.127568 
   99700    1322.3133    -106.4224    1.1964568   -105.22594   -9688.2632    4.4051035    4.4051035    4.4051035   -9688.2632    -31807.57   -8252.2544    10995.035   -23941.734   -12737.584    11028.045    85.480757 
   99800    1699.2588   -106.75267    1.5375251   -105.21515    7438.6978    4.3932164    4.3932164    4.3932164    7438.6978   -30077.966    51320.603     1073.457    7837.1819   -23224.538    16055.591    84.790614 
   99900    976.60041   -106.11316   0.88364857   -105.22951    20753.469    4.3999974    4.3999974    4.3999974    20753.469    10879.008   -7153.2966    58534.696   -5227.8011   -2997.0282    31844.073    85.183847 
  100000    1574.1461   -106.63633    1.4243204   -105.21201   -7283.6006    4.4259558    4.4259558    4.4259558   -7283.6006   -33402.538    29893.418   -18341.682   -225.25229    -22098.19   -6020.4299    86.700424 
Loop time of 21.4405 on 1 procs for 100000 steps with 8 atoms

Pair  time (%) = 6.36808 (29.7011)
Kspce time (%) = 5.37797 (25.0832)
Neigh time (%) = 0.110833 (0.516931)
Comm  time (%) = 0.85566 (3.99085)
Outpt time (%) = 0.0200741 (0.0936271)
Other time (%) = 8.7079 (40.6142)

Nlocal:    8 ave 8 max 8 min
Histogram: 1 0 0 0 0 0 0 0 0 0
Nghost:    1582 ave 1582 max 1582 min
Histogram: 1 0 0 0 0 0 0 0 0 0
Neighs:    1995 ave 1995 max 1995 min
Histogram: 1 0 0 0 0 0 0 0 0 0

Total # of neighbors = 1995
Ave neighs/atom = 249.375
Neighbor list builds = 1478
Dangerous builds = 0
unfix 20
unfix 21
print "seeds:4824968"
seeds:4824968
