LAMMPS (10 Feb 2015)
# ---- initialize simulations
clear
units metal
dimension 3
boundary p p p
atom_style charge
atom_modify map array
# ---- create atoms
read_data /Users/eugeneragasa/pyflamestk_git/pypospack/tests/tests_integration/workflow/WorkflowLammpsThermalExpansion/param_1902/MgO_NaCl_unit.npt.T500/lammps.structure
  triclinic box = (0 0 0) to (4.2565 4.2565 4.2565) with tilt (0 0 0)
  1 by 1 by 1 MPI processor grid
  reading atoms ...
  8 atoms
# ---- define interatomic potential
include potential.mod
mass 1 24.305
mass 2 15.999

group Mg type 1
4 atoms in group Mg
group O type 2
4 atoms in group O

set group Mg charge 1.69754800024
  4 settings made for charge
set group O charge -1.69754800024
  4 settings made for charge

variable R_cut equal 10.0

pair_style buck/coul/long ${R_cut}
pair_style buck/coul/long 10
pair_coeff 1 1 0.0 0.5 0.0 ${R_cut}
pair_coeff 1 1 0.0 0.5 0.0 10
pair_coeff 1 2 1340.93810979 0.285979914483 0.0 ${R_cut}
pair_coeff 1 2 1340.93810979 0.285979914483 0.0 10
pair_coeff 2 2 11096.6994948 0.145827000496 3.24328494634 ${R_cut}
pair_coeff 2 2 11096.6994948 0.145827000496 3.24328494634 10

kspace_style pppm 1.0e-5

neighbor 1.0 bin
neigh_modify every 1 delay 0 check yes
# ---- define settings
compute eng all pe/atom
compute eatoms all reduce sum c_eng
# ---- run minimization
reset_timestep 0
fix 1 all box/relax iso 0.0 vmax 0.001
thermo 10
thermo_style custom step pe lx ly lz xy xz yz press pxx pyy pzz pxy pxz pyz c_eatoms
min_style cg
minimize 1e-25 1e-25 5000 10000
PPPM initialization ...
  G vector (1/distance) = 0.353134
  grid = 8 8 8
  stencil order = 5
  estimated absolute RMS force accuracy = 4.09436e-05
  estimated relative force accuracy = 2.84338e-06
  using double precision FFTs
  3d grid and FFT values/proc = 3375 512
Neighbor list info ...
  1 neighbor list requests
  update every 1 steps, delay 0 steps, check yes
  master list distance cutoff = 11
Memory usage per processor = 4.06549 Mbytes
Step PotEng Lx Ly Lz Xy Xz Yz Press Pxx Pyy Pzz Pxy Pxz Pyz eatoms 
       0   -117.43599       4.2565       4.2565       4.2565            0            0            0    33717.192    33717.192    33717.192    33717.192 -3.1023281e-11 -2.4163961e-10 -2.0934262e-10   -117.43599 
       8   -117.45138    4.2835821    4.2835821    4.2835821            0            0            0   -5.0124394   -5.0124394   -5.0124394   -5.0124394 6.8970478e-11 -1.4442567e-10 -9.765937e-11   -117.45138 
Loop time of 0.00854897 on 1 procs for 8 steps with 8 atoms

Minimization stats:
  Stopping criterion = linesearch alpha is zero
  Energy initial, next-to-last, final = 
        -117.435990229     -117.451383044     -117.451383044
  Force two-norm initial, final = 4.86878 0.0018005
  Force max component initial, final = 4.86878 0.000733039
  Final line search alpha, max atom move = 0.00390625 2.86343e-06
  Iterations, force evaluations = 8 25

Pair  time (%) = 0.00227165 (26.5722)
Kspce time (%) = 0.00134635 (15.7487)
Neigh time (%) = 0 (0)
Comm  time (%) = 0.000341177 (3.99085)
Outpt time (%) = 0 (0)
Other time (%) = 0.0045898 (53.6883)

Nlocal:    8 ave 8 max 8 min
Histogram: 1 0 0 0 0 0 0 0 0 0
Nghost:    2189 ave 2189 max 2189 min
Histogram: 1 0 0 0 0 0 0 0 0 0
Neighs:    2344 ave 2344 max 2344 min
Histogram: 1 0 0 0 0 0 0 0 0 0

Total # of neighbors = 2344
Ave neighs/atom = 293
Neighbor list builds = 0
Dangerous builds = 0
unfix 1
# ---- define output variables ----
variable natoms equal "count(all)"
variable tot_energy equal "c_eatoms"
variable length_x equal "lx"
variable length_y equal "ly"
variable length_z equal "lz"
variable tilt_xy equal "xy"
variable tilt_xz equal "xz"
variable tilt_yz equal "yz"
variable tot_press equal "press"
variable press_xx equal "pxx"
variable press_yy equal "pyy"
variable press_zz equal "pzz"
variable press_xy equal "pxy"
variable press_xz equal "pxz"
variable press_yz equal "pyz"

# ---- output ----
print "pypospack:output_section:begin"
pypospack:output_section:begin
print "tot_energy = ${tot_energy}"
tot_energy = -117.45138304358
print "num_atoms = ${natoms}"
num_atoms = 8
print "xx = ${length_x}"
xx = 4.28358206284588
print "yy = ${length_y}"
yy = 4.28358206284588
print "zz = ${length_z}"
zz = 4.28358206284588
print "xy = ${tilt_xy}"
xy = 0
print "xz = ${tilt_xz}"
xz = 0
print "yz = ${tilt_yz}"
yz = 0
print "tot_press = ${tot_press}"
tot_press = -5.01243937142067
print "pxx = ${press_xx}"
pxx = -5.01243937108414
print "pyy = ${press_yy}"
pyy = -5.01243937158826
print "pzz = ${press_zz}"
pzz = -5.01243937158962
print "pxy = ${press_xy}"
pxy = 6.8970477610601e-11
print "pxz = ${press_xz}"
pxz = -1.44425666326158e-10
print "pyz = ${press_yz}"
pyz = -9.76593698696591e-11
print "pypospack:output_section:done"
pypospack:output_section:done
print "pypospack:lammps_sim:done"
pypospack:lammps_sim:done
#------------------------------------------------------------------------------
# RUN THERMOSTAT
# running using an NPT Nose-Hoover style thermostat
#------------------------------------------------------------------------------
variable tempdamp equal 0.1
variable pressdamp equal 1.0
# set initial velocities
velocity all create 500 7071916 mom yes dist gaussian loop all
# fix for Nose-Hoover style thermostat
fix 20 all npt temp 500 500 0.1 aniso 0.0 0.0 1.0 drag 1.0 couple xyz
variable boxx equal lx
variable boxy equal ly
variable boxz equal lz
variable boxp equal press
variable boxt equal temp
# calculate averages every 10000 steps
reset_timestep 0
fix 21 all ave/time 10 10 100 v_boxx v_boxy v_boxz v_boxp v_boxt file lattice.out
thermo_style custom step temp pe ke etotal press lx ly lz press pxx pyy pzz pxy pxz pyz vol
thermo_modify flush yes
thermo 100
run 100000
PPPM initialization ...
  G vector (1/distance) = 0.352856
  grid = 8 8 8
  stencil order = 5
  estimated absolute RMS force accuracy = 4.14735e-05
  estimated relative force accuracy = 2.88018e-06
  using double precision FFTs
  3d grid and FFT values/proc = 3375 512
Memory usage per processor = 3.06549 Mbytes
Step Temp PotEng KinEng TotEng Press Lx Ly Lz Press Pxx Pyy Pzz Pxy Pxz Pyz Volume 
       0          500   -117.45139   0.45241051   -116.99898    6141.9712    4.2835821    4.2835821    4.2835821    6141.9712    9967.6147    4696.3661    3761.9328    630.53231    1116.1576   -1922.3978     78.59977 
     100    181.16598   -117.09759   0.16392279   -116.93367    1129.1688    4.3066464    4.3066464    4.3066464    1129.1688    22980.863   -1172.3866    -18420.97   -380.38559   -5560.7304   -305.17726    79.876245 
     200    515.07192   -117.28216    0.4660479   -116.81611   -7073.4866    4.2980554    4.2980554    4.2980554   -7073.4866   -8225.8907   -8.5730894   -12985.996   -1141.4515    7437.5481    1730.4553    79.399179 
     300    388.27241   -117.05943   0.35131703   -116.70811    9747.0978    4.3005987    4.3005987    4.3005987    9747.0978    30350.497    6536.8987   -7646.1025   -3525.0485   -3572.1774    2085.6946    79.540216 
     400     604.0919   -117.16955   0.54659505   -116.62296   -12115.638     4.318015     4.318015     4.318015   -12115.638   -14814.192   -3072.5812    -18460.14   -308.77627   -452.72006   -841.61233    80.510484 
     500    534.67918   -117.05402   0.48378896   -116.57024    8338.3094    4.2953322    4.2953322    4.2953322    8338.3094      31757.5   -422.41938   -6320.1529    2406.5108    7898.4221   -2183.8738    79.248359 
     600    577.69012   -117.07025   0.52270616   -116.54755   -3258.4054    4.3138605    4.3138605    4.3138605   -3258.4054    13756.708   -5625.3047   -17906.619    1874.3499    2892.5973   -1732.1084    80.278322 
     700    676.07508   -117.15046   0.61172694   -116.53874   -6281.7071    4.3173205    4.3173205    4.3173205   -6281.7071    13217.494   -22482.114   -9580.5006   -5778.1423    2425.1981   -722.52227    80.471641 
     800     590.3915   -117.07339   0.53419863   -116.53919    23006.306    4.2900845    4.2900845    4.2900845    23006.306    50958.549    19112.533   -1052.1654   -733.20495    -9100.004     3365.234    78.958257 
     900    659.72854   -117.14576   0.59693625   -116.54882   -23220.579    4.3243537    4.3243537    4.3243537   -23220.579   -23762.359   -19916.625   -25982.755    2762.0968    9373.6841    2300.5704    80.865563 
    1000    440.71961   -116.94773   0.39877236   -116.54896    10732.629    4.3027336    4.3027336    4.3027336    10732.629    23947.717    1445.5032    6804.6676    4553.1847   -5752.8347     1001.937    79.658729 
    1100    764.76403   -117.23731   0.69197457   -116.54534     870.7522    4.3017022    4.3017022    4.3017022     870.7522    1914.0634    14376.057   -13677.864    -6475.491    822.59307   -3479.3637     79.60146 
    1200    525.83624   -117.02159   0.47578768   -116.54581   -7508.8797    4.3202675    4.3202675    4.3202675   -7508.8797    18051.113   -19123.844   -21453.907   -1004.9435   -2043.0629   -2979.1572    80.636547 
    1300    618.97983   -117.10018   0.56006596   -116.54012    17240.419    4.2935251    4.2935251    4.2935251    17240.419    9336.6806    21145.789    21238.789     -3028.26    3792.1394   -60.550541    79.148378 
    1400    502.26951   -116.99815   0.45446401   -116.54369   -6464.1855    4.3229478    4.3229478    4.3229478   -6464.1855    34199.923   -25751.229    -27841.25    3253.7423   -405.62135   -958.95386    80.786721 
    1500    785.15975   -117.25397   0.71042904   -116.54354    10593.864    4.2925382    4.2925382    4.2925382    10593.864    11887.028    7117.5837    12776.981   -556.55941   -5199.4553    3212.0756     79.09381 
    1600    471.47005   -116.98382   0.42659601   -116.55722    6002.3225    4.3130872    4.3130872    4.3130872    6002.3225    24126.342    2989.2631   -9108.6371    1208.5111    5499.5088   -685.16609     80.23516 
    1700    650.53096   -117.13955   0.58861409   -116.55094   -24661.875    4.3183026    4.3183026    4.3183026   -24661.875   -22452.568   -21061.114   -30471.943   -5839.9096    4714.3007   -1078.8829    80.526572 
    1800    534.68063   -117.02163   0.48379027   -116.53784    33219.845    4.2774892    4.2774892    4.2774892    33219.845    32936.402    41187.045    25536.087   -9762.6232     578.3588    192.25023    78.264851 
    1900    609.97085   -117.08906   0.55191444   -116.53714   -32023.204    4.3404817    4.3404817    4.3404817   -32023.204   -19065.781   -33417.601   -43586.229    1768.0346   -7013.1262   -1423.1264    81.773727 
    2000    623.85406   -117.10521   0.56447626   -116.54073    19466.255    4.2836297    4.2836297    4.2836297    19466.255    33250.065    15560.768    9587.9304    2928.2842    6737.9706    3508.6139    78.602392 
    2100    536.89426   -117.03299   0.48579321    -116.5472    8980.2776    4.3028721    4.3028721    4.3028721    8980.2776    30098.223    4436.6614   -7594.0521      -3709.8    2400.7075   -8.8098983    79.666424 
    2200    547.03651   -117.03077   0.49497013    -116.5358   -17684.484    4.3295761    4.3295761    4.3295761   -17684.484   -3581.7622   -26095.119   -23376.569   -5966.9034   -8476.8786   -430.40449    81.158895 
    2300    693.99339   -117.15269    0.6279398   -116.52475    36025.334    4.2706334    4.2706334    4.2706334    36025.334    42664.702    42885.154    22526.144    1229.2242    -1974.184   -1355.3222    77.889137 
    2400    545.69706   -117.03161   0.49375817   -116.53785   -20737.835    4.3302612    4.3302612    4.3302612   -20737.835   -17670.434   -13676.402   -30866.671   -373.17427     2700.673   -111.31608    81.197432 
    2500    522.44313    -117.0123   0.47271752   -116.53958    1222.8689    4.2980372    4.2980372    4.2980372    1222.8689   -12077.809    10981.637    4764.7786    2360.5727    2809.0523    2545.5926    79.398174 
    2600     601.9175   -117.08652    0.5446276   -116.54189    2350.7508    4.2927198    4.2927198    4.2927198    2350.7508    6518.7224    1353.8838   -820.35385   -5674.8716   -10005.778    2248.2923    79.103849 
    2700    600.17895   -117.07831   0.54305452   -116.53525   -20111.652     4.325789     4.325789     4.325789   -20111.652     -29403.8   -1363.4347   -29567.722   -1076.7233    3276.0748    862.39358    80.946111 
    2800    611.45359   -117.08647   0.55325606   -116.53321    12128.035     4.286342     4.286342     4.286342    12128.035    18020.935    10063.789    8299.3829   -7449.3257    2093.2165   -5076.6099    78.751793 
    2900    476.45696   -116.97364   0.43110827   -116.54254   -6453.3903    4.3100016    4.3100016    4.3100016   -6453.3903    -19808.62    11364.165   -10915.717    773.37972   -3113.1867   -384.56461     80.06308 
    3000    512.39146   -117.00422   0.46362256    -116.5406   -998.12405    4.3117636    4.3117636    4.3117636   -998.12405    22101.664   -2673.3251   -22422.712    4387.4453   -1253.9418    3462.3985    80.161315 
    3100    700.67934   -117.17235   0.63398939   -116.53836    7592.4678    4.2918998    4.2918998    4.2918998    7592.4678      2623.85    12042.844    8110.7097   -10061.697   -2701.3497    3978.1786    79.058527 
    3200    476.05389   -116.97566   0.43074356   -116.54491    2467.9974    4.3110346    4.3110346    4.3110346    2467.9974    24947.339   -9540.4591   -8002.8876   -213.73687    8615.0195   -1013.9204    80.120664 
    3300    565.39131   -117.05642   0.51157794   -116.54484   -13800.934    4.3098114    4.3098114    4.3098114   -13800.934   -14249.694   -7320.2322   -19832.877     4386.759   -9274.7942   -3954.2826    80.052484 
    3400    432.10937   -116.93368   0.39098164    -116.5427    19348.623    4.2877995    4.2877995    4.2877995    19348.623    20841.011    25736.043    11468.816    9921.2698   -3006.8421    425.72398    78.832156 
    3500    667.31736   -117.14726   0.60380277   -116.54346   -19255.537     4.322413     4.322413     4.322413   -19255.537   -20845.781   -21410.229   -15510.601   -8491.4386     3752.147   -325.48406     80.75674 
    3600    498.90457   -116.99654   0.45141934   -116.54512    96.079427    4.2985695    4.2985695    4.2985695    96.079427     -4881.27    11625.108      -6455.6    6239.2912   -5636.5925    1450.6708    79.427676 
    3700    485.76919   -116.98372   0.43953417   -116.54419    10682.019    4.2902446    4.2902446    4.2902446    10682.019     5124.397    12128.839     14792.82    2928.4535   -2946.0311    736.68806    78.967095 
    3800    494.09036   -116.98612   0.44706334   -116.53905   -18820.951    4.3309918    4.3309918    4.3309918   -18820.951   -8708.8634   -15629.611   -32124.378    5736.1048   -4829.5193    2410.1513    81.238538 
    3900    710.07582   -117.17608   0.64249153   -116.53359    24671.551    4.2781917    4.2781917    4.2781917    24671.551    31137.989    24519.325    18357.339   -6564.2509    2473.8106    459.39672    78.303421 
    4000     397.9129   -116.90775   0.36003995   -116.54771    3581.4389    4.3101309    4.3101309    4.3101309    3581.4389      20209.9   -2997.1763   -6468.4071    1501.8758   -7461.4535   -2822.8738    80.070286 
    4100    402.54321    -116.9072   0.36422956   -116.54297   -8902.0372     4.317316     4.317316     4.317316   -8902.0372   -2141.9161   -7226.5355    -17337.66    7580.9342   -7040.2172    45.149928    80.471391 
    4200    664.26448   -117.13231   0.60104047   -116.53127    24198.411    4.2766586    4.2766586    4.2766586    24198.411    35703.212    17648.223    19243.798   -112.26048    4273.0829   -1118.8393    78.219269 
    4300    493.07835   -116.98277   0.44614765   -116.53662    -9494.785    4.3223195    4.3223195    4.3223195    -9494.785    4642.9096   -21146.904    -11980.36    643.81894   -2661.5311     2559.411      80.7515 
    4400    412.45664   -116.91474   0.37319943   -116.54155   -4977.2086    4.3003922    4.3003922    4.3003922   -4977.2086   -13869.798    1120.7981   -2182.6255   -7144.5565   -8007.2532    310.00157    79.528757 
    4500    427.50519   -116.92918   0.38681568   -116.54236    2710.2218    4.2892645    4.2892645    4.2892645    2710.2218     4582.833    2887.8602    659.97238    10325.488   -11355.542    1959.4441    78.912989 
    4600    572.06828   -117.05741    0.5176194   -116.53979   -14729.058     4.320587     4.320587     4.320587   -14729.058   -3605.2035   -24739.217   -15842.753     645.0899    7722.2293   -1993.2479    80.654436 
    4700    514.68812   -117.00723   0.46570062   -116.54153      5007.81    4.2941531    4.2941531    4.2941531      5007.81    13070.938    4934.5919   -2982.1002    1046.6521   -3831.7665   -3543.7064    79.183113 
    4800    333.52996   -116.84674   0.30178492   -116.54495    3152.3306    4.2961348    4.2961348    4.2961348    3152.3306    7519.2413    2654.8529   -717.10224    648.67725   -7697.8838    754.82525    79.292787 
    4900    417.50754   -116.91964   0.37776959   -116.54187   -9955.7242    4.3182046    4.3182046    4.3182046   -9955.7242    10957.307   -18239.109   -22585.371   -160.76375    4141.3158    4056.7332    80.521091 
    5000    653.67679   -117.12893    0.5914605   -116.53747    11618.497    4.2912922    4.2912922    4.2912922    11618.497    10422.152    13374.512    11058.826    2911.6803    1875.3593    2386.6432    79.024954 
    5100    343.87715   -116.85414   0.31114727     -116.543    9776.5605     4.302474     4.302474     4.302474    9776.5605    26548.589    108.05062    2673.0421     466.0475    1383.1138   -2632.2491     79.64431 
    5200    450.50946   -116.94947   0.40763043   -116.54184   -19643.938    4.3144842    4.3144842    4.3144842   -19643.938   -16431.423   -22614.681   -19885.711    1529.7951   -9924.1688   -2227.5249    80.313148 
    5300    356.16679   -116.86317    0.3222672   -116.54091    7804.5842    4.2925043    4.2925043    4.2925043    7804.5842    4459.5528    14447.987    4506.2132   -3576.7416    10029.725   -192.91289    79.091935 
    5400     587.6903   -117.07275   0.53175453   -116.54099   -5394.7432    4.3031799    4.3031799    4.3031799   -5394.7432    3554.9735   -8673.5192   -11065.684   -727.86264    9307.3085    2683.6402    79.683521 
    5500     561.2978   -117.04888   0.50787404   -116.54101    -20428.65    4.3123091    4.3123091    4.3123091    -20428.65   -16410.049   -23553.331   -21322.571   -2444.8335   -6612.7233    1251.7473    80.191743 
    5600    178.46623   -116.70394   0.16147999   -116.54246    9059.0155    4.2931541    4.2931541    4.2931541    9059.0155    8740.6403    10293.023    8143.3832    3777.6661    8284.6844   -987.65208    79.127864 
    5700    583.03333   -117.07036   0.52754081   -116.54282   -14738.583    4.3063291    4.3063291    4.3063291   -14738.583   -3057.8314   -23340.136   -17817.782    970.27746    1560.9575   -1743.7231    79.858594 
    5800    468.12087   -116.96628    0.4235656   -116.54271    3596.3491    4.3077418    4.3077418    4.3077418    3596.3491    19602.006   -7025.3194   -1787.6393   -1849.1692    4427.0349   -964.59192    79.937211 
    5900    520.26915   -117.01147   0.47075046   -116.54072    8701.4129    4.2924938    4.2924938    4.2924938    8701.4129    5607.6031    298.86007    20197.775   -2582.4638   -129.65119    3523.8677    79.091357 
    6000    371.29473   -116.87984   0.33595527   -116.54388   -7904.4699    4.3094702    4.3094702    4.3094702   -7904.4699    16993.599   -17495.004   -23212.005    2326.8051   -893.12728    3909.9324     80.03347 
    6100    326.06794   -116.83819   0.29503313   -116.54316    9366.9889    4.3030937    4.3030937    4.3030937    9366.9889    13674.168    -539.2667    14966.065    7254.5893    6054.0762   -194.14706    79.678729 
    6200    774.97814   -117.24016    0.7012165   -116.53894    1443.8117    4.2951528    4.2951528    4.2951528    1443.8117    8117.4217   -6087.0989    2301.1123   -2456.2549    -3348.777   -5652.4716    79.238431 
    6300    360.52608   -116.86968   0.32621157   -116.54346   -316.62437    4.3102332    4.3102332    4.3102332   -316.62437    7148.2637   -5734.3185   -2363.8183    3736.1996     3430.765   -1414.9895    80.075986 
    6400    355.88669   -116.86496   0.32201376   -116.54295   -4126.9477    4.3011439    4.3011439    4.3011439   -4126.9477   -12072.867   -8893.6286    8585.6524    1939.2798   -2238.3723    6500.3588    79.570471 
    6500    551.60294   -117.04113   0.49910193   -116.54202   -2557.2844    4.2986049    4.2986049    4.2986049   -2557.2844    3216.8993   -3292.0414   -7596.7113    -1000.999    991.28921     5690.218    79.429641 
    6600    490.46642   -116.98499   0.44378432    -116.5412    1235.2717    4.3084473    4.3084473    4.3084473    1235.2717   -7460.1564   -6380.8191    17546.791    5130.3147    3430.3945   -1929.4622    79.976495 
    6700    581.34876   -117.06743   0.52601658   -116.54141   -12657.325    4.3021229    4.3021229    4.3021229   -12657.325   -14056.285   -10313.914   -13601.777    3270.9966   -2742.9104    -7043.441    79.624814 
    6800    251.52512   -116.77202   0.22758521   -116.54444    8034.4082    4.2973416    4.2973416    4.2973416    8034.4082   -8961.1918    18139.987     14924.43    2840.0809    10389.213    1032.5535     79.35963 
    6900    612.26827   -117.09568   0.55399319   -116.54168   -7292.7521    4.3090414    4.3090414    4.3090414   -7292.7521   -11020.326   -3384.9796   -7472.9504   -1856.1514    265.41438     6073.163    80.009583 
    7000    655.98739   -117.13355   0.59355118      -116.54   -352.55504    4.3014724    4.3014724    4.3014724   -352.55504    -9682.562    11389.739   -2764.8417   -2414.6275    46.209429    4710.8891    79.588704 
    7100    378.85698   -116.88603   0.34279775   -116.54323      7659.89    4.2971048    4.2971048    4.2971048      7659.89   -8590.5688    12550.432    19019.807    3461.9172    8896.5761   -3665.2172    79.346509 
    7200    546.36388   -117.03726   0.49436152    -116.5429   -12810.729    4.3102786    4.3102786    4.3102786   -12810.729   -15197.079    1884.2075   -25119.314    1660.6014   -6143.9225   -3623.6071    80.078519 
    7300     548.1069   -117.03611   0.49593864   -116.54017    7295.0101    4.3004718    4.3004718    4.3004718    7295.0101   -2480.1151    13431.517    10933.628    1476.3306    3409.5495     697.2459    79.533174 
    7400    603.95302   -117.08651   0.54646938   -116.54005    4035.1071    4.2977892    4.2977892    4.2977892    4035.1071    7578.3345    11254.289   -6727.3021   -61.615621    5296.5881     5282.177    79.384429 
    7500    448.49391   -116.94906   0.40580672   -116.54325   -8517.8015    4.3109351    4.3109351    4.3109351   -8517.8015     -19180.6    2089.9344   -8462.7393    991.39265   -6391.1625    4468.6198    80.115116 
    7600    467.71356   -116.96515   0.42319706   -116.54195    4386.4085    4.2987321    4.2987321    4.2987321    4386.4085    9991.8666    8598.0331   -5430.6742   -533.91343   -1731.2826   -4549.4489    79.436688 
    7700    676.10615   -117.15148   0.61175505   -116.53972    1781.8223    4.2979451    4.2979451    4.2979451    1781.8223    7077.4743    2420.6417   -4152.6489    1895.6374   -1490.8596   -299.20542    79.393068 
    7800     601.1624   -117.08577   0.54394437   -116.54183   -8621.8604    4.3105215    4.3105215    4.3105215   -8621.8604    -15691.12   -9090.4006   -1084.0605    3302.8101    4521.8177   -372.44285    80.092057 
    7900     352.7135   -116.86366   0.31914259   -116.54451    10239.468    4.2964761    4.2964761    4.2964761    10239.468    14890.066    25763.243   -9934.9055   -1439.1908   -3203.2151     10403.13     79.31169 
    8000    640.22433   -117.12366   0.57928843   -116.54437   -1866.3325    4.3013699    4.3013699    4.3013699   -1866.3325   -8490.7607    3851.1329   -959.36964   -2400.2346   -6702.2584   -751.38142    79.583014 
    8100    588.84631   -117.07506   0.53280052   -116.54226    2550.2534    4.3094535    4.3094535    4.3094535    2550.2534   -571.87466    19485.734   -11263.099     178.9138     5397.172   -1736.2716     80.03254 
    8200     617.3309   -117.09988   0.55857398   -116.54131    3181.0752    4.2945623    4.2945623    4.2945623    3181.0752    4955.1154   -132.73832    4720.8487     9194.042   -2749.4335    1933.3768    79.205752 
    8300     407.9474   -116.91429   0.36911938   -116.54517   -1500.6502    4.3052198    4.3052198    4.3052198   -1500.6502   -17605.627    26749.984   -13646.308    2582.6754   -485.84433   -783.83172    79.796895 
    8400    635.66643   -117.11572   0.57516435   -116.54055   -4905.7785    4.3069049    4.3069049    4.3069049   -4905.7785     1835.135   -3088.0199   -13464.451   -3536.1695   -50.516395    1659.9516    79.890629 
    8500    666.51813   -117.14174   0.60307961   -116.53866    3287.2059    4.2965971    4.2965971    4.2965971    3287.2059   -5745.5757     14823.76    783.43298    -589.9249   -1482.8285   -3248.3762     79.31839 
    8600    443.89756    -116.9451   0.40164784   -116.54345   -3194.9803    4.3048785    4.3048785    4.3048785   -3194.9803   -6775.4567    5979.3688   -8788.8531    4776.7899    1047.1524     4390.295    79.777919 
    8700    542.94239   -117.03449   0.49126569   -116.54322    -8104.218    4.3039443    4.3039443    4.3039443    -8104.218   -11078.065    1139.0162   -14373.605    4275.5709   -8949.7544   -2828.8529    79.725992 
    8800    669.65314   -117.14655   0.60591624   -116.54063    1879.6658    4.2998263    4.2998263    4.2998263    1879.6658    18993.108   -2146.6665   -11207.444    184.00276    5847.7812   -5827.6433    79.497365 
    8900    593.19106   -117.07958   0.53673173   -116.54285    4380.4478     4.303352     4.303352     4.303352    4380.4478   -1767.0482    14191.958     716.4338    2936.5802   -50.635112   -27.021999    79.693082 
    9000    523.69403   -117.01912   0.47384936   -116.54527    330.27769    4.3015986    4.3015986    4.3015986    330.27769    1747.0134    8938.8246   -9695.0048   -3778.3075   -8016.7609    4503.8311    79.595708 
    9100    485.66385   -116.98441   0.43943886   -116.54498    7532.2474    4.3015768    4.3015768    4.3015768    7532.2474    24121.848    12262.891   -13787.996    1992.2106    1506.6662    2498.2112    79.594497 
    9200    737.26022   -117.20864   0.66708854   -116.54155    639.67563    4.3032613    4.3032613    4.3032613    639.67563   -7863.5183    16033.008   -6250.4624    1153.1195   -1625.4021   -6455.4759     79.68804 
    9300     539.4776   -117.03102   0.48813067   -116.54289    7123.3219    4.3006806    4.3006806    4.3006806    7123.3219    22982.498   -679.05256   -933.47945    8244.4685    4306.3503   -2867.6181     79.54476 
    9400    522.25217   -117.01634   0.47254474    -116.5438   -6743.6436    4.3042461    4.3042461    4.3042461   -6743.6436   -12974.388    8704.4177   -15960.961    -1319.949   -11341.953    2370.9644    79.742762 
    9500    570.59057   -117.05913   0.51628234   -116.54285   -4538.7317    4.3025533    4.3025533    4.3025533   -4538.7317    4757.5473   -3019.8253   -15353.917   -4378.2186   -1284.9377    6850.8036    79.648718 
    9600    593.47215   -117.07835   0.53698607   -116.54137    1238.6052    4.3007467    4.3007467    4.3007467    1238.6052   -1452.1988    3818.3976    1349.6168    7515.2715    9045.7584   -1095.3476    79.548425 
    9700    561.15273   -117.04945   0.50774278    -116.5417   -7482.0761    4.3053996    4.3053996    4.3053996   -7482.0761   -6457.3724   -4069.0906   -11919.765    6316.6095   -9699.0546   -3869.9544    79.806891 
    9800    419.18252   -116.92211   0.37928515   -116.54283   -2.5101014    4.3006266    4.3006266    4.3006266   -2.5101014   -6207.6414     10842.97   -4642.8593    131.56384    60.082764    -675.5214    79.541763 
    9900     628.6448   -117.11075   0.56881102   -116.54194   -2967.5025    4.3026412    4.3026412    4.3026412   -2967.5025    -1234.425   -2403.3119   -5264.7705   -9845.7478    -5776.595    -839.4153    79.653598 
   10000    579.08564   -117.06514   0.52396886   -116.54117    987.23669    4.3067365    4.3067365    4.3067365    987.23669    11545.672    765.31931   -9349.2814    6527.0108    4941.9465    5344.2965    79.881261 
   10100    571.09395   -117.05731   0.51673781   -116.54057    3844.0427    4.2967783    4.2967783    4.2967783    3844.0427   -12478.997    9396.4557    14614.669    5534.6632   -806.89506    1656.6061    79.328427 
   10200    479.32576   -116.97642   0.43370402   -116.54271   -585.72406    4.3058857    4.3058857    4.3058857   -585.72406    16046.901   -1489.1929   -16314.881    353.95441   -7550.1862   -4639.1568    79.833926 
   10300    604.70718   -117.08769   0.54715177   -116.54054   -1128.8986    4.3054273    4.3054273    4.3054273   -1128.8986   -4471.9003    9935.1343   -8849.9299   -2819.1767    2920.1595   -5275.0871    79.808433 
   10400    497.66109    -116.9914   0.45029421    -116.5411    11454.307    4.2951768    4.2951768    4.2951768    11454.307    14570.689   -950.08376    20742.317    4143.7436   -5050.6438    2271.5248    79.239758 
   10500    470.45206   -116.97024   0.42567491   -116.54457   -7151.8098    4.3066615    4.3066615    4.3066615   -7151.8098   -12948.995    7134.7466   -15641.181    7200.9954    979.84331    6827.1114    79.877084 
   10600    482.23225   -116.97952   0.43633387   -116.54318   -3896.2301    4.3044017    4.3044017    4.3044017   -3896.2301    3354.4086    1260.2607    -16303.36   -3929.6127   -8726.5318   -2439.4099    79.751412 
   10700    520.06989   -117.01209   0.47057017   -116.54152     5663.983    4.2965212    4.2965212    4.2965212     5663.983    7360.8617   -1027.2374    10658.325    4976.9421    2369.0572   -4518.9238    79.314186 
   10800    493.42995   -116.98939   0.44646579   -116.54292   -6814.3853    4.3056177    4.3056177    4.3056177   -6814.3853    2678.5217   -8735.0149   -14386.663    3009.1923   -6972.1633   -1136.9087    79.819024 
   10900    454.60933   -116.95456   0.41134007   -116.54322   -6148.6767    4.3043812    4.3043812    4.3043812   -6148.6767    6352.7947   -7145.2785   -17653.546     4475.962   -6623.5561    5656.6892    79.750271 
   11000    550.67438   -117.04019   0.49826175   -116.54193    2153.7463    4.2974345    4.2974345    4.2974345    2153.7463    13012.489   -3322.2709   -3228.9795   -4653.7927    5389.2062    60.181132    79.364776 
   11100    471.16036   -116.96877   0.42631579   -116.54245    828.05186    4.3046602    4.3046602    4.3046602    828.05186    16605.575   -12669.956    -1451.464    5006.5876   -1590.5866   -5945.4218    79.765781 
   11200    462.76243    -116.9619   0.41871717   -116.54318   -4662.1728    4.3025858    4.3025858    4.3025858   -4662.1728   -13885.735    12595.574   -12696.358    3505.9784   -3850.0542   -57.009071    79.650519 
   11300    430.19635   -116.93212    0.3892507   -116.54287    6426.8384     4.299088     4.299088     4.299088    6426.8384    22215.826   -2246.1027   -689.20801   -261.90297   -9161.2618    951.35867    79.456424 
   11400    565.41247   -117.05352   0.51159708   -116.54192   -2823.8302    4.3060441    4.3060441    4.3060441   -2823.8302   -12129.524    12943.144   -9285.1103    1520.5484    4807.0177    2618.0472    79.842739 
   11500     374.1062   -116.88221   0.33849915   -116.54371    5720.2816    4.2980263    4.2980263    4.2980263    5720.2816     5386.386    2783.3671    8991.0917    5720.3397    1755.7777   -1070.9334    79.397568 
   11600    442.83117     -116.945   0.40068295   -116.54432     -8015.13    4.3035768    4.3035768    4.3035768     -8015.13   -18869.006   -6546.5908    1370.2066    8465.5796   -5088.9286    82.445912    79.705569 
   11700    476.93975   -116.97366   0.43154511   -116.54212   -582.93268    4.3043596    4.3043596    4.3043596   -582.93268    9927.2549    8679.2817   -20355.335     -7330.11   -4392.2026   -2596.2866    79.749071 
   11800    544.49798   -117.03416   0.49267321   -116.54149    3380.2417    4.2956749    4.2956749    4.2956749    3380.2417   -5738.8455   -2542.1795     18421.75    9715.8769   -368.18584   -1009.1963     79.26733 
   11900    274.43503   -116.79412   0.24831458    -116.5458   -7296.3252    4.3090657    4.3090657    4.3090657   -7296.3252    220.51451   -7693.6264   -14415.864    7359.1258    500.43678    2791.3474    80.010935 
   12000    481.75349   -116.97857   0.43590069   -116.54267   -5791.4168    4.2992194    4.2992194    4.2992194   -5791.4168   -2014.4362    2879.6725   -18239.487    2714.4053   -10656.957    1389.5795    79.463708 
   12100    483.72737   -116.97936   0.43768669   -116.54168    7818.6008    4.2988398    4.2988398    4.2988398    7818.6008    16543.589    11178.171   -4265.9575     -7659.99    1563.8687    2591.9783    79.442661 
   12200    472.36842   -116.96906   0.42740887   -116.54166   -10859.248    4.3099807    4.3099807    4.3099807   -10859.248   -761.89779    -20863.14   -10952.707    8763.3378   -1531.3721   -2836.6956    80.061917 
   12300    299.34257   -116.81414   0.27085145   -116.54328    353.52228    4.2958085    4.2958085    4.2958085    353.52228   -3830.2573    16154.332   -11263.508    9976.9048   -1930.9849    2536.0126    79.274722 
   12400    484.79703   -116.98205   0.43865454    -116.5434   -4720.3184    4.3023041    4.3023041    4.3023041   -4720.3184    10413.894   -4022.9479   -20551.902   -3284.6808    303.38147    3361.2362    79.634879 
   12500     605.7133   -117.09046   0.54806213    -116.5424   -8163.6556    4.3069111    4.3069111    4.3069111   -8163.6556   -9477.3562   -4576.3808    -10437.23   -1817.4662    1338.3084   -1807.5612    79.890976 
   12600    235.97527   -116.75862   0.21351538    -116.5451    8530.0186    4.2959417    4.2959417    4.2959417    8530.0186    3800.3072    17766.697    4023.0513    7540.4459    2009.8963   -75.673127    79.282101 
   12700    458.81352   -116.95919   0.41514412   -116.54405   -13823.538     4.304321     4.304321     4.304321   -13823.538   -9092.6156   -10776.361   -21601.638    12826.599    -6414.811   -2119.2578    79.746924 
   12800    433.82709   -116.93406   0.39253587   -116.54152    3883.9328    4.3052791    4.3052791    4.3052791    3883.9328    13202.933    9823.7893   -11374.924   -8904.5801    1492.8014    3220.9707    79.800194 
   12900    593.15109   -117.07723   0.53669557   -116.54053    2032.7479    4.2961342    4.2961342    4.2961342    2032.7479   -2301.7121   -2668.0702    11068.026    1610.6469    -1078.412   -399.94426    79.292758 
   13000    246.45911   -116.76838   0.22300139   -116.54538   -980.75741    4.3044797    4.3044797    4.3044797   -980.75741    15556.725   -8603.4608   -9895.5366    10098.786   -2945.4605    1300.7255    79.755745 
   13100    456.45698   -116.95643   0.41301187   -116.54342   -4685.9608    4.3029396    4.3029396    4.3029396   -4685.9608   -14052.664   -7109.3351     7104.117    8677.8303   -2958.2602   -616.72682    79.670169 
   13200    519.29848   -117.01175   0.46987218   -116.54188    9433.9013    4.2977015    4.2977015    4.2977015    9433.9013    29566.441    2662.9087   -3927.6462   -3586.8736    977.46298    1049.8246    79.379569 
   13300    446.10049   -116.94797    0.4036411   -116.54433   -2433.0746    4.3033478    4.3033478    4.3033478   -2433.0746     -10965.3   -7119.2797    10785.356    6266.3724    2256.2608    1848.3126    79.692847 
   13400    296.37079   -116.81321   0.26816252   -116.54505   -4819.1575    4.3028561    4.3028561    4.3028561   -4819.1575   -1137.1526   -15531.081    2210.7609    8265.7114   -3760.4136   -891.20274    79.665536 
   13500    511.25827    -117.0036   0.46259722     -116.541   -4557.9726    4.3011239    4.3011239    4.3011239   -4557.9726    1928.9918    5391.7369   -20994.646   -909.44131    647.82299    7551.4765    79.569358 
   13600    524.56314   -117.01567   0.47463575   -116.54104    1777.8275    4.3007347    4.3007347    4.3007347    1777.8275     10433.47   -12575.904    7475.9164    3119.7689   -4930.1803   -725.77398    79.547763 
   13700    385.85253   -116.89216   0.34912748   -116.54303   -2926.9576    4.3031093    4.3031093    4.3031093   -2926.9576    -6955.695   -5321.9168    3496.7388    10408.364    825.56731    1897.6607    79.679597 
   13800    380.72581   -116.88697   0.34448871   -116.54249   -6913.5414    4.3042438    4.3042438    4.3042438   -6913.5414    11859.453    -11249.94   -21350.137    5005.7479   -2147.1501    4169.9062    79.742634 
   13900    574.54817   -117.06051   0.51986326   -116.54065     3741.814    4.2959935    4.2959935    4.2959935     3741.814     17286.26   -3335.5936   -2725.2248   -8764.5649    1694.6822   -3937.6192    79.284967 
   14000    448.25459   -116.94874   0.40559017   -116.54315    4829.0433    4.3058019    4.3058019    4.3058019    4829.0433    12458.853   -6523.7272    8552.0042    5980.0558   -1005.7011     948.5929    79.829266 
   14100    382.22527   -116.88959   0.34584546   -116.54374   -5041.3979    4.3040762    4.3040762    4.3040762   -5041.3979    16282.507   -20606.577   -10800.123    10647.273   -6758.4846   -1408.0034    79.733322 
   14200    497.32472   -116.99128   0.44998985   -116.54129    3235.6791    4.2933179    4.2933179    4.2933179    3235.6791    7309.0295    1306.8377      1091.17     6235.018       5252.7    2610.6176    79.136922 
   14300    498.20072   -116.99348   0.45078249    -116.5427   -2860.2183    4.3110086    4.3110086    4.3110086   -2860.2183    20941.324   -18090.745   -11431.234   -4196.2656   -4287.5392   -166.47124    80.119213 
   14400    507.65872   -117.00332   0.45934028   -116.54398   -5818.1347    4.2995232    4.2995232    4.2995232   -5818.1347   -3126.6099   -18889.216    4561.4221    7283.2153    858.60358   -2249.7014    79.480556 
   14500    375.07052   -116.88358   0.33937169   -116.54421    2314.2953    4.2949432    4.2949432    4.2949432    2314.2953     11039.22   -6124.9878    2028.6537    11046.785   -6332.4359    2430.6823    79.226829 
   14600    551.93525   -117.04132   0.49940261   -116.54192   -12731.384    4.3131397    4.3131397    4.3131397   -12731.384   -2571.7186   -22311.394   -13311.038   -1652.9797    7064.4261   -3178.7621     80.23809 
   14700    453.08958   -116.95144   0.40996498   -116.54148    10772.241    4.2945843    4.2945843    4.2945843    10772.241    32580.957   -9391.9171    9127.6836    5367.1488    2394.0674    224.90772    79.206971 
   14800    504.31546   -116.99898   0.45631523   -116.54266   -3199.3527     4.299789     4.299789     4.299789   -3199.3527   -3020.7663    -9048.495    2471.2034    9665.5561   -2699.0148    -1191.699    79.495299 
   14900    360.44826   -116.86927   0.32614116   -116.54313    -2276.371    4.3108266    4.3108266    4.3108266    -2276.371    26074.256   -21678.957   -11224.412    1539.8821      3914.28    1007.1559    80.109063 
   15000     675.4989   -117.15024    0.6112056   -116.53903    3032.3812      4.29246      4.29246      4.29246    3032.3812    13286.449    2601.9003    -6791.206   -3256.5566   -4296.3063    3105.5232    79.089491 
   15100    394.12601       -116.9    0.3566135   -116.54338    4618.0908    4.3047788    4.3047788    4.3047788    4618.0908    24735.337    -12435.08    1554.0161    6030.0373    3695.9253   -4344.0607    79.772373 
   15200    534.14365   -117.02602    0.4833044   -116.54272   -10898.135    4.3048527    4.3048527    4.3048527   -10898.135   -13602.743   -22987.266    3895.6039    9510.1904    -5085.069    3325.4532    79.776483 
   15300    441.63605   -116.94153   0.39960158   -116.54193    6050.0055     4.296135     4.296135     4.296135    6050.0055    27093.636     1228.621   -10172.241   -1197.3919    9043.0296    1887.1318    79.292799 
   15400    574.32058   -117.06087   0.51965733   -116.54121    -7523.627    4.3071367    4.3071367    4.3071367    -7523.627   -8157.7135   -19055.981    4642.8134   -1439.6813    6186.5451   -2844.2453    79.903528 
   15500    458.55541   -116.95687   0.41491057   -116.54195    4058.5329    4.2985323    4.2985323    4.2985323    4058.5329    17588.817   -14266.273    8853.0551    4671.0392   -5964.8457   -1284.4692    79.425614 
   15600     466.8207   -116.96555   0.42238918   -116.54316   -5908.0649    4.3026353    4.3026353    4.3026353   -5908.0649   -2774.8744   -11736.593   -3212.7269    5626.9184     2799.196   -1122.4237    79.653269 
   15700    553.44845   -117.04423   0.50077178   -116.54346   -4883.2678    4.3025081    4.3025081    4.3025081   -4883.2678    20235.364   -16253.849   -18631.319   -536.49464   -2155.5978    1790.9301    79.646205 
   15800    509.91096   -117.00529   0.46137815   -116.54391     7141.656    4.2974134    4.2974134    4.2974134     7141.656    15378.924   -6919.0592    12965.103    3390.4286    6203.1541   -7149.2759    79.363607 
   15900    458.86197   -116.95938   0.41518796    -116.5442   -2275.9464    4.3062623    4.3062623    4.3062623   -2275.9464    16307.116   -21462.174   -1672.7809    6194.8044   -7279.6248     1104.459    79.854875 
   16000    595.74779   -117.08124   0.53904512   -116.54219   -1662.2972     4.299148     4.299148     4.299148   -1662.2972    7370.5772   -13115.554    758.08503   -1933.7031     -750.143    28.238427    79.459749 
   16100    455.46401   -116.95529   0.41211341   -116.54318    11964.868    4.3006022    4.3006022    4.3006022    11964.868    18977.137   -9375.8144     26293.28   -1472.7851    1256.3984   -4823.5111    79.540411 
   16200    577.76972   -117.06454   0.52277818   -116.54177   -7620.9145    4.3073155    4.3073155    4.3073155   -7620.9145    10280.086   -25483.251   -7659.5778    7351.1093    2521.1819   -600.76316    79.913481 
   16300    514.37301   -117.00794   0.46541551   -116.54252    5636.3831    4.2937283    4.2937283    4.2937283    5636.3831    2019.0255   -11141.776      26031.9    8692.6272   -1271.7398   -686.76462    79.159616 
   16400      534.985     -117.029   0.48406567   -116.54494    24.784585     4.304101     4.304101     4.304101    24.784585    8247.0003   -16338.469     8165.822   -1199.2629   -3576.0518    773.34565    79.734698 
   16500    608.19679   -117.09283   0.55030924   -116.54253    -13238.17    4.3065962    4.3065962    4.3065962    -13238.17   -5867.2466   -22921.666   -10925.598   -2094.0393    2744.4295   -3261.7197    79.873452 
   16600    377.87635   -116.88449   0.34191046   -116.54258    11927.738    4.2903701    4.2903701    4.2903701    11927.738    21349.127   -6520.5346    20954.622    8981.7789   -177.12452      -418.81    78.974025 
   16700    707.17779   -117.18209   0.63986932   -116.54222   -16107.648    4.3099034    4.3099034    4.3099034   -16107.648   -11692.733   -20963.496   -15666.714    2795.0487    2957.5927    2372.6367    80.057609 
   16800     463.3207   -116.96227   0.41922231   -116.54305    1059.0281    4.3031568    4.3031568    4.3031568    1059.0281    27400.458   -16030.429   -8192.9449   -322.13473   -5363.3473   -2630.5974    79.682235 
   16900     531.5891    -117.0223   0.48099299   -116.54131    3897.0885    4.2892536    4.2892536    4.2892536    3897.0885    6818.7542    6379.2006   -1506.6892    6033.1008    4642.1113   -2998.3319    78.912385 
   17000    495.41577   -116.99057    0.4482626   -116.54231   -9767.2221    4.3137232    4.3137232    4.3137232   -9767.2221    17709.666   -29181.921   -17829.412    1818.9672   -5588.8416    767.70313    80.270659 
   17100    639.49661   -117.11896   0.57862998   -116.54033    1029.6159    4.2975339    4.2975339    4.2975339    1029.6159    3134.8464   -3513.4295    3467.4309   -1798.9608    3961.5041    2242.0678    79.370284 
   17200     459.7572   -116.95849   0.41599798   -116.54249    9745.1792    4.2930718    4.2930718    4.2930718    9745.1792    33770.576    4493.0448    -9028.083   -2132.0849    7169.8991   -1031.9775    79.123313 
   17300    529.48055   -117.02106   0.47908513   -116.54197   -17040.279    4.3136647    4.3136647    4.3136647   -17040.279   -8836.0818   -31880.481   -10404.274    6967.6332   -1881.8159   -4508.7214    80.267392 
   17400    506.65976   -116.99884    0.4584364   -116.54041    10636.587    4.2928536    4.2928536    4.2928536    10636.587    26543.452   -737.30815    6103.6161    2671.7335     2308.064    -1870.455    79.111249 
   17500    682.24433   -117.15836     0.617309   -116.54105   -4404.0675    4.3001505    4.3001505    4.3001505   -4404.0675    1326.3204   -10080.615   -4457.9075   -3486.6003    749.22957    98.503365    79.515346 
   17600    369.99635   -116.87819   0.33478047   -116.54341    2933.4274    4.3074752    4.3074752    4.3074752    2933.4274    30867.954   -19787.319   -2280.3526   -776.25396    6805.0087   -6387.7064    79.922368 
   17700    588.53041   -117.07475   0.53251468   -116.54223     1938.827    4.2945568    4.2945568    4.2945568     1938.827    10367.495   -4990.7674    439.75316    3607.5363    -1718.914   -2135.6801    79.205446 
   17800    543.73972   -117.03734   0.49198713   -116.54535     2923.531     4.303306     4.303306     4.303306     2923.531    28696.171   -15171.171   -4754.4069    1059.8975    408.71727    2616.6872    79.690526 
   17900     476.0248   -116.97528   0.43071725   -116.54457     5211.926    4.3029693    4.3029693    4.3029693     5211.926    14385.537   -9960.0765    11210.318    668.57978    6539.0825   -4949.2661    79.671823 
   18000    506.34806   -117.00127   0.45815436   -116.54311    1506.1005    4.2960772    4.2960772    4.2960772    1506.1005    23552.841   -5878.7462   -13155.794    2424.2413   -394.00035   -5685.7733    79.289602 
   18100    535.13703   -117.02733   0.48420323   -116.54313   -8845.6299    4.3039173    4.3039173    4.3039173   -8845.6299   -5708.9524   -19391.771   -1436.1661    3050.4383     3041.314    1720.0534    79.724489 
   18200      487.986   -116.98456   0.44153999   -116.54302   -121.61539    4.2997223    4.2997223    4.2997223   -121.61539     4470.154   -12369.008    7534.0082   -3232.0156   -1557.9698   -832.64927    79.491596 
   18300    570.51861   -117.05949   0.51621723   -116.54327   -10934.719    4.3018803    4.3018803    4.3018803   -10934.719    6624.3814   -18216.166   -21212.372   -881.45818    10306.399   -6154.6852    79.611347 
   18400    416.39714   -116.92116   0.37676489   -116.54439   -2534.3332    4.3017497    4.3017497    4.3017497   -2534.3332    8721.9666   -10482.584   -5842.3824    9710.9763   -2075.4312   -2069.0622    79.604094 
   18500    584.53821   -117.07084   0.52890246   -116.54194    397.73394    4.2986982    4.2986982    4.2986982    397.73394    11680.892   -10349.969   -137.72125    863.06635   -4674.6717    2494.3733    79.434809 
   18600    531.67206   -117.02285   0.48106806   -116.54178   -3077.5275    4.3057453    4.3057453    4.3057453   -3077.5275    13897.314   -17884.426   -5245.4706   -5789.4257    2771.4277   -351.40185     79.82612 
   18700     443.8165   -116.94411    0.4015745   -116.54254    10713.497    4.2951496    4.2951496    4.2951496    10713.497    20714.957    8259.6704    3165.8633   -640.95484    4708.6533   -3885.7961    79.238253 
   18800    559.05546   -117.04879   0.50584513   -116.54295    893.87189    4.3035373    4.3035373    4.3035373    893.87189    19785.472   -13958.404   -3145.4527    6402.1128    4430.6689    1358.1136    79.703373 
   18900    511.43994    -117.0048    0.4627616   -116.54204    4286.9259    4.3035532    4.3035532    4.3035532    4286.9259    19202.572   -7696.5126    1354.7185    1618.9989   -9604.0559   -293.50539     79.70426 
   19000    553.05065   -117.04185   0.50041185   -116.54144    2175.9122    4.2955154    4.2955154    4.2955154    2175.9122     1066.626    1321.2386    4139.8719   -7048.9198    2877.8632   -5032.8151    79.258499 
   19100    453.92394   -116.95385   0.41071992   -116.54313   -2820.1225     4.306168     4.306168     4.306168   -2820.1225    12432.097   -20007.781   -884.68329    535.33192    4777.8515    -2957.974    79.849629 
   19200    538.24974   -117.02872   0.48701968    -116.5417    -4865.539    4.3028664    4.3028664    4.3028664    -4865.539   -8688.1997   -7033.8335    1125.4163    2793.9761    4831.8482   -835.25668    79.666105 
   19300    492.38446    -116.9868   0.44551981   -116.54128    5251.0172    4.2931102    4.2931102    4.2931102    5251.0172    11969.591   -8009.6013    11793.061   -3823.3124   -2601.9698    2650.6426    79.125437 
   19400    549.55084   -117.04013   0.49724515   -116.54289   -12868.612    4.3092416    4.3092416    4.3092416   -12868.612   -13166.884   -22537.785   -2901.1661   -2914.0145    377.22782   -5296.4789    80.020735 
   19500    410.09986   -116.91425   0.37106698   -116.54318    1959.6916    4.3013059    4.3013059    4.3013059    1959.6916    27371.049   -9811.7999   -11680.175    5861.7052    3276.2177   -3900.0427     79.57946 
   19600    686.61135   -117.16144   0.62126038   -116.54018    5256.1956    4.2895045    4.2895045    4.2895045    5256.1956    5255.5765   -3664.6043    14177.615     841.2318     1927.947    2620.7034    78.926235 
   19700    390.73118   -116.89668   0.35354179   -116.54314   -3956.9035    4.3153946    4.3153946    4.3153946   -3956.9035    26148.496   -27416.246   -10602.961   -7555.2119    5198.4274   -4607.0115    80.363997 
   19800    567.34427   -117.05497   0.51334502   -116.54162    1490.4273    4.2919445    4.2919445    4.2919445    1490.4273    5345.9485    368.39175   -1243.0584   -1740.4061    1559.5657   -4423.1516    79.060997 
   19900    435.08016   -116.93775   0.39366967   -116.54408    9512.5475    4.2966292    4.2966292    4.2966292    9512.5475    26976.948   -4192.3202    5753.0146    6945.7511    7920.9387   -488.11091    79.320169 
   20000    611.26245   -117.09345   0.55308311   -116.54037   -18973.281    4.3136023    4.3136023    4.3136023   -18973.281   -17536.356   -24940.074   -14443.415   -1175.5199   -3055.6993    3695.9506    80.263912 
   20100    420.40304   -116.92007    0.3803895   -116.53968    8611.5011    4.2861154    4.2861154    4.2861154    8611.5011    16892.815    1329.7109    7611.9773   -8776.9835    9790.3489   -2437.6614    78.739307 
   20200    545.95493   -117.03666   0.49399149   -116.54267   -16268.236    4.3075025    4.3075025    4.3075025   -16268.236   -18636.915   -9406.2548   -20761.537    -2064.316    5706.9858   -1200.9122    79.923889 
   20300    520.70344   -117.01267   0.47114341   -116.54153   -2728.3598    4.3043069    4.3043069    4.3043069   -2728.3598    17133.648   -10256.841   -15061.887    4298.4595   -3085.6612    4737.4657    79.746145 
   20400    579.76001   -117.06433   0.52457904   -116.53975     8040.464    4.2897009    4.2897009    4.2897009     8040.464    4883.9938   -1077.0383    20314.437   -3035.0075    7191.2847   -2186.3331    78.937077 
   20500    377.44578   -116.88505   0.34152087   -116.54353    -2807.157    4.3107291    4.3107291    4.3107291    -2807.157    13586.149   -6895.2027   -15112.417   -2628.6802     990.5401   -2414.3958    80.103628 
   20600    552.79686   -117.04045   0.50018222   -116.54027    4681.8978     4.298349     4.298349     4.298349    4681.8978    12344.898   -3535.9025    5236.6977    589.40699    2432.2913    244.94529    79.415454 
   20700    564.30924   -117.05084   0.51059886   -116.54024    13329.215    4.2951775    4.2951775    4.2951775    13329.215    22371.519    3789.6122    13826.514   -982.11872   -6520.8635    3349.4562    79.239793 
   20800    558.98625   -117.04781    0.5057825   -116.54203   -6949.1998    4.3093002    4.3093002    4.3093002   -6949.1998   -642.80505   -8614.5297   -11590.265   -6964.3833    8620.2892   -233.88177    80.023998 
   20900    458.32953   -116.95714   0.41470619   -116.54244    1835.5886    4.2958032    4.2958032    4.2958032    1835.5886   -3600.0028   -4077.8265    13184.595    155.84472    2001.9471   -4073.4576    79.274431 
   21000    540.80009   -117.03176   0.48932729   -116.54243    1953.6778    4.2982959    4.2982959    4.2982959    1953.6778     5889.667    9147.8746   -9176.5082    2811.6787   -3476.0128    549.83285    79.412508 
   21100    613.50399   -117.09587   0.55511131   -116.54076   -7399.7739    4.3080393    4.3080393    4.3080393   -7399.7739   -13897.603   -14129.476    5827.7576   -2615.9129   -4828.3949    165.89793    79.953774 
   21200    443.90062   -116.94306   0.40165061   -116.54141    4082.1437    4.2935313    4.2935313    4.2935313    4082.1437   -200.08349   -3642.6319    16089.147    -7040.639    3343.1554   -3086.4113     79.14872 
   21300    485.41171   -116.98276   0.43921072   -116.54355    -8055.537    4.3020369    4.3020369    4.3020369    -8055.537   -8678.5234   -2397.1179    -13090.97   -758.74336    11631.787   -4998.6569    79.620039 
   21400    513.08557   -117.00603   0.46425061   -116.54178    700.10611    4.3047636    4.3047636    4.3047636    700.10611    13243.114   -12957.003    1814.2074    5376.5204   -4858.5502    2187.9081    79.771528 
   21500    740.79482   -117.20949   0.67028672    -116.5392    2624.8326    4.2922412    4.2922412    4.2922412    2624.8326    3876.7275    2169.4437    1828.3264   -5853.8236   -1763.2239    767.34932    79.077393 
   21600    342.31344   -116.85424   0.30973239    -116.5445   -1830.1832    4.3072279    4.3072279    4.3072279   -1830.1832     18388.68   -17929.815    -5949.414   -2118.9394    1720.3242   -3562.3486    79.908605 
   21700    567.65416   -117.05624   0.51362541   -116.54261   -6922.2428    4.2983032    4.2983032    4.2983032   -6922.2428   -7574.6427   -4989.6722   -8202.4135   -179.82231    11838.407    1961.7075    79.412915 
   21800    516.06961   -117.00896   0.46695063   -116.54201    11870.779    4.2961424    4.2961424    4.2961424    11870.779    18359.197    3929.6363    13323.505   -383.99429   -4752.6233   -706.44749    79.293212 
   21900     625.6948   -117.10749   0.56614181   -116.54135   -10789.646    4.3076336    4.3076336    4.3076336   -10789.646   -8168.0094   -25408.993    1208.0634   -1907.6694   -2592.6909   -3435.6596    79.931189 
   22000    434.70396   -116.93604   0.39332928   -116.54272   -2628.2321    4.2952589    4.2952589    4.2952589   -2628.2321   -8445.9255    2485.6658   -1924.4368   -4369.2157    1142.1116   -2445.4097    79.244299 
   22100    458.05411   -116.95817   0.41445698   -116.54371    553.75857    4.3014075    4.3014075    4.3014075    553.75857   -4407.4623    739.86654    5328.8715    3106.5073   -404.38449     5034.707    79.585101 
   22200    749.12864   -117.21779   0.67782734   -116.53996   -6211.2585    4.3039909    4.3039909    4.3039909   -6211.2585    3374.9259    -16291.31   -5717.3914   -3410.1142    5251.3359    3095.9118    79.728581 
   22300    438.92108   -116.93953   0.39714502   -116.54239    10241.142    4.2954621    4.2954621    4.2954621    10241.142   -2149.1181    9145.0015    23727.543   -5609.9737   -4113.8542   -3337.0048    79.255548 
   22400    499.41486   -116.99683   0.45188106   -116.54495   -5177.1188    4.3043513    4.3043513    4.3043513   -5177.1188    3084.3738   -10791.797    -7823.933    16.623259    6754.0397   -924.46108    79.748608 
   22500    564.73766   -117.05394    0.5109865   -116.54295    5696.7093    4.3010152    4.3010152    4.3010152    5696.7093     17937.33    536.49944   -1383.7016    2258.1097   -1972.1882   -204.28077    79.563327 
   22600    653.43526   -117.13145   0.59124195   -116.54021    10567.842    4.2937747    4.2937747    4.2937747    10567.842    2316.3548    12087.781    17299.391    2469.9394    3141.7349    186.13981    79.162182 
   22700    469.20514   -116.96784   0.42454667   -116.54329    -8258.879    4.3079139    4.3079139    4.3079139    -8258.879    18816.871   -21944.267   -21649.241   -3588.3785    359.40331    -4441.408     79.94679 
   22800    448.51897   -116.94999   0.40582939   -116.54416   -1208.0002     4.296662     4.296662     4.296662   -1208.0002   -11841.069    7071.0857    1145.9827   -3408.0861    8622.0768   -1150.2348    79.321983 
   22900    586.24687   -117.07362   0.53044849   -116.54317    4915.2366    4.2962472    4.2962472    4.2962472    4915.2366    5530.2669    4574.3186    4641.1243    3566.6166    4124.9711     2666.804    79.299014 
   23000    643.86065   -117.12423   0.58257865   -116.54165   -17358.679    4.3104647    4.3104647    4.3104647   -17358.679   -20194.501   -26370.577   -5510.9606    701.90098    240.23534   -4781.3846     80.08889 
   23100    309.99059   -116.82371     0.280486   -116.54322    8726.2277    4.2911964    4.2911964    4.2911964    8726.2277     10561.03    9178.2832    6439.3702     701.8827    10372.454   -2869.0431    79.019664 
   23200    650.12563   -117.13098   0.58824733   -116.54273    -11257.27    4.3032585    4.3032585    4.3032585    -11257.27    -18204.99   -5649.0382   -9917.7804   -3065.7572   -3081.8787    742.09298    79.687884 
   23300      557.247   -117.04521    0.5042088     -116.541    1017.4238     4.306779     4.306779     4.306779    1017.4238    16884.553   -12095.848   -1736.4332    756.91938   -146.10412   -148.73745    79.883623 
   23400    607.88083   -117.08951   0.55002335   -116.53948    6899.2244    4.2890754    4.2890754    4.2890754    6899.2244    4226.2326    5234.4589    11236.982    2334.0065     7329.771   -4944.6808    78.902549 
   23500    402.91803   -116.90862    0.3645687   -116.54406   -1438.7943    4.3084168    4.3084168    4.3084168   -1438.7943    16443.624   -15746.043   -5013.9643    -1175.419    10161.232   -5171.6696    79.974792 
   23600    570.73983   -117.05871    0.5164174   -116.54229    2091.5431     4.300404     4.300404     4.300404    2091.5431   -4669.7674     8163.529    2780.8678    2868.6862   -4856.0569    4227.6675    79.529409 
   23700    604.99647   -117.08837   0.54741352   -116.54096    10606.179     4.289951     4.289951     4.289951    10606.179    13580.616   -382.53933    18620.459     1532.886   -5119.1163   -970.30204    78.950884 
   23800     450.1213   -116.94965   0.40727921   -116.54237   -12404.692    4.3125148    4.3125148    4.3125148   -12404.692    -12038.09   -15805.109   -9370.8774    3270.0282    10381.136   -983.39978    80.203219 
   23900    496.42902   -116.99095   0.44917941   -116.54178    1391.4442    4.2936572    4.2936572    4.2936572    1391.4442   -3223.3067    14588.537   -7190.8977   -4049.3265    9821.9272    1881.9373    79.155682 
   24000    650.79258   -117.13049    0.5888508   -116.54164    352.75774    4.2970509    4.2970509    4.2970509    352.75774   -7138.1652   -1437.7872    9634.2257    3012.9791   -2928.2559   -517.42916    79.343524 
   24100    504.52856   -116.99871   0.45650805    -116.5422   -6355.3938    4.3096953    4.3096953    4.3096953   -6355.3938   -2913.5385   -6831.6122   -9321.0306    5909.7063   -6436.4449   -1373.5681    80.046014 
   24200    488.06804   -116.98323   0.44161422   -116.54162    5562.3076    4.2907368    4.2907368    4.2907368    5562.3076    5186.5486    3907.4973    7592.8768   -918.00756     15030.19   -3860.7678    78.994277 
   24300    568.30993   -117.05767   0.51421877   -116.54345    3135.0093    4.3021414    4.3021414    4.3021414    3135.0093    3189.5094    3588.4424    2627.0762   -1216.1612    3909.5224    1780.3075    79.625843 
   24400     563.0653   -117.05076   0.50947331   -116.54128    3444.8876    4.3051863    4.3051863    4.3051863    3444.8876    12824.317   -1557.6068   -932.04747    538.19082   -3733.3173    -1390.416    79.795029 
   24500    532.15483   -117.02196   0.48150487   -116.54045     5368.578     4.291313     4.291313     4.291313     5368.578    6649.5075   -2921.3019    12377.528    4741.9162   -1961.9296   -5470.6528    79.026105 
   24600    433.38014   -116.93518   0.39213146   -116.54305   -368.19227    4.3056384    4.3056384    4.3056384   -368.19227    16026.639    388.40203   -17519.617   -45.074313    5260.1342   -1019.9239     79.82017 
   24700    760.34363   -117.22769    0.6879749   -116.53972    -6990.213    4.3001257    4.3001257    4.3001257    -6990.213   -15084.817   -578.01533   -5307.8066    2254.0938    5004.2746    2921.1112    79.513972 
   24800    433.95183   -116.93521   0.39264874   -116.54257    7042.4431    4.2943643    4.2943643    4.2943643    7042.4431    13268.986    2452.9399    5405.4029    6880.4249   -9261.0438   -5522.0848    79.194797 
   24900    557.69176   -117.04779   0.50461122   -116.54318   -17240.834    4.3058287    4.3058287    4.3058287   -17240.834   -18878.165   -15548.384   -17295.953    1913.4811    5162.1258   -10567.777    79.830756 
   25000    567.92539   -117.05634   0.51387082   -116.54247    632.12021    4.2980197    4.2980197    4.2980197    632.12021    1181.8178   -660.37834    1374.9212   -3675.4257   -70.803604    214.55226    79.397205 
   25100    635.74146   -117.11706   0.57523223   -116.54183     4869.337    4.2957051    4.2957051    4.2957051     4869.337   -2754.5554    9192.2835    8170.2829    6572.3572    776.05723    3272.8491    79.268997 
   25200    489.78468   -116.98735   0.44316747   -116.54418    -6019.574    4.3053487    4.3053487    4.3053487    -6019.574    9797.0403   -22233.744   -5622.0181    8771.9922    -213.3379   -4229.7889    79.804063 
   25300    503.96519   -116.99893    0.4559983   -116.54293     5855.936    4.2959934    4.2959934    4.2959934     5855.936   -5084.2881    13001.415    9650.6811    684.38586   -2784.1606   -578.55043    79.284962 
   25400    695.32362    -117.1704   0.62914343   -116.54125    7064.7202    4.2994202    4.2994202    4.2994202    7064.7202    20932.638    2754.7698   -2493.2473    -3519.111    5134.8089    1082.2693    79.474843 
   25500    667.12536   -117.14562   0.60362904   -116.54199   -5281.4634    4.3044011    4.3044011    4.3044011   -5281.4634   -6958.7635   -6717.5939   -2168.0327    8868.8062   -418.83492    -3438.811     79.75138 
   25600    420.70077   -116.92452    0.3806589   -116.54386    7653.6079    4.2933709    4.2933709    4.2933709    7653.6079    3589.8107     6752.453     12618.56    11931.919    4950.2642   -4615.6067    79.139851 
   25700    700.82419   -117.17719   0.63412045   -116.54306   -9847.5628    4.3050883    4.3050883    4.3050883   -9847.5628   -1177.6712   -17685.512   -10679.505   -2096.0742    -3318.148   -2067.6718    79.789584 
   25800    634.48946   -117.11549   0.57409939   -116.54139    6783.3902    4.2991398    4.2991398    4.2991398    6783.3902   -3377.1031    15156.399    8570.8745   -1049.6754    578.27594    4169.7139    79.459297 
   25900    546.48385   -117.03734   0.49447007   -116.54287   -1502.0517     4.296899     4.296899     4.296899   -1502.0517   -5235.1723   -10070.203    10799.221    12835.572    911.09097   -2502.1579    79.335109 
   26000    502.15975   -116.99831   0.45436469   -116.54394   -9399.0862    4.3048974    4.3048974    4.3048974   -9399.0862   -8222.3272   -14527.254   -5447.6776     5915.288    6934.2957   -9025.8541    79.778969 
   26100    560.86776   -117.04919   0.50748493    -116.5417    9328.4106    4.2982698    4.2982698    4.2982698    9328.4106    15828.069    8501.7199    3655.4426   -1369.6353    5573.4527    1378.1264    79.411067 
   26200    836.83352   -117.29741   0.75718455   -116.54023    -6353.438    4.2989571    4.2989571    4.2989571    -6353.438   -12106.678   -8307.3043    1353.6684    2283.7946    -8102.249    2244.8688    79.449164 
   26300    394.97374   -116.90206   0.35738054   -116.54468    4847.5833    4.3018864    4.3018864    4.3018864    4847.5833    22938.564   -9322.5688    926.75501    8499.1021    2588.6985   -4822.6851    79.611683 
   26400     652.3761   -117.13326   0.59028361   -116.54298   -5686.4684    4.3004928    4.3004928    4.3004928   -5686.4684   -2456.0302   -5566.3023   -9037.0726     2620.896    5530.5227    -8213.215    79.534339 
   26500    695.50463   -117.17085    0.6293072   -116.54154    11397.839    4.2962236    4.2962236    4.2962236    11397.839    17577.646    10450.827    6165.0424   -4157.1983     6951.511   -188.61217     79.29771 
   26600    622.34765   -117.10621   0.56311323    -116.5431    5238.1306     4.302299     4.302299     4.302299    5238.1306    -1766.824    5797.3087    11683.907    6652.3731   -4196.1575    606.75627    79.634592 
   26700    523.26761   -117.01745   0.47346353   -116.54399   -1683.8326    4.3011684    4.3011684    4.3011684   -1683.8326     -6297.15    1628.7464   -383.09409    6740.5033   -5301.5596   -1776.0584     79.57183 
   26800    536.21362   -117.02846   0.48517735   -116.54328    10616.634    4.2955063    4.2955063    4.2955063    10616.634    9419.2245    5785.3148    16645.364    4112.4363    5401.5028    2576.4845    79.257993 
   26900    795.13466   -117.26025   0.71945455    -116.5408   -3097.1356    4.3035403    4.3035403    4.3035403   -3097.1356   -14838.184    6259.6932   -712.91556   -1561.8876    2256.9636   -3110.4932    79.703542 
   27000    554.43746   -117.04445   0.50166666   -116.54278     521.1868    4.3002553    4.3002553    4.3002553     521.1868   -4208.6836   -1146.9335    6919.1774    10034.835    5998.0537   -6066.8574    79.521162 
   27100    526.06438   -117.01968   0.47599411   -116.54369   -2927.1527    4.2968372    4.2968372    4.2968372   -2927.1527    -10755.51   -6704.7939    8678.8458    7664.5061   -3970.2199   -6525.6823    79.331687 
   27200    667.53526   -117.14562   0.60399993   -116.54162   -5707.1191    4.3046799    4.3046799    4.3046799   -5707.1191   -4747.7276   -1772.0612   -10601.569   -2956.7887    3819.0471    4450.6287    79.766875 
   27300    633.27752   -117.11335   0.57300281   -116.54035    2378.4944    4.2982541    4.2982541    4.2982541    2378.4944   -13934.523    917.35461    20152.651    7839.5808    3477.0144    6576.3505    79.410193 
   27400    595.90412   -117.08096   0.53918658   -116.54178   -8318.6514    4.2976917    4.2976917    4.2976917   -8318.6514    -11237.91   -18380.093    4662.0488    10133.036   -2265.8229   -12291.916    79.379025 
   27500    461.73197    -116.9614   0.41778479   -116.54362    -4307.063    4.3053803    4.3053803    4.3053803    -4307.063   -8077.8299   -3934.4852   -908.87398    2443.0054    8741.4104    -11907.03    79.805817 
   27600    748.56584   -117.21772   0.67731811    -116.5404    3975.4164    4.2945922    4.2945922    4.2945922    3975.4164   -8960.5961    11354.571    9532.2741   -4671.1655   -2689.0043    3278.6057    79.207404 
   27700    616.54218   -117.10011   0.55786032   -116.54225    4259.9948      4.29948      4.29948      4.29948    4259.9948    -3464.193    6455.4619    9788.7155    5636.0925    2524.7533     6846.937    79.478157 
   27800    434.94523   -116.93798   0.39354758   -116.54443    775.73696    4.3048552    4.3048552    4.3048552    775.73696   -13586.806    11537.262     4376.755    8841.4399    3810.3323    -5202.508    79.776619 
   27900    686.72693   -117.16239   0.62136496   -116.54103     4531.359    4.2942493    4.2942493    4.2942493     4531.359    3095.9748    8005.3073    2492.7949   -477.14138   -369.34757   -11893.255    79.188436 
   28000    571.73972   -117.05859   0.51732212   -116.54127    14656.084     4.301288     4.301288     4.301288    14656.084   -1050.9913    22628.531    22390.713    592.32692     5010.482    1436.2904    79.578466 
   28100    605.32688      -117.09   0.54771248   -116.54228   -7698.7336    4.3051693    4.3051693    4.3051693   -7698.7336   -17448.617    1901.4399   -7549.0238    6319.6268    -3309.392    4404.9708    79.794085 
   28200    437.26244   -116.93922   0.39564425   -116.54357      6485.49    4.2905009    4.2905009    4.2905009      6485.49   -825.67474    3398.7269    16883.418    4227.5495     1148.599   -3067.2254    78.981247 
   28300    634.66175   -117.11768   0.57425529   -116.54343   -2911.0401    4.3043298    4.3043298    4.3043298   -2911.0401   -1726.1275   -3778.1144   -3228.8784   -1198.5402    1884.5181   -9002.5031    79.747418 
   28400    662.80165   -117.14189   0.59971686   -116.54217   -8719.2603    4.3034515    4.3034515    4.3034515   -8719.2603   -22290.551   -10773.177    6905.9471    4583.9162   -1876.7733   -4250.0908    79.698609 
   28500    367.33934    -116.8759   0.33237635   -116.54352      5899.67    4.2895492    4.2895492    4.2895492      5899.67    1619.7236   -2674.0923    18753.379    12273.949    3633.4899   -2915.4598    78.928702 
   28600    513.36562   -117.00862     0.464504   -116.54412   -14660.461    4.3108468    4.3108468    4.3108468   -14660.461   -11077.276   -14391.263   -18512.845   -1848.5323   -3268.5288   -5350.4999    80.110191 
   28700    565.23914   -117.05269   0.51144025   -116.54125    8642.7283    4.2962472    4.2962472    4.2962472    8642.7283   -9080.3098    15675.131    19333.364   -3066.6181    1906.8423    695.39056    79.299016 
   28800     569.8603   -117.05637   0.51562158   -116.54075    2747.6663    4.2923725    4.2923725    4.2923725    2747.6663    3360.6768    1816.5761     3065.746    7530.2906   -820.77878   -2734.5793    79.084653 
   28900    326.19503   -116.83853   0.29514812   -116.54338   -6532.2484    4.3122921    4.3122921    4.3122921   -6532.2484   -25351.631     6581.706   -826.82056    5190.7334    165.32423   -8058.7441    80.190792 
   29000     593.9579   -117.07798   0.53742559   -116.54055    8859.4859    4.2907727    4.2907727    4.2907727    8859.4859    4688.8776    15613.852    6275.7282    285.56303    3848.4089   -2511.4029     78.99626 
   29100    494.42562   -116.98926   0.44736669    -116.5419    13866.383    4.2946337    4.2946337    4.2946337    13866.383   -5652.2704     29171.22      18080.2   -332.66109   -5209.5669    1960.6688    79.209701 
   29200    419.91564   -116.92213   0.37994849   -116.54218   -15421.456    4.3128897    4.3128897    4.3128897   -15421.456   -29788.904   -2601.1045   -13874.359    8017.0085    664.91737   -1064.2529    80.224136 
   29300    399.23095   -116.90262   0.36123255   -116.54139    3084.8443    4.2883398    4.2883398    4.2883398    3084.8443    1092.5921    2379.4107      5782.53   -1070.2185   -3972.7289   -13814.777    78.861963 
   29400    496.78493   -116.99238   0.44950144   -116.54288    1948.4138    4.2977091    4.2977091    4.2977091    1948.4138   -5016.5743    9403.7079    1458.1078   -1737.3374   -2107.6365   -4605.5238     79.37999 
   29500    545.69964   -117.03463    0.4937605   -116.54087   -21582.116    4.3107394    4.3107394    4.3107394   -21582.116    -22872.41   -24211.185   -17662.755    6033.2959    4894.5151    7163.1021    80.104206 
   29600    182.34697   -116.70699   0.16499137     -116.542    7497.4028      4.28741      4.28741      4.28741    7497.4028    285.21471    367.33294    21839.661    4756.4347   -5671.4006    -2501.142    78.810673 
   29700      491.984    -116.9884   0.44515746   -116.54324   -10305.323    4.3027896    4.3027896    4.3027896   -10305.323   -7478.7177   -11932.666   -11504.585    1219.0024   -308.70675   -10785.201     79.66184 
   29800    437.08655   -116.93614    0.3954851   -116.54065   -3245.6963    4.3063566    4.3063566    4.3063566   -3245.6963   -14123.126   -3821.6869    8207.7242    -2559.351    407.40093   -6071.8236    79.860122 
   29900     438.9743   -116.93596   0.39719317   -116.53876    -1235.515    4.2886228    4.2886228    4.2886228    -1235.515   -2784.9306   -1047.4834    125.86896     4878.872   -1482.2911    4938.2602    78.877573 
   30000      274.143   -116.79239   0.24805035   -116.54434   -2210.5289    4.3044015    4.3044015    4.3044015   -2210.5289   -16375.065    5684.1802    4059.2985    1966.0799    2782.4486   -4415.1458    79.751401 
   30100    440.96075   -116.94092   0.39899056   -116.54193     997.2889    4.3016644    4.3016644    4.3016644     997.2889   -4249.8909    4453.6045    2788.1531    -2139.645   -3257.4451   -5163.1094    79.599358 
   30200     447.0142   -116.94491   0.40446784   -116.54044     5254.563    4.2896842    4.2896842    4.2896842     5254.563   -108.89805    18235.984   -2363.3968    2940.3388    9222.0271    695.98359    78.936154 
   30300    307.34871   -116.82276   0.27809557   -116.54467   -4652.9762     4.305871     4.305871     4.305871   -4652.9762   -16504.761    6008.5519   -3462.7199    5370.3241   -94.547986   -1629.5493    79.833107 
   30400    397.65491   -116.90243   0.35980652   -116.54262   -4099.1584    4.3002572    4.3002572    4.3002572   -4099.1584    1267.2082   -8678.6825   -4886.0009    2034.6225   -1319.5824   -5502.3983    79.521267 
   30500    360.37454   -116.86725   0.32607446   -116.54117    6631.6623    4.2895001    4.2895001    4.2895001    6631.6623    2106.6536    16939.662    848.67177   -4138.3541    5365.0454   -4788.9428    78.925992 
   30600     492.9553    -116.9884   0.44603632   -116.54236   -19886.446    4.3090862    4.3090862    4.3090862   -19886.446   -17677.434   -15746.428   -26235.476    2008.5266    1288.9676    6367.8377    80.012079 
   30700    289.99669   -116.80498    0.2623951   -116.54259    306.31059      4.29885      4.29885      4.29885    306.31059   -7465.6389   -8439.1079    16823.679     1425.057    2245.8935   -3812.8437    79.443224 
   30800    451.06938   -116.94867   0.40813706   -116.54053     1130.884    4.2892906    4.2892906    4.2892906     1130.884    6370.6624    3220.6776   -6198.6881   -1535.8727   -3222.2167    -10189.92    78.914427 
   30900    384.42643   -116.88926   0.34783711   -116.54142   -10070.957    4.3109562    4.3109562    4.3109562   -10070.957   -19127.648   -9951.3055   -1133.9181    1863.8818    5411.6834   -777.82369    80.116292 
   31000    413.50695    -116.9143   0.37414978   -116.54015    5397.6034    4.2957262    4.2957262    4.2957262    5397.6034   -1024.2199    -1001.735    18218.765    1320.3689    3363.3695     4619.561    79.270168 
   31100    446.40119   -116.94459   0.40391318   -116.54068    8515.8853    4.2910737    4.2910737    4.2910737    8515.8853    6861.3116    3600.6689    15085.676    1833.1334   -3173.9573   -3731.3829    79.012885 
   31200    332.95652    -116.8429   0.30126606   -116.54164   -5444.2186      4.30996      4.30996      4.30996   -5444.2186   -10484.464   -8476.3759    2628.1844   -736.92179    6768.4467   -11013.746    80.060763 
   31300    506.00755   -116.99715   0.45784627   -116.53931   -431.48588     4.294325     4.294325     4.294325   -431.48588    3702.6708    5008.1236   -10005.252    -28.64193    2148.1442   -791.64498    79.192624 
   31400    417.33081   -116.91896   0.37760969   -116.54135    10408.267    4.2937928    4.2937928    4.2937928    10408.267   -6311.2063    14270.964    23265.044    2850.6336    3759.6906    2112.3716    79.163183 
   31500    444.80753   -116.94352    0.4024712   -116.54105   -11240.893     4.309161     4.309161     4.309161   -11240.893   -2737.0128   -9778.3437   -21207.323   -590.42829   -218.65415   -1047.1025    80.016245 
   31600    420.21768   -116.92111   0.38022179   -116.54089   -4236.2732    4.2937137    4.2937137    4.2937137   -4236.2732   -10217.093    15985.503    -18477.23    -3475.646    3103.7312   -2087.4498    79.158808 
   31700    440.11838    -116.9406   0.39822836   -116.54238    3015.6025    4.2945815    4.2945815    4.2945815    3015.6025    167.16432    16986.718   -8107.0743    490.59551    10936.844   -2500.3628    79.206816 
   31800    528.37832   -117.01888    0.4780878   -116.54079   -9532.1799    4.3079262    4.3079262    4.3079262   -9532.1799   -10562.807   -11729.561   -6304.1724    7018.2366   -6696.4349   -3459.2104    79.947477 
   31900    400.91086     -116.905   0.36275257   -116.54225    2658.1255    4.2919951    4.2919951    4.2919951    2658.1255    4086.7894    6438.7228   -2551.1357    3470.1908    10261.035   -5790.0138    79.063794 
   32000    444.32257    -116.9463    0.4020324   -116.54427   -817.12344    4.2970566    4.2970566    4.2970566   -817.12344    5516.0894    3113.4583   -11080.918   -1869.9501     6418.741    2097.5212    79.343841 
   32100     538.8892   -117.02903   0.48759827   -116.54143   -6921.3781    4.3074117    4.3074117    4.3074117   -6921.3781   -17560.595   -12422.355    9218.8161   -3908.4862   -626.80402    2175.6932    79.918836 
   32200    487.37885   -116.98123   0.44099062   -116.54024    5520.3836     4.292271     4.292271     4.292271    5520.3836    22598.466   -2029.5876   -4007.7275   -102.94298   -53.519169   -5618.4198    79.079044 
   32300    510.79702   -117.00371   0.46217988   -116.54153   -6003.1384    4.2980873    4.2980873    4.2980873   -6003.1384   -4486.9033   -6756.0504   -6766.4614    4203.3523     1584.927   -7187.4505    79.400952 
   32400    417.12381   -116.91902   0.37742239    -116.5416   -2599.6855    4.3069614    4.3069614    4.3069614   -2599.6855    6859.1551   -5373.7224   -9284.4894   -239.96573    5428.7828    1166.5358    79.893777 
   32500    567.91966   -117.05345   0.51386565   -116.53959    2311.3048    4.2931898    4.2931898    4.2931898    2311.3048    6077.7936   -49.927221    906.04806    2979.7486   -2896.7185    1302.6715    79.129837 
   32600    430.17576   -116.93124   0.38923207     -116.542    4088.0585    4.2970828    4.2970828    4.2970828    4088.0585    17461.013   -7403.6963    2206.8593    635.00649    2477.3412   -9506.0591    79.345294 
   32700    456.27929   -116.95452   0.41285109   -116.54167   -9520.2098    4.3075715    4.3075715    4.3075715   -9520.2098   -3979.9096   -6193.1998    -18387.52    572.85183    468.82247    -5274.074    79.927733 
   32800    478.75176   -116.97381   0.43318465   -116.54063    7647.7574     4.290721     4.290721     4.290721    7647.7574    12517.062    11028.419   -602.20861    2113.9742   -3077.4591    703.58381    78.993404 
   32900     534.3967   -117.02629   0.48353337   -116.54276   -3361.0516    4.2998565    4.2998565    4.2998565   -3361.0516    8440.1815    -5603.072   -12920.264   -852.11391    1163.9173   -5233.4085    79.499043 
   33000    519.66702   -117.01333   0.47020564   -116.54312   -11521.453    4.3040307    4.3040307    4.3040307   -11521.453   -584.23394   -13409.962   -20570.163   -2191.2414    3729.8814   -3640.8488    79.730792 
   33100    466.51043   -116.96429   0.42210844   -116.54218    5295.1267    4.2913334    4.2913334    4.2913334    5295.1267    9397.8394     17742.36   -11254.819    420.33967     7433.118    1164.6571    79.027233 
   33200    544.12928   -117.03523   0.49233961   -116.54289   -5151.9597    4.3028776    4.3028776    4.3028776   -5151.9597    -2234.096   -2923.1602   -10298.623    5466.7351   -5124.2391   -1010.1818    79.666728 
   33300    489.28415    -116.9861   0.44271458   -116.54338    765.80369    4.2991802    4.2991802    4.2991802    765.80369    10405.961   -7415.1801   -693.37001   -1007.7476    604.10884   -7329.7001    79.461537 
   33400    474.34742   -116.97313   0.42919951   -116.54393    5689.4051    4.2941326    4.2941326    4.2941326    5689.4051    14323.771    9461.8223   -6717.3782   -1869.4668    6697.8217   -3494.8675    79.181979 
   33500    536.09315   -117.02882   0.48506835   -116.54375   -1846.4363    4.3028743    4.3028743    4.3028743   -1846.4363   -5301.4579    1450.4722   -1688.3233    -2439.645    -3096.005    3084.8721    79.666542 
   33600    559.09082   -117.04812   0.50587712   -116.54224    1224.8173    4.2971294    4.2971294    4.2971294    1224.8173    898.67693     4828.839    -2053.064    3657.1168   -5167.5573   -2960.5021    79.347872 
   33700    481.26151   -116.97847   0.43545553   -116.54301    4409.4172    4.2953595    4.2953595    4.2953595    4409.4172    22506.846   -814.38333   -8464.2116    5070.7054    1463.0735   -8925.5461    79.249867 
   33800    530.35404   -117.02354   0.47987548   -116.54367   -2103.0197     4.300964     4.300964     4.300964   -2103.0197   -7898.0572   -2212.0924    3801.0906   -3803.7983    7959.7956   -2070.4408    79.560483 
   33900    452.06493   -116.95265   0.40903785   -116.54361    5438.1733    4.2975134    4.2975134    4.2975134    5438.1733    10649.419    3169.1178     2495.983   -34.653102   -1064.9417     4017.467    79.369146 
   34000    581.40966   -117.06868   0.52607168   -116.54261   -5765.9028    4.2960773    4.2960773    4.2960773   -5765.9028   -6799.2902   -1852.4921   -8645.9261    3384.8946   -7249.9556   -4928.6929    79.289607 
   34100    428.85726   -116.93207   0.38803906   -116.54403    -1469.744    4.3000695    4.3000695    4.3000695    -1469.744    16336.547   -17582.336   -3163.4433   -3041.0471    1812.5249   -7983.7417    79.510855 
   34200    569.71077   -117.05813   0.51548628   -116.54264   -6936.7234     4.297681     4.297681     4.297681   -6936.7234   -11451.704    1296.1149   -10654.581   -2015.8026    9434.6427    1138.6354    79.378434 
   34300    477.00501   -116.97525   0.43160416   -116.54365    539.51967    4.2960881    4.2960881    4.2960881    539.51967    8739.5307    4927.4654   -12048.437    -2273.992   -2848.3815    206.75321    79.290205 
   34400    496.58811   -116.99319   0.44932336   -116.54386   -6090.7348    4.3010497    4.3010497    4.3010497   -6090.7348     8307.791   -19037.144   -7542.8516    640.11196   -6659.0166   -8940.9925    79.565239 
   34500    530.13826   -117.02304   0.47968024   -116.54336    893.00436    4.2954346    4.2954346    4.2954346    893.00436    6539.0304   -3809.2126   -50.804686    2171.4583    2893.4839   -7650.9593    79.254027 
   34600    454.66327   -116.95481   0.41138889   -116.54342    3402.9277    4.2995107    4.2995107    4.2995107    3402.9277    1501.3969     5280.975    3426.4112   -3186.3773    7257.1197    3549.1821    79.479864 
   34700     548.3143   -117.03856    0.4961263   -116.54244   -5301.5254    4.2999532    4.2999532    4.2999532   -5301.5254   -2122.6031   -9904.9515   -3877.0216    1960.8004    243.15809   -4069.8382    79.504402 
   34800    464.57044   -116.96391    0.4203531   -116.54356    3242.1504    4.2946706    4.2946706    4.2946706    3242.1504    19617.735   -4970.9886   -4920.2947    162.90538   -3010.3928   -10500.524    79.211745 
   34900    560.82233   -117.05123   0.50744383   -116.54379   -3305.8806    4.3001597    4.3001597    4.3001597   -3305.8806   -12140.107    2615.6621   -393.19651    210.69345    563.34042    154.35893     79.51586 
   35000     516.4043   -117.01052   0.46725347   -116.54327   -2303.3496    4.3005779    4.3005779    4.3005779   -2303.3496   -6254.5025   -6121.5605    5466.0142   -2033.7372    5283.6889   -2060.5825     79.53906 
   35100    428.89763   -116.93178   0.38807559    -116.5437    2750.3171    4.2943227    4.2943227    4.2943227    2750.3171    10273.921     2464.548   -4487.5176   -2662.8039   -2036.8104   -9830.4367    79.192497 
   35200    477.20791   -116.97549   0.43178775    -116.5437    1247.4158    4.2995091    4.2995091    4.2995091    1247.4158     7457.231   -11496.164    7781.1807    4458.8411    830.87303   -6039.0607    79.479775 
   35300    574.68949   -117.06141   0.51999113   -116.54142   -4051.8462    4.3031263    4.3031263    4.3031263   -4051.8462   -9364.6414   -7928.9837    5138.0866   -1927.7412    2146.9708    3424.0236    79.680539 
   35400    432.17441   -116.93369   0.39104049   -116.54265    6282.8106     4.290696     4.290696     4.290696    6282.8106     16502.72    9843.8496    -7498.138     2785.525   -6889.5334   -2787.1689    78.992022 
   35500    460.65598   -116.96118   0.41681121   -116.54437   -8607.1195    4.3016738    4.3016738    4.3016738   -8607.1195   -2020.3207   -12847.305   -10953.733   -4099.5521   -1370.0807   -13325.039     79.59988 
   35600    510.31393   -117.00324   0.46174277   -116.54149   -1552.9972    4.3032507    4.3032507    4.3032507   -1552.9972    9895.6306   -12775.285   -1779.3374    1504.3166    1901.9877   -238.02051    79.687455 
   35700    581.96244   -117.06617   0.52657185   -116.53959     7977.811     4.289229     4.289229     4.289229     7977.811     3855.195    8506.4086    11571.829    3945.4036    4196.6006    3771.0957    78.911028 
   35800    349.88145   -116.86057   0.31658009   -116.54399   -3353.8832    4.3027008    4.3027008    4.3027008   -3353.8832    5870.6391   -6584.3421   -9347.9466     272.2609   -117.55041   -4764.1512    79.656907 
   35900    404.30595   -116.90903   0.36582452   -116.54321   -6788.0684    4.3025027    4.3025027    4.3025027   -6788.0684   -261.07297   -18958.217   -1144.9151    3918.1643    -3808.407   -6351.9202    79.645904 
   36000    611.30566   -117.09293   0.55312221   -116.53981    6098.8084    4.2901897    4.2901897    4.2901897    6098.8084     5899.292   -1223.8165     13620.95   -3085.6866    4980.5832   -1516.0006    78.964064 
   36100     484.6367   -116.98079   0.43850947   -116.54228    -691.2071    4.3034511    4.3034511    4.3034511    -691.2071    6792.2495    87.029253   -8952.9001    642.86841    1018.8062        -1182    79.698585 
   36200    429.35736   -116.93169   0.38849156    -116.5432   -13974.952    4.3017242    4.3017242    4.3017242   -13974.952   -12678.381   -16143.135    -13103.34    3680.8616   -4517.9623   -11882.352    79.602681 
   36300    366.60283   -116.87396   0.33170995   -116.54225    8124.4989    4.2895717    4.2895717    4.2895717    8124.4989    23002.272   -117.10324    1488.3278     1599.918   -3063.6319   -1697.7135    78.929946 
   36400    677.56328    -117.1536    0.6130735   -116.54053   -7176.8102    4.3049799    4.3049799    4.3049799   -7176.8102   -18244.056    -7076.932    3790.5572   -1436.5741    4277.9734    6798.3664    79.783553 
   36500    379.14964   -116.88663   0.34306256   -116.54357    1051.4578    4.2994902    4.2994902    4.2994902    1051.4578    13040.117   -5397.7571   -4487.9867   -1948.3092     -3110.02   -9751.0193    79.478726 
   36600    360.12055   -116.86945   0.32584464   -116.54361   -2627.2161    4.2899538    4.2899538    4.2899538   -2627.2161    2069.1277   -3006.0676   -6944.7083    3175.4324   -12259.368   -10145.143    78.951039 
   36700    493.51504   -116.99003   0.44654278   -116.54349   -5483.9618    4.3063628    4.3063628    4.3063628   -5483.9618    1629.8786   -16593.878   -1487.8857    861.13921    2768.3777    3963.1694    79.860468 
   36800    624.49993   -117.10557   0.56506066    -116.5405    931.42944     4.297963     4.297963     4.297963    931.42944     13523.76   -8883.4568   -1846.0152   -860.82028     1300.087    2094.6672    79.394058 
   36900    465.71401   -116.96379   0.42138782    -116.5424    2902.6542    4.2875574    4.2875574    4.2875574    2902.6542     9518.223    892.97213   -1703.2326   -2578.3327   -1616.7101   -12221.596    78.818804 
   37000    324.53314   -116.84015   0.29364441   -116.54651    -5733.116    4.3084366    4.3084366    4.3084366    -5733.116    12999.742   -23268.649   -6930.4415    3248.1899   -4998.4751   -6013.6921    79.975898 
   37100    591.85628   -117.07674     0.535524   -116.54122       2957.1    4.2985181    4.2985181    4.2985181       2957.1    3352.5737   -15269.319    20788.046    360.03561   -3492.1706    6452.3105    79.424828 
   37200    606.20662   -117.08695   0.54850849   -116.53844    18265.753    4.2840108    4.2840108    4.2840108    18265.753    27520.138    7553.6713     19723.45   -54.994199    3046.3176   -1764.4448    78.623375 
   37300     392.5421    -116.8998   0.35518034   -116.54462   -10892.023    4.3129571    4.3129571    4.3129571   -10892.023   -2514.9715   -28258.287   -1902.8106   -408.83556    -2665.505   -8560.1264    80.227898 
   37400    446.96239   -116.94832   0.40442096    -116.5439     2172.716    4.2921498    4.2921498    4.2921498     2172.716    12302.037   -10628.982     4845.093   -2193.8637   -4017.4837    3395.8694    79.072344 
   37500     606.7941   -117.09174   0.54904006    -116.5427    9799.6392    4.2880422    4.2880422    4.2880422    9799.6392    20664.286    -3572.819     12307.45   -410.40718   -1214.0331    7481.3354    78.845544 
   37600    616.37343   -117.09757   0.55770763   -116.53986   -19471.182    4.3145884    4.3145884    4.3145884   -19471.182   -15307.975   -29552.508   -13553.062    1388.5381   -2683.6362    -11073.56    80.318964 
   37700     388.6958     -116.893   0.35170013    -116.5413     4141.187    4.2872049    4.2872049    4.2872049     4141.187    16078.405   -2982.8153   -672.02854    3610.3076   -7555.9132   -7362.2978    78.799367 
   37800    514.41744   -117.00931   0.46545571   -116.54385   -5091.1995    4.2951547    4.2951547    4.2951547   -5091.1995    1940.7438   -15925.647   -1288.6956    31.844801    -3000.658     9735.433    79.238535 
   37900    679.04003    -117.1544   0.61440969   -116.53999   -17689.917     4.310711     4.310711     4.310711   -17689.917   -15389.467   -25221.164   -12459.121     -1017.67     8246.838     1588.733    80.102623 
   38000    497.02423   -116.99051   0.44971797   -116.54079    8930.0478     4.285942     4.285942     4.285942    8930.0478    16467.073    7565.9256    2757.1452    168.19906   -1723.7405   -6342.4962    78.729751 
   38100    576.19514   -117.06553   0.52135347   -116.54418    -3112.911    4.2964326    4.2964326    4.2964326    -3112.911    142.37067   -13923.019    4441.9157    3620.1237   -9379.3886   -3653.9279    79.309279 
   38200    506.70697    -117.0017   0.45847911   -116.54322   -2705.1504     4.309394     4.309394     4.309394   -2705.1504   -2128.8064   -14162.359    8175.7144    1218.0471    91.902557    6503.8201    80.029226 
   38300    677.75513   -117.15277   0.61324709   -116.53952    14462.873     4.282094     4.282094     4.282094    14462.873    9560.8473    21636.782    12190.991   -1405.4083    12042.204   -4463.7465    78.517885 
   38400    535.93423   -117.03064   0.48492456   -116.54572    4893.5401    4.3010121    4.3010121    4.3010121    4893.5401    17274.836   -13501.334    10907.119   -742.98387   -2625.1428   -6070.5256    79.563154 
   38500     553.4446   -117.04255    0.5007683   -116.54178   -4542.9763    4.3064495    4.3064495    4.3064495   -4542.9763    3185.1268   -7951.9573   -8862.0983    -253.2583   -6696.3577    3911.2406    79.865289 
   38600    639.51691   -117.11566   0.57864834   -116.53702    13489.881    4.2800882    4.2800882    4.2800882    13489.881    13417.122      19087.8    7964.7226    2036.7906    8404.9465    2000.6982    78.407599 
   38700    593.77664    -117.0788   0.53726158   -116.54154   -8111.7657    4.3073985    4.3073985    4.3073985   -8111.7657    7060.5732   -17491.947   -13903.923    1862.3137    7563.1651   -1863.9057    79.918102 
   38800    571.85329   -117.05776   0.51742488   -116.54034   -189.89977    4.2993033    4.2993033    4.2993033   -189.89977    1087.6556    -3782.125    2124.7701   -761.64398   -7778.1787   -7046.2212    79.468361 
   38900    597.67618    -117.0798   0.54078997   -116.53901    7315.5788    4.2854006    4.2854006    4.2854006    7315.5788    9038.2375     4581.582     8326.917   -34.100493    -6677.688    5456.8292    78.699919 
   39000    591.27052   -117.07621   0.53499399   -116.54122   -10496.158    4.3082062    4.3082062    4.3082062   -10496.158   -8772.8645   -13160.007   -9555.6028   -1941.8299    13605.294    542.43648     79.96307 
   39100    628.08949    -117.1092   0.56830857   -116.54089    3213.1789    4.2951616    4.2951616    4.2951616    3213.1789    5314.9117   -2951.0243    7275.6493    3399.4148    4392.4739   -8458.1653    79.238918 
   39200    660.07633   -117.13819   0.59725094   -116.54094    7006.4048    4.2894077    4.2894077    4.2894077    7006.4048    3941.6875    7845.4988    9232.0282    3575.6622    -13714.26    386.65542    78.920889 
   39300    508.19345   -117.00276   0.45982411   -116.54294   -1198.0175    4.3056505    4.3056505    4.3056505   -1198.0175   -8338.7519   -7427.3673    12172.067   -1211.4364    547.18474    5848.8469    79.820845 
   39400    657.52462   -117.13791    0.5949421   -116.54296    927.01678    4.2933468    4.2933468    4.2933468    927.01678   -4249.9153    4777.5787    2253.3869   -1061.0614     15125.71    5331.9128    79.138518 
   39500    642.64623   -117.12515   0.58147982   -116.54367    11771.681    4.2912012    4.2912012    4.2912012    11771.681    771.48999     16522.85    18020.703    460.86674    3918.1139   -6681.1423     79.01993 
   39600    673.87552   -117.15178   0.60973673   -116.54205    -8801.837    4.3059372    4.3059372    4.3059372    -8801.837   -3050.0292   -18388.416    -4967.066    4296.7185   -6946.1837   -2665.6668    79.836791 
   39700    525.96758    -117.0192   0.47590652   -116.54329    4039.8438    4.2897603    4.2897603    4.2897603    4039.8438    1221.9236    18960.621   -8063.0132   -160.35566    7785.8327    1184.0737    78.940355 
   39800    616.28594   -117.10229   0.55762847   -116.54466     366.6901     4.296608     4.296608     4.296608     366.6901    3574.4535    2023.0359   -4497.4191    -1549.969    10437.968    3924.3933    79.318995 
   39900    731.88983   -117.20334    0.6622293   -116.54111   -5657.5188    4.3040707    4.3040707    4.3040707   -5657.5188   -4612.1843    -14950.64    2590.2684   -427.66353   -5481.6811   -1259.1355    79.733018 
   40000    559.82234   -117.04934   0.50653902   -116.54281    9812.5003    4.2870866    4.2870866    4.2870866    9812.5003    6610.6781    18148.312    4678.5106   -1240.4611    2431.4034   -3034.7505    78.792843 
   40100    546.21534    -117.0392   0.49422712   -116.54497   -9569.2018    4.3018598    4.3018598    4.3018598   -9569.2018   -12588.412   -6737.8361   -9381.3575    3617.1055    13667.396    3626.4284    79.610209 
   40200     631.7141   -117.11311   0.57158819   -116.54152    -1673.119    4.3013317    4.3013317    4.3013317    -1673.119   -1904.2177   -7383.2398    4268.1005   -2437.2037    2012.0583    2487.0718    79.580893 
   40300    710.79262   -117.18293    0.6431401   -116.53979    9864.1485    4.2876181    4.2876181    4.2876181    9864.1485    14408.166    410.87482    14773.404   -1408.6535   -9923.4626   -967.63907    78.822152 
   40400    559.44601      -117.05    0.5061985   -116.54381   -4728.1202    4.3011626    4.3011626    4.3011626   -4728.1202   -11149.065   -4599.6491    1564.3533   -1238.6027    4992.7271    1459.3224    79.571508 
   40500    467.98467   -116.96827   0.42344236   -116.54482   -3474.5912    4.3014091    4.3014091    4.3014091   -3474.5912    1374.4945   -12067.546    269.27813   -2707.5636    15486.089    4762.2535    79.585189 
   40600    743.34003   -117.21332   0.67258968   -116.54073    6140.6613    4.2870973    4.2870973    4.2870973    6140.6613    4460.8999   -4147.4776    18108.562    2490.6649   -3265.0241    1600.4585    78.793434 
   40700    620.48435   -117.10382   0.56142728    -116.5424    2856.5966    4.3019879    4.3019879    4.3019879    2856.5966    9013.7171   -6447.2854    6003.3582   -140.98405   -8506.6571   -966.07305    79.617323 
   40800    506.74351   -117.00279   0.45851218   -116.54427   -7110.6571    4.3010832    4.3010832    4.3010832   -7110.6571   -7942.8664   -9862.1338    -3526.971    422.15746    7431.8785    6464.0665    79.567101 
   40900     513.5775   -117.00786   0.46469571   -116.54317    8730.0124    4.2862396    4.2862396    4.2862396    8730.0124    12986.235    7631.8861    5571.9162   -2504.2851    14390.493    8016.3935     78.74615 
   41000    629.84736   -117.11171   0.56989912   -116.54181    382.39603    4.3048686    4.3048686    4.3048686    382.39603   -231.16169   -10429.041     11807.39   -2023.0612    -3341.643   -906.15282     79.77737 
   41100    642.90365   -117.12386   0.58171273   -116.54215   -2866.9083    4.2967714    4.2967714    4.2967714   -2866.9083   -10856.204   -4480.5407    6736.0198    772.40328   -1543.4582   -4161.7062    79.328042 
   41200    373.53284   -116.88179   0.33798036   -116.54381    4153.5385    4.2890318    4.2890318    4.2890318    4153.5385   -4413.0535    18959.377   -2085.7079   -167.88867    17583.976     3267.875    78.900147 
   41300    571.62651      -117.06   0.51721968   -116.54278   -9398.1454    4.3041183    4.3041183    4.3041183   -9398.1454   -8667.7696   -12092.261   -7434.4059    876.83384    4751.3078    5769.1508    79.735661 
   41400    613.02902   -117.09628   0.55468154    -116.5416    2369.1945     4.295084     4.295084     4.295084    2369.1945    9943.5927   -10031.314    7195.3048    -1799.768   -1855.8875    2360.8669    79.234622 
   41500      447.433    -116.9484   0.40484678   -116.54355   -84.609327    4.2925274    4.2925274    4.2925274   -84.609327   -12974.311    13241.499   -521.01593    10.814908    352.24541   -577.28933    79.093215 
   41600    487.53324   -116.98492   0.44113032   -116.54379   -11701.173    4.3029919    4.3029919    4.3029919   -11701.173   -10445.433   -11737.682   -12920.403   -597.12604    7885.4332    3384.9635    79.673075 
   41700    521.33472   -117.01315   0.47171461   -116.54144    6231.0631    4.2949018    4.2949018    4.2949018    6231.0631    4539.6185    -7856.065    22009.636   -2776.2419    1244.1721    3130.4032    79.224537 
   41800    546.67417     -117.035   0.49464228   -116.54035    3267.9713    4.2933952    4.2933952    4.2933952    3267.9713    6018.7877   -2670.1892    6455.3154   -639.70885   -825.20943   -2959.0473    79.141196 
   41900     429.5525   -116.93217   0.38866813    -116.5435   -5681.8748    4.3018387    4.3018387    4.3018387   -5681.8748   -17743.878   -5535.3873    6233.6409    174.78193    9692.1573    3125.1622    79.609036 
   42000    417.00093   -116.92011    0.3773112    -116.5428    8582.5899     4.294091     4.294091     4.294091    8582.5899    7480.6658    1155.8476    17111.256    1413.4679    2483.8924    4138.8694     79.17968 
   42100    587.75493   -117.07254   0.53181301   -116.54073    3464.8497    4.2940702    4.2940702    4.2940702    3464.8497    5924.8437    -8392.256    12861.961   -315.47127   -612.59351   -1618.7724    79.178526 
   42200     371.8821   -116.87909   0.33648674    -116.5426   -3808.3992    4.3012398    4.3012398    4.3012398   -3808.3992    -27584.26   -8645.7762    24804.839     3010.058    826.51209   -1816.2958    79.575791 
   42300    384.21418   -116.89003   0.34764506   -116.54239    -5093.279    4.2945436    4.2945436    4.2945436    -5093.279   -16908.358    6805.3322   -5176.8114    1991.7406    14321.774    1785.4008    79.204717 
   42400    476.05002   -116.97293   0.43074006   -116.54219    2049.7491    4.2940033    4.2940033    4.2940033    2049.7491    287.96095   -1573.5869    7434.8732   -1493.3699    2638.5856    6088.3633    79.174825 
   42500    462.71916   -116.96132   0.41867802   -116.54265   -5262.8312    4.2985456    4.2985456    4.2985456   -5262.8312   -15239.344   -10920.075    10370.925    651.35077   -3077.3887   -3096.2299    79.426351 
   42600    340.69556   -116.85267    0.3082685    -116.5444   -14375.294      4.29889      4.29889      4.29889   -14375.294   -20701.486   -3820.5042   -18603.893    8.9786984    8978.3446   -5271.7133    79.445442 
   42700    345.60968   -116.85645    0.3127149   -116.54374    1578.2378    4.2925254    4.2925254    4.2925254    1578.2378   -96.770318      11868.1   -7036.6158    2239.8869    8207.7046    1103.8754    79.093107 
   42800    579.10169   -117.06484   0.52398338   -116.54086   -4192.7464    4.2985409    4.2985409    4.2985409   -4192.7464   -8298.7064    -9300.449    5020.9161    2961.4948   -313.42094    699.85426    79.426093 
   42900    327.58434   -116.83942   0.29640519   -116.54301   -3318.7794    4.2996785    4.2996785    4.2996785   -3318.7794   -1179.4635   -9492.2341    715.35944    188.11198   -4303.2056   -465.72553     79.48917 
   43000    350.82971   -116.86106   0.31743809   -116.54362    -3679.371    4.2919214    4.2919214    4.2919214    -3679.371   -16330.567    13458.698   -8166.2436   -1211.6606    16659.156   -2848.0582    79.059721 
   43100    386.41899    -116.8929   0.34964003   -116.54326    6817.5937    4.2986551    4.2986551    4.2986551    6817.5937    6259.6469    491.71895    13701.415   -1468.4696    7130.0333    552.49132    79.432421 
   43200    556.64647   -117.04434   0.50366542   -116.54068   -2395.0742    4.2986266    4.2986266    4.2986266   -2395.0742   -4520.2234    -8323.901    5658.9019    362.58197   -4514.7351     1904.637    79.430843 
   43300     299.1189   -116.81407   0.27064907   -116.54342    2221.6448    4.2907512    4.2907512    4.2907512    2221.6448   -11426.923    7752.6986    10339.159   -1767.5725    2641.9142   -4098.9426    78.995069 
   43400    289.11184   -116.80732   0.26159447   -116.54573   -3512.4032    4.3016032    4.3016032    4.3016032   -3512.4032   -18109.996   -2310.2067    9882.9934   -1292.9207    11868.256   -3091.0924    79.595965 
   43500    493.08356    -116.9885   0.44615237   -116.54234    3837.8733    4.2963885    4.2963885    4.2963885    3837.8733    8907.9262    1233.6272    1372.0666   -698.71193    4781.1273   -1010.6938    79.306841 
   43600    453.70654   -116.95224   0.41052321   -116.54172    6967.3605    4.2886565    4.2886565    4.2886565    6967.3605   -5230.8024    1778.6929    24354.191    316.86593   -4218.3579   -1762.3294    78.879433 
   43700    307.50235   -116.82332   0.27823459   -116.54508   -15120.898    4.3070181    4.3070181    4.3070181   -15120.898   -13177.732   -13168.217   -19016.746    2294.6097    9417.7573    -3049.796    79.896927 
   43800    346.10732    -116.8566   0.31316518   -116.54343    3317.2651    4.2918416    4.2918416    4.2918416    3317.2651    11443.447    10020.905   -11512.557   -2340.7909    9723.1548   -2677.6017     79.05531 
   43900    569.24477   -117.05761   0.51506463   -116.54254    3952.7744    4.2909237    4.2909237    4.2909237    3952.7744     5938.916    290.15232     5629.255   -3697.5005   -542.56851    3293.2064    79.004597 
   44000    469.47019   -116.96913    0.4247865   -116.54435   -17693.189    4.3093196    4.3093196    4.3093196   -17693.189   -15280.346   -19573.804   -18225.417    941.01025     1085.798   -1873.1176     80.02508 
   44100    256.01147   -116.77641   0.23164456   -116.54476     8348.734    4.2842312    4.2842312    4.2842312     8348.734    11015.287    17291.287   -3260.3722    4462.8932    16961.885   -4443.2379     78.63551 
   44200    469.87464   -116.96914   0.42515245   -116.54399   -8885.7641    4.2990557    4.2990557    4.2990557   -8885.7641   -12853.092   -1908.9305   -11895.269   -1898.6754    10484.211    1661.9592    79.454633 
   44300    552.50345   -117.04126   0.49991674   -116.54134   -12593.748     4.303611     4.303611     4.303611   -12593.748   -16662.941   -16040.667   -5077.6361   -429.41298   -5535.4438    2393.9538    79.707473 
   44400    359.17055   -116.86682   0.32498506   -116.54184    4459.8533    4.2856187    4.2856187    4.2856187    4459.8533    798.36662    13625.984   -1044.7906    1957.3997    14543.127   -1373.1789    78.711933 
   44500    355.24338   -116.86488   0.32143168   -116.54345   -11053.638    4.3032095    4.3032095    4.3032095   -11053.638   -7231.1103   -161.46838   -25768.336    933.74957    13646.007   -3994.4731    79.685162 
   44600    534.95312   -117.02513   0.48403683    -116.5411    1298.9895    4.2954191    4.2954191    4.2954191    1298.9895    5408.7108    270.25347   -1781.9957    -539.5063   -3234.2412    1236.8915     79.25317 
   44700    552.30519   -117.04023   0.49973734    -116.5405    1789.0716     4.293165     4.293165     4.293165    1789.0716    4599.6066   -1420.7024    2188.3105   -4593.5469    1599.4539    4913.4293    79.128463 
   44800    346.75924   -116.85809   0.31375505   -116.54434    1618.0048    4.2980574    4.2980574    4.2980574    1618.0048    11390.938    6560.6911   -13097.614    3345.1687    15872.014   -1683.6147    79.399292 
   44900    438.43385   -116.94182   0.39670416   -116.54512    1431.0048    4.2952893    4.2952893    4.2952893    1431.0048    -8764.126    728.21512    12328.925    1380.8707    10794.253    789.08544    79.245986 
   45000    565.58365   -117.05464   0.51175197   -116.54289     1445.946    4.2978098    4.2978098    4.2978098     1445.946    13880.767   -9865.6733    322.74427     -490.721   -8069.6694    3457.2677    79.385573 
   45100    503.33069   -116.99845   0.45542419   -116.54302    -397.0029    4.2964497    4.2964497    4.2964497    -397.0029    797.92909   -3943.2977    1954.3599   -3312.0347    1667.4674   -84.777876    79.310225 
   45200    344.97189   -116.85649   0.31213781   -116.54435    610.73408    4.2941053    4.2941053    4.2941053    610.73408   -6965.1286    1528.8218    7268.5091   -1468.2586    18466.435   -3572.6119    79.180472 
   45300    567.70433   -117.05621   0.51367081   -116.54254   -10602.746    4.3000363    4.3000363    4.3000363   -10602.746   -6043.6231   -8784.6957   -16979.918    3112.6091     7215.705    424.80473    79.509013 
   45400     560.1507   -117.04862   0.50683612   -116.54178    4159.8471    4.2948825    4.2948825    4.2948825    4159.8471    12757.336   -11220.561    10942.766   -4325.8038    -5939.141    5848.3919    79.223468 
   45500     512.6346   -117.00766   0.46384256   -116.54382    311.01117    4.2943423    4.2943423    4.2943423    311.01117    1389.5518   -1308.4071    851.88882   -791.09191    9360.9897   -1329.9726    79.193579 
   45600    307.11689   -116.82279   0.27788581   -116.54491   -1006.3979    4.3019232    4.3019232    4.3019232   -1006.3979    12150.526    251.34757   -15421.067    309.94105    12712.464   -2354.2538    79.613729 
   45700    602.28198   -117.08589   0.54495739   -116.54094    3478.9281    4.2904758    4.2904758    4.2904758    3478.9281    7762.0356   -3554.9864    6229.7351   -502.15814    2560.6628    8110.3036    78.979863 
   45800    524.70173     -117.018   0.47476115   -116.54324     1697.692    4.2994657    4.2994657    4.2994657     1697.692    27262.299   -10130.678   -12038.544    400.92588   -3919.2163    6452.8475    79.477364 
   45900    453.84756   -116.95654   0.41065081   -116.54589   -10953.488    4.2979853    4.2979853    4.2979853   -10953.488   -18962.499    4491.3712   -18389.337   -597.27183    21550.701    -1358.247    79.395295 
   46000     435.0328   -116.93866   0.39362682   -116.54503    1841.6399     4.288714     4.288714     4.288714    1841.6399    3530.7952    6927.2817   -4933.1573    1577.7911    11426.507   -2657.6091    78.882607 
   46100    612.69271    -117.0963   0.55437724   -116.54193   -13562.618    4.3087067    4.3087067    4.3087067   -13562.618    1554.2812   -25919.548   -16322.586   -208.52025   -3895.5908    4714.9091    79.990942 
   46200    514.12809    -117.0074    0.4651939    -116.5422    5023.3943    4.2887669    4.2887669    4.2887669    5023.3943    15065.336    956.12245   -951.27583   -1944.2399     8702.222    3031.6225    78.885525 
   46300    419.44328   -116.92354   0.37952109   -116.54402   -1337.9817    4.2952177    4.2952177    4.2952177   -1337.9817   -9784.0367    5076.0049    694.08676    1537.3083    17031.843   -1441.6157    79.242023 
   46400    504.27204   -116.99863   0.45627594   -116.54235   -4553.8671    4.3061145    4.3061145    4.3061145   -4553.8671     20401.58   -21658.664   -12404.517    1820.5682    3094.7058    4601.3746    79.846656 
   46500    690.77579   -117.16328   0.62502845   -116.53825    12884.024    4.2845004    4.2845004    4.2845004    12884.024    24223.287    2209.4915    12219.294    107.95727   -3434.9584    5340.7404    78.650333 
   46600     428.4087   -116.93071   0.38763319   -116.54307    2409.7243    4.3019849    4.3019849    4.3019849    2409.7243    20714.556   -2728.2994   -10757.084    472.49077    15958.791    146.15224    79.617151 
   46700    483.03662   -116.97985   0.43706168   -116.54279   -1663.1668    4.2997237    4.2997237    4.2997237   -1663.1668    6106.6894    566.58167   -11662.771    -1673.284    11889.268   -1442.2601    79.491676 
   46800    537.61188   -117.02686   0.48644253   -116.54041    13010.299    4.2876816    4.2876816    4.2876816    13010.299    28999.002   -2500.1212    12532.017    3174.8211   -5943.7148     2913.739    78.825655 
   46900    611.81424   -117.09529   0.55358238   -116.54171   -8897.1967    4.3031312    4.3031312    4.3031312   -8897.1967   -2204.6467   -16255.781   -8231.1627    2054.3684    1526.7118    3733.8669    79.680812 
   47000    414.36305   -116.92073    0.3749244   -116.54581   -1711.9743    4.2956852    4.2956852    4.2956852   -1711.9743    1111.0365   -491.19043    -5755.769    512.22212    22628.718   -3120.5284    79.267898 
   47100    523.31018   -117.01806   0.47350205   -116.54456    4681.3565    4.2903421    4.2903421    4.2903421    4681.3565    13867.884   -1756.4877    1932.6732    3957.7793    8476.1833   -362.71846    78.972481 
   47200    598.78678    -117.0831   0.54179487    -116.5413   -8617.1175    4.3048343    4.3048343    4.3048343   -8617.1175    18220.117   -32851.775   -11219.695   -2514.8726   -5484.4923    7557.6442    79.775462 
   47300    519.71407    -117.0117   0.47024821   -116.54145    1232.6241    4.2911726    4.2911726    4.2911726    1232.6241    18447.551   -7532.4186   -7217.2602   -374.75876    12791.302    4529.9039    79.018346 
   47400    491.99059   -116.98893   0.44516342   -116.54377   -2756.4663     4.297992     4.297992     4.297992   -2756.4663    8408.4152    -355.9188   -16321.895   -941.66277    12692.478   -763.57264    79.395668 
   47500    615.80557   -117.09909   0.55719382    -116.5419   -4576.4455    4.2994708    4.2994708    4.2994708   -4576.4455    15765.495   -19168.097   -10326.734    3574.2732   -1350.3814     2494.262    79.477647 
   47600    507.91391   -117.00176   0.45957118   -116.54219    7958.7256    4.2901481    4.2901481    4.2901481    7958.7256    26675.869   -2188.0618   -611.63078    1498.8356   -2936.7583    4816.4366    78.961766 
   47700    416.87751   -116.92096   0.37719953   -116.54376   -6832.6803    4.3037271    4.3037271    4.3037271   -6832.6803     1546.592   -4577.8039   -17466.829   -2605.4878    21878.063   -1364.7522    79.713921 
   47800    540.86282   -117.03074   0.48938405   -116.54136    1619.5046    4.2938591    4.2938591    4.2938591    1619.5046   -1408.4957     3929.744    2337.2656    2862.8412    12411.435    -1404.211    79.166853 
   47900    590.39533   -117.07523    0.5342021   -116.54103    1368.8762    4.2951893    4.2951893    4.2951893    1368.8762    6634.4413   -9754.0462    7226.2335    974.32759   -8643.9882    4549.7405    79.240451 
   48000    497.70443   -116.99329   0.45033342   -116.54296   -6128.4487    4.3006167    4.3006167    4.3006167   -6128.4487   -1859.6701   -12666.702   -3858.9736    377.13409    6099.7861    3410.3031    79.541214 
   48100     486.5687    -116.9833   0.44025759   -116.54304    986.42943    4.2941421    4.2941421    4.2941421    986.42943    2068.8362    2716.0946   -1825.6424   -3422.9934    15264.416   -731.09528    79.182506 
   48200    659.87086   -117.13787   0.59706502    -116.5408   -726.99828    4.2983716    4.2983716    4.2983716   -726.99828    9624.1966   -12481.591    676.39961   -371.18845    5532.3058    2540.0782    79.416709 
   48300    573.80601   -117.06023   0.51919174   -116.54104    3111.0134    4.2983484    4.2983484    4.2983484    3111.0134    22498.852   -17010.096    3844.2837     3964.093   -2636.9316    7859.5673    79.415424 
   48400    478.89329   -116.97666   0.43331271   -116.54334   -3368.7408    4.2959118    4.2959118    4.2959118   -3368.7408   -2522.6317   -2499.5292   -5084.0614    2504.9688     14725.67    1678.5174    79.280445 
   48500    474.73077   -116.97405   0.42954638   -116.54451    945.33097    4.2991962    4.2991962    4.2991962    945.33097    9422.9449   -2933.9807   -3652.9712   -584.89554    11530.091   -2629.9493    79.462424 
   48600    681.17096   -117.15762    0.6163378   -116.54128    1499.7515     4.296757     4.296757     4.296757    1499.7515    7594.0605   -7618.3435    4523.5374   -723.30127   -3394.1894    -798.7222    79.327249 
   48700    405.11157   -116.91021   0.36655346   -116.54365    7425.2978    4.2931563    4.2931563    4.2931563    7425.2978    24571.169   -3396.0168    1100.7409    2047.4039    1643.1485    3590.1041    79.127984 
   48800     412.3726   -116.91872   0.37312339    -116.5456   -15468.395    4.3017575    4.3017575    4.3017575   -15468.395   -20943.763    -2153.192   -23308.229   -1215.3312    16360.214     1275.992    79.604528 
   48900     554.3892   -117.04423     0.501623    -116.5426    1740.0708    4.2934527    4.2934527    4.2934527    1740.0708     187.3508    3920.4057    1112.4559    1480.8077    8619.9569   -1247.5723    79.144373 
   49000    696.59417   -117.17095   0.63029304   -116.54065   -2407.4906    4.2966911    4.2966911    4.2966911   -2407.4906    7350.1478   -13702.154   -870.46551    3125.4334   -3822.6194    5496.2931    79.323597 
   49100    395.58946   -116.90304   0.35793765    -116.5451   -5431.4727    4.2986254    4.2986254    4.2986254   -5431.4727   -2792.0129   -7019.4065   -6482.9988    100.25366    16091.502     3370.751    79.430775 
   49200    340.61229   -116.85444   0.30819316   -116.54625   -4.2948232    4.2952059    4.2952059    4.2952059   -4.2948232   -5924.9981    3690.5642    2221.5494    611.40656    17404.742   -240.78033    79.241367 
   49300    696.08899   -117.17184   0.62983595     -116.542    38.291262    4.2963107    4.2963107    4.2963107    38.291262    11540.697   -10508.035   -917.78848   -100.54633   -6779.6357    -1885.654    79.302529 
   49400    593.02564   -117.07924   0.53658206   -116.54266    3479.9825    4.2960196    4.2960196    4.2960196    3479.9825    5434.2446   -5729.5117    10735.215    1228.0165    883.38692     200.8621    79.286412 
   49500    358.02756   -116.87033   0.32395086   -116.54638   -10398.375    4.2994265    4.2994265    4.2994265   -10398.375   -15670.832    2218.1755   -17742.468   -2281.4384    20324.226    2070.1072    79.475191 
   49600    474.02009   -116.97465   0.42890334   -116.54574    1276.1934    4.2931689    4.2931689    4.2931689    1276.1934    10278.133    2012.4379   -8461.9904    324.33452    12863.045   -3660.2805    79.128682 
   49700    648.01483   -117.12923   0.58633744   -116.54289     7671.896    4.2961616    4.2961616    4.2961616     7671.896    18012.642    2466.5044    2536.5418    3619.4177   -8381.1686   -508.49602    79.294273 
   49800    484.10269   -116.98292   0.43802629   -116.54489   -1475.4078    4.2982533    4.2982533    4.2982533   -1475.4078    3979.5217    646.58604   -9052.3312    255.28504     1714.723    3735.8811    79.410149 
   49900    361.41083    -116.8735   0.32701212   -116.54649   -6990.9212    4.2953867    4.2953867    4.2953867   -6990.9212   -18026.063     5328.555   -8275.2556    -2316.097    22401.791    1035.5523    79.251376 
   50000      495.488   -116.99344   0.44832795   -116.54511    7409.5732    4.2949058    4.2949058    4.2949058    7409.5732    10073.697    9460.7943    2694.2288   -1822.7057     5785.607   -2174.6306    79.224761 
   50100    703.53234   -117.17846   0.63657084   -116.54189   -2568.8279    4.3000064    4.3000064    4.3000064   -2568.8279    1959.9783   -9424.9762   -241.48567    5060.1721   -1551.5455   -624.86422    79.507356 
   50200    349.14089   -116.86124   0.31591001   -116.54533    434.80516    4.2944952    4.2944952    4.2944952    434.80516   -3218.6589    6302.5118   -1779.4374     1164.754    12097.108    1499.4684    79.202039 
   50300    430.97334   -116.93495   0.38995374     -116.545   -5233.2375    4.2963708    4.2963708    4.2963708   -5233.2375   -14906.288    5555.0702   -6348.4948   -2619.6053     16849.57   -1807.2229    79.305858 
   50400    628.25465   -117.10942   0.56845801   -116.54096   -1397.3076    4.3004622    4.3004622    4.3004622   -1397.3076    9424.4787   -8337.9541   -5278.4473   -1949.6173   -7026.3721   -4391.4856     79.53264 
   50500    620.44734   -117.10206    0.5613938   -116.54066    1925.1751    4.2911071    4.2911071    4.2911071    1925.1751   -7942.4415    7047.5863    6670.3804    5083.6661     559.6166     2048.201    79.014731 
   50600    338.93246   -116.85296   0.30667321   -116.54629   -6392.4759    4.3004598    4.3004598    4.3004598   -6392.4759   -5893.9333    292.43735   -13575.932    3658.1226    21564.113    4980.0211    79.532509 
   50700    423.64431   -116.92824   0.38332227   -116.54492    4194.3515    4.2962553    4.2962553    4.2962553    4194.3515    16792.695    2425.5662   -6635.2063   -5768.7988    10372.858   -3631.0203    79.299461 
   50800    665.43294   -117.14326    0.6020977   -116.54117    4207.6061    4.2924787    4.2924787    4.2924787    4207.6061    6625.5945    611.21385      5386.01   -2458.2061   -3305.9015   -5854.8518     79.09052 
   50900    555.37935   -117.04619   0.50251891   -116.54367   -10728.231    4.3018169    4.3018169    4.3018169   -10728.231   -14497.747   -4726.5472   -12960.399    3954.2933     5101.563    1177.1094    79.607824 
   51000    339.05576   -116.85271   0.30678478   -116.54592   -33.249889    4.2948588    4.2948588    4.2948588   -33.249889    4604.1441    8510.3268   -13214.221    2154.5587    18638.535    3587.8031     79.22216 
   51100    539.42008   -117.03212   0.48807862   -116.54404   -1802.6812    4.2955206    4.2955206    4.2955206   -1802.6812    2250.9598   -4712.2872   -2946.7162   -5421.1371   -549.89097   -3460.5101    79.258788 
   51200    642.28148   -117.12234   0.58114978   -116.54119   -6623.7319    4.2997958    4.2997958    4.2997958   -6623.7319   -2511.2605   -7232.9799   -10126.955   -2423.3334   -876.44241   -4760.0409    79.495674 
   51300    431.60438   -116.93431   0.39052471   -116.54378   -244.34432    4.2931836    4.2931836    4.2931836   -244.34432   -11583.988    16796.433   -5945.4784     2154.627    18750.927    1883.7409    79.129494 
   51400     413.7508   -116.91902   0.37437042   -116.54465   -2164.7992    4.2960495    4.2960495    4.2960495   -2164.7992   -2004.8574    -415.6027   -4073.9376    12.667113    12348.624   -701.17923    79.288067 
   51500    590.32149    -117.0765   0.53413529   -116.54236    283.64044    4.2988748    4.2988748    4.2988748    283.64044    5249.8373   -6312.9345    1914.0186    -473.3268   -5664.1394   -4113.9771    79.444601 
   51600    574.19514    -117.0611   0.51954383   -116.54155    8063.4466    4.2926133    4.2926133    4.2926133    8063.4466    775.89618    12819.479    10594.965   -5554.8327    1001.0698   -189.00087    79.097965 
   51700    391.09959   -116.89832   0.35387513   -116.54445    4143.9663    4.2976125    4.2976125    4.2976125    4143.9663    19035.389    5944.0991   -12547.589    955.64098    18180.193    1904.7057    79.374639 
   51800    516.86654   -117.01117    0.4676717   -116.54349    695.47641    4.2957887    4.2957887    4.2957887    695.47641   -1005.4267    1261.8111    1830.0448    1990.3165    7190.7399   -1715.7827    79.273627 
   51900    611.25098   -117.09442   0.55307273   -116.54135    4124.2458    4.2946746    4.2946746    4.2946746    4124.2458    9997.5945    858.45632    1516.6866   -1197.3654   -5012.1423   -5117.7444    79.211966 
   52000    550.88009   -117.04097   0.49844788   -116.54252   -2483.6466     4.298999     4.298999     4.298999   -2483.6466    4835.7616   -4312.9196   -7973.7816   -527.21553    11824.568   -676.28055    79.451489 
   52100    375.08698    -116.8837   0.33938659   -116.54432    3282.3995    4.2939064    4.2939064    4.2939064    3282.3995    2693.7179    11349.459   -4195.9785    -2511.915    17400.898    1744.0088    79.169465 
   52200    484.68871   -116.98159   0.43855653   -116.54303   -6578.7763      4.29878      4.29878      4.29878   -6578.7763   -838.20767   -11906.867   -6991.2542    2955.9593   -432.31693   -5469.5803    79.439346 
   52300    624.48442   -117.10623   0.56504663   -116.54118   -7247.6301    4.2963269    4.2963269    4.2963269   -7247.6301   -5458.0203   -14209.697   -2075.1725   -1578.3048   -4845.6558   -4885.1812    79.303429 
   52400    421.24248   -116.92513   0.38114905   -116.54398    184.57392    4.2937612    4.2937612    4.2937612    184.57392   -113.49647    12477.463   -11810.245    255.78623    19329.698    2179.1592    79.161438 
   52500    516.62194   -117.01131   0.46745039   -116.54386   -7659.7639     4.296062     4.296062     4.296062   -7659.7639   -5614.6681    -5063.664    -12300.96     -2465.51    14120.281   -1344.5066    79.288759 
   52600     561.2732   -117.05041   0.50785178   -116.54256   -2883.1817     4.299013     4.299013     4.299013   -2883.1817    16563.185   -18114.545   -7098.1847    -3898.103   -3545.1018    -5122.606    79.452265 
   52700    517.86963   -117.01091   0.46857932   -116.54233    7916.8814    4.2918773    4.2918773    4.2918773    7916.8814    15106.674   -1137.6393    9781.6094    3185.3709    6067.0461    -2301.951    79.057286 
   52800    456.10974   -116.95673   0.41269768   -116.54404    3866.5589    4.2968202    4.2968202    4.2968202    3866.5589    16817.125    3121.0733   -8338.5215   -1018.9871    12140.187    2032.8565    79.330748 
   52900     526.8836   -117.01959   0.47673536   -116.54286    218.81331     4.298255     4.298255     4.298255    218.81331    5373.4268   -8939.1281    4222.1412   -667.73765    3876.3441   -1440.1649    79.410246 
   53000    598.15376   -117.08271    0.5412221   -116.54148    6020.5336    4.2902003    4.2902003    4.2902003    6020.5336    13893.981   -9773.8881    13941.508   -6911.6237   -3450.3988   -5160.5676     78.96465 
   53100    424.51168   -116.92785   0.38410709   -116.54375   -2055.7245    4.3011966    4.3011966    4.3011966   -2055.7245    11721.407   -11422.976   -6465.6036     224.9861    13648.205   -70.624334    79.573391 
   53200    460.83467   -116.96007   0.41697289    -116.5431    1556.2194     4.293581     4.293581     4.293581    1556.2194   -2041.8031    6313.0312    397.43012    5739.5249    14395.695    337.87076    79.151468 
   53300    603.78563   -117.08757   0.54631793   -116.54125   -2614.6997    4.2948499    4.2948499    4.2948499   -2614.6997    10757.431   -14172.395   -4429.1343   -5529.5083   -5923.8402   -1625.5609    79.221668 
   53400    494.38375   -116.99052    0.4473288   -116.54319   -3993.2735    4.2999134    4.2999134    4.2999134   -3993.2735    9237.6229   -19807.917   -1409.5266     -3179.35    1783.8568   -2645.8783    79.502196 
   53500    432.63632   -116.93612   0.39145844   -116.54467   -2903.1913    4.2921594    4.2921594    4.2921594   -2903.1913    -4949.047    4350.7832   -8111.3099   -924.06039    18000.068    818.04562    79.072877 
   53600    457.15702   -116.95803   0.41364527   -116.54438    217.83948    4.2947827    4.2947827    4.2947827    217.83948    13560.825   -3777.6103   -9129.6959    4036.1692    10086.632    132.29503    79.217948 
   53700    582.42797   -117.06961   0.52699307   -116.54262     224.4422    4.2979991    4.2979991    4.2979991     224.4422    25214.526   -17771.087   -6770.1117   -730.81682   -6872.3292   -6483.6208    79.396059 
   53800     485.9127   -116.98351   0.43966402   -116.54385   -3220.6399    4.2952467    4.2952467    4.2952467   -3220.6399    8053.8332   -10684.341   -7031.4114   -3057.7399    8694.8312   -1761.7554    79.243625 
   53900    338.52498   -116.85169   0.30630452   -116.54539    1594.4142    4.2936693    4.2936693    4.2936693    1594.4142    14574.335   -1902.5642   -7888.5287    1142.8338    18266.268    1905.5036    79.156355 
   54000    576.54793   -117.06499   0.52167268   -116.54332   -7794.5271    4.2989697    4.2989697    4.2989697   -7794.5271   -3748.5195   -7566.7248   -12068.337   -746.22974   -1674.1895   -100.55371    79.449865 
   54100    472.73563   -116.96979   0.42774113   -116.54205     4895.839    4.2933592    4.2933592    4.2933592     4895.839    26315.363    -15897.07    4269.2242    607.87588   -8494.6682   -3699.7641    79.139204 
   54200    459.87521   -116.95964   0.41610475   -116.54354   -8744.3038    4.2958183    4.2958183    4.2958183   -8744.3038   -3656.9036   -14063.533   -8512.4748   -2907.1503    14609.997   -2221.6948    79.275268 
   54300    336.62552   -116.84947   0.30458585   -116.54489    403.93957    4.2959961    4.2959961    4.2959961    403.93957   -432.59389    4514.3717   -2869.9591    2065.9212    13171.628    1060.9096     79.28511 
   54400    562.77808   -117.05106   0.50921343   -116.54184   -942.74616    4.2963056    4.2963056    4.2963056   -942.74616    13288.598   -17161.363    1044.5267    502.01723   -7017.4566   -3504.4474    79.302248 
   54500    528.26231    -117.0202   0.47798284   -116.54222   -3249.5748    4.2960463    4.2960463    4.2960463   -3249.5748    11613.926   -16969.759   -4392.8907   -1661.6767    748.06419   -1590.2547     79.28789 
   54600    316.58123   -116.83076   0.28644935   -116.54431    8464.6359    4.2917997    4.2917997    4.2917997    8464.6359    18150.013    96.489223    7147.4056    1775.3135    18242.704    743.81241    79.052998 
   54700    489.74844   -116.98712   0.44313468   -116.54399   -9617.8967    4.3013851    4.3013851    4.3013851   -9617.8967   -636.44111   -15768.569   -12448.681    2274.4486    5268.5362   -1564.9205    79.583856 
   54800    513.35805   -117.00678   0.46449715   -116.54228    7956.1749    4.2895118    4.2895118    4.2895118    7956.1749    24679.667   -7559.3041    6748.1616    1640.9009   -11009.218   -2746.4511    78.926639 
   54900    497.87922    -116.9947   0.45049159   -116.54421   -4936.9575    4.2987194    4.2987194    4.2987194   -4936.9575    8905.2741   -17189.901   -6526.2452   -3282.4442    4028.1031    -2770.548    79.435988 
   55000    438.92568   -116.94199   0.39714918   -116.54484   -8938.3412    4.2991448    4.2991448    4.2991448   -8938.3412    263.41272   -12632.921   -14445.516     5274.547    20381.963    3222.5575    79.459569 
   55100    392.92003   -116.89942    0.3555223   -116.54389    6765.4405    4.2887047    4.2887047    4.2887047    6765.4405      18053.5     1204.098    1038.7234    2767.2524    918.99161   -1716.8942    78.882096 
   55200    560.80876    -117.0499   0.50743155   -116.54247   -11419.118    4.3007242    4.3007242    4.3007242   -11419.118    5707.7316   -24313.699   -15651.387    424.67787   -11035.478   -5351.8511    79.547178 
   55300    484.35891   -116.98167   0.43825812   -116.54341   -5167.6346    4.2956431    4.2956431    4.2956431   -5167.6346     1200.929   -7013.0741   -9690.7586   -1894.0823    10951.453   -363.42382     79.26557 
   55400    386.82356   -116.89448   0.35000609   -116.54448     3508.016    4.2919413    4.2919413    4.2919413     3508.016    10784.011    1617.2999   -1877.2631    1678.9464    14764.471   -1353.0594    79.060821 
   55500     577.9718   -117.06612   0.52296103   -116.54316   -8145.8562    4.3000511    4.3000511    4.3000511   -8145.8562    3517.4175   -17907.809   -10047.178    5144.0945   -6814.6174    -1485.906    79.509833 
   55600    401.10073   -116.90661   0.36292437   -116.54369    4529.1279    4.2958511    4.2958511    4.2958511    4529.1279    22716.484   -4080.4773   -5048.6229    -4715.839   -1704.8527   -2554.7475    79.277085 
   55700    562.13758   -117.05079    0.5086339   -116.54216   -1478.0456    4.2910949    4.2910949    4.2910949   -1478.0456   -2018.8497    3684.6894   -6099.9765    1563.7808    15253.537    1003.0179    79.014058 
   55800    458.08619   -116.95753   0.41448601   -116.54305    4.0388138    4.3016862    4.3016862    4.3016862    4.0388138    13323.225   -7246.7167   -6064.3924     2619.357    5216.4043    917.70023    79.600568 
   55900     566.1171   -117.05423   0.51223465     -116.542    1797.1076    4.2941665    4.2941665    4.2941665    1797.1076    6425.5473     302.7078   -1336.9323    4689.7412   -9595.1728   -4380.1277    79.183855 
   56000    503.04637     -116.998   0.45516693   -116.54283    4018.5855     4.291958     4.291958     4.291958    4018.5855    18083.256    1218.6556   -7246.1554    -2205.891    838.76145   -885.43964    79.061746 
   56100    460.94086   -116.96101   0.41706898   -116.54394   -3915.0617    4.3023895    4.3023895    4.3023895   -3915.0617   -4669.2343   -908.68899   -6167.2618   -2856.9423    14362.997    895.78722    79.639619 
   56200    575.76874    -117.0629   0.52096766   -116.54194    3871.3277    4.2906544    4.2906544    4.2906544    3871.3277    1249.7681     9651.412    712.80291    4828.1515   -2699.4395   -478.79071    78.989726 
   56300    530.77358   -117.02285   0.48025509   -116.54259   -424.40815    4.2955956    4.2955956    4.2955956   -424.40815    8660.5049   -3729.9786   -6203.7508    1688.0469   -12150.372   -3665.9128     79.26294 
   56400    480.05397    -116.9785   0.43436292   -116.54414   -3890.6857    4.2996706    4.2996706    4.2996706   -3890.6857   -5189.5442    4862.9193   -11345.432    4164.0925    10769.489   -2339.9454    79.488731 
   56500    577.91223   -117.06621   0.52290713    -116.5433    1411.7687    4.2935596    4.2935596    4.2935596    1411.7687   -1911.2687    7940.6033   -1794.0284   -2332.5793    12333.874    1458.9426    79.150287 
   56600    479.16386   -116.97689   0.43355753   -116.54333     3672.044    4.2967711    4.2967711    4.2967711     3672.044    18130.667   -4959.2596   -2155.2755    6973.1745   -7450.6302   -2362.0345    79.328029 
   56700    508.07874   -117.00268   0.45972033   -116.54296   -1037.5312    4.2952825    4.2952825    4.2952825   -1037.5312   -4393.1225    5030.1852   -3749.6562    3515.6567   -8132.6281   -1496.0668     79.24561 
   56800    553.75603   -117.04316   0.50105009   -116.54211    -5317.054    4.2982696    4.2982696    4.2982696    -5317.054   -12563.351    2660.5465   -6048.3574   -523.95904    9558.3658    1539.5812    79.411054 
   56900    515.80361   -117.00829   0.46670994   -116.54158    5830.6876    4.2940074    4.2940074    4.2940074    5830.6876    9646.8854    4302.3847    3542.7928    7962.1402    8271.7878   -795.91536    79.175052 
   57000    516.28543   -117.00975   0.46714591    -116.5426    -3339.163    4.2963195    4.2963195    4.2963195    -3339.163     454.0386   -6215.3943   -4256.1334   -1679.2162   -8961.6193    -1581.439    79.303017 
   57100     456.0281   -116.95567   0.41262381   -116.54305   -5190.9236    4.2972922    4.2972922    4.2972922   -5190.9236   -1413.3213    2611.5738   -16771.023    1840.9902   -5466.2453   -3169.2658    79.356895 
   57200    588.33229   -117.07402   0.53233542   -116.54168    -3143.116    4.2943133    4.2943133    4.2943133    -3143.116   -14303.215    11605.173    -6731.306    3889.4034    10299.227    2325.0584    79.191975 
   57300    503.69766   -116.99821   0.45575623   -116.54245    106.65893     4.296476     4.296476     4.296476    106.65893    4757.0305   -1728.8883   -2708.1654    5914.4051    -1294.486    3284.6166    79.311681 
   57400     457.8379   -116.95788   0.41426136   -116.54362   -5030.2188    4.2958388    4.2958388    4.2958388   -5030.2188   -14739.328    13335.199   -13686.528   -190.59434   -10683.023   -3208.8597    79.276404 
   57500    449.89643   -116.95101   0.40707574   -116.54394   -2838.4111    4.2973384    4.2973384    4.2973384   -2838.4111   -9576.5225    10322.931   -9261.6414   -4840.2363    3121.8042   -2403.1291    79.359455 
   57600    577.39676   -117.06449   0.52244072   -116.54205    6651.2802     4.293416     4.293416     4.293416    6651.2802    1775.8435    10862.149    7315.8475    5664.2561    9740.2801    991.22485    79.142344 
   57700      432.678   -116.93489   0.39149615   -116.54339    2968.0616    4.2969318    4.2969318    4.2969318    2968.0616    2205.8307    11082.565   -4384.2112    2700.6683   -4149.2855    1576.3639     79.33693 
   57800    383.31377   -116.89089   0.34683035   -116.54406   -6091.3855    4.2967591    4.2967591    4.2967591   -6091.3855   -11253.514    9.6421418   -7030.2849    3038.4902   -9748.9537   -4312.7772    79.327364 
   57900    557.45096   -117.04691   0.50439334   -116.54252    1157.6052      4.29381      4.29381      4.29381    1157.6052   -14001.801    16257.153    1217.4639   -5769.0251     4374.454   -2765.3629    79.164134 
   58000    484.57509   -116.98028   0.43845372   -116.54183     3786.539    4.2996483    4.2996483    4.2996483     3786.539    7943.3914    3549.1745     -132.949    3054.7029    4354.0772    1288.5479    79.487493 
   58100    382.66223   -116.88982   0.34624083   -116.54357   -4886.6253    4.2934448    4.2934448    4.2934448   -4886.6253   -9050.8445    -1795.627   -3813.4043    7861.0415   -6177.4162   -1479.2293    79.143938 
   58200    275.51567   -116.79432   0.24929236   -116.54502   -2065.3049     4.296432     4.296432     4.296432   -2065.3049   -8273.7665    10436.525   -8358.6729    -2165.073   -9156.2105    416.47309    79.309249 
   58300      588.361   -117.07289   0.53236139   -116.54053   -1039.1582    4.2979116    4.2979116    4.2979116   -1039.1582    -7343.573    5187.7069   -961.60841   -950.22642    3608.1446   -183.14342     79.39121 
   58400    445.34242   -116.94499   0.40295518   -116.54204    2779.7321    4.2934436    4.2934436    4.2934436    2779.7321    2816.2419    2825.9897    2696.9647   -518.63781    2153.8698     1694.883     79.14387 
   58500    270.02656   -116.78965   0.24432571   -116.54532   -9234.2043     4.296319     4.296319     4.296319   -9234.2043   -18991.069    2246.3173   -10957.862    7156.0007   -13099.104   -1063.3633    79.302989 
   58600    422.12599   -116.92588   0.38194846   -116.54393   -6004.9479    4.2989266    4.2989266    4.2989266   -6004.9479   -15010.612    15173.921   -18178.153   -527.53772   -2064.1026   -3451.9639    79.447475 
   58700    528.29867   -117.01848   0.47801574   -116.54047    10516.477    4.2928695    4.2928695    4.2928695    10516.477    14184.121    11692.088    5673.2208   -1618.8409    4295.9342    2875.9621    79.112129 
   58800    386.49643   -116.89305   0.34971009   -116.54334   -612.67381    4.2951513    4.2951513    4.2951513   -612.67381   -12691.649    14741.398   -3887.7704    3077.0277   -3137.4261    1526.6543    79.238347 
   58900    198.22713   -116.72511   0.17936007   -116.54575   -9563.5302    4.3011903    4.3011903    4.3011903   -9563.5302   -16308.824    7596.8786   -19978.645   -501.93107   -8959.1608   -902.12845    79.573046 
   59000    480.97698   -116.97774   0.43519808   -116.54254     5857.335     4.290635     4.290635     4.290635     5857.335   -212.59544    11301.432    6483.1686    1719.6594   -2397.4259   -5650.7062    78.988653 
   59100    549.62394    -117.0395   0.49731129   -116.54219   -316.20652    4.2971726    4.2971726    4.2971726   -316.20652   -9365.7956    3896.3378    4520.8383   -3648.4072    4302.8829    878.68985    79.350268 
   59200    315.99883   -116.83184   0.28592239   -116.54591   -13313.528    4.2987515    4.2987515    4.2987515   -13313.528   -21653.677   -7591.0931   -10695.815    3559.7822   -8209.2325   -1288.1768    79.437767 
   59300    250.13664   -116.77257   0.22632888   -116.54624   -2805.9195    4.2925228    4.2925228    4.2925228   -2805.9195   -4332.3969    7859.9037   -11945.265   -2253.1414   -11446.504   -4918.2253     79.09296 
   59400     545.1208   -117.03565   0.49323676   -116.54241   -2318.3979    4.3005421    4.3005421    4.3005421   -2318.3979   -6549.5276    6361.3243   -6766.9904   -6912.8288    543.11917    1626.7652    79.537074 
   59500     465.5243    -116.9638   0.42121617   -116.54258    290.32799    4.2965197    4.2965197    4.2965197    290.32799   -7465.1048    8175.9108    160.17794   -550.04298    1667.8489   -3189.5842    79.314106 
   59600    278.16213   -116.79623   0.25168694   -116.54454   -1713.7613    4.2935896    4.2935896    4.2935896   -1713.7613   -10505.377    14258.397   -8894.3041    4823.0373   -8193.4995    2263.5656    79.151943 
   59700    440.29821   -116.94114   0.39839107   -116.54275   -4926.6971    4.3011408    4.3011408    4.3011408   -4926.6971   -15183.315     14291.96   -13888.736    2243.9725   -6436.5329   -2459.3744    79.570296 
   59800    603.23894   -117.08631   0.54582327   -116.54049    8989.5683    4.2925829    4.2925829    4.2925829    8989.5683    1989.8851    16022.279    8956.5408   -7335.1797    2209.6926    1106.7959    79.096282 
   59900    461.75057   -116.96122   0.41780162   -116.54342    3880.5052    4.2947973    4.2947973    4.2947973    3880.5052   -8360.1706    24575.936   -4574.2502   -2135.6739   -6182.3686   -1414.5242    79.218758 
   60000    326.24486   -116.84033    0.2951932   -116.54513   -3249.5693    4.3007814    4.3007814    4.3007814   -3249.5693   -13312.732    19771.851   -16207.827    5295.9295   -11366.875    -2060.861    79.550355 
   60100    513.08465    -117.0061   0.46424978   -116.54185    3468.9029    4.2925113    4.2925113    4.2925113    3468.9029    11406.396    6295.4627     -7295.15   -817.64765    651.35439    4483.2408    79.092324 
   60200    545.73654   -117.03537   0.49379389   -116.54157       2499.4    4.2958216    4.2958216    4.2958216       2499.4   -548.86922    8527.5312   -480.46191   -10056.333    5006.0003   -4461.3881    79.275451 
   60300    469.28636   -116.96735   0.42462016   -116.54273   -12047.643    4.3008721    4.3008721    4.3008721   -12047.643   -19739.516   -4650.3435    -11753.07   -4624.7295   -9169.4907    3528.3958    79.555384 
   60400     476.4924   -116.97318   0.43114034   -116.54204   -1426.9366    4.2899389    4.2899389    4.2899389   -1426.9366    790.95933     5472.193   -10543.962    5685.5889     -10621.4   -3130.3579    78.950216 
   60500    577.76212   -117.06499    0.5227713   -116.54222   -6231.7569    4.2994393    4.2994393    4.2994393   -6231.7569   -9382.5581   -7101.7502   -2210.9623   -938.65403     4607.368    -693.9502    79.475905 
   60600    535.50044   -117.02711   0.48453205   -116.54258   -3229.6173     4.297654     4.297654     4.297654   -3229.6173   -16924.607    10216.198   -2980.4424   -6927.9748    5664.7246    2533.0333    79.376937 
   60700    537.03287   -117.02782   0.48591863    -116.5419    2979.6861    4.2911768    4.2911768    4.2911768    2979.6861   -788.17953    7024.9138    2702.3242   -4698.0058   -8296.0123   -5365.0042    79.018581 
   60800    558.90337    -117.0482   0.50570751   -116.54249    733.93899     4.301019     4.301019     4.301019    733.93899    2473.0639    10208.565   -10479.812   -1931.0257   -6453.9756     6058.986     79.56354 
   60900    533.47637    -117.0252   0.48270063    -116.5425    6190.9511    4.2953233    4.2953233    4.2953233    6190.9511    3561.5751    17275.804   -2264.5256   -5262.2159    3483.8004   -2248.4984    79.247866 
   61000      543.645   -117.03439   0.49190142   -116.54248    6730.9437    4.2912225    4.2912225    4.2912225    6730.9437    3884.8632    8239.8695    8068.0984   -210.17438   -69.568561    1896.9569    79.021103 
   61100    623.13039   -117.10619   0.56382148   -116.54236   -1760.9363    4.3010811    4.3010811    4.3010811   -1760.9363   -8000.5941    21549.506    -18831.72    1567.9302   -4918.4815      -1224.7    79.566982 
   61200    641.26139   -117.12222   0.58022678     -116.542   -3022.1854    4.2954025    4.2954025    4.2954025   -3022.1854   -251.85566   -921.24716   -7893.4534   -6702.6532    2491.2918    2530.1922    79.252247 
   61300    489.30981   -116.98675    0.4427378   -116.54401    1190.5927    4.2912914    4.2912914    4.2912914    1190.5927    2617.6215    2535.4436   -1581.2872   -9402.1388    6570.7045     6857.633    79.024913 
   61400    634.07668   -117.11641   0.57372591   -116.54268   -12214.096    4.3025559    4.3025559    4.3025559   -12214.096   -12364.278   -5359.1464   -18918.863   -596.62213    -8030.685   -2236.6285    79.648862 
   61500    628.80821   -117.11077   0.56895889   -116.54181    3051.9464    4.2931639    4.2931639    4.2931639    3051.9464    13873.756    4574.2206   -9292.1374    7931.7445   -7446.7305    7703.5165    79.128407 
   61600    533.46767   -117.02626   0.48269275   -116.54356    160.14465    4.2936322    4.2936322    4.2936322    160.14465    16603.196   -4122.5687   -12000.194    -7831.867    9237.8679    2019.1105      79.1543 
   61700    487.70134   -116.98507   0.44128242   -116.54379   -8749.1553    4.3021526    4.3021526    4.3021526   -8749.1553    -13081.62    2524.5372   -15690.383   -10910.571    6930.8294   -1091.2846    79.626467 
   61800    676.68687   -117.15396    0.6122805   -116.54168    5772.7251    4.2903512    4.2903512    4.2903512    5772.7251    5408.3781    11897.191    12.606263   -477.17948    -5587.069    2976.2677    78.972982 
   61900    730.16583   -117.20267   0.66066939     -116.542    578.21351    4.2972309    4.2972309    4.2972309    578.21351    7625.8564    4001.5616   -9892.7775    4213.1653   -4856.8408    5050.3483    79.353499 
   62000    466.10459   -116.96646   0.42174123   -116.54472   -2413.4635    4.3002051    4.3002051    4.3002051   -2413.4635   -2906.1394    6199.1058   -10533.357   -5488.0165    9002.6914    1624.5503    79.518375 
   62100    557.06652    -117.0473    0.5040455   -116.54325    3600.6926    4.2901953    4.2901953    4.2901953    3600.6926    6233.8298   -767.20824    5335.4561   -15626.612    7736.3996   -3877.3822    78.964374 
   62200    658.81361     -117.138    0.5961084    -116.5419    7127.5141    4.2977439    4.2977439    4.2977439    7127.5141    9988.0269    15209.926   -3815.4108     3961.217   -3979.1151    2074.6949    79.381919 
   62300    603.31194   -117.08945   0.54588932   -116.54356   -3035.3897    4.2993297    4.2993297    4.2993297   -3035.3897    4738.5705   -7016.1025    -6828.637    4440.0913    3766.7455    4798.6239    79.469824 
   62400    429.87253   -116.93454    0.3889577   -116.54559    244.57621    4.2892576    4.2892576    4.2892576    244.57621    2772.9295   -6047.9034    4008.7026   -7487.5008    7077.1923    39.255942    78.912604 
   62500    590.06272   -117.07869   0.53390115   -116.54479   -1183.1509    4.2985966    4.2985966    4.2985966   -1183.1509   -1829.3546   -5179.3899    3459.2917   -10337.898     966.6498   -3355.9456    79.429181 
   62600    700.81818   -117.17551   0.63411502   -116.54139    178.56876     4.299113     4.299113     4.299113    178.56876     3724.886   -564.72345   -2624.4563   -1438.9188   -3700.1677    2910.9239    79.457808 
   62700    528.47785   -117.02112   0.47817787   -116.54294    4840.2592    4.2874056    4.2874056    4.2874056    4840.2592    14792.084   -3253.9935    2982.6874    939.04157    7605.7751    6366.8098    78.810433 
   62800    375.15562   -116.88564   0.33944869   -116.54619   -4137.2988    4.3018308    4.3018308    4.3018308   -4137.2988   -2568.8661   -4767.0237   -5076.0066   -9241.5495     10433.98   -286.04663    79.608599 
   62900    584.61112   -117.07217   0.52896843   -116.54321    8123.9142    4.2940778    4.2940778    4.2940778    8123.9142    6947.1874    14998.467    2426.0882   -2342.9732   -3505.4459   -2126.8309     79.17895 
   63000    716.32137   -117.18948   0.64814263   -116.54134    5225.3658    4.2901209    4.2901209    4.2901209    5225.3658     18986.23   -3939.4789     629.3462    3646.6116   -1524.2551    2077.7416    78.960262 
   63100    409.95212   -116.91623    0.3709333    -116.5453   -7007.9452     4.302106     4.302106     4.302106   -7007.9452    -7178.793   -905.55435   -12939.488   -2321.4734    8000.0386    3671.1906    79.623879 
   63200    435.29783   -116.93892   0.39386662   -116.54505   -1284.8112    4.2924678    4.2924678    4.2924678   -1284.8112    1506.8392   -1315.9344   -4045.3383   -11138.591    10321.862   -1106.0476    79.089919 
   63300    636.47551   -117.11869   0.57589642   -116.54279    1314.6467    4.2928291    4.2928291    4.2928291    1314.6467    9769.8168   -6619.6013    793.72449   -4971.9465   -919.37445    403.18457    79.109894 
   63400    598.64613   -117.08431   0.54166759   -116.54264    -7913.959     4.300365     4.300365     4.300365    -7913.959     3303.962   -13896.384   -13149.455    5709.7487    559.20147    2833.4245    79.527249 
   63500    356.86793    -116.8683    0.3229016    -116.5454   -6216.5901    4.2932165    4.2932165    4.2932165   -6216.5901    355.68708   -9475.9439   -9529.5135   -9063.3052    14225.931   -2106.2918    79.131311 
   63600    407.16645   -116.91403   0.36841276   -116.54561   -2067.5783    4.2931134    4.2931134    4.2931134   -2067.5783   -1008.2833   -8401.5012    3207.0495   -12122.461    2895.9894   -3022.2899    79.125612 
   63700    667.16349   -117.14576   0.60366355   -116.54209   -6273.1412    4.2998318    4.2998318    4.2998318   -6273.1412    2088.5162    -13729.97   -7177.9702    2730.8821   -977.19885    2696.2956    79.497673 
   63800    561.00854   -117.05094   0.50761232   -116.54332   -1530.2718    4.2934946    4.2934946    4.2934946   -1530.2718   -381.01172   -3446.8112   -762.99247   -1331.4622    7251.6021    3612.2808    79.146692 
   63900    272.16021   -116.79309   0.24625627   -116.54684         4797    4.2922411    4.2922411    4.2922411         4797    7652.2224    3050.7014    3688.0762    -13581.28    9782.9296   -1747.0196    79.077391 
   64000    480.13775   -116.97945   0.43443872   -116.54501   -3767.6046    4.2996703    4.2996703    4.2996703   -3767.6046   -7279.6438   -2900.6485   -1122.5213   -10446.913    229.51769   -4133.7483    79.488713 
   64100    637.61919   -117.11795   0.57693124   -116.54102     6945.626    4.2932051    4.2932051    4.2932051     6945.626     7419.789    4192.2969    9224.7921    4799.8716   -5047.5725    2551.1247    79.130684 
   64200    483.91139   -116.98151   0.43785319   -116.54366    5182.5049    4.2934773    4.2934773    4.2934773    5182.5049    5002.0537    7894.1051    2651.3559   -188.79204    9287.8764    3569.7492    79.145732 
   64300    303.64912   -116.82062    0.2747481   -116.54587   -2436.5193     4.298608     4.298608     4.298608   -2436.5193   -10072.846    472.03109    2291.2571   -13497.453    8896.4414   -2420.4028     79.42981 
   64400    472.14125   -116.97106   0.42720333   -116.54386    2684.2875    4.2929497    4.2929497    4.2929497    2684.2875    7024.6293   -3254.3742    4282.6074   -3561.8698   -1221.5486   -4263.5381    79.116563 
   64500    665.90421   -117.14383   0.60252413   -116.54131    512.44976    4.2948177    4.2948177    4.2948177    512.44976    3291.9835   -2318.1153    563.48106    2323.7875   -4219.7188    399.46122    79.219886 
   64600     340.1823   -116.85303   0.30780409   -116.54522    1682.2474    4.2977264    4.2977264    4.2977264    1682.2474    7971.6251    1101.9287   -4026.8116   -5479.7824    6894.5485    6870.1713    79.380951 
   64700    342.45576   -116.85507   0.30986117   -116.54521   -7450.9053    4.2933645    4.2933645    4.2933645   -7450.9053   -4592.3547   -9391.2533   -8369.1079   -12266.177    10512.737   -2412.4979    79.139494 
   64800    526.36805   -117.01957   0.47626887    -116.5433   -4126.4424    4.2956059    4.2956059    4.2956059   -4126.4424   -461.51869   -8037.7675   -3880.0409   -2231.0936   -2876.3897   -4791.1637    79.263507 
   64900    588.26527   -117.07414   0.53227478   -116.54187   -3497.5581    4.2979247    4.2979247    4.2979247   -3497.5581    2649.6671    2781.2817   -15923.623    4610.0567    2096.7803    1889.7609    79.391936 
   65000    350.80631   -116.86218   0.31741692   -116.54476   -2322.8334    4.2923352    4.2923352    4.2923352   -2322.8334   -1418.1673   -1499.0149   -4051.3181   -13246.636    7990.5451    196.54983     79.08259 
   65100    299.36901   -116.81712   0.27087537   -116.54624   -5381.5753    4.2961341    4.2961341    4.2961341   -5381.5753   -6639.6627   -2997.4828   -6507.5802   -10779.802    1529.1646   -1210.5783    79.292753 
   65200    594.93174    -117.0802   0.53830674   -116.54189    -4563.402    4.2980664    4.2980664    4.2980664    -4563.402   -3608.0002    473.85817   -10556.064    1354.3745   -5556.9898   -2315.3751    79.399794 
   65300    484.04879   -116.98042   0.43797752   -116.54245    6956.6004    4.2925819    4.2925819    4.2925819    6956.6004    11166.399    6622.7759    3080.6264   -3567.5383      2071.47    1095.1151     79.09623 
   65400    370.59571   -116.88042   0.33532279    -116.5451   -5897.7975    4.2957556    4.2957556    4.2957556   -5897.7975   -16958.623    4030.7009     -4765.47   -13424.044     11752.97    244.60603    79.271798 
   65500    375.18978   -116.88409    0.3394796   -116.54461   -3833.2549    4.2983685    4.2983685    4.2983685   -3833.2549   -4332.1983   -5812.0441   -1355.5223   -6795.8658   -2068.7569   -5079.2013    79.416536 
   65600     609.9984   -117.09313   0.55193937   -116.54119    4172.4772    4.2923491    4.2923491    4.2923491    4172.4772    10759.372    4400.6925   -2642.6326    7465.4656   -5063.3019   -1525.9732    79.083359 
   65700    462.04295   -116.96108   0.41806617   -116.54302    3761.6789    4.2959494    4.2959494    4.2959494    3761.6789    4460.1118    4241.8194    2583.1055   -5020.6924    2494.1167    413.51051    79.282523 
   65800    316.28692   -116.83095   0.28618305   -116.54476   -6316.0306    4.2985176    4.2985176    4.2985176   -6316.0306   -4105.8134   -9832.9925   -5009.2861   -9944.0964    8142.0719   -1940.9222    79.424798 
   65900    481.29742   -116.97813   0.43548802   -116.54265   -600.96105    4.2910801    4.2910801    4.2910801   -600.96105    4122.8521    2627.5799   -8553.3151   -2564.7835    494.05783   -8789.3635    79.013241 
   66000    537.94405   -117.02892   0.48674308   -116.54218    2343.0789    4.2980219    4.2980219    4.2980219    2343.0789    12447.733   -662.72297   -4755.7732    50.003984   -6640.5352   -1159.0011    79.397327 
   66100    516.26336   -117.01052   0.46712594    -116.5434   -9397.0967    4.2969802    4.2969802    4.2969802   -9397.0967   -10717.695   -141.53013   -17332.065   -4546.8581    8554.3553    4870.8049    79.339608 
   66200    284.50398   -116.80243   0.25742518   -116.54501    1677.4298    4.2912543    4.2912543    4.2912543    1677.4298    7256.4862     6228.668   -8452.8648   -8214.3251    6797.0473   -6949.9829    79.022862 
   66300    567.11582   -117.05631   0.51313831   -116.54318    -8668.071    4.2999633    4.2999633    4.2999633    -8668.071    1826.3561    -4911.943   -22918.626    3309.8133   -1195.3724   -11381.517    79.504965 
   66400     521.1173   -117.01384   0.47151789   -116.54232    5407.0907    4.2938111    4.2938111    4.2938111    5407.0907    8800.5548    12796.614   -5375.8968   -1287.4395   -5033.9917   -204.31058    79.164197 
   66500    426.68177    -116.9305   0.38607063   -116.54443   -287.12651    4.2926158    4.2926158    4.2926158   -287.12651   -1411.4459     5024.684   -4474.6177    -11028.94    4177.9544    3483.9018    79.098099 
   66600    415.28049   -116.92042   0.37575451   -116.54467   -7206.4622    4.2994813    4.2994813    4.2994813   -7206.4622   -8278.3221   -3640.7512   -9700.3133   -2398.1538    3945.0266   -5144.0011    79.478231 
   66700    486.53436   -116.98263   0.44022651    -116.5424    6017.1255     4.294604     4.294604     4.294604    6017.1255    14028.735    7040.3803   -3017.7389    1354.1617   -5196.6568   -7591.0294    79.208061 
   66800    662.13268   -117.14023   0.59911156   -116.54112   -1310.6191    4.2937583    4.2937583    4.2937583   -1310.6191    -2369.878    6461.9965   -8023.9758   -2078.4186    4862.8188   -830.60183    79.161277 
   66900     305.4104   -116.82099   0.27634175   -116.54464    4154.9992      4.29824      4.29824      4.29824    4154.9992    6489.6202   -871.60485    6846.9822   -6438.6398    4282.4249   -1023.0356    79.409413 
   67000     461.0495   -116.96098   0.41716728   -116.54381   -3881.6851    4.2947552    4.2947552    4.2947552   -3881.6851    1235.4415    1397.2766   -14277.773    526.00963    765.92673   -7969.7467    79.216428 
   67100    540.58231   -117.03179   0.48913023   -116.54266    6108.6526    4.2930709    4.2930709    4.2930709    6108.6526    20257.008    2546.0773   -4477.1273    2594.0761   -6022.0655   -4064.0016    79.123263 
   67200    555.38019    -117.0449   0.50251966   -116.54238   -3746.8761    4.2992943    4.2992943    4.2992943   -3746.8761    -3396.693   -4993.8836   -2850.0517   -8234.4468    1685.8369    2295.4012    79.467859 
   67300    392.39254   -116.89978   0.35504502   -116.54474   -6160.4423    4.2933925    4.2933925    4.2933925   -6160.4423   -2441.4797   -3851.9094   -12187.938   -6310.8372    10018.075   -7753.0422    79.141047 
   67400    397.16257   -116.90472   0.35936104   -116.54536   -2566.1069    4.2945744    4.2945744    4.2945744   -2566.1069    10765.661   -2827.6771   -15636.304    672.47583    -1131.916   -14443.606     79.20642 
   67500    683.04431   -117.15895   0.61803284   -116.54092   -9744.5551    4.2996676    4.2996676    4.2996676   -9744.5551   -4911.2243   -4961.4425   -19360.999    1045.9198   -2637.5593    2095.7625    79.488563 
   67600    434.64819   -116.93653   0.39327881   -116.54325    5723.8564    4.2914118    4.2914118    4.2914118    5723.8564    10570.452    9977.7879    -3376.671    -7688.901    2039.5699    2339.3568    79.031561 
   67700    350.98244   -116.86331   0.31757629   -116.54573   -7271.6306    4.2974195    4.2974195    4.2974195   -7271.6306   -6967.6729    4095.3898   -18942.609   -5317.1956    8723.0765   -12933.466    79.363948 
   67800    487.77038   -116.98483   0.44134489   -116.54349   -574.80254    4.2970649    4.2970649    4.2970649   -574.80254    2995.8221   -686.52728   -4033.7024    5502.4278   -873.36749   -9757.0514      79.3443 
   67900    653.69206   -117.13234   0.59147432   -116.54086    7017.7589     4.292318     4.292318     4.292318    7017.7589    1721.7561    22735.178   -3403.6573   -2586.3227   -6200.4699    5004.8408    79.081643 
   68000    458.63435   -116.95935   0.41498199   -116.54437   -435.12854    4.2969063    4.2969063    4.2969063   -435.12854   -3035.3888   -1498.9244    3228.9275   -7153.5121    2645.0138    2180.7965    79.335518 
   68100    328.11864   -116.84235   0.29688865   -116.54547    1219.5791    4.2961091    4.2961091    4.2961091    1219.5791   -3822.9929    5468.0414    2013.6888   -721.41997     4117.383    -11330.45     79.29137 
   68200    617.34295   -117.10011   0.55858488   -116.54153   -600.25454    4.2957832    4.2957832    4.2957832   -600.25454   -1874.4719    13633.038   -13559.329    3179.8582    4080.2755   -4995.3287    79.273324 
   68300    543.75851    -117.0337   0.49200413   -116.54169    8649.6753    4.2936142    4.2936142    4.2936142    8649.6753    13066.572    6402.0469    6480.4069    1940.5999   -326.98882    2122.9708    79.153304 
   68400    337.64459   -116.85154   0.30550792   -116.54603   -5105.9506    4.2983851    4.2983851    4.2983851   -5105.9506   -7951.9583   -1106.2986   -6259.5949   -7187.8321    1018.8838   -407.20733    79.417453 
   68500    407.55478   -116.91407   0.36876413   -116.54531   -7011.8492    4.2940335    4.2940335    4.2940335   -7011.8492   -2334.0991   -4472.1799   -14229.269   -1503.4788    4120.6539   -11996.458    79.176497 
   68600    629.39682   -117.11214   0.56949147   -116.54265    39.579793    4.2939198    4.2939198    4.2939198    39.579793    746.00251    7441.1662   -8068.4293   -682.61651   -1446.5295    834.89875    79.170211 
   68700    553.20973   -117.04397   0.50055579   -116.54341   -7799.5103    4.3002972    4.3002972    4.3002972   -7799.5103   -7011.9897   -4954.2375   -11432.304   -5016.2923    3022.8341    4382.3011    79.523488 
   68800    248.36567   -116.77073   0.22472648   -116.54601   -1153.1305    4.2923902    4.2923902    4.2923902   -1153.1305   -10981.114      15551.1    -8029.377   -2989.0474    3362.0988   -13214.168    79.085629 
   68900     542.6223   -117.03554   0.49097606   -116.54456   -7607.0833     4.294849     4.294849     4.294849   -7607.0833   -11009.904   -3453.6696   -8357.6764    70.145375    2103.6904   -4825.7679    79.221616 
   69000    598.48401   -117.08314   0.54152091   -116.54162    904.14375    4.3014838    4.3014838    4.3014838    904.14375   -5941.6626    16777.322   -8123.2287    2958.0712   -317.23266    3714.7398    79.589335 
   69100    435.71724    -116.9385   0.39424612   -116.54426   -610.61978     4.293003     4.293003     4.293003   -610.61978    2249.8038   -399.38566   -3682.2775   -9033.5587    2624.7761   -2819.0662    79.119505 
   69200    277.38381   -116.79696    0.2509827   -116.54598    3380.0062     4.291598     4.291598     4.291598    3380.0062   -6436.9813    9102.3344    7474.6656   -5013.9859    9188.1863   -8277.3294    79.041851 
   69300    538.96308   -117.03034   0.48766513   -116.54267   -7051.4921    4.3056646    4.3056646    4.3056646   -7051.4921   -18486.347    7298.7695   -9966.8984    931.10226   -1407.6992    232.84126    79.821627 
   69400    613.58236   -117.09598   0.55518221    -116.5408    8290.3133    4.2888802    4.2888802    4.2888802    8290.3133    7890.9592    10592.059    6387.9218   -2606.5697   -2968.7194    8962.7368    78.891779 
   69500    396.59985   -116.90405   0.35885188    -116.5452   -332.59851    4.2946727    4.2946727    4.2946727   -332.59851   -9809.6544    2154.2042    6657.6547   -3652.7989    2297.2544    -6020.748    79.211858 
   69600    421.55642   -116.92458   0.38143311   -116.54315   -14616.888    4.3059542    4.3059542    4.3059542   -14616.888    -30338.99   -3530.1988   -9981.4756   -2639.4908    3685.2231   -11155.448    79.837739 
   69700    583.51067   -117.06755   0.52797272   -116.53958    9258.0899    4.2871704    4.2871704    4.2871704    9258.0899   -1812.1994     23108.35    6478.1191    4285.4171    378.02193      3670.26    78.797462 
   69800    559.82095    -117.0486   0.50653776   -116.54206    2744.6435    4.2973503    4.2973503    4.2973503    2744.6435    1913.4544    2366.7619    3953.7141   -3082.3158   -2865.9914    7864.4824    79.360109 
   69900    309.54146   -116.82419   0.28007961   -116.54411   -4485.1235    4.3028041    4.3028041    4.3028041   -4485.1235   -12060.009    6806.1086   -8201.4706    -8172.235    7336.3281   -9912.1107    79.662646 
   70000     415.0748   -116.91795    0.3755684   -116.54238   -295.38194    4.2898715    4.2898715    4.2898715   -295.38194     1275.308    408.18499   -2569.6388   -3013.6536    2646.2563   -9986.2055    78.946494 
   70100    561.70465   -117.05025   0.50824217   -116.54201    1495.8167    4.2971169    4.2971169    4.2971169    1495.8167   -1560.5375    9179.4699   -3131.4822     3311.199   -3442.9551     5974.097    79.347181 
   70200    536.80971   -117.02841   0.48571671   -116.54269   -6761.2732    4.3015509    4.3015509    4.3015509   -6761.2732   -4394.6282   -6185.7223    -9703.469    1068.3049    1474.1747     97.40362    79.593057 
   70300    387.97535   -116.89476   0.35104825   -116.54371   -2450.0217    4.2892013    4.2892013    4.2892013   -2450.0217   -12544.674     3212.314    1982.2946   -4460.2586    4706.9672   -7942.9199    78.909502 
   70400    492.58525   -116.98935   0.44570148   -116.54365   -6388.5345    4.2998791    4.2998791    4.2998791   -6388.5345   -21245.291    6021.6631   -3941.9752   -550.87976    1257.8669    -3821.086    79.500296 
   70500    625.24153    -117.1061   0.56573167   -116.54037   -1279.6265    4.3004702    4.3004702    4.3004702   -1279.6265   -5444.8708   -2409.2279    4015.2192   -370.57937   -5652.3522    3132.6146    79.533083 
   70600    456.56729   -116.95418   0.41311168   -116.54107    9068.0558    4.2886439    4.2886439    4.2886439    9068.0558    3189.3987       9786.9    14227.869   -5810.0584    5855.8077    -4294.855    78.878738 
   70700    367.48691   -116.87713   0.33250988   -116.54462   -4301.0938    4.3006043    4.3006043    4.3006043   -4301.0938   -7216.8775   -6949.0537    1262.6499    -3987.589    5291.6061   -5791.3314    79.540525 
   70800    474.14979    -116.9717   0.42902069   -116.54268    4096.0094    4.2982119    4.2982119    4.2982119    4096.0094    -2070.102    10358.898     3999.232     701.8848    -5533.909     1689.933    79.407853 
   70900    609.76618   -117.09199   0.55172925   -116.54026    8451.5931    4.2901886    4.2901886    4.2901886    8451.5931    6919.2389    10032.376    8403.1639    3261.0995   -4399.5866   -523.79115    78.964002 
   71000    448.15904   -116.94882   0.40550372   -116.54332   -3967.9855    4.2997007    4.2997007    4.2997007   -3967.9855   -16059.714   -1974.3074    6130.0645   -2259.8815     1668.424   -9459.8207    79.490401 
   71100    416.09979   -116.91942   0.37649584   -116.54293   -7181.9822    4.2992488    4.2992488    4.2992488   -7181.9822   -19179.146    3632.8115   -5999.6126   -3039.8686     1966.716   -4666.7552    79.465338 
   71200    553.42332    -117.0417   0.50074905   -116.54095    2742.9393    4.2902838    4.2902838    4.2902838    2742.9393   -2988.5209     6129.916    5087.4227    1555.3077   -8424.1452    6338.6666     78.96926 
   71300    571.17723    -117.0589   0.51681316   -116.54209   -2451.2914    4.2978877    4.2978877    4.2978877   -2451.2914   -1305.6744   -6127.1734    78.973697    1697.8964    830.57776   -2746.9722    79.389889 
   71400    409.45659   -116.91501   0.37048493   -116.54453   -7783.6599    4.2997279    4.2997279    4.2997279   -7783.6599    3900.4059   -13417.691   -13833.694   -2905.8949    4118.1173   -14803.168    79.491908 
   71500    428.33018   -116.93152   0.38756214   -116.54395    926.80897    4.2895121    4.2895121    4.2895121    926.80897    1991.0774       559.16    230.18947   -4459.8361   -4393.3643   -2927.0889    78.926656 
   71600    581.55539   -117.06908   0.52620354   -116.54288   -2803.6867    4.2995698    4.2995698    4.2995698   -2803.6867    -3758.817   -6946.4486    2294.2055    3877.7614   -5980.2871    4069.3437    79.483137 
   71700    560.61908   -117.04985   0.50725992   -116.54259    -2747.031    4.2977807    4.2977807    4.2977807    -2747.031   -9995.4442   -8837.5544    10591.906    2689.0337    2417.7577   -4102.4341    79.383962 
   71800    470.01258   -116.96774   0.42527726   -116.54247    2857.1225    4.2899471    4.2899471    4.2899471    2857.1225   -5238.2527     2313.327    11496.293   -3901.3672    6775.3254    -6410.538    78.950667 
   71900     481.6297   -116.97828   0.43578867   -116.54249   -2119.7728     4.302416     4.302416     4.302416   -2119.7728   -10209.901   -6960.6443    10811.227   -3059.3098   -4841.6397   -1367.1221    79.641089 
   72000    583.27682   -117.06818   0.52776112   -116.54041    4894.8513    4.2952067    4.2952067    4.2952067    4894.8513    714.08678   -512.98227     14483.45    764.23808   -4663.8337    336.64524     79.24141 
   72100    485.52162   -116.98091   0.43931017    -116.5416    7887.9363    4.2921967    4.2921967    4.2921967    7887.9363    13306.168     1024.407    9333.2335    951.03823    2389.5316   -7876.8864    79.074938 
   72200    434.31304   -116.93594   0.39297556   -116.54296    165.52593    4.3008608    4.3008608    4.3008608    165.52593    557.29833   -11277.593    11216.872   -4263.4644   -1019.6993   -4364.6103    79.554757 
   72300    523.00469   -117.01504   0.47322564   -116.54181    2360.8651    4.2949461    4.2949461    4.2949461    2360.8651   -4059.4797    7669.5203    3472.5548    1798.5903   -9031.8728    2350.5835    79.226992 
   72400    548.86799   -117.03826   0.49662729   -116.54163    1503.8437    4.2932958    4.2932958    4.2932958    1503.8437   -8116.7264   -186.55562    12814.813    5438.6472   -5516.9216   -5766.3631      79.1357 
   72500    576.54703    -117.0637   0.52167187   -116.54203   -7955.1644    4.3002439    4.3002439    4.3002439   -7955.1644   -7371.0634   -10676.504    -5817.926    577.22549    4968.5473   -9560.6156     79.52053 
   72600      511.663   -117.00534   0.46296344   -116.54238   -5357.3782     4.296298     4.296298     4.296298   -5357.3782   -8071.7632   -863.06213   -7137.3094   -3191.0718   -84.480424    447.95122    79.301825 
   72700    539.76685   -117.03004   0.48839239   -116.54165    1571.6164     4.289432     4.289432     4.289432    1571.6164   -2809.6253    1708.4901    5815.9845    2277.6504   -7852.8681    3769.2553    78.922233 
   72800    490.25569   -116.98627   0.44359365   -116.54268   -5353.3043    4.3044587    4.3044587    4.3044587   -5353.3043   -2762.4032   -21397.418    8099.9083    6595.7549   -3376.5604   -4932.6228     79.75458 
   72900    501.92385   -116.99693   0.45415125   -116.54278    7129.4927    4.2921695    4.2921695    4.2921695    7129.4927    13212.834   -7147.2357     15322.88     -1734.44   -527.46972   -11732.141    79.073434 
   73000    538.50897   -117.03067   0.48725423   -116.54342    4809.2237    4.2921054    4.2921054    4.2921054    4809.2237    5223.8513   -3944.8186    13148.638   -3053.4551   -3054.3012    856.07956     79.06989 
   73100    479.39519   -116.97656   0.43376684   -116.54279   -7423.2608    4.3054414    4.3054414    4.3054414   -7423.2608   -13142.692   -22438.252    13311.162    4238.4488   -4013.4958    2367.0311    79.809217 
   73200     625.2188   -117.10562   0.56571111    -116.5399    4765.5275    4.2878185    4.2878185    4.2878185    4765.5275    8160.0096   -4224.4803    10361.053    4288.4166    1951.4244   -7609.6709    78.833202 
   73300    561.65768   -117.04988   0.50819967   -116.54168    3487.8513    4.2974321    4.2974321    4.2974321    3487.8513   -5731.3481    -8373.704    24568.606   -1247.4126    2649.4582   -3556.9106    79.364641 
   73400    548.38727   -117.03832   0.49619232   -116.54213   -10913.674    4.3022209    4.3022209    4.3022209   -10913.674    -17533.88    -14692.95   -514.19236    677.48034   -5155.8054    727.43738    79.630257 
   73500    446.88016    -116.9472   0.40434656   -116.54285    5749.9836    4.2865269    4.2865269    4.2865269    5749.9836     7425.078   -396.50111    10221.374    6031.4684   -6206.5556    -1494.005    78.761984 
   73600    605.44952   -117.09113   0.54782345   -116.54331   -2727.8086    4.3007666    4.3007666    4.3007666   -2727.8086    7920.4354   -13045.587   -3058.2744    1322.9239   -942.82779    -5668.731    79.549533 
   73700    586.95239     -117.073   0.53108686   -116.54191   -2040.2118    4.2995034    4.2995034    4.2995034   -2040.2118    5742.5606    -11184.09   -679.10627   -2916.6029    2462.1531   -675.06366    79.479457 
   73800    427.25349   -116.92937   0.38658793   -116.54278    3399.0998    4.2877781    4.2877781    4.2877781    3399.0998     2057.583    6740.6021    1399.1143    1683.9167   -373.61164    2589.4758    78.830977 
   73900    501.67604   -116.99732   0.45392702   -116.54339   -7615.5582    4.3026147    4.3026147    4.3026147   -7615.5582   -7782.9218   -22641.366    7577.6134    5179.5084   -257.17663   -4730.6192    79.652123 
   74000    700.74393   -117.17434   0.63404784    -116.5403    967.69081    4.2962341    4.2962341    4.2962341    967.69081    1772.8039   -9603.3346    10733.603     2381.922   -2633.8748   -5086.1577     79.29829 
   74100    617.66446   -117.10052   0.55887578   -116.54165    1646.7022      4.29009      4.29009      4.29009    1646.7022    -1149.329    3336.4522    2752.9835   -1284.0988   -6324.2102    4500.4137    78.958558 
   74200     443.1304   -116.94514    0.4009537   -116.54419   -9176.2144    4.3024781    4.3024781    4.3024781   -9176.2144   -9398.5383   -19901.375    1771.2699    4510.3238   -3383.6577    3115.8308    79.644541 
   74300     562.1562   -117.05218   0.50865074   -116.54353    2326.6675    4.2956277    4.2956277    4.2956277    2326.6675    11947.281   -14216.891    9249.6123    1665.3587    3454.1734   -3680.3377    79.264712 
   74400    641.27792    -117.1215   0.58024174   -116.54126    15840.495    4.2884695    4.2884695    4.2884695    15840.495    19559.089    2868.7488    25093.647    -2508.246    2099.1694   -3046.7049    78.869119 
   74500     496.2016   -116.99354   0.44897364   -116.54457   -6149.6443      4.30424      4.30424      4.30424   -6149.6443   -2941.7089   -17927.533    2420.3087    1569.8855   -4098.4441    2274.7198    79.742426 
   74600    420.27767    -116.9262   0.38027607   -116.54593   -1903.3055    4.2924919    4.2924919    4.2924919   -1903.3055   -2801.6609   -3999.2357      1090.98     7926.071   -3815.6254    67.090125    79.091253 
   74700    679.98114   -117.15867   0.61526123   -116.54341      3855.13     4.291187     4.291187     4.291187      3855.13    3261.1773    657.12825    7647.0846     2645.471    849.38706   -4769.8855    79.019144 
   74800    719.39439   -117.19144   0.65092316   -116.54052   -10642.193    4.3061317    4.3061317    4.3061317   -10642.193   -13636.542   -16718.336   -1571.7006   -5666.7668   -1220.4192    1165.3775    79.847609 
   74900    445.44657   -116.94601   0.40304942   -116.54296    5203.9676    4.2869537    4.2869537    4.2869537    5203.9676    789.27343    10427.723    4394.9065    4630.4975   -7392.6625    1953.5997    78.785514 
   75000    419.30808   -116.92475   0.37939876   -116.54535   -2678.8877    4.2988512    4.2988512    4.2988512   -2678.8877   -126.65777   -12899.146    4989.1408    7802.6598   -367.72301     318.4692    79.443293 
   75100     589.9851   -117.07465   0.53383092   -116.54082    3145.2935     4.301561     4.301561     4.301561    3145.2935    6074.6865    -6960.765    10321.959   -3342.7164    7453.7906   -310.05858    79.593622 
   75200     569.4963   -117.05526   0.51529222   -116.53997    8123.3817    4.2891057    4.2891057    4.2891057    8123.3817    11501.824    4928.8774    7939.4441   -4634.5361    3315.6053   -1506.6223    78.904224 
   75300    470.22435   -116.96859   0.42546887   -116.54312   -6810.6939    4.2983326    4.2983326    4.2983326   -6810.6939   -7313.9295   -7889.6287   -5228.5237     2524.701   -7138.7947     3701.681    79.414546 
   75400     536.3329   -117.02796   0.48528528   -116.54268   -5033.1013    4.3000043    4.3000043    4.3000043   -5033.1013   -9297.9451      -5003.4   -797.95889    2527.7027   -6972.2693    -4640.463    79.507236 
   75500    685.46719    -117.1608   0.62022512   -116.54058    2147.1619    4.2916402    4.2916402    4.2916402    2147.1619   -3127.7501   -1356.7698    10926.005   -6850.8652    553.75544   -1019.7678    79.044185 
   75600    532.77458   -117.02493   0.48206564   -116.54287    4031.4967    4.2948597    4.2948597    4.2948597    4031.4967    7730.6311   -3943.6352    8307.4942   -469.22992    1244.6471    2531.2687    79.222208 
   75700    394.44013   -116.90135   0.35689772   -116.54445   -4682.2177    4.3029536    4.3029536    4.3029536   -4682.2177   -1970.9321   -10685.324   -1390.3974    4533.7769   -2255.2479   -1889.4869     79.67095 
   75800    494.16812    -116.9896    0.4471337   -116.54247    8738.9249    4.2871582    4.2871582    4.2871582    8738.9249     11177.53    156.18797    14883.057   -4852.4708    650.01558    1200.1278     78.79679 
   75900    547.49041   -117.03898   0.49538083    -116.5436   -48.473161    4.2981945    4.2981945    4.2981945   -48.473161   -3104.8666   -9840.7999    12800.247   -10981.307    978.39013   -806.04573    79.406894 
   76000    596.28367   -117.08181      0.53953   -116.54228   -11475.553    4.3001388    4.3001388    4.3001388   -11475.553   -15956.397   -10084.904   -8385.3587    882.32075   -4124.9139    3142.5533    79.514698 
   76100    478.43143   -116.97472   0.43289482   -116.54183   -389.22301    4.2888839    4.2888839    4.2888839   -389.22301   -7820.5853    9528.4236   -2875.5073    9801.4093   -5814.9603   -329.57853    78.891983 
   76200    531.91299   -117.02382   0.48128605   -116.54253    -10199.28    4.3008095    4.3008095    4.3008095    -10199.28    -15819.53   -14260.772   -517.53847    -11297.89   -680.01489   -3934.6362    79.551913 
   76300    534.95529   -117.02601   0.48403879   -116.54197    3297.3671    4.2954185    4.2954185    4.2954185    3297.3671   -1991.1067    6569.3702    5313.8378   -9734.7212    871.38664    1379.1358    79.253137 
   76400    521.26095   -117.01327   0.47164786   -116.54162    3776.0998    4.2935058    4.2935058    4.2935058    3776.0998     4563.292    10752.375   -3987.3675    4504.2287   -3280.0292   -6.1936229    79.147313 
   76500    432.83952   -116.93515    0.3916423   -116.54351    1316.2282    4.2964339    4.2964339    4.2964339    1316.2282   -7095.4098    2380.5768    8663.5176    -866.4064    44.630231    4053.8741    79.309354 
   76600    412.24341   -116.91715    0.3730065   -116.54415    2525.3358    4.2979308    4.2979308    4.2979308    2525.3358   -19832.902    11442.191    15966.718    -13915.55     3683.009   -2865.0111    79.392279 
   76700    654.85535   -117.13386   0.59252689   -116.54133     2060.553    4.2927832    4.2927832    4.2927832     2060.553   -3687.0136   -1133.0271      11001.7   -6335.9318   -554.34889     633.5096    79.107353 
   76800     586.5286   -117.07293    0.5307034   -116.54222    2980.6061     4.295322     4.295322     4.295322    2980.6061   -7433.0856    12184.568    4190.3356    6290.2592   -6526.2554    1668.2522    79.247793 
   76900    443.80562   -116.94576   0.40156465    -116.5442   -11457.314    4.3002577    4.3002577    4.3002577   -11457.314   -23999.641   -6033.5877   -4338.7142   -9950.8888   -6332.2996   -2256.6885    79.521294 
   77000    410.27802   -116.91543   0.37122817    -116.5442    4002.9349    4.2898228    4.2898228    4.2898228    4002.9349    624.69426   -4502.0033    15886.114   -13714.592    2902.2835    2151.7012    78.943808 
   77100    685.93192   -117.16169   0.62064561   -116.54105   -4103.5905    4.2989528    4.2989528    4.2989528   -4103.5905   -7321.3527   -2266.2544   -2723.1643   -395.64685    1125.7719    -4161.051    79.448927 
   77200    513.27147   -117.00687   0.46441881   -116.54246   -794.54184    4.2969219    4.2969219    4.2969219   -794.54184   -5295.0022    538.54959    2372.8271    1570.3804   -755.35326    895.40336    79.336379 
   77300    319.90255   -116.83485   0.28945455   -116.54539   -3339.2331    4.2920279    4.2920279    4.2920279   -3339.2331   -22786.203   -5879.2517    18647.755   -16681.074   -798.80187    880.19721    79.065607 
   77400     497.3387   -116.99467   0.45000251   -116.54467   -3159.6876    4.2973096    4.2973096    4.2973096   -3159.6876   -23200.041   -4629.4433    18350.421   -10347.563    562.18679    2128.4781    79.357855 
   77500    681.78461   -117.15745   0.61689304   -116.54056     4775.236    4.2964231    4.2964231    4.2964231     4775.236    -4270.285    15193.598    3402.3954    6988.6983   -473.95959    3170.3412    79.308753 
   77600    472.07455   -116.97113   0.42714297   -116.54398   -3191.5767    4.2952243    4.2952243    4.2952243   -3191.5767   -14694.943   -1000.6795    6120.8923   -10630.225   -5246.9707    -4659.149    79.242384 
   77700    254.24628   -116.77602   0.23004738   -116.54597    2635.8238    4.2945707    4.2945707    4.2945707    2635.8238    -15791.91    6277.1615     17422.22   -17738.882   -918.02621    1572.0098    79.206218 
   77800    631.12924   -117.11281     0.571059   -116.54176   -4450.0429    4.2994347    4.2994347    4.2994347   -4450.0429   -10068.523    4162.4366   -7444.0428    211.19737   -363.16166   -2838.3457    79.475646 
   77900    636.97383   -117.11673   0.57634731   -116.54038    4176.2453    4.2914963    4.2914963    4.2914963    4176.2453   -1721.8284    8815.5897    5434.9745    2675.2076    2746.3534    1917.7424    79.036231 
   78000    389.45932   -116.89754   0.35239097   -116.54515   -7285.0777     4.296586     4.296586     4.296586   -7285.0777   -27419.694   -544.24335    6108.7043   -16936.436   -734.73028   -747.42391    79.317773 
   78100    338.47457   -116.85182   0.30625891   -116.54556   -4935.9812    4.2989134    4.2989134    4.2989134   -4935.9812   -18817.573   -9247.0351    13256.664   -7840.6793    936.83774   -2348.0788     79.44674 
   78200     616.8044   -117.09884   0.55809758   -116.54074    6273.3961    4.2890531    4.2890531    4.2890531    6273.3961    -2681.705    13369.478    8132.4151    8722.2608    2817.7235    5756.2808    78.901323 
   78300    523.99204   -117.01638   0.47411901   -116.54226   -2923.2487    4.2985296    4.2985296    4.2985296   -2923.2487   -6790.4088   -3422.0283     1442.691    -7170.231   -3415.9208   -3287.8065    79.425465 
   78400    285.10183   -116.80303   0.25796613   -116.54506   -811.05227    4.2969164    4.2969164    4.2969164   -811.05227   -6296.6935   -9996.8212    13860.358   -15663.542   -2625.1239    1652.1454    79.336075 
   78500    485.78067   -116.98226   0.43954456   -116.54272     3198.249     4.289676     4.289676     4.289676     3198.249   -10682.709    12261.223    8016.2336    1256.9781   -2281.8915   -3710.0566    78.935702 
   78600    610.29148   -117.09306   0.55220456   -116.54086   -1494.9373    4.2988439    4.2988439    4.2988439   -1494.9373    -704.7242    523.44712   -4303.5348    5596.2855     5233.281   -1214.6788    79.442891 
   78700     511.6404   -117.00528   0.46294299   -116.54233   -5986.1464    4.2970844    4.2970844    4.2970844   -5986.1464   -16576.419    1135.4718   -2517.4919   -16695.965    1172.6365    3194.5749    79.345379 
   78800    340.55532   -116.85193   0.30814161   -116.54379    4553.9265    4.2905864    4.2905864    4.2905864    4553.9265   -11696.791    1624.6478    23733.923   -13231.258   -3977.3039   -1751.4181     78.98597 
   78900    506.90263   -117.00115   0.45865615    -116.5425     -5119.79    4.2986045    4.2986045    4.2986045     -5119.79   -7906.3781   -578.56077   -6874.4312    10411.182    164.14072    4434.5865    79.429615 
   79000    494.12953   -116.98873   0.44709879   -116.54163    -1783.414    4.2950252    4.2950252    4.2950252    -1783.414   -11280.734    3851.7857    2078.7068    956.43051    682.99315   -3743.3133    79.231369 
   79100    429.34461   -116.93163   0.38848003   -116.54315   -1946.8431    4.2923591    4.2923591    4.2923591   -1946.8431   -15757.441   -8771.2746    18688.186   -22334.375     1665.958    1318.6283    79.083914 
   79200    461.26471   -116.96001   0.41736201   -116.54265    -5917.269    4.2985001    4.2985001    4.2985001    -5917.269   -15688.354   -4556.2088    2492.7559   -4229.2064   -3916.5488   -126.94994    79.423829 
   79300    545.13051   -117.03494   0.49324554   -116.54169   -4562.5968    4.2940499    4.2940499    4.2940499   -4562.5968   -15424.203    5262.8901   -3526.4772    11724.048    1746.4497   -2528.9007    79.177404 
   79400    542.06281   -117.03255   0.49046982   -116.54208   -1037.1158    4.2915669    4.2915669    4.2915669   -1037.1158   -11591.005    8137.9835    341.67423    -7683.701     3491.077    1611.4497    79.040132 
   79500    450.58341   -116.95103   0.40769734   -116.54333    2195.5241    4.2993371    4.2993371    4.2993371    2195.5241   -3516.5169   -197.71608    10300.805   -13092.749   -3236.6407   -3439.6213    79.470235 
   79600    527.47741    -117.0194   0.47727265   -116.54213    2132.3088    4.2940213    4.2940213    4.2940213    2132.3088   -10466.052    18077.089   -1214.1103    5105.5874   -1448.9657    4600.2953    79.175822 
   79700    523.40596   -117.01477   0.47358871   -116.54118    6411.1125    4.2908262    4.2908262    4.2908262    6411.1125   -150.77984    12093.151    7290.9667    6367.5798    501.45744     472.5425    78.999213 
   79800    555.00382   -117.04401   0.50217912   -116.54184   -2885.8371    4.3007663    4.3007663    4.3007663   -2885.8371   -12059.145   -324.90814     3726.542   -11744.826    3917.9887   -1609.7819    79.549513 
   79900    541.34626   -117.03112   0.48982147    -116.5413    4776.4189    4.2926927    4.2926927    4.2926927    4776.4189    -11785.79    12638.538    13476.508   -7189.1959   -5664.0142   -851.58669    79.102353 
   80000    545.81139   -117.03615   0.49386161   -116.54229    -107.0638    4.2919192    4.2919192    4.2919192    -107.0638   -5792.6411    5156.9335    314.51622    9125.0523    -3601.106    -2478.818    79.059599 
   80100    535.19148   -117.02677    0.4842525   -116.54252   -6625.7398    4.3005281    4.3005281    4.3005281   -6625.7398   -11994.479    2159.6249   -10042.365    263.59411    8858.0742    3061.5692      79.5363 
   80200    585.46372   -117.07085   0.52973988   -116.54111   -1620.2753    4.2941563    4.2941563    4.2941563   -1620.2753   -12760.117   -179.02725    8078.3181   -13052.157   -639.65456   -173.25177    79.183288 
   80300    565.14734   -117.05254   0.51135719   -116.54118   -732.12393    4.2918429    4.2918429    4.2918429   -732.12393   -8539.3808    1356.9767    4986.0323    462.13775   -7155.1264    3190.5927    79.055381 
   80400     546.5637   -117.03669   0.49454232   -116.54215   -7759.3188    4.2996128    4.2996128    4.2996128   -7759.3188   -15435.541   -6524.6976   -1317.7178    8968.5157   -2544.1103   -256.56952    79.485526 
   80500    578.89789   -117.06729   0.52379898   -116.54349   -312.23425     4.293339     4.293339     4.293339   -312.23425   -16666.451    6258.9168    9470.8311   -8742.5369     8494.143   -2956.5746    79.138085 
   80600    628.55064    -117.1118   0.56872583   -116.54307    8540.2357    4.2902807    4.2902807    4.2902807    8540.2357    1490.5853    5929.0923     18201.03   -11408.893    751.85449    2592.9551    78.969088 
   80700    565.73439   -117.05462   0.51188836   -116.54273   -4680.6733    4.3028535    4.3028535    4.3028535   -4680.6733   -16044.665     9761.229    -7758.584    6920.8078   -7815.5652    812.67647    79.665388 
   80800    557.22618   -117.04689   0.50418996    -116.5427    5407.1816    4.2889594    4.2889594    4.2889594    5407.1816   -4074.9285    20389.457   -92.983619    7134.0559    2836.3383    1190.4954    78.896149 
   80900    640.66773   -117.12293   0.57968962   -116.54324    5273.4029    4.2933877    4.2933877    4.2933877    5273.4029    1506.4457    7707.9832    6605.7798    -7366.613    3676.2113   -1191.0323    79.140779 
   81000    646.85748   -117.12636   0.58529024   -116.54107   -4890.8545    4.3034434    4.3034434    4.3034434   -4890.8545   -19908.932    10029.675   -4793.3072   -4576.6152   -5738.7555     1028.076    79.698159 
   81100    555.06108   -117.04334   0.50223093   -116.54111     2531.935    4.2876303    4.2876303    4.2876303     2531.935   -4592.6413    5002.0823    7186.3639    3806.4083   -8143.5825    6420.1359    78.822824 
   81200    550.80037    -117.0409   0.49837575   -116.54253   -626.69093    4.2954754    4.2954754    4.2954754   -626.69093   -11763.851     5706.409    4177.3692    5323.8618    5243.4017   -875.59219    79.256287 
   81300    685.32855   -117.16042   0.62009968   -116.54032   -5733.8425    4.3017464    4.3017464    4.3017464   -5733.8425   -17134.704    39.027612   -105.85158    -4651.735    3538.7463   -3602.7714    79.603914 
   81400    600.23388   -117.08467   0.54310423   -116.54157    2367.3478     4.288486     4.288486     4.288486    2367.3478   -5602.8849    10820.977    1883.9515    2154.0818   -9836.6322    540.70663    78.870025 
   81500    524.90755   -117.01905   0.47494738    -116.5441   -3388.6203     4.295242     4.295242     4.295242   -3388.6203   -8158.9898    3910.9266   -5917.7975    7099.5183    447.98785     4740.331    79.243364 
   81600    643.86513   -117.12458    0.5825827     -116.542   -7048.4242    4.3029422    4.3029422    4.3029422   -7048.4242   -12029.566   -2306.2061   -6809.5007   -5998.0574    6026.4151    1396.6544    79.670317 
   81700    671.02538   -117.14632   0.60715787   -116.53916    7724.9686    4.2879646    4.2879646    4.2879646    7724.9686    1993.0628    8248.8705    12932.972   -131.68018   -7822.2182    -880.4246    78.841261 
   81800    529.11779   -117.02132    0.4787569   -116.54257    3000.2927    4.2949369    4.2949369    4.2949369    3000.2927   -8550.3231    9675.9942    7875.2071    2532.0877   -10527.213    1464.2101     79.22648 
   81900    512.45547   -117.00872   0.46368048   -116.54504   -4987.8018    4.3014924    4.3014924    4.3014924   -4987.8018   -14182.058     3731.501   -4512.8484    3678.2293    5434.0292    156.35077    79.589811 
   82000    673.77568   -117.15145    0.6096464   -116.54181    12741.233    4.2845618    4.2845618    4.2845618    12741.233    13140.181    11649.382    13434.136   -2600.5851    8534.2984    1137.0374    78.653714 
   82100    669.98019   -117.14893   0.60621215   -116.54272   -5477.3619    4.3020331    4.3020331    4.3020331   -5477.3619   -15155.564    8566.4112   -9842.9329     -627.429   -10995.769    508.62678     79.61983 
   82200    504.85946   -117.00063   0.45680745   -116.54382   -4183.6576    4.2956959    4.2956959    4.2956959   -4183.6576   -2099.4896   -1586.0758   -8865.4073     7776.488   -7252.4126     4315.593    79.268488 
   82300    542.85085   -117.03361   0.49118286   -116.54243    4392.2553    4.2870407    4.2870407    4.2870407    4392.2553    10114.685    36.709182    3025.3721   -437.09503    8612.8668     2889.664     78.79031 
   82400    677.45928   -117.15393    0.6129794   -116.54095   -7130.0205    4.3031742    4.3031742    4.3031742   -7130.0205   -9343.4286   -9825.0099    -2221.623   -2653.7785   -90.097509   -2602.8268    79.683202 
   82500    500.92953   -116.99583   0.45325157   -116.54258    4076.3084    4.2924989    4.2924989    4.2924989    4076.3084    893.51052    4653.3765     6682.038   -2105.2133   -14803.055    3267.1856     79.09164 
   82600     466.1094   -116.96491   0.42174558   -116.54317   -1778.7145    4.2908266    4.2908266    4.2908266   -1778.7145   -2098.9535   -2622.8741   -614.31596    6158.5938   -4499.2226    1853.7119    78.999239 
   82700    599.02106   -117.08423   0.54200685   -116.54222     -5416.67    4.3008426    4.3008426    4.3008426     -5416.67   -5932.8312    -1623.517   -8693.6618    3359.5684     8131.381   -1182.7726    79.553749 
   82800    693.59711   -117.16828   0.62758124    -116.5407    -1557.111    4.2946454    4.2946454    4.2946454    -1557.111   -4922.0568    8260.4432   -8009.7193   -2188.3183   -5057.0192    1304.2474    79.210351 
   82900    506.16772   -117.00104   0.45799119   -116.54305    6181.7225    4.2887854    4.2887854    4.2887854    6181.7225    88.693953    12935.781    5520.6927     1912.612   -10477.784    6395.9406    78.886548 
   83000     467.6822   -116.96708   0.42316868   -116.54391   -5246.2293    4.3027889    4.3027889    4.3027889   -5246.2293   -9959.7925    5.2970842   -5784.1925    1165.8312     3341.009    3008.8803    79.661803 
   83100    608.39336   -117.09054   0.55048709   -116.54005    3386.6986    4.2931627    4.2931627    4.2931627    3386.6986    4261.9818   -1206.3522    7104.4661     1606.365    -740.8529   -4001.7832     79.12834 
   83200    505.49327   -116.99843   0.45738094   -116.54105    10060.978    4.2897071    4.2897071    4.2897071    10060.978   -494.99973    21964.313    8713.6203   -1516.8575   -15352.033   -2494.3605    78.937421 
   83300    464.46277   -116.96368   0.42025567   -116.54343   -10851.802    4.3015573    4.3015573    4.3015573   -10851.802   -9774.0704   -6430.2314   -16351.105    1706.0422   -5586.2805    6315.0272    79.593413 
   83400    500.23187   -116.99517    0.4526203   -116.54255   -1332.3942    4.2903472    4.2903472    4.2903472   -1332.3942    12050.203   -11064.263   -4983.1222    1539.1147    9851.4528    6389.1706    78.972761 
   83500    592.77523   -117.07799   0.53635549   -116.54164    -6027.797    4.2961599    4.2961599    4.2961599    -6027.797   -5002.2715   -2480.6802   -10600.439   -459.20899   -5176.7144   -2854.5527    79.294178 
   83600    485.45099   -116.98126   0.43924626   -116.54202   -2602.1004    4.2963506    4.2963506    4.2963506   -2602.1004   -4926.2196     532.7495    -3412.831    1467.2407   -16553.665    1532.3291     79.30474 
   83700    425.80504   -116.92818   0.38527735    -116.5429   -1255.7535    4.2927231    4.2927231    4.2927231   -1255.7535    9974.5165   -12147.673    -1594.104    2298.8943    903.04766    6226.2243    79.104035 
   83800    520.86874   -117.01365   0.47129299   -116.54236   -1169.1487    4.2937164    4.2937164    4.2937164   -1169.1487    4979.4318   -8871.6854    384.80753    964.84267    7041.8446    2533.5315    79.158955 
   83900    447.87077   -116.94804   0.40524289    -116.5428     3808.775    4.2974236    4.2974236    4.2974236     3808.775    2715.3367     13892.96    -5181.972   -2594.6419   -12857.972   -2532.0885    79.364173 
   84000    459.82652   -116.95853   0.41606069   -116.54247    1236.1839    4.2932322    4.2932322    4.2932322    1236.1839    7640.2788    815.30002   -4747.0271    945.89852   -14672.264    1571.4647    79.132183 
   84100    471.78726   -116.96894   0.42688303   -116.54206    2780.7773    4.2915872    4.2915872    4.2915872    2780.7773    8872.0633    4023.8568   -4553.5881    2225.9291    5008.8006    5614.7046    79.041255 
   84200    491.77376   -116.98709   0.44496723   -116.54212   -7357.4522    4.3010946    4.3010946    4.3010946   -7357.4522   -1710.2235   -5307.2145   -15054.919     773.2696    1435.5414    650.33891    79.567736 
   84300    426.95164   -116.92883   0.38631482   -116.54251    4227.9405    4.2891788    4.2891788    4.2891788    4227.9405    -3072.316    10292.474    5463.6633   -2449.2245     -15110.6       1373.8    78.908256 
   84400    408.09034   -116.91211   0.36924871   -116.54287   -2628.8752    4.2950784    4.2950784    4.2950784   -2628.8752   -565.33643   -1391.2142   -5930.0751   -535.01462   -8815.1898    2293.7281     79.23431 
   84500    513.03943   -117.00502   0.46420886   -116.54081   -9432.7475    4.2986939    4.2986939    4.2986939   -9432.7475    1000.8075   -17761.359   -11537.691    5847.9648     5374.201    4536.4864    79.434571 
   84600     378.7395   -116.88448   0.34269146   -116.54179   -588.42781    4.2917493    4.2917493    4.2917493   -588.42781    1442.9017    6864.2213   -10072.406   -2633.6516   -11832.629   -3355.8821    79.050209 
   84700    391.31558   -116.89686   0.35407056   -116.54279   -4175.7763    4.2943584    4.2943584    4.2943584   -4175.7763   -265.48421    5141.3434   -17403.188   -3272.7076   -17272.443   -1409.2379     79.19447 
   84800    508.91329   -117.00173   0.46047544   -116.54125   -6747.6613    4.2972493    4.2972493    4.2972493   -6747.6613    7896.1395   -10927.218   -17211.905   -1357.1849    3715.1005     8260.317    79.354518 
   84900    436.98079    -116.9365    0.3953894   -116.54111   -3249.7817    4.2949489    4.2949489    4.2949489   -3249.7817    5596.9309   -4738.0019   -10608.274    2149.4087     2171.711    4221.2793    79.227147 
   85000    380.25343   -116.88667    0.3440613   -116.54261    1422.4225    4.2911149    4.2911149    4.2911149    1422.4225    -920.0266    13375.012   -8187.7181    1604.1951   -17035.534   -239.69529     79.01516 
   85100    387.14708   -116.89369   0.35029882   -116.54339   -572.43152     4.298219     4.298219     4.298219   -572.43152    8955.4758   -1630.0564    -9042.714   -1912.7606   -12625.465   -497.16848    79.408248 
   85200    557.45706   -117.04585   0.50439887   -116.54145     1579.698     4.291048     4.291048     4.291048     1579.698     10896.29   -6330.9247    173.72892     4548.171    6143.5393    5783.1102    79.011463 
   85300    411.98989   -116.91715   0.37277711   -116.54437    837.02553    4.2942984    4.2942984    4.2942984    837.02553    1646.1913    11217.702   -10352.817    725.42612   -5213.6852    1737.3027    79.191153 
   85400    337.50694   -116.84927   0.30538337   -116.54388   -2892.9562    4.2985389    4.2985389    4.2985389   -2892.9562   -3247.8799    9045.0849   -14476.073    43.879398   -17532.209   -3133.1447     79.42598 
   85500    557.27147   -117.04469   0.50423094   -116.54046    1712.8427    4.2887862    4.2887862    4.2887862    1712.8427    7114.8433     5004.622   -6980.9372   -2072.9597   -2859.8656    1436.7759    78.886593 
   85600    527.98793   -117.01907   0.47773457   -116.54134   -3028.3416    4.2970494    4.2970494    4.2970494   -3028.3416   -2016.5394    2334.7385   -9403.2241   -753.55906    4241.1911    2995.9626    79.343443 
   85700    354.54499   -116.86451   0.32079976   -116.54371   -4098.3369    4.2962099    4.2962099    4.2962099   -4098.3369   -5947.7934    7423.5913   -13770.809    2333.6298   -12527.912    894.11483    79.296948 
   85800    337.42315    -116.8498   0.30530756   -116.54449    4174.9026     4.288855     4.288855     4.288855    4174.9026    11427.245      11102.6   -10005.138    -3595.052    -17032.52   -4311.4887     78.89039 
   85900    589.88667   -117.07587   0.53374185   -116.54213   -2788.4657    4.2958888    4.2958888    4.2958888   -2788.4657    3995.9233   -5269.8483   -7091.4721    4498.8658    2846.3728    3710.0428    79.279172 
   86000    508.99004   -117.00346   0.46054488   -116.54291   -6762.0593    4.2982937    4.2982937    4.2982937   -6762.0593    979.71419   -5443.8566   -15822.036    2720.5761   -4349.4796    6115.9563    79.412387 
   86100    283.35378   -116.80185   0.25638446   -116.54547     2310.762    4.2872658    4.2872658    4.2872658     2310.762    6890.1163    14999.069   -14956.899    916.14435   -21473.869   -2838.0405    78.802722 
   86200    479.99273    -116.9787   0.43430751   -116.54439   -6878.5903    4.2956859    4.2956859    4.2956859   -6878.5903   -2933.8779    3035.5348   -20737.428   -2573.4575   -5185.3438   -4032.5494    79.267939 
   86300    602.65667   -117.08575   0.54529642   -116.54045   -9507.6979     4.300187     4.300187     4.300187   -9507.6979   -6635.7177   -8396.5496   -13490.826   -2069.3425    5446.4961   -60.072653    79.517371 
   86400    419.54745   -116.92177   0.37961535   -116.54215    3414.6343    4.2851815    4.2851815    4.2851815    3414.6343    668.03672    12630.277   -3054.4111    6052.2776   -13588.266    3945.4366    78.687846 
   86500    273.65715   -116.79336   0.24761074   -116.54575   -3165.9057    4.2965005    4.2965005    4.2965005   -3165.9057   -5841.9801    12893.867   -16549.604    1265.4812   -19345.966   -1361.1603    79.313038 
   86600     485.2245   -116.98255   0.43904132   -116.54351   -4668.0023    4.2981732    4.2981732    4.2981732   -4668.0023   -5903.9665    337.02994   -8437.0704    958.90325    3555.3165   -3509.9878    79.405709 
   86700    608.65276   -117.09106   0.55072181   -116.54034     3322.851    4.2867041    4.2867041    4.2867041     3322.851   -1087.9298    6788.0816    4268.4014    1664.5136    1033.5523    2033.7456    78.771752 
   86800    267.13128   -116.78717   0.24170599   -116.54546    4427.3906    4.2973465    4.2973465    4.2973465    4427.3906    11047.549    12111.731   -9877.1084    309.27156   -18414.603   -274.91491    79.359904 
   86900    390.10006   -116.89823   0.35297073   -116.54526   -9321.0192    4.2967904    4.2967904    4.2967904   -9321.0192   -14118.461    3486.0405   -17330.637    639.35215   -8400.4108   -2704.3311    79.329096 
   87000    510.35721   -117.00314   0.46178193   -116.54136     6235.578    4.2852019    4.2852019    4.2852019     6235.578    5546.0707    10188.345    2972.3185    660.29673       8263.4     -4974.96    78.688973 
   87100    481.22155   -116.97844   0.43541937   -116.54302   -4601.6723    4.3007625    4.3007625    4.3007625   -4601.6723   -6737.0758   -2441.8256   -4626.1155    1716.8431   -4430.3039    187.59048    79.549303 
   87200    276.48418   -116.79495    0.2501687   -116.54478   -207.96323    4.2929982    4.2929982    4.2929982   -207.96323   -4929.7337    9606.3847   -5300.5407   -72.256324   -21017.933    339.21563     79.11924 
   87300    355.71636   -116.86464   0.32185964   -116.54278    -443.7253    4.2871749    4.2871749    4.2871749    -443.7253   -6357.5455    6470.8984   -1444.5288   -1149.0733   -1151.9256   -9159.7551     78.79771 
   87400    545.19035   -117.03416   0.49329968   -116.54086   -11145.356    4.3013956    4.3013956    4.3013956   -11145.356    -19636.12   -7628.8387   -6171.1103   -929.28147    6687.4182   -1702.4737    79.584438 
   87500    358.29355   -116.86708   0.32419153   -116.54289    4467.3437    4.2905344    4.2905344    4.2905344    4467.3437    4179.8784    11125.398   -1903.2457    3759.7724   -16604.149     2528.551    78.983098 
   87600    343.27505   -116.85426   0.31060248   -116.54365   -5511.9975    4.2900086    4.2900086    4.2900086   -5511.9975   -12580.279     6518.082   -10473.796    2523.5905   -13869.334   -1972.5626    78.954063 
   87700    427.37576   -116.92945   0.38669857   -116.54275   -8860.6746    4.2990825    4.2990825    4.2990825   -8860.6746   -12214.019    -6196.891   -8171.1134   -406.67255     7182.583   -5260.3695    79.456119 
   87800    473.86408   -116.97011   0.42876217   -116.54134    2315.9662    4.2923177    4.2923177    4.2923177    2315.9662   -7472.2267    13870.827    549.29826    1166.4826     1910.639    -4673.901    79.081623 
   87900     331.6603   -116.84328   0.30009321   -116.54319    4658.2756     4.290569     4.290569     4.290569    4658.2756    4739.6935    8489.9227    745.21048   -2199.5143   -20544.999    3375.5012    78.985011 
   88000    387.09726   -116.89378   0.35025374   -116.54353   -7603.0963    4.2961686    4.2961686    4.2961686   -7603.0963   -21364.197    2309.9024   -3754.9941   -167.47948   -5857.9358    -3755.499    79.294659 
   88100    474.78067   -116.97143   0.42959153   -116.54184   -1689.1263    4.2943696    4.2943696    4.2943696   -1689.1263   -12354.131    11677.695    -4390.943   -1032.0753    13005.148   -5495.4767    79.195088 
   88200    461.69978   -116.95994   0.41775566   -116.54219    4190.0349    4.2916095    4.2916095    4.2916095    4190.0349    5591.2337     6781.953    196.91802    1861.1976     -7933.55    499.06446    79.042484 
   88300    419.09183   -116.92245   0.37920309   -116.54325   -1388.5913    4.2937262    4.2937262    4.2937262   -1388.5913    -16712.91    10272.325    2274.8106     2996.458   -17621.857    -525.2005    79.159502 
   88400    447.46048   -116.94772   0.40487165   -116.54285   -4443.4274    4.2952832    4.2952832    4.2952832   -4443.4274   -12392.957    1644.5324   -2581.8573   -1437.6368    2626.2396   -2083.8301    79.245647 
   88500    508.55271   -117.00238   0.46014918   -116.54223    1154.4128    4.2923722    4.2923722    4.2923722    1154.4128   -2307.0727    1095.4038    4674.9073    623.03994    10324.147   -7451.3946    79.084636 
   88600    434.21853   -116.93655   0.39289005   -116.54366    3493.5986    4.2929868    4.2929868    4.2929868    3493.5986    -1721.179    6411.0279    5790.9469   -17.174442   -12317.869    1624.8449    79.118614 
   88700    533.62475   -117.02559   0.48283488   -116.54276   -5305.9046     4.293478     4.293478     4.293478   -5305.9046   -15669.816    3727.4154    -3975.313    2135.9709    -15044.65    163.58847    79.145773 
   88800    527.88374   -117.02011    0.4776403   -116.54247   -5120.3145    4.2950648    4.2950648    4.2950648   -5120.3145   -595.23547   -9358.0268   -5407.6811   -547.52709    6925.3037   -9971.2651    79.233557 
   88900    508.29269   -117.00303    0.4599139   -116.54312   -333.76698    4.2923653    4.2923653    4.2923653   -333.76698    2944.3594    3672.3293   -7617.9896    -2519.317    1893.9918   -2308.5807    79.084253 
   89000    569.39466   -117.05792   0.51520026   -116.54271   -1104.5578    4.2930229    4.2930229    4.2930229   -1104.5578   -6450.9032    10778.561   -7641.3312    1161.6931   -11889.108    312.70868    79.120608 
   89100    572.28852   -117.06026   0.51781868   -116.54245   -2678.8834    4.2960328    4.2960328    4.2960328   -2678.8834   -3779.3213   -2782.0941   -1475.2347    69.576673    -4245.203    225.43158    79.287142 
   89200    565.05703   -117.05405   0.51127547   -116.54277    679.63455    4.2909893    4.2909893    4.2909893    679.63455   -595.32497    5610.7245   -2976.4959    2445.4566    9386.8091   -6920.9119    79.008223 
   89300    507.73338   -117.00375   0.45940783   -116.54435     2612.164    4.2951992    4.2951992    4.2951992     2612.164    2120.6991    16282.851   -10567.058   -884.44943   -2388.8673   -2679.5397    79.240998 
   89400    700.02826   -117.17511   0.63340028   -116.54171    2526.6473     4.293498     4.293498     4.293498    2526.6473   -7103.8393    12389.255    2294.5265   -3224.4172   -12045.505    3131.9213    79.146882 
   89500    679.68701   -117.15704   0.61499509   -116.54204    3485.9381    4.2913445    4.2913445    4.2913445    3485.9381    12.289487    10909.479   -463.95411   -170.11271    4011.6579     -7758.56    79.027847 
   89600    508.47085   -117.00497   0.46007511   -116.54489    469.67359    4.2962845    4.2962845    4.2962845    469.67359    2021.9435    11229.783   -11842.706    1230.3312    5738.2775   -4032.1333    79.301078 
   89700    630.57742   -117.11376    0.5705597    -116.5432    2027.5894    4.2937115    4.2937115    4.2937115    2027.5894   -918.73119     3456.078    3545.4214    2552.9079   -6883.1591    960.25301    79.158687 
   89800    744.73637   -117.21517   0.67385311   -116.54132    10694.236    4.2891955    4.2891955    4.2891955    10694.236    3417.5566    19364.823     9300.329    162.49844   -6227.1925    1565.8487    78.909179 
   89900     615.5949   -117.10114    0.5570032   -116.54413   -3052.4811    4.2975607    4.2975607    4.2975607   -3052.4811   -175.23877   -6377.1032   -2605.1012   -1727.5234    6237.0258     -5188.17    79.371771 
   90000    481.87644   -116.98167   0.43601193   -116.54566   -4832.1788    4.2942972    4.2942972    4.2942972   -4832.1788    5473.6326    -7832.135   -12138.034   -206.04515    3971.1571   -5976.5675    79.191086 
   90100    697.83607   -117.17512   0.63141674    -116.5437    4755.2323    4.2887571    4.2887571    4.2887571    4755.2323    2567.3192    17058.046   -5359.6688    477.96853   -10317.242    5636.7453    78.884983 
   90200    818.40193   -117.28204   0.74050727   -116.54154   -2164.4105    4.2972681    4.2972681    4.2972681   -2164.4105   -2072.4325   -1097.8614   -3322.9378    766.09513   -2085.1539   -4746.9147    79.355559 
   90300    472.95431   -116.97372     0.427939   -116.54578   -2785.0728    4.2943005    4.2943005    4.2943005   -2785.0728    9549.1745   -3744.9415   -14159.451    163.91582    5440.3905   -7942.1124    79.191265 
   90400    485.01121   -116.98538   0.43884834   -116.54653   -2409.1916    4.2911399    4.2911399    4.2911399   -2409.1916    1143.9509     5409.716   -13781.242   -118.17636   -499.46537   -976.08504    79.016545 
   90500    735.00938   -117.20739   0.66505194   -116.54234    4878.2694    4.2961047    4.2961047    4.2961047    4878.2694   -1294.1804     14826.44    1102.5482    934.28411   -3421.0819    2603.4313    79.291125 
   90600    688.62292    -117.1656   0.62308049   -116.54252    2003.5614    4.2931701    4.2931701    4.2931701    2003.5614    9282.4746    2173.1799   -5444.9703    553.43915    2571.6962   -2317.5968    79.128748 
   90700    400.06981   -116.90872   0.36199157   -116.54673   -5695.1712    4.2918184    4.2918184    4.2918184   -5695.1712    3551.1669    1536.6479   -22173.328    -1558.819    8169.9719   -7990.0914    79.054032 
   90800    479.96839   -116.98128   0.43428548     -116.547    728.28865    4.2958785    4.2958785    4.2958785    728.28865   -1245.2279    6761.7079   -3331.6141    985.65962   -2978.5023    4999.1139    79.278598 
   90900    768.46793   -117.23659   0.69532593   -116.54126    5497.0876     4.293222     4.293222     4.293222    5497.0876   -1332.3139    8299.7749     9523.802    834.79126   -3648.5056   -1302.2977    79.131618 
   91000    483.37362   -116.98132   0.43736661   -116.54395    2783.5414    4.2914391    4.2914391    4.2914391    2783.5414    4435.4345    5929.5715   -2014.3818    744.02446    5272.5188   -7935.3813    79.033073 
   91100    304.06919   -116.82214   0.27512819   -116.54702   -7746.2174    4.2974788    4.2974788    4.2974788   -7746.2174   -4999.1667   -7572.1435   -10667.342    1253.6543    4333.0706   -3529.1617    79.367229 
   91200     525.5214   -117.01964    0.4755028   -116.54413    6502.7176    4.2912366    4.2912366    4.2912366    6502.7176   -2646.3343    21543.764    610.72281    -452.4845   -518.12144       3338.9    79.021883 
   91300     678.4252   -117.15498   0.61385338   -116.54112    2415.5445    4.2923148    4.2923148    4.2923148    2415.5445    -3690.659    7252.9723    3684.3201    667.03647   -2584.0564    1981.8827    79.081464 
   91400    333.22245   -116.84698   0.30150667   -116.54547   -10019.781    4.2984601    4.2984601    4.2984601   -10019.781   -5646.9984   -5368.5083   -19043.837   -1338.9275    4639.1534   -10438.711    79.421614 
   91500    295.72034   -116.81391   0.26757397   -116.54634   -776.59908    4.2903591    4.2903591    4.2903591   -776.59908     215.4584    10461.434   -13006.689    472.38593    2796.8671    815.38204    78.973417 
   91600    552.43263   -117.04196   0.49985265    -116.5421    1267.0441    4.2953767    4.2953767    4.2953767    1267.0441   -7708.2917    8412.9418    3096.4823    1767.9582   -1870.4393    3812.0092    79.250822 
   91700    482.27216   -116.97841   0.43636998   -116.54204   -3789.0541    4.2954648    4.2954648    4.2954648   -3789.0541    -10550.47     3011.264   -3827.9564    -1471.979    1530.4751   -6791.5252    79.255696 
   91800    221.34867   -116.74614   0.20028093   -116.54586   -6840.0521     4.292323     4.292323     4.292323   -6840.0521    1845.9142   -1876.8516   -20489.219    317.81256    680.58695   -7585.8312    79.081919 
   91900    310.87249   -116.82675   0.28128396   -116.54546   -1928.2943    4.2947501    4.2947501    4.2947501   -1928.2943    -4137.668    7310.5089   -8957.7238    -1769.701    892.55756    3053.6361    79.216145 
   92000    611.85648   -117.09458    0.5536206   -116.54096   -4683.8117    4.2942156    4.2942156    4.2942156   -4683.8117   -14041.907    1917.1495   -1926.6781    -746.2813   -1677.0808    6484.5829    79.186572 
   92100    348.34013   -116.85942   0.31518547   -116.54423   -4949.7006    4.2939129    4.2939129    4.2939129   -4949.7006   -5818.8312    1945.4567   -10975.727    1073.6825    1212.5319   -6119.3841    79.169827 
   92200    204.51029   -116.73159   0.18504521   -116.54654   -639.19059    4.2926715    4.2926715    4.2926715   -639.19059   -2592.3414    4045.4397     -3370.67    -701.9638    5735.4792   -3485.1837    79.101182 
   92300    395.21985   -116.90171   0.35760323   -116.54411    2009.8151    4.2961385    4.2961385    4.2961385    2009.8151    -12369.16    17922.975    475.63048    2760.4937    153.07995    1998.7647    79.292995 
   92400    518.61933   -117.01084   0.46925767   -116.54158    4651.7707    4.2904863    4.2904863    4.2904863    4651.7707   -11273.063     15940.98    9287.3948   -1761.9009   -2210.4095   -2116.0202    78.980443 
   92500    293.89845   -116.81158   0.26592549   -116.54565   -6338.0225    4.2968928    4.2968928    4.2968928   -6338.0225   -13264.503    4283.3011   -10032.865   -2642.9829    2000.9649    -6244.155    79.334771 
   92600    233.85507   -116.75681   0.21159698   -116.54521     551.2983    4.2939409    4.2939409    4.2939409     551.2983   -4836.4125    20318.811   -13828.504   -170.33133    5785.0991   -1522.5153    79.171374 
   92700    582.20898   -117.06828   0.52679492   -116.54149   -456.29582    4.2898255    4.2898255    4.2898255   -456.29582   -8275.2186    6090.0055    816.32571   -10.803396   -196.80062    8324.4694    78.943954 
   92800    427.83811   -116.93018   0.38711692   -116.54306   -7380.8199    4.2997821    4.2997821    4.2997821   -7380.8199   -20588.792    7995.7188   -9549.3866    3162.3992   -2184.8518   -3642.0221    79.494914 
   92900    232.79991   -116.75619   0.21064225   -116.54555   -2868.9118    4.2929225    4.2929225    4.2929225   -2868.9118   -6528.4568    12132.392   -14210.671   -1202.4642    4941.5483   -8371.0849    79.115055 
   93000    358.66067   -116.86863   0.32452371   -116.54411    1687.6246    4.2912542    4.2912542    4.2912542    1687.6246   -898.62525    7653.9685   -1692.4695   -659.55155    4806.0161   -87.354405    79.022858 
   93100    570.99053   -117.05744   0.51664423   -116.54079   -3359.6283    4.2968578    4.2968578    4.2968578   -3359.6283   -8686.9323     3671.898   -5063.8505    879.94737   -2066.1004     3749.956    79.332828 
   93200    441.78013   -116.94376   0.39973195   -116.54403    -9274.929    4.2954028    4.2954028    4.2954028    -9274.929    -18619.47    7739.2518   -16944.568   -2638.6074   -2461.8373   -2193.9556    79.252263 
   93300    275.96499   -116.79555   0.24969893   -116.54585    3227.1613    4.2895004    4.2895004    4.2895004    3227.1613    6066.4356    10564.733    -6949.685     802.3838    3029.4006   -7296.9303    78.926008 
   93400    598.95875   -117.08486   0.54195046   -116.54291   -6457.8056    4.2975316    4.2975316    4.2975316   -6457.8056   -7810.9831   -1598.1635   -9964.2702   -1732.0735    946.83939    2324.5856    79.370155 
   93500    564.15638   -117.05309   0.51046055   -116.54263    974.25413    4.2940247    4.2940247    4.2940247    974.25413   -14282.145    17525.753   -320.84616    315.77002   -7208.5486    2176.6518    79.176013 
   93600    417.39321   -116.92261   0.37766615   -116.54495    755.36222    4.2907625    4.2907625    4.2907625    755.36222   -3973.5148    13107.603   -6868.0015    1077.9637   -2692.1084   -5035.0313    78.995698 
   93700    394.74575   -116.90224   0.35717425   -116.54507   -1234.5555     4.298473     4.298473     4.298473   -1234.5555    -4424.814    9582.8367   -8861.6893    109.92136    7368.2583   -7644.2765    79.422327 
   93800    654.74198   -117.13393    0.5924243   -116.54151    4339.3226    4.2906937    4.2906937    4.2906937    4339.3226    241.24517    13329.948   -553.22591    4049.1789   -1051.9863   -2210.2772    78.991897 
   93900    613.41521   -117.09795   0.55503098   -116.54292   -2890.4236    4.2942499    4.2942499    4.2942499   -2890.4236   -10220.222    11955.871    -10406.92   -2908.0391    -11631.24    3773.3577    79.188468 
   94000    406.97056   -116.91303   0.36823552   -116.54479   -1802.8531    4.2974694    4.2974694    4.2974694   -1802.8531   -2962.1078    11321.662   -13768.113   -3147.1407    2431.0023   -7727.1894    79.366711 
   94100    612.68337   -117.09677   0.55436879    -116.5424   -377.11371    4.2922359    4.2922359    4.2922359   -377.11371   -717.83905    4822.0292   -5235.5313    -1366.907     8165.771   -1558.3983    79.077104 
   94200    665.82046   -117.14363   0.60244835   -116.54118    6770.0761    4.2915193    4.2915193    4.2915193    6770.0761   -1149.9076    17949.326    3510.8102    1732.8142   -6443.0847    2131.8225    79.037505 
   94300    560.23799   -117.05078   0.50691511   -116.54387   -3380.4704    4.2988722    4.2988722    4.2988722   -3380.4704   -6739.5653    7327.7958   -10729.642    5105.0284   -9284.1213   -3127.3059     79.44446 
   94400     460.2332   -116.96093   0.41642867    -116.5445    2511.1235    4.2929903    4.2929903    4.2929903    2511.1235   -372.63961    9902.6763   -1996.6661   -2141.1776    7128.2416   -6534.3511    79.118804 
   94500    663.16592   -117.14211   0.60004646   -116.54206      9154.33    4.2884049    4.2884049    4.2884049      9154.33    17156.803    6587.3611    3718.8253   -1482.4551    7537.3553   -7139.6117    78.865552 
   94600    642.07572   -117.12309    0.5809636   -116.54212   -3063.0068    4.3014535    4.3014535    4.3014535   -3063.0068    -1453.501    2215.8211   -9951.3405   0.79237889   -12025.116    5699.8131    79.587652 
   94700     519.5007   -117.01303   0.47005515   -116.54298   -843.01408    4.2909006    4.2909006    4.2909006   -843.01408   -1817.1771    5601.1728   -6313.0379   -431.93408    -9171.025   -2407.7882    79.003323 
   94800    567.27092   -117.05728   0.51327865     -116.544   -2985.1824    4.2919809    4.2919809    4.2919809   -2985.1824    5497.9957   -4802.9329   -9650.6099   -511.29916    7234.1069   -8022.6352    79.063012 
   94900    645.31888   -117.12595   0.58389808   -116.54206    -3208.872    4.2985469    4.2985469    4.2985469    -3208.872   -1169.8672    -2191.502   -6265.2469   -455.37234    1357.4218   -2173.1712    79.426426 
   95000    611.23209   -117.09475   0.55305564    -116.5417   -2073.5904    4.2917837    4.2917837    4.2917837   -2073.5904   -7774.3681    7330.7623   -5777.1654    3595.2682   -13608.421   -1278.4187    79.052113 
   95100    436.75763   -116.93938   0.39518748   -116.54419   -3890.7927     4.294845     4.294845     4.294845   -3890.7927    955.40136   -784.02674   -11843.753      1602.06   -1770.8159   -3861.7108    79.221397 
   95200    547.79664    -117.0384   0.49565792   -116.54275    -1647.583    4.2960273    4.2960273    4.2960273    -1647.583    8421.4463   -8097.4817   -5266.7137    952.59957    11542.465   -9957.5512    79.286837 
   95300    565.59022   -117.05402   0.51175792   -116.54226      5906.34    4.2926911    4.2926911    4.2926911      5906.34    2588.6954     12359.15    2771.1747    2184.9534   -8621.9551    802.24895    79.102265 
   95400    547.89499   -117.03878    0.4957469   -116.54303    1338.7791    4.2927882    4.2927882    4.2927882    1338.7791    1632.5665    1076.2421    1307.5287   -1170.1815   -12212.689     1686.989     79.10763 
   95500    472.30763   -116.97065   0.42735387   -116.54329   -4259.1338    4.2990164    4.2990164    4.2990164   -4259.1338    -7399.948     -11549.9    6172.4461   -896.83399    5993.2301   -6335.1704    79.452451 
   95600    539.01282   -117.03035   0.48771013   -116.54264     6510.536    4.2893262    4.2893262    4.2893262     6510.536    11598.376    1095.5395    6837.6924   -96.447534    8040.3442   -1442.4281     78.91639 
   95700    537.36793   -117.02856    0.4862218   -116.54234    4981.7409    4.2943867    4.2943867    4.2943867    4981.7409    7554.6826    89.164829    7301.3752    1517.4633   -7909.7328    856.68489    79.196039 
   95800    496.09649   -116.99105   0.44887853   -116.54217   -5449.2887     4.299317     4.299317     4.299317   -5449.2887   -5793.1381   -12944.872    2390.1437    2538.3042    -5767.723   -973.69111    79.469119 
   95900    411.12871   -116.91461   0.37199789   -116.54262    3154.6474    4.2881816    4.2881816    4.2881816    3154.6474    16245.899   -3104.3677   -3677.5893   -723.01477    10968.399   -9333.4755    78.853236 
   96000    426.77505   -116.92903   0.38615503   -116.54287   -1970.1767    4.2970318    4.2970318    4.2970318   -1970.1767    3391.1968   -1498.9977   -7802.7293     1963.771    1586.4201   -4288.0655    79.342466 
   96100    530.78737   -117.02129   0.48026757   -116.54102   -5134.6129     4.296827     4.296827     4.296827   -5134.6129   -11135.396   -1396.1197   -2872.3226    1385.6937   -14257.565    6157.5211    79.331121 
   96200    456.47581    -116.9544    0.4130289   -116.54138   -2907.8256    4.2902291    4.2902291    4.2902291   -2907.8256   -4312.9252    -3436.425    -974.1267   -2037.1287    1399.7391   -3879.5805    78.966237 
   96300    371.06908   -116.87979    0.3357511   -116.54404   -4548.0928    4.2959911    4.2959911    4.2959911   -4548.0928    8095.5826   -16053.287   -5686.5744    -1555.319    12459.732   -5546.4032    79.284835 
   96400    417.04213   -116.92067   0.37734848   -116.54332   -2180.6947    4.2982331    4.2982331    4.2982331   -2180.6947   -2358.3469   -10207.259    6023.5219     366.1665   -1492.3971    636.54596    79.409031 
   96500    561.25136   -117.04814   0.50783203   -116.54031    2932.5016    4.2893334    4.2893334    4.2893334    2932.5016    7355.6168   -6343.6919    7785.5799     2794.915   -9817.9215     942.8682     78.91679 
   96600    411.73224   -116.91563   0.37254398   -116.54308   -1892.8526    4.2971832    4.2971832    4.2971832   -1892.8526    2569.4994   -16771.431    8523.3736    729.77496    6192.9091   -6229.9827    79.350856 
   96700    328.92352   -116.84171   0.29761691    -116.5441   -4718.4917    4.2979779    4.2979779    4.2979779   -4718.4917   -1855.0436   -11774.833   -525.59813    114.43952    9602.3515   -6137.7643    79.394887 
   96800     467.8029   -116.96541   0.42327789   -116.54213    7597.4449    4.2870465    4.2870465    4.2870465    7597.4449    6301.9495    8834.7335    7655.6516    935.74832   -6913.5241    6728.5285    78.790631 
   96900    575.13463   -117.06188    0.5203939   -116.54148   -4737.0946    4.3008304    4.3008304    4.3008304   -4737.0946   -15823.549   -8802.5522    10414.817   -1206.4764   -2869.7963    866.84157    79.553071 
   97000    350.00258   -116.86097   0.31668969   -116.54428   -1027.0303    4.2944472    4.2944472    4.2944472   -1027.0303    4366.3518   -4166.1712   -3281.2714   -2076.4076    8417.5678   -3707.1767    79.199383 
   97100    305.51862   -116.82104   0.27643967    -116.5446   -200.09658    4.2909034    4.2909034    4.2909034   -200.09658    10469.708   -7368.9228   -3701.0754   -2405.9837    8288.2642    474.01359    79.003477 
   97200    583.55938   -117.06924   0.52801679   -116.54122   -7954.4772    4.3009497    4.3009497    4.3009497   -7954.4772   -5046.4465   -18936.636    119.65052    1486.3192   -2074.3911    3108.6971    79.559694 
   97300    558.92976   -117.04684   0.50573139   -116.54111    1555.9816     4.292693     4.292693     4.292693    1555.9816    5946.6812   -5782.2364    4503.4999    395.42195    320.85318   -2010.1504     79.10237 
   97400    327.36068   -116.84135   0.29620282   -116.54515   -4712.2378    4.2932817    4.2932817    4.2932817   -4712.2378    1026.0561   -5527.4644   -9635.3052    961.79678    10770.055   -7854.4107    79.134918 
   97500    360.19843    -116.8711    0.3259151   -116.54519     -3384.56    4.2990142    4.2990142    4.2990142     -3384.56   -10895.277   -4309.5858    5051.1825      3093.81   -1989.6614    1066.7855    79.452332 
   97600      690.976   -117.16496    0.6252096   -116.53975     2037.322    4.2949516    4.2949516    4.2949516     2037.322    -9320.003    4770.3442    10661.625    1120.3095   -761.21099    3807.4982    79.227293 
   97700    488.68885   -116.98541   0.44217594   -116.54324    9396.6034    4.2905545    4.2905545    4.2905545    9396.6034     5465.675    8626.7861    14097.349   -3541.5319      5089.45   -1163.0743    78.984211 
   97800    282.58628     -116.803   0.25569001   -116.54731   -5400.9465    4.3002723    4.3002723    4.3002723   -5400.9465   -3427.2094   -14093.524    1317.8936   -5819.3793    8542.5412   -3482.3446    79.522105 
   97900    509.03695   -117.00482   0.46058733   -116.54423    1052.1778    4.2944398    4.2944398    4.2944398    1052.1778    16461.989   -11542.554   -1762.9018   -1574.2585     1452.402    2681.6944    79.198973 
   98000    746.59199     -117.216   0.67553212   -116.54047    7598.8407    4.2908958    4.2908958    4.2908958    7598.8407    11167.694   -1740.5358    13369.363     2802.093   -1979.3867    1929.2203    79.003059 
   98100    489.31202    -116.9871    0.4427398   -116.54436   -10337.843    4.3023587    4.3023587    4.3023587   -10337.843    663.32385   -17565.558   -14111.294    1289.9388    6087.0797    -4757.085    79.637908 
   98200    384.15369   -116.89246   0.34759033   -116.54487   -2966.3827    4.2907578    4.2907578    4.2907578   -2966.3827    6544.4068   -4700.3206   -10743.234   -358.87855    3499.5388   -1833.7626    78.995437 
   98300    725.94648   -117.19931   0.65685163   -116.54246   -1535.7116    4.2954137    4.2954137    4.2954137   -1535.7116   -1491.9025   -3225.3469    110.11451   -533.87512   -502.93209    1393.2244    79.252871 
   98400    673.72252   -117.15131    0.6095983   -116.54171    3444.3901    4.2991699    4.2991699    4.2991699    3444.3901     8776.469    780.01941    776.68184   -615.79748    126.54466    1458.5143     79.46096 
   98500    388.62452   -116.89695   0.35163564   -116.54532    3770.0339    4.2909795    4.2909795    4.2909795    3770.0339    17330.024    1153.7198   -7173.6425   -2849.5065    9424.2907   -1417.6055    79.007681 
   98600    440.70797   -116.94427   0.39876183   -116.54551    904.38774    4.2968205    4.2968205    4.2968205    904.38774    18760.695   -11325.275   -4722.2574   -2898.3036     4467.363   -2016.4007    79.330763 
   98700     780.7217   -117.24679    0.7064134   -116.54037    3554.8865     4.296843     4.296843     4.296843    3554.8865     10329.88    -1357.365    1692.1446   -4269.9335    -5441.642    979.85098    79.332008 
   98800    654.10021   -117.13501   0.59184362   -116.54316   -2343.9471     4.292514     4.292514     4.292514   -2343.9471    -1475.625    401.48011   -5957.6965   -227.93408   -2596.9625   -2471.6241    79.092477 
   98900      510.109   -117.00722   0.46155734   -116.54566   -6148.0061    4.2930081    4.2930081    4.2930081   -6148.0061   -1679.2533   -10355.972   -6408.7933     1731.224    6989.5601   -4991.2129    79.119788 
   99000    641.77732   -117.12553   0.58069361   -116.54483   -3135.8213     4.300638     4.300638     4.300638   -3135.8213      15277.5   -14310.487   -10374.477    1674.1853    2780.6679    -1379.248    79.542394 
   99100    776.67171   -117.24487   0.70274889   -116.54212    8629.8341    4.2887811    4.2887811    4.2887811    8629.8341     14550.09    5495.3461    5844.0657   -931.03007   -9045.2248     251.4849    78.886312 
   99200    493.46483    -116.9926   0.44649734    -116.5461    2740.2402    4.2962831    4.2962831    4.2962831    2740.2402    24121.949   -6077.8219   -9823.4064   -5898.2173    2214.8163   -3843.5738       79.301 
   99300    560.08409   -117.05135   0.50677585   -116.54457   -4620.6127    4.2988126    4.2988126    4.2988126   -4620.6127    6845.8134   -9368.1549   -11339.497   -1154.0597    9978.6947   -2908.9966    79.441151 
   99400    768.79843   -117.23598   0.69562498   -116.54035    12242.641    4.2875068    4.2875068    4.2875068    12242.641    17480.646    13267.537    5979.7391   -64.996849   -793.02207    2251.3323    78.816014 
   99500    712.47348   -117.18595   0.64466097   -116.54129   -6150.2664    4.3024427    4.3024427    4.3024427   -6150.2664    193.03787   -4641.2487   -14002.588    1034.4592   -11507.789     1725.999    79.642575 
   99600    487.92713   -116.98519   0.44148672    -116.5437    5630.2414    4.2914094    4.2914094    4.2914094    5630.2414    20629.647    2022.4551   -5761.3781    434.22597    2083.7304   -4807.4528    79.031429 
   99700    614.48869   -117.09884   0.55600228   -116.54284    1989.9788    4.2948484    4.2948484    4.2948484    1989.9788    16479.117   -1500.9741   -9008.2065    691.49606    12749.949   -4811.6334    79.221586 
   99800    748.79587   -117.21775   0.67752623   -116.54023    1288.0843    4.2959768    4.2959768    4.2959768    1288.0843    8749.1625   -2792.5768   -2092.3327    5526.3916   -5923.5698   -160.33943     79.28404 
   99900    588.69948   -117.07568   0.53266766   -116.54301   -5041.0488    4.2946594    4.2946594    4.2946594   -5041.0488   -5066.4694    -2037.119   -8019.5579   -236.99129   -6591.3926   -1718.3202    79.211127 
  100000    536.49105   -117.03003   0.48542838    -116.5446   -3976.0541    4.2932653    4.2932653    4.2932653   -3976.0541    3915.8311   -6895.0991   -8948.8945   -3937.7542    5947.5064   -3798.2297    79.134011 
Loop time of 22.307 on 1 procs for 100000 steps with 8 atoms

Pair  time (%) = 7.20874 (32.3161)
Kspce time (%) = 5.32082 (23.8527)
Neigh time (%) = 0 (0)
Comm  time (%) = 1.07607 (4.82392)
Outpt time (%) = 0.0272334 (0.122085)
Other time (%) = 8.6741 (38.8852)

Nlocal:    8 ave 8 max 8 min
Histogram: 1 0 0 0 0 0 0 0 0 0
Nghost:    2189 ave 2189 max 2189 min
Histogram: 1 0 0 0 0 0 0 0 0 0
Neighs:    2344 ave 2344 max 2344 min
Histogram: 1 0 0 0 0 0 0 0 0 0

Total # of neighbors = 2344
Ave neighs/atom = 293
Neighbor list builds = 0
Dangerous builds = 0
unfix 20
unfix 21
print "seeds:7071916"
seeds:7071916
