LAMMPS (10 Feb 2015)
# ---- initialize simulations
clear
units metal
dimension 3
boundary p p p
atom_style charge
atom_modify map array
# ---- create atoms
read_data /Users/eugeneragasa/pyflamestk_git/pypospack/tests/tests_integration/workflow/WorkflowLammpsThermalExpansion/param_2632/MgO_NaCl_unit.npt.T1700/lammps.structure
  triclinic box = (0 0 0) to (4.2565 4.2565 4.2565) with tilt (0 0 0)
  1 by 1 by 1 MPI processor grid
  reading atoms ...
  8 atoms
# ---- define interatomic potential
include potential.mod
mass 1 24.305
mass 2 15.999

group Mg type 1
4 atoms in group Mg
group O type 2
4 atoms in group O

set group Mg charge 1.63285961235
  4 settings made for charge
set group O charge -1.63285961235
  4 settings made for charge

variable R_cut equal 10.0

pair_style buck/coul/long ${R_cut}
pair_style buck/coul/long 10
pair_coeff 1 1 0.0 0.5 0.0 ${R_cut}
pair_coeff 1 1 0.0 0.5 0.0 10
pair_coeff 1 2 1437.07173936 0.281984725072 0.0 ${R_cut}
pair_coeff 1 2 1437.07173936 0.281984725072 0.0 10
pair_coeff 2 2 17907.6681412 0.158842179647 12.0518239093 ${R_cut}
pair_coeff 2 2 17907.6681412 0.158842179647 12.0518239093 10

kspace_style pppm 1.0e-5

neighbor 1.0 bin
neigh_modify every 1 delay 0 check yes
# ---- define settings
compute eng all pe/atom
compute eatoms all reduce sum c_eng
# ---- run minimization
reset_timestep 0
fix 1 all box/relax iso 0.0 vmax 0.001
thermo 10
thermo_style custom step pe lx ly lz xy xz yz press pxx pyy pzz pxy pxz pyz c_eatoms
min_style cg
minimize 1e-25 1e-25 5000 10000
PPPM initialization ...
  G vector (1/distance) = 0.352629
  grid = 8 8 8
  stencil order = 5
  estimated absolute RMS force accuracy = 3.86465e-05
  estimated relative force accuracy = 2.68385e-06
  using double precision FFTs
  3d grid and FFT values/proc = 3375 512
Neighbor list info ...
  1 neighbor list requests
  update every 1 steps, delay 0 steps, check yes
  master list distance cutoff = 11
Memory usage per processor = 4.06549 Mbytes
Step PotEng Lx Ly Lz Xy Xz Yz Press Pxx Pyy Pzz Pxy Pxz Pyz eatoms 
       0   -108.26668       4.2565       4.2565       4.2565            0            0            0     68174.25     68174.25     68174.25     68174.25 -1.8708973e-11 1.9918278e-11 -1.4539535e-10   -108.26668 
      10   -108.32672     4.299065     4.299065     4.299065            0            0            0    15974.818    15974.818    15974.818    15974.818 2.7247293e-10 7.4247233e-11 1.7340321e-10   -108.32672 
      14   -108.33064    4.3118345    4.3118345    4.3118345            0            0            0    1605.1095    1605.1095    1605.1095    1605.1095 -5.9694499e-11 -6.7982128e-11 4.9253128e-12   -108.33064 
Loop time of 0.0150301 on 1 procs for 14 steps with 8 atoms

Minimization stats:
  Stopping criterion = linesearch alpha is zero
  Energy initial, next-to-last, final = 
        -108.266678614      -108.33063925      -108.33063925
  Force two-norm initial, final = 9.8444 0.23785
  Force max component initial, final = 9.8444 0.237844
  Final line search alpha, max atom move = 1.28309e-07 3.05176e-08
  Iterations, force evaluations = 14 44

Pair  time (%) = 0.00400352 (26.6366)
Kspce time (%) = 0.00236773 (15.7532)
Neigh time (%) = 0 (0)
Comm  time (%) = 0.000448465 (2.98377)
Outpt time (%) = 1.19209e-05 (0.0793135)
Other time (%) = 0.0081985 (54.547)

Nlocal:    8 ave 8 max 8 min
Histogram: 1 0 0 0 0 0 0 0 0 0
Nghost:    2189 ave 2189 max 2189 min
Histogram: 1 0 0 0 0 0 0 0 0 0
Neighs:    2344 ave 2344 max 2344 min
Histogram: 1 0 0 0 0 0 0 0 0 0

Total # of neighbors = 2344
Ave neighs/atom = 293
Neighbor list builds = 0
Dangerous builds = 0
unfix 1
# ---- define output variables ----
variable natoms equal "count(all)"
variable tot_energy equal "c_eatoms"
variable length_x equal "lx"
variable length_y equal "ly"
variable length_z equal "lz"
variable tilt_xy equal "xy"
variable tilt_xz equal "xz"
variable tilt_yz equal "yz"
variable tot_press equal "press"
variable press_xx equal "pxx"
variable press_yy equal "pyy"
variable press_zz equal "pzz"
variable press_xy equal "pxy"
variable press_xz equal "pxz"
variable press_yz equal "pyz"

# ---- output ----
print "pypospack:output_section:begin"
pypospack:output_section:begin
print "tot_energy = ${tot_energy}"
tot_energy = -108.330639250266
print "num_atoms = ${natoms}"
num_atoms = 8
print "xx = ${length_x}"
xx = 4.3118345
print "yy = ${length_y}"
yy = 4.3118345
print "zz = ${length_z}"
zz = 4.3118345
print "xy = ${tilt_xy}"
xy = 0
print "xz = ${tilt_xz}"
xz = 0
print "yz = ${tilt_yz}"
yz = 0
print "tot_press = ${tot_press}"
tot_press = 1605.10951764203
print "pxx = ${press_xx}"
pxx = 1605.10951764176
print "pyy = ${press_yy}"
pyy = 1605.10951764198
print "pzz = ${press_zz}"
pzz = 1605.10951764233
print "pxy = ${press_xy}"
pxy = -5.96944985898881e-11
print "pxz = ${press_xz}"
pxz = -6.79821282837662e-11
print "pyz = ${press_yz}"
pyz = 4.92531279854496e-12
print "pypospack:output_section:done"
pypospack:output_section:done
print "pypospack:lammps_sim:done"
pypospack:lammps_sim:done
#------------------------------------------------------------------------------
# RUN THERMOSTAT
# running using an NPT Nose-Hoover style thermostat
#------------------------------------------------------------------------------
variable tempdamp equal 0.1
variable pressdamp equal 1.0
# set initial velocities
velocity all create 1700 5236254 mom yes dist gaussian loop all
# fix for Nose-Hoover style thermostat
fix 20 all npt temp 1700 1700 0.1 aniso 0.0 0.0 1.0 drag 1.0 couple xyz
variable boxx equal lx
variable boxy equal ly
variable boxz equal lz
variable boxp equal press
variable boxt equal temp
# calculate averages every 10000 steps
reset_timestep 0
fix 21 all ave/time 10 10 100 v_boxx v_boxy v_boxz v_boxp v_boxt file lattice.out
thermo_style custom step temp pe ke etotal press lx ly lz press pxx pyy pzz pxy pxz pyz vol
thermo_modify flush yes
thermo 100
run 100000
PPPM initialization ...
  G vector (1/distance) = 0.352078
  grid = 8 8 8
  stencil order = 5
  estimated absolute RMS force accuracy = 3.96373e-05
  estimated relative force accuracy = 2.75266e-06
  using double precision FFTs
  3d grid and FFT values/proc = 3375 512
Memory usage per processor = 3.06549 Mbytes
Step Temp PotEng KinEng TotEng Press Lx Ly Lz Press Pxx Pyy Pzz Pxy Pxz Pyz Volume 
       0         1700   -108.33065    1.5381957   -106.79245    22098.392    4.3118345    4.3118345    4.3118345    22098.392    35944.905    22515.411    7834.8586   -13289.176     5335.037   -979.67289    80.165268 
     100    1108.8171   -107.60501     1.003281   -106.60172    8982.2452    4.3452957    4.3452957    4.3452957    8982.2452    3459.2511    50902.186   -27414.702     2559.798   -15237.313    2397.8927    82.046114 
     200    1099.8162   -107.18926    0.9951368   -106.19412   -31007.911    4.4039691    4.4039691    4.4039691   -31007.911   -32716.064    6973.7683   -67281.438    7151.2358   -2492.0061   -4598.1884    85.414734 
     300    721.11139   -106.46603   0.65247674   -105.81355   -2358.4988    4.4110245    4.4110245    4.4110245   -2358.4988    69181.455   -5876.4785   -70380.473   -12262.472   -10402.939    4574.6753    85.825906 
     400     1041.542   -106.46461   0.94240907    -105.5222    37958.317    4.3761824    4.3761824    4.3761824    37958.317    67946.644    105424.49   -59496.182    18731.363   -21363.894    -1763.537    83.808149 
     500    1978.8334   -107.13146    1.7904901   -105.34097    33447.824    4.3595388    4.3595388    4.3595388    33447.824    49030.937    68664.742   -17352.205    14507.648    -1580.625    4159.9648    82.855556 
     600    1680.7518   -106.82081    1.5207796   -105.30003   -11538.723    4.3954643    4.3954643    4.3954643   -11538.723    28715.002   -8517.9101   -54813.259    25243.394   -10171.363   -755.04535    84.920837 
     700    2005.3674   -107.04521    1.8144986   -105.23071   -32060.866    4.4267639    4.4267639    4.4267639   -32060.866    12476.706   -45872.575    -62786.73    1912.7077    20118.527   -1238.4331     86.74792 
     800    1444.6534   -106.49785    1.3071528   -105.19069    11588.725    4.4131829    4.4131829    4.4131829    11588.725    105559.49    10460.757   -81254.073    19055.221   -17999.869   -2466.9866    85.951957 
     900    1683.2146   -106.71715     1.523008   -105.19414    394.78539    4.3840232    4.3840232    4.3840232    394.78539     115712.6   -57274.599    -57253.64    1966.2537   -11104.867   -17427.222    84.259431 
    1000    1534.4813   -106.62467    1.3884309   -105.23623    11355.643    4.3767008    4.3767008    4.3767008    11355.643    84375.576   -24535.903   -25772.744   -13896.272   -20954.816     6615.253    83.837938 
    1100    1854.7973    -106.9386    1.6782596   -105.26034   -26900.521     4.403638     4.403638     4.403638   -26900.521    -14437.64    752.20793    -67016.13    4952.6452   -11390.667   -9730.2362    85.395467 
    1200     2125.201   -107.13732    1.9229265   -105.21439   -24782.845     4.419305     4.419305     4.419305   -24782.845    6683.9805   -36639.472   -44393.043   -20483.141   -8057.3378    917.48329    86.310162 
    1300     1093.407   -106.17664   0.98933765    -105.1873     17383.98    4.4030994    4.4030994    4.4030994     17383.98    34290.602    67483.983   -49622.644    8954.0102   -3223.0561   -13278.187    85.364139 
    1400    1868.1703   -106.88367    1.6903598   -105.19332   -6940.7841    4.3886616    4.3886616    4.3886616   -6940.7841   -8871.9494    26811.607    -38762.01   -5399.4242    3123.1763    -8820.446     84.52716 
    1500    2164.9237   -107.17583    1.9588685   -105.21696   -23091.255    4.3910726    4.3910726    4.3910726   -23091.255    13862.484   -15854.072   -67282.177    16291.711   -25926.965   -15679.683    84.666548 
    1600    1945.9366   -106.98605    1.7607243   -105.22532   -4547.3932    4.3981912    4.3981912    4.3981912   -4547.3932    50207.021   -16273.278   -47575.922    17663.347   -299.81134   -18057.225    85.078989 
    1700    1430.9347   -106.50352    1.2947398   -105.20878   -518.30418    4.3940769    4.3940769    4.3940769   -518.30418   -30697.023    76028.547   -46886.437   -9586.7449   -6613.9563    1923.3774    84.840449 
    1800    1703.2152    -106.7464    1.5411049   -105.20529   -12624.809    4.3954858    4.3954858    4.3954858   -12624.809    27236.628   -11305.499   -53805.557    13565.756   -20275.971   -17215.412    84.922082 
    1900    1831.6906   -106.85475    1.6573521    -105.1974    34422.847    4.4002324    4.4002324    4.4002324    34422.847    66348.853    59463.746   -22544.057    4871.7783    8056.3595    12723.022    85.197501 
    2000    1591.9046   -106.63098    1.4403887   -105.19059   -15717.393    4.4134495    4.4134495    4.4134495   -15717.393    20142.267   -47970.428    -19324.02   -205.44465     -3611.08     -19745.5    85.967537 
    2100    1204.6326   -106.25803    1.0899769   -105.16806    22207.123    4.4109694    4.4109694    4.4109694    22207.123    66419.868    7064.0506   -6862.5494    30458.962   -4501.8034   -996.59191    85.822692 
    2200    2261.3403   -107.20967    2.0461082   -105.16356   -23060.918    4.3871315    4.3871315    4.3871315   -23060.918   -10274.585   -10231.138   -48677.032   -16.647144   -608.77547   -22126.639    84.438783 
    2300    1721.6641   -106.73307    1.5577978   -105.17527    27670.711    4.3718864    4.3718864    4.3718864    27670.711    67776.676    35330.504   -20095.046   -130.68192    -14282.32   -18391.319    83.561572 
    2400    1871.8269   -106.90873    1.6936683   -105.21506   -6280.6913    4.3997586    4.3997586    4.3997586   -6280.6913    28054.475   -7901.8314   -38994.718    16281.234    17251.887   -6798.7078    85.169978 
    2500    1130.9752    -106.2243    1.0233301   -105.20097   -4642.8729    4.4232862    4.4232862    4.4232862   -4642.8729   -5682.8956    58447.051   -66692.774    8321.5235    367.95346     1039.023    86.543634 
    2600    2004.0929   -106.98591    1.8133453   -105.17257    6594.5159    4.4118506    4.4118506    4.4118506    6594.5159    38623.733    8654.3167   -27494.502   -10146.438    2899.1965    4025.5765    85.874138 
    2700    1875.9082   -106.86571    1.6973611   -105.16835    10820.281     4.393244     4.393244     4.393244    10820.281    5039.8185    44876.079   -17455.055    3591.4029   -13357.475   -19160.276    84.792215 
    2800    1266.9815   -106.32819    1.1463915    -105.1818    37010.877    4.3897188    4.3897188    4.3897188    37010.877    30866.084    117578.12   -37411.576   -306.03282   -2705.9055    319.41954    84.588265 
    2900    2175.0865    -107.1711     1.968064   -105.20303   -7626.2432    4.3969142    4.3969142    4.3969142   -7626.2432    12293.715    2888.8122   -38061.257   -4696.2528    -5354.732     2958.355    85.004901 
    3000    1621.5449   -106.70109    1.4672079   -105.23388    14373.018    4.4139602    4.4139602    4.4139602    14373.018    35968.743    42812.122    -35661.81    5640.2276   -1943.9924   -8401.6743    85.997385 
    3100    2197.0037   -107.17484    1.9878951   -105.18694    -18069.58     4.417755     4.417755     4.417755    -18069.58   -40951.147      26087.6   -39345.193   -10505.238    1481.0183    10753.246    86.219378 
    3200    1341.7933   -106.41535    1.2140828   -105.20127   -12305.223    4.3993784    4.3993784    4.3993784   -12305.223   -12023.476    23990.532   -48882.725    -12540.68   -14263.595   -6442.4261    85.147903 
    3300    1893.5524   -106.92197     1.713326   -105.20864    36027.281     4.392136     4.392136     4.392136    36027.281    143627.13    9254.2725   -44799.554    8114.6407    12856.848   -2744.7371    84.728073 
    3400    1965.3393   -107.02066    1.7782803   -105.24238   -21306.826    4.4252261    4.4252261    4.4252261   -21306.826   -886.46515   -3235.0493   -59798.963   -12994.252   -2675.9441   -9967.0052    86.657548 
    3500    1113.8083   -106.20903    1.0077972   -105.20123    23224.225      4.44252      4.44252      4.44252    23224.225    77661.579    28723.868   -36712.774   -738.02638   -4197.7246   -3155.7325    87.677505 
    3600    2040.7061   -106.99549    1.8464738   -105.14901   -22609.142    4.4268466    4.4268466    4.4268466   -22609.142    -42444.49   -13531.115   -11851.822    8514.6029    986.09077    2382.5805    86.752782 
    3700    1879.8889    -106.8327     1.700963   -105.13173    5387.3324    4.4028462    4.4028462    4.4028462    5387.3324    16873.306    37058.751   -37770.061   -6570.1205    1137.1815   -11490.996    85.349412 
    3800    1451.9818    -106.4807    1.3137836   -105.16692    39905.493    4.4043757    4.4043757    4.4043757    39905.493    141757.82    28293.543    -50334.88    22695.604    16423.873   -485.89401    85.438392 
    3900    1379.9995   -106.46216    1.2486525   -105.21351    4526.5602    4.4139708    4.4139708    4.4139708    4526.5602    54771.663   -18264.144   -22927.839    106.70884   -11110.108    1121.6422    85.998001 
    4000    2107.9632    -107.1283    1.9073294   -105.22097   -17732.919      4.41798      4.41798      4.41798   -17732.919   -26141.715    20741.628   -47798.669    11531.587   -674.77364    12236.751    86.232549 
    4100    1951.4952   -106.99446    1.7657539   -105.22871   -8123.3444    4.4089875    4.4089875    4.4089875   -8123.3444    40438.096   -5115.4266   -59692.703     1198.652   -5617.7271    4071.4756    85.707063 
    4200    2017.3305   -107.06799     1.825323   -105.24267   -15605.268    4.4029426    4.4029426    4.4029426   -15605.268    24463.202   -32723.336   -38555.671    2095.9422    2659.6933   -4701.1305    85.355022 
    4300    1569.0599   -106.67773    1.4197184   -105.25801    198.96153    4.4044633    4.4044633    4.4044633    198.96153    2097.8824    30280.688   -31781.686   -1417.2383    -10798.27   -947.76988     85.44349 
    4400    1446.8434   -106.57416    1.3091343   -105.26502    1088.0559    4.4068655    4.4068655    4.4068655    1088.0559    992.79665    48069.567   -45798.196    13262.848   -18913.726   -688.55227    85.583371 
    4500    1903.7028   -106.99317    1.7225103   -105.27066   -2692.9344    4.4090837    4.4090837    4.4090837   -2692.9344    52106.668   -6772.7938   -53412.677   -524.08927   -1468.8082   -9398.9334    85.712674 
    4600    2130.0365   -107.19612    1.9273018   -105.26881   -34744.032    4.4144428    4.4144428    4.4144428   -34744.032   -20669.335   -8810.9065   -74751.856   -9637.4228    8918.9594   -1976.4043    86.025592 
    4700    2048.8754   -107.09037    1.8538655   -105.23651   -35273.286    4.4173225    4.4173225    4.4173225   -35273.286   -44477.762   -4230.9857   -57111.112    4971.9891   -3163.4995    7750.9416    86.194059 
    4800    1634.9401   -106.68634    1.4793281   -105.20701    1696.6923    4.4179437    4.4179437    4.4179437    1696.6923    31552.248   -4925.8568   -21536.314    1105.0469   -20942.669    3494.6419    86.230427 
    4900    1961.7712   -106.95706    1.7750519   -105.18201   -7121.1269    4.4087495    4.4087495    4.4087495   -7121.1269    32934.737   -26074.525   -28223.593    4996.4132    7164.0873    12075.418    85.693183 
    5000    1567.1585    -106.6056     1.417998    -105.1876    3573.7969     4.412155     4.412155     4.412155    3573.7969    8403.9289     40210.97   -37893.508   -21548.789   -14058.743   -15643.279    85.891913 
    5100    1847.8359   -106.88566    1.6719607    -105.2137    3784.4664     4.420469     4.420469     4.420469    3784.4664    3812.2317    32040.137   -24498.969    542.27083     6585.824    18744.141    86.378379 
    5200    1649.6975   -106.69526    1.4926809   -105.20258    2633.7973    4.4292284    4.4292284    4.4292284    2633.7973    2756.2701    7378.4204   -2233.2987   -20472.007    2027.8892   -23539.142    86.892886 
    5300    1561.4414   -106.57971     1.412825   -105.16688    6645.6906    4.4206259    4.4206259    4.4206259    6645.6906   -22047.571    65812.552   -23827.909    -20574.94   -7552.2266   -22765.415    86.387575 
    5400    1494.9776   -106.53554    1.3526872   -105.18285    27737.905    4.4079884    4.4079884    4.4079884    27737.905    43818.045    15973.703    23421.967   -439.54571   -121.75161   -9088.4811    85.648811 
    5500    2339.8811   -107.31534    2.1171736   -105.19817   -16778.317    4.4012715    4.4012715    4.4012715   -16778.317   -30195.513   -5248.5695   -14890.869   -4185.1733   -22303.148   -1405.8567    85.257871 
    5600    1385.0352   -106.49006    1.2532089   -105.23685    31259.213    4.4073349    4.4073349    4.4073349    31259.213     75388.96    24264.905   -5876.2261   -1633.0041     9105.242   -1494.4297    85.610724 
    5700    1441.7978   -106.55528     1.304569   -105.25071    8342.6702    4.4272641    4.4272641    4.4272641    8342.6702    1631.7816      65079.1   -41682.872    619.08214   -24847.435    10555.347    86.777333 
    5800    1856.6814   -106.88993    1.6799644   -105.20996   -32264.133     4.424306     4.424306     4.424306   -32264.133    7141.6988   -40074.195   -63859.903   -12834.029    4278.9234   -5347.9905    86.603507 
    5900    1359.2326   -106.40375    1.2298622   -105.17388    5693.9996    4.4033769    4.4033769    4.4033769    5693.9996    1364.4251    33106.479   -17388.905   -6147.9899   -427.23879     -10714.6     85.38028 
    6000     2367.628   -107.30852    2.1422796   -105.16624   -8865.5124    4.3904728    4.3904728    4.3904728   -8865.5124   -25471.393   -5955.8846    4830.7404    5680.2196    -3170.774   -17728.467    84.631858 
    6100    932.90496   -106.03351   0.84411201    -105.1894    44331.139    4.3971357    4.3971357    4.3971357    44331.139    48166.699    26749.893    58076.823   -16988.729   -24171.737    8532.9786    85.017748 
    6200    1863.6367   -106.88098    1.6862576   -105.19472   -22724.755    4.4192855    4.4192855    4.4192855   -22724.755   -27715.852   -67894.526    27436.113    17308.905   -8332.0227   -8996.5893     86.30902 
    6300    1464.7816   -106.50244    1.3253652   -105.17707   -6413.3605    4.4115548    4.4115548    4.4115548   -6413.3605   -36539.801    19969.608   -2669.8881   -5884.9789    9225.0518   -10619.521    85.856867 
    6400    1920.3777   -106.91755    1.7375981   -105.17995     14676.56    4.3810957    4.3810957    4.3810957     14676.56    3027.9221   -19924.217    60925.975    5755.4605    10619.898    12251.841     84.09075 
    6500    1301.0231   -106.41436     1.177193   -105.23717    53501.211    4.3932085    4.3932085    4.3932085    53501.211    3658.0329    26482.831    130362.77    14117.844   -302.50142   -21817.401    84.790158 
    6600    1504.1702   -106.56961    1.3610048    -105.2086   -25116.025    4.4285388    4.4285388    4.4285388   -25116.025   -9244.4895   -55978.046   -10125.539   -13138.975   -1236.0783   -6389.8984    86.852308 
    6700    1766.3369    -106.7594    1.5982187   -105.16118   -17975.943    4.4104209    4.4104209    4.4104209   -17975.943    -60224.01   -94917.841    101214.02    22399.881    12361.867   -3374.8188    85.790678 
    6800    1979.1542   -106.94143    1.7907804   -105.15065    21246.134     4.386343     4.386343     4.386343    21246.134    24352.754    -11095.82    50481.467   -4661.0517    21306.994    7371.4388    84.393262 
    6900    1478.3486   -106.52954    1.3376409    -105.1919   -1038.6832    4.3873605    4.3873605    4.3873605   -1038.6832    6263.1053   -35122.401    25743.247    14333.616    4938.8007    1545.6272    84.452007 
    7000    2087.0535   -107.09802    1.8884099   -105.20961   -21542.342    4.4136514    4.4136514    4.4136514   -21542.342    9423.9507   -68499.392   -5551.5842    1164.8183    -11871.76   -8915.8234    85.979334 
    7100    1938.9839   -106.94671    1.7544333   -105.19228   -26636.409    4.4242876    4.4242876    4.4242876   -26636.409   -52873.489   -64387.312    37351.572    6234.2123   -6752.7364    4733.7571    86.602423 
    7200    1434.9374   -106.46461    1.2983615   -105.16625    15621.409     4.396892     4.396892     4.396892    15621.409    46074.496    5514.5664   -4724.8356    2125.7467    4729.5368    -3184.561    85.003615 
    7300    1621.1939   -106.62189    1.4668903     -105.155    36015.771    4.3740353    4.3740353    4.3740353    36015.771    14812.816    6492.7338    86741.763    2240.0606    19723.735   -13959.947    83.684853 
    7400    2028.0074   -107.04737    1.8349837   -105.21238   -16217.012    4.3965181    4.3965181    4.3965181   -16217.012   -38963.169   -21038.398    11350.529    1410.5247   -8410.6566   -3186.6358    84.981931 
    7500    2030.8138   -107.02557     1.837523   -105.18804   -7224.5886    4.4079241    4.4079241    4.4079241   -7224.5886   -33823.419   -12137.017     24286.67   -10901.207    1408.8901    9487.2668     85.64506 
    7600    1408.1305    -106.4412    1.2741061    -105.1671   -27924.637    4.3948235    4.3948235    4.3948235   -27924.637     8028.147   -29749.898    -62052.16    23282.193    8645.5042   -6119.2572    84.883703 
    7700    1872.5562   -106.87206    1.6943282   -105.17773    7526.0834    4.3972286    4.3972286    4.3972286    7526.0834   -677.07722    17927.931    5327.3962   -12460.866   -26716.472    22807.216    85.023137 
    7800    1597.3102   -106.64528    1.4452799   -105.20001   -6863.1604    4.4064116    4.4064116    4.4064116   -6863.1604   -45558.393   -1463.8151    26432.726    7415.5996   -15322.967     15545.24    85.556929 
    7900    1380.8877   -106.42912    1.2494562   -105.17967    17491.378    4.4042607    4.4042607    4.4042607    17491.378   -9471.6552    48983.242    12962.548    1345.4294    954.98091    -14368.89    85.431701 
    8000    1369.9102   -106.40777    1.2395235   -105.16824     23984.85    4.3978394    4.3978394    4.3978394     23984.85   -15799.692   -34087.385    121841.63    9187.5307   -5212.3771    14002.764    85.058575 
    8100    2164.3656   -107.14362    1.9583635   -105.18525   -18449.919    4.4058177    4.4058177    4.4058177   -18449.919   -34561.082   -39352.168    18563.492   -7375.8432    3078.9888    17181.759    85.522341 
    8200     1136.276   -106.24141    1.0281264   -105.21329    15895.718    4.4017889    4.4017889    4.4017889    15895.718   -63671.456   -57158.335    168516.94    8181.7134    13052.645    13663.189    85.287939 
    8300    2362.1892   -107.33863    2.1373584   -105.20127   -10228.651    4.3854577    4.3854577    4.3854577   -10228.651   -16244.712    8268.4829   -22709.723   -3129.6282   -3529.0733    9296.5753    84.342169 
    8400    1109.3482   -106.23355    1.0037616   -105.22979   -10285.258    4.3972819    4.3972819    4.3972819   -10285.258   -32907.006   -35792.169    37843.401    9665.4963     9221.788     1138.472    85.026228 
    8500    1558.3408   -106.61107    1.4100195   -105.20105   -1014.2889     4.411285     4.411285     4.411285   -1014.2889   -73653.355   -58176.529    128787.02    5499.5178    12883.763    6080.9321    85.841118 
    8600    2203.8194   -107.18523    1.9940621   -105.19116    6088.8507    4.3937587    4.3937587    4.3937587    6088.8507   -51274.418   -14714.473    84255.443    9690.8037    937.42623    9303.1035    84.822017 
    8700    1574.4836   -106.61513    1.4246259    -105.1905    35524.687    4.3817881    4.3817881    4.3817881    35524.687    11843.327    54631.607    40099.126   -6188.6015   -7242.5876   -2704.3233    84.130626 
    8800    1388.3563   -106.46557    1.2562139   -105.20936   -6620.2341    4.4026707    4.4026707    4.4026707   -6620.2341   -42506.946   -2912.0206    25558.265   -636.17707   -9560.4595   -22262.614    85.339206 
    8900    1686.4379   -106.72918    1.5259245   -105.20326   -983.64147     4.412185     4.412185     4.412185   -983.64147   -60893.585   -3949.5943    61892.255    10166.595   -18392.606   -19840.695    85.893669 
    9000    2013.5985    -107.0073    1.8219463   -105.18535   -8045.9034    4.4109321    4.4109321    4.4109321   -8045.9034   -3415.9813   -3334.9621   -17386.767   -11117.283    6201.9748   -6773.3037    85.820516 
    9100    1579.9497   -106.59328    1.4295717   -105.16371    168.22944    4.4030157    4.4030157    4.4030157    168.22944   -19580.006   -46442.862    66527.557     17428.25    -1393.849   -8998.7439    85.359272 
    9200     1595.828   -106.62357    1.4439387   -105.17963    6046.6968    4.4075747    4.4075747    4.4075747    6046.6968    7664.7273   -1321.6605    11797.024     2479.885    13644.978   -5981.8002    85.624697 
    9300    1903.7436     -106.918    1.7225472   -105.19546   -29182.104    4.4117164    4.4117164    4.4117164   -29182.104   -51406.395    -45321.94    9182.0222    3170.3931    12862.145    -17125.08      85.8663 
    9400    1964.1478   -106.96314    1.7772022   -105.18594    -15646.31    4.4075285    4.4075285    4.4075285    -15646.31   -43841.269   -48514.193    45416.532   -908.28699   -6176.8826    2939.8916    85.622005 
    9500    1728.4423   -106.75239    1.5639309   -105.18846   -2055.0198     4.416357     4.416357     4.416357   -2055.0198    52008.092    -48068.44   -10104.711    6714.4581    1587.1445   -6356.0884    86.137548 
    9600    1415.5596   -106.46251    1.2808281   -105.18168   -13365.295    4.4299375    4.4299375    4.4299375   -13365.295   -19921.815   -28144.094     7970.025   -8001.4419    3874.8968    5954.5577    86.934625 
    9700    1904.8964   -106.87054    1.7235903   -105.14695   -5997.6652    4.4191371    4.4191371    4.4191371   -5997.6652   -23662.486     10437.41   -4767.9203   -6564.4814    1476.5288   -1393.1426    86.300324 
    9800    1524.1986   -106.52445    1.3791269   -105.14532    15227.462    4.4137051    4.4137051    4.4137051    15227.462    69871.692   -19762.858   -4426.4492    923.84462    11214.098   -21895.859    85.982477 
    9900    2224.1226   -107.16881    2.0124329   -105.15638   -43731.098    4.4150552    4.4150552    4.4150552   -43731.098   -47878.972   -18393.974   -64920.347   -748.56385    19209.328    12292.958    86.061401 
   10000    1564.9074   -106.58678    1.4159611   -105.17082     35393.33    4.4101733    4.4101733    4.4101733     35393.33    101218.83   -9855.7384    14816.901    1295.5631    1616.4413   -12486.533    85.776234 
   10100    1623.0388   -106.66451    1.4685596   -105.19595   -13101.258    4.4059106    4.4059106    4.4059106   -13101.258    34672.825    -42460.32   -31516.278   -11144.495    13210.342    7183.4089    85.527751 
   10200    2028.3209   -107.03693    1.8352674   -105.20166     5479.733    4.3974417    4.3974417    4.3974417     5479.733    10943.221   -39235.344    44731.323   -8808.5298   -3847.6893    7032.8736      85.0355 
   10300    2140.6305   -107.17617    1.9368875   -105.23929   -20137.356    4.4081215    4.4081215    4.4081215   -20137.356    8642.7897   -42358.477    -26696.38    22315.095    8491.4145    10318.718    85.656569 
   10400    857.41281    -106.0043   0.77580513   -105.22849    9946.8254    4.4253416    4.4253416    4.4253416    9946.8254    33121.406    -17756.23      14475.3    12059.485   -6156.0412    14622.435    86.664333 
   10500    1948.3284   -106.94978    1.7628884   -105.18689   -3958.9356    4.4109978    4.4109978    4.4109978   -3958.9356    5857.6992   -4257.9176   -13476.588    15522.009   -6114.7356   -4931.6742    85.824353 
   10600    1941.3037    -106.9302    1.7565323   -105.17366    3083.6754    4.3893284    4.3893284    4.3893284    3083.6754    13283.875    5485.0612   -9517.9099   -5044.5584    9043.8142    10699.197    84.565696 
   10700    1619.6141   -106.66407    1.4654608   -105.19861   -13252.121     4.394287     4.394287     4.394287   -13252.121    5573.1882   -22670.502   -22659.048    17469.492   -8689.1348   -20426.456    84.852618 
   10800    1519.9025    -106.5859    1.3752397   -105.21066    13504.572    4.3898256    4.3898256    4.3898256    13504.572    63122.975   -877.43611   -21731.823   -3828.0137    5832.2842    2381.4993    84.594436 
   10900    2373.0746   -107.37469    2.1472077   -105.22748   -16331.245    4.4004542    4.4004542    4.4004542   -16331.245    15258.858   -42674.665   -21577.929    11659.946    26458.489   -10160.258    85.210382 
   11000    1202.6499   -106.30608    1.0881829    -105.2179    10212.736     4.415931     4.415931     4.415931    10212.736    53366.996   -43853.822    21125.033   -14842.805    8345.9208   -6418.7026    86.112627 
   11100    1357.7415   -106.40641    1.2285131   -105.17789   -1478.7299    4.4023715    4.4023715    4.4023715   -1478.7299   -52026.696    15397.806    32192.699   -8540.9162    17416.588   -2462.1064    85.321809 
   11200     1778.813   -106.76882    1.6095074   -105.15931    10764.059    4.3921022    4.3921022    4.3921022    10764.059    13305.139   -25857.069    44844.106    1307.0376    9011.7738    6507.8601    84.726117 
   11300    2057.4121    -107.0362    1.8615897   -105.17461   -24775.912    4.3941003    4.3941003    4.3941003   -24775.912    4946.9407   -55156.595   -24118.082    10504.988    1778.4553    8548.9543    84.841807 
   11400      1396.94    -106.4502    1.2639806   -105.18622   -11806.243    4.4009244    4.4009244    4.4009244   -11806.243   -21921.427   -27407.695    13910.395   -10406.075    11798.851    1156.1703    85.237701 
   11500    1775.2914   -106.78904     1.606321   -105.18271   -3110.1132    4.3934987    4.3934987    4.3934987   -3110.1132    13462.689   -18683.655   -4109.3738    -8239.704   -3175.0241    23341.196    84.806963 
   11600    1310.4456   -106.37124    1.1857187   -105.18552    46999.937    4.3801198    4.3801198    4.3801198    46999.937    68607.225    34007.631    38384.956    26071.339    335.37973    206.09416     84.03457 
   11700    1494.7077   -106.56601     1.352443   -105.21357    25089.172    4.3918005    4.3918005    4.3918005    25089.172    55683.338    2956.1653    16628.013   -31526.728   -20532.737    9771.8343    84.708661 
   11800     1812.272   -106.85745    1.6397818   -105.21767   -48034.997    4.4122768    4.4122768    4.4122768   -48034.997   -77479.411   -35423.848   -31201.733    25485.476    27915.223    4181.1171    85.899027 
   11900     1533.295   -106.57855    1.3873575   -105.19119   -12304.854    4.4072152    4.4072152    4.4072152   -12304.854   -15008.775   -60163.489    38257.702    4959.0382   -52.902852    1813.6954    85.603744 
   12000    2321.9619   -107.27293    2.1009599   -105.17197   -21160.078    4.3875793    4.3875793    4.3875793   -21160.078   -16414.513   -6276.3801   -40789.341     -1096.68   -2783.9408    16232.325    84.464639 
   12100    1280.2653   -106.36653    1.1584109   -105.20811   -11337.704    4.3814259    4.3814259    4.3814259   -11337.704   -55714.271   -15291.569    36992.728    1436.9817    18228.201   -5873.5785    84.109763 
   12200     1951.344   -106.99772    1.7656171   -105.23211    6538.6709    4.3950708    4.3950708    4.3950708    6538.6709    68094.039   -39055.833   -9422.1931   -1953.1197   -11809.697   -7593.9092    84.898034 
   12300    1401.9408    -106.5155    1.2685055     -105.247    9097.4552    4.4159652    4.4159652    4.4159652    9097.4552    38184.739   -50625.847    39733.474    10711.832   -9447.1023    1524.3815    86.114626 
   12400    1857.6193   -106.89597    1.6808129   -105.21516   -39483.409    4.4157425    4.4157425    4.4157425   -39483.409    -27678.74   -71440.456   -19331.031    -542.6961    7033.8448    13086.311    86.101597 
   12500    1832.0266    -106.8418    1.6576562   -105.18414   -1223.5025    4.4022349    4.4022349    4.4022349   -1223.5025    25682.961    -10635.72   -18717.748   -8666.8623    6787.9354    16570.273    85.313866 
   12600    745.92184   -105.88773   0.67492576    -105.2128    37749.369    4.3943711    4.3943711    4.3943711    37749.369    50747.779    2508.6425    59991.684     12483.91    7840.3674   -2066.0218    84.857489 
   12700     1968.646   -107.02184    1.7812722   -105.24057    4852.4544    4.4039357    4.4039357    4.4039357    4852.4544    76373.092   -21903.545   -39912.184   -13953.944    9747.4632    10837.279    85.412793 
   12800    1490.5442   -106.59203    1.3486757   -105.24336   -9445.9084    4.4181548    4.4181548    4.4181548   -9445.9084   -39842.338   -5141.9701    16646.583   -6715.6766   -7275.7629   -3355.8688    86.242786 
   12900    1478.0801    -106.5652     1.337398    -105.2278   -11773.306    4.4207185    4.4207185    4.4207185   -11773.306   -59104.903    18279.912    5505.0736   -2365.1542   -1004.6989   -12959.025    86.393004 
   13000    1814.4157   -106.84504    1.6417215   -105.20332    8974.9621    4.3970588    4.3970588    4.3970588    8974.9621    79857.914   -17229.029   -35703.998   -26452.954   -6684.7976    7304.3777    85.013286 
   13100    1621.4613   -106.68007    1.4671323   -105.21294    4983.9671    4.3842197    4.3842197    4.3842197    4983.9671     50884.26    -14932.67   -20999.688    11729.986    32753.739      425.097    84.270761 
   13200    1854.1026   -106.89899     1.677631   -105.22136   -39254.875    4.3925977    4.3925977    4.3925977   -39254.875   -48785.087   -37352.676   -31626.862   -228.47181   -11973.647    9860.3735    84.754797 
   13300    1450.1141   -106.54754    1.3120937   -105.23545   -4812.6748     4.398069     4.398069     4.398069   -4812.6748   -34102.957    18703.785    961.14834    7304.2951   -23989.394   -7603.6456    85.071897 
   13400    1933.0662   -106.96969     1.749079   -105.22061     25117.63    4.3947368    4.3947368    4.3947368     25117.63    95258.014    6957.6231   -26862.746    5759.2226   -17178.622   -11166.412    84.878681 
   13500     1688.071   -106.76068    1.5274021   -105.23328   -1014.8338    4.4097325    4.4097325    4.4097325   -1014.8338    1354.1332    -4774.144    375.50945    3393.0785   -19823.499    2442.2028    85.750514 
   13600     2014.999   -107.00899    1.8232135   -105.18577   -36280.728     4.419354     4.419354     4.419354   -36280.728   -32305.182     -28698.3   -47838.702   -10257.517    20056.178    5876.4323    86.313029 
   13700    1199.9913   -106.25283    1.0857773   -105.16706    19766.371    4.3954702    4.3954702    4.3954702    19766.371   -667.11561    27591.978    32374.251   -1420.8428   -34109.947    3312.1279    84.921179 
   13800    2312.4334   -107.25635    2.0923383   -105.16401    27555.436    4.3799438    4.3799438    4.3799438    27555.436    46467.928    2629.4261    33568.953   -3873.0813   -235.70146    -1912.902    84.024436 
   13900    1608.7823   -106.65008      1.45566   -105.19442   -23516.118    4.4026172    4.4026172    4.4026172   -23516.118   -54068.231    22401.805   -38881.929   -3611.4013    11400.795    9620.9717    85.336099 
   14000    1261.1151   -106.33813    1.1410835   -105.19705    5700.6524     4.411363     4.411363     4.411363    5700.6524   -38492.522   -22962.436    78556.915    5324.7616   -19790.841    13207.278    85.845667 
   14100    2086.1303   -107.07737    1.8875746    -105.1898    8110.8899    4.4015047    4.4015047    4.4015047    8110.8899   -17687.161    24717.388    17302.442    5416.2306    18487.927   -11489.161    85.271421 
   14200    1687.2259   -106.72641    1.5266375   -105.19977   -6793.2809    4.3920723    4.3920723    4.3920723   -6793.2809    -15364.08   -22083.391    17067.628   -3040.4405   -23041.492    12659.696    84.724387 
   14300    1756.0419   -106.80647    1.5889036   -105.21757   -2999.6729    4.3978283    4.3978283    4.3978283   -2999.6729   -1011.7765   -34700.486    26713.243   -11878.595    5550.6253   -6184.8477     85.05793 
   14400    1455.6955   -106.53371    1.3171439   -105.21656    32963.401    4.4063885    4.4063885    4.4063885    32963.401    68178.659   -15247.945    45959.487      17268.4   -4228.7178    4596.4726    85.555585 
   14500    1780.6106   -106.82958    1.6111339   -105.21845   -28273.949    4.4134507    4.4134507    4.4134507   -28273.949   -32705.839   -20776.434   -31339.573   -10207.733   -3763.0187   -3604.4804    85.967609 
   14600    1775.2281   -106.79972    1.6062637   -105.19346      6521.13    4.4098897    4.4098897    4.4098897      6521.13    13586.417    -33542.85    39519.822    5765.5382    1511.4697   -15298.908    85.759688 
   14700     1211.093   -106.30143    1.0958224   -105.20561   -1377.4507    4.4090414    4.4090414    4.4090414   -1377.4507   -36424.157    -5843.181    38134.986   -3319.0989   -9586.0524   -1411.1096    85.710202 
   14800    2255.7741   -107.24193    2.0410718   -105.20086   -16757.899    4.4023133    4.4023133    4.4023133   -16757.899   -8872.2116   -41048.163    -353.3207    2034.3655   -23912.436   -4670.9952    85.318426 
   14900     1834.298   -106.86818    1.6597114   -105.20847   -29657.821    4.4081411    4.4081411    4.4081411   -29657.821   -63420.638   -35222.483    9669.6581    11522.971     14290.12    13656.931    85.657711 
   15000    1189.6278   -106.27784    1.0764002   -105.20144   -7739.5529    4.4208273    4.4208273    4.4208273   -7739.5529   -51617.019   -27982.814    56381.174   -14446.925   -22997.096    732.23138    86.399382 
   15100    2418.2171   -107.35942    2.1880536   -105.17136   -15477.248    4.4061366    4.4061366    4.4061366   -15477.248   -35040.779     39.05792   -11430.023    2424.8058    13302.447     2161.112     85.54091 
   15200    1285.9729   -106.36226    1.1635753   -105.19869   -15955.103    4.3920434    4.3920434    4.3920434   -15955.103   -45058.995    -26585.25    23778.937   -12917.453   -16585.392    2393.4572    84.722716 
   15300    2220.7917   -107.22309     2.009419   -105.21367   -6171.4422    4.3927437    4.3927437    4.3927437   -6171.4422   -11837.228   -45693.558    39016.459     4433.928    3086.6687    4575.0051    84.763246 
   15400    1333.6102   -106.44906    1.2066786   -105.24238    14530.612    4.4173467    4.4173467    4.4173467    14530.612    26604.533   -40571.321    57558.626   -10188.218    22243.891   -1949.6126    86.195475 
   15500    1848.6347   -106.87318    1.6726835   -105.20049   -7405.1512    4.4104487    4.4104487    4.4104487   -7405.1512   -11603.266   -25073.007     14460.82   -18105.421   -6245.8324   -3945.1232    85.792303 
   15600    1554.9103   -106.57969    1.4069155   -105.17278    30609.836    4.3809865    4.3809865    4.3809865    30609.836    43644.505    10618.595    37566.409    679.17377   -4721.4085    9530.8593     84.08446 
   15700     1940.967   -106.94813    1.7562278    -105.1919    5540.9452    4.3799866    4.3799866    4.3799866    5540.9452   -30995.702     14633.32    32985.218   -14407.106    13210.364    4463.8428    84.026901 
   15800    1753.2709   -106.80514    1.5863963   -105.21874    594.61151    4.4034019    4.4034019    4.4034019    594.61151    48800.685   -59103.626    12086.776   -2733.3167   -2897.8158    14946.381    85.381734 
   15900    2094.9174     -107.101    1.8955253   -105.20547    -55497.04    4.4146459    4.4146459    4.4146459    -55497.04   -76076.551   -53521.172   -36893.395   -7637.1924   -1974.2467    4183.2469    86.037467 
   16000    1550.6692   -106.60331    1.4030781   -105.20023    18467.988    4.3969361    4.3969361    4.3969361    18467.988    7055.2759   -25348.196    73696.883    14631.444    3482.4333    13233.554    85.006172 
   16100    1707.2207    -106.7529    1.5447292   -105.20817    18893.077    4.3920925    4.3920925    4.3920925    18893.077   -3931.7243   -5065.9849    65676.939   -14926.474    20021.414   -15500.242    84.725557 
   16200    1171.4402   -106.28905    1.0599438   -105.22911   -7225.0243    4.3966665    4.3966665    4.3966665   -7225.0243   -26149.592    -8615.389    13089.908    11543.636    7970.0882   -5468.5176    84.990538 
   16300     2249.432   -107.26319    2.0353334   -105.22786   -27782.512    4.3950829    4.3950829    4.3950829   -27782.512   -13711.371   -55467.016   -14169.149    2369.0297   -3107.7614    7549.0383    84.898736 
   16400    1522.2835   -106.60416    1.3773941   -105.22677    1706.5535    4.4055329    4.4055329    4.4055329    1706.5535    22593.477   -35609.866    18136.049    17078.236    6901.9869    1761.9125    85.505757 
   16500    1433.5534   -106.51652    1.2971093   -105.21941    -17396.07    4.3885889    4.3885889    4.3885889    -17396.07   -21434.979   -25385.922   -5367.3103    5865.7447    15670.582    22292.429    84.522961 
   16600    1808.6843   -106.83519    1.6365355   -105.19866    27673.212     4.360272     4.360272     4.360272    27673.212      44256.9   -8147.9938     46910.73    338.13796   -21579.059    11696.131    82.897371 
   16700    1414.2173   -106.52255    1.2796135   -105.24294    6264.1366    4.3751953    4.3751953    4.3751953    6264.1366    25237.495   -34232.402    27787.317    14459.699    17122.998    3896.3669    83.751447 
   16800    2266.7104    -107.2722    2.0509672   -105.22124   -29114.836    4.4041675    4.4041675    4.4041675   -29114.836    30341.262    -70655.23    -47030.54    1842.2185   -25368.435    22383.827     85.42628 
   16900    1691.8577   -106.73735    1.5308284   -105.20652   -27195.836    4.4079232    4.4079232    4.4079232   -27195.836   -58645.125   -33690.762    10748.379   -7909.5749    14357.046     893.1571     85.64501 
   17000    1374.3576   -106.44611    1.2435476   -105.20256    37953.827     4.374786     4.374786     4.374786    37953.827    93248.395    23944.373   -3331.2878    -16568.66    422.23459    20617.835    83.727945 
   17100    1867.3169   -106.94402    1.6895876   -105.25443    34097.458    4.3805326    4.3805326    4.3805326    34097.458    49717.043    12090.717    40484.615    2008.7823    9949.4593   -3418.9389    84.058328 
   17200    1409.9629   -106.53958     1.275764   -105.26381   -36024.396     4.414172     4.414172     4.414172   -36024.396   -50308.826   -72370.312    14605.949    19843.016    9970.8533    24482.407    86.009766 
   17300    1795.5029   -106.84125    1.6246088   -105.21664   -51977.625    4.4019323    4.4019323    4.4019323   -51977.625   -78072.702   -44631.144   -33229.027     1528.983   -16027.027    760.16554    85.296275 
   17400    1320.8236   -106.38914     1.195109   -105.19403     34191.73    4.3807306    4.3807306    4.3807306     34191.73    110000.52   -25748.226    18322.892   -23149.049    6010.6194    4468.9566    84.069729 
   17500    1656.2948   -106.73697    1.4986503   -105.23832    2638.6241    4.3964431    4.3964431    4.3964431    2638.6241    91117.047   -45704.627   -37496.549   -1616.6325    1527.3625    9748.8437    84.977585 
   17600    1581.7793   -106.65655    1.4312271   -105.22532   -22062.742    4.4159685    4.4159685    4.4159685   -22062.742   -68616.578   -17625.237    20053.588   -17233.824   -3901.3262   -1577.4216    86.114822 
   17700     1641.937   -106.68094    1.4856591   -105.19529   -24534.985    4.4039451    4.4039451    4.4039451   -24534.985   -45136.013     10665.07   -39134.011    5044.1644    14091.304    6085.6999    85.413336 
   17800    1440.1493   -106.49853    1.3030773   -105.19545    25358.387    4.3884423    4.3884423    4.3884423    25358.387    62553.104   -3400.6161    16922.672   -3922.1461   -12408.769   -16752.258    84.514492 
   17900    2174.2962   -107.17175    1.9673489    -105.2044   -5452.2333    4.3831486    4.3831486    4.3831486   -5452.2333    35830.249   -36075.022   -16111.926    -8371.014   -26142.013    21869.824    84.209014 
   18000     1470.255   -106.54434    1.3303177   -105.21402    14357.468    4.3796221    4.3796221    4.3796221    14357.468     10238.38   -3271.7305    36105.753    10506.013    7196.3481   -12099.657    84.005927 
   18100    1418.9706   -106.51309    1.2839145   -105.22917    -3750.775    4.3944116    4.3944116    4.3944116    -3750.775   -24345.661    34622.579   -21529.243    3373.2147   -20559.344   -1822.5655    84.859836 
   18200    2027.2466   -107.03803    1.8342953   -105.20374   -16035.258     4.402619     4.402619     4.402619   -16035.258    25746.565   -42121.358   -31730.981   -20985.118   -13437.358    21968.006    85.336205 
   18300     2030.107   -107.01974    1.8368835   -105.18285   -9111.9398    4.3794132    4.3794132    4.3794132   -9111.9398   -18585.674   -20985.486     12235.34    14847.368    4140.2065   -13725.913    83.993902 
   18400    1067.8826   -106.17417   0.96624263   -105.20793    8178.0197    4.3808381    4.3808381    4.3808381    8178.0197   -38700.562    32295.712    30938.909   -3690.8255   -20745.266    11567.565    84.075915 
   18500    2002.1693   -107.01865    1.8116049   -105.20705   -11809.053    4.3965496    4.3965496    4.3965496   -11809.053    24219.896   -19417.419   -40229.636     6142.813    17630.151   -9675.1717    84.983756 
   18600    1258.8635   -106.34478    1.1390461   -105.20573    513.60833    4.3939193    4.3939193    4.3939193    513.60833   -3193.3299   -2160.2993    6894.4541   -1041.1627   -37481.788   -15900.602    84.831322 
   18700    2207.7401   -107.19096    1.9976096   -105.19335   -11937.132    4.3805307    4.3805307    4.3805307   -11937.132   -30197.109   -8684.1829     3069.895   -21462.355   -10275.701    2108.3078    84.058219 
   18800    1279.4885   -106.36932    1.1577081   -105.21161    22343.928    4.3794744    4.3794744    4.3794744    22343.928     74109.31    1263.8571   -8341.3838    16281.083    -19031.41   -32727.305    83.997428 
   18900    1312.3159   -106.42231     1.187411    -105.2349    2689.3212    4.3958975    4.3958975    4.3958975    2689.3212   -28607.874    30839.233    5836.6054   -11394.972   -41300.055    11199.168    84.945951 
   19000    2088.9491   -107.10886    1.8901251   -105.21873    14345.342     4.395065     4.395065     4.395065    14345.342    27661.224   -4637.9382    20012.739   -2001.8087    4862.8303    -4900.512    84.897699 
   19100    1288.3678   -106.39689    1.1657422   -105.23115   -19361.709    4.4128714    4.4128714    4.4128714   -19361.709   -72474.139    36590.326   -22201.313   -1782.5331   -28906.226    10650.597     85.93376 
   19200    1759.6052    -106.7647    1.5921278   -105.17257   -2468.1355    4.4172186    4.4172186    4.4172186   -2468.1355   -8887.5659    14661.774   -13178.615   -1520.1319      9492.71    5617.0339    86.187978 
   19300    2044.7732   -106.99705    1.8501538   -105.14689   -8081.6234    4.3919779    4.3919779    4.3919779   -8081.6234    -19894.51   -12467.303    8116.9427   -12025.126    -25404.82   -471.37187    84.718928 
   19400    1526.8921   -106.55518    1.3815641   -105.17362    22136.194    4.3867164    4.3867164    4.3867164    22136.194    -22129.51    28701.245    59836.848    2965.8329   -5188.5306    18568.563    84.414817 
   19500    1729.1589    -106.7658    1.5645793   -105.20122     -19197.5    4.4049989    4.4049989    4.4049989     -19197.5   -45047.058    20212.909   -32758.352   -6151.3266    393.10341    4035.3717    85.474665 
   19600     1616.351   -106.65206    1.4625084   -105.18956    13001.865    4.4145738    4.4145738    4.4145738    13001.865   -8932.0244    59251.064   -11313.445   -5079.9092   -3152.5396    18677.774    86.033256 
   19700     1825.807   -106.82384    1.6520286   -105.17181   -27508.278    4.4219987    4.4219987    4.4219987   -27508.278   -40487.644    -49374.44    7337.2504   -15412.662    15000.583    13322.737    86.468085 
   19800    1215.5665   -106.25724    1.0998701   -105.15737    20050.297    4.3952928    4.3952928    4.3952928    20050.297    85760.757   -34071.192    8461.3241   -6947.9125   -16377.759   -8350.3018    84.910898 
   19900    2234.4208   -107.19369    2.0217509   -105.17194   -10830.293    4.3902591    4.3902591    4.3902591   -10830.293    4675.5746   -53658.967    16492.513    6635.0898   -6862.5038    5191.8492      84.6195 
   20000    1768.7642    -106.8039     1.600415   -105.20348   -1348.9396    4.4051365    4.4051365    4.4051365   -1348.9396    65976.562   -67304.848   -2718.5324   -10664.953   -2751.0887   -1701.8353    85.482678 
   20100    1504.1706   -106.55906    1.3610052   -105.19805   -16814.405    4.4138059    4.4138059    4.4138059   -16814.405   -36634.977   -43458.906    29650.668   -3135.6647   -20249.583    -7660.757    85.988364 
   20200    2337.3208   -107.28767     2.114857   -105.17281   -42545.977    4.4085199    4.4085199    4.4085199   -42545.977   -22351.275   -73914.013   -31372.644    3026.6534    15237.945   -15478.592    85.679794 
   20300    1293.2663   -106.35317    1.1701745   -105.18299    25404.522    4.3932043    4.3932043    4.3932043    25404.522     34650.89   -31801.025      73363.7   -6164.2485   -24488.275   -15729.165    84.789917 
   20400    2174.1797   -107.16514    1.9672435   -105.19789   -1308.3534    4.3986342    4.3986342    4.3986342   -1308.3534    18624.377   -51646.242    29096.804    11569.269   -13459.216    10823.753    85.104698 
   20500    1499.2827   -106.57182    1.3565825   -105.21524   -4218.2725    4.4068835    4.4068835    4.4068835   -4218.2725    66378.938   -58295.495    -20738.26   -956.69567     -16519.5    1141.9514     85.58442 
   20600    1169.8975   -106.28107    1.0585479   -105.22252    27753.068    4.4064998    4.4064998    4.4064998    27753.068    35843.381   -55588.428    103004.25   -2392.1415   -20364.425   -564.66363    85.562066 
   20700    1615.8817    -106.6809    1.4620837   -105.21882    38036.908    4.4020621    4.4020621    4.4020621    38036.908    44020.974   -60547.984    130637.74     7614.647   -20747.534   -2403.6999    85.303823 
   20800    1266.4716   -106.38778    1.1459301   -105.24185    20979.859    4.3954477    4.3954477    4.3954477    20979.859    52885.795   -23913.084    33966.866    -18273.24   -6533.4397    7551.9439    84.919874 
   20900     1651.105   -106.73657    1.4939545   -105.24261     9630.677    4.4007834    4.4007834    4.4007834     9630.677   -5153.2297   -61094.528    95139.789   -4963.3314     16220.97   -4884.7947    85.229506 
   21000    1671.6837   -106.74566    1.5125745   -105.23309   -2878.5956    4.4090841    4.4090841    4.4090841   -2878.5956    41539.622   -54771.647    4596.2376    7771.9657    -1143.797   -1433.4049    85.712697 
   21100    1583.4393   -106.63995    1.4327291   -105.20722     18531.95    4.3977848    4.3977848    4.3977848     18531.95   -12497.368    -39078.95    107172.17    7645.7587   -15458.009    21522.913    85.055407 
   21200    1831.5924   -106.87747    1.6572633   -105.22021    -21257.83    4.4057303    4.4057303    4.4057303    -21257.83   -30256.856   -76400.457    42883.823    8178.2671    21494.193    8011.2774     85.51725 
   21300    2092.4176   -107.10736    1.8932634    -105.2141   -42102.967    4.4172479    4.4172479    4.4172479   -42102.967   -67926.426   -23433.071   -34949.403   -1445.7813   -20153.734   -4165.2797    86.189692 
   21400    1584.1788   -106.63163    1.4333983   -105.19823   -21866.662    4.4046478    4.4046478    4.4046478   -21866.662    9890.1091   -51231.521   -24258.575      4462.21   -25028.258   -3597.5069    85.454228 
   21500     2015.538   -107.00716    1.8237011   -105.18346    13235.641    4.3797571    4.3797571    4.3797571    13235.641    81845.193   -53687.324    11549.055   -22628.298    5458.8535    -402.4616    84.013694 
   21600    1485.5471   -106.56555    1.3441542    -105.2214    18567.275    4.3875975    4.3875975    4.3875975    18567.275    71417.806   -21225.715    5509.7341    18521.325   -17290.201    4123.0377    84.465693 
   21700    1949.7521   -106.97823    1.7641767   -105.21405   -46078.729    4.4111255    4.4111255    4.4111255   -46078.729   -31620.672    -46194.17   -60421.344   -5522.6037    -2465.497   -5918.5843    85.831806 
   21800      1904.53   -106.91018    1.7232588   -105.18692   -4993.7219     4.397645     4.397645     4.397645   -4993.7219    20509.367   -25788.689   -9701.8441   -14265.156    5435.2977    1137.0498    85.047296 
   21900     1480.626   -106.52006    1.3397016   -105.18036    28372.046    4.3791497    4.3791497    4.3791497    28372.046    126185.06   -33560.813   -7508.1105    6169.3317   -27050.326   -14377.788    83.978745 
   22000    1967.2419   -106.97707    1.7800018   -105.19707    7316.4807    4.3918389    4.3918389    4.3918389    7316.4807    53037.396   -35492.733    4404.7794   -1471.0453   -5138.9582    7992.2506    84.710881 
   22100    1465.5663      -106.54    1.3260752   -105.21392    2905.8383    4.4014869    4.4014869    4.4014869    2905.8383    33984.086   -11528.101    -13738.47    19181.986   -14234.043   -7966.9073     85.27039 
   22200    1774.1745   -106.81627    1.6053104   -105.21096   -9342.4574    4.4214791    4.4214791    4.4214791   -9342.4574    25486.593   -42050.344   -11463.622    9801.2068    11673.102   -5543.1743    86.437603 
   22300    2037.7249   -107.02106    1.8437763   -105.17728     -3687.75    4.4229425    4.4229425    4.4229425     -3687.75    76652.259    -30127.57   -57587.939    32501.188    24542.485   -14102.957    86.523458 
   22400     709.8807   -105.81447   0.64231498   -105.17215    18017.568    4.4006669    4.4006669    4.4006669    18017.568    21637.808    31549.632     865.2634    24701.922   -7154.1784   -3518.8465    85.222739 
   22500     2050.072   -107.01094    1.8549483   -105.15599    6253.2047    4.3787515    4.3787515    4.3787515    6253.2047    59016.524   -27124.054   -13132.856    13654.411    14190.308   -2744.2256    83.955838 
   22600    2066.9764   -107.07503    1.8702437   -105.20479   -1579.0692    4.3817273    4.3817273    4.3817273   -1579.0692    2624.0385   -27437.971    20076.725    25082.502   -3586.8973   -7150.4693    84.127123 
   22700    1412.1672   -106.50283    1.2777586   -105.22507    5641.9917    4.4085384    4.4085384    4.4085384    5641.9917    25903.249    2529.1277   -11506.402    4345.9221    8721.7365    6073.4077    85.680873 
   22800    1633.2805   -106.65419    1.4778265   -105.17636   -8159.2474    4.4242405    4.4242405    4.4242405   -8159.2474    23650.812    1051.3638   -49179.918    6451.9058    4393.3899    9242.0727    86.599658 
   22900    981.19349   -106.03982   0.88780449   -105.15202    40.761397    4.4039483    4.4039483    4.4039483    40.761397    75738.554    -24487.02    -51129.25     22137.19   -31248.785    19114.175    85.413522 
   23000    1626.0811   -106.60163    1.4713124   -105.13032    47082.528    4.3818516    4.3818516    4.3818516    47082.528    34813.579    66761.852    39672.151   -4029.0605    12542.959     148.9685    84.134284 
   23100    1591.8092   -106.61824    1.4403025   -105.17793   -17874.933    4.4054735    4.4054735    4.4054735   -17874.933    -38917.57   -5256.7655   -9450.4627    16211.991   -26016.448   -1071.5197    85.502296 
   23200     1890.963   -106.87402    1.7109831   -105.16303   -36859.826    4.4073731    4.4073731    4.4073731   -36859.826   -42538.199   -49466.976   -18574.304    10587.196   -6642.8318    28208.861    85.612947 
   23300    1546.7281   -106.54988    1.3995121   -105.15036    33811.185    4.3778134    4.3778134    4.3778134    33811.185   -27511.576      46706.2    82238.933    6050.9743   -7073.9475   -6501.2949    83.901888 
   23400    1528.2192   -106.58039    1.3827649   -105.19762    4671.0558    4.3803313    4.3803313    4.3803313    4671.0558   -16829.195    44810.872   -13968.509    13285.325   -9931.6486    7715.5295     84.04674 
   23500    2407.7875    -107.3817    2.1786167   -105.20308    -30731.09    4.3887381    4.3887381    4.3887381    -30731.09   -27525.951   -40898.256   -23769.062    16068.418    24913.996    30023.199    84.531579 
   23600     1380.069    -106.4448    1.2487154   -105.19608    32065.659    4.3785178    4.3785178    4.3785178    32065.659   -19039.644    93261.015    21975.606   -10249.319   -34458.186   -23675.499    83.942396 
   23700    1924.0596   -106.94704    1.7409296   -105.20611   -29206.683    4.3859235    4.3859235    4.3859235   -29206.683   -37384.317    7394.8049   -57630.538    19083.436   -1967.0643    35135.605    84.369049 
   23800    1455.7064   -106.52393    1.3171537   -105.20677    7883.8403    4.3904476    4.3904476    4.3904476    7883.8403   -17757.456    79511.983   -38103.006   -8773.1373   -17378.143    2954.4293    84.630398 
   23900    2093.0573   -107.09973    1.8938422   -105.20589   -655.94783    4.3864691    4.3864691    4.3864691   -655.94783   -13877.339     11821.88       87.615    4668.0533   -20730.439    14662.139    84.400539 
   24000    1763.9749   -106.82619    1.5960815   -105.23011   -29868.239    4.3911715    4.3911715    4.3911715   -29868.239   -41937.249   -48577.743    910.27676    1123.2027   -5116.8153     27336.79    84.672268 
   24100    1983.0136   -107.00249    1.7942724   -105.20821   -14132.873     4.397697     4.397697     4.397697   -14132.873    1963.0318   -14739.607   -29622.042   -12044.874   -14901.228    23040.562     85.05031 
   24200    1667.6728   -106.69154    1.5089454    -105.1826    2971.6003     4.399089     4.399089     4.399089    2971.6003    3045.0853   -518.00593    6387.7214    6933.3257    4513.1117    15589.119    85.131098 
   24300    1546.1863   -106.56478    1.3990218   -105.16576   -23750.854    4.3976493    4.3976493    4.3976493   -23750.854   -41952.625   -35231.614    5931.6785     4384.293   -24960.816    32320.431    85.047545 
   24400    2055.7922   -107.02483     1.860124    -105.1647   -7694.8076    4.4007693    4.4007693    4.4007693   -7694.8076   -48781.015    14748.467    10948.125   -17636.729    2136.8803   -10224.001    85.228691 
   24500    1637.3121   -106.65333    1.4814744   -105.17185   -17784.177    4.4092881    4.4092881    4.4092881   -17784.177   -28053.142   -8989.9305   -16309.459   -14147.827   -28579.348    13972.544     85.72459 
   24600    1842.9177   -106.81463    1.6675107   -105.14712   -7009.3293    4.4035331    4.4035331    4.4035331   -7009.3293    -32443.31    36732.517   -25317.195    -7019.863    4051.6894   -8505.1709    85.389367 
   24700    1811.2961   -106.78693    1.6388988   -105.14804   -18384.029    4.3880922    4.3880922    4.3880922   -18384.029   -27842.983   -28748.408    1439.3037   -12244.577    373.44446   -12795.551    84.494267 
   24800    1800.8624   -106.78519    1.6294581   -105.15573    19146.474    4.3767522    4.3767522    4.3767522    19146.474    47391.017    52248.757   -42200.351    2120.0859   -29431.728    16162.189     83.84089 
   24900    1528.7515   -106.56886    1.3832465   -105.18561    44179.203     4.389729     4.389729     4.389729    44179.203    57181.391    30951.453    44404.765    22269.476    12772.112   -7095.0054    84.588853 
   25000    1616.1536   -106.64472    1.4623298   -105.18239   -10160.874     4.408619     4.408619     4.408619   -10160.874    42998.366   -47826.258    -25654.73   -3316.9422   -12411.373    7006.8217    85.685573 
   25100    1999.5649   -106.97628    1.8092483   -105.16703    5179.4702    4.3987016    4.3987016    4.3987016    5179.4702    50072.124   -9182.7383   -25350.975    4621.3423    16643.112   -1708.7804    85.108609 
   25200    1390.6936   -106.43193    1.2583288    -105.1736    27951.646      4.37475      4.37475      4.37475    27951.646    59052.227   -18314.501    43117.212    12104.513    -281.5449    15513.805     83.72588 
   25300    1884.1774   -106.88529    1.7048433   -105.18044    -239.8283    4.3698243    4.3698243    4.3698243    -239.8283    19962.632    -36086.93    15404.813   -13219.538   -7956.6508     3756.729    83.443389 
   25400    1540.3794   -106.61099    1.3937676   -105.21723   -12634.839    4.3902507    4.3902507    4.3902507   -12634.839    2782.1796   -27111.501   -13575.195     28815.25    17365.503   -9145.5043    84.619017 
   25500    1751.0478   -106.77394    1.5843849   -105.18956   -22585.885    4.4078653    4.4078653    4.4078653   -22585.885    23217.359   -35365.901   -55609.113   -14648.678   -15863.065    8166.2541    85.641636 
   25600    1789.8118   -106.78554    1.6194593   -105.16609    -3706.276    4.3869364    4.3869364    4.3869364    -3706.276    22181.135   -45081.701    11781.738    20539.124    14956.277    -55.43754    84.427515 
   25700    1650.2454   -106.66485    1.4931767   -105.17167    6879.0742    4.3755143    4.3755143    4.3755143    6879.0742    7585.7451    6498.4242    6553.0533    1508.9716   -41207.791    12636.985    83.769772 
   25800    1760.7964   -106.77974    1.5932056   -105.18653    2599.3817    4.3881762    4.3881762    4.3881762    2599.3817    21357.896   -29426.482     15866.73   -2782.0042   -20983.632    3040.3831     84.49912 
   25900    1642.9324   -106.70466    1.4865597    -105.2181   -13491.077    4.3957404    4.3957404    4.3957404   -13491.077    19162.024   -43999.519   -15635.735    23768.282   -886.54217   -1214.9017    84.936844 
   26000    1674.6066    -106.7327    1.5152193   -105.21748   -32037.471    4.3930848    4.3930848    4.3930848   -32037.471   -22970.965   -33272.892   -39868.556   -10737.364    5704.1193   -8674.6466    84.782994 
   26100    1419.8508   -106.50169    1.2847109   -105.21698    28569.583    4.3826613    4.3826613    4.3826613    28569.583    3658.7789   -17592.259    99642.228     30084.41   -5681.1806   -1074.9369    84.180932 
   26200    2203.4884   -107.21954    1.9937626   -105.22578   -22411.489    4.3875565    4.3875565    4.3875565   -22411.489   -27522.581   -16825.719   -22886.167   -7077.8123    12748.849   -2905.5517    84.463321 
   26300    1512.2652   -106.61015    1.3683294   -105.24182   -24283.927    4.4036028    4.4036028    4.4036028   -24283.927   -43010.638   -18444.935   -11396.209    21859.775   -18511.587    6926.5155    85.393423 
   26400    1842.4944    -106.8812    1.6671277   -105.21407   -4015.5773    4.4132336    4.4132336    4.4132336   -4015.5773   -21059.928   -55643.325    64656.521    4136.1265    15309.314   -11445.461     85.95492 
   26500    1777.8102   -106.80911       1.6086   -105.20051    12048.784    4.3924567    4.3924567    4.3924567    12048.784   -28563.471   -28094.463    92804.287    8181.7093   -22499.987   -7991.5135    84.746637 
   26600    1705.8862   -106.75187    1.5435217   -105.20835    14495.833    4.3829535    4.3829535    4.3829535    14495.833   -12295.052   -24822.894    80605.443    11121.143   -24774.832    4102.1172    84.197772 
   26700    2107.2921   -107.15007    1.9067222   -105.24335   -22831.912    4.4180509    4.4180509    4.4180509   -22831.912   -41558.664    -58881.16    31944.089   -412.30039   -4034.1566   -503.51647    86.236704 
   26800    1633.9596   -106.67159     1.478441   -105.19315   -55963.716    4.4549873    4.4549873    4.4549873   -55963.716   -28000.721    -77968.14   -61922.288    5088.5737   -14882.817    2399.6604    88.417739 
   26900    1428.8329   -106.41117    1.2928381   -105.11833    -9621.712       4.4336       4.4336       4.4336    -9621.712    -22510.79   -60427.744    54073.398   -5583.9274    11751.968   -4330.2453    87.150431 
   27000    1863.8358   -106.76637    1.6864378   -105.07993   -11023.686    4.3891833    4.3891833    4.3891833   -11023.686   -29622.981   -38154.048    34705.971    11029.993   -30168.298    -1525.867    84.557308 
   27100    1828.7221   -106.80878    1.6546662   -105.15411    1049.0723    4.3831734    4.3831734    4.3831734    1049.0723   -12933.057   -29008.219    45088.493    -1091.559   -20488.466   -11591.648    84.210445 
   27200    1811.1874   -106.88412    1.6388005   -105.24532    7229.4848    4.4139456    4.4139456    4.4139456    7229.4848   -15628.428   -50705.501    88022.384   -862.43756    5656.9966   -10238.825    85.996529 
   27300    1201.5656   -106.29851    1.0872018   -105.21131   -13219.731     4.450785     4.450785     4.450785   -13219.731   -13695.953   -48484.336    22521.096   -7349.0678   -5470.8381    -14935.75    88.167769 
   27400    1718.9823   -106.70385    1.5553713   -105.14848   -15256.447    4.4303769    4.4303769    4.4303769   -15256.447   -18222.454   -62252.268    34705.383   -5167.8759    721.59082    1045.1006      86.9605 
   27500    2475.8062   -107.36575    2.2401615   -105.12559   -18191.927    4.3930271    4.3930271    4.3930271   -18191.927   -47146.111   -48483.791     41054.12   -10401.246   -13326.794   -7421.1326    84.779655 
   27600    1558.5617   -106.59889    1.4102194   -105.18867    25385.367    4.3798084    4.3798084    4.3798084    25385.367    34371.669   -25019.889     66804.32     1816.435    1453.6148    15238.653    84.016648 
   27700     1288.979   -106.42061    1.1662952   -105.25432    24627.573    4.4022531    4.4022531    4.4022531    24627.573    23521.934   -48155.563    98516.348   -3526.2942    19512.715   -13669.515     85.31493 
   27800    1744.1817   -106.82372    1.5781722   -105.24555   -43078.659    4.4283341    4.4283341    4.4283341   -43078.659   -36674.211   -89748.667   -2813.1002   -20890.303   -8157.6073   -15385.109    86.840262 
   27900    1797.3371   -106.84269    1.6262684   -105.21642    14477.597    4.4049386    4.4049386    4.4049386    14477.597    18812.197   -64692.061    89312.654   -7896.5349   -5721.6324   -9913.0998    85.471156 
   28000    1436.0307   -106.50734    1.2993508   -105.20799     32298.18    4.3900357    4.3900357    4.3900357     32298.18    12923.825    -42765.82    126736.53   -12768.618   -20873.688   -2387.6752    84.606581 
   28100    1910.4881   -106.95762    1.7286497   -105.22897   -3608.4087    4.4005045    4.4005045    4.4005045   -3608.4087   -9901.3669   -55696.429     54772.57    5061.0837    1842.8157   -14818.368    85.213304 
   28200    2103.0131    -107.1433    1.9028504   -105.24045   -51673.724    4.4040018    4.4040018    4.4040018   -51673.724   -42044.177   -98547.771   -14429.224   -6240.0748    22102.149    28945.133    85.416636 
   28300    1972.0788   -107.01809    1.7843784   -105.23371    17994.742    4.3896646    4.3896646    4.3896646    17994.742    10244.966   -38989.351     82728.61    4663.9452   -12657.312    9638.5406    84.585129 
   28400    1534.8663   -106.64358    1.3887793    -105.2548   -1920.5927    4.4049185    4.4049185    4.4049185   -1920.5927    17698.922     -73225.5      49764.8   -5308.1967   -10589.134    14331.834    85.469989 
   28500    1544.1157   -106.61486    1.3971483   -105.21771   -6503.6537    4.4232167    4.4232167    4.4232167   -6503.6537   -11756.707   -60212.337    52458.083   -11633.829    22989.857    4375.0369    86.539553 
   28600    1694.0246   -106.70012     1.532789   -105.16733    15672.785    4.4194056    4.4194056    4.4194056    15672.785    93937.485   -45014.978   -1904.1506   -10191.159   -23514.912   -174.53139    86.316054 
   28700    1786.0609   -106.78143    1.6160654   -105.16537   -17855.935    4.4142194    4.4142194    4.4142194   -17855.935     29116.13   -79623.927   -3060.0089   -8206.3931    23492.735    12515.559    86.012536 
   28800     1750.663   -106.76116    1.5840367   -105.17713    13623.127    4.4155143    4.4155143    4.4155143    13623.127     86150.18   -33636.698   -11644.101   -6761.5014    16686.571   -8466.2671    86.088254 
   28900     2000.355   -106.98215    1.8099632   -105.17219   -17585.016    4.4170037    4.4170037    4.4170037   -17585.016    63651.645   -67324.726   -49081.967   -8491.8384   -10764.325    11237.915    86.175394 
   29000    1602.3407   -106.63034    1.4498316   -105.18051    7842.5191    4.4014385    4.4014385    4.4014385    7842.5191    68970.826   -57038.717    11595.448     418.6447   -9556.7527   -481.44775    85.267577 
   29100     1244.136   -106.32063    1.1257204   -105.19491    25750.378    4.3898822    4.3898822    4.3898822    25750.378    122984.41   -48555.075    2821.7981    15242.534   -6036.8093    32194.332    84.597711 
   29200    1918.6738   -106.93984    1.7360564   -105.20379    4264.1581    4.3957118    4.3957118    4.3957118    4264.1581    51756.412   -29060.612   -9903.3258   -8642.0604   -11098.132   -8763.8398    84.935183 
   29300     1322.934   -106.43923    1.1970185   -105.24221    9633.1897    4.4186688    4.4186688    4.4186688    9633.1897    47568.342    -52582.33    33913.557    2852.3504    32040.675    6292.9363    86.272889 
   29400    1627.1082   -106.68054    1.4722417    -105.2083    4893.9286     4.429593     4.429593     4.429593    4893.9286    9944.4878   -77374.502      82111.8   -11383.661    5145.0653   -3587.0667    86.914349 
   29500    1287.9454   -106.34369    1.1653601   -105.17833    38489.856    4.4059118    4.4059118    4.4059118    38489.856   -16165.045   -60997.735    192632.35    8892.5762    13630.492   -4365.1479    85.527821 
   29600    1310.7206   -106.38752    1.1859676   -105.20155    20798.852    4.3871553    4.3871553    4.3871553    20798.852    101674.69   -57425.341    18147.203    5977.5165    27387.461    15270.305    84.440158 
   29700    1767.9178   -106.83356    1.5996492   -105.23391    -4048.962    4.3944544    4.3944544    4.3944544    -4048.962    5871.3542   -60705.728    42687.488    5710.4863   -3577.0181   -5533.0948    84.862317 
   29800    2005.3754   -107.05025    1.8145058   -105.23574    -18702.53    4.4086799    4.4086799    4.4086799    -18702.53   -8557.9445   -76345.305    28795.661    6237.4033    -19668.06    14293.184    85.689122 
   29900    1108.0693   -106.22183    1.0026044   -105.21923    35919.615    4.4124464    4.4124464    4.4124464    35919.615    99928.703   -49859.897    57690.038    10518.689   -21018.061   -987.83593    85.908934 
   30000    1534.4288   -106.57595    1.3883834   -105.18757     19150.74    4.4228189    4.4228189    4.4228189     19150.74    13654.598    9260.5297    34537.092    15013.761   -36226.235    10265.387    86.516209 
   30100    1315.6377    -106.3414    1.1904167   -105.15098   -9769.4431    4.4211214    4.4211214    4.4211214   -9769.4431    73748.755   -86344.493   -16712.591   -803.71601   -16830.275   -2233.2033     86.41663 
   30200    1814.9748   -106.75496    1.6422274   -105.11273    23098.617    4.4045321    4.4045321    4.4045321    23098.617    68152.384   -45537.321    46680.788    15016.901   -18070.805   -6812.0706    85.447498 
   30300    1247.2594   -106.26734    1.1285465   -105.13879    49286.669    4.4016064    4.4016064    4.4016064    49286.669    118620.79     15936.97    13302.242   -10326.833   -16644.649    3200.1346    85.277333 
   30400    2114.0603   -107.08046    1.9128462   -105.16761    -29695.41      4.41874      4.41874      4.41874    -29695.41   -50236.642   -38016.746   -832.84116    13367.422   -1137.4861   -12287.043    86.277063 
   30500    1662.8674   -106.68024    1.5045974   -105.17564   -13444.487    4.4181622    4.4181622    4.4181622   -13444.487   -228.50943   -29343.529   -10761.423    5937.8674    1084.4944    1494.6551    86.243222 
   30600    1852.5289    -106.8405    1.6762071    -105.1643    47.169883     4.394295     4.394295     4.394295    47.169883     30748.44    12694.528   -43301.458   -5031.8321   -10940.651   -11224.381    84.853083 
   30700    1676.1749   -106.68895    1.5166382   -105.17231    19230.073      4.38356      4.38356      4.38356    19230.073    118739.43   -32787.856   -28261.352    16616.348    8542.5016    3146.8747    84.232731 
   30800    1056.4859   -106.19179   0.95593068   -105.23586    17125.312    4.4038329    4.4038329    4.4038329    17125.312    105602.77   -27733.687   -26493.146    21401.865     8639.188   -2423.7011    85.406808 
   30900      1921.08   -106.92468    1.7382336   -105.18645   -23455.809    4.4287531    4.4287531    4.4287531   -23455.809   -1017.3943   -9635.7383   -59714.294    14020.397   -8490.2008    6169.9302    86.864919 
   31000    1119.0665   -106.17551    1.0125549   -105.16296    10995.774    4.4040526    4.4040526    4.4040526    10995.774    84597.278    -50907.27   -702.68628    2028.4341   -39598.658   -3097.6199    85.419595 
   31100    2637.0182   -107.52271    2.3860295   -105.13669   -6494.5704    4.3825414    4.3825414    4.3825414   -6494.5704    2915.5324    -25160.45     2761.206   -12370.489    12668.448    3164.0007    84.174022 
   31200    1236.9196   -106.30931    1.1191908   -105.19012    147.93801    4.3933807    4.3933807    4.3933807    147.93801    8424.2212   -22987.208    15006.801    2048.7481   -5537.0107   -14554.262    84.800128 
   31300    1503.3219   -106.55351    1.3602372   -105.19327   -16623.433    4.4060142    4.4060142    4.4060142   -16623.433   -1571.0618   -30637.536   -17661.702     6861.871   -20510.011   -10497.246    85.533784 
   31400    1963.0872   -106.93626    1.7762425   -105.16002    12073.082    4.4005057    4.4005057    4.4005057    12073.082   -9755.5703    -12794.68    58769.497   -14940.202   -16242.294    2225.9172    85.213373 
   31500    1528.7447   -106.55874    1.3832403    -105.1755   -29414.539    4.4034421    4.4034421    4.4034421   -29414.539   -25987.559   -67547.967    5291.9093    2360.5487    11058.093   -21785.788    85.384075 
   31600    1880.5338   -106.86733    1.7015465   -105.16578    -12579.11    4.3993423    4.3993423    4.3993423    -12579.11   -53948.788    17495.764   -1284.3047   -10292.919    6850.2881   -4064.4301    85.145806 
   31700    2120.9146   -107.08913    1.9190481   -105.17008      4189.95    4.3949576    4.3949576    4.3949576      4189.95    27747.472   -4725.8895   -10451.732   -4384.5872   -2555.0808   -15415.256    84.891472 
   31800    990.11292   -106.08441   0.89587498   -105.18854   -17365.063    4.3920117    4.3920117    4.3920117   -17365.063   -45574.602    2695.4933   -9216.0808   -12592.743    527.48708   -16760.362    84.720879 
   31900    2382.7425   -107.32739    2.1559555   -105.17144   -22853.826    4.3811839    4.3811839    4.3811839   -22853.826   -57588.723    12736.696    -23709.45   -13752.078    17785.198   -5504.4573    84.095826 
   32000    1983.7645   -106.99265    1.7949518    -105.1977   -17029.082     4.401815     4.401815     4.401815   -17029.082   -45744.853   -7455.5792    2113.1859   -11554.309   -9451.9397   -8584.5924    85.289456 
   32100    1292.2644    -106.3609     1.169268   -105.19163   -33577.146    4.4125321    4.4125321    4.4125321   -33577.146   -71312.481    8049.1962   -37468.153   -16386.888    23795.874   -16018.343    85.913942 
   32200    1648.5924   -106.66632    1.4916811   -105.17464    41107.361    4.3971981    4.3971981    4.3971981    41107.361   -5167.0485    73610.898    54878.234   -1224.2507   -8024.4888    3723.5564    85.021368 
   32300    1956.8985   -106.95326    1.7706429   -105.18261   -21846.657    4.3888539    4.3888539    4.3888539   -21846.657   -46861.558    10050.243   -28728.655   -25261.615    11666.641   -5601.3926    84.538275 
   32400    959.59477   -106.06803   0.86826151   -105.19977    5758.2997    4.3766122    4.3766122    4.3766122    5758.2997   -8081.2515    61645.391    -36289.24   -2688.2183    19556.383    16231.457    83.832842 
   32500    2441.5895   -107.42533    2.2092015   -105.21613     -3058.52    4.3809816    4.3809816    4.3809816     -3058.52   -7840.7788    -17744.35    16409.568   -1956.6649   -21520.158    1334.3937    84.084179 
   32600    1448.9543    -106.5521    1.3110443   -105.24105   -29692.804    4.4059684    4.4059684    4.4059684   -29692.804   -18565.467   -5811.2787   -64701.667   -2447.1423    16504.225    11073.438    85.531113 
   32700    1470.3027   -106.53412    1.3303608   -105.20376   -30360.069    4.4028507    4.4028507    4.4028507   -30360.069    7107.6467   -30979.465   -67208.387   -12562.102    5556.8612    33291.363    85.349678 
   32800    2450.6493    -107.3937     2.217399    -105.1763    -20713.23    4.3856575    4.3856575    4.3856575    -20713.23    -26454.99     8572.223   -44256.922    9580.4782   -1255.5905   -12228.124    84.353701 
   32900    1205.9848   -106.30103    1.0912004   -105.20983    28403.318    4.3879999    4.3879999    4.3879999    28403.318    72568.707    49613.887   -36972.641    21891.874   -967.38913    19361.511    84.488932 
   33000    1421.9594   -106.51258    1.2866187   -105.22596   -19443.214    4.4057458    4.4057458    4.4057458   -19443.214   -47411.749    26595.519   -37513.411    11462.389    4688.0402   -4671.4698     85.51815 
   33100    1936.9649   -106.94697    1.7526066   -105.19436   -20593.137    4.4073723    4.4073723    4.4073723   -20593.137   -23256.856   -10486.215   -28036.341    4173.1969   -18394.111   -13935.304    85.612901 
   33200    1732.6108   -106.73809    1.5677027   -105.17039    12161.061     4.391275     4.391275     4.391275    12161.061    10967.927    22469.535    3045.7199     10131.82    12168.022    4717.0321    84.678257 
   33300    1732.3799   -106.75865    1.5674937   -105.19115   -27428.377    4.3953839    4.3953839    4.3953839   -27428.377   -59909.206    5616.1704   -27992.095    19662.347    3093.1663   -6186.5171    84.916181 
   33400    1456.1286   -106.50417    1.3175358   -105.18664    14967.348    4.4016131    4.4016131    4.4016131    14967.348    7762.2368    19108.074    18031.734    9868.3092   -12847.362    6380.4823    85.277722 
   33500    2208.3847   -107.17801    1.9981929   -105.17982   -24445.391    4.4159739    4.4159739    4.4159739   -24445.391   -43435.908   -10407.832   -19492.433   -10254.681    22587.964   -12349.699    86.115134 
   33600    1293.8297   -106.34165    1.1706843   -105.17097   -20318.692    4.4148851    4.4148851    4.4148851   -20318.692   -69412.365    84803.305   -76347.015    -8451.412   -17777.963    18021.831    86.051452 
   33700    1325.4292   -106.38233    1.1992762   -105.18306    50530.932    4.3790202    4.3790202    4.3790202    50530.932     44569.48    76258.134    30765.183   -9794.1793    4026.5293    9888.4764    83.971295 
   33800      2417.08   -107.39745    2.1870247   -105.21043   -5250.5119    4.3725937    4.3725937    4.3725937   -5250.5119   -22940.346    27330.413   -20141.603    9833.0739   -6219.4299    18008.092    83.602138 
   33900      1298.17   -106.44396    1.1746115   -105.26935    25098.805    4.4063216    4.4063216    4.4063216    25098.805    14259.646    25966.109     35070.66    13036.356   -13077.629    19894.819    85.551685 
   34000    2167.2555   -107.14678    1.9609783    -105.1858   -33082.542    4.4407926    4.4407926    4.4407926   -33082.542   -27140.005   -16436.307   -55671.315    23721.594    1733.1573    3623.3172    87.575266 
   34100    1247.1976   -106.25776    1.1284906   -105.12927    -12644.73    4.4239602    4.4239602    4.4239602    -12644.73    28610.968    12801.831   -79346.987   -1672.4096   -16511.283    30403.118    86.583201 
   34200    2782.6291   -107.61008    2.5177813    -105.0923   -2243.1976    4.3864624    4.3864624    4.3864624   -2243.1976    4574.6334   -6450.6299   -4853.5962   -13743.247   -4147.4679    5.0915896     84.40015 
   34300     1821.721   -106.81031    1.6483315   -105.16197    13945.516    4.3810072    4.3810072    4.3810072    13945.516    53516.903    32915.328   -44595.683    6158.7438   -27486.052    29798.804    84.085655 
   34400    1279.1618    -106.3921    1.1574125   -105.23469    23379.835     4.417836     4.417836     4.417836    23379.835    130912.93   -3201.5167   -57571.908    20256.655   -2025.7722    4648.0047    86.224121 
   34500    2033.6281   -107.04077    1.8400694    -105.2007   -41276.145    4.4396433    4.4396433    4.4396433   -41276.145   -39052.112   -27970.151   -56806.172   -15302.955   -14329.253    18936.708    87.507292 
   34600    1943.4192   -106.89804    1.7584465    -105.1396   -3787.7123    4.4296005    4.4296005    4.4296005   -3787.7123    39212.815   -68.443904   -50507.508    13134.113   -4226.9655   -1049.3132    86.914787 
   34700     1361.549   -106.34645    1.2319582   -105.11449    29878.059    4.4097011    4.4097011    4.4097011    29878.059    49675.701    65642.559   -25684.084    23917.798    5437.9864   -10933.303    85.748686 
   34800    1663.4383   -106.62765     1.505114   -105.12254    24201.627    4.3975296    4.3975296    4.3975296    24201.627    67682.662    37721.212   -32798.992    6529.4024   -14423.047    5979.0944    85.040601 
   34900    1842.4142   -106.83789     1.667055   -105.17083   -10907.941    4.4012499    4.4012499    4.4012499   -10907.941   -37768.148    32735.136   -27690.811   -14288.949    22717.313    3615.1573    85.256616 
   35000    2418.8876   -107.38053    2.1886603   -105.19187    -22915.25    4.4247592    4.4247592    4.4247592    -22915.25   -18990.735   -29794.533   -19960.481   -1373.1386   -4901.0911    1013.6898     86.63012 
   35100    1074.9648   -106.15428   0.97265075   -105.18163   -25170.627    4.4450101    4.4450101    4.4450101   -25170.627    41701.938   -24156.097   -93057.722   -3624.8122    19628.824   -9918.7757    87.825019 
   35200    1643.6633   -106.63653    1.4872211   -105.14931   -13155.801    4.4127086    4.4127086    4.4127086   -13155.801   -19791.462    11377.001   -31052.942   -29348.186   -6428.9476    -3438.615    85.924251 
   35300    1919.9749   -106.86537    1.7372336   -105.12814    37006.212     4.366651     4.366651     4.366651    37006.212    78670.912     22988.44     9359.284    48983.043    20071.521    907.33046    83.261734 
   35400    1608.3355   -106.66864    1.4552557   -105.21338    11968.366    4.3859537    4.3859537    4.3859537    11968.366   -13408.602    55105.214   -5791.5146   -21180.644    13658.817    612.41292    84.370793 
   35500     1247.756   -106.35269    1.1289959    -105.2237   -5296.9238    4.4305938    4.4305938    4.4305938   -5296.9238    70486.557   -30565.542   -55811.787   -12567.799    -10824.97   -5163.5519    86.973274 
   35600    1687.5978    -106.7236     1.526974   -105.19663   -52290.206    4.4166435    4.4166435    4.4166435   -52290.206   -56703.623    -19819.54   -80347.453   -6330.6602    39564.522   -1421.4683    86.154313 
   35700    1996.7301   -106.95711    1.8066834   -105.15042    35269.556    4.3740189    4.3740189    4.3740189    35269.556    81030.661   -35.748584    24813.755   -8674.3943   -14556.164   -10068.835     83.68391 
   35800    1422.6648   -106.48233     1.287257   -105.19508   -14151.955    4.3835705    4.3835705    4.3835705   -14151.955   -19463.144    9823.8119   -32816.534    10637.903    29708.349    5939.9376    84.233333 
   35900    2195.2314   -107.18964    1.9862915   -105.20335   -56049.167    4.3992071    4.3992071    4.3992071   -56049.167   -69567.906   -54245.188   -44334.406    7755.3614    19866.292   -17912.055    85.137958 
   36000    1707.0119   -106.74862    1.5445403   -105.20408   -18204.026    4.4210818    4.4210818    4.4210818   -18204.026   -53955.276      26092.3   -26749.101    6467.3122    -8568.007    7842.5359    86.414307 
   36100    1139.4521   -106.23429    1.0310002   -105.20329   -43884.685    4.4070667    4.4070667    4.4070667   -43884.685    -31893.46   -47864.955   -51895.639    37313.362     44130.93    1421.2527    85.595096 
   36200    1826.4825   -106.81021    1.6526398   -105.15757    30704.238    4.3564439    4.3564439    4.3564439    30704.238    6278.7239     7173.801    78660.189    2989.5477   -16701.669   -1834.9145     82.67922 
   36300     1826.599   -106.86377    1.6527451   -105.21102    3077.6377    4.3737328    4.3737328    4.3737328    3077.6377   -10011.118    11774.617    7469.4146    -755.5101    24435.105   -12427.982    83.667493 
   36400    1238.8185   -106.33664     1.120909   -105.21574   -30505.633    4.4287249    4.4287249    4.4287249   -30505.633   -21170.095   -47831.965   -22514.838    40992.612    11238.921   -16200.787    86.863258 
   36500    1682.5198   -106.66627    1.5223792   -105.14389   -23975.323    4.4283485    4.4283485    4.4283485   -23975.323   -33324.377   -5223.7217    -33377.87       7978.1   -9460.5458    8506.6596    86.841112 
   36600    1587.9536   -106.54942    1.4368138   -105.11261   -14188.396    4.3785107    4.3785107    4.3785107   -14188.396   -39646.745    9529.0751   -12447.517   -200.22209    25363.289   -24617.372    83.941987 
   36700    1855.1886   -106.81026    1.6786136   -105.13164    47817.049    4.3561174    4.3561174    4.3561174    47817.049    44090.375    33591.271    65769.502   -2803.5656   -19664.086   -3806.3441    82.660631 
   36800    1736.3456   -106.79212     1.571082   -105.22104   -5816.4669    4.3907985    4.3907985    4.3907985   -5816.4669    2490.8793    13065.979   -33006.259    9627.7441    37227.594   -10201.103    84.650691 
   36900    1773.4448   -106.80187    1.6046502   -105.19722   -18444.495    4.4271236    4.4271236    4.4271236   -18444.495   -44172.769   -5534.3906   -5626.3257    4854.7524     3176.003   -10049.218    86.769067 
   37000      1779.18   -106.75439    1.6098395   -105.14455   -30027.635    4.4224425    4.4224425    4.4224425   -30027.635    -40472.33   -52804.557    3193.9822   -704.50239   -6355.0055    22022.671    86.494119 
   37100    1335.6099   -106.35311    1.2084879   -105.14462   -15615.998    4.3859039    4.3859039    4.3859039   -15615.998    245.27597   -14786.651   -32306.619   -3243.8916    49300.155   -9916.2377     84.36792 
   37200    2187.4804   -107.13037    1.9792783   -105.15109    55219.567    4.3526703    4.3526703    4.3526703    55219.567    72174.741    2498.4065    90985.555   -11233.684   -32621.625    2120.8924    82.464553 
   37300    1370.4996   -106.48772    1.2400568   -105.24766    6920.1689    4.3805716    4.3805716    4.3805716    6920.1689    47483.968   -35430.383    8706.9222    12373.044    17901.555    -19103.95    84.060573 
   37400    1763.8881   -106.81778     1.596003   -105.22177   -26644.547    4.4148965    4.4148965    4.4148965   -26644.547    21653.591    -60433.89   -41153.342    -20191.56   -5411.2618    7331.9199    86.052123 
   37500    1986.9429   -106.98326    1.7978277   -105.18544   -16176.082    4.4050212    4.4050212    4.4050212   -16176.082   -26891.834   -55738.137    34101.726    9740.7707   -11719.505   -2204.0157    85.475964 
   37600     1334.633   -106.39803     1.207604   -105.19042    25562.474    4.3778201    4.3778201    4.3778201    25562.474    115957.15   -38369.618   -900.11538    16423.593    34428.177   -2832.5667    83.902274 
   37700    1966.5722   -106.99073    1.7793959   -105.21133    12267.903    4.3714659    4.3714659    4.3714659    12267.903    21149.988   -26259.227    41912.947   -28477.267   -2571.7487   -6706.3963    83.537462 
   37800    1775.4133   -106.83718    1.6064312   -105.23075    15852.608    4.3788169    4.3788169    4.3788169    15852.608    35555.166    17807.438    -5804.779    18591.783    -2447.855    -6031.444    83.959597 
   37900    1378.6565   -106.49043    1.2474374   -105.24299   -24298.255    4.3981156    4.3981156    4.3981156   -24298.255   -12091.118   -19440.772   -41362.874   -11738.123    17168.845   -4529.0162    85.074602 
   38000    1969.5406    -106.9828    1.7820817   -105.20072   -14385.659    4.4091566    4.4091566    4.4091566   -14385.659     26001.61   -51162.721   -17995.868    6811.6775   -14750.705   -28695.469    85.716924 
   38100    1720.7458   -106.73138    1.5569669   -105.17441    13214.621    4.3852505    4.3852505    4.3852505    13214.621   -4356.5714   -2002.0002    46002.433    12012.524   -526.69154   -5802.9392    84.330218 
   38200    1196.2954   -106.26746    1.0824332   -105.18503    17230.707    4.3730923    4.3730923    4.3730923    17230.707   -23016.667    79627.164   -4918.3754   -29593.851    2715.1689    7401.9963    83.630739 
   38300    2186.8357   -107.17752    1.9786949   -105.19882    7905.8522    4.3895048    4.3895048    4.3895048    7905.8522    9164.7972     27814.12    -13261.36    5604.3165   -1560.4063    187.27267    84.575891 
   38400     1577.544   -106.63741     1.427395   -105.21001   -37515.017    4.4049923    4.4049923    4.4049923   -37515.017   -80714.467   -4891.9629   -26938.621   -43001.809    6935.9131   -2430.9667    85.474283 
   38500    1907.3935   -106.90387    1.7258497   -105.17802   -186.59276    4.3963668    4.3963668    4.3963668   -186.59276    5176.6154    26483.067   -32219.461    5586.6239   -11254.535    2415.1064    84.973156 
   38600    1721.4103   -106.71497    1.5575682    -105.1574    38855.743     4.375338     4.375338     4.375338    38855.743    38730.969    6079.3087    71756.952   -22330.211    6816.8642   -5078.7182    83.759647 
   38700     1605.435    -106.6382    1.4526314   -105.18557   -16125.441    4.3827362    4.3827362    4.3827362   -16125.441   -49141.451    34440.741   -33675.613   -21672.748   -16233.905   -6350.2569    84.185247 
   38800    2207.7653   -107.18811    1.9976325   -105.19048   -19036.327    4.3903785    4.3903785    4.3903785   -19036.327   -13756.178    -27663.54   -15689.262    30877.528   -16965.097   -4276.5714    84.626406 
   38900    1970.2862   -106.97296    1.7827564    -105.1902    30089.619    4.3794387    4.3794387    4.3794387    30089.619   -3326.2072    43476.851    50118.212     -35689.9    15368.018    3288.6516    83.995369 
   39000    1497.2859   -106.56942    1.3547758   -105.21465   -3399.8372    4.3900787    4.3900787    4.3900787   -3399.8372    339.66626   -18453.983    7914.8057    4359.7818   -11126.553   -13841.183    84.609069 
   39100    2012.7311   -107.01455    1.8211614   -105.19339   -24434.104    4.4021039    4.4021039    4.4021039   -24434.104   -9790.9929   -36902.802   -26608.517    905.25691   -7201.6809    6169.0169     85.30625 
   39200     1788.278      -106.79    1.6180715   -105.17193     17103.43    4.3873021    4.3873021    4.3873021     17103.43    29801.273    37071.512   -15562.495   -16960.512    964.69075   -9731.3337     84.44863 
   39300    1716.3848   -106.73462     1.553021    -105.1816    4308.1414    4.3816914    4.3816914    4.3816914    4308.1414    46196.789   -40386.268    7113.9032    37975.474   -20687.237    622.07871    84.125057 
   39400    2231.6828   -107.21375    2.0192735   -105.19448   -42846.566    4.4044563    4.4044563    4.4044563   -42846.566   -47456.992   -11012.497    -70070.21    11898.355    5349.2178   -4226.1964    85.443082 
   39500    1244.7048   -106.30057     1.126235   -105.17433    12715.754    4.4051946    4.4051946    4.4051946    12715.754    65354.488    4465.6819    -31672.91    6232.3688    6514.9289   -16298.046     85.48606 
   39600    2479.8928   -107.39251    2.2438591   -105.14865   -27275.199    4.4066072    4.4066072    4.4066072   -27275.199   -32431.081   -19370.837    -30023.68    9016.2072    6580.2352    7110.6127    85.568325 
   39700    2008.8623   -106.95396    1.8176608   -105.13629   -39170.154    4.4103314    4.4103314    4.4103314   -39170.154   -8837.4267   -52217.351   -56455.684    -16086.93    10679.506    -3231.774     85.78546 
   39800    1664.5428   -106.64751    1.5061133   -105.14139   -18537.371    4.3916492    4.3916492    4.3916492   -18537.371   -9160.6837   -36600.585   -9850.8445    35043.382   -14187.975    919.17264    84.699906 
   39900    2405.9642   -107.33046    2.1769669   -105.15349    4765.1338    4.3805195    4.3805195    4.3805195    4765.1338   -7960.1686    19111.746    3143.8238   -6987.0231     1556.841   -1680.7236    84.057577 
   40000    1356.0026   -106.43976    1.2269396   -105.21282   -18359.382    4.3878313    4.3878313    4.3878313   -18359.382   -31259.443   -55905.447    32086.743    12824.248    2725.0457     2418.848    84.479194 
   40100    1575.9009   -106.64013    1.4259083   -105.21423    11674.497    4.3943784    4.3943784    4.3943784    11674.497    66921.781   -37872.695    5974.4059    384.40115   -5279.2902    10306.268    84.857913 
   40200     1806.477   -106.83461    1.6345383   -105.20007   -12708.943    4.3995961    4.3995961    4.3995961   -12708.943   -14340.436    34069.418   -57855.812   -3103.9121    16922.033   -5853.5703    85.160544 
   40300    1374.9692   -106.43626     1.244101   -105.19216   -10917.882    4.3825546    4.3825546    4.3825546   -10917.882   -9509.8345   -12070.741    -11173.07    21380.579   -12408.645   -12075.786    84.174786 
   40400    2198.4113   -107.18291    1.9891687   -105.19374    17778.193    4.3887374    4.3887374    4.3887374    17778.193   -5030.4197        55124    3241.0001   -3165.0579    1300.5453    6122.7947    84.531541 
   40500    1055.4446   -106.15198   0.95498841   -105.19699   -5667.0527     4.413591     4.413591     4.413591   -5667.0527    23133.267    2769.6926   -42904.117    57293.165   -2054.9215   -1268.9911    85.975806 
   40600    1232.3473   -106.28519    1.1150537   -105.17014   -27464.468    4.3997295    4.3997295    4.3997295   -27464.468    7666.8332   -42485.784   -47574.454     33365.26   -10532.584   -4104.8329    85.168291 
   40700    2049.5304   -106.99258    1.8544582   -105.13812    37022.495    4.3637784    4.3637784    4.3637784    37022.495    86355.483    36535.069   -11823.069    742.01229    1810.8457   -13386.682    83.097521 
   40800    1876.1478    -106.8991    1.6975779   -105.20153   -23308.051    4.3807994    4.3807994    4.3807994   -23308.051   -56364.116    22320.435   -35880.472    50565.039   -21542.741    2173.5752     84.07369 
   40900    1520.5859   -106.57738     1.375858   -105.20152   -22578.833    4.4052981    4.4052981    4.4052981   -22578.833    15738.494   -30987.642   -52487.351   -32706.173   -4432.5175   -12387.126    85.492084 
   41000    1888.3352   -106.88858    1.7086054   -105.17998   -1437.3239    4.3813374    4.3813374    4.3813374   -1437.3239   -10090.646    4968.3754    810.29915    25495.612   -563.88045   -3915.5401    84.104666 
   41100    1145.5987   -106.22607    1.0365618    -105.1895    40463.967    4.3766624    4.3766624    4.3766624    40463.967    67002.551    63249.857   -8860.5083    3708.4636   -11677.918   -6292.1532     83.83573 
   41200    1798.6978   -106.82094    1.6274996   -105.19344    -5502.054    4.3887356    4.3887356    4.3887356    -5502.054    -28168.01    54082.331   -42420.483   -20822.438    12716.126   -994.71416    84.531437 
   41300    1300.0568   -106.37311    1.1763187    -105.1968    15188.711    4.3852814    4.3852814    4.3852814    15188.711    93328.801    6546.7861   -54309.454    12153.649   -23565.304     1965.493       84.332 
   41400    1308.1251   -106.40024     1.183619   -105.21663   -12782.524    4.3786343    4.3786343    4.3786343   -12782.524    71459.551   -59242.851   -50564.272   -4911.6423    19032.238   -12043.995    83.949099 
   41500    2175.0913   -107.19865    1.9680684   -105.23058   -8696.1024    4.3611498    4.3611498    4.3611498   -8696.1024   -17772.311   -8633.5926     317.5962   -51678.978   -21790.186    9304.6654    82.947444 
   41600    1959.5251   -107.03372    1.7730195    -105.2607    4108.7048    4.3740833    4.3740833    4.3740833    4108.7048    37246.314    41654.826   -66575.025    22243.316    3935.5126   -2695.1705    83.687607 
   41700    1233.5046   -106.35852    1.1161009   -105.24241   -28593.038    4.3976865    4.3976865    4.3976865   -28593.038   -4093.3662    -32251.26   -49434.488   -38165.049    11791.598   -4958.5574    85.049704 
   41800    2131.9557   -107.12842    1.9290383   -105.19938    5544.1209     4.388693     4.388693     4.388693    5544.1209    17107.921    16052.195   -16527.753   -2848.7294   -20549.589   -3041.1553    84.528975 
   41900    1827.3262   -106.84871    1.6534032   -105.19531    9322.9228    4.3834956    4.3834956    4.3834956    9322.9228    52179.386    30184.781   -54395.398     6788.769    2643.7645    7863.5047    84.229016 
   42000     1469.941   -106.53633    1.3300335    -105.2063    76.002655    4.3662208    4.3662208    4.3662208    76.002655   -15767.843    22389.038   -6393.1869   -26765.322   -5744.2065    11114.026     83.23713 
   42100    1786.4956   -106.83158    1.6164588   -105.21513    44991.032    4.3693451    4.3693451    4.3693451    44991.032    69275.863    89508.059   -23810.827    5346.3475    8230.0389   -13532.559    83.415939 
   42200    2171.6991   -107.16907     1.964999   -105.20407   -27443.407     4.396703     4.396703     4.396703   -27443.407   -3250.0967   -38425.778   -40654.347   -12186.672   -2936.2788    4227.9557    84.992655 
   42300    1473.7078   -106.52435    1.3334417    -105.1909   -2070.6775    4.3845786    4.3845786    4.3845786   -2070.6775   -33074.256    55809.313    -28947.09    2885.7571   -14889.198   -9181.1152     84.29146 
   42400    1633.9568   -106.66205    1.4784384   -105.18361    20826.592    4.3699665    4.3699665    4.3699665    20826.592   -1067.3611    35779.972    27767.164   -18191.228    21118.401   -4933.1064    83.451535 
   42500    1754.4983   -106.78732    1.5875069   -105.19982    16341.524    4.3611878    4.3611878    4.3611878    16341.524   -12856.562    56062.448    5818.6851   -12323.636   -29849.369   -14697.263    82.949612 
   42600    1682.8861   -106.73594    1.5227107   -105.21323   -6328.2574    4.3757373    4.3757373    4.3757373   -6328.2574    -423.3987     12455.25   -31016.624    10027.921    11298.482     11273.18     83.78258 
   42700    1474.9328   -106.53571    1.3345502   -105.20116   -4865.6472     4.381281     4.381281     4.381281   -4865.6472   -13833.858   -12159.466    11396.383   -38432.586   -5797.8414     3001.353    84.101416 
   42800    1821.6278   -106.83822    1.6482471   -105.18997     2101.231    4.3731592    4.3731592    4.3731592     2101.231    -10809.54   -3392.2026    20505.435    21629.579    -10670.88    2973.3105    83.634578 
   42900    1769.1893   -106.79165    1.6007996   -105.19085   -20989.721    4.3802599    4.3802599    4.3802599   -20989.721   -48386.999   -20380.153    5797.9892   -16173.831    8327.3924   -11223.645    84.042629 
   43000    1387.4822   -106.43376    1.2554231   -105.17834    21824.956    4.3783666    4.3783666    4.3783666    21824.956    26639.953   -26105.235     64940.15   -51782.557   -4926.7093   -9348.9206    83.933701 
   43100    1271.3432   -106.32447    1.1503381   -105.17413    13559.058    4.3744333    4.3744333    4.3744333    13559.058    55141.439   -43010.153    28545.888    19562.663    6556.5381   -1534.9211      83.7077 
   43200    1653.0428   -106.66811    1.4957078    -105.1724   -16208.717    4.3876716    4.3876716    4.3876716   -16208.717   -12935.264   -22359.446   -13331.442   -16577.265    12251.409    -12775.76    84.469973 
   43300    1573.0667   -106.58736    1.4233438   -105.16402    19022.509    4.3837983    4.3837983    4.3837983    19022.509    89690.485   -59783.806     27160.85    15461.199   -18215.525     1524.413    84.246466 
   43400     1722.593   -106.74555    1.5586384   -105.18691   -8554.2107    4.3704347    4.3704347    4.3704347   -8554.2107   -153.00248   -33649.985    8140.3549   -15109.186    6554.3438    7422.5421    83.478359 
   43500    1775.2838   -106.78737    1.6063141   -105.18106    60828.424    4.3557529    4.3557529    4.3557529    60828.424    80940.824    71213.228     30331.22    17252.879   -3745.4101    1968.2916    82.639883 
   43600     1040.021   -106.15584   0.94103281    -105.2148    15795.909    4.3778036    4.3778036    4.3778036    15795.909    26637.289   -26066.792     46817.23    637.86651   -2926.8669    23340.876    83.901325 
   43700    2455.1098    -107.3876    2.2214349   -105.16617   -20565.779    4.3933244    4.3933244    4.3933244   -20565.779   -17282.406   -42019.726   -2395.2048   -13809.213   -9095.4251    333.27513     84.79687 
   43800    1115.9785   -106.18789    1.0097608   -105.17813     23807.06    4.3655809    4.3655809    4.3655809     23807.06    28502.145    6272.5276    36646.506    36519.467    6420.8869    992.35782    83.200534 
   43900     1932.261   -106.91539    1.7483504   -105.16704    19075.419    4.3538477    4.3538477    4.3538477    19075.419     58306.36   -10698.155    9618.0515    -28349.97   -13739.519    32017.516     82.53149 
   44000    1417.5819   -106.46839    1.2826579   -105.18574   -19902.724    4.3725489    4.3725489    4.3725489   -19902.724   -19019.032   -70071.426    29382.285    51212.527   -9364.4162   -15984.702    83.599564 
   44100    1384.1829   -106.44178    1.2524378   -105.18934    9445.0992    4.3776622    4.3776622    4.3776622    9445.0992    50410.286   -27614.424     5539.435    -3360.501   -4871.5993    20338.442    83.893194 
   44200    1916.8222   -106.91129     1.734381   -105.17691    4685.9971    4.3796958    4.3796958    4.3796958    4685.9971   -23892.948    8790.6647    29160.275    22193.767    -5809.085     2774.617    84.010168 
   44300    1407.2102   -106.45242    1.2732734   -105.17914    7418.1601    4.3627494    4.3627494    4.3627494    7418.1601   -16305.979    6078.0797     32482.38     28622.39   -429.22121    26335.804     83.03875 
   44400    1437.4139   -106.48737    1.3006023   -105.18677    33236.326    4.3658743    4.3658743    4.3658743    33236.326    883.88502    59376.896    39448.195    6720.6017    3751.7174    28677.065    83.217311 
   44500    1743.5597   -106.76714    1.5776094   -105.18953   -1824.1032    4.3883921    4.3883921    4.3883921   -1824.1032   -38953.388   -22211.753    55692.831    36067.487   -5545.0845    15706.035     84.51159 
   44600    1446.3869   -106.48021    1.3087212   -105.17149    4075.4481    4.3929982    4.3929982    4.3929982    4075.4481   -9850.8053   -10960.095    33037.244   -14965.616    12939.242    45552.567    84.777984 
   44700    1467.5412   -106.49871    1.3278621   -105.17085    -3730.223    4.3816866    4.3816866    4.3816866    -3730.223    -1787.707   -8015.0236   -1387.9384    36200.633    20827.476    -12322.74    84.124781 
   44800    1851.0516   -106.84755    1.6748704   -105.17268    25123.215    4.3659162    4.3659162    4.3659162    25123.215    77362.899    3991.9214   -5985.1741   -9347.7341    335.23999     20169.26    83.219706 
   44900    1460.4329   -106.52149    1.3214304   -105.20006   -5547.3767    4.3681182    4.3681182    4.3681182   -5547.3767    29581.925   -28915.827   -17308.228    27032.329    11399.297   -11920.856     83.34569 
   45000    1482.7264    -106.5404     1.341602    -105.1988   -8925.9194     4.384499     4.384499     4.384499   -8925.9194    4223.5855   -15614.415   -15386.928    23838.889    1868.6132   -2302.2014     84.28687 
   45100    1754.0208   -106.77695    1.5870749   -105.18987   -3554.2247    4.3812252    4.3812252    4.3812252   -3554.2247    22312.481   -6029.5279   -26945.627   -3604.8162    13646.397    12013.711    84.098207 
   45200    1449.9661   -106.48493    1.3119598   -105.17297    14127.976    4.3812294    4.3812294    4.3812294    14127.976    3218.1196    35592.494    3573.3141    45818.931    1800.8431   -21427.466    84.098449 
   45300     1901.427     -106.884    1.7204511   -105.16355   -3443.9968    4.3864642    4.3864642    4.3864642   -3443.9968     14129.17   -2030.6135   -22430.547   -10082.249    1267.2771     12780.75    84.400257 
   45400    1289.5978    -106.3452    1.1668552   -105.17834    292.93248    4.3837473    4.3837473    4.3837473    292.93248    34555.402    5119.9792   -38796.584    27218.029     7821.747   -38384.585    84.243523 
   45500    2037.7793   -107.01994    1.8438255   -105.17611   -10593.575    4.3827023    4.3827023    4.3827023   -10593.575    3308.8311    16795.671   -51885.228    -14510.44   -10905.133    18774.867    84.183295 
   45600    1444.5417    -106.5004    1.3070517   -105.19335   -26268.694    4.3659156    4.3659156    4.3659156   -26268.694   -4039.2221   -42348.185   -32418.677   -2107.9931    6770.4697   -32113.791    83.219672 
   45700    2083.5808   -107.07392    1.8852677   -105.18865    27014.032     4.354547     4.354547     4.354547    27014.032    31051.627    44840.104    5150.3643    3435.0399   -6219.6294    -8028.481    82.571268 
   45800    910.10995   -106.04112   0.82348661   -105.21763   -12641.812    4.3783412    4.3783412    4.3783412   -12641.812   -6908.4852   -13668.123   -17348.829   -33994.224    4340.0318    5670.2834    83.932237 
   45900    1936.7777   -106.92583    1.7524371   -105.17339   -17420.073    4.3924879    4.3924879    4.3924879   -17420.073    1269.8804   -27369.886   -26160.213   -9723.6927    6922.3291    -22902.99    84.748442 
   46000    1538.5783   -106.55461     1.392138   -105.16247    2391.3165    4.3928509    4.3928509    4.3928509    2391.3165   -18277.515    38797.101   -13345.637   -4676.7113    -14960.12    17003.491    84.769456 
   46100    1619.6524   -106.62656    1.4654955   -105.16106   -3162.0811    4.3779011    4.3779011    4.3779011   -3162.0811    3858.3951   -24470.513    11125.874   -29895.292    6471.4226   -12838.897    83.906931 
   46200    1660.5461   -106.65777     1.502497   -105.15527    37677.789    4.3681084    4.3681084    4.3681084    37677.789    23473.788    64206.638    25352.942    21656.168    1084.9134     14267.65    83.345131 
   46300    1563.7163   -106.60168    1.4148834    -105.1868    11653.227    4.3772727    4.3772727    4.3772727    11653.227    44973.004    9631.7632   -19645.084   -8592.1728   -2448.6252   -13302.718    83.870804 
   46400    2055.2332   -107.04676    1.8596182   -105.18715    -18701.21    4.3862383    4.3862383    4.3862383    -18701.21   -43709.273    -9874.617   -2519.7404    12436.768    13187.015   -3308.6186    84.387221 
   46500     1209.204   -106.28917    1.0941132   -105.19505     24586.39    4.3698062    4.3698062    4.3698062     24586.39   -41549.599    63040.747    52268.021    31973.516    1984.0625     5438.271    83.442353 
   46600    1983.6745   -106.97348    1.7948704   -105.17861    35207.441    4.3657388    4.3657388    4.3657388    35207.441    27054.966    45390.981    33176.376   -20872.899    855.62478    6571.5038    83.209567 
   46700    1436.9672   -106.49071    1.3001982   -105.19051   -7607.5647    4.3822988    4.3822988    4.3822988   -7607.5647   -50931.935   -9005.1594    37114.401    28796.354    27087.829   -2716.9647    84.160042 
   46800    1649.9057   -106.66937    1.4928694    -105.1765    26848.596    4.3871545    4.3871545    4.3871545    26848.596   -8116.7588    39295.458    49367.089   -5070.5729   -20757.503     15299.84    84.440107 
   46900    1612.2868   -106.63811     1.458831   -105.17928   -25983.414    4.3784672    4.3784672    4.3784672   -25983.414   -61749.769   -3085.5919    -13114.88    12203.965     49564.58   -518.45766    83.939488 
   47000    1938.6052    -106.9324    1.7540907   -105.17831    8088.3898    4.3621394    4.3621394    4.3621394    8088.3898    -10471.17    25351.067    9385.2723    23002.066   -12887.409   -1385.6453    83.003925 
   47100    1896.6217   -106.90779    1.7161031   -105.19169    9431.8035     4.373358     4.373358     4.373358    9431.8035    27435.361    12734.153   -11874.103    9674.2024     13125.93    12061.337    83.645983 
   47200    1508.7438   -106.56448    1.3651431   -105.19934    -39701.58    4.3919443    4.3919443    4.3919443    -39701.58   -65873.986   -28828.554   -24402.201     24183.89    38287.791   -3759.2647    84.716981 
   47300     2092.022   -107.05644    1.8929055   -105.16354     13850.18    4.3873708    4.3873708    4.3873708     13850.18    64920.185   -4065.8972   -19303.747   -3996.1832   -24574.884    12931.815    84.452597 
   47400    1261.2168   -106.30975    1.1411755   -105.16857     -4646.99    4.3792913    4.3792913    4.3792913     -4646.99    6464.0633    10944.703   -31349.737    16652.386    44436.193   -5376.0695     83.98689 
   47500    2215.1716   -107.17746    2.0043339   -105.17312   -8259.7538    4.3668562    4.3668562    4.3668562   -8259.7538    59511.731   -56771.485   -27519.507    15796.458   -13685.046    24008.028    83.273473 
   47600    1300.6289   -106.38618    1.1768364   -105.20934   -3212.8975    4.3802672    4.3802672    4.3802672   -3212.8975    5040.7054    5680.0496   -20359.448    10233.706    25802.996    6809.5043     84.04305 
   47700    1580.6294    -106.6365    1.4301867   -105.20631   -43337.726    4.3766733    4.3766733    4.3766733   -43337.726   -55116.684   -33570.556   -41325.938    40724.195    30080.103     5303.743    83.836357 
   47800    2185.1038   -107.15776    1.9771278   -105.18063    14336.618    4.3667506    4.3667506    4.3667506    14336.618    82164.803   -15345.796   -23809.152   -11357.573   -20778.472    30560.057     83.26743 
   47900    1471.1699   -106.52671    1.3311454   -105.19556   -47099.427    4.3898492    4.3898492    4.3898492   -47099.427   -75756.999   -15349.582   -50191.702    36917.309    37194.509   -8287.3537      84.5958 
   48000    1148.6724   -106.23082     1.039343   -105.19147   -15167.198    4.3815195    4.3815195    4.3815195   -15167.198    56933.824   -73583.522   -28851.898    18322.876    5571.9477    42943.266    84.115154 
   48100    2450.4252   -107.40302    2.2171962   -105.18583    16424.267    4.3538042    4.3538042    4.3538042    16424.267     63240.43    908.09416   -14875.724     2996.036    -20833.11    4944.0481    82.529016 
   48200    1216.3915   -106.33048    1.1006166   -105.22987   -2090.6546    4.3546796    4.3546796    4.3546796   -2090.6546    33060.602   -28922.887   -10409.679    1943.9579    24577.958    18514.483     82.57881 
   48300    1704.3129   -106.78491    1.5420981   -105.24281    -1118.239    4.3800399    4.3800399    4.3800399    -1118.239    46258.994   -35010.096   -14603.615    6804.8883   -10766.491    21099.468    84.029967 
   48400     2076.246   -107.07608     1.878631   -105.19745   -23579.453    4.4039065    4.4039065    4.4039065   -23579.453   -23486.612   -16330.176   -30921.571   -6771.5181    1675.8712   -2085.4668    85.411092 
   48500    1561.2331   -106.57816    1.4126365   -105.16553   -38757.297    4.3955619    4.3955619    4.3955619   -38757.297    4991.2901   -58648.409   -62614.772    11418.598    27.097094    46221.097    84.926494 
   48600     2430.905   -107.33785    2.1995339   -105.13832    13075.019    4.3710112    4.3710112    4.3710112    13075.019    29834.029   -4986.4146    14377.442   -12218.622   -21658.959    2236.8862    83.511397 
   48700     1658.262   -106.66971    1.5004303   -105.16928   -24456.554    4.3791669    4.3791669    4.3791669   -24456.554   -15572.225   -28383.666   -29413.773    24537.898    7001.7136    23478.366    83.979735 
   48800    1867.2832   -106.86312    1.6895571   -105.17356    129.89563    4.3897661    4.3897661    4.3897661    129.89563   -39203.485   -6872.2826    46465.454    17306.331   -13308.137    22775.919    84.590998 
   48900    1656.2863   -106.66884    1.4986426    -105.1702   -22402.149    4.3895197    4.3895197    4.3895197   -22402.149   -42618.252   -16477.435   -8110.7607   -15316.008    21298.032   -10004.388     84.57675 
   49000    1291.0924   -106.34553    1.1682075   -105.17732   -1899.8963    4.3774008    4.3774008    4.3774008   -1899.8963   -18786.385   -21716.366    34803.062    13685.453   -65.386705     17869.91    83.878168 
   49100    1990.8715   -106.97434    1.8013824   -105.17296    36423.609    4.3698126    4.3698126    4.3698126    36423.609   -8324.8561    47985.314    69610.368    311.28027   -5283.8545   -17592.355    83.442714 
   49200    1283.6375   -106.36752    1.1614622   -105.20606   -13586.791    4.3817297    4.3817297    4.3817297   -13586.791    10197.359    -49562.27   -1395.4634    11644.483    3294.3113    7424.5467    84.127263 
   49300    1978.9144    -106.9805    1.7905633   -105.18994   -22818.603    4.3935937    4.3935937    4.3935937   -22818.603   -45424.241   -50919.272    27887.703    2085.4147   -6529.1772   -6179.6997    84.812464 
   49400    1778.9101   -106.78712    1.6095952   -105.17753   -15051.485    4.3806833    4.3806833    4.3806833   -15051.485   -61095.732    37028.242   -21086.965    -4565.318    19822.608   -5552.9787    84.067006 
   49500    1680.2064   -106.69459    1.5202861   -105.17431   -14570.383    4.3637814    4.3637814    4.3637814   -14570.383    7750.9118   -38578.618   -12883.444    25017.251    5136.7733    30691.022    83.097693 
   49600    1688.7376   -106.72343    1.5280053   -105.19542    13917.094    4.3681063    4.3681063    4.3681063    13917.094    14399.428    1413.0203    25938.834   -22077.717    1855.3662   -2764.6879     83.34501 
   49700    1894.0088   -106.92375    1.7137389   -105.21001    -21397.18    4.3760733    4.3760733    4.3760733    -21397.18   -19011.997    11760.642   -56940.185    31859.363    24143.081    27689.617    83.801878 
   49800    1668.4856   -106.70934    1.5096808   -105.19966   -23376.532    4.3910292    4.3910292    4.3910292   -23376.532   -24112.131   -62061.223    16043.758   -15765.403    2292.1645    6919.1525    84.664038 
   49900     1915.489   -106.90222    1.7331747   -105.16905   -7415.2294     4.390026     4.390026     4.390026   -7415.2294    3499.6934   -23072.607   -2672.7749   -12413.823    368.81612    7339.2887     84.60602 
   50000    1066.4896   -106.14494   0.96498221   -105.17996    19364.827    4.3540941    4.3540941    4.3540941    19364.827    6503.9266    72426.369   -20835.816    2868.4779    2496.7578    31485.332    82.545508 
   50100    2071.5351   -107.07352    1.8743685   -105.19915    15949.881    4.3527089    4.3527089    4.3527089    15949.881   -2904.0771    6369.8642    44383.856    1187.1426   -17721.494    456.08856    82.466748 
   50200    1575.2338   -106.64325    1.4253046   -105.21795    17998.972    4.3887366    4.3887366    4.3887366    17998.972    32314.924    45280.378   -23598.388    10673.388   -3899.9427    19230.918    84.531494 
   50300    1312.9737   -106.37787    1.1880062   -105.18986   -22581.463    4.4033723    4.4033723    4.4033723   -22581.463   -36686.179    4402.7424   -35460.954   -1366.5781   -3812.3626    3821.3155    85.380014 
   50400    2295.6665   -107.24037    2.0771673    -105.1632    -1262.074    4.3730677    4.3730677    4.3730677    -1262.074   -18737.044    2447.1296    12503.693    12216.912    2177.7665    23122.315    83.629327 
   50500    1455.4081   -106.47335    1.3168838   -105.15647    47332.121    4.3449385    4.3449385    4.3449385    47332.121    23005.919    54141.565     64848.88   -15078.083   -1040.1963    16871.882     82.02588 
   50600     1774.628   -106.79752    1.6057207    -105.1918    32547.839    4.3596298    4.3596298    4.3596298    32547.839    5373.8776    49311.988    42957.652   -17283.497    526.13092   -7147.3254    82.860744 
   50700    1392.8293   -106.46876    1.2602612    -105.2085     19717.68    4.3902921    4.3902921    4.3902921     19717.68   -20503.178    28088.839     51567.38    1143.4144    2681.4018    37466.483     84.62141 
   50800     1858.868   -106.86702    1.6819429   -105.18508   -43632.777    4.4015105    4.4015105    4.4015105   -43632.777   -74683.642   -75838.529    19623.841   -26829.116   -3183.0776    -19609.62    85.271762 
   50900    2215.2474   -107.18418    2.0044024   -105.17978    42159.679    4.3509327    4.3509327    4.3509327    42159.679    20654.825    72150.983     33673.23    9022.9595   -3088.3968    25589.786    82.365831 
   51000    1269.9638   -106.32889    1.1490899    -105.1798    26073.811    4.3253644    4.3253644    4.3253644    26073.811    37831.373   -15354.974    55745.036   -28116.987    8997.6118   -2662.2121    80.922281 
   51100    1742.5994   -106.80899    1.5767406   -105.23225   -11738.293     4.369923     4.369923     4.369923   -11738.293   -39825.774    11905.386   -7294.4916   -10925.444   -10375.962   -18515.088    83.449041 
   51200    2145.2432   -107.13503    1.9410611   -105.19397    -21282.05    4.3922005    4.3922005    4.3922005    -21282.05   -25950.509   -33148.545   -4747.0956   -5040.7017    10354.182     25001.34    84.731809 
   51300    1230.8878   -106.30198    1.1137331   -105.18825   -28467.247    4.3866791    4.3866791    4.3866791   -28467.247    -37258.12   -37511.486   -10632.133   -24363.305    -1265.334   -28030.347     84.41266 
   51400    1863.7822   -106.85957    1.6863893   -105.17318   -4883.6448    4.3671338    4.3671338    4.3671338   -4883.6448   -38247.199    16619.496    6976.7689    3214.4864   -21488.113    10587.278    83.289356 
   51500    1679.9211   -106.69369    1.5200279   -105.17366    43656.414    4.3448975    4.3448975    4.3448975    43656.414    55111.031    20869.767    54988.444       -29111   -1999.0458   -31454.201    82.023559 
   51600    1430.2131    -106.5236    1.2940869   -105.22952     12426.35    4.3746898    4.3746898    4.3746898     12426.35    -5693.397    11880.756    31091.691   -3037.0199   -274.94638   -10453.131    83.722422 
   51700    2032.2777    -107.0062    1.8388476   -105.16735   -44917.129    4.4054319    4.4054319    4.4054319   -44917.129   -60797.775   -54839.623   -19113.989   -7682.8476     21205.59    6299.7358    85.499873 
   51800    1446.5566   -106.45292    1.3088748   -105.14404    998.38247    4.3842616    4.3842616    4.3842616    998.38247    13799.638   -7663.9765   -3140.5145   -19817.889   -636.51481   -13861.132     84.27318 
   51900    1919.3253   -106.88144    1.7366458   -105.14479    4381.0258    4.3701008    4.3701008    4.3701008    4381.0258    16812.712    21790.083   -25459.717    8037.5418   -2771.9723    21631.386    83.459226 
   52000    1531.8708    -106.5711    1.3860689   -105.18503   -18930.659    4.3553341    4.3553341    4.3553341   -18930.659   -27979.365   -53083.651    24271.038   -44909.756    5455.0016   -9831.9584    82.616052 
   52100    2327.2138   -107.31614    2.1057119   -105.21042     21343.57    4.3581361    4.3581361    4.3581361     21343.57    42463.022    21837.664   -269.97566    7012.8089    1266.1929    7895.7756    82.775605 
   52200    1276.0758   -106.38086    1.1546202   -105.22624     -18787.6    4.3956191    4.3956191    4.3956191     -18787.6   -23227.907   -6471.2183   -26663.676   -37875.985    11695.904    2954.3667    84.929808 
   52300    1286.7093   -106.36121    1.1642416   -105.19697   -32909.215    4.3871682    4.3871682    4.3871682   -32909.215    -36456.72   -73305.885     11034.96   -19472.863    506.33988     -21385.1    84.440898 
   52400    2115.5203   -107.07727    1.9141673   -105.16311     21164.92    4.3542579    4.3542579    4.3542579     21164.92    31434.942    49493.522   -17433.703    9667.0203   -283.49334     11363.47    82.554824 
   52500    1425.9189   -106.48109    1.2902014   -105.19088    33253.458    4.3543702    4.3543702    4.3543702    33253.458    28068.695    77763.709   -6072.0297   -55819.161    4697.5297   -21043.396    82.561212 
   52600    1681.6314   -106.73425    1.5215754   -105.21267   -5734.3612    4.3791281    4.3791281    4.3791281   -5734.3612    -22394.25    26455.435   -21264.269    9326.4647   -10385.043   -14654.937    83.977501 
   52700    1633.3188   -106.67327    1.4778612   -105.19541   -19504.477    4.3887449    4.3887449    4.3887449   -19504.477   -43227.418    24776.696   -40062.709   -12578.552    14852.945    23190.052    84.531974 
   52800    1691.3675   -106.71571    1.5303849   -105.18533   -19212.346    4.3701076    4.3701076    4.3701076   -19212.346    450.64351    -71521.56     13433.88    -6264.036   -5049.7059   -35027.686    83.459616 
   52900    2284.2646   -107.24824    2.0668506   -105.18139    25457.479    4.3509518    4.3509518    4.3509518    25457.479   -595.21036    49914.426     27053.22    8155.0013    12440.375    7485.6014    82.366916 
   53000    1220.8206   -106.32301    1.1046241   -105.21839    12246.513    4.3449169    4.3449169    4.3449169    12246.513   -4248.4123    6319.7992    34668.153   -28714.194    5376.7929    1216.6982    82.024654 
   53100    1651.8355   -106.73435    1.4946155   -105.23974    10947.382    4.3679374    4.3679374    4.3679374    10947.382   -15540.761    25017.937     23364.97   -2403.5784   -7846.0875   -38623.826     83.33534 
   53200    1874.3414   -106.89643    1.6959435   -105.20049    -7649.891    4.3893854    4.3893854    4.3893854    -7649.891    3453.2811   -35726.789    9323.8346   -16564.204    10420.869    17169.927     84.56899 
   53300    1458.1031   -106.50893    1.3193223   -105.18961   -9463.6532    4.3598466    4.3598466    4.3598466   -9463.6532    12294.081   -63078.715    22393.674   -29702.969    3781.4581   -23122.083    82.873109 
   53400    2132.8684   -107.10185    1.9298641   -105.17199    20199.831    4.3424377    4.3424377    4.3424377    20199.831   -3198.7097    13994.365    49803.837     12788.74   -31127.331    5042.5941     81.88433 
   53500    1291.8048   -106.37161    1.1688521   -105.20276   -2626.7544    4.3553965    4.3553965    4.3553965   -2626.7544    2112.3253    -46911.64    36919.051   -28018.598    8233.9926   -15045.403    82.619601 
   53600    1640.6688   -106.68645    1.4845116   -105.20194    2285.4217    4.3667892    4.3667892    4.3667892    2285.4217   -26950.723    15334.665    18472.323   -8412.2004   -11564.172     -3479.55    83.269639 
   53700    1985.7283   -106.99378    1.7967287   -105.19705   -19773.234    4.3712418    4.3712418    4.3712418   -19773.234   -23462.999   -30177.204   -5679.4978    16465.988   -14466.793     5891.669    83.524616 
   53800    1369.7841   -106.43955    1.2394095   -105.20014     -6451.33    4.3591265    4.3591265    4.3591265     -6451.33   -8990.1299   -13494.753    3130.8927    -14773.85    18194.401   -11280.812    82.832053 
   53900    2058.2902     -107.049    1.8623842   -105.18662    8810.7523    4.3466317    4.3466317    4.3466317    8810.7523   -28944.333    32613.708    22762.882    14473.228   -5313.9854    17051.536    82.121812 
   54000    1242.6237   -106.34178     1.124352   -105.21742   -26194.237    4.3558897    4.3558897    4.3558897   -26194.237   -46431.063   -38625.829    6474.1816    23560.479   -1440.2757   -24082.849     82.64767 
   54100    2023.5846   -107.04041    1.8309818   -105.20943    1684.7938    4.3668183    4.3668183    4.3668183    1684.7938   -13026.578     41759.82   -23678.861    -20608.67    23336.481    5625.7769    83.271304 
   54200     1557.938    -106.6147    1.4096551   -105.20505   -40902.838    4.3716256    4.3716256    4.3716256   -40902.838    -68824.37   -47978.924    -5905.221    47129.995   -6696.2143   -13036.108     83.54662 
   54300    1274.3866   -106.35653    1.1530918   -105.20343   -10070.967    4.3574691    4.3574691    4.3574691   -10070.967   -12023.732    2496.6653   -20685.835    -25961.74    13382.301   -15701.428    82.737608 
   54400    2172.2633   -107.15298    1.9655095   -105.18747    13319.446    4.3393343    4.3393343    4.3393343    13319.446   -19111.795    33664.532    25405.601    38023.485    3426.7356     7201.659    81.708895 
   54500    1545.9845   -106.61748    1.3988393   -105.21864   -7145.7641    4.3608323    4.3608323    4.3608323   -7145.7641   -5074.1357   -34293.086    17929.929    4305.9584   -11368.248   -21725.072    82.929329 
   54600    1777.1395   -106.79656    1.6079932   -105.18857   -29802.642    4.3804771    4.3804771    4.3804771   -29802.642   -66953.943    10311.472   -32765.455   -12858.744    17753.705    7888.3784    84.055133 
   54700    1472.2473   -106.51231    1.3321203   -105.18019   -3242.7972     4.368049     4.368049     4.368049   -3242.7972   -40299.131   -5169.0191    35739.758     45349.34   -1.7851498   -3411.1814    83.341728 
   54800    2078.1585   -107.05542    1.8803615   -105.17506   -2364.6577    4.3573117    4.3573117    4.3573117   -2364.6577   -12690.893   -932.86362    6529.7835   -44838.008   -5650.6994   -7837.6071    82.728642 
   54900    1868.6767   -106.87357     1.690818   -105.18275    2566.8043    4.3599481    4.3599481    4.3599481    2566.8043   -9604.2839    33759.252   -16454.556    37124.799    11192.442    25124.716    82.878895 
   55000    1518.7268   -106.56934    1.3741759   -105.19516   -12630.186    4.3636322    4.3636322    4.3636322   -12630.186   -54803.253   -18121.631    35034.325   -30768.058    -9864.058   -12482.838    83.089171 
   55100    2051.0343   -107.04208    1.8558189   -105.18626    12116.792     4.362439     4.362439     4.362439    12116.792    34792.195    5551.2442   -3993.0614    5793.1631    4582.9329    25400.768    83.021026 
   55200    1390.9801   -106.45715    1.2585881   -105.19857   -7743.9391    4.3686389    4.3686389    4.3686389   -7743.9391   -9186.5302   -4600.5119   -9444.7752    4489.9483    2044.6643    183.32463    83.375499 
   55300    2181.7664    -107.1643     1.974108   -105.19019   -13905.632    4.3599179    4.3599179    4.3599179   -13905.632   -22820.267   -21013.245    2116.6154   -47051.954   -24248.865     2976.098    82.877173 
   55400    1426.9466   -106.48494    1.2911313   -105.19381    28811.697     4.353197     4.353197     4.353197    28811.697    51151.817    27495.321    7787.9518    37658.931    4622.4726    22856.407    82.494494 
   55500    1632.8889   -106.67705    1.4774722   -105.19958   -30096.085    4.3639811    4.3639811    4.3639811   -30096.085   -53330.133   -26014.946   -10943.174   -49158.321   -147.43204   -11061.364      83.1091 
   55600    1950.3637   -106.96285    1.7647301   -105.19812    23698.414     4.359761     4.359761     4.359761    23698.414    26796.575    35802.376    8496.2894    10434.085   -16766.589    29995.072    82.868225 
   55700    1663.2784   -106.71891    1.5049692   -105.21394   -6820.0296    4.3685178    4.3685178    4.3685178   -6820.0296    -33093.67   -32179.436    44813.017   -3496.4542    1605.0488   -6083.1125    83.368566 
   55800    1844.6624   -106.86633    1.6690893   -105.19724    2884.6206     4.365397     4.365397     4.365397    2884.6206   -21518.374    30748.702   -576.46575   -18015.683   -7039.1475    9366.2619    83.190019 
   55900    1305.9002   -106.38541     1.181606    -105.2038    19794.186    4.3476352    4.3476352    4.3476352    19794.186   -13125.842    6233.2829    66275.116    16678.177   -32680.969    30982.899    82.178704 
   56000    2005.9386   -107.01419    1.8150154   -105.19918    38210.982      4.35387      4.35387      4.35387    38210.982    43998.815    30188.086    40446.047   -24837.147    6527.2053   -10450.988    82.532759 
   56100    1742.2748   -106.78506    1.5764469   -105.20862   -12598.139    4.3705458    4.3705458    4.3705458   -12598.139   -23268.948   -388.33937   -14137.131     6877.227   -37379.658    26283.982    83.484727 
   56200    1563.0509   -106.61706    1.4142813   -105.20277   -1956.7412    4.3689134    4.3689134    4.3689134   -1956.7412   -22407.798   -14420.013    30957.588   -8282.6303   -13668.941   -2915.3114    83.391218 
   56300    1931.8968    -106.9347    1.7480208   -105.18668    13956.456    4.3620369    4.3620369    4.3620369    13956.456    28698.326    26542.816   -13371.774   -9839.1464     3547.746    5065.5998     82.99807 
   56400    1638.9777   -106.68238    1.4829815    -105.1994   -16586.618    4.3641198    4.3641198    4.3641198   -16586.618   -10963.896    -26210.64   -12585.318    13862.877   -41083.075    16518.094    83.117023 
   56500    2032.6975   -107.02842    1.8392274   -105.18919    20448.834    4.3710256    4.3710256    4.3710256    20448.834    15454.567    8505.3913    37386.543   -5352.9608    18679.595   -5645.0379    83.512223 
   56600    1333.3812   -106.39843    1.2064714   -105.19196   -38576.531    4.3669519    4.3669519    4.3669519   -38576.531   -3312.9363   -49212.399   -63204.258    3777.6159   -9101.0716    52137.927    83.278948 
   56700    1795.7878   -106.80101    1.6248665   -105.17614    24527.015    4.3510012    4.3510012    4.3510012    24527.015   -7919.7811     43822.44    37678.387    14225.132   -9963.4459   -9698.4388    82.369725 
   56800    1682.1905    -106.7201    1.5220813   -105.19802    -4840.493    4.3663574    4.3663574    4.3663574    -4840.493    13735.213   -13339.259   -14917.433   -8637.2029    31570.267      32582.2    83.244938 
   56900    1783.0104   -106.79354    1.6133053   -105.18024    -11724.16    4.3785337    4.3785337    4.3785337    -11724.16    2210.3839   -45231.821    7848.9578    10724.106   -13181.146    32709.759    83.943312 
   57000    1447.9224   -106.47395    1.3101106   -105.16383   -13338.851    4.3797276    4.3797276    4.3797276   -13338.851   -45130.986    31306.124    -26191.69   -139.47236    42353.889   -14109.425    84.011996 
   57100    1579.4791   -106.59421    1.4291459   -105.16506   -14647.246    4.3738639    4.3738639    4.3738639   -14647.246   -4913.9606   -21865.327   -17162.449   -993.89022   -5919.8821    38582.869    83.675013 
   57200    1680.9804   -106.68741    1.5209864   -105.16642    16441.925     4.358947     4.358947     4.358947    16441.925   -23308.713    62018.238    10616.252    20120.669    13772.026    6395.0901    82.821817 
   57300    1530.7513   -106.56904    1.3850559   -105.18398     7445.758    4.3556352    4.3556352    4.3556352     7445.758   -11345.323    40568.947   -6886.3501   -25031.743    24751.019    28715.537    82.633188 
   57400    1347.2605   -106.41214    1.2190296   -105.19311     27208.62    4.3725932    4.3725932    4.3725932     27208.62   -7507.0483    41550.216    47582.693    23607.527    -7753.671     8012.557    83.602105 
   57500    1695.4642   -106.71454    1.5340916   -105.18045   -9174.6407    4.3843736    4.3843736    4.3843736   -9174.6407    3085.6668   -13374.684   -17234.905   -6465.9005    23007.163   -4048.7919    84.279638 
   57600    2012.9637   -106.98884    1.8213718   -105.16747   -19013.831    4.3744304    4.3744304    4.3744304   -19013.831   -4543.0974    -24306.99   -28191.406     2996.304   -5034.9762    22999.995    83.707528 
   57700    1058.0419   -106.13751   0.95733851   -105.18018    5882.7505    4.3522195    4.3522195    4.3522195    5882.7505   -23659.559    8949.3904     32358.42    28860.749     36828.96   -11912.252    82.438935 
   57800     2281.821   -107.24893    2.0646396   -105.18429    20540.033    4.3528799    4.3528799    4.3528799    20540.033    46046.094    -11063.53    26637.535   -18746.161    5951.2543   -14519.102    82.476469 
   57900    1306.6683   -106.39111     1.182301   -105.20881   -26164.659    4.3852591    4.3852591    4.3852591   -26164.659    -34503.96    -24738.56   -19251.457    28897.845    19334.092    8819.1624    84.330713 
   58000    1561.8847   -106.60105    1.4132261   -105.18783   -24017.745    4.3772569    4.3772569    4.3772569   -24017.745   -9563.0265   -31108.383   -31381.826    16163.077    19788.269   -38234.723    83.869897 
   58100    1824.8633    -106.8231    1.6511747   -105.17193     13128.52    4.3503183    4.3503183    4.3503183     13128.52    24194.234    39368.521   -24177.196    882.92495    1601.4428   -11507.568    82.330945 
   58200    1499.3112   -106.55241    1.3566083    -105.1958   -279.77418    4.3523338    4.3523338    4.3523338   -279.77418   -2667.6095    18629.641   -16801.354    33554.671    41532.759    -5246.813    82.445431 
   58300     1664.734   -106.70996    1.5062863   -105.20367   -12907.112    4.3744086    4.3744086    4.3744086   -12907.112    52459.546   -24233.056   -66947.826   -2897.0567   -10269.957   -66306.542     83.70628 
   58400     2026.128   -107.01733    1.8332832   -105.18404   -13301.931    4.3852176    4.3852176    4.3852176   -13301.931   -52821.732   -2200.9716    15116.911    19605.573    28774.685    22271.807    84.328319 
   58500    884.00846   -105.99352   0.79986944   -105.19365    -17862.44    4.3663206    4.3663206    4.3663206    -17862.44    19598.673   -26099.979   -47086.013    9145.5736    25168.468   -77047.832    83.242835 
   58600    2499.2372   -107.42271    2.2613623   -105.16135    40687.806    4.3482215    4.3482215    4.3482215    40687.806    19801.989    31180.821    71080.607    1331.5307   -7691.7442   -2033.2937    82.211954 
   58700    927.60396   -106.06091   0.83931555   -105.22159   -39484.233    4.3765622    4.3765622    4.3765622   -39484.233   -22441.185   -50322.777   -45688.736     19307.25    23009.773   -63143.071    83.829973 
   58800    2030.9255   -107.01735    1.8376241   -105.17973   -23999.914    4.3890803    4.3890803    4.3890803   -23999.914    -35507.39   -35437.436   -1054.9168    229.32017    1470.8436   -22476.139    84.551355 
   58900    1837.5696   -106.83381    1.6626716   -105.17113    9061.8305    4.3615396    4.3615396    4.3615396    9061.8305   -6805.1077    11180.842    22809.757   -4985.4146   -17459.503   -27398.938    82.969691 
   59000    1240.0558   -106.30768    1.1220286   -105.18565   -3922.5681    4.3547413    4.3547413    4.3547413   -3922.5681   -10675.009    6005.5037   -7098.1992    20441.863    29450.792   -45552.221    82.582322 
   59100    2179.1699   -107.16219    1.9717588   -105.19043    18446.837    4.3736947    4.3736947    4.3736947    18446.837   -9720.7514    74854.802   -9793.5384   -21075.512   -4888.2298    5710.6886    83.665303 
   59200    1302.1466   -106.36718    1.1782096   -105.18897   -22471.125    4.3986998    4.3986998    4.3986998   -22471.125   -23468.961   -22147.349   -21797.066    10064.873    18442.194    -38711.14    85.108509 
   59300    1847.5966   -106.83175    1.6717443      -105.16    13837.515    4.3768882    4.3768882    4.3768882    13837.515    2613.1493    43841.328   -4941.9309   -138.69118    8033.7029    17953.361    83.848704 
   59400    1613.2092   -106.61346    1.4596656    -105.1538     19040.24    4.3462969    4.3462969    4.3462969     19040.24    60423.883    11312.507    -14615.67   -16491.911   -4881.6294   -52953.057    82.102837 
   59500    2013.0987   -107.00641     1.821494   -105.18491   -12333.797    4.3564032    4.3564032    4.3564032   -12333.797   -37416.979    9006.9021   -8591.3126    27263.003    28148.533   -5837.6132    82.676905 
   59600    1558.4887    -106.6111    1.4101534   -105.20094   -4127.7832    4.3773277    4.3773277    4.3773277   -4127.7832    18742.712   -19553.086   -11572.975    11541.795   -4941.4285   -23675.431    83.873964 
   59700    1715.7077   -106.72539    1.5524084   -105.17298    -18413.45    4.4008526    4.4008526    4.4008526    -18413.45    15061.278    -28844.79   -41456.839    -4065.575     10953.41   -24360.628    85.233527 
   59800    1925.0995   -106.89515    1.7418705   -105.15328   -56477.831    4.3959215    4.3959215    4.3959215   -56477.831   -20162.431   -70911.568   -78359.494   -1920.6794    6153.2553   -31682.473    84.947342 
   59900    1665.2309    -106.6626     1.506736   -105.15586    17432.875    4.3396318    4.3396318    4.3396318    17432.875     68266.69   -20569.349    4601.2849    1959.0127   -6206.7248   -38294.885    81.725702 
   60000    1997.2975   -106.96095    1.8071967   -105.15375    1901.8243    4.3319328    4.3319328    4.3319328    1901.8243    28327.001    242.97729   -22864.506   -1646.3398     18800.26   -29725.012      81.2915 
   60100    1481.6325    -106.5415    1.3406122   -105.20089   -25328.196    4.3816616    4.3816616    4.3816616   -25328.196     50077.95   -76012.983   -50049.557    1279.6324     4262.591   -53561.395    84.123337 
   60200    2197.8553   -107.13051    1.9886656   -105.14185   -31032.708    4.4050392    4.4050392    4.4050392   -31032.708   -48546.087   -67486.106    22934.068    5893.0714    2263.6915   -13344.979    85.477013 
   60300    1086.9733    -106.1263   0.98351625   -105.14278   -21140.454    4.3855568    4.3855568    4.3855568   -21140.454    8349.5321    -56291.38   -15479.514   -1678.9659    17093.327   -51965.779    84.347888 
   60400    2410.5781   -107.30142    2.1811418   -105.12027    23447.375     4.346648     4.346648     4.346648    23447.375    16967.275     13846.58    39528.271   -13748.833   -29281.628    4975.9997    82.122735 
   60500    1472.5739    -106.4923    1.3324158   -105.15988     6809.317    4.3440861    4.3440861    4.3440861     6809.317    11394.573    1909.6005    7123.7778     366.4035    26822.137   -78328.025    81.977616 
   60600    2165.9436   -107.14251    1.9597913   -105.18271   -26831.886    4.3811007    4.3811007    4.3811007   -26831.886   -21859.362   -27990.133   -30646.163   -17797.257    10257.082    21441.939    84.091037 
   60700    1359.7908   -106.40989    1.2303673   -105.17952    -26603.94    4.3858903    4.3858903    4.3858903    -26603.94    668.34119    -57573.46   -22906.701    284.62516   -24786.397    -60064.33    84.367131 
   60800    1774.7993   -106.78093    1.6058757   -105.17505    1397.4764    4.3564907    4.3564907    4.3564907    1397.4764   -37118.901     40298.03    1013.3001   -8722.9681    46471.536    7037.6645    82.681884 
   60900    1507.3395   -106.54585    1.3638725   -105.18198     23825.32    4.3400264    4.3400264    4.3400264     23825.32    47537.526    1398.2462    22540.187   -20061.003   -2438.3178   -25641.808    81.747995 
   61000    1874.5471    -106.9009    1.6961296   -105.20477    -18802.93    4.3603145    4.3603145    4.3603145    -18802.93   -6436.2935    -4873.581   -45098.915    3997.8119    14130.843   -30053.298    82.899791 
   61100    1362.2393   -106.43559    1.2325827   -105.20301   -34446.161    4.3809422    4.3809422    4.3809422   -34446.161   -59412.829    -24200.37   -19725.282   -18402.899    21629.758     14475.78    84.081913 
   61200    1947.4778   -106.94361    1.7621189   -105.18149    4265.4773    4.3624756    4.3624756    4.3624756    4265.4773    44922.367   -37644.972    5519.0371   -8054.9931   -2504.2139    -50736.04    83.023118 
   61300    1573.4249   -106.60854    1.4236679   -105.18487    18479.875    4.3621756    4.3621756    4.3621756    18479.875     26412.84    45712.752   -16685.966   -3886.5088     39536.05    29145.332     83.00599 
   61400    1404.2413   -106.45384     1.270587   -105.18326    7131.6398     4.366862     4.366862     4.366862    7131.6398    45476.762   -43875.327    19793.484   -22682.321   -2610.6545   -39020.779    83.273802 
   61500    1732.0531    -106.7452    1.5671981     -105.178    13102.158    4.3691892    4.3691892    4.3691892    13102.158    62156.323   -10058.734   -12791.114    11401.146    30017.454     4117.323    83.407009 
   61600    1609.2914   -106.64754    1.4561207   -105.19142   -20895.487    4.3766144    4.3766144    4.3766144   -20895.487   -691.77413   -38209.332   -23785.355    -3349.338     10583.76    304.72113     83.83297 
   61700    2060.8039   -107.03419    1.8646587   -105.16953    18808.366    4.3698292    4.3698292    4.3698292    18808.366    29144.228   -22407.283    49688.152   -4746.5707    3145.3876   -15081.999    83.443669 
   61800      1096.23   -106.18338   0.99189193   -105.19149   -23924.825    4.3683883    4.3683883    4.3683883   -23924.825   -52578.919   -8704.5297   -10491.025    25947.008    53241.692    16057.136    83.361149 
   61900    2312.9023   -107.26618    2.0927626   -105.17342    29630.678    4.3637698    4.3637698    4.3637698    29630.678    66219.217    13613.622    9059.1944   -3795.4194   -14876.085   -17012.295     83.09703 
   62000    1351.0468   -106.42509    1.2224556   -105.20264   -21573.428    4.3737493    4.3737493    4.3737493   -21573.428   -33381.853   -18055.962    -13282.47    15208.034    44797.662    12952.926    83.668435 
   62100    1563.8256   -106.60887    1.4149823   -105.19389   -6993.3741    4.3831206    4.3831206    4.3831206   -6993.3741   -12022.091    -8219.666   -738.36532    31798.004    1068.7535   -5309.9425    84.207399 
   62200    1861.9634   -106.85927    1.6847436   -105.17452    20947.535      4.36285      4.36285      4.36285    20947.535    11239.197    39865.345    11738.062   -7661.8534    24073.171   -5870.2854    83.044494 
   62300    1411.6391   -106.46677    1.2772807   -105.18949   -3872.0419    4.3621519    4.3621519    4.3621519   -3872.0419    20957.972   -4962.9699   -27611.128    27240.844    14779.266    17801.522    83.004638 
   62400    2122.7023   -107.09168    1.9206656   -105.17101   -118.67844    4.3775046    4.3775046    4.3775046   -118.67844    19384.926    7909.6631   -27650.625    20402.204    2694.0655   -15960.332    83.884138 
   62500    1177.4434   -106.24538    1.0653755      -105.18    5676.8416    4.3696078    4.3696078    4.3696078    5676.8416    14620.272    13112.559   -10702.306   -5533.2802    39923.993    19835.196    83.430986 
   62600    2018.5105   -106.98951    1.8263907   -105.16312    21503.011    4.3803931    4.3803931    4.3803931    21503.011    1673.8135    40530.696    22304.523    23340.715    -9671.718   -14054.497    84.050296 
   62700    792.33192   -105.90511   0.71691858   -105.18819   -15472.396    4.3711679    4.3711679    4.3711679   -15472.396   -67027.109    97836.545   -77226.623    -3471.269    31393.483    -3999.837    83.520382 
   62800    2141.2243   -107.10069    1.9374247   -105.16327    38721.274    4.3574312    4.3574312    4.3574312    38721.274    3819.7243    65107.068    47237.031    -7598.827    38.981643   -9893.2295    82.735444 
   62900     1156.489   -106.24044    1.0464155   -105.19403   -11007.042    4.3719012    4.3719012    4.3719012   -11007.042   -58879.827    68431.139   -42572.437    21504.463    31524.621   -12566.849    83.562422 
   63000    1936.9192   -106.92549    1.7525652   -105.17293   -1845.8657    4.3767275    4.3767275    4.3767275   -1845.8657   -29609.507   -3807.2316    27879.141    -14289.98      -9062.2   -5481.4965    83.839467 
   63100    1411.9523   -106.45498    1.2775641   -105.17741   -28509.318    4.3824013    4.3824013    4.3824013   -28509.318   -75087.477    15368.013   -25808.489    11525.091    43861.759   -10044.822    84.165952 
   63200    1576.3669   -106.60875    1.4263299   -105.18242   -29947.796    4.3704365    4.3704365    4.3704365   -29947.796   -50257.949   -12609.863   -26975.577    -795.3078    8644.6525    1008.3323    83.478463 
   63300    2311.4715   -107.26179     2.091468   -105.17032    50059.868    4.3414369    4.3414369    4.3414369    50059.868      21288.6    23815.026    105075.98   -1246.3015    10865.205    17148.592    81.827727 
   63400    1216.2274   -106.31927    1.1004681    -105.2188   -7045.3691    4.3530083    4.3530083    4.3530083   -7045.3691   -54530.648    43785.832   -10391.291    14967.249    41955.406    4973.8009    82.483767 
   63500    2160.3248   -107.15241    1.9547072    -105.1977    11763.853    4.3830341    4.3830341    4.3830341    11763.853   -5890.3963   -16251.353    57433.308   -12910.709   -11131.792     10897.69    84.202416 
   63600    894.51156   -105.99416   0.80937286   -105.18479   -21636.414     4.402822     4.402822     4.402822   -21636.414   -26192.432   -3102.0493   -35614.762    12541.543    9206.4866    9725.8305    85.348009 
   63700     2084.737    -107.0246    1.8863139   -105.13829   -18386.059    4.3798208    4.3798208    4.3798208   -18386.059   -31545.053   -16191.117   -7422.0067   -20375.062   -21684.329     11520.53     84.01736 
   63800    1483.9154   -106.47654    1.3426778   -105.13386    45727.497    4.3372202    4.3372202    4.3372202    45727.497   -29539.659     39574.55     127147.6   -35454.023    19552.671    22653.988    81.589525 
   63900    1106.4508   -106.18616    1.0011399   -105.18502    35003.953    4.3559066    4.3559066    4.3559066    35003.953   -25775.221    38947.179      91839.9    5658.6913    21377.795    29892.897    82.648634 
   64000    1934.0411   -106.92359     1.749961   -105.17363   -25122.784    4.3999348    4.3999348    4.3999348   -25122.784   -85072.191   -44667.325    54371.165   -34443.686   -13048.965    3199.2221    85.180214 
   64100    1811.1013   -106.76864    1.6387225   -105.12992   -71500.952    4.4090852    4.4090852    4.4090852   -71500.952   -96964.381   -35803.416   -81735.058    9497.4174    59561.086    12775.427     85.71276 
   64200    1253.3968    -106.2801    1.1340998     -105.146   -17755.904    4.3609676    4.3609676    4.3609676   -17755.904   -65064.936   -28545.081    40342.304    -37987.45   -13573.416    631.36927    82.937048 
   64300    2358.1158   -107.26625    2.1336727   -105.13258    40342.565    4.3152761    4.3152761    4.3152761    40342.565    23887.862    55772.226    41367.608     16572.65    1822.3526   -12792.943    80.357378 
   64400     1603.656   -106.67564    1.4510216   -105.22462    10821.337    4.3437863    4.3437863    4.3437863    10821.337    4325.0349    5787.2944    22351.681   -40724.633    34997.575    19862.647    81.960642 
   64500     1246.429   -106.34663    1.1277952   -105.21883   -37043.388    4.3916288    4.3916288    4.3916288   -37043.388   -61922.119   -16365.377    -32842.67   -8893.1515   -38259.647   -979.88692    84.698723 
   64600    2214.1083   -107.15759    2.0033717   -105.15421   -15285.623    4.3949398    4.3949398    4.3949398   -15285.623   -1730.7866   -41615.374   -2510.7089   -7446.9383    9607.1943   -8782.0865    84.890441 
   64700    1464.5105   -106.48238    1.3251199   -105.15726   -20457.913    4.3629529    4.3629529    4.3629529   -20457.913   -62718.547   -27146.205    28491.012    -37796.96   -23535.245    -207.4751    83.050372 
   64800    1740.2355   -106.72915    1.5746016   -105.15455    32769.077    4.3298353    4.3298353    4.3298353    32769.077   -2126.1134    39162.208    61271.137    26720.342   -30477.698    751.41055    81.173476 
   64900    1799.6501   -106.82305    1.6283612   -105.19469    16257.393    4.3429258    4.3429258    4.3429258    16257.393    5440.8445   -36501.978    79833.313    -46162.03    2991.6615    -4761.993    81.911943 
   65000    1513.4271   -106.57811    1.3693807   -105.20873   -44387.424    4.3789073    4.3789073    4.3789073   -44387.424   -85146.391   -31441.527   -16574.353    23891.498   -52451.638    4002.8804    83.964798 
   65100    2057.9908   -107.03794    1.8621133   -105.17583   -24023.791    4.3810272    4.3810272    4.3810272   -24023.791   -34889.205   -43936.614     6754.447   -28461.341    28036.155     5032.538    84.086803 
   65200    1567.2594   -106.58123    1.4180892   -105.16315   -10916.974    4.3651586    4.3651586    4.3651586   -10916.974    -28023.61    23290.221   -28017.533    596.57083   -48680.376    10846.315    83.176391 
   65300    1569.7928   -106.58604    1.4203815   -105.16566    -4959.147    4.3456972    4.3456972    4.3456972    -4959.147   -44160.196     36227.55   -6944.7945    12624.299    3228.3053     17324.32     82.06886 
   65400    2174.7811   -107.14555    1.9677876   -105.17776    6880.3003    4.3499874    4.3499874    4.3499874    6880.3003   -8335.1319    23706.589     5269.444   -24770.388   -6059.7611   -12548.242    82.312161 
   65500    1268.7928   -106.34137    1.1480304   -105.19334   -35619.903    4.3744102    4.3744102    4.3744102   -35619.903   -67806.523   -6516.4437   -32536.743    19359.489   -56593.378    16013.582    83.706373 
   65600    1732.8222   -106.75844    1.5678939   -105.19055   -6116.4914    4.3601404    4.3601404    4.3601404   -6116.4914   -27689.906    17965.614   -8625.1821   -10558.805    65212.375    15327.732    82.889863 
   65700    1663.4112   -106.69443    1.5050894   -105.18934    22830.685    4.3432773    4.3432773    4.3432773    22830.685   -15181.564    38431.709     45241.91    5787.1978   -67778.747   -13332.765    81.931836 
   65800    1928.3234   -106.93872    1.7447876   -105.19393   -20670.691    4.3613431    4.3613431    4.3613431   -20670.691   -39075.239   -1319.5918   -21617.242    656.69192    40359.122    22931.555    82.958474 
   65900    1494.8196    -106.5516    1.3525442   -105.19906   -7381.0188    4.3688902    4.3688902    4.3688902   -7381.0188   -40187.861    12717.313    5327.4913   -1747.6924   -10664.615   -7417.1512     83.38989 
   66000    2078.7324    -107.0648    1.8808808   -105.18392    1162.9772     4.359675     4.359675     4.359675    1162.9772   -31227.221    21983.926    12732.227   -1758.0967   -15932.367   -7542.8007    82.863325 
   66100    1271.9405   -106.33984    1.1508785   -105.18897     24058.47    4.3545265    4.3545265    4.3545265     24058.47   -34096.297    68754.531    37517.176    6604.0549    49647.173    13002.536      82.5701 
   66200    1830.9006   -106.83969    1.6566373   -105.18306    18304.478    4.3556904    4.3556904    4.3556904    18304.478   -31018.814    53353.391    32578.858   -12160.488   -44291.535   -6242.4625    82.636329 
   66300    1441.6011   -106.49218    1.3043909   -105.18778   -14951.207     4.359723     4.359723     4.359723   -14951.207   -57202.825    8487.6451    3861.5597   -6031.5902    83136.151   -3442.8027     82.86606 
   66400    2179.1902   -107.15305    1.9717771   -105.18128    2374.8198    4.3623416    4.3623416    4.3623416    2374.8198   -13767.981    9201.6228    11690.817    17705.485   -27718.649    4859.0218    83.015468 
   66500    1493.2343   -106.55125    1.3511098   -105.20014   -18379.574    4.3642373    4.3642373    4.3642373   -18379.574   -80412.572    40276.062   -15002.214   -18115.946    46581.395   -117.33815    83.123739 
   66600    1674.1853   -106.71685    1.5148381   -105.20202    25710.293    4.3596461    4.3596461    4.3596461    25710.293   -22471.236   -2090.3167    101692.43    19715.364    12221.746    2676.9574    82.861676 
   66700    1790.3137   -106.82376    1.6199135   -105.20384    24599.178    4.3596462    4.3596462    4.3596462    24599.178   -1110.4185   -37353.357    112261.31    -19597.91   -19173.927    2530.1377    82.861681 
   66800    1031.5934    -106.1595   0.93340736   -105.22609   -16762.324    4.3573929    4.3573929    4.3573929   -16762.324   -66471.444    45307.338   -29122.867    9880.7336    59482.353   -13239.345    82.733264 
   66900    2356.7318   -107.34171    2.1324205   -105.20929    10355.702    4.3565843    4.3565843    4.3565843    10355.702   -1894.8704    449.44285    32512.533    19568.618   -22685.739   -8063.6513    82.687216 
   67000    1629.8162   -106.68857    1.4746919   -105.21387   -24858.625    4.3701862    4.3701862    4.3701862   -24858.625   -77345.043     24337.56   -21568.391   -3634.2716     66961.95    9036.5514     83.46412 
   67100    1537.0125   -106.59428    1.3907212   -105.20356   -10274.681    4.3587937    4.3587937    4.3587937   -10274.681   -39410.025   -9205.4725    17791.455    27329.045    4938.7386    -1836.893    82.813084 
   67200    1669.3464   -106.69306    1.5104597    -105.1826    35263.046    4.3510056    4.3510056    4.3510056    35263.046    9843.5632    100389.74   -4444.1684   -6875.8708    37439.363    13569.477    82.369973 
   67300     1679.077   -106.69385    1.5192642   -105.17459   -12312.873    4.3775537    4.3775537    4.3775537   -12312.873   -46864.477    19817.586   -9891.7293    13159.581    26610.648    7383.8661    83.886956 
   67400    1545.5498   -106.55775    1.3984459   -105.15931    17261.273    4.3641842    4.3641842    4.3641842    17261.273    10356.801    37036.857    4390.1606    4981.6639    7642.9576    6318.4743    83.120706 
   67500    1509.6135   -106.52004      1.36593   -105.15411    54781.757    4.3550181    4.3550181    4.3550181    54781.757    64157.647    80265.244    19922.382    845.55165    49552.185    18314.502    82.598066 
   67600    1799.2722     -106.784    1.6280193   -105.15598    9358.8329    4.3704825    4.3704825    4.3704825    9358.8329   -3587.6261    8409.2732    23254.852   -660.22625   -7.3565494    19775.213      83.4811 
   67700    1399.2185   -106.42983    1.2660423   -105.16379    12017.304    4.3677362    4.3677362    4.3677362    12017.304    11122.363    58761.659   -33832.109   -1639.7999    50439.199         8893    83.323827 
   67800    2099.7355   -107.05193    1.8998848   -105.15204   -17310.592    4.3770476    4.3770476    4.3770476   -17310.592   -3216.6131   -24810.055   -23905.109   -8027.8292   -6282.7206    19907.187    83.857866 
   67900    1072.8471   -106.14178   0.97073464   -105.17104   -36200.135    4.3709486    4.3709486    4.3709486   -36200.135   -73866.174    27711.435   -62445.666    8643.3637       107431    1787.2647    83.507808 
   68000    2573.1018   -107.46731    2.3281966   -105.13911     34659.43    4.3437603    4.3437603    4.3437603     34659.43    54070.758    9030.1301    40877.402   -7051.1273   -17761.172    13486.033    81.959173 
   68100    700.16702   -105.83025   0.63352583   -105.19672   -25789.071    4.3590425    4.3590425    4.3590425   -25789.071   -37584.091   -2422.5476   -37360.574   -14027.117    92657.702    14532.688    82.827263 
   68200    2502.1212   -107.42706    2.2639719   -105.16309   -2827.9789    4.3803251    4.3803251    4.3803251   -2827.9789     25537.08   -16694.566   -17326.451    8574.8689   -8275.6486   -3443.5122    84.046383 
   68300    1416.4123   -106.46956    1.2815996   -105.18797     -26077.3    4.3773979    4.3773979    4.3773979     -26077.3   -45562.451    33722.241    -66391.69    -7016.543    68414.276     13542.09    83.878002 
   68400     1854.228   -106.85495    1.6777444    -105.1772   -13693.165    4.3519736    4.3519736    4.3519736   -13693.165   -15667.928   -25777.852    366.28544   -882.95496    16155.315   -273.99097    82.424961 
   68500    1717.2774   -106.73532    1.5538287   -105.18149    21267.829    4.3366746    4.3366746    4.3366746    21267.829    50291.056    29274.312   -15761.881    9161.5192    24748.616   -12845.925     81.55874 
   68600    1305.5987   -106.39752    1.1813331   -105.21619    11014.467    4.3626498    4.3626498    4.3626498    11014.467    31091.052    50046.616   -48094.269   -7345.6587     48362.24    8303.6141    83.033062 
   68700    1689.6272    -106.7159    1.5288102   -105.18709   -18238.407    4.3867796    4.3867796    4.3867796   -18238.407    19432.681   -19784.231   -54363.671    2424.9193   -7555.2319   -18731.246    84.418464 
   68800    1222.9425    -106.2924    1.1065441   -105.18585   -31660.786    4.3683901    4.3683901    4.3683901   -31660.786   -39810.303    41941.458   -97113.513    257.95808    87531.794   -3417.5646    83.361257 
   68900    2615.0688   -107.51797    2.3661692    -105.1518    26032.497    4.3383688    4.3383688    4.3383688    26032.497    12415.001    16463.783    49218.706   -24758.636   -29754.941   -61.583106    81.654363 
   69000    981.60378   -106.09653   0.88817573   -105.20836   -30201.255    4.3509002    4.3509002    4.3509002   -30201.255   -41949.209     16697.51   -65352.065    11511.339    99928.657   -8643.4589     82.36399 
   69100    2528.7383   -107.47845    2.2880556   -105.19039   -8330.2898    4.3717615    4.3717615    4.3717615   -8330.2898   -13485.677    111.66829   -11616.861   -4114.8568   -12595.843    735.99463     83.55441 
   69200    1526.7173   -106.57447    1.3814059   -105.19307   -51801.569    4.3784936    4.3784936    4.3784936   -51801.569   -96303.008   -806.80913   -58294.891   -10434.383    70323.641   -7458.0516    83.941005 
   69300    1299.9022   -106.37288    1.1761788   -105.19671   -4185.6803    4.3592364    4.3592364    4.3592364   -4185.6803    -36278.18   -7759.8331    31480.972    26141.702    23873.955   -10523.674    82.838316 
   69400    2170.6194   -107.14101    1.9640221   -105.17699    27439.751    4.3409288    4.3409288    4.3409288    27439.751   -3216.6948    55308.676    30227.273    20461.343    16223.862   -9453.6875    81.798997 
   69500    1203.1544   -106.30244    1.0886393    -105.2138     15779.98    4.3505599    4.3505599    4.3505599     15779.98   -15337.673    46525.442    16152.171   -3273.9886    53003.918   -1272.5689    82.344665 
   69600    1677.5954   -106.71587    1.5179236   -105.19795   -42271.547    4.3858666    4.3858666    4.3858666   -42271.547   -29572.661   -72122.602   -25119.377    21814.417   -19532.514   -26077.298    84.365769 
   69700    1494.6985   -106.55354    1.3524347   -105.20111    -26044.14    4.3659938    4.3659938    4.3659938    -26044.14    -45575.79    30441.908   -62998.539    410.11667    74162.252    5647.9223    83.224144 
   69800    2054.5332   -107.02153    1.8589848   -105.16254    67124.132    4.3178696    4.3178696    4.3178696    67124.132    30755.429    94979.032    75637.936    12291.013   -17758.995     4134.919     80.50235 
   69900    1396.6336   -106.46894    1.2637034   -105.20523     -11294.6    4.3412254    4.3412254    4.3412254     -11294.6   -42568.473    46774.426   -38089.753    3283.8121    52121.691   -13755.333     81.81577 
   70000    2032.5594   -107.02142    1.8391025   -105.18232   -26761.145    4.3707572    4.3707572    4.3707572   -26761.145   -31436.739   -329.19887   -48517.498    1495.0112    16870.102    30095.874    83.496839 
   70100    1791.6336   -106.79691    1.6211077    -105.1758   -4059.1767    4.3734453    4.3734453    4.3734453   -4059.1767   -58131.418    39960.286    5993.6012    9351.6103    4930.2116   -12476.714    83.650993 
   70200    1615.2387   -106.63124    1.4615019   -105.16974    -30667.31    4.3733285    4.3733285    4.3733285    -30667.31    -54459.59    38324.066   -75866.406    -7999.166     49509.87    22713.147    83.644291 
   70300    1643.8947   -106.66704    1.4874304   -105.17961    -10566.67    4.3414209    4.3414209    4.3414209    -10566.67   -25952.481   -39344.206    33596.678    -5423.593   -17610.033    22627.968    81.826819 
   70400    1540.2099   -106.58334    1.3936143   -105.18973    27091.864    4.3228738    4.3228738    4.3228738    27091.864    9289.5834    57137.333    14848.676    8293.8937    29888.083   -16554.496     80.78257 
   70500    2110.0712   -107.12027    1.9092368   -105.21103   -25183.437    4.3617419    4.3617419    4.3617419   -25183.437   -9408.6026   -32625.118   -33516.591   -2870.0517   -3964.3361    19423.092    82.981233 
   70600    832.72405   -105.96411   0.75346622   -105.21065    -46270.05    4.3792536    4.3792536    4.3792536    -46270.05    -66775.41   -65145.375   -6889.3656     9725.326   -18281.004     4501.255     83.98472 
   70700    2216.6201   -107.17899    2.0056445   -105.17334    10662.023    4.3512798    4.3512798    4.3512798    10662.023    17273.346    20754.061   -6041.3385    10587.098    13339.401   -35414.288    82.385549 
   70800    1535.9766   -106.57596    1.3897839   -105.18617   -6535.0685    4.3441592    4.3441592    4.3441592   -6535.0685   -13322.022   -8047.2792    1764.0952    -25791.55   -35282.942    16679.017     81.98175 
   70900    1539.6439   -106.59207    1.3931022   -105.19897    12490.122    4.3447065    4.3447065    4.3447065    12490.122    15547.596    2172.8841    19749.887    18427.115   -24517.635   -27351.285     82.01274 
   71000    1830.9819   -106.86005    1.6567109   -105.20334    26483.898    4.3589961    4.3589961    4.3589961    26483.898    191.38472     46150.52    33109.787   -13128.694     5372.432   -18194.571    82.824617 
   71100    1286.3593   -106.36388    1.1639249   -105.19996    -47219.42    4.3811775    4.3811775    4.3811775    -47219.42   -60609.436   -47710.767   -33338.057   -12391.926   -29154.372   -11602.213     84.09546 
   71200    1605.8426   -106.64373    1.4530001   -105.19073    839.03756    4.3497425    4.3497425    4.3497425    839.03756    69889.363   -20296.968   -47075.282    13155.207    7244.2049   -47713.198    82.298256 
   71300    2112.3833   -107.08434    1.9113288   -105.17301    24640.735    4.3337877    4.3337877    4.3337877    24640.735   -1579.7262    44907.372     30594.56    -21422.38   -4509.9271    20926.351    81.395972 
   71400    1279.1283   -106.36029    1.1573821   -105.20291   -30312.166    4.3572619    4.3572619    4.3572619   -30312.166   -3087.5043   -52605.868   -35243.127    14087.329   -30233.253   -51442.615    82.725805 
   71500    1821.7119   -106.84178    1.6483232   -105.19345   -17573.016    4.3569715    4.3569715    4.3569715   -17573.016   -28249.599   -7562.9122   -16906.537   -5250.5021      43428.7    9822.6683    82.709262 
   71600    1795.0903   -106.82174    1.6242354   -105.19751    -26634.35     4.360899     4.360899     4.360899    -26634.35   -39370.841   -7221.4453   -33310.764    625.83332   -41221.708   -1594.6437    82.933136 
   71700    1650.2347   -106.68294     1.493167   -105.18977   -31800.421    4.3656227    4.3656227    4.3656227   -31800.421   -7257.1933   -45264.704   -42879.367    297.32119     9677.199   -31943.734    83.202924 
   71800    2024.1403   -107.01792    1.8314847   -105.18644    12097.787     4.350939     4.350939     4.350939    12097.787   -8648.8947    12440.167    32502.088   -5639.7748    16044.514    31534.923    82.366194 
   71900    1412.8521   -106.48686    1.2783783   -105.20848    22624.184    4.3280894    4.3280894    4.3280894    22624.184    -18795.04    82578.412     4089.181    11059.917    -60285.04   -22154.284    81.075317 
   72000    1792.5705   -106.84811    1.6219554   -105.22615     25061.26    4.3416946    4.3416946    4.3416946     25061.26    -6411.366    2458.3753    79136.772    2034.6651    47253.673    1839.3006      81.8423 
   72100    2154.3515   -107.15898    1.9493025   -105.20968   -18698.108    4.3647876    4.3647876    4.3647876   -18698.108   -42365.606   -14643.279     914.5611   -22814.517   -51428.221    9625.7886    83.155188 
   72200    1487.2469   -106.55537    1.3456923   -105.20967   -3838.6195    4.3516797    4.3516797    4.3516797   -3838.6195   -32817.852    24123.609   -2821.6157    22066.128   -11217.499   -31170.688    82.408263 
   72300    1810.0319   -106.84638    1.6377549   -105.20863    13113.511    4.3407069    4.3407069    4.3407069    13113.511   -25716.413     19463.49    45593.456   -21202.674    30258.939    3841.0581    81.786455 
   72400    2003.5606   -107.02875    1.8128637   -105.21588   -20067.006    4.3450364    4.3450364    4.3450364   -20067.006   -44185.247   -20443.667    4427.8976   -3273.5696   -31567.929   -15126.088    82.031424 
   72500    1370.0978   -106.46469    1.2396933     -105.225    3293.5941    4.3511623    4.3511623    4.3511623    3293.5941   -23296.947    19503.321    13674.408    20181.994     9491.099   -23200.005    82.378871 
   72600    1764.0554   -106.81678    1.5961544   -105.22063   -4343.8906    4.3490143    4.3490143    4.3490143   -4343.8906   -44195.953   -6658.7415    37823.023   -53782.586    24068.331   -1417.2158    82.256932 
   72700    1643.6929   -106.70826    1.4872479   -105.22101    26323.108    4.3411131    4.3411131    4.3411131    26323.108   -28145.301    5935.2517    101179.37    53701.475   -10476.598   -11817.359    81.809419 
   72800    1565.4837   -106.64593    1.4164826   -105.22945    8379.7533    4.3449494    4.3449494    4.3449494    8379.7533   -22084.625    18978.267    28245.618   -46200.246    3592.5366    -30892.49      82.0265 
   72900    1718.9983   -106.77954    1.5553858   -105.22415    2983.8883    4.3584255    4.3584255    4.3584255    2983.8883   -39314.194   -9692.3717    57958.231    14442.369    17045.258    4675.2698    82.792095 
   73000    1541.4918   -106.60602    1.3947742   -105.21125   -16615.144     4.366642     4.366642     4.366642   -16615.144   -62415.246    -10149.42    22719.233    11597.359   -27365.612   -3409.3632    83.261217 
   73100    1329.6421   -106.41541    1.2030881   -105.21232   -6916.1096    4.3491153    4.3491153    4.3491153   -6916.1096   -51844.652    22849.619    8246.7047   -38084.863     3508.266   -14728.116    82.262661 
   73200    1865.2649   -106.88339    1.6877309   -105.19566    53416.906    4.3335582    4.3335582    4.3335582    53416.906     18106.01    69409.313    72735.394    17192.919    28617.592    3661.8244    81.383038 
   73300    1586.6921   -106.65102    1.4356723   -105.21535   -15394.291    4.3539435    4.3539435    4.3539435   -15394.291   -27343.097    26321.023     -45160.8   -8332.8765   -43582.668   -11027.564    82.536943 
   73400    1412.0397   -106.48637    1.2776432   -105.20873   -4510.5039    4.3637596    4.3637596    4.3637596   -4510.5039   -59493.764    40008.954     5953.299    -16460.34    61732.281    -3700.999    83.096449 
   73500     2246.107   -107.21939    2.0323248   -105.18706    2459.1756    4.3616168    4.3616168    4.3616168    2459.1756   -34770.595    35629.378    6518.7437    3018.4499   -43283.124    10590.021    82.974094 
   73600     1073.129   -106.18031   0.97098971   -105.20932    -8847.697    4.3507539    4.3507539    4.3507539    -8847.697   -61308.417    71805.742   -37040.416   -30574.915    36824.383   -7552.1839    82.355678 
   73700    1549.8935   -106.60859    1.4023762   -105.20621    29455.046    4.3409372    4.3409372    4.3409372    29455.046   -31098.142    46887.391    72575.889    6383.3867    16939.021   -3952.8735    81.799473 
   73800    2116.8584   -107.12237     1.915378   -105.20699    13332.399     4.347876     4.347876     4.347876    13332.399    36.512958    30865.765    9094.9195    5139.7359   -7921.3552    8600.1762     82.19236 
   73900    1148.6589   -106.26003    1.0393307    -105.2207    453.01881    4.3532782    4.3532782    4.3532782    453.01881   -48991.302    24862.938     25487.42   -19090.722    43105.201   -20035.727    82.499108 
   74000    2262.1241   -107.24416    2.0468174   -105.19735    9579.7381    4.3664006    4.3664006    4.3664006    9579.7381   -36993.939   -6512.3664     72245.52    27440.207   -13311.422    17348.155     83.24741 
   74100    1720.2654    -106.7608    1.5565323   -105.20427   -15568.462    4.3578505    4.3578505    4.3578505   -15568.462   -20041.843    24622.149   -51285.691   -21188.988    20698.984   -18557.676    82.759332 
   74200    1034.1816   -106.14717   0.93574928   -105.21142    6701.0398    4.3367127    4.3367127    4.3367127    6701.0398    -13413.17    7259.4736    26256.816    16544.748    24513.907   -15143.075    81.560891 
   74300    2317.1101   -107.30503    2.0965699   -105.20846   -2792.1153    4.3394328    4.3394328    4.3394328   -2792.1153   -24390.118    31552.538   -15538.766     18617.55   -24847.202    31263.397    81.714457 
   74400     1748.195   -106.79901    1.5818036   -105.21721   -20680.612    4.3578503    4.3578503    4.3578503   -20680.612   -37819.622    24394.064   -48616.276   -19166.281     35399.97   -18288.154    82.759321 
   74500    1645.6235   -106.69484    1.4889947   -105.20584   -38081.007    4.3704803    4.3704803    4.3704803   -38081.007   -56483.075   -19859.139   -37900.806    6793.8019    -30547.55        18376    83.480972 
   74600    1653.1105   -106.69614    1.4957691   -105.20037   -21414.263    4.3594302    4.3594302    4.3594302   -21414.263    -33873.31    34741.562    -65111.04    10368.267    -18690.85      40080.5    82.849364 
   74700     2312.933   -107.28066    2.0927904   -105.18787    31760.315    4.3364891    4.3364891    4.3364891    31760.315    484.25569    61250.112    33546.577   -16222.752    11879.243   -11432.355    81.548277 
   74800     897.1908   -106.04386   0.81179709   -105.23206    1468.9636    4.3312042    4.3312042    4.3312042    1468.9636    17479.154    14465.808   -27538.072    16644.063   -53897.959    37654.221    81.250489 
   74900    2151.5625   -107.18364     1.946779   -105.23686    12523.299     4.348016     4.348016     4.348016    12523.299     18992.09    35159.365   -16581.558   -1820.5768     5642.021    18294.669    82.200299 
   75000    1476.9131   -106.56874     1.336342   -105.23239   -3004.5897    4.3700721    4.3700721    4.3700721   -3004.5897   -40399.265    57295.389   -25909.893    6270.8464   -29346.854   -12610.201    83.457586 
   75100    1301.9948   -106.37215    1.1780723   -105.19408    3965.1517    4.3828853    4.3828853    4.3828853    3965.1517    28063.812    41399.056   -57567.413    21589.017   -3521.5024    29644.444    84.193837 
   75200    2108.7181   -107.06654    1.9080124   -105.15853   -3509.9909    4.3666093    4.3666093    4.3666093   -3509.9909    7283.8306    1516.7529   -19330.556   -263.36464    10751.095   -22044.623    83.259349 
   75300    1130.6015   -106.20752     1.022992   -105.18453   -11893.315    4.3302852    4.3302852    4.3302852   -11893.315   -18558.175    13775.799   -30897.569     25009.93   -66154.275    19290.085    81.198778 
   75400    1701.5608   -106.75292     1.539608   -105.21331    6463.0644    4.3221185    4.3221185    4.3221185    6463.0644    -18267.26    42063.891    -4407.438     8346.197    66972.382    9221.5981    80.740233 
   75500    2353.1652   -107.36463    2.1291933   -105.23544    1011.2102    4.3535009    4.3535009    4.3535009    1011.2102     4252.749    13016.904   -14236.022   -1937.9839   -20670.428   -4819.6498    82.511772 
   75600    1467.6392   -106.56596    1.3279508   -105.23801   -34225.398     4.371223     4.371223     4.371223   -34225.398   -43953.679    7226.3244    -65948.84    20321.987   -4107.8914    12212.195    83.523539 
   75700      1357.28   -106.45052    1.2280955   -105.22242    6676.1661    4.3533083    4.3533083    4.3533083    6676.1661   -12382.776    20272.651    12138.623   -5749.6587    50679.472    2528.7925    82.500824 
   75800    2145.2986   -107.13711    1.9411112     -105.196    18686.266    4.3474677    4.3474677    4.3474677    18686.266     46503.94    21531.352   -11976.493    232.27061   -9979.3758   -1978.3743    82.169204 
   75900    1431.0502   -106.50622    1.2948443   -105.21137    -31643.23    4.3503541    4.3503541    4.3503541    -31643.23   -52786.093    31958.198   -74101.794    5850.0831    69954.275    27850.399    82.332976 
   76000    1970.8989   -106.98983    1.7833108   -105.20652    744.64065    4.3522406    4.3522406    4.3522406    744.64065   -7005.7591   -21118.385    30358.066   -17368.917   -19361.735   -24020.363    82.440134 
   76100     1393.291   -106.47671     1.260679   -105.21603   -36561.028    4.3588689    4.3588689    4.3588689   -36561.028    -16199.45   -19142.319   -74341.315   -7771.5231    50605.841    29410.078    82.817365 
   76200    1822.1134   -106.87243    1.6486865   -105.22375   -1200.5939    4.3464973    4.3464973    4.3464973   -1200.5939    12760.961      28733.5   -45096.243    9.5419137    26131.715    19255.823    82.114193 
   76300    2156.8362   -107.17584    1.9515507   -105.22429   -4432.8852    4.3370799    4.3370799    4.3370799   -4432.8852    1843.7319   -10719.595   -4422.7929   -11028.629    8.0079583   -13821.299    81.581608 
   76400    723.45503   -105.90546   0.65459732   -105.25087   -9851.5022    4.3406207    4.3406207    4.3406207   -9851.5022    46631.271    11379.248   -87565.025    5300.7448    58322.859    52848.793    81.781581 
   76500    2746.3263   -107.70989    2.4849337   -105.22496    11369.166    4.3532155    4.3532155    4.3532155    11369.166    30180.605    17769.803    -13842.91   -3578.4418   -12733.567   -15174.477    82.495544 
   76600      1363.27   -106.47712    1.2335154   -105.24361   -23486.968    4.3562483    4.3562483    4.3562483   -23486.968   -11075.455    4607.5805   -63993.029   -10536.205     34015.75    30864.966    82.668087 
   76700    1426.9438    -106.5241    1.2911288   -105.23297    6100.9384    4.3444534    4.3444534    4.3444534    6100.9384    40202.626    1203.1227   -23102.934   -2247.5453    42535.972    9134.2642     81.99841 
   76800    2643.5077    -107.6099    2.3919014     -105.218    8628.9901    4.3467879    4.3467879    4.3467879    8628.9901    12036.916    17165.615   -3315.5612    3130.4015   -19912.954   -12434.596    82.130666 
   76900    770.33733   -105.94171   0.69701741   -105.24469   -7607.8043    4.3539903    4.3539903    4.3539903   -7607.8043    27688.264    7953.1606   -58464.837    81.865868    53450.078    40546.744    82.539602 
   77000    2001.4201   -107.04354     1.810927   -105.23262   -16184.007    4.3539477    4.3539477    4.3539477   -16184.007   -41344.453   -35507.606    28300.038    12138.127    13017.767   -15366.824    82.537177 
   77100     2075.189   -107.10083    1.8776746   -105.22316    11813.382    4.3471401    4.3471401    4.3471401    11813.382    45016.584    15038.599   -24615.037   -177.37817    18315.269    11627.066    82.150633 
   77200    1416.5855   -106.51751    1.2817563   -105.23576   -14173.866    4.3465385    4.3465385    4.3465385   -14173.866    529.97432    -16558.37   -26493.203    8508.7664    44746.771     21311.91    82.116531 
   77300    1572.0337   -106.66059    1.4224091   -105.23819   -5192.5644    4.3505013    4.3505013    4.3505013   -5192.5644   -1654.1187   -27213.516    13289.941    4068.1766   -36658.574   -9764.0524    82.341335 
   77400    2009.2846   -107.04349     1.818043   -105.22544    11954.887    4.3523456    4.3523456    4.3523456    11954.887    47206.342    27856.894   -39198.576    1762.6386    19358.803    30135.779    82.446099 
   77500    1469.8925   -106.55884    1.3299896   -105.22885     10040.01    4.3518996    4.3518996    4.3518996     10040.01   -31938.686     6755.387    55303.329    24042.315   -3236.8426   -8242.1566    82.420758 
   77600    1369.6341   -106.47427    1.2392738     -105.235   -5960.4453     4.354443     4.354443     4.354443   -5960.4453   -24887.437     9667.915   -2661.8138    -5338.381   -41492.366    2192.1747     82.56535 
   77700    2752.7478   -107.68654     2.490744    -105.1958    2729.0415    4.3649493    4.3649493    4.3649493    2729.0415   -9334.4258    16713.663    807.88691    7067.7777    9812.5842    10623.613    83.164431 
   77800    840.90152   -105.97971   0.76086537   -105.21884   -2364.6706    4.3630232    4.3630232    4.3630232   -2364.6706   -17435.335   -13152.377    23493.701     5141.843   -35012.224   -18935.307    83.054383 
   77900    1928.5473   -106.96191    1.7449901   -105.21692   -6321.6129    4.3472771    4.3472771    4.3472771   -6321.6129   -18981.857    23245.345   -23228.327   -17909.461    2276.5646    8790.9632    82.158398 
   78000    1645.0082   -106.71191     1.488438   -105.22347    38128.433    4.3320568    4.3320568    4.3320568    38128.433    61853.111    19773.604    32758.584    8098.9232    39841.222    1811.8485    81.298481 
   78100    1965.3774   -107.01572    1.7783148    -105.2374   -719.77125    4.3484888    4.3484888    4.3484888   -719.77125    -17062.05   -22668.054     37570.79    14558.097   -36287.102   -13373.012    82.227116 
   78200    1153.5109   -106.27332    1.0437209    -105.2296   -8899.2035    4.3686809    4.3686809    4.3686809   -8899.2035    1932.8913    6124.8343   -34755.336   -366.01799    66047.232    21127.107    83.377906 
   78300    2211.6394   -107.20257    2.0011378   -105.20143    1879.0648    4.3600636    4.3600636    4.3600636    1879.0648    14251.653   -25854.792    17240.333     5863.918   -12718.881   -25155.421    82.885485 
   78400    1560.1826   -106.61533     1.411686   -105.20364    26243.097     4.343087     4.343087     4.343087    26243.097    31399.242     23929.73    23400.318     359.3358    51005.139   -1466.1614    81.921063 
   78500    1663.0309   -106.72709    1.5047453   -105.22234   -8280.6068    4.3444312    4.3444312    4.3444312   -8280.6068    10645.049    -7942.891   -27543.978    7536.9333    30536.855    651.47207    81.997152 
   78600    1602.1306   -106.68409    1.4496414   -105.23445   -7098.1408    4.3507978    4.3507978    4.3507978   -7098.1408    49607.613   -55607.256    -15294.78   -2532.9996   -18438.911   -41231.109     82.35817 
   78700    2217.3291   -107.22603     2.006286   -105.21975    7955.9689    4.3514307    4.3514307    4.3514307    7955.9689   -3879.3114    6056.4488    21690.769    2420.3338    40107.187    12699.356     82.39412 
   78800    1151.4505   -106.26936    1.0418566   -105.22751   -44081.317    4.3640265    4.3640265    4.3640265   -44081.317     40832.61   -78450.998   -94625.563    3506.4882   -8404.9266   -41986.599    83.111692 
   78900      1650.93   -106.71753    1.4937961   -105.22374   -15045.051     4.350329     4.350329     4.350329   -15045.051    2776.6928    -23531.21   -24380.635   -4328.7531   -40072.621     14645.26    82.331552 
   79000    2378.1912   -107.35865    2.1518373   -105.20682    9899.7006    4.3386562    4.3386562    4.3386562    9899.7006    28107.983   -12606.619    14197.738    2304.9354    15829.878   -40993.886    81.670594 
   79100    895.92422   -106.04437   0.81065106   -105.23372   -39460.352    4.3538915    4.3538915    4.3538915   -39460.352    14155.938   -46646.081   -85890.912   -7232.5128   -35559.857   -18954.364    82.533981 
   79200    1850.7608   -106.88536    1.6746073   -105.21075   -526.80702    4.3531034    4.3531034    4.3531034   -526.80702   -1109.4943     5557.937   -6028.8637    1313.0694   -11089.545    14661.023    82.489174 
   79300    2164.6747   -107.16966    1.9586431   -105.21102   -24086.817    4.3610025    4.3610025    4.3610025   -24086.817   -13553.021    -31106.42   -27601.012    -3555.441    33625.629   -18538.487    82.939039 
   79400    1274.9493   -106.36361    1.1536009   -105.21001   -11620.597    4.3591063    4.3591063    4.3591063   -11620.597    14353.248   -5098.4524   -44116.586   -2136.9917   -42611.226    24653.824    82.830902 
   79500     1478.197   -106.54066    1.3375037   -105.20316    35399.068     4.336977     4.336977     4.336977    35399.068    10683.398    46925.039    48588.766   -8766.1397    74411.664   -3390.4994    81.575805 
   79600    2569.0259   -107.52461    2.3245086   -105.20011    24235.498    4.3497606    4.3497606    4.3497606    24235.498    14415.294    10220.903    48070.298    11779.733   -18270.203    1326.5688    82.299287 
   79700    744.59161   -105.90363   0.67372214   -105.22991   -13348.007    4.3559728    4.3559728    4.3559728   -13348.007   -60928.767    71166.479   -50281.732   -9781.3002    45387.839    15236.157      82.6524 
   79800    2079.9872   -107.07092    1.8820161   -105.18891    23004.287    4.3641388    4.3641388    4.3641388    23004.287   -13237.755    33973.086     48277.53    2946.2176   -17405.082   -19432.047     83.11811 
   79900    1325.7605   -106.38415     1.199576   -105.18457   -43926.702    4.3746601    4.3746601    4.3746601   -43926.702   -77655.164    323.19943   -54448.141    2099.1971     76243.62   -13408.507    83.720716 
   80000    1935.6172   -106.92152    1.7513872   -105.17013    11111.638    4.3409303    4.3409303    4.3409303    11111.638     9412.998    29377.501   -5455.5855   -19739.046    5912.3626     15041.39    81.799081 
   80100    1727.7385   -106.73818    1.5632941   -105.17489    -2780.233    4.3354283    4.3354283    4.3354283    -2780.233    1752.9114    16487.913   -26581.524    13473.599    20350.781   -48976.947    81.488444 
   80200     1654.901   -106.68967    1.4973892   -105.19228   -3168.9017    4.3622636    4.3622636    4.3622636   -3168.9017   -46945.646    57035.559   -19596.618   -14093.989    18317.045    16944.042    83.011012 
   80300    1781.4875   -106.76613    1.6119273    -105.1542   -18822.571    4.3860852    4.3860852    4.3860852   -18822.571    36863.528   -65271.975   -28059.265   -8122.7978    -8684.096   -33617.717    84.378381 
   80400    1958.8426   -106.89446    1.7724019   -105.12205   -3453.9012    4.3874232    4.3874232    4.3874232   -3453.9012    1657.0969    -14316.77    2297.9695   -13006.546    26731.928    8333.5591    84.455625 
   80500    1291.6854   -106.29122    1.1687441   -105.12248   -15539.014    4.3689557    4.3689557    4.3689557   -15539.014    14847.826   -45175.965   -16288.904   -10275.848   -25752.453   -36302.158    83.393641 
   80600    1760.5933   -106.72265    1.5930218   -105.12962    19020.404     4.335935     4.335935     4.335935    19020.404    37796.557    14917.778    4346.8764    10873.642     36827.53   -24787.819    81.517018 
   80700    1827.1899   -106.81851    1.6532798   -105.16523    -947.7584    4.3434107    4.3434107    4.3434107    -947.7584    26966.708   -26012.435   -3797.5484   -8927.8906   -18660.208   -15772.283    81.939384 
   80800    1130.6427   -106.22625    1.0230292   -105.20323   -35753.161    4.3636704    4.3636704    4.3636704   -35753.161     36072.61   -59323.674   -84008.419   -5886.5396   -10301.788   -25515.436    83.091351 
   80900    2480.9452   -107.41998    2.2448114   -105.17517     19431.96    4.3608534    4.3608534    4.3608534     19431.96    17995.424    26350.323    13950.132    26311.084    22687.332    14049.706    82.930534 
   81000    606.05337   -105.75243   0.54836983   -105.20406   -34534.481    4.3620298    4.3620298    4.3620298   -34534.481    4332.2731   -43962.086   -63973.631   -20250.778   -51817.187   -59863.686    82.997668 
   81100    2703.5413    -107.6246     2.446221   -105.17838    3094.2562    4.3430662    4.3430662    4.3430662    3094.2562   -6052.4451    8807.4537    6527.7601    21084.342    13688.372    18730.038    81.919889 
   81200    1128.7137   -106.22999    1.0212839   -105.20871    4713.8975    4.3412819    4.3412819    4.3412819    4713.8975     33666.33   -8564.5636   -10960.074    21975.949   -10800.384   -45250.965     81.81896 
   81300    1917.8817   -106.94389    1.7353396   -105.20855   -24530.289    4.3585758    4.3585758    4.3585758   -24530.289   -16588.427    797.04888   -57799.487   -11477.099   -31004.336   -19448.891    82.800664 
   81400    1816.7498   -106.84383    1.6438334       -105.2   -5692.7425    4.3579396    4.3579396    4.3579396   -5692.7425    13882.523    -30856.49   -104.26024    27515.342    24369.299   -3228.6775    82.764412 
   81500    1158.5852   -106.25534    1.0483123   -105.20703   -9807.4214    4.3609878    4.3609878    4.3609878   -9807.4214     21703.66   -4390.2602   -46735.664   -2561.1756   -26868.466   -48956.776      82.9382 
   81600    1948.3037   -106.94303    1.7628662   -105.18016   -5824.9942    4.3637418    4.3637418    4.3637418   -5824.9942    16411.335   -11151.887    -22734.43    3307.3939   -4062.4054    29692.443    83.095429 
   81700     992.8292   -106.09471   0.89833272   -105.19638   -14004.487    4.3569232    4.3569232    4.3569232   -14004.487    42496.751   -76899.342   -7610.8703    19288.629    34513.336   -50991.865    82.706514 
   81800    2498.7776   -107.43807    2.2609465   -105.17712    20228.911     4.351059     4.351059     4.351059    20228.911    57945.342     -5439.64    8181.0318   -11219.869   -8429.5873    25663.572    82.373006 
   81900    528.31109   -105.68724   0.47802698   -105.20921   -11736.897    4.3630791    4.3630791    4.3630791   -11736.897    19564.738   -71141.626    16366.196    44256.165    17251.908   -21624.899    83.057575 
   82000    2409.3293   -107.34578    2.1800118   -105.16577    2555.8707    4.3704205    4.3704205    4.3704205    2555.8707    -9885.849   -1966.3348    19519.796    -11477.14    -953.5795   -3714.0198    83.477543 
   82100    1447.7368   -106.47234    1.3099427    -105.1624   -25055.752    4.3705651    4.3705651    4.3705651   -25055.752    -16614.49   -78284.019    19731.253    18508.379   -4209.2813    946.42479    83.485832 
   82200    1600.2943    -106.6106    1.4479799   -105.16262   -4723.2015     4.355576     4.355576     4.355576   -4723.2015   -17942.022    -3633.691    7406.1088    26024.149    7899.5411   -12816.245    82.629815 
   82300    1957.9142   -106.94669    1.7715619   -105.17513    16963.103    4.3318165    4.3318165    4.3318165    16963.103   -19333.781    26443.317    43779.774   -30268.257   -33206.953     9371.562    81.284954 
   82400    1409.7273   -106.49265    1.2755509    -105.2171    5070.1779    4.3317141    4.3317141    4.3317141    5070.1779   -79.386916   -27280.859     42570.78    50747.888    6353.4832   -19674.927    81.279186 
   82500    2401.1678   -107.38919    2.1726271   -105.21656     9936.186    4.3564818    4.3564818    4.3564818     9936.186   -39101.431    56149.168    12760.821   -27638.679   -20445.357    15308.651    82.681381 
   82600    1000.8719   -106.12008   0.90560992   -105.21447   -31917.318    4.3754867    4.3754867    4.3754867   -31917.318    -57886.16   -34249.616   -3616.1764    18472.167   -13683.653   -8630.6129    83.768183 
   82700    1982.6176   -106.98401     1.793914    -105.1901   -6692.5099    4.3583464    4.3583464    4.3583464   -6692.5099   -57.072863   -1081.3457   -18939.111    9168.5677    10242.393   -14054.034    82.787589 
   82800    1733.7139   -106.75208    1.5687008   -105.18338    17694.159    4.3323671    4.3323671    4.3323671    17694.159   -24024.642    17397.719    59709.401    6578.1385   -8805.7866    26120.091    81.315953 
   82900    1463.0337   -106.52996    1.3237836   -105.20618   -12183.375    4.3411632    4.3411632    4.3411632   -12183.375   -65234.135   -19326.388    48010.398    45888.053   -9814.2283   -12431.269    81.812252 
   83000    2053.0565   -107.05953    1.8576487   -105.20188   -6016.9597    4.3531837    4.3531837    4.3531837   -6016.9597   -45927.717    41239.642   -13362.805   -16011.833    46378.025    16391.217     82.49374 
   83100    1556.4416   -106.62066     1.408301   -105.21236   -28628.656    4.3601491    4.3601491    4.3601491   -28628.656   -70505.065   -79309.938    63929.035     59889.35   -18982.942    15233.371    82.890361 
   83200    1498.6402   -106.56447    1.3560012   -105.20847   -34156.334    4.3524014    4.3524014    4.3524014   -34156.334   -94608.031    22067.581   -29928.552   -9621.0899    41932.612    1258.2731    82.449274 
   83300    1835.3457   -106.86149    1.6606593   -105.20083    12733.608    4.3313901    4.3313901    4.3313901    12733.608   -30311.399    42840.197    25672.026    14353.208    21424.595     6713.859     81.26095 
   83400    2233.4914   -107.23527      2.02091   -105.21436   -5477.1689    4.3457744    4.3457744    4.3457744   -5477.1689   -23445.001   -29322.282    36335.776    4508.7588     9763.624    11333.827    82.073229 
   83500    1132.2679   -106.24596    1.0244998   -105.22147   -48214.697    4.3631552    4.3631552    4.3631552   -48214.697   -104938.69    1872.4845   -41577.882   -30770.348    40779.445   -4062.5733    83.061926 
   83600    2311.8757   -107.28735    2.0918337   -105.19552    35494.374    4.3473971    4.3473971    4.3473971    35494.374    25039.676    9318.3524    72125.095    10346.479   -49841.756   -697.71632    82.165201 
   83700    1422.5842   -106.49999    1.2871841    -105.2128    3115.0838      4.34494      4.34494      4.34494    3115.0838   -32052.839    23425.861     17972.23   -6603.0153    70032.752   -4105.8965    82.025968 
   83800    1189.9953   -106.30279    1.0767327   -105.22605    11131.463    4.3417346    4.3417346    4.3417346    11131.463   -5624.1441     40690.97   -1672.4362   -5531.4607   -41137.051   -5696.3043     81.84456 
   83900    2384.9535   -107.37138     2.157956   -105.21342    14225.177    4.3497682    4.3497682    4.3497682    14225.177    10873.937    -8143.798    39945.392    16318.804    19049.704     2004.623    82.299716 
   84000    1246.6317   -106.34493    1.1279786   -105.21696   -19831.469    4.3588805    4.3588805    4.3588805   -19831.469   -44301.594    -7585.513   -7607.3009   -17749.507    20891.454   -126.28405    82.818029 
   84100    1976.6729   -106.98602    1.7885352   -105.19749   -5342.6082    4.3506571    4.3506571    4.3506571   -5342.6082   -22004.964    4185.6988    1791.4407    20332.938     -40166.6    463.28372    82.350182 
   84200       1588.1   -106.64674    1.4369463   -105.20979   -6409.5208    4.3384263    4.3384263    4.3384263   -6409.5208   -41860.739   -2718.0635     25350.24    38693.223    27096.575    5234.0229     81.65761 
   84300    2177.3476   -107.17846    1.9701098   -105.20835    13714.349     4.343295     4.343295     4.343295    13714.349    13852.794    28570.376   -1280.1214   -17288.696    6079.2937   -11375.299    81.932833 
   84400    1302.2313   -106.39559    1.1782862   -105.21731   -20511.195    4.3630253    4.3630253    4.3630253   -20511.195   -16107.677   -49965.947    4540.0381    67649.688   -18641.471    16013.476    83.054507 
   84500    1479.3039   -106.54197    1.3385053   -105.20346   -10365.196    4.3582238    4.3582238    4.3582238   -10365.196     391.4967    21051.447    -52538.53    10340.465    46778.463   -2583.0375    82.780603 
   84600    1839.9433    -106.8567    1.6648194   -105.19188    33403.782    4.3462666    4.3462666    4.3462666    33403.782    66765.043    25840.589    7605.7152    27464.669   -7796.9439      8808.09     82.10112 
   84700    1112.7542   -106.21282    1.0068434   -105.20597   -13765.955    4.3569509    4.3569509    4.3569509   -13765.955    9997.4846   -17092.518    -34202.83    39391.559    20044.684    16456.915    82.708091 
   84800    1923.6327   -106.92707    1.7405433   -105.18653   -674.32926    4.3596726    4.3596726    4.3596726   -674.32926   -24053.588    66267.839   -44237.239   -7327.7373    37230.743    3375.6583    82.863185 
   84900    1720.9942   -106.74825    1.5571917   -105.19106    1360.3744    4.3569301    4.3569301    4.3569301    1360.3744   -31823.724    6042.3503    29862.497    62352.283    -15877.85    8613.4831    82.706906 
   85000    1418.7919   -106.48797    1.2837527   -105.20422   -9731.0354    4.3515925    4.3515925    4.3515925   -9731.0354   -37082.259    71946.511   -64057.359   -7870.0415    60387.738   -2672.1462    82.403309 
   85100     1759.658   -106.79284    1.5921756   -105.20067    21554.318     4.334345     4.334345     4.334345    21554.318   -11650.606    58939.366    17374.195    24671.293   -17139.078    -2615.254    81.427373 
   85200    1608.8206   -106.67692    1.4556947   -105.22122    6104.3496    4.3435545    4.3435545    4.3435545    6104.3496   -18060.064    9713.4959    26659.617    33346.458    22622.249   -473.84573    81.947523 
   85300    1969.5669   -106.99232    1.7821055   -105.21022   -10278.235    4.3574112    4.3574112    4.3574112   -10278.235   -16831.014    5209.1447   -19212.835   -29711.193    6436.7613   -6017.8333    82.734309 
   85400    1233.0354   -106.34217    1.1156764   -105.22649   -10821.925    4.3515754    4.3515754    4.3515754   -10821.925   -41254.094    8018.7303     769.5905    46239.509     -20049.3   -225.44071    82.402339 
   85500    2264.5031   -107.24267      2.04897    -105.1937    8542.6302    4.3553874    4.3553874    4.3553874    8542.6302    25106.481    32982.613   -32461.203   -2558.7679    14311.574   -7023.1327    82.619084 
   85600    836.43462   -105.97438   0.75682362   -105.21756   -29087.093    4.3595103    4.3595103    4.3595103   -29087.093   -22828.866   -4017.4747   -60414.938   -9270.5021   -24904.944   -14195.946    82.853934 
   85700    2267.5331   -107.25295    2.0517116   -105.20124    22470.919    4.3365154    4.3365154    4.3365154    22470.919   -251.18131    83726.986   -16063.048    23517.677   -1129.5171    1167.5305    81.549756 
   85800    1351.7445   -106.44875    1.2230868   -105.22566   -6240.2847    4.3323825    4.3323825    4.3323825   -6240.2847    33053.819   -7318.6486   -44456.025   -11216.859    19838.804   -11505.148    81.316817 
   85900    1961.8809   -106.99431     1.775151   -105.21916   -13019.131    4.3535055    4.3535055    4.3535055   -13019.131   -8169.7312    23383.479   -54271.142   -591.85944   -7596.6832   -12911.628    82.512035 
   86000    1880.8574   -106.89731    1.7018393   -105.19547   -26584.205    4.3641602    4.3641602    4.3641602   -26584.205   -39093.658    44746.881   -85405.838    15501.675     45500.94    4874.8405    83.119336 
   86100    1280.1852    -106.3465    1.1583384   -105.18817   -25889.359    4.3543826    4.3543826    4.3543826   -25889.359    16651.296   -33394.721    -60924.65    -19009.66   -14593.877     -16189.3    82.561917 
   86200    1965.2692   -106.96767    1.7782169   -105.18945    10535.061    4.3305298    4.3305298    4.3305298    10535.061   -28464.322     89790.53   -29721.025    12787.794    44140.415   -3297.9017    81.212541 
   86300    1371.9596   -106.44421    1.2413779   -105.20284    30046.574    4.3198185    4.3198185    4.3198185    30046.574    54256.368    49052.373   -13169.019    21071.097   -96.815353   -9149.1652    80.611406 
   86400    1727.2233   -106.78399    1.5628279   -105.22116   -8205.9243    4.3504179    4.3504179    4.3504179   -8205.9243    16758.212   -50.612948   -41325.372    -18696.08   -7641.2276   -9463.6502    82.336601 
   86500     2172.104    -107.1627    1.9653654   -105.19733   -9345.8009    4.3592932    4.3592932    4.3592932   -9345.8009   -31009.902   -1973.4308    4945.9302    51248.605    5280.9004   -3.9145721    82.841556 
   86600    1105.1665   -106.21055   0.99997791   -105.21057    3179.3674    4.3341481    4.3341481    4.3341481    3179.3674    61128.046    1414.6186   -53004.562   -7423.7405   -6739.0258   -7351.6761    81.416279 
   86700    1954.7248   -106.96009    1.7686761   -105.19141    9616.5828    4.3284256    4.3284256    4.3284256    9616.5828   -6863.7833    31503.895    4209.6366    28975.911     -9019.44    455.02378    81.094217 
   86800    1517.0602   -106.58319    1.3726679   -105.21052   -12041.597    4.3393267    4.3393267    4.3393267   -12041.597   -17970.913   -11816.883   -6336.9938    43536.772    9834.2518   -1802.2511    81.708466 
   86900    2004.6401    -107.0158    1.8138405   -105.20196   -14197.183    4.3479126    4.3479126    4.3479126   -14197.183    45985.735   -11176.037   -77401.247   -14092.992   -6199.4657   -11798.049    82.194433 
   87000    1470.7151   -106.54389    1.3307339   -105.21316    -24209.33     4.343938     4.343938     4.343938    -24209.33   -76513.791    -19464.34    23350.141    77685.226    5966.4624    3259.3358     81.96923 
   87100    1908.1419    -106.9278    1.7265269   -105.20127    1685.8864    4.3326143    4.3326143    4.3326143    1685.8864    33479.551    10693.721   -39115.612   -11727.728    18830.795   -16461.723    81.329872 
   87200    1580.6014   -106.64322    1.4301614   -105.21306   -3795.6248    4.3327892    4.3327892    4.3327892   -3795.6248    16168.234   -28504.245    949.13729    47269.311   -7756.9651   -954.18349    81.339724 
   87300    1846.9723   -106.88778    1.6711793    -105.2166   -1450.5333    4.3408256    4.3408256    4.3408256   -1450.5333   -15035.745    9073.1106    1611.0349    37573.121    15555.617   -1559.7116    81.793167 
   87400    1627.2334   -106.68121     1.472355   -105.20886     1488.632    4.3478781    4.3478781    4.3478781     1488.632    39986.173   -4088.8723   -31431.405   -5303.2545    9261.1278   -25173.351    82.192481 
   87500    1288.5883    -106.3736    1.1659418   -105.20766   -21478.015    4.3531106    4.3531106    4.3531106   -21478.015   -69129.941   -16220.783     20916.68    71912.066   -9891.5141    15984.219    82.489584 
   87600    2488.4066   -107.42541    2.2515626   -105.17385    10461.034    4.3457852    4.3457852    4.3457852    10461.034    50939.376     7955.919   -27512.192   -37719.942   -1829.9957   -14278.951    82.073843 
   87700    1192.6303   -106.27795     1.079117   -105.19884   -17825.845    4.3384363    4.3384363    4.3384363   -17825.845    695.32367   -50730.284   -3442.5742    75149.166   -2649.6118    -642.6085    81.658174 
   87800    2084.9604   -107.07758     1.886516   -105.19106    11777.727      4.33806      4.33806      4.33806    11777.727   -8159.5477      53274.9   -9782.1721   -17429.415   -29907.338    7105.2986    81.636928 
   87900     1543.781   -106.60294    1.3968455    -105.2061    4644.6448    4.3372488    4.3372488    4.3372488    4644.6448    7898.4156   -29873.587    35909.106    26573.776    6656.3494    1151.0398    81.591142 
   88000    1630.5009   -106.68636    1.4753115   -105.21105    9127.3774    4.3461552    4.3461552    4.3461552    9127.3774   -17383.319    39228.103     5537.349    49623.771   -23209.755    5843.8013    82.094811 
   88100    1857.5824    -106.8801    1.6807796   -105.19932    6653.6524    4.3482812    4.3482812    4.3482812    6653.6524    8890.0325    10875.523    195.40181   -35599.643   -17999.598    4463.3188     82.21534 
   88200    1082.3087   -106.19323    0.9792957   -105.21393    4625.2315    4.3409016    4.3409016    4.3409016    4625.2315    -21611.75   -5843.4317    41330.876    68305.095    10772.579   -972.48892    81.797464 
   88300    2748.6476    -107.6741    2.4870341   -105.18707    24192.354     4.334728     4.334728     4.334728    24192.354    43880.971    19208.372    9487.7189   -24526.005   -13138.154    6011.2775    81.448961 
   88400    732.64378   -105.88421   0.66291149    -105.2213     6494.197     4.342637     4.342637     4.342637     6494.197    1315.2313   -36865.673    55033.033    30679.896   -733.32759   -259.34467    81.895606 
   88500    2157.2326   -107.14239    1.9519094   -105.19048   -13647.613    4.3584101    4.3584101    4.3584101   -13647.613   -1863.9887   -11244.476   -27834.374    5916.5461    26718.897    47.357346    82.791219 
   88600    1689.4389   -106.73048    1.5286398   -105.20184    6808.8329     4.337734     4.337734     4.337734    6808.8329    13621.068   -20365.558    27170.989    14957.777    2369.3448    1580.4286    81.618529 
   88700    1477.5396   -106.53789    1.3369089   -105.20098    18790.836    4.3253458    4.3253458    4.3253458    18790.836    9289.6266    5965.3182    41117.565    33101.298    6545.1994   -4026.8277    80.921237 
   88800    2397.8002   -107.35831      2.16958   -105.18873    9674.9201    4.3380507    4.3380507    4.3380507    9674.9201    38168.723    21207.833   -30351.795   -1829.0137    9446.7158    5542.0283    81.636405 
   88900    704.91613   -105.86157   0.63782293   -105.22374   -2515.2875      4.34593      4.34593      4.34593   -2515.2875   -26045.246   -11323.461    29822.844    52241.663   -6271.1193    5918.7071    82.082045 
   89000    2825.2495   -107.73366    2.5563451   -105.17732    4952.6551    4.3573793    4.3573793    4.3573793    4952.6551    28562.036   -4605.3178    -9098.753   -21390.015    4675.6311    11138.644    82.732492 
   89100     797.1153   -105.93402   0.72124667   -105.21278   -28956.547    4.3428955    4.3428955    4.3428955   -28956.547   -14152.154   -58518.855   -14198.631    59955.601    -3580.523    13987.142    81.910226 
   89200    2180.5586   -107.16328    1.9730152   -105.19026      19191.4    4.3228335    4.3228335    4.3228335      19191.4    14700.826    28642.228    14231.147    9193.0854   -10432.882   -10465.286    80.780312 
   89300    1435.7514   -106.51161    1.2990981   -105.21252   -1685.1413    4.3318224    4.3318224    4.3318224   -1685.1413    311.74104    131.82973   -5498.9945    9922.2482    13950.162    25542.275    81.285284 
   89400    1349.9528   -106.44967    1.2214657    -105.2282   -9319.9414    4.3484162    4.3484162    4.3484162   -9319.9414   -969.94008   -46163.599    19173.715    60806.381    424.25854    2368.8797    82.222997 
   89500    2332.8257    -107.3037    2.1107897   -105.19291    790.72451    4.3547453    4.3547453    4.3547453    790.72451    434.22622    -23453.41    25391.357   -36971.849    22.025538   -9854.2701    82.582546 
   89600    757.61692   -105.89418   0.68550771   -105.20867   -18558.238    4.3450824    4.3450824    4.3450824   -18558.238   -27292.946   -49648.551    21266.783    67574.292    4811.3742    26688.428    82.034031 
   89700    2664.1116   -107.58284    2.4105442    -105.1723    22822.805    4.3294927    4.3294927    4.3294927    22822.805     45962.75    11806.004    10699.662   -26299.027   -1907.1506   -4520.9102    81.154207 
   89800    1035.5228   -106.14739   0.93696278   -105.21042   -5643.2668     4.333107     4.333107     4.333107   -5643.2668   -28703.589   -68737.373    80511.162    49646.866   -6475.4008    3460.7088    81.357621 
   89900    2377.5386   -107.33873    2.1512469   -105.18748    7836.6333    4.3490137    4.3490137    4.3490137    7836.6333    54941.024   -31714.987     283.8625    9744.8424    4854.8784    3072.9249    82.256899 
   90000    1024.2957   -106.12938   0.92680426   -105.20258   -35236.129    4.3557927    4.3557927    4.3557927   -35236.129   -44659.772   -66034.794    4986.1793    31631.508   -22760.435   -11866.221     82.64215 
   90100    1708.2499   -106.74094    1.5456604   -105.19528   -3142.0311     4.339844     4.339844     4.339844   -3142.0311   -12574.695   -49275.987    52424.588    23299.131    14857.665    3057.2597     81.73769 
   90200    2307.0055   -107.27424    2.0874271   -105.18681   -259.93571    4.3342805    4.3342805    4.3342805   -259.93571    16417.103    4661.4189   -21858.329    7267.9799    10830.891   -8985.2595    81.423739 
   90300    1069.8014   -106.18341   0.96797876   -105.21544   -12330.552    4.3393538    4.3393538    4.3393538   -12330.552   -41604.627   -66211.253    70824.224    54957.394   -10173.017   -10399.329    81.709993 
   90400    2352.7081   -107.32369    2.1287798   -105.19491    14829.953    4.3471712    4.3471712    4.3471712    14829.953    26533.143    1557.9926    16398.725   -35467.725    22162.882    8528.8137    82.152396 
   90500    936.01493   -106.06029   0.84692598   -105.21337   -28735.166     4.353735     4.353735     4.353735   -28735.166   -9856.3885   -63782.942   -12566.167    73668.565    17301.632   -12184.157    82.525081 
   90600    2381.3286   -107.34076    2.1546762   -105.18608    13751.806    4.3415911    4.3415911    4.3415911    13751.806    10791.918    28929.023    1534.4777    2893.5783   -3512.0203    129.64962    81.836443 
   90700    1326.2758   -106.40767    1.2000422   -105.20763    2547.1552    4.3369685    4.3369685    4.3369685    2547.1552   -13043.651   -6788.7933     27473.91    35333.377    32813.056   -5019.2232    81.575321 
   90800    1814.2024    -106.8487    1.6415284   -105.20717   -2949.5644    4.3420987    4.3420987    4.3420987   -2949.5644    -19750.98    -24271.93    35174.217    49212.012   -13071.826    3824.6301    81.865154 
   90900    2132.8075   -107.12775     1.929809   -105.19794    3889.6931    4.3461482    4.3461482    4.3461482    3889.6931    -15524.11    48920.739    -21727.55   -19247.655    31003.135   -1029.0678    82.094411 
   91000    1242.3261   -106.33687    1.1240828   -105.21278   -17761.758    4.3448634    4.3448634    4.3448634   -17761.758   -48276.061   -13176.684    8167.4721    78676.705    13833.907    -7350.458    82.021627 
   91100    1950.8536   -106.96275    1.7651734   -105.19757     12587.66    4.3399152    4.3399152    4.3399152     12587.66    7985.6086    50386.715   -20609.344   -25716.295   -10053.506   -3709.9015    81.741712 
   91200    1529.3858   -106.59651    1.3838205   -105.21269     5675.177    4.3362405    4.3362405    4.3362405     5675.177   -32114.408     20736.44    28403.499    4418.1551    27774.344   -346.24608    81.534253 
   91300    1867.2228   -106.89859    1.6895024   -105.20909    9798.0775     4.339358     4.339358     4.339358    9798.0775    14966.632    26280.145   -11852.545    24559.383   -21619.835    5359.3686    81.710231 
   91400    1289.5873   -106.38507    1.1668457   -105.21822   -19982.464    4.3504932    4.3504932    4.3504932   -19982.464    -1324.076    6469.7509   -65093.066   -39800.642   -9013.5603    4341.9424    82.340877 
   91500    2044.7456   -107.04622    1.8501288   -105.19609    14584.805    4.3478565    4.3478565    4.3478565    14584.805    14605.344    6639.3888    22509.682   -11625.728    7891.8267    5003.9012    82.191255 
   91600    1356.4541   -106.43827    1.2273482   -105.21092   -11455.364    4.3450985    4.3450985    4.3450985   -11455.364   -9582.1348    19743.872   -44527.829    2182.6028   -57921.927     9872.817    82.034942 
   91700    1971.7727   -106.98935    1.7841013   -105.20525    7034.3458    4.3353186    4.3353186    4.3353186    7034.3458   -1459.8072   -19169.699    41732.543    -50853.48    18727.966   -11651.816    81.482261 
   91800     1692.236   -106.73884    1.5311707   -105.20767    22768.147    4.3317516    4.3317516    4.3317516    22768.147    25474.215    65371.333   -22541.107    16128.596   -57351.546    5668.1804    81.281297 
   91900    1683.0638   -106.73769    1.5228715   -105.21482   -20239.639    4.3473682    4.3473682    4.3473682   -20239.639   -10829.865       -24816   -25073.052   -26006.845   -1393.6071    5518.2803    82.163562 
   92000     1701.374   -106.75559    1.5394389   -105.21615   -1638.9918    4.3411544    4.3411544    4.3411544   -1638.9918   -30087.729    4881.9434    20288.811   -33036.865   -25057.747   -10145.299    81.811754 
   92100    1716.0877   -106.76605    1.5527522    -105.2133    8712.8673    4.3384067    4.3384067    4.3384067    8712.8673    2314.0584    27375.594   -3551.0507    29729.836   -39595.798    4626.4104    81.656505 
   92200    2052.3049   -107.06007    1.8569686   -105.20311   -11594.871    4.3448443    4.3448443    4.3448443   -11594.871    4487.0722   -22773.001   -16498.684   -21151.585    12369.795    1847.7747    82.020547 
   92300    1053.7538   -106.17846   0.95345857     -105.225   -613.38507    4.3357149    4.3357149    4.3357149   -613.38507    7705.5958    45747.212   -55292.963    4348.5691   -91835.473   -1364.6085    81.504605 
   92400     2150.698   -107.16089    1.9459968    -105.2149    28435.893    4.3348476    4.3348476    4.3348476    28435.893    35711.461    1318.6763    48277.542    25585.893    26368.042   -583.94825    81.455703 
   92500    1400.4262   -106.49601    1.2671351   -105.22887   -19815.177    4.3426647    4.3426647    4.3426647   -19815.177   -25971.297     27819.94   -61294.175   -9525.6477   -71434.598   -93.580028    81.897168 
   92600    1939.1948    -106.9736    1.7546242   -105.21897   -700.66483    4.3411749    4.3411749    4.3411749   -700.66483   -13157.682    9960.9193    1094.7687    3665.6134   -28128.294    905.89154    81.812913 
   92700     1890.249    -106.9187     1.710337   -105.20836    13065.812    4.3457269    4.3457269    4.3457269    13065.812    1727.6394     57587.09   -20117.293     1386.577   -19914.408    6460.4368    82.070539 
   92800    1037.7212   -106.15466   0.93895191   -105.21571   -3742.3219    4.3492487    4.3492487    4.3492487   -3742.3219   -9176.4593    42413.603    -44464.11   -19086.432   -49971.819    3071.7742    82.270232 
   92900    2207.0601    -107.1805    1.9969943   -105.18351    14924.308    4.3416914    4.3416914    4.3416914    14924.308    30307.912   -2347.7491    16812.763   -12170.591    14581.393    8146.1564    81.842116 
   93000    1065.1496   -106.16572   0.96376974   -105.20195    13383.995    4.3385617    4.3385617    4.3385617    13383.995   -2970.1318    101710.07   -58587.956    5109.6094   -78392.301    14758.409    81.665256 
   93100    2164.1339   -107.13645    1.9581539   -105.17829    6261.1978    4.3485956    4.3485956    4.3485956    6261.1978    -11200.37    7557.2261    22426.737   -31267.688    47484.178    5933.7289    82.233179 
   93200    1359.9861   -106.42643     1.230544   -105.19588   -18168.472    4.3466624    4.3466624    4.3466624   -18168.472   -29847.504    23781.424   -48439.337   -12981.412   -93585.586    14118.861    82.123555 
   93300    2356.0918   -107.31216    2.1318414   -105.18031    12492.105    4.3411364    4.3411364    4.3411364    12492.105   -2812.9096    14650.479    25638.745    8661.5886    25802.648    4933.3399    81.810736 
   93400    1469.0142   -106.52927    1.3291949   -105.20008   -32117.845    4.3439405    4.3439405    4.3439405   -32117.845   -65120.993   -8648.2192   -22584.323    -56203.96    -35841.77     3344.499    81.969369 
   93500    1785.9059   -106.81241    1.6159252   -105.19649    648.13468    4.3388901    4.3388901    4.3388901    648.13468    3044.0849      -3138.1    2038.4191    36450.074    -38667.33     7670.135    81.683805 
   93600      1819.65   -106.85247    1.6464575   -105.20601   -5213.9117    4.3464021    4.3464021    4.3464021   -5213.9117   -41782.149   -5992.2682    32132.682     5073.941    18491.648    10061.761    82.108801 
   93700    2015.2665   -107.02469    1.8234555   -105.20123   -6918.1702    4.3419387    4.3419387    4.3419387   -6918.1702   -31790.363   -1037.8613    12073.714   -26571.358   -44834.845    2936.1465    81.856105 
   93800    1387.7017   -106.46712    1.2556217    -105.2115     15407.34    4.3353148    4.3353148    4.3353148     15407.34   -6935.0175   -7617.2676    60774.304     82152.78    3397.6204    62.841647    81.482045 
   93900    2535.8165   -107.48347    2.2944601   -105.18901   -8139.1744    4.3468181    4.3468181    4.3468181   -8139.1744   -24019.869    27261.954   -27659.607   -29009.526   -19643.556    18920.017    82.132378 
   94000    816.72077   -105.95381   0.73898611   -105.21483   -16399.419    4.3400977    4.3400977    4.3400977   -16399.419   -56411.213   -16435.675     23648.63    90601.236   -16665.343   -2861.7743    81.752026 
   94100    2220.6163   -107.20252    2.0092603   -105.19325    16344.333    4.3428465    4.3428465    4.3428465    16344.333    25311.479      27634.7   -3913.1782   -20078.351    3829.1758    10364.796    81.907456 
   94200    1413.0593   -106.48842    1.2785657   -105.20985   -14027.819    4.3460213    4.3460213    4.3460213   -14027.819   -66981.992    14482.341    10416.196    53015.311   -18797.684    7774.7978    82.087221 
   94300    2096.0407   -107.08723    1.8965417   -105.19069    18121.978    4.3307626    4.3307626    4.3307626    18121.978    5781.7265    47588.533    995.67604    18237.781   -16028.539    2941.4444     81.22564 
   94400    1154.7232   -106.26145    1.0448179   -105.21663   -16074.779    4.3376268    4.3376268    4.3376268   -16074.779    16090.333   -27278.497   -37036.174    -26177.48    5749.0853    13828.154    81.612475 
   94500    2445.3673   -107.42133    2.2126198   -105.20871    10275.088    4.3385457    4.3385457    4.3385457    10275.088   -11767.412     52796.56   -10203.884    11512.479   -11521.141   -4344.0299    81.664351 
   94600    1091.3702   -106.22941   0.98749465   -105.24191   -7655.8793    4.3411908    4.3411908    4.3411908   -7655.8793    66341.388   -42441.279   -46867.747    -13921.17    301.28839    12683.763    81.813812 
   94700    1642.0143   -106.70847     1.485729   -105.22274   -28470.124    4.3534157    4.3534157    4.3534157   -28470.124    18592.503   -47027.729   -56975.146   -21173.981    5592.6756    3806.9402    82.506927 
   94800    2179.1413    -107.1753    1.9717328   -105.20356     6951.678    4.3405552    4.3405552    4.3405552     6951.678    2571.2843     6407.916    11875.834     41300.95   -6286.1512    972.17842    81.777882 
   94900    1204.2169    -106.3083    1.0896008    -105.2187   -695.76441    4.3315747    4.3315747    4.3315747   -695.76441      74505.1    -40073.25   -36519.144   -29174.387      7559.61    12455.909    81.271341 
   95000    1906.4564    -106.9314    1.7250018    -105.2064    13855.387    4.3334365    4.3334365    4.3334365    13855.387    -5233.999    19376.192    27423.968    57350.827   -434.39475   -9657.6356    81.376181 
   95100    1766.5161   -106.81232    1.5983809   -105.21393   -5219.3913    4.3462399    4.3462399    4.3462399   -5219.3913   -12110.852   -7796.4097    4249.0874     35478.77   -6161.2517    2474.5084    82.099608 
   95200    1641.9568    -106.6916     1.485677   -105.20592   -6600.7019    4.3498176    4.3498176    4.3498176   -6600.7019    404.51895   -11526.578   -8680.0468    -9296.891   -2115.5993   -1104.6207    82.302524 
   95300    1227.8566   -106.32771    1.1109904   -105.21671   -13860.649    4.3392836    4.3392836    4.3392836   -13860.649   -65359.467   -2440.2555    26217.777    92420.517   -2417.1888   -12084.472    81.706028 
   95400    2763.0205   -107.69293     2.500039   -105.19289    28429.366     4.334967     4.334967     4.334967    28429.366    23792.987    77391.785   -15896.675   -24197.479   -10927.363    3539.3085    81.462436 
   95500    1143.8442   -106.25976    1.0349743   -105.22479   -7548.9607    4.3405438    4.3405438    4.3405438   -7548.9607   -61764.791   -3627.8369    42745.746    85734.319    4361.2848   -7039.6803    81.777234 
   95600    1777.3246   -106.82241    1.6081606   -105.21424    -9039.129    4.3449195    4.3449195    4.3449195    -9039.129    24357.914   -15124.661   -36350.639   -28105.636   -12268.738   -10458.644    82.024807 
   95700    1378.9987   -106.47394     1.247747    -105.2262    2769.5734    4.3373595    4.3373595    4.3373595    2769.5734   -17906.921    23330.286    2885.3554    37927.556   -6838.2935    8617.0309    81.597389 
   95800    2214.5274   -107.21847     2.003751   -105.21472    9769.6636    4.3337388    4.3337388    4.3337388    9769.6636    23557.839    8029.2699   -2278.1183    19157.849    11705.972   -11042.795    81.393213 
   95900    1307.1746   -106.41729     1.182759   -105.23453   -12516.478     4.337676     4.337676     4.337676   -12516.478    55924.166   -32703.701     -60769.9   -25663.629   -7408.2413    11485.171    81.615252 
   96000    2123.3595   -107.14696    1.9212603    -105.2257    22488.663    4.3377731    4.3377731    4.3377731    22488.663    40041.915    30585.691   -3161.6169    15763.475    15021.102    9989.6212    81.620733 
   96100    1422.9851   -106.52101    1.2875468   -105.23347   -16128.775    4.3463963    4.3463963    4.3463963   -16128.775    270.08134   -4247.7335   -44408.673   -10880.196    16117.193    1575.5947    82.108472 
   96200    1271.3977    -106.3786    1.1503873   -105.22821   -13688.972    4.3426988    4.3426988    4.3426988   -13688.972     46108.24   -29431.333   -57743.824   -22277.555   -5746.8101    25593.363    81.899102 
   96300    2531.7023    -107.5019    2.2907374   -105.21116    12441.995    4.3336071    4.3336071    4.3336071    12441.995    1360.8684    51823.752   -15858.636    25306.408    28591.213    -5530.664    81.385791 
   96400    949.77774   -106.10137   0.85937886   -105.24199   -18661.932    4.3350888    4.3350888    4.3350888   -18661.932    52040.536   -57579.271    -50447.06   -21817.025    2414.0667    26800.742      81.4693 
   96500     1995.838   -107.03475    1.8058762   -105.22887    3797.9052    4.3371054    4.3371054    4.3371054    3797.9052    14286.559    29434.578   -32327.421     13346.79   -28687.848   -758.90528     81.58305 
   96600    1834.8735   -106.88506    1.6602321   -105.22483   -9612.4182    4.3466732    4.3466732    4.3466732   -9612.4182   -2629.3575   -22604.797   -3603.1002     46215.11    2720.2976     4677.568    82.124162 
   96700    1583.9041   -106.65069    1.4331497   -105.21754   -16748.521    4.3416581    4.3416581    4.3416581   -16748.521    46267.471    -36344.68   -60168.355   -31889.951   -10583.136    19783.954    81.840235 
   96800    1381.5565   -106.46908    1.2500613   -105.21901    3184.7372     4.333238     4.333238     4.333238    3184.7372   -25879.674    28953.628     6480.257    70084.725   -24206.808   -6545.1315    81.365002 
   96900    1979.7687   -107.01544    1.7913363    -105.2241    3389.2221    4.3339438    4.3339438    4.3339438    3389.2221   -415.01216   -8680.1387    19262.817    13446.294    8658.5798   -379.70726    81.404763 
   97000      1715.24   -106.77991    1.5519852   -105.22792    -2740.489    4.3412236    4.3412236    4.3412236    -2740.489    523.42894   -2303.8989   -6440.9971    5143.5882   -9137.9826    9315.8321    81.815667 
   97100    874.22535   -106.03823   0.79101747   -105.24721   -22039.663    4.3458508    4.3458508    4.3458508   -22039.663   -67066.389   -12668.266    13615.666    89680.807   -10177.419   -11779.002    82.077558 
   97200    2832.6367   -107.77289    2.5630292   -105.20986    28849.133    4.3367513    4.3367513    4.3367513    28849.133    26844.301    66258.666   -6555.5689   -34645.151    2790.5687   -2535.8407    81.563066 
   97300    961.11363   -106.11398   0.86963581   -105.24435    -23142.81    4.3429182    4.3429182    4.3429182    -23142.81   -76611.874   -29683.746    36867.191     105030.8   -6581.6463    1332.4259    81.911514 
   97400      1969.29   -106.99773     1.781855   -105.21587   -16520.173    4.3502258    4.3502258    4.3502258   -16520.173   -9012.4291   -3648.2911   -36899.799   -35654.822   -16151.597   -14228.898    82.325692 
   97500    1609.8975   -106.66321    1.4566691   -105.20654   -19818.639    4.3484695    4.3484695    4.3484695   -19818.639   -33504.335   -42738.429    16786.846    67662.455    3495.5417   -10309.587    82.226021 
   97600    1728.8882   -106.76177    1.5643344   -105.19744   -2635.4422    4.3425505    4.3425505    4.3425505   -2635.4422   -26653.643    17113.568     1633.748    18904.016   -12284.757   -6405.2907    81.890707 
   97700    1296.8765   -106.38458    1.1734411   -105.21113   -1779.4956    4.3397374    4.3397374    4.3397374   -1779.4956    8498.6258    2572.2463   -16409.359    -32071.69   -9357.9081   -14605.996    81.731665 
   97800     2392.842   -107.36447    2.1650938   -105.19937    8588.1898    4.3463013    4.3463013    4.3463013    8588.1898    -3436.352     38182.28   -8981.3588    44618.324    13081.723    1695.4369    82.103086 
   97900    1055.0355   -106.18264   0.95461831   -105.22802   -28639.125    4.3447237    4.3447237    4.3447237   -28639.125   -3324.6447   -41903.983   -40688.747   -40106.862   -6893.6681   -18840.592    82.013713 
   98000    1670.3357   -106.73621    1.5113548   -105.22485    12942.195    4.3350331    4.3350331    4.3350331    12942.195    18763.335     35409.44   -15346.189    -11252.08    2758.1911    7698.7288    81.466164 
   98100     1925.127    -106.9605    1.7418953   -105.21861     7725.958    4.3393213    4.3393213    4.3393213     7725.958   -20.198094    40218.427   -17020.355    12467.213    35703.101   -4115.0601    81.708159 
   98200    1349.4404   -106.44409     1.221002   -105.22309   -5969.8532     4.346104     4.346104     4.346104   -5969.8532    18906.417   -14510.572   -22305.404   -43681.844   -15272.253   -20666.642    82.091906 
   98300    1829.8758    -106.8721      1.65571   -105.21639   -11940.988     4.346915     4.346915     4.346915   -11940.988   -16112.987    16546.736   -36256.712    22716.686     46770.46    10837.711    82.137873 
   98400    1690.0795    -106.7474    1.5292194   -105.21818   -4069.9148    4.3383582    4.3383582    4.3383582   -4069.9148   -14285.786    3575.0602   -1499.0183    25938.461    6702.5326   -16147.638    81.653766 
   98500    1959.1885   -106.98827    1.7727149   -105.21556    12540.555    4.3316896    4.3316896    4.3316896    12540.555    14604.007    34639.497   -11621.839   -30606.347    4690.5359   -22924.998    81.277811 
   98600    1281.0285     -106.391    1.1591015    -105.2319   -18734.445    4.3451852    4.3451852    4.3451852   -18734.445   -41539.608    14102.132   -28765.858    39439.676    48820.297    8180.5462    82.039851 
   98700    1813.8025   -106.85661    1.6411666   -105.21544    -3368.539    4.3495291    4.3495291    4.3495291    -3368.539    8316.0177    -8713.582   -9708.0527    15210.408   -23836.109   -32680.861    82.286149 
   98800    1776.2124   -106.81779    1.6071543   -105.21064    18371.307    4.3368078    4.3368078    4.3368078    18371.307    13481.821    43231.645   -1599.5447   -12175.931    39603.946    3010.8646    81.566256 
   98900    1233.9393   -106.33787    1.1164942   -105.22138    -7290.874    4.3383427    4.3383427    4.3383427    -7290.874   -2325.5969   -36547.468    17000.442    58948.049     15846.63   -13749.404    81.652891 
   99000    2006.2884   -107.02905    1.8153319   -105.21372    3304.5992    4.3389854    4.3389854    4.3389854    3304.5992    35957.913    10665.948   -36710.064   -11876.828   -19175.391     -28791.1    81.689188 
   99100    1713.8703    -106.7638    1.5507458   -105.21305   -9303.5278    4.3474263    4.3474263    4.3474263   -9303.5278   -29223.657    14787.968   -13474.895    19145.624    42910.726    13903.185    82.166857 
   99200     1219.675   -106.32198    1.1035876   -105.21839   -37863.857    4.3501931    4.3501931    4.3501931   -37863.857   -5706.9025   -70067.931   -37816.738    38734.079   -9469.1494   -46522.292     82.32384 
   99300    2134.1058   -107.13684    1.9309838   -105.20586    2685.1214    4.3301154    4.3301154    4.3301154    2685.1214    8061.3276    19271.081   -19277.044   -11645.837   -17138.284   -1936.0596    81.189227 
   99400    1726.2399   -106.77269    1.5619381   -105.21075     -6662.47     4.333636     4.333636     4.333636     -6662.47   -9248.0307   -17582.123    6842.7439    44250.586    39567.193   -17051.696    81.387421 
   99500     1609.636   -106.66865    1.4564325   -105.21222   -17491.218    4.3463765    4.3463765    4.3463765   -17491.218    27026.327   -36069.281   -43430.701   -9023.2342   -39030.012   -34162.389    82.107351 
   99600    1696.9149   -106.74383    1.5354042   -105.20842    281.34801    4.3487811    4.3487811    4.3487811    281.34801     7794.113   -382.37913   -6567.6898    3661.0264   -5798.8325    14499.252    82.243699 
   99700    1712.5302   -106.75571    1.5495333   -105.20618    8106.0067    4.3422345    4.3422345    4.3422345    8106.0067    82603.572   -41809.186   -16476.365    14025.941    15895.261   -47807.507    81.872832 
   99800    1405.9834   -106.48649    1.2721633   -105.21433    8475.3634    4.3391754    4.3391754    4.3391754    8475.3634    22977.141     24922.08    -22473.13   -18691.214   -56039.352    3020.8445    81.699918 
   99900    1981.9789   -106.99778    1.7933361   -105.20445     7844.822    4.3436117    4.3436117    4.3436117     7844.822    31023.909    1786.7481   -9276.1914   -10485.092    20165.184   -15292.967    81.950759 
  100000    1472.5238   -106.54387    1.3323704    -105.2115    5224.0948    4.3402898    4.3402898    4.3402898    5224.0948    36997.252   -395.34761    -20929.62    4459.6337   -17808.679   -42981.121    81.762882 
Loop time of 21.7153 on 1 procs for 100000 steps with 8 atoms

Pair  time (%) = 6.5925 (30.3588)
Kspce time (%) = 5.28667 (24.3454)
Neigh time (%) = 0.219198 (1.00942)
Comm  time (%) = 0.968444 (4.45974)
Outpt time (%) = 0.024395 (0.11234)
Other time (%) = 8.62407 (39.7143)

Nlocal:    8 ave 8 max 8 min
Histogram: 1 0 0 0 0 0 0 0 0 0
Nghost:    2056 ave 2056 max 2056 min
Histogram: 1 0 0 0 0 0 0 0 0 0
Neighs:    2166 ave 2166 max 2166 min
Histogram: 1 0 0 0 0 0 0 0 0 0

Total # of neighbors = 2166
Ave neighs/atom = 270.75
Neighbor list builds = 2719
Dangerous builds = 0
unfix 20
unfix 21
print "seeds:5236254"
seeds:5236254
