LAMMPS (10 Feb 2015)
# ---- initialize simulations
clear
units metal
dimension 3
boundary p p p
atom_style charge
atom_modify map array
# ---- create atoms
read_data /Users/eugeneragasa/pyflamestk_git/pypospack/tests/tests_integration/workflow/WorkflowLammpsThermalExpansion/MgO_NaCl_unit.npt.T2000/lammps.structure
  triclinic box = (0 0 0) to (4.2565 4.2565 4.2565) with tilt (0 0 0)
  1 by 1 by 1 MPI processor grid
  reading atoms ...
  8 atoms
# ---- define interatomic potential
include potential.mod
mass 1 24.305
mass 2 15.999

group Mg type 1
4 atoms in group Mg
group O type 2
4 atoms in group O

set group Mg charge 1.7
  4 settings made for charge
set group O charge -1.7
  4 settings made for charge

variable R_cut equal 10.0

pair_style buck/coul/long ${R_cut}
pair_style buck/coul/long 10
pair_coeff 1 1 0.0 0.5 0.0 ${R_cut}
pair_coeff 1 1 0.0 0.5 0.0 10
pair_coeff 1 2 929.69 0.29909 0.0 ${R_cut}
pair_coeff 1 2 929.69 0.29909 0.0 10
pair_coeff 2 2 4870 0.2679 77 ${R_cut}
pair_coeff 2 2 4870 0.2679 77 10

kspace_style pppm 1.0e-5

neighbor 1.0 bin
neigh_modify every 1 delay 0 check yes
# ---- define settings
compute eng all pe/atom
compute eatoms all reduce sum c_eng
# ---- run minimization
reset_timestep 0
fix 1 all box/relax iso 0.0 vmax 0.001
thermo 10
thermo_style custom step pe lx ly lz xy xz yz press pxx pyy pzz pxy pxz pyz c_eatoms
min_style cg
minimize 1e-25 1e-25 5000 10000
PPPM initialization ...
  G vector (1/distance) = 0.353152
  grid = 8 8 8
  stencil order = 5
  estimated absolute RMS force accuracy = 4.10333e-05
  estimated relative force accuracy = 2.84961e-06
  using double precision FFTs
  3d grid and FFT values/proc = 3375 512
Neighbor list info ...
  1 neighbor list requests
  update every 1 steps, delay 0 steps, check yes
  master list distance cutoff = 11
Memory usage per processor = 4.06549 Mbytes
Step PotEng Lx Ly Lz Xy Xz Yz Press Pxx Pyy Pzz Pxy Pxz Pyz eatoms 
       0   -119.82944       4.2565       4.2565       4.2565            0            0            0   -43102.631   -43102.631   -43102.631   -43102.631 -1.1410716e-10 2.0651384e-11 1.0044018e-10   -119.82944 
       9    -119.8549     4.222448     4.222448     4.222448            0            0            0   -490.28356   -490.28356   -490.28356   -490.28356 -3.7927136e-11 -7.2182599e-11 3.2130495e-11    -119.8549 
Loop time of 0.193561 on 1 procs for 9 steps with 8 atoms

Minimization stats:
  Stopping criterion = linesearch alpha is zero
  Energy initial, next-to-last, final = 
        -119.829437963     -119.854898204     -119.854898204
  Force two-norm initial, final = 6.22404 0.0696885
  Force max component initial, final = 6.22404 0.069669
  Final line search alpha, max atom move = 1.75215e-06 1.2207e-07
  Iterations, force evaluations = 9 35

Pair  time (%) = 0.126169 (65.183)
Kspce time (%) = 0.00459337 (2.37309)
Neigh time (%) = 0 (0)
Comm  time (%) = 0.0490401 (25.3357)
Outpt time (%) = 0 (0)
Other time (%) = 0.0137587 (7.10818)

Nlocal:    8 ave 8 max 8 min
Histogram: 1 0 0 0 0 0 0 0 0 0
Nghost:    2189 ave 2189 max 2189 min
Histogram: 1 0 0 0 0 0 0 0 0 0
Neighs:    2344 ave 2344 max 2344 min
Histogram: 1 0 0 0 0 0 0 0 0 0

Total # of neighbors = 2344
Ave neighs/atom = 293
Neighbor list builds = 0
Dangerous builds = 0
unfix 1
# ---- define output variables ----
variable natoms equal "count(all)"
variable tot_energy equal "c_eatoms"
variable length_x equal "lx"
variable length_y equal "ly"
variable length_z equal "lz"
variable tilt_xy equal "xy"
variable tilt_xz equal "xz"
variable tilt_yz equal "yz"
variable tot_press equal "press"
variable press_xx equal "pxx"
variable press_yy equal "pyy"
variable press_zz equal "pzz"
variable press_xy equal "pxy"
variable press_xz equal "pxz"
variable press_yz equal "pyz"

# ---- output ----
print "pypospack:output_section:begin"
pypospack:output_section:begin
print "tot_energy = ${tot_energy}"
tot_energy = -119.854898204259
print "num_atoms = ${natoms}"
num_atoms = 8
print "xx = ${length_x}"
xx = 4.222448
print "yy = ${length_y}"
yy = 4.222448
print "zz = ${length_z}"
zz = 4.222448
print "xy = ${tilt_xy}"
xy = 0
print "xz = ${tilt_xz}"
xz = 0
print "yz = ${tilt_yz}"
yz = 0
print "tot_press = ${tot_press}"
tot_press = -490.283556338482
print "pxx = ${press_xx}"
pxx = -490.283556338668
print "pyy = ${press_yy}"
pyy = -490.283556338614
print "pzz = ${press_zz}"
pzz = -490.283556338163
print "pxy = ${press_xy}"
pxy = -3.79271362347293e-11
print "pxz = ${press_xz}"
pxz = -7.2182599384956e-11
print "pyz = ${press_yz}"
pyz = 3.21304951944417e-11
print "pypospack:output_section:done"
pypospack:output_section:done
print "pypospack:lammps_sim:done"
pypospack:lammps_sim:done
#------------------------------------------------------------------------------
# RUN THERMOSTAT
# running using an NPT Nose-Hoover style thermostat
#------------------------------------------------------------------------------
variable tempdamp equal 0.1
variable pressdamp equal 1.0
# set initial velocities
velocity all create 2000 3365413 mom yes dist gaussian loop all
# fix for Nose-Hoover style thermostat
fix 20 all npt temp 2000 2000 0.1 aniso 0.0 0.0 1.0 drag 1.0 couple xyz
variable boxx equal lx
variable boxy equal ly
variable boxz equal lz
variable boxp equal press
variable boxt equal temp
# calculate averages every 10000 steps
reset_timestep 0
fix 21 all ave/time 10 10 100 v_boxx v_boxy v_boxz v_boxp v_boxt file lattice.out
thermo_style custom step temp pe ke etotal press lx ly lz press pxx pyy pzz pxy pxz pyz vol
thermo_modify flush yes
thermo 100
run 100000
PPPM initialization ...
  G vector (1/distance) = 0.353501
  grid = 8 8 8
  stencil order = 5
  estimated absolute RMS force accuracy = 4.03791e-05
  estimated relative force accuracy = 2.80417e-06
  using double precision FFTs
  3d grid and FFT values/proc = 3375 512
Memory usage per processor = 3.06549 Mbytes
Step Temp PotEng KinEng TotEng Press Lx Ly Lz Press Pxx Pyy Pzz Pxy Pxz Pyz Volume 
       0         2000    -119.8549     1.809642   -118.04525    25185.637     4.222448     4.222448     4.222448    25185.637    16791.079    30083.184    28682.647      1264.78    1010.7902   -1951.2785    75.282309 
     100    880.90082    -118.6205   0.79705758   -117.82344    17299.174    4.2585291    4.2585291    4.2585291    17299.174    13405.858    11038.565    27453.098   -12917.828    466.99408    10163.884    77.228721 
     200    1157.9344   -118.37347    1.0477234   -117.32575   -38326.569    4.3082532    4.3082532    4.3082532   -38326.569   -39874.224   -90133.762     15028.28   -1907.4656     3111.854    5534.9591    79.965686 
     300    1123.5479   -117.89566    1.0166098   -116.87905   -15610.572    4.3203747    4.3203747    4.3203747   -15610.572      38749.4   -89822.214    4241.0985   -5266.3448   -2221.2115    1708.0649    80.642549 
     400    2439.6733   -118.73245    2.2074677   -116.52498   -32997.345    4.3084541    4.3084541    4.3084541   -32997.345   -33860.006   -46090.276   -19041.752    10186.302    13350.175   -6210.1407    79.976871 
     500    2389.2169   -118.44837    2.1618137   -116.28656    29987.975     4.290959     4.290959     4.290959    29987.975    25307.149    17756.925    46899.851   -5565.9108   -5181.2011    16281.006    79.006547 
     600    1921.7442   -117.95688    1.7388346   -116.21804   -2356.3215    4.3022822    4.3022822    4.3022822   -2356.3215    1587.8544   -39779.422    31122.603     1465.116     11427.89    19337.113    79.633658 
     700    2035.8499   -118.05773    1.8420798   -116.21565   -54827.248    4.3391255    4.3391255    4.3391255   -54827.248   -17597.656   -97402.302   -49481.785   -5302.6451    14000.246   -7267.8488    81.697102 
     800    1880.0635   -117.84665     1.701121   -116.14553   -27854.293    4.3496193    4.3496193    4.3496193   -27854.293   -26049.705   -61004.292    3491.1179    -12935.34   -11768.921   -7522.6819    82.291264 
     900    1988.7253   -117.90483    1.7994404   -116.10539    34586.767    4.3156043    4.3156043    4.3156043    34586.767    44828.825    6608.7672     52322.71   -5789.0781    21554.228   -28203.958    80.375713 
    1000    2400.9841    -118.2946    2.1724609   -116.12214    22023.876     4.290099     4.290099     4.290099    22023.876    27745.731    30815.647    7510.2489    9155.0302   -7262.6748   -27142.772    78.959055 
    1100    2311.2588   -118.27519    2.0912755   -116.18391    30974.911    4.2950611    4.2950611    4.2950611    30974.911    11169.854    57609.688     24145.19    18754.294    9567.5246   -22582.122    79.233355 
    1200    1645.5421   -117.71796     1.488921   -116.22904   -17817.588     4.333115     4.333115     4.333115   -17817.588    38474.456   -34227.744   -57699.474    4487.4275   -5716.0841    4625.4744    81.358069 
    1300    1791.2614   -117.78189     1.620771   -116.16112   -30336.489    4.3403706    4.3403706    4.3403706   -30336.489   -25197.976   -58212.746   -7598.7447   -10717.107   -25862.712    21213.761    81.767448 
    1400    1878.4771   -117.81018    1.6996856    -116.1105    25639.198    4.3054277    4.3054277    4.3054277    25639.198   -51004.603   -11309.039    139231.24   -15770.689    3904.7202   -1612.2293    79.808453 
    1500    1933.3019   -117.88686    1.7492922   -116.13757    25828.508    4.2940721    4.2940721    4.2940721    25828.508    16475.836   -18774.655    79784.344    10250.867    18098.944   -91.399119    79.178633 
    1600     1296.314   -117.36004    1.1729322   -116.18711   -1508.6023    4.3157812    4.3157812    4.3157812   -1508.6023   -26582.558   -8731.2543    30788.005    6157.7434    6240.0257    17554.589    80.385602 
    1700    1748.9512   -117.74998    1.5824878   -116.16749   -11089.169     4.325902     4.325902     4.325902   -11089.169   -59391.107   -28169.344    54292.944   -2365.0255   -9148.0126    14840.581    80.952459 
    1800    2323.0091   -118.24361    2.1019074    -116.1417    60.413521    4.3223689    4.3223689    4.3223689    60.413521    -5343.691   -32466.605    37991.537   -3017.2722    4511.1637    11785.418     80.75427 
    1900    2395.6357   -118.31558    2.1676215   -116.14796    -31324.24    4.3207984    4.3207984    4.3207984    -31324.24   -74463.182   -17298.787   -2210.7508   -10020.264   -14184.414    21933.875    80.666275 
    2000    1331.5607   -117.37941    1.2048241   -116.17458    40440.043    4.3082965    4.3082965    4.3082965    40440.043    30087.184    28478.065     62754.88    21125.333   -2743.3335    14728.775    79.968096 
    2100    2258.9201      -118.23    2.0439184   -116.18608    3897.7363    4.3096576    4.3096576    4.3096576    3897.7363    44779.597   -24204.358   -8882.0308   -8843.2676   -14038.247    9464.9291    80.043913 
    2200    2700.7012   -118.62575    2.4436512    -116.1821    4990.4154    4.3210958    4.3210958    4.3210958    4990.4154   -26005.373    27700.444    13276.174   -638.54608   -6858.6441   -13442.688    80.682932 
    2300     2556.724   -118.45824    2.3133776   -116.14486   -10075.554    4.3227715    4.3227715    4.3227715   -10075.554   -52983.244   -8960.0145    31716.598    12230.926   -1865.7049   -28293.754    80.776835 
    2400    1809.6367   -117.78846    1.6373973   -116.15106   -34186.248    4.3265032    4.3265032    4.3265032   -34186.248    5784.0307   -36090.852   -72251.924   -7308.7793    1214.1496   -16029.996    80.986211 
    2500    1439.9377    -117.4613    1.3028859   -116.15841   -42180.916    4.3309764    4.3309764    4.3309764   -42180.916   -73825.198    22825.286   -75542.834    4423.3373   -24303.423    28942.262    81.237669 
    2600    1920.0562   -117.88021    1.7373072    -116.1429    14184.387    4.2938799    4.2938799    4.2938799    14184.387   -32327.721    82019.825   -7138.9433    4468.4994    1775.1239    39039.735    79.168002 
    2700    1851.0461   -117.84578    1.6748654   -116.17091    72722.288    4.2843295    4.2843295    4.2843295    72722.288   -5746.9587    96348.546    127565.28    7042.4309    5643.0704    16573.828    78.640923 
    2800    2263.8321   -118.27751    2.0483629   -116.22915   -37560.408    4.3257963    4.3257963    4.3257963   -37560.408   -46601.963    -36532.47   -29546.792   -16494.457   -15723.673    1907.6131    80.946521 
    2900     1303.315   -117.35683    1.1792668   -116.17756   -2031.0105    4.3378902    4.3378902    4.3378902   -2031.0105   -41864.084    10658.407    25112.646    10809.247    11191.028    7551.5016    81.627344 
    3000    1465.3052   -117.46031    1.3258389   -116.13447    11326.486    4.3374876    4.3374876    4.3374876    11326.486   -24419.497    -19045.08    77444.036    5486.7054   -16668.538     16412.47    81.604618 
    3100    2176.6181   -118.08222    1.9694498   -116.11277   -19852.879    4.3286254    4.3286254    4.3286254   -19852.879   -24358.097   -18038.295   -17162.246   -2630.8148    11676.916    1381.9534    81.105443 
    3200    2291.5237   -118.19322    2.0734188    -116.1198   -7811.6669    4.3195253    4.3195253    4.3195253   -7811.6669   -44634.411     38778.27    -17578.86    11396.668    8911.9619   -7372.3623    80.594991 
    3300    2597.0366   -118.48613    2.3498532   -116.13628   -1347.1894    4.3246399    4.3246399    4.3246399   -1347.1894   -59435.593    60738.336   -5344.3116    2914.9541    -6687.712   -19798.522     80.88162 
    3400    2074.0382   -118.02467    1.8766333   -116.14803   -9816.5955    4.3252292    4.3252292    4.3252292   -9816.5955    -16127.95    1281.0575   -14602.894   -4502.4344    5377.9549    12949.876    80.914692 
    3500    1702.3838   -117.67949    1.5403526   -116.13914    40459.622    4.3102359    4.3102359    4.3102359    40459.622    -32518.26    25479.421    128417.71    7131.3768    1778.1297    5833.8174    80.076136 
    3600    2436.1901   -118.36723     2.204316   -116.16291   -33005.058     4.316129     4.316129     4.316129   -33005.058   -39450.183   -48787.926   -10777.066   -6465.4253    12075.189   -227.23961    80.405035 
    3700    1472.1752    -117.5184    1.3320551   -116.18634    24816.412    4.3207473    4.3207473    4.3207473    24816.412   -53477.396     12055.53     115871.1    7671.5211    25209.751   -21440.926    80.663413 
    3800    2404.1891   -118.37611    2.1753608   -116.20075    3807.4848    4.3276623    4.3276623    4.3276623    3807.4848   -25534.599    54593.854     -17636.8     -394.102    -9123.521   -16053.895    81.051317 
    3900    2077.0122    -118.0569    1.8793242   -116.17757   -52213.762    4.3299611    4.3299611    4.3299611   -52213.762   -114251.69    -17731.62   -24657.978    125.30192   -8550.1823   -19986.342     81.18055 
    4000     1804.338   -117.78016    1.6326029   -116.14756    15380.802    4.2902529    4.2902529    4.2902529    15380.802   -26720.737   -33463.434    106326.58    548.52117    4431.9764    23148.159    78.967556 
    4100     1839.015   -117.86507    1.6639794   -116.20109    18149.334    4.2846332    4.2846332    4.2846332    18149.334    9065.7879   -20651.289    66033.503    9095.5994   -18839.379    50960.498    78.657646 
    4200    2143.6909   -118.19335    1.9396566    -116.2537      4728.12    4.3118039    4.3118039    4.3118039      4728.12   -68348.911    16626.766    65906.506   -2600.4552   -3775.7518    19373.115    80.163564 
    4300    2083.1983   -118.14292    1.8849216     -116.258   -27986.681    4.3395839    4.3395839    4.3395839   -27986.681   -77679.599   -22011.782    15731.338   -198.26119    8590.0716   -22987.039    81.722994 
    4400    1539.8913   -117.61987     1.393326   -116.22654   -45572.839    4.3528634    4.3528634    4.3528634   -45572.839   -85248.017   -42214.109   -9256.3907    -3923.371    1222.6291      24898.4    82.475529 
    4500    1854.1152   -117.84974    1.6776424   -116.17209    2333.4791    4.3250772    4.3250772    4.3250772    2333.4791   -74113.569   -5625.6929    86739.699    7418.7319    7022.7481    32035.206    80.906161 
    4600    2354.6195   -118.28286    2.1305092   -116.15235    6369.4762    4.2825074    4.2825074    4.2825074    6369.4762     7040.962   -1259.9508    13327.417      1616.72   -7212.3324   -7590.2637    78.540626 
    4700    2339.9956   -118.33859    2.1172772   -116.22132    29603.104    4.2843014    4.2843014    4.2843014    29603.104   -15335.054    35140.649    69003.717   -7975.9461   -5432.0577   -54293.031    78.639372 
    4800    1952.6359    -118.0268     1.766786   -116.26001   -16048.542    4.3284532    4.3284532    4.3284532   -16048.542   -62868.366   -50888.116    65610.857    14020.973    11047.982    3084.9877    81.095764 
    4900    2212.2107   -118.18318    2.0016548   -116.18152   -39338.169    4.3381929    4.3381929    4.3381929   -39338.169   -72076.514   -29456.138   -16481.857    1632.9265    11061.856    6570.3654    81.644433 
    5000    1679.4992   -117.65078    1.5196462   -116.13113    46394.654    4.3056351    4.3056351    4.3056351    46394.654    9878.6559    34425.826    94879.481   -14536.966    6236.9374   -18864.855    79.819987 
    5100    2261.8517   -118.24691     2.046571   -116.20034    10968.784    4.3042522    4.3042522    4.3042522    10968.784   -42332.815    45742.453    29496.713   -7377.7805   -19746.592   -17528.706    79.743104 
    5200    2547.0176   -118.53169     2.304595    -116.2271   -5313.1453    4.3179285    4.3179285    4.3179285   -5313.1453   -59184.518   -10450.877    53695.959   -148.50317    -2198.807   -12032.193    80.505644 
    5300     1472.536   -117.55694    1.3323815   -116.22456    -2365.791    4.3402346    4.3402346    4.3402346    -2365.791   -24621.126   -42872.314    60396.067   -5249.8708   -10229.174    24057.407    81.759759 
    5400    1607.4641   -117.63379    1.4544673   -116.17933   -27685.404    4.3353626    4.3353626    4.3353626   -27685.404   -75301.308    56732.522   -64487.427    -7513.664    2287.1715    9719.8796    81.484742 
    5500    2107.0334   -118.01597    1.9064881   -116.10948    23517.955    4.2975884    4.2975884    4.2975884    23517.955    63632.866   -40172.146    47093.145    6811.8996      7042.87   -4652.3921    79.373303 
    5600    1946.4593   -117.93079    1.7611973    -116.1696    24150.111    4.3030814    4.3030814    4.3030814    24150.111   -26757.447    53433.934    45773.847   -5548.1918    3908.0338   -4760.9596    79.678048 
    5700    1910.4126   -117.90848    1.7285814    -116.1799   -18435.481    4.3337393    4.3337393    4.3337393   -18435.481   -44457.748   -12482.227     1633.531   -10917.167    14378.165   -25087.327    81.393239 
    5800    2404.9016   -118.29216    2.1760055   -116.11616   -32845.415    4.3414779    4.3414779    4.3414779   -32845.415    -64579.31   -27757.432   -6199.5012    6152.9266   -7701.1941   -28139.367    81.830044 
    5900    1753.8116   -117.66723    1.5868856   -116.08034    17833.011    4.3366397    4.3366397    4.3366397    17833.011   -50265.125    52082.197    51681.961    21763.078    854.56071    1514.3765    81.556771 
    6000    1525.0295   -117.47314    1.3798787   -116.09326   -2742.8412    4.3330071    4.3330071    4.3330071   -2742.8412    30436.929    16469.045   -55134.497   -7340.3368    4332.7434   -4818.9631    81.351995 
    6100    1994.2463   -117.89043    1.8044359   -116.08599    -29137.96    4.3043225    4.3043225    4.3043225    -29137.96    15913.589   -33355.043   -69972.424    2791.4907    3367.1987   -4926.4936    79.747011 
    6200    2127.5725   -118.04057    1.9250723   -116.11549    46919.754    4.2847187    4.2847187    4.2847187    46919.754    60904.268   -27980.159    107835.15   -6697.8649   -10905.081      33901.9    78.662357 
    6300    2254.1441   -118.23895    2.0395969   -116.19936    10595.401    4.3147685    4.3147685    4.3147685    10595.401   -6784.8731    6933.4684    31637.608    6647.1896    11556.199    18863.543    80.329026 
    6400    2372.9979   -118.30806    2.1471383   -116.16093   -41876.657    4.3309569    4.3309569    4.3309569   -41876.657   -62054.867   -61030.148    -2544.957   -6046.1063    1292.1259    11086.481    81.236573 
    6500    1794.9832   -117.76895    1.6241385   -116.14481   -11194.238     4.313446     4.313446     4.313446   -11194.238    2031.4991   -43344.693    7730.4788   -12232.141    19799.622     25531.16    80.255186 
    6600    1635.2409   -117.63551    1.4796003   -116.15591    15146.416    4.2938818    4.2938818    4.2938818    15146.416    84125.572   -27521.608   -11164.716    10085.409   -5043.0469    17870.186    79.168107 
    6700    2320.2321   -118.30179    2.0993948    -116.2024   -1788.4372    4.3034049    4.3034049    4.3034049   -1788.4372    8011.4648   -55431.686    42054.909   -10162.813   -22063.218   -3646.2177    79.696018 
    6800    2314.8806   -118.31488    2.0945526   -116.22033   -49912.001      4.32284      4.32284      4.32284   -49912.001   -83386.529   -89798.152    23448.677   -28918.107     16716.09    11756.804    80.780674 
    6900    1768.1775   -117.77642    1.5998841   -116.17653    16741.648     4.310379     4.310379     4.310379    16741.648    16955.001   -43644.406    76914.349    1955.9711    12172.179    9166.8428    80.084114 
    7000    1938.6158    -117.9345    1.7541003    -116.1804   -9760.6074    4.3156782    4.3156782    4.3156782   -9760.6074    35148.687   -77303.164    12872.655   -8512.7449    34937.975    20878.466    80.379844 
    7100    1964.3754   -117.97734    1.7774081   -116.19993    1641.2577     4.323646     4.323646     4.323646    1641.2577    41145.111    -32761.82   -3459.5181   -4655.8668   -12047.136    2718.2676    80.825869 
    7200    1437.7637   -117.50178    1.3009188   -116.20086   -38105.115    4.3303193    4.3303193    4.3303193   -38105.115    38072.452   -79685.327   -72702.471   -225.12261   -16086.781     14275.86    81.200697 
    7300    2078.8237    -118.0264    1.8809634   -116.14544   -23487.524    4.3225001    4.3225001    4.3225001   -23487.524   -11513.365   -58900.113   -49.095342    12664.062    6782.3538    14240.581    80.761625 
    7400    1901.9723   -117.85901    1.7209445   -116.13807    55218.772    4.3154789    4.3154789    4.3154789    55218.772    7716.6066   -47304.246    205243.96    3958.5092   -1834.0403   -18597.689    80.368708 
    7500    1915.9695    -117.9197    1.7336094    -116.1861   -121.73938    4.3353026    4.3353026    4.3353026   -121.73938   -9346.3699   -50451.959    59433.111    9819.7591   -32825.093    10417.623    81.481357 
    7600    1609.3804   -117.60533    1.4562012   -116.14913   -25014.511    4.3371847    4.3371847    4.3371847   -25014.511   -79945.955   -31453.647    36356.068   -10237.696   -58769.425    7599.6801    81.587521 
    7700    1785.9547   -117.71805    1.6159694   -116.10208    -19092.18     4.306352     4.306352     4.306352    -19092.18   -48051.508    18581.341   -27806.373    9085.1244   -46433.502   -5549.3813    79.859868 
    7800    2210.3342   -118.13758    1.9999569   -116.13763   -12515.791     4.300431     4.300431     4.300431   -12515.791    33351.178   -24247.625   -46650.928    19659.461    8980.6985    30584.453     79.53091 
    7900    1399.5339   -117.44293    1.2663277    -116.1766   -8148.0709    4.3226769    4.3226769    4.3226769   -8148.0709    1606.6249   -7114.8704   -18935.967   -9224.9278   -54359.524   -2284.6701    80.771534 
    8000    2040.3034      -117.99    1.8461094   -116.14389   -30129.899    4.3284822    4.3284822    4.3284822   -30129.899   -21751.855    -23984.19   -44653.651    6987.2108   -10743.803   -2771.5654    81.097395 
    8100    2596.3992   -118.48463    2.3492765   -116.13536   -46489.557    4.3209966    4.3209966    4.3209966   -46489.557   -38258.327    -97277.85   -3932.4927    29967.759    800.55008    15979.988    80.677379 
    8200    1930.9585   -117.88476    1.7471719   -116.13759    45483.986    4.2824203    4.2824203    4.2824203    45483.986     129186.6   -26159.782    33425.144    6117.3193    615.66919   -22252.671    78.535834 
    8300     1564.957   -117.64783     1.416006   -116.23182    61125.501    4.2877692    4.2877692    4.2877692    61125.501    19488.712    89360.469    74527.321   -2867.9149   -28786.145   -16394.115    78.830488 
    8400    1831.1145   -117.90211    1.6568309   -116.24528   -36375.889    4.3363728    4.3363728    4.3363728   -36375.889    -45091.66    -43614.14   -20421.866   -35063.803   -5598.7323   -36476.396    81.541713 
    8500    2611.9736   -118.51362    2.3633686   -116.15025   -42349.539     4.340153     4.340153     4.340153   -42349.539    -42576.95   -81994.205   -2477.4597    -6785.178   -9057.7235   -21220.674    81.755149 
    8600    2788.8221   -118.64794    2.5233848   -116.12455    10244.744    4.3193049    4.3193049    4.3193049    10244.744    1397.7944   -24967.653     54304.09   -1318.6541   -24459.215   -26085.697    80.582657 
    8700    1898.6691   -117.88861    1.7179557   -116.17065     23334.29    4.3183284    4.3183284    4.3183284     23334.29    11158.864     870.0532    57973.952   -13560.876    9448.8367   -270.48366    80.528014 
    8800    2194.8381   -118.17599    1.9859357   -116.19006   -34967.317    4.3426619    4.3426619    4.3426619   -34967.317   -69390.193   -31978.526   -3533.2313   -17149.192   -13478.547   -12677.742    81.897011 
    8900    2180.5462   -118.12877    1.9730041   -116.15576   -66852.666    4.3418299    4.3418299    4.3418299   -66852.666   -74668.247   -58231.495   -67658.255    1131.8867   -23177.124   -1671.1467    81.849948 
    9000    2491.3258   -118.39044    2.2542039   -116.13623   -13829.034    4.3290052    4.3290052    4.3290052   -13829.034   -83599.471    43683.456   -1571.0867   -305.53342    11557.786   -9255.6927    81.126793 
    9100    2499.4945   -118.43652    2.2615952   -116.17493   -9613.9381    4.3280972    4.3280972    4.3280972   -9613.9381   -43433.398   -14945.484    29537.067     2829.689    18960.514    11642.847    81.075758 
    9200    2336.4538   -118.28421    2.1140725   -116.17014   -10349.622     4.331409     4.331409     4.331409   -10349.622   -52594.972   -6448.0338    27994.139    366.94361   -16623.334    -2263.963    81.262012 
    9300    2632.9604     -118.531    2.3823579   -116.14865   -32592.814    4.3228459    4.3228459    4.3228459   -32592.814   -60497.354   -15049.896   -22231.193    3879.8068   -37059.315    19682.614    80.781006 
    9400    1380.3224   -117.43809    1.2489447   -116.18915   -14983.136    4.3161177    4.3161177    4.3161177   -14983.136   -7773.1852    9587.5474    -46763.77    3220.7026    938.01297   -2136.0413    80.404403 
    9500    2429.2425   -118.37862    2.1980297   -116.18059    13901.323     4.302426     4.302426     4.302426    13901.323   -31812.299    4650.7641    68865.503   -106.13532    -13559.45   -23934.074    79.641647 
    9600      2543.06   -118.52071    2.3010142   -116.21969   -469.49022    4.3185011    4.3185011    4.3185011   -469.49022   -56079.201    53390.921    1279.8091    5141.1866    3347.2293   -23692.158    80.537678 
    9700    2370.6291   -118.37898     2.144995   -116.23398   -59303.224    4.3526478    4.3526478    4.3526478   -59303.224   -97373.209   -71516.396   -9020.0673   -16587.261   -13406.693    -8895.207    82.463278 
    9800    2044.7233   -118.01678    1.8501086   -116.16667   -21726.686    4.3556758    4.3556758    4.3556758   -21726.686    -68228.39   -51282.479    54330.811    642.84307    22296.997    21650.646    82.635498 
    9900    1497.7949   -117.47256    1.3552363   -116.11733   -13131.592    4.3364034    4.3364034    4.3364034   -13131.592   -31940.757   -53729.096    46275.077   -6614.8524    5271.7342    68707.341     81.54344 
   10000    1931.2888   -117.85097    1.7474707    -116.1035     8437.777    4.2972747    4.2972747    4.2972747     8437.777   -6545.2147    4481.8297    27376.716   -17111.212    28402.532   -9376.2137    79.355924 
   10100    2549.0137   -118.45841    2.3064012   -116.15201   -120.50672    4.2874131    4.2874131    4.2874131   -120.50672    10893.945    14017.906   -25273.371    -225.3593    26131.171    4295.5757    78.810849 
   10200    1973.7241   -118.00818    1.7858671   -116.22231    14860.284    4.3213105    4.3213105    4.3213105    14860.284   -50740.654    34312.671    61008.835   -8682.5739     9579.525    13685.605    80.694961 
   10300    1960.4995   -117.95569    1.7739011   -116.18178   -17600.305    4.3555602    4.3555602    4.3555602   -17600.305    1634.9799   -29479.917   -24955.978    3691.2593   -4592.7619   -2419.6415    82.628918 
   10400    2387.2692   -118.25634    2.1600513   -116.09629   -55592.177    4.3415622    4.3415622    4.3415622   -55592.177   -49521.722   -55744.487   -61510.322    -16750.05    10187.874   -3370.0572    81.834809 
   10500    1662.0671   -117.56806    1.5038733   -116.06419     29701.97    4.2931838    4.2931838    4.2931838     29701.97    49012.339    24429.232    15664.339   -1985.8578    11324.663    4594.6547    79.129503 
   10600    1848.2924   -117.81801    1.6723738   -116.14564    26891.454     4.291491     4.291491     4.291491    26891.454    2274.4492    2239.6462    76160.267    4189.5582    -24865.35    8978.3184     79.03594 
   10700    2045.1564   -118.06408    1.8505005   -116.21358   -9861.3468    4.3314641    4.3314641    4.3314641   -9861.3468   -41281.754    -19233.18    30930.893    832.33408   -9071.3201    22808.796    81.265114 
   10800    2293.9063   -118.22941    2.0755746   -116.15383   -9362.2135    4.3508593    4.3508593    4.3508593   -9362.2135    -32280.11   -8538.4193    12731.889   -11745.339    15256.205    12875.314    82.361664 
   10900    1894.3021   -117.81901    1.7140044   -116.10501   -312.72202    4.3496673    4.3496673    4.3496673   -312.72202   -41736.463    -23206.24    64004.537    9781.9095   -2906.0555   -16954.868    82.293989 
   11000    2682.5336   -118.48957    2.4272128   -116.06235   -19276.093    4.3269057    4.3269057    4.3269057   -19276.093   -56686.676   -58683.017    57541.413   -7403.2087    13468.515    2460.0713    81.008818 
   11100    1788.9436   -117.69588    1.6186737   -116.07721    68688.145    4.3011388    4.3011388    4.3011388    68688.145    -12584.21     121347.9    97300.742   -21576.685    737.90575   -1707.8197    79.570186 
   11200    1915.3204   -117.91167    1.7330222   -116.17865   -37381.475    4.3221739    4.3221739    4.3221739   -37381.475    -23244.94   -26874.171   -62025.313    17576.674    1032.3216    27901.185    80.743338 
   11300    1679.8839   -117.66704    1.5199942   -116.14704   -31105.743    4.3391687    4.3391687    4.3391687   -31105.743    -19614.97   -54864.176   -18838.082    -14005.77    24733.773     33544.15    81.699538 
   11400    2503.5533   -118.36592    2.2652676   -116.10066   -16343.599    4.3365581    4.3365581    4.3365581   -16343.599   -10852.596   -19123.788   -19054.414    2717.3955    3574.5265   -25203.577     81.55217 
   11500    1807.1632   -117.74901    1.6351592   -116.11385   -7273.1533     4.331162     4.331162     4.331162   -7273.1533     3794.467   -46619.914    21005.987    18820.772    12917.807    38070.973    81.248114 
   11600    2187.5431   -118.11244     1.979335    -116.1331   -11366.047    4.3203001    4.3203001    4.3203001   -11366.047   -65476.359    3507.3586    27870.858   -190.66012    11360.297    36574.474    80.638371 
   11700    1841.1752   -117.83823     1.665934   -116.17229    17067.061      4.31313      4.31313      4.31313    17067.061   -23852.262     69794.89    5258.5546   -21846.533   -3495.6656      8964.57    80.237546 
   11800    1566.8216   -117.59347    1.4176931   -116.17578    57501.645    4.3075407    4.3075407    4.3075407    57501.645     -47787.7    68731.154    151561.48    4035.8103    -10656.41    -14407.36    79.926016 
   11900    2323.0746   -118.30326    2.1019667    -116.2013    13554.065     4.321075     4.321075     4.321075    13554.065    17016.085    10967.656    12678.455    22840.839   -1984.1284   -1081.1385    80.681771 
   12000    2801.7323   -118.70767    2.5350663    -116.1726   -43248.654    4.3352519    4.3352519    4.3352519   -43248.654   -54660.937    -43624.62   -31460.405    -13240.57    19462.145   -11352.762    81.478499 
   12100    1706.6546   -117.67902    1.5442169    -116.1348     3801.903    4.3372523    4.3372523    4.3372523     3801.903    -80290.12    60644.825    31051.004   -6030.6542    25193.293    12563.867    81.591338 
   12200    1623.8441   -117.59381    1.4692882   -116.12452    4591.4453    4.3192644    4.3192644    4.3192644    4591.4453    1677.5212   -39554.679    51651.493   -30447.214   -4283.2064    20314.962    80.580388 
   12300    1748.7323   -117.73437    1.5822897   -116.15208   -6093.1792     4.313451     4.313451     4.313451   -6093.1792   -13965.002    -58622.78    54308.244    -24551.59   -6728.8915     -31517.9    80.255461 
   12400    2353.0465   -118.32782    2.1290859   -116.19873   -32915.169    4.3278859    4.3278859    4.3278859   -32915.169    -2841.314    -68592.79   -27311.404    16434.498    20121.941    28740.289    81.063886 
   12500    1974.4748   -117.97853    1.7865463   -116.19198    16346.473    4.3288994    4.3288994    4.3288994    16346.473   -27581.065    44251.148    32369.334   -13400.376   -18297.013    25620.521    81.120848 
   12600    1988.4832   -117.97309    1.7992214   -116.17387   -23539.989    4.3274074    4.3274074    4.3274074   -23539.989   -3127.6105   -52225.119   -15267.239    13408.549   -1015.3731   -1078.9004    81.037002 
   12700    1742.4832   -117.73388    1.5766354   -116.15724    8202.3564    4.3170449    4.3170449    4.3170449    8202.3564    13322.194   -40662.978    51947.853    5346.5302   -15025.565    20842.083    80.456235 
   12800    2278.8683   -118.23653    2.0619679   -116.17456   -11791.791    4.3157259    4.3157259    4.3157259   -11791.791    -25323.48    24148.835   -34200.727   -12505.842   -9461.9737   -4325.3053     80.38251 
   12900    1975.7987   -117.96698    1.7877442   -116.17924   -2100.6787     4.326629     4.326629     4.326629   -2100.6787   -33687.035    35339.571   -7954.5718    21676.083   -21967.795    1486.6904    80.993277 
   13000    2180.5365   -118.12563    1.9729953   -116.15264   -10398.491    4.3273973    4.3273973    4.3273973   -10398.491   -100403.47    43298.359    25909.637    14989.829    18034.536   -12965.567     81.03643 
   13100    1705.8929   -117.70562    1.5435277   -116.16209    11499.778    4.3291503    4.3291503    4.3291503    11499.778   -34631.875    43586.027    25545.183   -5823.9657   -2906.6231   -12928.588    81.134956 
   13200     2168.359   -118.09631    1.9619768   -116.13434   -12139.771    4.3274119    4.3274119    4.3274119   -12139.771   -45919.899    28420.346   -18919.761    9198.5035    -26798.27    29864.421    81.037251 
   13300    1360.5159   -117.38626    1.2310234   -116.15524    56498.874    4.3268291    4.3268291    4.3268291    56498.874    123859.33   -23003.612    68640.903    19809.661    18093.494   -6654.8989    81.004512 
   13400    2372.6529   -118.31351    2.1468262   -116.16669   -25912.693    4.3384965    4.3384965    4.3384965   -25912.693    -14529.62   -11433.459       -51775    316.03146   -17472.093    3710.2361    81.661574 
   13500    2474.4549   -118.39465    2.2389388   -116.15571   -17480.469    4.3238567    4.3238567    4.3238567   -17480.469    23212.604    -20217.58    -55436.43   -4324.3618   -3542.5124    28602.651    80.837685 
   13600    1619.4161   -117.62152    1.4652817   -116.15624    66675.099    4.3075836    4.3075836    4.3075836    66675.099    159285.99    17468.152    23271.155    15018.724    16334.483   -24093.852    79.928403 
   13700    2068.0219   -118.08941    1.8711897   -116.21822   -25556.365    4.3411449    4.3411449    4.3411449   -25556.365   -60389.679    27772.238   -44051.654    46807.813   -5606.9043   -3572.4098    81.811218 
   13800    1656.3906   -117.64607     1.498737   -116.14733   -29506.911    4.3568216    4.3568216    4.3568216   -29506.911   -11590.533    25555.184   -102485.39   -2374.7957   -2084.9504    24042.664    82.700731 
   13900    2243.8674      -118.14    2.0302983    -116.1097    16224.214     4.317597     4.317597     4.317597    16224.214    24856.177    24374.781   -558.31682   -35798.682    10015.312    15052.062    80.487108 
   14000    2653.2761   -118.54591    2.4007399   -116.14517    3979.6677    4.3079975    4.3079975    4.3079975    3979.6677    -4854.517    34577.524   -17784.004    30153.127   -9209.7041    -2639.543     79.95145 
   14100    1797.3864   -117.79421     1.626313    -116.1679   -43398.564    4.3441804    4.3441804    4.3441804   -43398.564    16491.682   -113809.26    -32878.11   -20588.707    34061.129    11761.882    81.982952 
   14200    2336.1314   -118.23745    2.1137808   -116.12367   -40709.275    4.3358566    4.3358566    4.3358566   -40709.275   -48679.914   -11810.986   -61636.925    35239.753    11168.326    2314.8079    81.512597 
   14300    1662.2603   -117.61726     1.504048   -116.11321   -36651.039    4.3262283    4.3262283    4.3262283   -36651.039   -68976.552   -1292.4919   -39684.072   -6982.2725   -998.17501     13223.42    80.970774 
   14400    2097.9322   -118.01899    1.8982532   -116.12074   -54011.046    4.3193408    4.3193408    4.3193408   -54011.046   -102947.22   -76058.971    16973.048   -65007.431   -16238.856     13180.96    80.584669 
   14500    1600.1909   -117.57244    1.4478863   -116.12455    67233.203    4.2934878    4.2934878    4.2934878    67233.203    106883.63    97363.132   -2547.1564   -14237.009    5390.5195   -4771.7326    79.146316 
   14600    2629.6794   -118.57177    2.3793892   -116.19238   -2757.1927    4.3100412    4.3100412    4.3100412   -2757.1927    51138.027   -6653.7841   -52755.821   -39235.265    7591.1536   -1806.4924    80.065287 
   14700    1740.7878   -117.79246    1.5751014   -116.21735    758.75349    4.3536648    4.3536648    4.3536648    758.75349     65261.73   -37859.781   -25125.688   -31212.261    9730.4551    20874.327     82.52109 
   14800    1985.8105   -117.93687    1.7968031   -116.14007   -67219.073     4.367332     4.367332     4.367332   -67219.073   -54779.373   -54128.793   -92749.053    7214.2257   -15258.272   -9912.5196    83.300696 
   14900    1451.0722   -117.39876    1.3129606    -116.0858   -19929.154    4.3261286    4.3261286    4.3261286   -19929.154    -26027.76    17486.253   -51245.956    6855.0187   -10695.774    5521.5829    80.965177 
   15000    1943.7872   -117.84235    1.7587795   -116.08357     50651.71    4.2956263    4.2956263    4.2956263     50651.71    105229.47    38923.769    7801.8845   -3849.0393    11299.274    3843.6485     79.26464 
   15100    2767.2846   -118.66231    2.5038972   -116.15841   -19086.647    4.3090787    4.3090787    4.3090787   -19086.647   -20518.788     12514.97   -49256.123   -8117.7076   -37262.181   -8645.9202    80.011658 
   15200    2131.0627   -118.09926    1.9282303   -116.17103    45780.613    4.3112623    4.3112623    4.3112623    45780.613    87784.078    71573.097   -22015.337    41186.403    788.72778    15663.713    80.133356 
   15300     1217.389   -117.31966    1.1015192   -116.21814    16197.316    4.3315878    4.3315878    4.3315878    16197.316    141689.75   -19126.416   -73971.384   -36665.693    11793.152    32264.804    81.272079 
   15400    1576.9637   -117.59255    1.4268699   -116.16568   -78745.853    4.3460257    4.3460257    4.3460257   -78745.853   -66476.466   -116432.57    -53328.52   -22984.777   -15769.865    19394.112    82.087473 
   15500     2002.317   -117.92813    1.8117385   -116.11639    17086.631     4.321573     4.321573     4.321573    17086.631    89031.963    7571.8783   -45343.948   -12837.671    18153.064   -6652.0228    80.709669 
   15600    3029.0985   -118.87166     2.740792   -116.13087   -25890.919    4.3071874    4.3071874    4.3071874   -25890.919    5558.4033   -11385.519   -71845.641   -23438.583    29966.282    19747.998    79.906349 
   15700    2262.6311   -118.20707    2.0472762   -116.15979    19671.373    4.2928853    4.2928853    4.2928853    19671.373    61084.615   -1407.7494   -662.74838   -1356.8617   -2975.4192    19670.808       79.113 
   15800    2100.6401   -118.11659    1.9007033   -116.21589   -28577.468    4.3085509    4.3085509    4.3085509   -28577.468    -27742.13    -47495.55   -10494.726   -11318.392    7836.9935    6798.1867    79.982261 
   15900       1414.4   -117.48896    1.2797788   -116.20918    3398.4205    4.3391361    4.3391361    4.3391361    3398.4205    43297.367   -17167.129   -15934.976   -11276.893    22986.158    14247.021    81.697695 
   16000    2304.7269   -118.23877    2.0853653   -116.15341   -20262.834    4.3344691    4.3344691    4.3344691   -20262.834   -28760.339   -46918.482     14890.32    12007.296   -13514.595    18909.765    81.434371 
   16100    2259.7132   -118.15193     2.044636    -116.1073     -12632.6    4.3089226    4.3089226    4.3089226     -12632.6   -34205.942    18994.175   -22686.032     4708.205   -1537.4556     12245.06    80.002967 
   16200     2020.679   -117.94551    1.8283528   -116.11716    37152.166    4.3094765    4.3094765    4.3094765    37152.166    48999.092    59662.676    2794.7297   -7723.9924    30898.247   -494.15934    80.033821 
   16300    2878.9173   -118.76037    2.6049049   -116.15546   -69893.519    4.3465703    4.3465703    4.3465703   -69893.519    -71069.75   -67509.347    -71101.46   -7104.1036   -14904.643    4247.2963    82.118335 
   16400    1248.1212   -117.27222    1.1293262   -116.14289   -23358.257    4.3512903    4.3512903    4.3512903   -23358.257    -55218.46    12061.519   -26917.829    10899.472    29344.339   -1187.9784    82.386142 
   16500    1349.0598   -117.33701    1.2206576   -116.11636    12715.394    4.3021274    4.3021274    4.3021274    12715.394    25426.219    57371.115   -44651.152    12569.893    59125.896    -4930.724    79.625064 
   16600    1533.0726   -117.51137    1.3871563   -116.12421    82792.516    4.2757458    4.2757458    4.2757458    82792.516    155739.33    15292.716    77345.507   -20005.509   -6200.0177    10289.646    78.169196 
   16700     2287.245   -118.30553    2.0695474   -116.23598    23598.385    4.3186584    4.3186584    4.3186584    23598.385    76252.978    17711.149   -23168.971   -12718.212    1045.4211    3845.4274    80.546479 
   16800    2081.9639   -118.05876    1.8838047   -116.17496   -65707.754    4.3729872    4.3729872    4.3729872   -65707.754   -23145.622   -101223.05   -72754.587    4322.0906   -3987.4457    529.99047    83.624711 
   16900    1887.6628   -117.78452     1.707997   -116.07653   -15996.655    4.3570297    4.3570297    4.3570297   -15996.655   -4095.2963   -3897.4455   -39997.222   -22927.889    -2449.172   -2925.4696     82.71258 
   17000    2413.1881   -118.20496    2.1835033   -116.02145    4728.5528    4.3070088    4.3070088    4.3070088    4728.5528     38216.99    40653.848    -64685.18    17651.607    648.69643   -16518.476    79.896414 
   17100    2179.3759   -118.05186    1.9719451   -116.07991    22974.807    4.2775924    4.2775924    4.2775924    22974.807    30081.377    46338.635   -7495.5912    36699.418    7925.5607    2835.8585    78.270517 
   17200    1832.8844    -117.8409    1.6584323   -116.18246    10855.195    4.2910398    4.2910398    4.2910398    10855.195    142.90884    23448.184    8974.4928   -45739.759    3547.6093    10867.782    79.011014 
   17300    1494.7153   -117.57626    1.3524498   -116.22381    942.78643    4.3312715    4.3312715    4.3312715    942.78643    7618.9917    38727.595   -43518.227   -30638.806    -1492.944    10706.425    81.254278 
   17400    2265.6057    -118.2268    2.0499677   -116.17683   -37151.541    4.3528314    4.3528314    4.3528314   -37151.541   -24669.456     19229.52   -106014.69    5895.3172    3442.5347    -17024.05    82.473711 
   17500    1715.6878   -117.67925    1.5523904   -116.12686   -14909.463    4.3260076    4.3260076    4.3260076   -14909.463   -39629.001    16737.415   -21836.803   -27460.682    3877.8781    -31911.05    80.958386 
   17600    2518.8216   -118.35649    2.2790827    -116.0774    22631.331    4.2801544    4.2801544    4.2801544    22631.331   -19533.339    54934.939    32492.392   -1812.1734   -12138.051   -6352.8632    78.411239 
   17700    1717.2014   -117.71831    1.5537599   -116.16455    37528.426    4.2879691    4.2879691    4.2879691    37528.426     6211.394    133524.73   -27150.849    16626.246    20800.951    17179.961     78.84151 
   17800     1704.256   -117.73474    1.5420467   -116.19269   -16784.719    4.3217937    4.3217937    4.3217937   -16784.719     40418.37   -18246.977   -72525.548    2605.8695     10866.18    57662.015    80.722036 
   17900    2304.9996   -118.24116     2.085612   -116.15554   -762.34003    4.3240895    4.3240895    4.3240895   -762.34003   -5502.9646    41217.922   -38001.978   -18467.522    12140.989   -2998.0328    80.850743 
   18000    2783.3331   -118.65995    2.5184183   -116.14153   -28740.265    4.3167074    4.3167074    4.3167074   -28740.265   -43656.703   -22074.677   -20489.414   -18316.963    5611.7717   -15927.162    80.437368 
   18100    1607.2289   -117.61969    1.4542545   -116.16543   -12580.616    4.2986213    4.2986213    4.2986213   -12580.616    11156.144    19942.601   -68840.595   -10151.114    4482.8654    20240.856    79.430547 
   18200    1481.6559   -117.51518    1.3406334   -116.17455    38665.935    4.2830332    4.2830332    4.2830332    38665.935    40179.858    44115.893    31702.053     8747.067     14750.34     39423.62    78.569559 
   18300    2172.8297   -118.21337     1.966022   -116.24735    1354.4973    4.3152126    4.3152126    4.3152126    1354.4973   -22955.567    54520.765   -27501.707   -12155.234   -4829.5092   -7815.5807    80.353831 
   18400    2077.5759   -118.07564    1.8798343    -116.1958     28345.37    4.3327627    4.3327627    4.3327627     28345.37    22191.345     42266.18    20578.583   -3508.7274    669.93273    11009.926    81.338227 
   18500     2646.335   -118.52829    2.3944596   -116.13383   -15154.009     4.321882     4.321882     4.321882   -15154.009   -28055.473    21374.495   -38781.049   -11690.174    12748.736     25567.62    80.726979 
   18600    1602.1187   -117.58847    1.4496306   -116.13884   -17456.926    4.3141433    4.3141433    4.3141433   -17456.926    13625.804   -5894.4823   -60102.099   -37005.206   -30373.237    -25165.58     80.29411 
   18700    2042.9556   -117.98683    1.8485091   -116.13832   -19337.216    4.2983913    4.2983913    4.2983913   -19337.216   -22667.857    17738.373   -53082.163    11133.026    10958.573    -25260.18    79.417801 
   18800    1838.3104   -117.84525    1.6633419   -116.18191   -9359.0709    4.3140041    4.3140041    4.3140041   -9359.0709    -7191.627     38000.83   -58886.416   -36153.386    21971.611   -1628.1971     80.28634 
   18900    2124.9975   -118.09191    1.9227424   -116.16917    15772.385    4.3203928    4.3203928    4.3203928    15772.385    61126.117    30187.229   -43996.189   -9095.3795    5035.6393   -4414.8534     80.64356 
   19000    2214.8939   -118.16463    2.0040826   -116.16055    14170.768    4.3232183    4.3232183    4.3232183    14170.768    27772.596    23000.212   -8260.5047    4578.2427    20164.547   -32465.805    80.801889 
   19100    1991.9622   -117.95323    1.8023693   -116.15086    -22888.28    4.3413042    4.3413042    4.3413042    -22888.28    3811.6013    12692.828   -85169.268   -18298.742    25315.342    6397.0239    81.820223 
   19200    2485.0406   -118.35972     2.248517    -116.1112   -25945.339    4.3216567    4.3216567    4.3216567   -25945.339   -17247.194    1382.6162   -61971.438    8212.3776    5953.2034     23983.13    80.714359 
   19300    2360.2977   -118.25839    2.1356469   -116.12274    8527.1198    4.2888801    4.2888801    4.2888801    8527.1198   -34360.488    51011.663     8930.185   -11499.798    14240.752   -15656.287     78.89177 
   19400    2451.2292   -118.40611    2.2179237   -116.18819    14270.952    4.2818372    4.2818372    4.2818372    14270.952    43778.844    55327.754   -56293.743    23963.799    8956.2026   -4461.4351    78.503757 
   19500    1924.5802   -117.98824    1.7414006   -116.24684    11101.951    4.3070276    4.3070276    4.3070276    11101.951    34468.985     71559.14   -72722.271   -4927.8925    2251.9564    26634.564    79.897461 
   19600    1210.9737   -117.30782    1.0957144   -116.21211    12861.616    4.3432293    4.3432293    4.3432293    12861.616   -29998.312    109393.88   -40810.717   -1872.6578     9766.208    13173.855    81.929119 
   19700    2189.1052   -118.11287    1.9807484   -116.13212      2862.64    4.3284245    4.3284245    4.3284245      2862.64    65737.136   -31049.851   -26099.364   -5880.8389    10076.407    7028.0829     81.09415 
   19800    2858.3563   -118.67923    2.5863009   -116.09292    19379.619    4.2902719    4.2902719    4.2902719    19379.619    25148.264    58406.073   -25415.481   -24204.579   -10862.902   -3342.8115    78.968601 
   19900    1650.8092   -117.66647    1.4936868   -116.17278   -19051.511     4.297833     4.297833     4.297833   -19051.511    3538.4333   -6096.8364   -54596.129    6020.2367   -12926.142    38761.549    79.386859 
   20000    1819.6738   -117.82336    1.6464791   -116.17688   -24329.236    4.3115756    4.3115756    4.3115756   -24329.236   -1754.2978   -37530.086   -33703.326    3423.7556    15118.786    23931.696    80.150831 
   20100    2116.8214   -118.09394    1.9153445    -116.1786   -58758.418    4.3310288    4.3310288    4.3310288   -58758.418   -15741.682   -92536.843   -67996.728   -22099.452    -7661.838   -233.00173    81.240618 
   20200    1514.2793   -117.53134    1.3701517   -116.16119    -15155.03    4.3261323    4.3261323    4.3261323    -15155.03    39130.396   -63421.396    -21174.09    13313.022    12411.766    30137.629    80.965388 
   20300    2459.8403   -118.34534    2.2257152   -116.11963    31575.685    4.2932178    4.2932178    4.2932178    31575.685    59766.403    28227.374    6733.2767      41804.8   -8102.9395   -4717.5531    79.131387 
   20400    2148.2208   -118.08986    1.9437554   -116.14611    55790.147    4.2901808    4.2901808    4.2901808    55790.147    74251.224    100617.38   -7498.1584     8808.792   -4938.1434   -13097.294    78.963573 
   20500    768.75025   -116.91935   0.69558138   -116.22377    64609.489    4.3229431    4.3229431    4.3229431    64609.489    61550.676    100338.67    31939.122   -25800.013   -13352.378   -28948.548    80.786455 
   20600    1805.8941   -117.80412     1.634011    -116.1701   -58298.543    4.3486062    4.3486062    4.3486062   -58298.543   -35289.413   -57350.378   -82255.837   -27936.026   -17620.623    29597.572    82.233777 
   20700    1747.6545   -117.71567    1.5813146   -116.13436     8835.789    4.3058117    4.3058117    4.3058117     8835.789   -5856.9179    6470.8328    25893.452   -31790.451    13123.839    23455.434    79.829813 
   20800    2801.9483   -118.62035    2.5352617   -116.08508    29261.197    4.2709005    4.2709005    4.2709005    29261.197    45122.091    46388.556   -3727.0544    16576.652     3709.409   -4363.4391    77.903747 
   20900    1828.4428   -117.84274    1.6544134   -116.18833   -31412.053    4.3066771    4.3066771    4.3066771   -31412.053    20353.717   -82717.608   -31872.269   -41504.035   -1529.6809    22314.838    79.877952 
   21000    1452.4414   -117.48014    1.3141995   -116.16594   -4316.9818    4.3392898    4.3392898    4.3392898   -4316.9818     59340.19    -79535.64    7244.5041   -7436.6612    17836.037    25409.703    81.706378 
   21100    2049.9451    -117.9749    1.8548335   -116.12007   -40960.535    4.3363468    4.3363468    4.3363468   -40960.535   -7448.9855   -39614.773   -75817.846   -23618.229   -1181.7987   -3840.9703    81.540245 
   21200    2268.8355    -118.1462    2.0528901   -116.09331   -11925.269    4.3089542    4.3089542    4.3089542   -11925.269    32256.745   -24900.137   -43132.415   -39056.065    -6334.468   -31580.537    80.004726 
   21300      2573.61   -118.46646    2.3286564    -116.1378    143.34779    4.3042149    4.3042149    4.3042149    143.34779    51682.379    -9516.467   -41735.869   -32411.981   -4038.2266   -8681.1771    79.741032 
   21400     2223.992   -118.21395    2.0123147   -116.20164   -44653.431    4.3342762    4.3342762    4.3342762   -44653.431   -2952.8511    -36131.16   -94876.281   -2427.7001   -3662.5455   -13561.198    81.423496 
   21500    2001.9478   -117.99204    1.8114044   -116.18063   -63765.432    4.3395858    4.3395858    4.3395858   -63765.432   -51694.774   -78951.443    -60650.08    24162.268    29914.932   -21734.291    81.723098 
   21600    2630.7396   -118.50788    2.3803485   -116.12753    1185.3468    4.3143176    4.3143176    4.3143176    1185.3468    13712.881   -28771.218    18614.377   -19900.665   -33606.847    10500.561    80.303846 
   21700    2345.5591   -118.25937    2.1223112   -116.13706   -36469.315    4.3240834    4.3240834    4.3240834   -36469.315    55524.791   -96427.705   -68505.031   -9042.9206   -8221.2968   -17543.583    80.850402 
   21800    1570.5526   -117.57978     1.421069   -116.15871     19790.13    4.3479733    4.3479733    4.3479733     19790.13    28342.137   -33054.123    64082.376    11605.224   -23384.871   -7740.5981    82.197875 
   21900    2119.7277   -118.02867    1.9179742   -116.11069   -33998.023    4.3523319    4.3523319    4.3523319   -33998.023    67301.282   -98388.189   -70907.161   -6840.2815    12614.976    6824.0637    82.445324 
   22000    1313.3938   -117.28513    1.1883863   -116.09674    16424.333    4.3105797    4.3105797    4.3105797    16424.333    121304.53   -62073.188   -9958.3482   -30452.925   -605.21677   -7784.5132    80.095299 
   22100    1709.9653   -117.65752    1.5472125   -116.11031    81894.594    4.2880212    4.2880212    4.2880212    81894.594    166781.35    8162.0271    70740.399    7183.7694    8237.5094   -1399.2302    78.844387 
   22200    2001.5248   -118.01762    1.8110217    -116.2066    14669.852    4.3314799    4.3314799    4.3314799    14669.852    140485.62   -53342.008   -43134.055    7080.6201   -3201.7755   -690.81458    81.266003 
   22300    1275.3925   -117.32476    1.1540019   -116.17076    2827.0401    4.3555404    4.3555404    4.3555404    2827.0401    189765.66   -102325.82   -78958.726   -24693.339     9919.137   -27012.533    82.627793 
   22400    2067.4214   -117.99358    1.8706464   -116.12294    11827.929    4.3287896    4.3287896    4.3287896    11827.929    58843.283   -1677.8754   -21681.621   -27818.274   -6799.6046   -9424.7971    81.114673 
   22500    2483.4043   -118.35205    2.2470364   -116.10502    8584.6514    4.2975491    4.2975491    4.2975491    8584.6514   -26206.221   -6596.2333    58556.408    23139.461   -25248.348   -4916.4646    79.371127 
   22600    2303.5387   -118.23456    2.0842902   -116.15027    26114.238    4.2979958    4.2979958    4.2979958    26114.238    15819.658    46473.509    16049.547   -1312.3647   -19392.715   -28092.039    79.395879 
   22700    2517.4744   -118.46068    2.2778637   -116.18282   -33629.152    4.3350763    4.3350763    4.3350763   -33629.152   -72950.881   -14637.202   -13299.373   -11432.156    7520.2269   -19802.994    81.468599 
   22800    1359.1973    -117.3828    1.2298303   -116.15297    491.97762    4.3292221    4.3292221    4.3292221    491.97762   -8036.6722    46469.402   -36956.797   -14100.789     15453.23    25465.919     81.13899 
   22900    1892.3498   -117.84117    1.7122379   -116.12893    34030.579    4.2860529    4.2860529    4.2860529    34030.579    14333.199    20716.312    67042.225   -18245.144   -39355.515    496.78775    78.735862 
   23000    1923.8228   -117.91694    1.7407153   -116.17622    41319.294    4.2766128    4.2766128    4.2766128    41319.294    71065.513    47410.273    5482.0943   -13536.366   -16288.913    7348.1729    78.216756 
   23100    2433.5007   -118.43419    2.2018826   -116.23231   -9900.6868    4.3156801    4.3156801    4.3156801   -9900.6868    -27887.31   -24112.181     22297.43    9942.9928   -1.9385692   -1693.5327     80.37995 
   23200     2208.385   -118.17759    1.9981931   -116.17939   -8563.2732    4.3601928    4.3601928    4.3601928   -8563.2732    12470.915   -127.84955   -38032.886   -8613.0002    -6744.221    520.78789    82.892854 
   23300    1985.5439   -117.88237    1.7965618    -116.0858   -2860.5726    4.3645991    4.3645991    4.3645991   -2860.5726   -6710.6189   -13355.305    11484.207   -4460.5512    6405.0342    14811.334    83.144416 
   23400    2257.5016   -118.07268    2.0426349   -116.03004   -20785.319     4.336916     4.336916     4.336916   -20785.319   -31018.952   -34533.458    3196.4523    7021.9402   -22017.609   -4444.0969    81.572358 
   23500    2676.4125   -118.45477    2.4216743   -116.03309   -6621.7583    4.3048675    4.3048675    4.3048675   -6621.7583    10024.261    36718.187   -66607.723     6258.524    18319.675    -26136.64    79.777307 
   23600    1855.3268   -117.79355    1.6787386   -116.11481    -6925.204    4.2993383    4.2993383    4.2993383    -6925.204    682.20171    31217.776    -52675.59     4336.856   -24643.113    11796.373    79.470303 
   23700    1649.1295   -117.68487    1.4921671   -116.19271    22001.953    4.3273268    4.3273268    4.3273268    22001.953   -31597.598     41688.09    55915.366   -18844.592   -15219.316    18584.399    81.032471 
   23800    2320.0905   -118.27032    2.0992666   -116.17105   -43963.482    4.3568685    4.3568685    4.3568685   -43963.482   -93367.706   -37295.275   -1227.4653    4526.8318    14132.101    12720.905      82.7034 
   23900     1840.577    -117.7712    1.6653928    -116.1058    10223.143    4.3412561    4.3412561    4.3412561    10223.143    -54964.12    53251.142    32382.405    16922.553   -5435.4721   -3411.4986      81.8175 
   24000    3030.9752   -118.82062    2.7424901   -116.07813    6739.0914    4.3027468    4.3027468    4.3027468    6739.0914   -27598.831    38736.383    9079.7216   -2869.7138    10784.991    14074.941    79.659462 
   24100    1879.9157   -117.81347    1.7009873   -116.11248    51621.026     4.286809     4.286809     4.286809    51621.026    25449.413   -8182.5002    137596.17    1113.5578    6998.2858   -4404.6766    78.777538 
   24200    1097.5051   -117.20021   0.99304569   -116.20716   -10305.794    4.3226043    4.3226043    4.3226043   -10305.794    29918.165   -55836.704   -4998.8425    7579.9912   -18811.022     -35723.7    80.767462 
   24300    2486.5702   -118.39072     2.249901   -116.14082    -78282.82    4.3514529    4.3514529    4.3514529    -78282.82   -89632.341    -62388.32   -82827.798    637.54115    19047.481    17458.586    82.395381 
   24400    1600.1439   -117.53599    1.4478438   -116.08814   -18456.348    4.3466043    4.3466043    4.3466043   -18456.348    62300.198   -12875.658   -104793.58   -20235.427   -23055.826   -3470.8565    82.120261 
   24500    1281.6378   -117.21926    1.1596528   -116.05961    38446.129    4.3185455    4.3185455    4.3185455    38446.129     69658.52    1958.1193    43721.746    515.60362   -36389.292   -20776.824    80.540161 
   24600    2342.0608   -118.19178    2.1191458   -116.07264   -4676.2487    4.3072028    4.3072028    4.3072028   -4676.2487   -18634.137    8632.4292   -4027.0378   -374.20113   -1465.3399    22513.845    79.907209 
   24700     2281.237   -118.19287    2.0641112   -116.12876   -4547.0649    4.3154568    4.3154568    4.3154568   -4547.0649   -49220.352    -18655.73    54234.887    8771.0797   -34031.747    2504.7858    80.367476 
   24800     2668.268   -118.56283    2.4143049   -116.14853   -9056.7312    4.3237653    4.3237653    4.3237653   -9056.7312     2176.343   -45512.283    16165.746   -4097.6885    -24556.48    9189.2614    80.832561 
   24900    2241.0049   -118.17479    2.0277083   -116.14708   -12935.777    4.3231272    4.3231272    4.3231272   -12935.777   -27022.098   -7250.7612   -4534.4711    12434.814    3018.4123   -27914.025    80.796778 
   25000    1589.9388   -117.58179      1.43861   -116.14318    23899.715    4.3111509    4.3111509    4.3111509    23899.715     3598.728    943.08213    67157.336    17484.667     1424.405    6600.1591    80.127145 
   25100    1874.9109   -117.84557    1.6964588   -116.14911   -6376.5801    4.3074551    4.3074551    4.3074551   -6376.5801   -40025.421    33291.811   -12396.131   -1610.3092    22529.601    9897.2707    79.921254 
   25200    1836.3555   -117.83056     1.661573   -116.16899    9535.1064    4.3204393    4.3204393    4.3204393    9535.1064   -5775.4005     42406.16   -8025.4402    8369.6581   -16252.145    3539.8632    80.646168 
   25300    2045.6793   -118.02192    1.8509736   -116.17094    3759.7964    4.3378691    4.3378691    4.3378691    3759.7964    18055.153   -4558.0581   -2217.7056    26089.205   -17402.433    11119.746    81.626153 
   25400    2035.6093   -117.96232    1.8418621   -116.12045   -22109.921    4.3373504    4.3373504    4.3373504   -22109.921   -30550.763   -8016.7396   -27762.261   -9944.2115    23171.654   -30438.104    81.596876 
   25500    2469.7358    -118.3102    2.2346688   -116.07553    21005.582    4.2889557    4.2889557    4.2889557    21005.582     1260.716    55486.356    6269.6738    9497.9309   -30078.146   -3423.9974    78.895944 
   25600    1438.4274   -117.42388    1.3015193   -116.12236    61478.916    4.2735618    4.2735618    4.2735618    61478.916    25973.875    51698.571     106764.3    1941.2102   -12941.524    4015.1863    78.049473 
   25700    1851.8692   -117.83852    1.6756102   -116.16291    -50105.19    4.3045411    4.3045411    4.3045411    -50105.19   -99022.922   -14374.421   -36918.227    40815.624    51830.567    231.87828    79.759161 
   25800    2604.4061   -118.49958    2.3565214   -116.14305    15550.384    4.3050911    4.3050911    4.3050911    15550.384   -8890.0247    18398.063    37143.114   -20228.973   -501.61082   -7220.7444    79.789738 
   25900     1865.873   -117.86707    1.6882811   -116.17879   -36365.666    4.3269546    4.3269546    4.3269546   -36365.666   -110775.36   -30428.235      32106.6    36603.928    -297.6183   -13729.768    81.011566 
   26000    1545.3028   -117.55609    1.3982224   -116.15787   -56994.084    4.3139598    4.3139598    4.3139598   -56994.084   -121475.52   -39500.589   -10006.147    78255.643    5833.6277   -11288.347    80.283865 
   26100    2170.1504   -118.07666    1.9635977   -116.11306    51489.274    4.2624994    4.2624994    4.2624994    51489.274   -20652.374    134603.81    40516.391   -23112.206   -1939.4934    2037.5279     77.44493 
   26200    2138.2245   -118.13345    1.9347104   -116.19874    17518.106    4.2770385    4.2770385    4.2770385    17518.106   -36401.879    81584.002    7372.1937    2236.9319   -15747.812   -12158.434    78.240113 
   26300    1916.4597   -117.94046     1.734053   -116.20641   -5716.0747     4.309562     4.309562     4.309562   -5716.0747   -60269.129     70096.61   -26975.705    24802.118   -14297.424    -7049.944    80.038583 
   26400    2346.0545   -118.29371    2.1227594   -116.17095   -17494.619    4.3226434    4.3226434    4.3226434   -17494.619   -64598.927    39748.603   -27633.534    25224.138    15764.705    14314.337    80.769654 
   26500    1820.0561   -117.80279     1.646825   -116.15597   -30920.182     4.321417     4.321417     4.321417   -30920.182   -86279.322     44801.78   -51283.005   -33121.317   -15896.745    1566.1215    80.700926 
   26600    1957.4165   -117.90615    1.7711116   -116.13504    3880.3596    4.2970752    4.2970752    4.2970752    3880.3596   -34386.091    49304.812   -3277.6417    34087.885   -15375.367    28441.094    79.344874 
   26700    1682.5433   -117.67135    1.5224005   -116.14895    10610.376    4.2899145    4.2899145    4.2899145    10610.376   -19395.627   -18439.449    69666.204   -13220.217    16153.796    11968.405    78.948869 
   26800    2037.8679   -118.00469    1.8439057   -116.16078   -11513.655    4.3027512    4.3027512    4.3027512   -11513.655   -89460.471    19144.285    35775.222   -34721.559   -9070.7967    142.82339    79.659705 
   26900    2585.0343   -118.49668    2.3389933   -116.15769   -13488.797    4.3243421    4.3243421    4.3243421   -13488.797   -40139.026    25452.388   -25779.753    16682.337    7205.3383    8876.0789    80.864917 
   27000    1749.0393   -117.71636    1.5825675   -116.13379    -71005.79    4.3385715    4.3385715    4.3385715    -71005.79   -93590.394   -101401.57   -18025.401   -59188.519   -253.83095    2655.5909    81.665811 
   27100    1606.7735   -117.54703    1.4538424   -116.09319   -5542.4256    4.3080345    4.3080345    4.3080345   -5542.4256   -59190.451   -18761.545     61324.72   -16687.759    752.30955    24778.259    79.953504 
   27200    2336.3598   -118.19922    2.1139874   -116.08523     9116.247    4.2874954    4.2874954    4.2874954     9116.247    -31921.12    37168.454    22101.407   -658.55569   -8018.2311   -3740.0072    78.815385 
   27300    1945.1596   -117.92493    1.7600213   -116.16491   -2117.1304    4.3041531    4.3041531    4.3041531   -2117.1304   -34761.625    17394.763     11015.47   -62548.958    7180.8402   -2112.4582    79.737597 
   27400    2100.4695   -118.07273     1.900549   -116.17218   -11700.698    4.3180998    4.3180998    4.3180998   -11700.698   -75379.834   -7272.5542    47550.293   -1200.5612   -13828.831    2975.4168    80.515225 
   27500    2103.7556   -118.05598    1.9035223   -116.15246   -22753.973    4.3298124    4.3298124    4.3298124   -22753.973    -87767.53    902.82047     18602.79    24182.537    -11952.73   -6141.7803    81.172186 
   27600    1998.3842   -117.94513    1.8081801   -116.13695    13226.662    4.3107628    4.3107628    4.3107628    13226.662    -15658.52    86010.126   -30671.619     -14164.4    12904.287   -6362.2352    80.105511 
   27700    2177.3079   -118.08957    1.9700739    -116.1195    14346.939    4.2840156    4.2840156    4.2840156    14346.939   -29011.685    18976.539    53075.962    261.87544    -14642.53    12219.786     78.62364 
   27800     1790.537   -117.79957    1.6201155   -116.17945   -51909.889     4.305796     4.305796     4.305796   -51909.889   -124870.73   -54640.101    23781.167    31216.098    8345.7716    4433.0729    79.828936 
   27900    2305.1873   -118.24592    2.0857819   -116.16013   -40097.814    4.3147142    4.3147142    4.3147142   -40097.814   -81974.537   -23612.285   -14706.619    18403.024    26389.399   -5740.5834    80.325991 
   28000    1963.7434   -117.94133    1.7768363   -116.16449    16706.963    4.3091434    4.3091434    4.3091434    16706.963   -17724.444    33648.738    34196.595   -16801.193   -19395.246    6151.2688    80.015263 
   28100    1609.0659   -117.63196    1.4559166   -116.17604    17160.062    4.3123245    4.3123245    4.3123245    17160.062   -28177.378     103524.7   -23867.134    17382.368   -7011.7935    10119.578    80.192599 
   28200    2010.1657   -117.98931    1.8188402   -116.17047   -5556.6911    4.3198417    4.3198417    4.3198417   -5556.6911   -52711.176    104021.28   -67980.173    3359.1874    20928.407   -10516.514    80.612705 
   28300    2082.1554   -118.06915    1.8839779   -116.18518   -3223.4367    4.3359712    4.3359712    4.3359712   -3223.4367   -85836.056    93239.859   -17074.113    8108.6529    294.14342   -51467.934     81.51906 
   28400    1708.9832   -117.72332    1.5463239     -116.177     21975.08    4.3481617    4.3481617    4.3481617     21975.08   -37198.445    175522.52   -72398.829     27915.44     2445.981   -14405.541    82.208561 
   28500    1638.6295   -117.63503    1.4826664   -116.15237    17307.914    4.3543002    4.3543002    4.3543002    17307.914   -91126.907    178506.41   -35455.766   -13124.977    1044.8662    31964.067    82.557229 
   28600    1087.5052   -117.11857   0.98399753   -116.13457    44710.266    4.3391246    4.3391246    4.3391246    44710.266   -95394.842    169719.69    59805.945    4827.6454   -17567.682    51632.328    81.697049 
   28700    1783.7269    -117.7479    1.6139536   -116.13394   -15803.809    4.3254411    4.3254411    4.3254411   -15803.809   -68944.004    31343.692   -9811.1148   -3610.8955     6872.456    2691.6182    80.926586 
   28800    1855.1305   -117.80752    1.6785611   -116.12896   -12998.194    4.3210881    4.3210881    4.3210881   -12998.194   -13834.813   -710.70281   -24449.067   -545.73036    9489.9022   -32535.314    80.682501 
   28900    2327.5492   -118.22314    2.1060155   -116.11713   -10122.957    4.3155579    4.3155579    4.3155579   -10122.957   -40798.116    23400.937   -12971.691   -19156.047    -15951.73   -15266.046    80.373123 
   29000    2747.8463   -118.62792    2.4863091   -116.14161   -5523.8556     4.315433     4.315433     4.315433   -5523.8556   -36273.816     34490.62   -14788.371   -2941.9255    1124.6111   -6916.7291    80.366147 
   29100    2247.7889   -118.19006    2.0338466   -116.15621   -22805.685     4.325221     4.325221     4.325221   -22805.685     2820.186    -73412.15    2174.9088   -12455.599    13744.174   -23683.544    80.914233 
   29200    1399.5461   -117.39339    1.2663387   -116.12705    46656.579    4.3152445    4.3152445    4.3152445    46656.579   -10769.125    32915.808    117823.05   -5813.1264   -4519.9783    3135.0761    80.355616 
   29300    1464.4437   -117.45882    1.3250594   -116.13377    56288.794     4.305667     4.305667     4.305667    56288.794   -6836.0901    105355.94    70346.537    13106.974   -8597.5764    24214.049    79.821763 
   29400    2262.4965   -118.18339    2.0471543   -116.13623   -761.51743    4.3145785    4.3145785    4.3145785   -761.51743   -15347.359    41235.369   -28172.562    4591.8211    714.33864    -7957.913    80.318412 
   29500    2157.6269   -118.08381    1.9522661   -116.13154    -60543.66     4.344958     4.344958     4.344958    -60543.66   -104046.67   -36578.324   -41005.983   -6012.1874     8739.676   -4178.0203    82.026986 
   29600    1939.0129   -117.84062    1.7544596   -116.08616   -1404.7257    4.3423861    4.3423861    4.3423861   -1404.7257   -98608.351    61833.335    32560.839    15668.195    15212.248    12792.834    81.881411 
   29700    1956.2521   -117.84875     1.770058   -116.07869     22315.48    4.3115585    4.3115585    4.3115585     22315.48   -28044.977    92339.495    2651.9209   -1461.9455   -10544.504    5744.9171    80.149877 
   29800    1515.0761   -117.50186    1.3708727   -116.13099    17478.728    4.2986235    4.2986235    4.2986235    17478.728    -4296.888    60582.818   -3849.7465     14473.56     2413.047   -8683.4223    79.430668 
   29900    2168.6443   -118.12384     1.962235   -116.16161    8138.4818    4.3012841    4.3012841    4.3012841    8138.4818    12628.509   -12523.062    24309.999    24309.211    5494.9438   -4149.6238    79.578252 
   30000     2513.581   -118.43714    2.2743409    -116.1628   -14437.052    4.3127816    4.3127816    4.3127816   -14437.052    1334.8353   -45009.118    363.12762    2947.7609   -3253.8812    -6805.789    80.218103 
   30100     2042.952   -118.00455    1.8485059   -116.15604    4337.8058    4.3256319    4.3256319    4.3256319    4337.8058    41034.788   -35820.398    7799.0277    15230.864   -5240.8883    1614.6929    80.937293 
   30200    1851.3229   -117.82156    1.6751158   -116.14644   -24634.815    4.3222699    4.3222699    4.3222699   -24634.815   -63691.958    27389.441   -37601.929    6509.6832    2786.5754     -13459.4    80.748718 
   30300    1958.3611   -117.89549    1.7719663   -116.12352      30352.3    4.2955975    4.2955975    4.2955975      30352.3    -6300.551    80518.281    16839.171    -13154.29    9736.9942    7189.9264    79.263044 
   30400    2203.7712   -118.15872    1.9940185    -116.1647    639.77751     4.305982     4.305982     4.305982    639.77751   -26198.681    -14774.49    42892.504   -15553.434    1644.8822    21629.088    79.839281 
   30500    1795.7716   -117.80524    1.6248519   -116.18039    -43354.48    4.3355559    4.3355559    4.3355559    -43354.48    23064.432    -82442.22   -70685.653    10455.227    4620.3048   -19736.112    81.495638 
   30600    1526.1096   -117.51496    1.3808561   -116.13411    23512.917    4.3170529    4.3170529    4.3170529    23512.917    55639.705   -51064.281    65963.328   -19440.862   -16342.924   -24708.385    80.456682 
   30700    2621.7316   -118.47555    2.3721979   -116.10336    9143.2361    4.2930608    4.2930608    4.2930608    9143.2361   -16466.788    28035.726     15860.77   -16243.034    5974.4988   -1714.1312    79.122705 
   30800    2295.1001   -118.23065    2.0766548     -116.154   -30176.961    4.2963338    4.2963338    4.2963338   -30176.961   -41688.984   -24142.711   -24699.186   -7654.1749   -82.821141   -35656.419     79.30381 
   30900    1702.1027   -117.71907    1.5400983   -116.17897    7370.4198    4.2896928    4.2896928    4.2896928    7370.4198    65868.175    1963.4308   -45720.346   -2195.9398   -8181.2571   -25249.736    78.936629 
   31000    1272.2359   -117.35523    1.1511458   -116.20409    15699.086    4.3027291    4.3027291    4.3027291    15699.086    43413.368    50452.976   -46769.085   -9601.4285    7683.7571   -2520.1383    79.658479 
   31100    1189.4993   -117.24905     1.076284   -116.17277    26591.253    4.3230769    4.3230769    4.3230769    26591.253    34493.861    83977.662   -38697.763   -25060.499    14778.204    3405.9478    80.793956 
   31200    2440.2533   -118.33746    2.2079925   -116.12947   -29163.426    4.3255964    4.3255964    4.3255964   -29163.426   -16019.653   -18466.104   -53004.521    14439.446    -1163.041   -1214.7329    80.935299 
   31300    2798.9854   -118.64169    2.5325808   -116.10911   -18564.265    4.3132796    4.3132796    4.3132796   -18564.265    11201.789    -41740.25   -25154.334     27526.06    16905.554    11456.884    80.245897 
   31400    2243.8581   -118.16072      2.03029   -116.13043   -2084.3059     4.312676     4.312676     4.312676   -2084.3059   -2586.7488    50652.378   -54318.547   -6491.4123    14383.955    13666.128    80.212215 
   31500    1411.2754   -117.43595    1.2769516     -116.159    3426.3053    4.3246138    4.3246138    4.3246138    3426.3053   -15115.714    99638.789   -74244.159   -37830.953   -16661.271    3028.6413    80.880158 
   31600    1735.2836   -117.71515    1.5701211   -116.14503    7006.3334     4.325688     4.325688     4.325688    7006.3334    3210.9789    22906.315   -5098.2942   -10172.586    1773.0293   -1714.1157    80.940442 
   31700    1982.3562   -117.93853    1.7936776   -116.14486   -58630.824    4.3380097    4.3380097    4.3380097   -58630.824   -32287.331   -80988.929   -62616.213    10739.901    1176.4674   -15412.658     81.63409 
   31800    2516.8987   -118.40954    2.2773428   -116.13219   -27540.633    4.3187479    4.3187479    4.3187479   -27540.633   -17441.339   -9198.7717   -55981.789     20634.35   -11197.929    22300.186    80.551487 
   31900    1967.8335   -117.92194    1.7805371    -116.1414    45332.878    4.2869235    4.2869235    4.2869235    45332.878    52814.614     56696.36    26487.662   -11212.551   -17435.369   -13132.064    78.783852 
   32000    1596.5038   -117.63485    1.4445502    -116.1903    6837.2826    4.2988214    4.2988214    4.2988214    6837.2826    17340.185   -4601.3345    7772.9972    8859.0908    4543.0626    -24113.29    79.441643 
   32100    2369.4297   -118.29943    2.1439098   -116.15552   -6446.0818    4.3073374    4.3073374    4.3073374   -6446.0818   -29193.331     30005.52   -20150.434     4520.557   -2927.5365    14927.209    79.914701 
   32200    2109.0314   -118.07047    1.9082959   -116.16217   -25965.054    4.2974195    4.2974195    4.2974195   -25965.054    11442.984   -47687.756   -41650.388    6450.1793    9613.3762   -3490.1428    79.363948 
   32300    1091.3391   -117.17199   0.98746657   -116.18453   -27074.575    4.2964035    4.2964035    4.2964035   -27074.575    5246.3269   -99104.528    12634.476    -38533.08   -5073.2997   -47495.161    79.307667 
   32400    1914.6051   -117.90081    1.7323749   -116.16843    33436.656    4.2983332    4.2983332    4.2983332    33436.656    29579.325    46294.026    24436.616    6887.3531   -12864.622    5713.2455    79.414577 
   32500    2770.2947   -118.66855    2.5066209   -116.16193   -10176.101    4.3195423    4.3195423    4.3195423   -10176.101   -38145.924    89545.493   -81927.872    18265.552    3029.7267    33337.696    80.595943 
   32600     2421.426   -118.32182    2.1909571   -116.13086   -14225.946    4.3272871    4.3272871    4.3272871   -14225.946   -63371.955    37898.411   -17204.294   -27006.868    5157.9642   -17654.824    81.030243 
   32700    1258.3588   -117.25669    1.1385895    -116.1181    42664.399    4.3137097    4.3137097    4.3137097    42664.399   -20585.991    121048.19    27530.995   -1546.6886    -21893.48    3354.4329    80.269902 
   32800    1687.6649   -117.64446    1.5270346   -116.11742    16372.362    4.3007135    4.3007135    4.3007135    16372.362   -18182.494    90589.794   -23290.215   -3368.4676   -20601.574    7999.8796    79.546582 
   32900    2407.1626   -118.30502    2.1780513   -116.12697    -2009.663    4.2900834    4.2900834    4.2900834    -2009.663   -28760.162   -1223.4974    23954.671   -2791.6025    10810.499   -6165.8771    78.958195 
   33000     2179.801   -118.13685    1.9723297   -116.16452    13083.562    4.2928974    4.2928974    4.2928974    13083.562    -7201.555    32663.634    13788.608    22484.142   -31764.509    -5414.635    79.113667 
   33100     1963.102   -117.96486    1.7762559    -116.1886   -34718.337    4.3117377    4.3117377    4.3117377   -34718.337   -56384.498   -33882.076   -13888.435   -21011.028   -21482.093    3393.4885     80.15987 
   33200    1902.4213   -117.88582    1.7213508   -116.16447   -29386.009    4.3075486    4.3075486    4.3075486   -29386.009   -44036.807   -42473.286   -1647.9347   -6461.3427    6345.1756    15401.934    79.926456 
   33300    1419.1319   -117.44234    1.2840603   -116.15828    45675.196    4.2960102    4.2960102    4.2960102    45675.196   -41638.783    168690.31     9974.058   -13819.307   -1595.3807   -1212.8689     79.28589 
   33400    2487.7299   -118.42703    2.2509503   -116.17608   -24964.921    4.3012474    4.3012474    4.3012474   -24964.921   -32374.577   -10946.354   -31573.833   -3719.0372   -13939.709   -19731.604    79.576213 
   33500    2461.0452   -118.40173    2.2268055   -116.17493    18663.007    4.2955733    4.2955733    4.2955733    18663.007    7622.8652    16398.964    31967.191    -3717.951     1940.816   -117.11397    79.261701 
   33600    1506.1897   -117.57919    1.3628321   -116.21636     7022.978    4.3154495    4.3154495    4.3154495     7022.978   -63785.378   -13767.788      98622.1    6817.3475   -13053.926   -2074.0242    80.367065 
   33700    1318.6246    -117.3674    1.1931193   -116.17428   -31248.468    4.3352926    4.3352926    4.3352926   -31248.468    -71756.27   -85916.148    63927.014    16649.066    16913.484    11871.205     81.48079 
   33800    1717.0256   -117.68563    1.5536008   -116.13202     13437.46     4.316393     4.316393     4.316393     13437.46   -56340.197     38139.29    58513.286    18192.783   -9739.8242   -38499.107    80.419788 
   33900    2710.0406    -118.5769    2.4521017   -116.12479    3577.9575    4.3036993    4.3036993    4.3036993    3577.9575   -1912.5532    19393.265   -6746.8395   -18384.583   -803.10706   -5806.7008    79.712376 
   34000    1796.1811   -117.79008    1.6252224   -116.16485    45575.506    4.3180254    4.3180254    4.3180254    45575.506    19869.049    103504.92    13352.545    2101.7793    23774.308   -9375.4246    80.511069 
   34100    2352.4336   -118.25606    2.1285314   -116.12753   -47525.176     4.333313     4.333313     4.333313   -47525.176   -71638.586   -53243.094   -17693.848    30780.854    15549.907   -38206.937    81.369224 
   34200    1925.0286   -117.83872    1.7418063   -116.09691    20146.886    4.3136623    4.3136623    4.3136623    20146.886     51704.92    48396.163   -39660.425    5726.7092    5154.8239   -11026.738     80.26726 
   34300    1897.3826   -117.84618    1.7167917   -116.12939    30874.442    4.3004486    4.3004486    4.3004486    30874.442    101318.25    41110.662   -49805.588    19939.796   -323.62129    13282.611    79.531887 
   34400    1918.3327   -117.91479    1.7357477   -116.17904   -19245.674    4.3074502    4.3074502    4.3074502   -19245.674    -38816.09   -15461.895   -3459.0382   -23289.183    9611.6302    546.05421    79.920981 
   34500    1698.7882   -117.72001    1.5370993   -116.18291    16682.056    4.3096313    4.3096313    4.3096313    16682.056    -58298.99    112690.02   -4344.8609    1864.5582    12103.196    17236.116    80.042444 
   34600    2180.3967   -118.15611    1.9728687   -116.18324    5921.9527    4.3174933    4.3174933    4.3174933    5921.9527    -9396.483    23321.639     3840.702    2539.2752    310.31651    9954.7776    80.481305 
   34700    2230.9498   -118.16685    2.0186102   -116.14824    8585.9317    4.3110292    4.3110292    4.3110292    8585.9317   -52784.875    77985.065    557.60518   -29266.899    9897.3001   -26022.469    80.120358 
   34800    1672.9298   -117.67518    1.5137021   -116.16148    15789.509    4.3120364    4.3120364    4.3120364    15789.509   -76591.765    2891.5331    121068.76    22729.414   -1932.8113   -5583.5732    80.176529 
   34900    1736.6723   -117.72405    1.5713776   -116.15268   -22334.861    4.3262197    4.3262197    4.3262197   -22334.861   -67124.109   -18535.797    18655.325    5711.0334   -8866.7851     1888.058    80.970291 
   35000     2861.484   -118.69857    2.5891309   -116.10944   -33301.503    4.3156313    4.3156313    4.3156313   -33301.503   -69243.644       3490.4   -34151.266   -7650.3337   -10680.403    13972.463    80.377224 
   35100    1563.0992    -117.5535     1.414325   -116.13917    25513.133    4.3128788    4.3128788    4.3128788    25513.133   -51300.771    65741.283    62098.887    53965.113    7638.4351   -4344.0573    80.223529 
   35200    2381.3489   -118.27864    2.1546946   -116.12394   -29558.066    4.3130705    4.3130705    4.3130705   -29558.066   -31274.611   -24674.667   -32724.919   -548.53048   -2718.6775   -16653.326    80.234224 
   35300    2074.9026   -118.01099    1.8774154   -116.13357   -748.86254    4.3198893    4.3198893    4.3198893   -748.86254    43480.061   -19810.582   -25916.066   -18168.287    30768.058   -10980.868     80.61537 
   35400    1508.3716   -117.49689    1.3648064   -116.13208    22863.427    4.3273136    4.3273136    4.3273136    22863.427    19209.103    63440.835   -14059.658    17420.288    7841.6617   -17106.147    81.031732 
   35500     1990.937   -117.91197    1.8014416   -116.11053   -2077.8466    4.3261262    4.3261262    4.3261262   -2077.8466    2581.5745    13260.624   -22075.738    19563.722   -1931.7678   -14779.051    80.965046 
   35600     2186.387   -118.09673    1.9782889   -116.11844   -38417.833    4.3285863    4.3285863    4.3285863   -38417.833   -49621.433   -48544.547    -17087.52   -14375.667    24521.623    12157.758    81.103245 
   35700    1855.5094   -117.78584    1.6789039   -116.10694   -51518.315    4.3280344    4.3280344    4.3280344   -51518.315   -84806.388   -59542.226   -10206.331    29056.158    3123.2717   -19293.648    81.072229 
   35800    1889.7804   -117.80412     1.709913    -116.0942    16077.138     4.304259     4.304259     4.304259    16077.138    53455.115     19250.82   -24474.521    32781.369   -1754.9564   -41464.143    79.743483 
   35900    2516.6559   -118.39494    2.2771232   -116.11782    4323.9071    4.2931513    4.2931513    4.2931513    4323.9071   -20856.209    45060.938   -11233.008   -1009.6382   -13465.013    25438.519    79.127707 
   36000    2233.0466   -118.17827    2.0205075   -116.15777   -26113.983    4.3103026    4.3103026    4.3103026   -26113.983   -6548.7547   -35207.264   -36585.929   -962.64036    20547.149   -7733.5951    80.079857 
   36100     1832.832   -117.82064    1.6583849   -116.16226   -20648.752    4.3206858    4.3206858    4.3206858   -20648.752    18733.742    -2451.967   -78228.031    14854.331    9289.7013   -20315.596     80.65997 
   36200    1790.2255   -117.76832    1.6198337   -116.14849   -68856.423    4.3223878    4.3223878    4.3223878   -68856.423    -71367.14   -59128.242   -76073.886    -20697.42   -25771.096    37955.043     80.75533 
   36300    1538.0647   -117.51922    1.3916733   -116.12755   -4822.5626    4.3024213    4.3024213    4.3024213   -4822.5626    -32492.28   -36063.056    54087.649   -11602.197    14675.773    4577.4204    79.641387 
   36400    2513.5803   -118.41216    2.2743403   -116.13782    18502.284    4.2890498    4.2890498    4.2890498    18502.284    16079.078    -23329.39    62757.165    -9839.484    39233.684   -18078.621    78.901138 
   36500    2470.4432   -118.39847     2.235309   -116.16316    15901.842    4.2976924    4.2976924    4.2976924    15901.842    41519.448   -21775.699    27961.777   -2774.4022   -16172.925    13642.395    79.379064 
   36600    1516.6039   -117.55084    1.3722551   -116.17859   -11281.235    4.3205844    4.3205844    4.3205844   -11281.235   -44841.018   -65350.143    76347.456   -32610.548     6193.236    12066.879     80.65429 
   36700    1810.8449   -117.77971    1.6384905   -116.14122   -62255.039    4.3228881    4.3228881    4.3228881   -62255.039   -45372.055   -70345.525   -71047.536    5658.5273    34562.636    22519.132    80.783374 
   36800    1785.0859   -117.72233    1.6151833   -116.10715    32578.618    4.2879849    4.2879849    4.2879849    32578.618      22964.1    2415.9318    72355.823    12123.395    5503.1522   -9257.5427    78.842384 
   36900    1636.1555   -117.66005    1.4804279   -116.17962    35454.941      4.29969      4.29969      4.29969    35454.941    11956.853    18286.152    76121.819   -4783.8471   -15427.363   -33673.245    79.489803 
   37000    2817.2026   -118.71826    2.5490642    -116.1692   -52842.774    4.3265882    4.3265882    4.3265882   -52842.774   -63467.997   -45423.901   -49636.424    36216.411    15281.647    7911.4972    80.990987 
   37100    1680.4292   -117.65537    1.5204876   -116.13488    8476.0186     4.317443     4.317443     4.317443    8476.0186    72743.038   -59633.374    12318.393   -2646.0884   -13041.922   -34992.933    80.478493 
   37200    1945.3452   -117.88144    1.7601892   -116.12125    39982.999    4.3052332    4.3052332    4.3052332    39982.999    16748.226    14692.718    88508.053    5489.1426   -18345.927   -15754.126    79.797638 
   37300    2247.2843   -118.15474      2.03339   -116.12135   -15881.277    4.3225088    4.3225088    4.3225088   -15881.277    5170.2445   -33289.259   -19524.816    -19242.05    4365.6987    9484.9435     80.76211 
   37400    1891.0965   -117.82437    1.7111038   -116.11327   -2413.9597    4.3117332    4.3117332    4.3117332   -2413.9597    -8.032204   -51015.777     43781.93   -34044.031   -5461.6383   -22892.906    80.159616 
   37500    1857.7447   -117.82039    1.6809264   -116.13946    25770.546    4.2925583    4.2925583    4.2925583    25770.546    10031.229    13678.697    53601.713    9569.0341    8115.5823   -4525.6171    79.094926 
   37600    2675.4932   -118.60517    2.4208424   -116.18433   -37334.791    4.3092489    4.3092489    4.3092489   -37334.791    -20414.08   -39627.353    -51962.94   -8455.7904   -24000.554     5664.451    80.021143 
   37700    1609.3358   -117.62737    1.4561608   -116.17121    18338.182    4.3250616    4.3250616    4.3250616    18338.182    38202.984    7437.6113    9373.9503   -3845.9477     17041.38   -10752.876    80.905285 
   37800    2215.7628   -118.14536    2.0048687    -116.1405    -16614.22    4.3253773    4.3253773    4.3253773    -16614.22     2477.695   -9629.5833    -42690.77   -2053.5616   -30831.114   -2781.9905    80.923001 
   37900    2278.1758   -118.19043    2.0613414   -116.12909   -15949.611    4.3207185    4.3207185    4.3207185   -15949.611    40371.088   -26713.566   -61506.357    7155.7448    13723.902    8348.6996    80.661801 
   38000    2282.8906   -118.19594    2.0656074   -116.13033   -16625.526     4.313928     4.313928     4.313928   -16625.526   -88316.717    559.46502    37880.673    1974.4517    33526.355   -11217.505    80.282094 
   38100    1322.7012   -117.35771    1.1968078    -116.1609     3624.393    4.3200583    4.3200583    4.3200583     3624.393   -69925.938    50326.173    30472.944    10820.066   -5000.1282   -28961.703     80.62483 
   38200    1155.6201   -117.21125    1.0456294   -116.16562    12585.901    4.3312059    4.3312059    4.3312059    12585.901   -105743.87     52431.95    91069.621   -6303.9861   -10271.292   -35795.778    81.250586 
   38300    2373.9026   -118.29904    2.1479569   -116.15108   -58985.841    4.3402053    4.3402053    4.3402053   -58985.841   -94467.264   -64575.936   -17914.323    5095.0172   -11577.863    247.01387    81.758107 
   38400    1994.7494   -117.92653    1.8048912   -116.12164   -18818.669    4.3218271    4.3218271    4.3218271   -18818.669   -74103.418    2464.5025    15182.908    13355.754    10183.362    28771.114    80.723903 
   38500    2495.8195   -118.37261    2.2582699   -116.11434    41714.134    4.3001244    4.3001244    4.3001244    41714.134    31581.983    101991.19   -8430.7728   -17171.459   -1481.1873   -9360.3847    79.513899 
   38600    2292.9643   -118.26738    2.0747223   -116.19266    6444.8861    4.3204578    4.3204578    4.3204578    6444.8861   -35547.449    83247.519   -28365.412   -8997.6551    616.31391   -5858.5819    80.647204 
   38700    1940.4448   -117.92119    1.7557552   -116.16543   -31787.545    4.3444952    4.3444952    4.3444952   -31787.545   -95595.756    40919.938   -40686.817    4867.8925    -22655.41    -18947.29    82.000779 
   38800    2359.2894   -118.25499    2.1347347   -116.12026   -25988.313    4.3303539    4.3303539    4.3303539   -25988.313   -58355.853   -4042.3614   -15566.726   -25338.386   -5199.6222    7096.8006    81.202645 
   38900    1348.2082   -117.32207    1.2198871   -116.10219    45173.635    4.2895029    4.2895029    4.2895029    45173.635    42557.098     59317.44    33646.368   -31427.137   -1902.7817   -5078.4539    78.926143 
   39000      1927.19   -117.88167    1.7437621    -116.1379    14012.461    4.2755899    4.2755899    4.2755899    14012.461   -26342.435    72605.101    -4225.284    15749.223   -4541.4075   -14871.528    78.160643 
   39100    2029.5748    -118.0704    1.8364019     -116.234   -11751.122    4.3156288    4.3156288    4.3156288   -11751.122    20253.864    -30526.98   -24980.251    14017.582   -13963.531   -15159.987    80.377087 
   39200    2732.9803   -118.64235     2.472858   -116.16949   -38733.526    4.3457234    4.3457234    4.3457234   -38733.526   -47138.016   -36340.766   -32721.797   -16038.316   -13200.357   -9441.7031    82.070343 
   39300    2681.4807   -118.53547    2.4262601   -116.10921   -29983.678    4.3410362    4.3410362    4.3410362   -29983.678     10199.22   -43536.439   -56613.816   -7230.8431    9235.4174   -15182.493     81.80507 
   39400    1398.5422   -117.36249    1.2654304   -116.09706    1191.4567     4.318331     4.318331     4.318331    1191.4567    26923.036   -5938.5615   -17410.105   -14014.244   -12569.438   -29755.804    80.528161 
   39500    1935.6101   -117.84653    1.7513807   -116.09514     25512.37    4.2899866    4.2899866    4.2899866     25512.37   -5982.4816    35706.927    46812.665     -24999.8   -8746.6097     20026.97     78.95285 
   39600    1847.6968   -117.83386    1.6718349   -116.16203    29956.828    4.2981315    4.2981315    4.2981315    29956.828    30494.177    68847.739   -9471.4311   -5358.4983    14116.439    7090.6686    79.403398 
   39700    1861.1199   -117.85127    1.6839804   -116.16729    17134.964     4.318863     4.318863     4.318863    17134.964   -6090.5993    61192.397   -3696.9054   -26394.967    6429.9983   -2653.5288     80.55793 
   39800    2171.8072   -118.10785    1.9650968   -116.14276   -33845.836    4.3486384    4.3486384    4.3486384   -33845.836   -41034.339   -13658.147   -46845.021   -32575.197   -5483.9275    534.97788    82.235605 
   39900    2617.4189   -118.43877    2.3682956   -116.07048   -45283.358     4.360761     4.360761     4.360761   -45283.358   -75301.962   -83090.574    22542.463    23316.987    20341.176    7051.3667    82.925261 
   40000     1602.582   -117.48404    1.4500498   -116.03399     59118.79    4.3363512    4.3363512    4.3363512     59118.79   -33995.365    4946.4259    206405.31   -5143.5484   -13868.462   -36093.734    81.540495 
   40100    2201.1036   -118.01963    1.9916048   -116.02803    30480.941    4.3210432    4.3210432    4.3210432    30480.941    67846.868   -57033.746      80629.7    19407.903    11695.434    13781.062    80.679987 
   40200    2397.0008   -118.24536    2.1688567   -116.07651    16904.017    4.3354658    4.3354658    4.3354658    16904.017    79333.347    -14280.53   -14340.765    9864.1442    18677.636    27422.999    81.490558 
   40300    2200.9002   -118.06595    1.9914208   -116.07453   -19683.692    4.3489241    4.3489241    4.3489241   -19683.692    68898.841    -70458.66   -57491.258     2166.475   -7902.4869    583.63994    82.251816 
   40400    1454.7298   -117.38231    1.3162701   -116.06604    15374.978    4.3245154    4.3245154    4.3245154    15374.978    72760.619   -41897.032    15261.345   -10564.862   -8144.3214    46909.077    80.874634 
   40500    1964.8715   -117.84286     1.777857     -116.065    10400.724    4.3003572    4.3003572    4.3003572    10400.724    79976.918    -30627.98   -18146.766    27914.092    4587.9287    -11259.27    79.526814 
   40600    1916.2893   -117.88113    1.7338988   -116.14723    16883.156    4.3095282    4.3095282    4.3095282    16883.156    59144.847   -16441.003    7945.6225   -31320.156    3848.2208    17138.289    80.036701 
   40700    2029.1767   -117.98211    1.8360417   -116.14607   -38212.624    4.3429569    4.3429569    4.3429569   -38212.624   -76224.383    6942.0817   -45355.572   -3265.4566   -28638.653    25221.644      81.9137 
   40800    2075.6381   -117.95678     1.878081    -116.0787    -7822.134    4.3508554    4.3508554    4.3508554    -7822.134   -16487.232   -64362.626    57383.456    18742.644    31336.372    -11792.58    82.361444 
   40900    2454.4782   -118.24063    2.2208634   -116.01976   -9097.9607    4.3375838    4.3375838    4.3375838   -9097.9607   -11798.323    -17705.21    2209.6507   -26980.824    3934.7967    13193.867    81.610049 
   41000    1662.7282   -117.53183    1.5044714   -116.02736   -29316.317    4.3275088    4.3275088    4.3275088   -29316.317   -22309.554    23897.526   -89536.922    22560.592    4150.5022   -4673.8571    81.042695 
   41100    2153.4152   -118.00842    1.9484553   -116.05997    226.16719    4.2953992    4.2953992    4.2953992    226.16719   -20886.858    18013.652    3551.7073    8291.7553    10635.491   -12179.878    79.252067 
   41200    2671.7915   -118.51151    2.4174931   -116.09402   -972.50502    4.2746158    4.2746158    4.2746158   -972.50502    37826.282   -40824.947    81.149486   -22302.267    768.49921   -1905.8521    78.107235 
   41300     1617.895   -117.63709    1.4639054   -116.17318    14247.806    4.2899821    4.2899821    4.2899821    14247.806    50206.613   -45234.717    37771.521    11549.913   -5749.3481   -12890.237    78.952599 
   41400    2049.9917   -118.02942    1.8548756   -116.17454    -35860.34    4.3179784    4.3179784    4.3179784    -35860.34   -55566.401   -33918.717   -18095.901    6159.4001    20749.098    15375.979    80.508435 
   41500    2062.8173   -117.99518    1.8664804    -116.1287   -25070.517     4.327061     4.327061     4.327061   -25070.517   -201.92217   -86362.819     11353.19   -27804.738    -7933.915   -6479.0447    81.017543 
   41600    1609.2206   -117.55241    1.4560566   -116.09635   -14276.683    4.3175912    4.3175912    4.3175912   -14276.683     39253.61   -60289.393   -21794.267   -3006.6495    17097.861   -29036.169    80.486781 
   41700    2855.1337   -118.65371    2.5833849   -116.07032   -22674.538    4.3001064    4.3001064    4.3001064   -22674.538    -33513.82    6013.4903   -40523.283   -10929.937    12825.827     22555.87    79.512903 
   41800    1671.6429   -117.63083    1.5125376    -116.1183   -2335.8546    4.3138148    4.3138148    4.3138148   -2335.8546    9528.0426   -48240.338    31704.731    2455.4965     9987.779    -42466.18    80.275771 
   41900    1330.7702   -117.31519    1.2041088   -116.11109    22632.309    4.3253686    4.3253686    4.3253686    22632.309    15482.022    17985.238    34429.666     2598.641    7348.2225   -43475.734    80.922514 
   42000      2703.68   -118.52751    2.4463465   -116.08116   -35195.093    4.3214662    4.3214662    4.3214662   -35195.093   -57061.305   -30856.919   -17667.054   -15238.206    -3945.077    4730.0397    80.703687 
   42100    1645.8287   -117.58647    1.4891804   -116.09729    25731.282    4.3239025    4.3239025    4.3239025    25731.282     79128.09   -32748.602    30814.357    25884.489    32239.878   -22908.681    80.840256 
   42200    2328.5517   -118.20053    2.1069225   -116.09361   -4538.9909    4.3281842    4.3281842    4.3281842   -4538.9909   -38796.642   -38999.629    64179.298   -2135.7837    5485.0047   -6829.9718    81.080649 
   42300    2044.9606   -117.93598    1.8503234   -116.08566   -17479.611    4.3147547    4.3147547    4.3147547   -17479.611   -44536.706     20042.24   -27944.369     2886.145    593.83472   -17357.546    80.328255 
   42400    1713.7984   -117.65811    1.5506808   -116.10743    6499.1037     4.306684     4.306684     4.306684    6499.1037    2762.7367     22686.69    -5952.116   -16405.531     12352.58   -3640.7824    79.878337 
   42500    2589.0995     -118.448    2.3426717   -116.10533    1775.9885    4.2941872    4.2941872    4.2941872    1775.9885   -27335.346    15819.869    16843.443   -20507.041   -2371.2183    16380.397       79.185 
   42600    2019.2589   -117.96659    1.8270678   -116.13952    20963.608    4.2772898    4.2772898    4.2772898    20963.608    33315.853   -2400.8026    31975.773    24711.706   -11424.993   -29954.967    78.253906 
   42700    1747.3284   -117.76772    1.5810195    -116.1867   -5175.3008    4.2898265    4.2898265    4.2898265   -5175.3008   -836.10937    20796.073   -35485.866   -12683.969    12820.325   -21358.544    78.944011 
   42800    1867.0125   -117.86071    1.6893122    -116.1714   -26517.564    4.3053349    4.3053349    4.3053349   -26517.564   -94920.949    3250.1934    12118.065    -50238.92     4941.893   -7967.2261    79.803297 
   42900    2716.6571   -118.59897    2.4580884   -116.14088   -16606.403    4.3038936    4.3038936    4.3038936   -16606.403   -54664.511    36081.059   -31235.756    20240.207    3262.6182    12820.905    79.723174 
   43000    1282.7617   -117.31194    1.1606697   -116.15127   -9023.7701    4.3150924    4.3150924    4.3150924   -9023.7701   -83825.787    28433.661    28320.816   -12019.335    21575.841   -30592.608    80.347116 
   43100    1277.3653   -117.27728     1.155787   -116.12149   -10079.324    4.3069039    4.3069039    4.3069039   -10079.324   -117087.62    16719.108    70130.535   -23633.955    20429.483    -13149.07    79.890572 
   43200    2596.1878   -118.44363    2.3490853   -116.09454    11976.261    4.2891927    4.2891927    4.2891927    11976.261    13700.975    27413.997   -5186.1906    30694.282   -4544.4363    121.52433    78.909023 
   43300    2003.5378   -117.95368    1.8128431   -116.14083    18985.232     4.300127     4.300127     4.300127    18985.232    48572.152    59466.031   -51082.486   -23602.491   -3524.4018    3141.8259    79.514046 
   43400    1685.0596   -117.65245    1.5246773   -116.12777   -9433.1245    4.3199468    4.3199468    4.3199468   -9433.1245    39971.078   -14633.189   -53637.262   -11852.711    11753.143   -24518.819    80.618591 
   43500    2629.2358   -118.45394    2.3789879   -116.07495   -16224.869    4.3107769    4.3107769    4.3107769   -16224.869   -37888.818    7596.1138   -18381.904    5861.5543   -29456.169    7597.0889    80.106294 
   43600     1551.928   -117.51267    1.4042171   -116.10846    25277.508    4.3151209    4.3151209    4.3151209    25277.508   -4326.7112    20010.932    60148.304   -18471.264    8160.3485    959.16219    80.348708 
   43700    2057.6781   -117.93857    1.8618303   -116.07674   -62382.254    4.3303255    4.3303255    4.3303255   -62382.254   -88426.051   -81127.125   -17593.586   -11979.883   -10046.126   -46627.758    81.201047 
   43800    2186.7235   -118.02094    1.9785934   -116.04235    28447.092    4.3069563    4.3069563    4.3069563    28447.092    40793.319   -27991.104     72539.06   -1403.2288   -2998.4886    20946.189    79.893488 
   43900    2131.0069   -118.00303    1.9281798   -116.07485   -10869.214     4.301657     4.301657     4.301657   -10869.214    18419.914   -27533.395   -23494.161   -9007.4683    20078.839    6308.5826     79.59895 
   44000    1882.3438   -117.79546    1.7031843   -116.09228   -35168.731    4.3049665    4.3049665    4.3049665   -35168.731   -38477.676   -42514.774   -24513.742   -3570.0676     4916.853   -6821.5418    79.782807 
   44100    1715.2707   -117.65963     1.552013   -116.10761     11570.28    4.2966753    4.2966753    4.2966753     11570.28    55979.341   -52714.887    31446.387   -6303.7398    20308.225    42159.837    79.322721 
   44200    2384.5275   -118.28172    2.1575706   -116.12415   -12828.003    4.3051776    4.3051776    4.3051776   -12828.003   -32110.407   -42488.931    36115.328    2032.6211   -12199.961   -13387.368    79.794548 
   44300    1912.7259   -117.84606    1.7306746   -116.11539   -16303.467    4.3213038    4.3213038    4.3213038   -16303.467   -5708.8676   -8974.9496   -34226.583   -45831.385    193.44456    19718.773    80.694589 
   44400    1919.9489   -117.82702    1.7372101   -116.08981     -6331.62     4.319897     4.319897     4.319897     -6331.62    80040.785   -83536.046   -15499.598    34090.981   -4265.5398    7776.6835      80.6158 
   44500    1706.5324   -117.63362    1.5441063   -116.08951   -41500.785    4.3189374    4.3189374    4.3189374   -41500.785   -45192.802   -60432.087   -18877.466   -19531.887    14403.835   -2095.1746    80.562093 
   44600    1711.3566   -117.65145    1.5484714   -116.10298   -51391.021    4.3004063    4.3004063    4.3004063   -51391.021   -90151.565   -76927.949     12906.45   -72859.928   -2839.9245   -426.19409    79.529539 
   44700    3201.8296   -118.99145    2.8970827   -116.09437   -6263.5471     4.269715     4.269715     4.269715   -6263.5471   -16917.665   -14876.472    13003.496    49377.236   -14688.614   -37968.763    77.838895 
   44800    1622.2536    -117.6214    1.4678491   -116.15355   -6306.9532    4.2770953    4.2770953    4.2770953   -6306.9532    15582.014    -39976.81    5473.9365   -37825.936    32028.706   -14140.306    78.243231 
   44900     937.5037   -117.02845   0.84827305   -116.18017    230.10531    4.2920966    4.2920966    4.2920966    230.10531    41056.136   -49171.334    8805.5133   -59513.271    17677.098   -10488.388    79.069405 
   45000    2492.4638   -118.42385    2.2552336   -116.16861   -2680.6305    4.3088587    4.3088587    4.3088587   -2680.6305   -17713.856    36707.309   -27035.344    30802.015   -17932.876    -231.0471    79.999405 
   45100    2404.1997   -118.31375    2.1753704   -116.13838   -36254.192    4.3167086    4.3167086    4.3167086   -36254.192   -47019.234   -57389.023   -4354.3197   -44243.231     5045.164    26859.915     80.43743 
   45200    2261.0845   -118.15478    2.0458768    -116.1089    11211.204    4.2927325    4.2927325    4.2927325    11211.204   -1431.9158    58628.891   -23563.365   -28100.727    17315.902    10913.683     79.10455 
   45300    1975.9883   -117.89811    1.7879157   -116.11019    12328.905    4.2832978    4.2832978    4.2832978    12328.905   -11904.938    55251.788   -6360.1365     22576.24    5913.2721    3300.0384    78.584122 
   45400    1473.8533   -117.47682    1.3335735   -116.14324    -1154.238    4.2852728    4.2852728    4.2852728    -1154.238   -32577.841   -6342.4182    35457.545   -41273.808    11408.732     11771.95    78.692875 
   45500     2069.271   -118.04499    1.8723199   -116.17267    16157.123    4.2924178    4.2924178    4.2924178    16157.123    33618.114   -11439.665    26292.919    -21723.31    1554.6823    14597.875    79.087155 
   45600    2807.6155    -118.6843    2.5403895   -116.14391   -39691.273     4.305039     4.305039     4.305039   -39691.273   -30120.812   -20960.367   -67992.639    17890.932    33348.403    12019.056    79.786843 
   45700    1956.8102   -117.90312     1.770563   -116.13255    1649.4104    4.2901893    4.2901893    4.2901893    1649.4104    11258.786    4866.1719   -11176.727   -56096.656   -4556.1598   -4040.6733    78.964041 
   45800    1411.4516   -117.43165    1.2771111   -116.15454    8349.8133    4.2892255    4.2892255    4.2892255    8349.8133    83881.359   -41586.682   -17245.236   -2322.2929   -18824.693    20758.802    78.910835 
   45900    1939.8276    -117.9073    1.7551968   -116.15211   -9105.5145     4.285914     4.285914     4.285914   -9105.5145   -6454.1046   -27098.095    6235.6558    33202.694    -14912.91    18750.417    78.728207 
   46000    1734.6574   -117.73613    1.5695545   -116.16658    51821.412    4.2838636    4.2838636    4.2838636    51821.412    15823.231    4932.6205    134708.38   -48030.695    23059.556   -21802.551    78.615269 
   46100    2179.4554   -118.13777    1.9720171   -116.16575   -468.75072    4.3135023    4.3135023    4.3135023   -468.75072   -41801.811   -34967.889    75363.448    8438.8269    13838.073    12871.219    80.258324 
   46200    2138.8376   -118.05596    1.9352652   -116.12069     -8911.69    4.3207124    4.3207124    4.3207124     -8911.69   -73918.963   -22153.073    69336.966   -2875.3252    1752.7692    17911.957    80.661457 
   46300    1983.2028   -117.89738    1.7944436   -116.10294    -10070.99    4.3073124    4.3073124    4.3073124    -10070.99   -68686.215     29725.31     8747.935   -44155.352    13751.208    1913.2519    79.913309 
   46400     1935.771   -117.85243    1.7515263   -116.10091   -47947.592     4.300786     4.300786     4.300786   -47947.592   -81744.998    30270.935   -92368.714    11183.468    27691.349   -10884.518    79.550605 
   46500    1656.9076   -117.62379    1.4992048   -116.12459     2804.274    4.2893162    4.2893162    4.2893162     2804.274   -70607.916    22656.676    56364.063   -17965.023   -9884.9684   -7472.5347    78.915841 
   46600    2027.0773   -117.99822    1.8341421   -116.16407   -10841.837    4.2993517    4.2993517    4.2993517   -10841.837   -54770.305   -11238.535    33483.328   -14100.374    9992.6906     7574.691    79.471047 
   46700    2056.9335   -118.01749    1.8611567   -116.15633   -26184.763    4.3147328    4.3147328    4.3147328   -26184.763   -78160.035   -2205.6023    1811.3482    6740.9367   -19725.976    8189.6227    80.327034 
   46800    1936.2041   -117.89138    1.7519181   -116.13946   -10314.098    4.3004636    4.3004636    4.3004636   -10314.098   -64710.251     45331.36   -11563.404   -34541.185   -22891.601    11764.768    79.532718 
   46900    2401.4534   -118.30268    2.1728855    -116.1298   -8801.7576    4.2904999    4.2904999    4.2904999   -8801.7576   -39881.003    27603.018   -14127.288    14523.672    2095.6002   -5616.4451    78.981191 
   47000    2001.7629   -117.96377    1.8112371   -116.15254   -19322.825    4.3055194    4.3055194    4.3055194   -19322.825   -30438.775   -6750.2505    -20779.45    32731.527   -22786.862    3528.8637    79.813557 
   47100    1406.6124   -117.41782    1.2727324   -116.14509    6862.1107    4.3085759    4.3085759    4.3085759    6862.1107   -17080.418    3781.1746    33885.575    -15105.99   -23008.578    4581.7191    79.983654 
   47200    2073.8982   -118.00514    1.8765067   -116.12863    10470.773     4.307609     4.307609     4.307609    10470.773    42514.477   -8100.4282   -3001.7296    10521.077    16812.442    12123.535    79.929817 
   47300    2507.7538   -118.38705    2.2690684   -116.11798    15979.476    4.2979963    4.2979963    4.2979963    15979.476    17812.259    16374.335    13751.836    -3803.327    3376.0306   -20497.899    79.395908 
   47400    2504.4215   -118.41138    2.2660532   -116.14532   -4477.4512    4.2881378    4.2881378    4.2881378   -4477.4512    10027.797    7342.0037   -30802.154   -5167.1162   -31210.372    -12216.23    78.850815 
   47500    1534.4959    -117.5608    1.3884441   -116.17236    1039.1192     4.301223     4.301223     4.301223    1039.1192   -24957.988    53384.241   -25308.896    2003.4282    17619.141    15142.101    79.574861 
   47600     1542.683   -117.54779     1.395852   -116.15194    -14031.04    4.3183176    4.3183176    4.3183176    -14031.04    40388.091   -34039.134   -48442.076   -11085.642     33205.18    -6001.116    80.527409 
   47700     1927.525   -117.86304    1.7440651   -116.11898   -8373.9792    4.3141409    4.3141409    4.3141409   -8373.9792    22010.006    -27706.35   -19425.594    25331.482   -25997.783   -30421.068     80.29398 
   47800    1572.2295   -117.53107    1.4225863   -116.10848    17951.061    4.3044584    4.3044584    4.3044584    17951.061    37519.361    35698.283    -19364.46   -6470.3261    10593.892    6696.6064    79.754566 
   47900     2454.094   -118.32083    2.2205158   -116.10032    -28680.29    4.3034224    4.3034224    4.3034224    -28680.29   -12134.537   -14098.845    -59807.49    3262.5413    18928.421   -2292.1862    79.696992 
   48000    2222.3429   -118.13307    2.0108225   -116.12225    3838.1688    4.2848996    4.2848996    4.2848996    3838.1688   -71404.406    64624.372     18294.54    46677.443   -4874.6768   -5799.7449    78.672321 
   48100    2290.0261   -118.22185    2.0720637   -116.14979    22.503606    4.2767727    4.2767727    4.2767727    22.503606   -19229.197    15438.659    3858.0484    16084.047   -6560.8544   -2567.4148     78.22553 
   48200    2083.6938   -118.06239      1.88537   -116.17702   -5674.2981    4.2966435    4.2966435    4.2966435   -5674.2981    46421.204   -25489.563   -37954.535   -9436.8153     5724.484    9717.4766    79.320958 
   48300    1096.8222   -117.16237   0.99242782   -116.16994    731.89167    4.3166782    4.3166782    4.3166782    731.89167    2479.5954   -43638.286    43354.366    39145.007    5841.6482    6491.0556    80.435732 
   48400     1730.454   -117.69704    1.5657511   -116.13128   -6781.4543    4.3103965    4.3103965    4.3103965   -6781.4543    64297.222   -69743.658   -14897.926    15192.906     5336.874    1836.3475    80.085087 
   48500    2204.0237   -118.12206    1.9942469   -116.12782    4630.7138    4.2899974    4.2899974    4.2899974    4630.7138    45439.917    4934.9542    -36482.73   -21355.296    6494.6342    16999.786    78.953443 
   48600    2044.5941    -118.0056    1.8499917   -116.15561   -1347.0682    4.2832839    4.2832839    4.2832839   -1347.0682    -15521.03    31066.438   -19586.613    3668.8386   -8847.8347   -552.35151    78.583356 
   48700    2311.0474   -118.28094    2.0910842   -116.18985   -5415.8306    4.2992798    4.2992798    4.2992798   -5415.8306    19959.062   -2336.6433   -33869.911    39818.261    1220.3898   -4268.5452    79.467059 
   48800    1774.1074   -117.78522    1.6052496   -116.17997   -52790.279    4.3253195    4.3253195    4.3253195   -52790.279   -27485.358   -95223.861   -35661.619   -14511.165    106.07713   -3531.3653    80.919761 
   48900    1494.2804   -117.49737    1.3520563   -116.14532   -6572.4542    4.3069883    4.3069883    4.3069883   -6572.4542    5395.0719   -49952.018    24839.584   -6445.6342   -4673.5035    20345.084    79.895272 
   49000    2064.3906    -117.9897     1.867904   -116.12179    50584.336    4.2820331    4.2820331    4.2820331    50584.336    95664.504    78406.204   -22317.699    11408.255    10858.912    12157.885    78.514537 
   49100    2665.3211   -118.55769    2.4116385   -116.14606    2868.6399    4.2867462    4.2867462    4.2867462    2868.6399    20496.955    5218.0435   -17109.079   -17597.447   -13006.653    -26210.45    78.774077 
   49200     1582.253   -117.59492    1.4316558   -116.16327     57193.23    4.2867568    4.2867568    4.2867568     57193.23    82024.518    21024.177    68530.996   -37758.037    33731.419   -3013.2841    78.774658 
   49300    2068.4647   -118.05842    1.8715903   -116.18683    6243.0084    4.3152343    4.3152343    4.3152343    6243.0084    7654.5362    21446.751   -10372.262   -15847.271    5720.5759    13542.123    80.355044 
   49400     2295.365   -118.21218    2.0768945   -116.13529   -53728.463    4.3397613    4.3397613    4.3397613   -53728.463   -13229.537   -105100.13   -42855.723    6590.1963   -17492.119   -5941.7118    81.733016 
   49500    959.82328   -116.98251   0.86846827   -116.11405    8350.1014    4.3111155    4.3111155    4.3111155    8350.1014    8847.0314   -44916.215    61119.488   -21079.708    1766.4996   -2129.4546    80.125172 
   49600    1886.4248   -117.78907    1.7068768   -116.08219    45620.169    4.2738984    4.2738984    4.2738984    45620.169    55530.746    6399.1378    74930.625     9599.751   -4841.7511   -18573.272    78.067913 
   49700    3182.0436   -118.99897      2.87918   -116.11979   -9357.8687    4.2876956    4.2876956    4.2876956   -9357.8687   -15936.873    5843.6234   -17980.357   -5987.0731   -3257.3197    4823.4272    78.826426 
   49800    2361.4145   -118.29509    2.1366575   -116.15843   -40574.608      4.30618      4.30618      4.30618   -40574.608   -52133.996   -46066.134   -23523.693    -31231.73   -8253.4345   -2013.4007    79.850297 
   49900    1342.1969   -117.37507     1.214448   -116.16063    11786.607    4.3023824    4.3023824    4.3023824    11786.607    46974.436   -48075.195    36460.581    5012.7238    13354.345   -25719.574    79.639227 
   50000    1795.6342   -117.76868    1.6247275   -116.14396   -20810.332    4.3130213    4.3130213    4.3130213   -20810.332   -10975.022   -55910.413    4454.4398    43417.833     11054.52   -11474.543    80.231481 
   50100    2212.4389   -118.11092    2.0018612   -116.10905   -27129.114    4.3032361    4.3032361    4.3032361   -27129.114   -36444.557   -47111.522    2168.7374    556.87978   -2254.6999   -1643.1629    79.686644 
   50200    1848.3793   -117.79457    1.6724524   -116.12212      12838.9    4.2829959    4.2829959    4.2829959      12838.9   -12017.852    43820.411    6714.1424   -43986.225    14727.933   -27744.746    78.567505 
   50300    2213.5728   -118.16965    2.0028872   -116.16676   -19555.293    4.2935689    4.2935689    4.2935689   -19555.293   -35632.945   -39347.315    16314.382    -6066.612    6675.2029   -24610.269    79.150798 
   50400    2660.5985   -118.57959    2.4073655   -116.17222     1700.236    4.3194175    4.3194175    4.3194175     1700.236   -6988.2681   -20062.934     32151.91    42142.434    6143.7556   -6324.7443    80.588962 
   50500    2167.3211   -118.09217    1.9610377   -116.13113   -40817.778    4.3349454    4.3349454    4.3349454   -40817.778   -9441.7897   -49901.827   -63109.718   -8455.9841    10266.683    9416.9669    81.461215 
   50600    1791.8862   -117.72921    1.6213363   -116.10787   -15456.053    4.3019644    4.3019644    4.3019644   -15456.053    7080.7509   -68112.614    14663.703   -35256.454    23282.866   -6773.4361    79.616015 
   50700    1497.9421   -117.45145    1.3553695   -116.09608    40957.338    4.2657184    4.2657184    4.2657184    40957.338     48887.04    39145.024     34839.95    31763.278   -8854.9301    544.00625    77.620522 
   50800    1623.3188   -117.62805     1.468813   -116.15923   -18131.621     4.275282     4.275282     4.275282   -18131.621   -1742.9254    31775.537   -84427.476     23769.88   -50084.274    14641.226    78.143757 
   50900    2708.5765   -118.63973     2.450777   -116.18896   -23648.795    4.3051809    4.3051809    4.3051809   -23648.795    11250.634   -18197.275   -63999.745    466.92707   -883.79272    4655.2141    79.794732 
   51000    2391.0787   -118.31443    2.1634983   -116.15094   -427.52205    4.3246313    4.3246313    4.3246313   -427.52205    7480.3299    21386.344    -30149.24    524.36546   -1966.6333    11173.019     80.88114 
   51100    1582.9213   -117.54413    1.4322604   -116.11187    884.58322    4.3165943    4.3165943    4.3165943    884.58322    26180.132    329.16309   -23855.545    17317.776   -20760.034    9162.6942    80.431043 
   51200    2169.7979   -118.06438    1.9632787    -116.1011   -39426.941     4.305124     4.305124     4.305124   -39426.941   -41856.907   -62205.974   -14217.943    14043.573    11341.005   -6567.3213    79.791568 
   51300    1843.6509   -117.78478    1.6681741   -116.11661    12712.968    4.2874601    4.2874601    4.2874601    12712.968    -13180.88   -6598.8921    57918.675   -23662.017   -929.67953    13082.418    78.813439 
   51400    2094.7819   -118.04197    1.8954027   -116.14657    34632.139    4.2855248    4.2855248    4.2855248    34632.139   -15024.321     58124.69    60796.048    13512.111   -25908.572    4397.0002    78.706759 
   51500    1490.2799   -117.54904    1.3484365   -116.20061   -21301.017    4.3235218    4.3235218    4.3235218   -21301.017   -58075.811   -62344.522    56517.281    19009.064    17613.385   -16503.712    80.818907 
   51600     2543.747   -118.43356    2.3016358   -116.13192   -30482.526    4.3304229    4.3304229    4.3304229   -30482.526   -49021.289   -47883.549    5457.2594   -18343.575   -13173.359   -2909.6043    81.206527 
   51700    2390.5804   -118.25995    2.1630474    -116.0969   -40324.473    4.3159099    4.3159099    4.3159099   -40324.473   -66683.033   -40595.979   -13694.406    37424.348   -6271.7662   -3305.7942    80.392789 
   51800    1357.8918   -117.33905     1.228649    -116.1104    23110.246    4.3000068    4.3000068    4.3000068    23110.246    24606.289   -17142.719    61867.168   -1534.1277   -15156.789   -71.836758    79.507377 
   51900    1541.0721   -117.52197    1.3943944   -116.12758      34431.7    4.2874164    4.2874164    4.2874164      34431.7     88257.08    14981.881    56.139555   -45959.709    23302.014   -24150.624    78.811031 
   52000    2000.9568   -117.97747    1.8105077   -116.16696    7639.0406    4.2955149    4.2955149    4.2955149    7639.0406    35335.958    2830.3632     -15249.2    27982.513    18559.322    -4573.309    79.258472 
   52100    2579.2257    -118.4957    2.3337376   -116.16197   -45850.061    4.3215892    4.3215892    4.3215892   -45850.061   -68794.269   -24383.456   -44372.457    26602.488   -23119.331     19059.81    80.710574 
   52200    2191.7182   -118.10277    1.9831127   -116.11966   -2642.7415    4.3232096    4.3232096    4.3232096   -2642.7415    -12644.69   -5103.8635    9820.3286   -42999.523    1348.5419    11281.078      80.8014 
   52300    2026.1943   -117.93234    1.8333432     -116.099    623.75183    4.3137638    4.3137638    4.3137638    623.75183    30969.397   -18318.395   -10779.747    -8644.601    19253.443   -22479.466    80.272926 
   52400    1718.3347   -117.65906    1.5547854   -116.10427   -11702.652    4.3023678    4.3023678    4.3023678   -11702.652   -29153.872    927.73885   -6881.8226     15272.38    7958.2224    23062.278    79.638415 
   52500    1367.7801   -117.36123    1.2375962   -116.12363    43681.381    4.2905469    4.2905469    4.2905469    43681.381    50526.506    53353.443    27164.193   -11910.566   -3923.8859    55315.697    78.983787 
   52600    2127.4298   -118.07086    1.9249432   -116.14592    14766.936    4.3013893    4.3013893    4.3013893    14766.936   -3491.5488    89543.997   -41751.639    -26428.83    -26463.95   -1961.8009    79.584088 
   52700    2904.5234   -118.76796    2.6280738   -116.13988   -21379.831     4.310389     4.310389     4.310389   -21379.831    5549.8162   -21237.063   -48452.247   -15360.809   -4574.9045   -3016.9243     80.08467 
   52800    2345.5363   -118.26479    2.1222905    -116.1425    18768.198    4.2962576    4.2962576    4.2962576    18768.198    28830.023    5041.3519    22433.219    15557.517    3968.0963    23822.811    79.299592 
   52900    1736.2178   -117.70769    1.5709663   -116.13672    46751.353    4.2809188    4.2809188    4.2809188    46751.353    23183.291    47896.512    69174.255   -2500.9429   -7510.1628   -1021.7797    78.453254 
   53000    1624.1038   -117.62944    1.4695233   -116.15991   -1897.3471    4.2953377    4.2953377    4.2953377   -1897.3471    5540.9958     24870.05   -36103.088    10067.436   -25473.467   -9988.9841    79.248662 
   53100    1031.5574   -117.08547   0.93337485   -116.15209    5172.9695    4.3142421    4.3142421    4.3142421    5172.9695    11120.831    58495.223   -54097.145    5104.6314   -2041.0917    31129.848    80.299632 
   53200    2520.5168    -118.3881    2.2806165   -116.10748   -11941.042    4.3088366    4.3088366    4.3088366   -11941.042    11932.229     6544.275    -54299.63     -3690.89    -19948.77   -30128.054    79.998176 
   53300    2668.3834   -118.51014    2.4144094   -116.09573   -25125.474    4.3027302    4.3027302    4.3027302   -25125.474   -4565.5447   -53173.856    -17637.02    8458.1791   -17013.155    -12700.74    79.658542 
   53400    1581.8303   -117.54295    1.4312733   -116.11168    42207.375    4.2929161    4.2929161    4.2929161    42207.375    26090.135    16901.056    83630.934   -6254.7619    38898.984    42196.057    79.114703 
   53500    2068.4573   -118.01756    1.8715836   -116.14598    40876.936    4.3077488    4.3077488    4.3077488    40876.936    43602.801   -2341.0183    81369.026    14797.308    4177.9841   -14736.639    79.937602 
   53600    2039.4349   -117.96562    1.8453236    -116.1203   -31130.036    4.3418882    4.3418882    4.3418882   -31130.036   -28287.863   -52320.707   -12781.539   -17093.825   -12989.326   -12830.459    81.853249 
   53700    2211.4409   -118.06601    2.0009582   -116.06505   -21865.494    4.3224147    4.3224147    4.3224147   -21865.494   -37557.669   -19987.699   -8051.1136     15462.01    15467.236    23503.938    80.756835 
   53800    1819.3797   -117.70068     1.646213   -116.05447    26328.738    4.2805065    4.2805065    4.2805065    26328.738    15750.436   -3877.4602    67113.239    28384.085    14282.293   -172.72057    78.430593 
   53900    1436.4491   -117.42059    1.2997293   -116.12086    24841.295     4.274885     4.274885     4.274885    24841.295    10434.709   -14556.763     78645.94    23168.141   -18537.114   -7182.8097    78.121995 
   54000    2321.3698   -118.25798    2.1004242   -116.15756    11398.455    4.2998761    4.2998761    4.2998761    11398.455     39369.37    46498.917    -51672.92   -3363.3735   -21191.022   -7065.9567    79.500129 
   54100    2690.3758   -118.57564    2.4343085   -116.14133   -51362.525    4.3305248    4.3305248    4.3305248   -51362.525   -44823.824       -59631   -49632.752    28950.103    22683.365    11045.648    81.212259 
   54200    1393.7896   -117.39182    1.2611301   -116.13069   -15669.259    4.3054332    4.3054332    4.3054332   -15669.259   -12174.372   -73444.412    38611.008   -11357.748   -5360.5238     11776.04    79.808759 
   54300    2256.2528   -118.10871    2.0415049    -116.0672    58709.061    4.2569722    4.2569722    4.2569722    58709.061    57891.186    87803.411    30432.585   -30238.715   -9633.3076   -9933.1943    77.144052 
   54400    2183.1516   -118.11156    1.9753614    -116.1362    34000.771    4.2679371    4.2679371    4.2679371    34000.771    78331.472   -108.13616    23778.976    38555.064    10914.432    6860.0913    77.741699 
   54500    1801.2777   -117.79718    1.6298339   -116.16735   -3928.4616    4.3061257    4.3061257    4.3061257   -3928.4616    26352.198   -73001.473     34863.89    30527.261    7323.4915    666.75454    79.847278 
   54600    2805.5008   -118.65652    2.5384761   -116.11805   -34696.348    4.3218359    4.3218359    4.3218359   -34696.348    6456.3615   -64910.608   -45634.799   -28293.559    5459.9582   -16238.163    80.724401 
   54700    1574.8496   -117.52767     1.424957   -116.10271    6851.7515    4.3052107    4.3052107    4.3052107    6851.7515   -45187.925      45478.4    20264.779    1654.7113    -22522.71    24196.039    79.796387 
   54800    1262.9399    -117.2561    1.1427345   -116.11337   -1653.6952    4.2850754    4.2850754    4.2850754   -1653.6952   -77549.773   -4255.2847    76843.972    36728.417    -11452.67   -1359.9446       78.682 
   54900    2136.3343   -118.05354    1.9330002   -116.12054   -137.75087    4.2793101    4.2793101    4.2793101   -137.75087   -25021.802    3002.5103    21606.039    1299.7453    9671.2373   -14458.113    78.364842 
   55000     2053.522   -118.00102    1.8580698   -116.14295   -2643.3822    4.2852312    4.2852312    4.2852312   -2643.3822    -1491.286     9985.875   -16424.736    13539.466   -6664.8099    17202.757    78.690584 
   55100    2064.9281   -118.02383    1.8683904   -116.15544   -13506.514    4.3066299    4.3066299    4.3066299   -13506.514   -31204.312    31359.917   -40675.147    54408.734   -23773.141   -1178.3733    79.875326 
   55200     2407.942   -118.29571    2.1787565   -116.11695   -52517.902     4.312506     4.312506     4.312506   -52517.902   -41187.904   -55191.745   -61174.057   -5795.6388    5279.7693   -15064.293    80.202727 
   55300    1401.3296   -117.36747    1.2679525   -116.09952    5240.5977    4.2915692    4.2915692    4.2915692    5240.5977   -2225.4437    49268.704   -31321.467   -3818.3521   -6102.6049   -8769.7265    79.040258 
   55400    2342.9303   -118.21514    2.1199326   -116.09521    4410.2609    4.2891888    4.2891888    4.2891888    4410.2609   -59625.028      58714.5    14141.311   -179.02984   -18036.272    19442.127    78.908811 
   55500    1408.7768    -117.4017    1.2746909   -116.12701    24185.396    4.2929682    4.2929682    4.2929682    24185.396   -26574.967    36646.646     62484.51   -21589.442    326.58424    2641.7964    79.117586 
   55600    1897.6225   -117.84574    1.7170087   -116.12874    8642.4516    4.3020853    4.3020853    4.3020853    8642.4516    18786.852    37514.336   -30373.834    2547.9878    5703.8764   -20435.456    79.622727 
   55700    3025.3384   -118.83559    2.7373898    -116.0982    -19499.61    4.3084104    4.3084104    4.3084104    -19499.61   -1015.7312   -47608.909   -9874.1905   -3484.4431   -18630.692     4531.804    79.974436 
   55800    1337.2997   -117.31368    1.2100169   -116.10366    47731.277    4.3000745    4.3000745    4.3000745    47731.277   -6341.7279    68798.851    80736.708   -7790.7814   -4887.1411    5489.4317    79.511132 
   55900    2695.7247   -118.51857    2.4391484   -116.07942   -21950.545    4.3079644    4.3079644    4.3079644   -21950.545   -31151.732   -18021.845   -16678.057    9625.4797    9610.2399    264.14581    79.949604 
   56000    1515.2169   -117.47401    1.3710001   -116.10301    24272.828    4.2857434    4.2857434    4.2857434    24272.828   -12899.129    15722.491    69995.122   -40875.337   -5950.4031    -6084.206    78.718807 
   56100    1460.8911   -117.45011     1.321845   -116.12826    38234.047    4.2800534    4.2800534    4.2800534    38234.047     28320.86   -6216.5321    92597.814   -28164.083    13105.512    6626.7759    78.405687 
   56200    3395.9673   -119.18394    3.0727426   -116.11119   -40794.792    4.3042615    4.3042615    4.3042615   -40794.792   -7626.6426   -56694.269   -58063.465    17493.419    1590.3732    1282.5321    79.743621 
   56300    1624.0096   -117.59417     1.469438   -116.12473    44947.898    4.2978224    4.2978224    4.2978224    44947.898    18621.252    78956.175    37266.266   -27379.225     19269.73   -6468.2617    79.386267 
   56400    2357.5943   -118.26195    2.1332009   -116.12874   -5030.5984    4.3056877    4.3056877    4.3056877   -5030.5984   -13572.399   -17408.493    15889.096   -28547.636    13715.725      12418.5    79.822912 
   56500    2083.9409   -117.98878    1.8855936   -116.10318   -1663.6219    4.3105737    4.3105737    4.3105737   -1663.6219    -15854.46   -3169.2937    14032.888    16005.059    6766.9091    -5116.599    80.094964 
   56600    1131.4984   -117.13208    1.0238035   -116.10828    49278.972    4.2907119    4.2907119    4.2907119    49278.972   -9049.4395    109375.67    47510.689    -9159.295    19604.543   -3338.9199    78.992904 
   56700    2586.7257   -118.44861    2.3405238   -116.10809    15755.824     4.286333     4.286333     4.286333    15755.824   -2121.0973    29798.753    19589.815   -8226.7902    8798.5291     2580.559    78.751298 
   56800     2517.838   -118.41321    2.2781928   -116.13501    15468.438    4.2925096    4.2925096    4.2925096    15468.438   -12837.808    85664.141    -26421.02    22021.165   -30646.884   -18027.064    79.092229 
   56900       1887.3   -117.85532    1.7076687   -116.14765   -33042.789    4.3057683    4.3057683    4.3057683   -33042.789   -42294.433    3100.3903   -59934.324    4340.0638    16901.145   -31849.199    79.827398 
   57000    2607.8633   -118.47614    2.3596495   -116.11649   -36165.751     4.299723     4.299723     4.299723   -36165.751   -97680.512    10299.426   -21116.168   -14731.115   -601.30351    16458.252    79.491635 
   57100    988.47428   -117.03492    0.8943923   -116.14053   -43881.323    4.3008493    4.3008493    4.3008493   -43881.323   -88970.716   -5182.6015   -37490.653    24754.876    449.82272   -12929.701    79.554119 
   57200    1808.7462   -117.75707    1.6365916   -116.12048    -11972.85    4.2900973    4.2900973    4.2900973    -11972.85    12162.123     14422.89   -62503.562    12372.212   -5727.2049   -25745.812    78.958962 
   57300    2990.5348   -118.82655    2.7058987   -116.12065   -7906.9655    4.2816564    4.2816564    4.2816564   -7906.9655   -975.33699   -29756.088     7010.529    6110.5126    10280.435    14329.231    78.493817 
   57400    1743.3253   -117.72512    1.5773974   -116.14772    4302.5665    4.2985182    4.2985182    4.2985182    4302.5665    21078.739   -37026.914    28855.875    28593.691    23188.004    6224.4204    79.424831 
   57500    2126.4538   -118.04722    1.9240601   -116.12316   -17967.905    4.3159273    4.3159273    4.3159273   -17967.905    48180.103   -58118.959   -43964.859    8704.0313    -2784.355   -13408.247    80.393762 
   57600    1852.9243   -117.79035    1.6765648   -116.11379   -13596.445    4.3089708    4.3089708    4.3089708   -13596.445    20697.478   -42269.722   -19217.092    24738.168    1707.2992    1602.3532    80.005647 
   57700    548.71044   -116.62299   0.49648474   -116.12651    34226.194    4.2867377    4.2867377    4.2867377    34226.194    56089.739    -10716.19    57305.033    39356.729    34136.199   -10645.323    78.773608 
   57800    2295.3237   -118.20195    2.0768571   -116.12509    21875.401    4.2770021    4.2770021    4.2770021    21875.401    17369.986   -8202.3816    56458.599   -1807.5085   -10191.363   -3025.4918    78.238117 
   57900     2583.539   -118.50215    2.3376403   -116.16451    6933.3088    4.2943192    4.2943192    4.2943192    6933.3088    84351.563   -8416.6136   -55135.022    6312.6966   -31946.882    5757.6281    79.192303 
   58000     1976.464    -117.9411    1.7883461   -116.15276   -37477.575    4.3211972    4.3211972    4.3211972   -37477.575    -12046.81   -80451.603   -19934.313    43809.058     19527.39   -5242.8576    80.688612 
   58100    2603.1064   -118.44979    2.3553454   -116.09445   -38797.952    4.3213617    4.3213617    4.3213617   -38797.952   -72949.988   -16393.037   -27050.829   -7576.0032   -18512.946    36696.649     80.69783 
   58200    1587.1484   -117.51975    1.4360853   -116.08366    8164.5772    4.3005087    4.3005087    4.3005087    8164.5772   -5710.4497    54574.002   -24369.821    25060.445   -21583.823   -31646.781    79.535221 
   58300    1296.5572   -117.27496    1.1731522    -116.1018    1684.5511    4.2872275    4.2872275    4.2872275    1684.5511     -42937.7    27807.746    20183.608    34294.698    4626.9844   -19445.775    78.800613 
   58400    2007.4852   -117.95324    1.8164148   -116.13682   -29259.836    4.2877783    4.2877783    4.2877783   -29259.836   -19624.325   -35420.611   -32734.571   -7455.2189   -8743.9747    53999.899    78.830988 
   58500    2098.1968   -118.05522    1.8984925   -116.15673    5403.9842    4.2906711    4.2906711    4.2906711    5403.9842    5010.9264   -20369.358    31570.384   -12997.869   -4026.9101    23330.361     78.99065 
   58600    2442.9143   -118.36702    2.2104002   -116.15662   -30249.595    4.2954515    4.2954515    4.2954515   -30249.595   -32444.199   -27916.523   -30388.063    5232.2851   -1916.1466   -43413.648    79.254962 
   58700    1850.2505   -117.82317    1.6741455   -116.14903   -716.91794    4.2942675    4.2942675    4.2942675   -716.91794    24653.393    31214.569   -58018.715    2393.5015    4399.4903   -5198.6938    79.189442 
   58800     1040.979   -117.09907   0.94189965   -116.15717    3827.0517    4.3017294    4.3017294    4.3017294    3827.0517   -16915.562    36126.337   -7729.6191   -36693.675    3451.5249    39043.205    79.602969 
   58900    2402.2452   -118.30201    2.1736019   -116.12841   -9705.3581     4.304988     4.304988     4.304988   -9705.3581    -15028.62     93.04967   -14180.504    9057.0185   -8427.1856    1653.4873    79.784005 
   59000       2184.3   -118.09729    1.9764006   -116.12088   -42457.283    4.3216215    4.3216215    4.3216215   -42457.283     25368.84   -55256.228   -97484.461    8673.0261    1975.3996    13848.536    80.712386 
   59100    1620.1847   -117.54929    1.4659772   -116.08332   -16225.626    4.3276349    4.3276349    4.3276349   -16225.626    71628.306   -25072.533   -95232.652   -33568.574   -15792.315    16253.468    81.049781 
   59200    2053.6578   -117.90572    1.8581927   -116.04753   -6271.9095    4.3063002    4.3063002    4.3063002   -6271.9095    46579.737     3911.868   -69307.333   -15344.322     6073.212    -9375.096    79.856985 
   59300    895.98859   -116.90932    0.8107093   -116.09861   -11256.849    4.2928178    4.2928178    4.2928178   -11256.849    64076.668    -23239.77   -74607.444    17568.355    14637.697    45299.198    79.109266 
   59400      2879.66   -118.73167    2.6055769   -116.12609   -30241.957    4.2876213    4.2876213    4.2876213   -30241.957   -23391.741   -42852.352   -24481.778   -19485.918    18860.871    9790.6426    78.822326 
   59500    2499.5002   -118.41785    2.2616003   -116.15625   -20774.709    4.2909949    4.2909949    4.2909949   -20774.709   -23341.354   -11048.041   -27934.731   -19103.733   -17131.643    3406.1412    79.008535 
   59600    1918.1391   -117.89446    1.7355726   -116.15889   -40243.146    4.3006593    4.3006593    4.3006593   -40243.146    4031.8376    -56488.06   -68273.216   -8072.2933    1953.9654    45689.908    79.543579 
   59700    1651.6723   -117.63679    1.4944678   -116.14232    12106.987    4.2995983    4.2995983    4.2995983    12106.987    36774.466    1687.3961   -2140.9011   -10009.001    8522.1148    9434.8456     79.48472 
   59800    1614.1307   -117.60734    1.4604994   -116.14684   -20850.719    4.2974359    4.2974359    4.2974359   -20850.719   -23235.978    9583.7513   -48899.931   -19358.636   -41986.136    3342.1371    79.364853 
   59900    2007.2463   -117.96347    1.8161986   -116.14727   -10533.644     4.284534     4.284534     4.284534   -10533.644    35315.246   -19665.455   -47250.723   -17934.708   -17250.342    48401.209    78.652182 
   60000    3123.7182   -118.97895    2.8264059   -116.15254    3533.0378    4.2874432    4.2874432    4.2874432    3533.0378     8264.289    723.42807    1611.3963   -4630.1171    23565.147    4864.8516    78.812507 
   60100    2169.4597   -118.12414    1.9629727   -116.16117   -31697.883    4.3132089    4.3132089    4.3132089   -31697.883   -25639.406    -10067.63   -59386.613    -1696.929   -23315.881   -24941.354    80.241949 
   60200    709.85573   -116.78763   0.64229238   -116.14534   -34462.093    4.3138273    4.3138273    4.3138273   -34462.093   -13466.763   -50485.475   -39434.041     2002.407   -38556.225     30218.29    80.276471 
   60300    1777.6622   -117.72439    1.6084661   -116.11592   -11840.909    4.2935765    4.2935765    4.2935765   -11840.909    21190.123   -38908.455   -17804.396     14177.83    5532.9108    10424.251    79.151219 
   60400     2695.066   -118.56333    2.4385524   -116.12477   -7562.7882    4.2934557    4.2934557    4.2934557   -7562.7882   -7008.3201    28141.214   -43821.259    2455.9208    -1501.533   -23903.777    79.144541 
   60500    2241.2282   -118.16663    2.0279104   -116.13872    12005.806    4.2922258    4.2922258    4.2922258    12005.806    75923.235   -1153.5934   -38752.223   -25890.643   -16420.555    49751.535    79.076545 
   60600     2091.199    -118.0282    1.8921608   -116.13604    40629.862    4.2819206    4.2819206    4.2819206    40629.862    83714.579    37299.524    875.48228    26899.528    7950.6509    17621.959    78.508346 
   60700     1435.254   -117.47141     1.298648   -116.17277   -14968.035    4.3001546    4.3001546    4.3001546   -14968.035   -2994.8267   -12731.475   -29177.803    1770.3745    29346.303    5462.1876    79.515576 
   60800    1350.8508   -117.37705    1.2222782   -116.15478    1049.1439    4.2986061    4.2986061    4.2986061    1049.1439    54093.431   -30848.181   -20097.818    -11236.44    14114.491    46514.929    79.429707 
   60900    2976.6712   -118.81958    2.6933546   -116.12622    20894.871    4.2924005    4.2924005    4.2924005    20894.871    40255.783    49288.491   -26859.661   -24440.731    1653.8169   -30750.356    79.086199 
   61000    2188.1761   -118.14363    1.9799077   -116.16372   -53682.268    4.3166863    4.3166863    4.3166863   -53682.268   -873.28082   -91410.675   -68762.849   -1959.6977    5097.3853    42583.675    80.436187 
   61100    1800.0667   -117.76234    1.6287381    -116.1336   -11605.453    4.3034303    4.3034303    4.3034303   -11605.453    37845.164   -29940.216   -42721.309    16531.965    -8634.184     11002.17    79.697429 
   61200    1948.8956   -117.87419    1.7634017   -116.11079     6855.665    4.2965319    4.2965319    4.2965319     6855.665    10347.505     34402.78    -24183.29    1609.7958   -9970.7669   -26016.766    79.314781 
   61300    1600.8818   -117.57798    1.4485115   -116.12947   -2521.7822    4.2973405    4.2973405    4.2973405   -2521.7822    68292.308   -50642.788   -25214.867    634.49722   -2115.6008    28830.779    79.359566 
   61400    2239.0264    -118.1661    2.0259182   -116.14019    22291.861    4.2937565    4.2937565    4.2937565    22291.861     19984.55   -8839.8353     55730.87   -6901.6275    17839.739    10169.688    79.161174 
   61500     2368.213   -118.30126    2.1428089   -116.15845    -11037.69    4.3137011    4.3137011    4.3137011    -11037.69   -46904.246   -15681.372    29472.547    397.76845   -15888.961   -13557.838    80.269423 
   61600     1892.172   -117.84834     1.712077   -116.13627   -15917.239     4.313167     4.313167     4.313167   -15917.239   -30375.126   -37499.436    20122.845   -4186.6024   -12718.109    18266.975    80.239613 
   61700    1830.1621   -117.76661    1.6559692   -116.11064   -23807.154    4.2973081    4.2973081    4.2973081   -23807.154   -71264.832   -26691.545    26534.914    1824.7235    3966.2903    7896.9592    79.357772 
   61800     1602.689   -117.57962    1.4501467   -116.12947     9926.115    4.2826272    4.2826272    4.2826272     9926.115   -37807.345     72485.94   -4900.2495     28621.31    9955.4193    5228.0523     78.54722 
   61900    2285.8372   -118.21568    2.0682736   -116.14741    17581.939    4.2844568    4.2844568    4.2844568    17581.939     18506.48    40337.125   -6097.7887    21648.714   -27558.181    32199.174     78.64793 
   62000    2026.9872   -117.99941    1.8340606   -116.16535   -18761.537     4.311597     4.311597     4.311597   -18761.537   -15327.773   -48322.883    7366.0452   -6511.4822    16853.228    37067.144    80.152022 
   62100    2387.3077   -118.28702    2.1600862   -116.12694   -36489.904    4.3232169    4.3232169    4.3232169   -36489.904   -72476.058   -51523.037    14529.383    3662.9757    23298.228   -13699.604    80.801807 
   62200     1646.967   -117.58943    1.4902104   -116.09922   -7952.7261    4.3066861    4.3066861    4.3066861   -7952.7261   -4584.6305   -32810.355    13536.807   -20129.795   -10459.643    7507.2685    79.878454 
   62300    1811.5055   -117.74676    1.6390883   -116.10767      12906.5    4.2768722    4.2768722    4.2768722      12906.5   -2679.5114    40591.822    807.18957   -27613.797    15790.216    46323.691     78.23099 
   62400    2566.4983    -118.4668    2.3222216   -116.14458    13085.011    4.2825459    4.2825459    4.2825459    13085.011   -16062.475    85813.373   -30495.865   -12191.028    3624.6384    4536.1926    78.542744 
   62500    1434.4456   -117.47031    1.2979165   -116.17239    13442.073    4.3130974    4.3130974    4.3130974    13442.073    26945.147    75841.565   -62460.494    35010.796    -11954.42   -3447.7132    80.235729 
   62600    923.92468   -116.98641   0.83598646   -116.15043    31619.193    4.3320663    4.3320663    4.3320663    31619.193    43484.351    5998.0166    45375.211    15065.752    20094.679    -5888.836    81.299016 
   62700    2237.5301   -118.11009    2.0245642   -116.08553   -19474.001    4.3318561    4.3318561    4.3318561   -19474.001   -65859.252   -42848.325    50285.573   -13598.231   -7036.0567   -15629.095    81.287182 
   62800    2443.5309   -118.27621    2.2109581   -116.06525    32500.917    4.2986524    4.2986524    4.2986524    32500.917   -9761.8094    33739.783    73524.778     12102.14   -20372.753    26533.902     79.43227 
   62900    2208.4547   -118.09454    1.9982562   -116.09628   -2797.7111    4.2938189    4.2938189    4.2938189   -2797.7111   -12028.552    38910.203   -35274.784    1841.2762    50558.672    6728.1378    79.164626 
   63000    2273.8039   -118.17813    2.0573856   -116.12074   -25084.756    4.2956378    4.2956378    4.2956378   -25084.756   -42240.067    18504.441   -51518.642    1960.2694    3986.4659   -24904.372    79.265275 
   63100    2249.4577   -118.17808    2.0353566   -116.14272    5305.3305    4.2966541    4.2966541    4.2966541    5305.3305     24331.39    19125.359   -27540.758    7640.5657       -18320   -17390.982     79.32155 
   63200    1546.8325   -117.56255    1.3996066   -116.16294   -14415.066    4.3002765    4.3002765    4.3002765   -14415.066   -9363.5929    24520.038   -58401.642     10582.88    1258.6615    5239.1163     79.52234 
   63300    1707.4391   -117.70824    1.5449268   -116.16331    18831.157    4.2963422    4.2963422    4.2963422    18831.157    2519.5367    32332.716    21641.218   -22593.145    29184.373   -7938.0786    79.304272 
   63400    2840.6561   -118.73547    2.5702853   -116.16518    1146.6076    4.3057686    4.3057686    4.3057686    1146.6076   -3264.0269   -25355.497    32059.347   -7707.2399    3923.5356   -5070.8684    79.827412 
   63500    2525.5202   -118.43458    2.2851437   -116.14944   -6341.3038    4.3115331    4.3115331    4.3115331   -6341.3038   -32625.066   -49134.362    62735.516    8600.5693    8479.1816   -3400.0084    80.148456 
   63600    1086.4855   -117.12414   0.98307488   -116.14106    43951.708    4.2982475    4.2982475    4.2982475    43951.708    42821.216      45299.4     43734.51   -34671.099    19874.655   -12069.594    79.409828 
   63700    1464.7048   -117.46919    1.3252957   -116.14389   -8697.1848     4.301264     4.301264     4.301264   -8697.1848   -20840.373   -24904.172    19652.991   -8216.2468   -9103.9583   -10095.986    79.577132 
   63800    2505.1545   -118.39867    2.2667164   -116.13195   -12455.996    4.2952109    4.2952109    4.2952109   -12455.996    5979.6198   -8536.2766   -34811.331    16220.754   -40474.079    3103.1376    79.241643 
   63900    1903.3813   -117.85989    1.7222194   -116.13768    32914.372    4.2849325    4.2849325    4.2849325    32914.372    28663.212    36513.217    33566.687   -43795.896   -2516.6485    7350.0847    78.674132 
   64000    1858.8773   -117.84768    1.6819512   -116.16573   -13782.982    4.3002133    4.3002133    4.3002133   -13782.982   -84541.004   -16747.212    59939.269   -36740.846    658.54242    -13338.83    79.518834 
   64100    2340.6309   -118.26453    2.1178521   -116.14668   -32396.994    4.3059753    4.3059753    4.3059753   -32396.994    -26258.06   -38312.023   -32620.899    3481.2317   -4398.7325   -7872.4004     79.83891 
   64200    1927.6167   -117.89527    1.7441481   -116.15112   -15833.165    4.2969438    4.2969438    4.2969438   -15833.165    -6119.248    21110.465   -62490.711   -20758.181   -6828.9931   -2232.6154    79.337592 
   64300    1225.8207   -117.27721    1.1091484   -116.16806    13708.588    4.2904671    4.2904671    4.2904671    13708.588    13166.369    23615.925    4343.4699   -59728.065   -570.60531    363.00313    78.979384 
   64400    2349.3691   -118.29372    2.1257585   -116.16796    23635.552    4.2888575    4.2888575    4.2888575    23635.552    10319.112    51616.128    8971.4169   -1825.4023    12765.104   -146.13419    78.890523 
   64500    2543.1114   -118.47631    2.3010607   -116.17525   -28257.248    4.3138156    4.3138156    4.3138156   -28257.248    1600.6928   -53277.335   -33095.101    7876.3076   -10564.229    6547.1831    80.275814 
   64600    1525.7927    -117.5228    1.3805693   -116.14223   -49388.994     4.329313     4.329313     4.329313   -49388.994   -61010.872   -42616.735   -44539.376   -50435.007    11881.793    27853.485    81.144103 
   64700    1252.0475   -117.24936    1.1328789   -116.11648    19135.974    4.2957729    4.2957729    4.2957729    19135.974   -8177.6627    49113.875     16471.71   -473.23833    11049.451   -5726.6881    79.272755 
   64800    2275.9984   -118.17252    2.0593712   -116.11315    62367.489    4.2754246    4.2754246    4.2754246    62367.489    76711.563    66373.899    44017.005    19926.024    -25474.53    -29692.17    78.151581 
   64900    2734.7857   -118.63271    2.4744916   -116.15822   -4220.2784    4.2930424    4.2930424    4.2930424   -4220.2784    -27173.99    5529.5135    8983.6411    713.72005    18795.055    21362.945    79.121684 
   65000    1910.9636   -117.90025    1.7290801   -116.17117    15241.536    4.3049727    4.3049727    4.3049727    15241.536    47132.639   -11294.546    9886.5159     2037.324    11442.192    33822.072    79.783155 
   65100      2624.18   -118.51356    2.3744132   -116.13914   -24898.403    4.3231868    4.3231868    4.3231868   -24898.403    21935.045   -55747.057   -40883.198    14030.251   -13377.361   -22631.033    80.800122 
   65200    1599.1759   -117.56579    1.4469679   -116.11882   -18975.121    4.3308611    4.3308611    4.3308611   -18975.121   -53008.177   -39481.034    35563.848   -5404.4549    10051.158   -3005.8334    81.231178 
   65300    1428.1953   -117.37772    1.2922611   -116.08546    40736.138    4.3101024    4.3101024    4.3101024    40736.138   -2716.7496    85181.352    39743.813   -6312.2205    2151.4392    33373.032    80.068699 
   65400    2321.7719   -118.16826     2.100788   -116.06747    20840.052    4.3046983    4.3046983    4.3046983    20840.052    17630.737    -10390.55    55279.969    1701.7598    -23677.18   -27752.383    79.767897 
   65500    1955.5034   -117.90048    1.7693806   -116.13109    14430.621    4.3245065    4.3245065    4.3245065    14430.621    48727.193   -9635.1652    4199.8336   -37610.603    1203.8841    12877.766    80.874137 
   65600    2156.4659   -118.06552    1.9512157   -116.11431   -25599.162    4.3527054    4.3527054    4.3527054   -25599.162   -17328.255    2386.1508   -61855.381    -11511.29    20039.815    16972.101    82.466549 
   65700    2027.5577   -117.91167    1.8345768   -116.07709   -19158.083    4.3323591    4.3323591    4.3323591   -19158.083   -12395.436   -16555.366   -28523.447    21938.787    1928.8437   -15011.979    81.315502 
   65800    2177.4646   -117.98966    1.9702157   -116.01945    44090.388    4.2816285    4.2816285    4.2816285    44090.388    83234.655   -33123.332    82159.843   -26450.806    3268.6253    18859.518    78.492278 
   65900    1969.5403   -117.87541    1.7820814   -116.09332   -9563.4991     4.278414     4.278414     4.278414   -9563.4991   -25756.879   -40678.292    37744.674    6099.9185    41745.515    -6312.458    78.315625 
   66000    1289.0892    -117.3325     1.166395    -116.1661    -9271.227    4.2878814    4.2878814    4.2878814    -9271.227   -61788.774   -26755.742    60730.835    24867.064   -13228.933   -6838.1761    78.836674 
   66100    2204.3658   -118.17272    1.9945565   -116.17816   -1593.5911    4.3095107    4.3095107    4.3095107   -1593.5911     42037.82   -22237.275   -24581.317   -10982.586   -15500.231   -9010.8548    80.035724 
   66200    1617.0104   -117.62341     1.463105    -116.1603    14919.662    4.3269358    4.3269358    4.3269358    14919.662    47889.075   -32308.908    29178.818    29384.583    36436.485   -10778.898    81.010506 
   66300    2109.0808   -118.02061    1.9083406   -116.11227    11248.588    4.3204445    4.3204445    4.3204445    11248.588    38869.722    -44374.85    39250.892    10420.411    27933.923   -7482.9812    80.646458 
   66400    2507.0661   -118.37102    2.2684461   -116.10257   -24608.207    4.3305633    4.3305633    4.3305633   -24608.207   -16781.157    1177.6895   -58221.152   -13780.606   -9865.1245     13980.67    81.214422 
   66500    1026.3328   -117.02657   0.92864751   -116.09792    28080.029     4.328247     4.328247     4.328247    28080.029   -976.14779    114966.36   -29750.126    53273.754    17429.552   -17144.268    81.084176 
   66600    2050.8586   -117.92511    1.8556599   -116.06945    -17440.91    4.3072798    4.3072798    4.3072798    -17440.91   -48614.687    37613.248    -41321.29   -24278.245   -21782.998    20448.621    79.911494 
   66700     1714.108   -117.65066     1.550961    -116.0997    29624.265    4.3091879    4.3091879    4.3091879    29624.265    45610.952   -2284.7606    45546.604   -28383.477     40799.45    22133.655    80.017743 
   66800    1742.4148   -117.68405    1.5765735   -116.10747   -68144.024    4.3439476    4.3439476    4.3439476   -68144.024   -92335.932   -89904.217   -22191.922    24636.586    10686.577   -22520.312    81.969773 
   66900    1406.0213   -117.33804    1.2721976   -116.06584    8818.7567    4.3487108    4.3487108    4.3487108    8818.7567   -26119.301    72073.578   -19498.007   -9595.6519    19129.251     27809.22    82.239711 
   67000    2029.0488   -117.88302     1.835926   -116.04709    9608.5133    4.3472587    4.3472587    4.3472587    9608.5133    13853.634    38703.463   -23731.557   -25528.318    1662.5906    309.70222    82.157354 
   67100    2543.2151   -118.31119    2.3011545   -116.01003     9.439487    4.3476945    4.3476945    4.3476945     9.439487     9511.492   -3882.9403   -5600.2333   -18538.702    3329.9652    13463.895    82.182069 
   67200    2667.5763    -118.3929    2.4136791   -115.97922   -7589.8266    4.3498997    4.3498997    4.3498997   -7589.8266    10553.327   -27955.097     -5367.71   -8180.6427    16970.777    17184.185    82.307184 
   67300     1758.429   -117.56345    1.5910635   -115.97238   -14610.083    4.3461379    4.3461379    4.3461379   -14610.083   -22957.182     71423.13   -92296.197     6084.439    133.02157   -9812.8944    82.093829 
   67400    1711.4948   -117.53721    1.5485964   -115.98861    4955.0059    4.3270367    4.3270367    4.3270367    4955.0059   -8485.2387    50152.024   -26801.767    1902.7253   -9257.6219    2853.1724    81.016177 
   67500    2471.2855   -118.23412     2.236071   -115.99805   -30947.496    4.3225269    4.3225269    4.3225269   -30947.496   -7809.1545   -27096.785   -57936.549    27812.366    10975.753   -24013.184    80.763123 
   67600    1268.7404   -117.19659     1.147983   -116.04861    39617.258    4.3333087    4.3333087    4.3333087    39617.258    26517.514    63936.874    28397.386   -12549.761    34561.382    4518.2158    81.368981 
   67700    2434.3087   -118.24069    2.2026137   -116.03808   -54023.917    4.3460063    4.3460063    4.3460063   -54023.917    -47026.25   -29347.749   -85697.754    22697.961   -41122.203   -19176.971    82.086373 
   67800    2115.0667   -117.94474    1.9137568   -116.03098   -20744.741    4.3337356    4.3337356    4.3337356   -20744.741   -33558.689     23480.65   -52156.183   -2903.3287    51354.178   -1863.3635    81.393035 
   67900    3376.7016   -119.08586    3.0553106   -116.03055    12673.411    4.2868101    4.2868101    4.2868101    12673.411    115262.95   -29701.393   -47541.321   -11394.049   -26778.195   -10904.392    78.777598 
   68000     2126.598   -118.00241    1.9241906   -116.07822    54254.237    4.2559882    4.2559882    4.2559882    54254.237    57638.197    97245.413    7879.1013    4017.0451    56187.458    3230.6529     77.09057 
   68100    660.32802   -116.78581   0.59747867   -116.18833   -3939.0974    4.2900122    4.2900122    4.2900122   -3939.0974    10548.533    55205.736   -77571.561    1400.1456     64386.37    21761.711    78.954265 
   68200    2257.5698   -118.18066    2.0426966   -116.13796   -34504.424     4.327109     4.327109     4.327109   -34504.424    -30579.01   -60719.903    -12214.36     -13968.5   -24722.867     15960.49    81.020237 
   68300    1809.3085   -117.73539    1.6371004   -116.09829   -8227.6682    4.3559929    4.3559929    4.3559929   -8227.6682   -57327.157     19007.11    13637.042   -19269.635    39867.439    15506.532    82.653545 
   68400    2090.1037   -117.90252    1.8911697   -116.01135   -33223.265    4.3600989    4.3600989    4.3600989   -33223.265   -51943.056    -32325.35   -15401.389    23363.533   -32839.189    1235.2074    82.887496 
   68500    2014.7946   -117.78684    1.8230285   -115.96382     34614.29    4.3319568    4.3319568    4.3319568     34614.29    68838.434    4038.5733    30965.863   -34236.061    30807.235    7024.8471    81.292849 
   68600    2419.9391   -118.18253    2.1896117   -115.99292    15167.657    4.3247113    4.3247113    4.3247113    15167.657     7436.431   -40645.142    78711.681    20969.638    30960.275    2907.0322    80.885627 
   68700     2008.036    -117.8468    1.8169132   -116.02989   -25775.492    4.3386038    4.3386038    4.3386038   -25775.492   -72993.584    46034.774   -50367.666    18044.719   -33019.062   -28060.916    81.667635 
   68800     1556.718   -117.44724    1.4085512   -116.03869    38740.873     4.337328     4.337328     4.337328    38740.873   -51213.628     128341.5     39094.75   -16609.125    35504.275    2205.1319    81.595613 
   68900    2889.7334   -118.63201    2.6146915   -116.01732   -46368.885    4.3352976    4.3352976    4.3352976   -46368.885   -48231.612   -46420.815   -44454.229     21435.25   -31582.672   -20345.884    81.481072 
   69000    1022.1858   -116.96642   0.92489518   -116.04153    81755.511    4.3211132    4.3211132    4.3211132    81755.511    93390.959     35724.65    116150.92   -27536.878    34143.535    18789.397    80.683908 
   69100    1686.9622   -117.60277    1.5263988   -116.07637    4603.3458    4.3273037    4.3273037    4.3273037    4603.3458    22758.652   -4601.9543   -4346.6601    15374.234     7864.449   -6615.4893    81.031175 
   69200    1838.4696   -117.75961    1.6634859   -116.09612   -33934.169    4.3529855    4.3529855    4.3529855   -33934.169    17074.491    -72889.36   -45987.638    19256.017    14090.011     15881.87    82.482469 
   69300    1895.1351   -117.75047     1.714758   -116.03571   -10075.084    4.3733899    4.3733899    4.3733899   -10075.084    54980.413   -83696.739   -1508.9245   -10273.549    18937.241   -10503.097    83.647814 
   69400    1288.3763   -117.13249      1.16575   -115.96674   -34840.923    4.3647436    4.3647436    4.3647436   -34840.923   -8615.2705   -60262.711   -35644.788    25336.565   -6949.2232    72150.292     83.15267 
   69500    2825.1339   -118.45916    2.5562406   -115.90292   -24347.061    4.3197645    4.3197645    4.3197645   -24347.061   -62380.533        20500   -31160.649    21498.319    3622.5725   -16744.805    80.608386 
   69600    1703.3232   -117.48078    1.5412026   -115.93957    26702.788    4.2982993    4.2982993    4.2982993    26702.788    126224.68   -37476.113   -8640.2039    14654.825    16725.136    55263.871    79.412697 
   69700    2414.1514   -118.19857    2.1843749   -116.01419    8100.5986    4.3157522    4.3157522    4.3157522    8100.5986    88050.237   -32781.271   -30967.171   -9653.4113    13523.558    2773.5152    80.383979 
   69800    2216.5263   -118.04561    2.0055596   -116.04005    -7221.129    4.3292257    4.3292257    4.3292257    -7221.129   -31594.008   -25225.823    35156.443    8241.3901    -18187.17    33845.573    81.139194 
   69900    1880.3707   -117.73578     1.701399   -116.03438   -22025.842    4.3366594    4.3366594    4.3366594   -22025.842   -23484.953    1621.0444   -44213.617   -12704.332    19057.342    22662.609    81.557883 
   70000    2316.0554   -118.10958    2.0956156   -116.01396    -7313.016    4.3082403    4.3082403    4.3082403    -7313.016   -45752.699    35723.982    -11910.33    7820.1323    -18582.11   -181.23725    79.964965 
   70100     998.2252   -116.96241   0.90321514   -116.05919    8417.1228    4.2844426    4.2844426    4.2844426    8417.1228    22795.679     7547.671   -5091.9821   -16612.065    -15626.44    81859.016    78.647149 
   70200     3058.334   -118.84157    2.7672449   -116.07432   -3437.0091    4.2844376    4.2844376    4.2844376   -3437.0091   -13970.315    16093.967    -12434.68   -29862.268   -5008.5714   -38164.609    78.646873 
   70300    1463.2612   -117.45899    1.3239895     -116.135    -1301.396    4.2996185    4.2996185    4.2996185    -1301.396    25484.012     -9838.29   -19549.911    9225.6277    2765.9257    88002.632    79.485842 
   70400    2220.2306   -118.12199    2.0089113   -116.11308    590.42485    4.3144074    4.3144074    4.3144074    590.42485   -8295.0131    16720.381   -6654.0934    4572.7523    -14475.28    24776.727    80.308862 
   70500    2195.8921   -118.07029    1.9868893   -116.08341    -51524.98    4.3250361    4.3250361    4.3250361    -51524.98   -59834.229   -21382.902   -73357.808    617.61644   -14714.915    28056.429    80.903856 
   70600    1158.4852   -117.13949    1.0482218   -116.09127   -11404.102    4.3042519    4.3042519    4.3042519   -11404.102    2811.4008   -32102.463   -4921.2455   -14105.436    8437.4391     97155.01    79.743088 
   70700    3203.3684   -118.94467    2.8984751    -116.0462    6612.5469    4.2813153    4.2813153    4.2813153    6612.5469   -14149.215    16651.925    17334.931    30553.609   -12709.917    -36405.02    78.475058 
   70800     1332.001   -117.31625    1.2052225   -116.11103   -2490.6249    4.2853375    4.2853375    4.2853375   -2490.6249    64094.062   -46449.716   -25116.222    11194.277   -4252.1329     120447.6    78.696442 
   70900    2304.1846   -118.20081    2.0848746   -116.11594    11295.075    4.2905041    4.2905041    4.2905041    11295.075   -22819.475    50160.497    6544.2031   -26667.998     7396.156    -6888.566    78.981427 
   71000    1752.9964   -117.71672    1.5861479   -116.13057   -30261.997    4.3118075    4.3118075    4.3118075   -30261.997   -20735.047   -54487.588   -15563.356   -5369.7868   -412.70237    26653.631    80.163765 
   71100    1232.2403    -117.2242    1.1149569   -116.10924   -15890.896    4.3090771    4.3090771    4.3090771   -15890.896    7940.2891   -23737.551   -31875.425    -4027.133    13254.909    86128.926    80.011569 
   71200    3070.0962   -118.83887    2.7778875   -116.06098   -27818.044    4.2979526    4.2979526    4.2979526   -27818.044   -43892.777   -37175.304   -2386.0511    5494.1637      -8270.8   -33598.781    79.393484 
   71300    1250.8812   -117.23248    1.1318236   -116.10065    108.30084    4.2899505    4.2899505    4.2899505    108.30084    40742.097   -14116.837   -26300.358    2163.3375   -13986.614    118660.94    78.950855 
   71400     2867.309   -118.69081    2.5944014   -116.09641    14568.861    4.2853097    4.2853097    4.2853097    14568.861    13828.178    10025.532    19852.873      2800.03   -5962.4838   -443.99397    78.694909 
   71500    2021.1796   -117.95815    1.8288058   -116.12934   -21780.147    4.3157909    4.3157909    4.3157909   -21780.147    54210.003   -64170.846   -55379.599    8595.1763    251.59796     44725.22    80.386141 
   71600    1930.4374   -117.82962    1.7467003   -116.08292    -15150.44     4.326983     4.326983     4.326983    -15150.44   -6609.4324    16321.873   -55163.762   -15953.562    7992.5461    39820.869    81.013158 
   71700    2138.0298   -117.97893    1.9345343   -116.04439   -53132.825    4.3372052    4.3372052    4.3372052   -53132.825   -22466.945   -68778.064   -68153.466    6471.3455   -11129.497    38825.736    81.588683 
   71800    1657.4024   -117.52396    1.4996526   -116.02431    -21216.99    4.3291879    4.3291879    4.3291879    -21216.99    60060.453   -99693.933   -24017.491    11661.906     8738.134    57669.329    81.137067 
   71900    2657.3418    -118.4024    2.4044187   -115.99798   -12605.008    4.3052821    4.3052821    4.3052821   -12605.008   -23541.094    6018.8372   -20292.768   -11333.723    17841.209    -19086.01    79.800361 
   72000     1086.066    -117.0463   0.98269531    -116.0636    1304.4472    4.2923524    4.2923524    4.2923524    1304.4472    63168.273   -26375.692    -32879.24     -7390.21   -9087.1631    128767.73    79.083539 
   72100    3300.3932   -119.03853    2.9862651   -116.05227    -14049.63    4.2893831    4.2893831    4.2893831    -14049.63   -47016.943    31397.816   -26529.764   -1291.5899   -1878.1335   -37814.835    78.919535 
   72200     1297.859   -117.29882    1.1743301   -116.12449   -44737.766    4.3098129    4.3098129    4.3098129   -44737.766   -22757.692   -80615.504   -30840.101    11735.603   -5882.0914    74946.074    80.052563 
   72300    2159.9647   -118.04381    1.9543814   -116.08943   -728.18046    4.3023553    4.3023553    4.3023553   -728.18046   -33559.038    5182.0265     26192.47    8953.8205   -15285.747     26179.56    79.637723 
   72400    2429.6032   -118.29543     2.198356   -116.09708    14280.303    4.3050043    4.3050043    4.3050043    14280.303    70657.636   -47207.363    19390.637   -6821.1442    14664.468    14329.092    79.784914 
   72500     1856.654   -117.78592    1.6799396   -116.10598   -4392.4543    4.3078143    4.3078143    4.3078143   -4392.4543    73076.557   -61965.878   -24288.042    -274.2553   -14782.468    38949.555    79.941249 
   72600    1995.0088   -117.88794    1.8051259   -116.08282    13523.116    4.3127227    4.3127227    4.3127227    13523.116    43087.667   -35161.815    32643.495   -3452.1292   -3503.9449   -28580.485    80.214819 
   72700    1611.5905   -117.54208     1.458201   -116.08388   -15027.691    4.3362184    4.3362184    4.3362184   -15027.691   -2533.9334   -61316.649    18767.509    1514.3592    20020.778    39693.795    81.533005 
   72800    2725.6709   -118.49833    2.4662443   -116.03209   -25966.895    4.3259037    4.3259037    4.3259037   -25966.895    23194.308   -47535.579   -53559.415   -13621.406   -5019.4103   -15160.717    80.952551 
   72900    1149.8836   -117.08905    1.0404389   -116.04861    19337.809    4.3056045    4.3056045    4.3056045    19337.809    33470.529   -65833.848    90376.747    5255.1038   -20189.569    11564.759    79.818285 
   73000    3372.6645   -119.08511    3.0516577   -116.03345   -8914.4053    4.2943489    4.2943489    4.2943489   -8914.4053    22529.386   -30964.695   -18307.907    20139.533   -7164.9634    5108.7464    79.193946 
   73100    1203.8629   -117.19533    1.0892805   -116.10605    17073.151    4.3037175    4.3037175    4.3037175    17073.151    87472.953   -30465.085   -5788.4158   -13555.739   -4584.1725    -7480.879    79.713389 
   73200    2073.8207   -117.96751    1.8764365   -116.09108   -56672.825    4.3197524    4.3197524    4.3197524   -56672.825   -34232.563   -69689.524   -66096.387    26572.477    2712.6013   -2838.8128    80.607704 
   73300    1716.1068   -117.61561    1.5527695   -116.06284    39154.111    4.3092646    4.3092646    4.3092646    39154.111    58922.039    39443.297    19096.998   -30844.668    12537.185   -8263.2177    80.022016 
   73400    1588.8191   -117.50106    1.4375969   -116.06346   -44088.836    4.3198151    4.3198151    4.3198151   -44088.836    12950.331   -74421.871   -70794.969    15871.524    9411.9525    7581.4566    80.611216 
   73500    2232.4998   -118.04385    2.0200127   -116.02384    3169.2418    4.3156373    4.3156373    4.3156373    3169.2418    37219.231    -56383.92    28672.415   -9607.9927   -16825.409    9845.3463    80.377559 
   73600    1636.2211   -117.53433    1.4804873   -116.05385    2512.3901    4.3245649    4.3245649    4.3245649    2512.3901   -33956.916    17689.073    23805.013   -53861.457    8929.4059   -934.53684    80.877415 
   73700    2146.6736   -117.96994    1.9423554   -116.02759   -1687.8653    4.3455075    4.3455075    4.3455075   -1687.8653    64307.289   -47902.145    -21468.74    9569.4384    6797.8551    11676.061    82.058112 
   73800    1823.9469   -117.61487    1.6503455   -115.96452   -27218.738    4.3521796    4.3521796    4.3521796   -27218.738    15755.268   -68114.274   -29297.209   -20391.194   -18073.396    18310.419    82.436666 
   73900    2108.4527   -117.86058    1.9077723   -115.95281    15174.895     4.345148     4.345148     4.345148    15174.895    5805.2205    -7057.824    46777.287    5055.7469   -25385.216   -14512.035    82.037747 
   74000    2657.8002   -118.34412    2.4048335   -115.93929   -38966.244    4.3424327    4.3424327    4.3424327   -38966.244   -55105.184    1441.2795   -63234.828   -6399.8851    4163.5206    275.13215    81.884044 
   74100    1698.2915    -117.5009    1.5366499   -115.96425    25120.228    4.3452098    4.3452098    4.3452098    25120.228    24040.534   -3316.6392     54636.79   -47539.385   -12245.165   -7296.9373    82.041246 
   74200    3020.1348   -118.66974    2.7326814   -115.93706   -71913.678    4.3484266    4.3484266    4.3484266   -71913.678   -109010.45   -55168.738   -51561.852   -212.92888    -68.77361    20314.115    82.223587 
   74300    1316.8902   -117.19603      1.19155   -116.00448    13443.015    4.3238119    4.3238119    4.3238119    13443.015   -26008.151    4624.7461     61712.45   -44036.923   -38541.185   -27009.085    80.835172 
   74400    2467.2351   -118.25552    2.2324062   -116.02311    13811.797    4.2889301    4.2889301    4.2889301    13811.797    31105.468    2149.4396    8180.4845    10598.073   -1684.2575    19863.078     78.89453 
   74500    1624.7452   -117.57136    1.4701036   -116.10126    25555.216    4.2881059    4.2881059    4.2881059    25555.216    34259.083   -47926.185    90332.751    14807.024    10078.478    18567.978    78.849059 
   74600     2052.215   -118.00591    1.8568872   -116.14902   -35411.234    4.3272798    4.3272798    4.3272798   -35411.234   -71466.078     -79368.5    44600.875   -10350.002   -3616.9703   -16892.059    81.029829 
   74700    2067.1734   -117.96788     1.870422   -116.09746   -27090.263     4.342128     4.342128     4.342128   -27090.263    39945.647   -83860.095   -37356.342    4535.8106    4277.7058      49065.8    81.866809 
   74800     2091.624   -117.94417    1.8925453   -116.05162    15481.477     4.320327     4.320327     4.320327    15481.477     32876.43   -32960.922    46528.924    7116.0419    15801.035   -19605.663    80.639879 
   74900    2034.1891   -117.89937    1.8405771    -116.0588   -22485.179    4.3084526    4.3084526    4.3084526   -22485.179    11041.979   -45658.867   -32838.648    3524.4877    24429.484    26990.356    79.976789 
   75000    2230.7367   -118.10057    2.0184174   -116.08215    12773.792    4.2902025    4.2902025    4.2902025    12773.792    39228.092    16810.613   -17717.331    6887.6302   -27533.008    60229.021    78.964771 
   75100    2893.4539   -118.72035    2.6180579   -116.10229   -3833.3648    4.2978474    4.2978474    4.2978474   -3833.3648    6258.0437   -26989.036    9230.8982   -3669.2487    7756.4085   -16177.969    79.387655 
   75200    1292.1768   -117.31345    1.1691887   -116.14427   -32934.082    4.3227549    4.3227549    4.3227549   -32934.082   -6215.7536   -60502.005   -32084.486   -4716.0837    10041.522    29412.442    80.775904 
   75300    2539.4221   -118.39297    2.2977225   -116.09525   -34133.571    4.3141254    4.3141254    4.3141254   -34133.571    12322.846   -73787.747   -40935.812    10555.395    -13942.54   -7972.3802    80.293114 
   75400    1312.9838   -117.28471    1.1880153   -116.09669   -2403.2332    4.3046771    4.3046771    4.3046771   -2403.2332    5569.6041   -28881.517    16102.214   -5805.0037   -36432.348    20710.215     79.76672 
   75500    2007.4796   -117.91545    1.8164097   -116.09904   -19389.941    4.3174377    4.3174377    4.3174377   -19389.941   -9026.6757   -64338.345    15195.197    5209.6603    14977.633    14974.007    80.478198 
   75600    2184.9943   -118.07094    1.9770288   -116.09391    19.573483    4.3407477    4.3407477    4.3407477    19.573483   -65234.391    66065.682   -772.57091    -7162.073   -24154.691   -37119.067    81.788761 
   75700    1935.1205   -117.80483    1.7509377   -116.05389   -30799.918    4.3607709    4.3607709    4.3607709   -30799.918   -81423.803    60785.621   -71761.571    6186.7184    13166.156    10153.024    82.925829 
   75800    1721.8376   -117.54106    1.5579548   -115.98311    -23966.25    4.3594828    4.3594828    4.3594828    -23966.25   -29702.724   -11624.021   -30572.004    22128.965   -38931.915   -2617.0004    82.852364 
   75900    1956.1401   -117.72273    1.7699566   -115.95278   -3819.6776    4.3309937    4.3309937    4.3309937   -3819.6776   -5236.7555    466.94671    -6689.224    11365.217   -16517.984    12605.957    81.238642 
   76000    2480.4116   -118.20112    2.2443285   -115.95679   -32424.619    4.3141779    4.3141779    4.3141779   -32424.619   -44706.339   -12197.017   -40370.501    7936.4674   -28661.512   -23930.147    80.296042 
   76100    1594.5767   -117.47297    1.4428065   -116.03016   -28567.503    4.3189065    4.3189065    4.3189065   -28567.503   -49327.598    51317.087   -87691.999    9654.0625   -62424.853    -5024.469    80.560362 
   76200    2037.7604   -117.88148    1.8438084   -116.03767    21943.236     4.313953     4.313953     4.313953    21943.236    64322.869   -2623.2572    4130.0947    1807.4091    19979.711    25157.933    80.283489 
   76300    1223.0505   -117.17928    1.1066418   -116.07264    18353.331    4.3163382    4.3163382    4.3163382    18353.331    45095.461    26741.244   -16776.714     1936.519   -79017.112    2225.2702     80.41673 
   76400    2772.6236   -118.56582    2.5087281   -116.05709   -40613.832    4.3215189    4.3215189    4.3215189   -40613.832    4389.7151   -83076.767   -43154.443   -3678.2943    18936.726   -13228.371    80.706635 
   76500    1432.9146    -117.3779    1.2965313   -116.08137    35534.527    4.2977808    4.2977808    4.2977808    35534.527    86139.727   -16770.903    37234.757    1462.4188   -22452.489    9345.3239    79.383963 
   76600    1551.4862   -117.54203    1.4038173   -116.13822    12764.671    4.2946084    4.2946084    4.2946084    12764.671   -23310.198    18498.522    43105.689    -18296.06   -40745.918   -7179.4261    79.208302 
   76700    2632.3159   -118.51722    2.3817748   -116.13544    2147.8218    4.3160051    4.3160051    4.3160051    2147.8218   -53980.673    31445.666    28978.473    14658.454    22605.846   -1419.9565    80.398109 
   76800    1814.9697   -117.77157    1.6422227   -116.12935    22915.904    4.3263912    4.3263912    4.3263912    22915.904   -43403.973    39926.599    72225.087   -8379.6307   -42455.458    21880.238    80.979924 
   76900    1943.5551   -117.85699    1.7585695   -116.09842   -26327.547    4.3341376    4.3341376    4.3341376   -26327.547   -54840.729   -28949.746    4807.8331   -22494.999    6230.3733     3755.729    81.415684 
   77000    2074.3177   -117.94309    1.8768863    -116.0662   -11283.723    4.3148744    4.3148744    4.3148744   -11283.723    3981.1536   -33569.541   -4262.7808    3343.2991    6744.6771    1549.5816    80.334942 
   77100    1438.0214   -117.38515     1.301152   -116.08399    37504.066    4.2955315    4.2955315    4.2955315    37504.066    86405.339    5519.1476    20587.711    11639.232   -56870.063   -28137.612    79.259391 
   77200    2764.2553   -118.60582    2.5011563   -116.10466   -16040.545    4.3066341    4.3066341    4.3066341   -16040.545    36832.699   -58471.202   -26483.133    9638.6399    31173.691    15486.423    79.875561 
   77300    1993.2676   -117.93276    1.8035504   -116.12921   -24220.297    4.3152348    4.3152348    4.3152348   -24220.297   -23473.125   -8358.3304   -40829.437    -15206.31   -24514.403    21045.017    80.355073 
   77400    1705.7267   -117.64662    1.5433774   -116.10324   -4313.7217      4.31384      4.31384      4.31384   -4313.7217   -26522.479   -27492.832    41074.146   -10383.906   -37176.784   -21510.104    80.277181 
   77500    2273.1948   -118.13261    2.0568344   -116.07577   -31624.318    4.3208252    4.3208252    4.3208252   -31624.318   -19171.711   -85831.544    10130.301    10970.691    12813.505   -28827.082    80.667776 
   77600    1247.9478   -117.22776    1.1291694   -116.09859   -23150.385    4.3048905    4.3048905    4.3048905   -23150.385    22615.081    -33104.96   -58961.275   -2149.3723   -79083.641   -6962.2351    79.778584 
   77700     2449.808   -118.30892    2.2166378   -116.09228     34826.15     4.272527     4.272527     4.272527     34826.15     97103.52   -9115.8184    16490.749   -2813.5473    5319.5993    17747.725    77.992786 
   77800    2327.4607     -118.256    2.1059354   -116.15006     26877.91    4.2806978    4.2806978    4.2806978     26877.91    24110.348     52597.97    3925.4127   -2078.1416    8409.9234    17934.171    78.441104 
   77900    1571.9478   -117.60757    1.4223314   -116.18524     16267.64    4.3085309    4.3085309    4.3085309     16267.64    31826.912    47067.411   -30091.404    6541.9992   -66991.192   -794.39462    79.981151 
   78000    2873.7431   -118.72609    2.6002232   -116.12587   -40559.176     4.331515     4.331515     4.331515   -40559.176   -80894.521   -5621.9519   -35161.056    18265.716    6683.5997    6029.5733     81.26798 
   78100    1856.2875   -117.77646    1.6796079   -116.09686   -1463.6833    4.3227545    4.3227545    4.3227545   -1463.6833    11789.703    37002.144   -53182.897   -14486.507   -39800.522    14252.506    80.775885 
   78200    1707.2294     -117.618    1.5447371   -116.07326    39412.681    4.3059568    4.3059568    4.3059568    39412.681    60467.163    11785.852    45985.028   -502.43485   -21622.622   -8588.7109    79.837884 
   78300    2469.9916   -118.30775    2.2349003   -116.07285    11719.583    4.3007704    4.3007704    4.3007704    11719.583    54530.352   -52834.404    33462.801     35443.23    15228.515    12568.695     79.54974 
   78400     1787.977     -117.736    1.6177992    -116.1182    47208.487    4.3005841    4.3005841    4.3005841    47208.487    47706.511    45703.188    48215.762   -23651.367   -52051.023     -16352.3    79.539403 
   78500    2001.5393   -117.94621    1.8110348   -116.13518   -5070.1134    4.3224292    4.3224292    4.3224292   -5070.1134   -58889.549    44163.339   -484.13054   -19271.669    8300.7406    40350.119    80.757648 
   78600    1732.6854    -117.6611    1.5677702   -116.09333    11438.003    4.3315868    4.3315868    4.3315868    11438.003   -21777.335    36218.545    19872.799    33227.233   -7296.2599    37752.187    81.272024 
   78700    2263.2109   -118.11437    2.0478008   -116.06657   -28237.498    4.3300212    4.3300212    4.3300212   -28237.498   -81449.794   -27707.052    24444.352   -31601.938   -6672.4576   -19035.941    81.183931 
   78800    2089.4177   -117.95874     1.890549   -116.06819   -7837.4559     4.322092     4.322092     4.322092   -7837.4559   -30112.199   -11777.897    18377.729   -33600.119    10368.979    5100.6515     80.73875 
   78900    2374.4247   -118.21714    2.1484294   -116.06871     41935.67    4.2971375    4.2971375    4.2971375     41935.67    65686.419   -4775.3247    64895.915    17887.471    7914.5985    18956.625    79.348321 
   79000     1843.901   -117.77653    1.6684003   -116.10813    25702.922     4.289902     4.289902     4.289902    25702.922    22980.081   -9729.6588    63858.344   -52122.703    1581.2354   -1753.7888    78.948179 
   79100     2001.555   -117.95301     1.811049   -116.14196   -14687.158    4.3073926    4.3073926    4.3073926   -14687.158   -48065.025   -22438.348    26441.899   -6053.3843   -2841.9333   -12694.524    79.917772 
   79200    1697.7733   -117.68063     1.536181   -116.14445    11437.928    4.3042351    4.3042351    4.3042351    11437.928    79398.297   -45858.356    773.84251    38711.396    2872.7315    33773.001    79.742154 
   79300     1722.176   -117.69316     1.558261    -116.1349   -3757.0776    4.3060455    4.3060455    4.3060455   -3757.0776   -7614.3046   -7955.0027    4298.0745   -21405.832   -12896.763    4631.6283    79.842815 
   79400    2250.7588   -118.16296    2.0365339   -116.12643   -22540.028      4.30814      4.30814      4.30814   -22540.028   -4662.9959   -11743.102   -51213.987   -25313.414   -36947.503   -20710.226     79.95938 
   79500    1874.4207   -117.82336    1.6960152   -116.12734    3262.0931      4.30269      4.30269      4.30269    3262.0931    40885.148    10114.528   -41213.396    55268.413    2293.5993    33677.979    79.656309 
   79600    1897.4035   -117.84087    1.7168106   -116.12406    8172.6093    4.3105655    4.3105655    4.3105655    8172.6093    277.86555    43431.615   -19191.652    11642.416   -5515.6823     2462.556    80.094512 
   79700    2279.6899   -118.17931    2.0627113    -116.1166    2992.1803    4.3244524    4.3244524    4.3244524    2992.1803    4414.6717   -992.82394     5554.693   -27759.813   -27763.819   -10997.724    80.871101 
   79800    2342.5002   -118.21066    2.1195434   -116.09112   -13328.416    4.3253552    4.3253552    4.3253552   -13328.416   -27039.698   -20150.409     7204.857    49553.614    3799.7654    20583.667     80.92176 
   79900    1661.0544   -117.57255    1.5029569   -116.06959    79066.436    4.2917393    4.2917393    4.2917393    79066.436    104516.18    51071.764    81611.363   -7439.9794   -10928.017   -3591.7573    79.049659 
   80000    1307.7808   -117.30837    1.1833075   -116.12506    46759.709    4.2987259    4.2987259    4.2987259    46759.709    46614.573    60500.869    33163.684   -25002.625   -2287.1386   -10483.919    79.436348 
   80100    2660.3178   -118.50593    2.4071114   -116.09882   -52381.277    4.3188317    4.3188317    4.3188317   -52381.277   -5592.5458   -66574.971   -84976.314    51161.627    21985.071   -2544.8321    80.556178 
   80200    1197.3268   -117.19265    1.0833664   -116.10928    46947.561    4.2953633    4.2953633    4.2953633    46947.561   -2216.8451    46443.828    96615.699   -40692.592    -6059.234   -6831.0772    79.250078 
   80300    2178.3108   -118.09384    1.9709814   -116.12286    26881.015    4.2994443    4.2994443    4.2994443    26881.015    100354.48   -35369.391    15657.961   -21241.074   -8780.9571    -7733.597    79.476179 
   80400    2435.1356   -118.31916    2.2033618    -116.1158      175.022    4.3111264    4.3111264    4.3111264      175.022     24124.33    14823.582   -38422.846    25645.286    47688.031    3888.8626     80.12578 
   80500    1405.5694   -117.37951    1.2717887   -116.10772    75097.199    4.2985706    4.2985706    4.2985706    75097.199    59882.663    97451.276    67957.659   -49576.642    25396.793   -35506.176    79.427738 
   80600    2088.3105   -118.02896    1.8895473   -116.13942    28187.293    4.3237331    4.3237331    4.3237331    28187.293    16708.432    71788.475   -3935.0269     2789.948   -10279.937    2558.1721    80.830757 
   80700    1477.5866   -117.43297    1.3369514   -116.09602   -8144.7712    4.3494294    4.3494294    4.3494294   -8144.7712   -60277.337    108290.76   -72447.741    4638.4736    47674.887     31091.66    82.280489 
   80800     2020.279   -117.88773    1.8279909   -116.05974    -1104.804    4.3207892    4.3207892    4.3207892    -1104.804    14265.858   -5686.6046   -11893.665   -8127.3363   -12904.242   -33406.567     80.66576 
   80900    2100.3134   -117.94883    1.9004077   -116.04842    25120.702    4.2816871    4.2816871    4.2816871    25120.702    63422.761   -18894.297    30833.642   -20384.832     7757.995   -18329.715    78.495501 
   81000    1752.4585   -117.71076    1.5856613    -116.1251   -16000.622     4.280991     4.280991     4.280991   -16000.622   -37906.871   -10751.106    656.10943     17084.96    64102.714    17014.978    78.457223 
   81100     1677.905   -117.68919    1.5182037   -116.17098   -20399.771    4.2912904    4.2912904    4.2912904   -20399.771   -40636.118   -32544.126    11980.931     67101.44    1951.8645   -21824.918    79.024856 
   81200     2730.739   -118.64494      2.47083   -116.17411   -22911.803     4.310124     4.310124     4.310124   -22911.803   -19965.599   -19605.851   -29163.959   -16339.793   -25096.951   -7949.3321    80.069902 
   81300    1972.7272   -117.94065     1.784965   -116.15568   -31726.652    4.3301483    4.3301483    4.3301483   -31726.652   -16089.624   -12418.732   -66671.599    23304.535    25529.507   -8067.9325    81.191078 
   81400    1890.9035   -117.81112    1.7109292   -116.10019   -2056.9328     4.313866     4.313866     4.313866   -2056.9328    12896.653   -35457.666    16390.214    59383.429    23812.986    12561.329    80.278632 
   81500    2658.4775   -118.49374    2.4054463   -116.08829   -12827.582    4.3125228    4.3125228    4.3125228   -12827.582    6839.5681    4364.0981   -49686.412   -24649.903   -21165.268    1153.8949    80.203662 
   81600    1528.0893   -117.50012    1.3826473   -116.11747   -36313.337    4.3360234    4.3360234    4.3360234   -36313.337    -62085.75    20983.913   -67838.172   -10351.682     43614.98   -14677.022    81.522007 
   81700    2250.8505   -118.11171    2.0366168   -116.07509   -46890.491    4.3406967    4.3406967    4.3406967   -46890.491   -17886.232   -52592.278   -70192.964    23132.444   -930.02607   -3842.5605    81.785878 
   81800     2086.801    -117.9648    1.8881814   -116.07662   -43790.641    4.3167542    4.3167542    4.3167542   -43790.641   -6771.2127   -80199.428   -44401.282   -11480.062   -12617.405   -48731.262    80.439981 
   81900    1313.2967   -117.29665    1.1882985   -116.10835    16905.304    4.2684761    4.2684761    4.2684761    16905.304   -4059.2444    54372.032    403.12314   -13783.838    40860.855   -10165.808    77.771156 
   82000    2659.5329   -118.53125    2.4064013   -116.12485    46801.074    4.2566399    4.2566399    4.2566399    46801.074    13518.222    38369.098    88515.903   -8548.9208    28495.752    9246.0229    77.125987 
   82100    1701.6535   -117.71632    1.5396918   -116.17663   -7880.9552    4.2967363    4.2967363    4.2967363   -7880.9552    35736.825    4337.0998    -63716.79     11582.77   -28663.216   -28955.499    79.326098 
   82200    1454.7741   -117.45283    1.3163102   -116.13652   -13077.372    4.3267069    4.3267069    4.3267069   -13077.372   -36076.569    17555.852   -20711.399   -4649.7623    20471.395    1919.8975    80.997652 
   82300    2433.8138   -118.29157    2.2021659    -116.0894     -18108.5    4.3438307    4.3438307    4.3438307     -18108.5   -9235.2254    42690.991   -87781.266   -15673.902   -3460.2339    6097.4314    81.963158 
   82400    1115.5848   -117.06842    1.0094046   -116.05902    6997.6915    4.3302592    4.3302592    4.3302592    6997.6915    137818.26   -45144.236   -71680.952    2881.8407    -23222.65   -19170.782    81.197316 
   82500     2893.918    -118.6129    2.6184778   -115.99442   -27874.616    4.3223429    4.3223429    4.3223429   -27874.616    -56823.03    18359.333    -45160.15    18944.999   -148.36014    18672.173    80.752813 
   82600    1348.7305   -117.25461    1.2203597   -116.03426     17714.23    4.3330813    4.3330813    4.3330813     17714.23   -5698.0013    102313.34   -43472.649   -28845.429   -42264.764    -12701.12    81.356172 
   82700    3094.8732   -118.78656    2.8003063   -115.98626   -60744.164    4.3278809    4.3278809    4.3278809   -60744.164    -71537.44   -64091.055   -46603.997    7746.6158    15360.981    40426.384    81.063606 
   82800     1193.804   -117.10273    1.0801789   -116.02255    23552.045    4.3097018    4.3097018    4.3097018    23552.045   -3724.3343    48622.188    25758.281   -16135.527   -64980.404    560.61404    80.046373 
   82900    2582.8676   -118.38807    2.3370329   -116.05103   -1825.7499    4.3009332    4.3009332    4.3009332   -1825.7499    44659.377   -45647.299   -4489.3278    21346.351   -8598.3205    9814.7638    79.558778 
   83000    2126.8156    -118.0265    1.9243875   -116.10211    3540.5873    4.3188213    4.3188213    4.3188213    3540.5873   -27172.794    37508.911     285.6444    3557.2096   -27711.379   -7649.2396    80.555592 
   83100    1825.6221   -117.74618    1.6518612   -116.09431   -18517.773    4.3493601    4.3493601    4.3493601   -18517.773   -26216.348     42035.93   -71372.902   -22803.876    -5503.702     2734.698    82.276555 
   83200    2164.9901   -117.99825    1.9589286   -116.03932   -28871.529    4.3372523    4.3372523    4.3372523   -28871.529   -44101.615   -4947.0711     -37565.9    16887.219   -10513.404    28490.714    81.591337 
   83300     1693.304   -117.55032     1.532137   -116.01818    29936.279    4.3072296    4.3072296    4.3072296    29936.279    49640.726    26102.021    14066.092   -9358.4953   -48325.689    11685.262      79.9087 
   83400    2694.6562   -118.48698    2.4381815    -116.0488    6476.2187    4.3046644    4.3046644    4.3046644    6476.2187   -55182.466    69967.911    4643.2114   -12049.608      25415.9   -28507.556    79.766015 
   83500    1466.2866   -117.44173    1.3267269     -116.115    38241.246     4.307904     4.307904     4.307904    38241.246   -3552.2882    89619.788    28656.238     5738.087   -64695.626   -17037.049    79.946242 
   83600    2463.7359   -118.34642      2.22924   -116.11718   -19931.701    4.3282141    4.3282141    4.3282141   -19931.701   -14080.782   -15029.958   -30684.364    20877.176    21085.537    7508.5059    81.082327 
   83700    1667.9466    -117.6064    1.5091931   -116.09721   -5796.3586    4.3149487    4.3149487    4.3149487   -5796.3586   -32836.611   -21089.032    36536.568    14615.134   -41327.788    -17284.87    80.339093 
   83800    2343.4619   -118.19831    2.1204136   -116.07789    4883.8453    4.2957035    4.2957035    4.2957035    4883.8453    24861.224    4697.3674   -14907.056   -20106.338   -54903.738   -15655.779    79.268912 
   83900    2371.1933   -118.26058    2.1455055   -116.11507     8131.451    4.3079869    4.3079869    4.3079869     8131.451    43392.822   -23539.469    4541.0006     12407.45    40509.822    34205.014    79.950854 
   84000    1570.0046    -117.5401    1.4205732   -116.11953    10930.699     4.316675     4.316675     4.316675    10930.699    45020.448   -25901.625    13673.273   -479.15489   -5864.7542    463.95258    80.435554 
   84100    1745.2033   -117.69561    1.5790966   -116.11651   -10662.852    4.3241652    4.3241652    4.3241652   -10662.852   -16277.859   -36959.499    21248.803   -9531.6422   -34845.823   -8570.3739    80.854992 
   84200    2240.5065   -118.11537    2.0272574   -116.08811   -6370.0757    4.3216427    4.3216427    4.3216427   -6370.0757   -28672.825   -35842.832     45405.43   -6891.5415    22358.238    25499.052    80.713575 
   84300    1512.2504   -117.46996     1.368316   -116.10165   -41601.985    4.3099637    4.3099637    4.3099637   -41601.985   -36468.093   -347.83164   -87990.031    -1750.323   -58588.705   -312.55289    80.060969 
   84400    2261.6446   -118.12976    2.0463836   -116.08338   -5588.3239    4.2822682    4.2822682    4.2822682   -5588.3239    16323.123    19525.793   -52613.887    5925.6368   -30944.761   -26935.493    78.527466 
   84500    2407.1113   -118.29442    2.1780049   -116.11642    16777.234    4.2799865    4.2799865    4.2799865    16777.234    51578.783   -27649.867    26402.785    15633.213    14503.123    46091.444    78.402009 
   84600    1313.1065   -117.34635    1.1881263   -116.15823   -20408.906    4.3067303    4.3067303    4.3067303   -20408.906   -37782.365    16816.249   -40260.601    11634.081   -72857.103    19047.297    79.880915 
   84700    2337.4936   -118.22655    2.1150134   -116.11153   -1244.1688    4.3109301    4.3109301    4.3109301   -1244.1688   -43653.404   -33873.857    73794.754   -7759.0027    6230.4579   -23552.113    80.114836 
   84800    1424.1205   -117.42119    1.2885741   -116.13261    24786.235    4.3108799    4.3108799    4.3108799    24786.235    30143.597   -43354.464    87569.572   -6152.0389    27217.061    34773.079    80.112037 
   84900    1716.3771   -117.67429    1.5530141   -116.12128   -24742.751    4.3166118    4.3166118    4.3166118   -24742.751    -19020.57   -46080.945   -9126.7381    4767.1609   -12635.875    28774.766    80.432019 
   85000      2417.99   -118.27621    2.1878482   -116.08837   -8621.5915    4.3039365    4.3039365    4.3039365   -8621.5915   -19360.988   -2974.3495   -3529.4371    19068.342    47294.782   -15682.538     79.72556 
   85100    1692.6697   -117.65165    1.5315632   -116.12009    20938.454    4.3012744    4.3012744    4.3012744    20938.454    104668.32   -7934.4022   -33918.555    5896.0195    31634.774    6641.9524    79.577714 
   85200    2373.8829   -118.26898    2.1479391   -116.12105   -24742.725    4.3119483    4.3119483    4.3119483   -24742.725    7437.9553   -36495.753   -45170.376   -8328.6558   -22372.824    39326.189    80.171615 
   85300    2330.4936   -118.21583    2.1086796   -116.10716    13033.373    4.3020634    4.3020634    4.3020634    13033.373   -3572.5872   -10022.762    52695.466    18603.962    24390.482    1708.8105    79.621513 
   85400    2032.2828   -117.96257    1.8388522   -116.12372   -8785.0347     4.310323     4.310323     4.310323   -8785.0347   -2949.3344   -36537.947    13132.178    31385.658    14166.332    4851.5478    80.080994 
   85500    2247.8486    -118.1487    2.0339006    -116.1148    -17630.65    4.3164118    4.3164118    4.3164118    -17630.65   -19878.832   -15086.721   -17926.395   -11526.203   -12603.102    25922.288    80.420842 
   85600    1872.6301   -117.78983    1.6943951   -116.09544    34125.498    4.2960263    4.2960263    4.2960263    34125.498    26753.546    32875.199    42747.749    24547.375    16585.189   -3986.9315    79.286783 
   85700    1306.3033   -117.28978    1.1819707   -116.10781    22459.015    4.2980102    4.2980102    4.2980102    22459.015   -3478.0065    16787.901    54067.149     52769.54    627.76293    1286.6846    79.396676 
   85800    2387.1737   -118.26149    2.1599649   -116.10152    4273.0795    4.3070875    4.3070875    4.3070875    4273.0795   -18428.779    71979.568    -40731.55   -19191.107    8175.1647    13613.972    79.900794 
   85900     2501.547   -118.36911    2.2634523   -116.10566    29094.577     4.298525     4.298525     4.298525    29094.577     959.0343    123655.61   -37330.915    -21454.21    14867.186   -16776.664    79.425208 
   86000     1170.689   -117.22094     1.059264   -116.16168    18123.843    4.3166737    4.3166737    4.3166737    18123.843   -75866.099    54139.079    76098.549    54148.904   -9355.7774   -37364.199    80.435482 
   86100    2015.1848   -117.94452    1.8233815   -116.12113   -63143.008    4.3404139    4.3404139    4.3404139   -63143.008   -116258.43   -45544.145   -27626.449    12244.897   -1786.1079    24212.887    81.769892 
   86200    1592.3022   -117.49179    1.4407485   -116.05105    47103.616    4.3326986    4.3326986    4.3326986    47103.616    43212.822    71132.572    26965.452    15364.292    13692.398    10719.139    81.334619 
   86300     1697.249   -117.55523    1.5357065   -116.01953    8269.4482    4.3345901    4.3345901    4.3345901    8269.4482    -7304.522    26488.469    5624.3972    40966.383   -18133.977   -29724.329    81.441189 
   86400    2188.3252   -117.98482    1.9800426   -116.00478   -27871.728    4.3287872    4.3287872    4.3287872   -27871.728   -7904.2941    -60124.14   -15586.749   -30588.322    -4239.658    22228.991    81.114537 
   86500    1245.4422   -117.16543    1.1269023   -116.03853    31506.895    4.2980829    4.2980829    4.2980829    31506.895    64083.941   -74178.109    104614.85    49250.611    13367.967   -6325.0925    79.400706 
   86600     2376.761   -118.22528    2.1505433   -116.07474    27453.756    4.2881206    4.2881206    4.2881206    27453.756    23609.157   -7027.7897    65779.902   -7690.7755    7598.4941   -9744.6174    78.849869 
   86700    2330.2332   -118.22567    2.1084439   -116.11723   -578.43674    4.3067957    4.3067957    4.3067957   -578.43674    47211.457   -29127.351   -19819.417   -18049.741   -15295.315    25646.578    79.884556 
   86800    1505.1192   -117.49343    1.3618635   -116.13156   -33870.312    4.3337059    4.3337059    4.3337059   -33870.312   -51930.928   -49758.442    78.433591    79997.154      -8113.6    8801.6137    81.391361 
   86900    2486.3406   -118.31861    2.2496932   -116.06891   -242.43096    4.3333183    4.3333183    4.3333183   -242.43096   -19063.825    91906.396   -73569.864   -17778.923    306.57516    4843.2636    81.369524 
   87000    1415.2293   -117.35812    1.2805292   -116.07759    48891.158     4.322343     4.322343     4.322343    48891.158    21424.714    160923.61    -35674.85    51969.032    3317.8559    11694.477     80.75282 
   87100    1493.9683   -117.46102    1.3517739   -116.10925   -13803.505    4.3287563    4.3287563    4.3287563   -13803.505   -38713.183   -8250.4447    5553.1116    26257.579    10466.024    626.37881    81.112802 
   87200    2374.4162   -118.23198    2.1484217   -116.08356   -56167.768    4.3146377    4.3146377    4.3146377   -56167.768   -30253.726   -83519.331   -54730.246   -59265.452   -9716.4144    12941.931    80.321723 
   87300    1339.3393   -117.30016    1.2118624    -116.0883    28123.821    4.2835367    4.2835367    4.2835367    28123.821    20875.658   -4129.7926    67625.598    35780.719    897.19095   -19961.886    78.597275 
   87400    2484.7181   -118.38339    2.2482251   -116.13517    5393.3276      4.29321      4.29321      4.29321    5393.3276    60494.236   -58593.816    14279.562    42281.913    13866.428   -1437.9404    79.130955 
   87500    2509.5612   -118.43468    2.2707037   -116.16397   -17196.808    4.3379762    4.3379762    4.3379762   -17196.808    32655.266   -32998.457   -51247.232   -8329.1289    9033.4442   -1472.6156    81.632201 
   87600    1503.7974    -117.4653    1.3606675   -116.10464   -36513.427    4.3591886    4.3591886    4.3591886   -36513.427   -25418.894   -91487.764    7366.3777    43257.733   -9008.9421   -5695.4518     82.83559 
   87700    2220.4512   -118.05269    2.0091109   -116.04358   -4294.5964    4.3317377    4.3317377    4.3317377   -4294.5964    955.66969   -57311.943    43472.484   -51677.671   -15661.403    6569.8077    81.280518 
   87800    2154.2168   -117.98612    1.9491806   -116.03694    5564.4732    4.2938399    4.2938399    4.2938399    5564.4732    46790.163    -49541.74    19444.997    47659.781    7136.3381    18521.248    79.165788 
   87900    1585.3049    -117.5512    1.4344172   -116.11678    31106.409    4.2980305    4.2980305    4.2980305    31106.409    72442.876   -33331.955    54208.306    45880.303    3089.2107   -2665.2188    79.397803 
   88000    2599.5882   -118.46382     2.352162   -116.11166   -63909.103    4.3314309    4.3314309    4.3314309   -63909.103    -44043.08   -81680.177   -66004.053     -77506.5   -7633.2909   -1152.3872    81.263245 
   88100    2304.7347   -118.17108    2.0853724    -116.0857   -4146.5428    4.3094185    4.3094185    4.3094185   -4146.5428   -9699.8619   -21887.163    19147.397    36783.334    1616.7209     2232.085    80.030587 
   88200    2077.2197   -117.96159     1.879512   -116.08208   -10728.995    4.2860297    4.2860297    4.2860297   -10728.995    30070.552   -50543.221   -11714.315    18710.191    3666.0477   -13107.395    78.734582 
   88300    1980.6712   -117.91026     1.792153   -116.11811   -2909.5203    4.2802878    4.2802878    4.2802878   -2909.5203     16186.48   -65786.911     40871.87   -78272.983   -11871.956   -13191.157    78.418569 
   88400     2696.697   -118.59094    2.4400281   -116.15092   -6266.3965    4.2948191    4.2948191    4.2948191   -6266.3965   -30713.494    45603.784   -33689.479    -4095.918   -13292.681    11396.155    79.219962 
   88500    1549.0504   -117.57086    1.4016134   -116.16925    -41791.07    4.3193907    4.3193907    4.3193907    -41791.07    12639.797   -100626.98   -37386.025    27655.016    2381.7676    -7550.487    80.587458 
   88600    2445.9543   -118.32931    2.2131509   -116.11616   -2493.9832    4.3000391    4.3000391    4.3000391   -2493.9832    57751.519   -757.65157   -64475.817   -29036.552    -1540.107   -27196.649    79.509168 
   88700    2232.4686   -118.12763    2.0199845   -116.10764    21901.714    4.2881914    4.2881914    4.2881914    21901.714   -23841.154    73027.975     16518.32    34331.991   -10835.123     12566.41    78.853775 
   88800    1987.6338    -117.9224    1.7984528   -116.12395   -24121.991    4.2973224    4.2973224    4.2973224   -24121.991   -3075.8716   -38822.514   -30467.587    40632.796    3318.1868     21181.79    79.358566 
   88900    2145.3179   -118.05945    1.9411287   -116.11832    19860.999     4.308441     4.308441     4.308441    19860.999    17436.281     65923.44   -23776.724   -26120.689   -1249.9846   -24380.542    79.976144 
   89000    2055.6417   -117.98702    1.8599878   -116.12703   -54392.314    4.3159697    4.3159697    4.3159697   -54392.314   -34820.561   -98175.637   -30180.744    49867.313   -7751.0854   -5978.4977    80.396133 
   89100    2010.3859   -117.92613    1.8190394   -116.10709   -18152.151    4.2979262    4.2979262    4.2979262   -18152.151   -5312.8133   -38920.652   -10222.987    32120.749   -12186.943    12588.579     79.39202 
   89200    2767.0759   -118.58706    2.5037085   -116.08335     8814.269    4.2823944    4.2823944    4.2823944     8814.269    21750.186    32744.129   -28051.508   -9789.6479    3365.2767   -9340.4122    78.534409 
   89300    1102.2531   -117.13678   0.99734172   -116.13944    24738.116    4.2878037    4.2878037    4.2878037    24738.116    7897.1082   -9345.7043    75662.944    75765.525   -10144.946    2762.3386    78.832389 
   89400    2742.4919   -118.59841    2.4814643   -116.11695   -20463.331    4.3060909    4.3060909    4.3060909   -20463.331   -31402.884    2007.8811    -31994.99   -12297.137   -12919.228    18416.236    79.845339 
   89500    1820.3658   -117.75924    1.6471052   -116.11214    25133.608     4.310641     4.310641     4.310641    25133.608   -8076.2155    44530.043    38946.997    7468.0507   -4509.3613   -28216.299    80.098719 
   89600    1478.1519   -117.43557    1.3374629   -116.09811    35373.006    4.3140588    4.3140588    4.3140588    35373.006    34944.482   -15694.577    86869.113    42859.966    25250.422   -31796.484    80.289394 
   89700    2642.5154   -118.46873    2.3910034   -116.07772   -28983.236    4.3373807    4.3373807    4.3373807   -28983.236   -49152.377   -34202.479   -3594.8514   -29458.169    11683.361    9860.9329    81.598583 
   89800    2165.9959     -118.016    1.9598386   -116.05616   -4720.5865    4.3288386    4.3288386    4.3288386   -4720.5865    11636.707   -35373.872    9575.4052    17494.589   -5008.7085   -30771.491    81.117429 
   89900    2250.6921   -118.06374    2.0364735   -116.02727     9577.889    4.2966053    4.2966053    4.2966053     9577.889    9710.1401   -19501.922    38525.449    24678.739     2496.764   -21806.585    79.318845 
   90000    1889.5068   -117.77264    1.7096655   -116.06298    29728.039    4.2806957    4.2806957    4.2806957    29728.039    49370.271    30399.276    9414.5688   -9581.1473    47788.738     7763.266     78.44099 
   90100    1689.8425   -117.64049     1.529005   -116.11148    11780.117     4.285779     4.285779     4.285779    11780.117    80790.204   -33358.033   -12091.821    32337.304   -12389.561   -15925.608    78.720769 
   90200    1972.1672   -117.92308    1.7844584   -116.13862    4720.2325    4.2951838    4.2951838    4.2951838    4720.2325    14075.806   -6912.8759    6997.7669    19026.098    9369.7353   -35924.937    79.240147 
   90300    2352.7053   -118.26777    2.1287772   -116.13899   -10072.207    4.3117123    4.3117123    4.3117123   -10072.207    17342.398    16961.165   -64520.184    -7457.637    11589.126    36496.733    80.158452 
   90400    1746.1169     -117.692    1.5799233   -116.11208   -21165.071    4.3118929    4.3118929    4.3118929   -21165.071     45096.81   -43652.654   -64939.369    25543.696    7327.6723    30814.608    80.168525 
   90500    2452.5182   -118.29493      2.21909   -116.07584   -12288.949    4.2950427    4.2950427    4.2950427   -12288.949    3610.0933    1564.1976   -42041.137    4989.9978   -1215.5443   -27622.025    79.232337 
   90600    2096.1336   -117.99506    1.8966257   -116.09843    40501.494    4.2891128    4.2891128    4.2891128    40501.494    42880.675    53212.461    25411.347   -8154.2903     6658.157    28385.209    78.904615 
   90700    1128.4248   -117.15486    1.0210224   -116.13384    2133.6991     4.310662     4.310662     4.310662    2133.6991    40378.314   -32142.321   -1834.8949    35830.155    17446.096    17426.082    80.099887 
   90800     2482.589   -118.33753    2.2462987   -116.09124   -30897.516     4.338607     4.338607     4.338607   -30897.516    -52368.71   -44796.533    4472.6952   -16736.546     -4496.72    2685.7448    81.667815 
   90900    1904.0546   -117.78607    1.7228286   -116.06324   -19610.056    4.3369964    4.3369964    4.3369964   -19610.056   -54251.055   -1605.1725   -2973.9406    30904.502     27027.01   -12154.646    81.576898 
   91000    1952.8845   -117.81031     1.767011    -116.0433   -22991.574    4.3113802    4.3113802    4.3113802   -22991.574   -14082.256   -43309.068     -11583.4    49134.709   -7582.1231    18772.879     80.13993 
   91100    3340.6218   -119.05472    3.0226648   -116.03205    16673.811     4.283745     4.283745     4.283745    16673.811    11425.174    36406.034    2190.2237   -14032.386    9877.9704    -4313.215    78.608742 
   91200    1503.7963   -117.46307    1.3606665   -116.10241   -14154.639    4.2949729    4.2949729    4.2949729   -14154.639    -55699.42    -40455.95    53691.453    57651.046   -2410.6275   -4331.7946     79.22847 
   91300     1605.218    -117.5677     1.452435   -116.11527     -33090.7    4.2984823    4.2984823    4.2984823     -33090.7   -55411.476   -17740.017   -26120.607    20960.436   -7289.6244    7565.7406    79.422843 
   91400    2547.0623    -118.4072    2.3046355   -116.10257   -21693.537    4.2966554    4.2966554    4.2966554   -21693.537   -10535.805    -34397.56   -20147.246    -33866.07   -4267.0074    -4404.082    79.321618 
   91500    954.81828   -116.99456   0.86393964   -116.13062   -3613.2861    4.2938448    4.2938448    4.2938448   -3613.2861    63437.993   -100803.09    26525.236    24791.299   -11485.631   -12166.849    79.166057 
   91600    2491.8218    -118.3892    2.2546528   -116.13455   -6721.0305    4.2838335    4.2838335    4.2838335   -6721.0305    63978.199   -78213.976   -5927.3145    7058.2153    8625.2429    78.502608    78.613609 
   91700    2524.8035    -118.4171    2.2844953    -116.1326    30114.867    4.2807378    4.2807378    4.2807378    30114.867    90746.175    4759.6707   -5161.2435   -15192.779    13245.748   -557.84313    78.443305 
   91800    1419.5797    -117.4427    1.2844656   -116.15823   -37274.146    4.2972183    4.2972183    4.2972183   -37274.146    -72816.01    -47212.37     8205.943     52089.66   -7178.3132   -6784.1679    79.352798 
   91900    1869.2194   -117.83277     1.691309   -116.14146   -10202.867    4.2970967    4.2970967    4.2970967   -10202.867   -49632.691   -16934.799    35958.889    23891.247    6292.5463   -893.29124    79.346064 
   92000     2594.269   -118.46425    2.3473491    -116.1169    15698.852    4.2939471    4.2939471    4.2939471    15698.852   -5837.9812     28357.41    24577.127     -9941.13   -11482.964    1137.7524    79.171715 
   92100    1175.6269   -117.20442    1.0637319   -116.14069      33305.9    4.3003249    4.3003249    4.3003249      33305.9   -29632.211    56023.916    73525.996    75170.773   -15276.009   -7832.3547    79.525025 
   92200    2776.3003   -118.62556    2.5120548    -116.1135   -33721.215    4.3083605    4.3083605    4.3083605   -33721.215    8789.2779   -45158.358   -64794.566    -13135.66    4115.1847    1681.8895    79.971661 
   92300    2116.2821   -118.02462    1.9148565   -116.10977    23614.386    4.2975968    4.2975968    4.2975968    23614.386   -8148.0944   -14640.184    93631.437   -14419.529   -3669.8302    27606.366    79.373768 
   92400    1140.9607    -117.1515    1.0323652   -116.11914     40334.23      4.28805      4.28805      4.28805     40334.23    56363.675   -49525.528    114164.54    46287.485   -32493.981   -48.401496    78.845975 
   92500    2071.2315   -118.00342    1.8740938   -116.12933    2018.2969     4.296465     4.296465     4.296465    2018.2969    53681.332    -41849.94   -5776.5008   -3522.3141    3277.0756   -38381.379    79.311076 
   92600    2268.9898   -118.17457    2.0530297   -116.12154   -13790.767    4.3147618    4.3147618    4.3147618   -13790.767    1571.8266   -40275.617   -2668.5107   -7603.2671   -8642.1826    9586.3153     80.32865 
   92700     1451.258   -117.41746    1.3131287   -116.10433    -15895.88    4.3288992    4.3288992    4.3288992    -15895.88    -28025.44   -88600.023    68937.822    26912.271   -12872.858   -10493.907    81.120836 
   92800    2473.2335   -118.31202    2.2378336   -116.07419   -20144.202    4.3219776    4.3219776    4.3219776   -20144.202    30145.649   -57366.402   -33211.854   -9519.6403    21586.087   -25154.819    80.732339 
   92900     2037.125   -117.90502    1.8432335   -116.06179   -26617.392    4.3030119    4.3030119    4.3030119   -26617.392    25500.709   -48735.354    -56617.53   -13897.354     2529.183    51381.902    79.674187 
   93000    2344.7617   -118.19013    2.1215897   -116.06854   -16134.183    4.2863123    4.2863123    4.2863123   -16134.183   -32915.557   -29232.986    13745.993    24917.763   -11018.554   -17900.125    78.750159 
   93100    1911.3684   -117.85154    1.7294463   -116.12209   -1551.9756    4.3048933    4.3048933    4.3048933   -1551.9756    43217.828   -27047.424    -20826.33   -6019.3886   -1628.5488    13710.952    79.778742 
   93200    1184.6431   -117.18374      1.07189   -116.11185    3047.8864    4.3239261    4.3239261    4.3239261    3047.8864    13526.461    -11418.38    7035.5779   -20062.692   -15578.347    15161.492    80.841581 
   93300    2402.7879   -118.24015     2.174093   -116.06606    -4475.389    4.3236544    4.3236544    4.3236544    -4475.389   -8950.7653   -30251.959    25776.557    19923.745   -15689.399    -15381.75    80.826341 
   93400    2156.8897   -118.00779    1.9515992    -116.0562     7426.906    4.3159801    4.3159801    4.3159801     7426.906    35968.805   -17967.701    4279.6142   -8499.5731    12711.765    69717.844    80.396712 
   93500    2904.7929   -118.65075    2.6283176   -116.02243   -2827.0135    4.3118235    4.3118235    4.3118235   -2827.0135    -11227.34    29109.268   -26362.969   -8432.1351   -8451.4179    -14800.12    80.164652 
   93600    1305.9417   -117.25888    1.1816435   -116.07723     29251.55    4.3438097    4.3438097    4.3438097     29251.55    112433.26   -48122.336    23443.727    19316.217     31181.83    769.53849    81.961968 
   93700    2506.8912   -118.26535    2.2682878   -115.99707   -65687.172    4.3695236    4.3695236    4.3695236   -65687.172   -66680.133   -17612.783    -112768.6   -13024.342   -22266.048    11066.564    83.426161 
   93800    1032.1667   -116.88441   0.93392611   -115.95048     57795.52    4.3603373    4.3603373    4.3603373     57795.52    125092.61   -1283.6303     49577.58    6092.3216    32004.628   -11671.966    82.901093 
   93900    2867.7483    -118.4703    2.5947989    -115.8755   -76484.351    4.3528321    4.3528321    4.3528321   -76484.351   -94696.442       -70665   -64091.612   -1458.0007   -16694.241    20705.718    82.473754 
   94000    819.47574   -116.65869   0.74147887   -115.91721    32375.696    4.3441213    4.3441213    4.3441213    32375.696    110957.87    13148.221   -26978.999    7411.7327    7438.0797    -66974.31    81.979608 
   94100    2670.3604   -118.33106    2.4161982   -115.91486   -20762.809    4.3264668    4.3264668    4.3264668   -20762.809    -26928.15   -50678.494    15318.218   -5577.2868    -5978.504    40025.187    80.984168 
   94200    1110.3102   -117.01218     1.004632   -116.00755   -1288.5898     4.314661     4.314661     4.314661   -1288.5898    35902.106   -32517.455   -7250.4201   -4621.7975   -24945.869   -115684.73     80.32302 
   94300    3345.5954   -119.04375     3.027165   -116.01659    2886.3067    4.3009704    4.3009704    4.3009704    2886.3067    29619.155   -18284.459   -2675.7763    31603.024    16835.652    39932.929    79.560842 
   94400    1419.0451   -117.37313    1.2839818   -116.08915      40656.7    4.3009066    4.3009066    4.3009066      40656.7    130536.01    -21034.25    12468.343    8494.9099    -5048.084   -85170.859    79.557301 
   94500    2744.1611   -118.55677    2.4829746   -116.07379   -39104.383    4.3225144    4.3225144    4.3225144   -39104.383    -51527.02   -28100.433   -37685.697    2665.0816   -9525.8298    19384.828    80.762423 
   94600    955.28789   -116.92838   0.86436455   -116.06401    15579.478    4.3230323    4.3230323    4.3230323    15579.478    29015.254    26795.103   -9071.9238    4391.0216    -5116.156   -73278.908    80.791456 
   94700     2406.577   -118.18973    2.1775214   -116.01221   -24553.429     4.318881     4.318881     4.318881   -24553.429   -18627.234   -28232.805   -26800.249    3319.5561    6519.9143    13892.708    80.558932 
   94800    1334.4408   -117.23848    1.2074301   -116.03105   -25976.047    4.3088161    4.3088161    4.3088161   -25976.047    1549.1649   -67556.965    -11920.34    14194.885    925.69944    -85418.34    79.997032 
   94900    2391.9179   -118.19782    2.1642576   -116.03356    5581.6227    4.2910467    4.2910467    4.2910467    5581.6227    26690.247   -23099.726    13154.347    4742.7087    4446.9769   -44042.458    79.011396 
   95000    2650.6538   -118.45006    2.3983673   -116.05169   -17085.127    4.2937142    4.2937142    4.2937142   -17085.127   -29451.336   -44570.034    22765.988    1207.3856    7212.5864   -21068.187    79.158839 
   95100    818.90091   -116.84326   0.74095875    -116.1023   -3667.5387    4.2954728    4.2954728    4.2954728   -3667.5387    23992.815   -54471.895    19476.464    2650.0749   -1045.3639   -110917.73    79.256138 
   95200    2934.6289   -118.72982    2.6553139    -116.0745   -19940.124    4.2985542    4.2985542    4.2985542   -19940.124   -63737.322    5177.1646   -1260.2134    10467.757    3183.5775    58735.321    79.426829 
   95300    1246.0179    -117.2323    1.1274232   -116.10488   -31993.957    4.3097051    4.3097051    4.3097051   -31993.957   -2633.5145   -4449.4381   -88898.918   -9313.3364    4276.4418   -110091.34     80.04656 
   95400    2631.8416   -118.44455    2.3813456    -116.0632   -5222.8052    4.2959897    4.2959897    4.2959897   -5222.8052   -7199.4422   -34200.848    25731.875    -8215.031   -4973.3596   -18254.747    79.284759 
   95500    2025.9501   -117.92366    1.8331222   -116.09053   -22826.734    4.3025525    4.3025525    4.3025525   -22826.734    60203.297   -46737.063   -81946.435    1032.5807     2951.369   -20679.415    79.648672 
   95600    1576.9705   -117.52446     1.426876   -116.09759   -33877.867    4.2980603    4.2980603    4.2980603   -33877.867    68333.576   -65344.413   -104622.76    8564.3222    6700.6576   -86312.273    79.399456 
   95700    3176.1139   -118.92236    2.8738146   -116.04854   -18967.516    4.2839797    4.2839797    4.2839797   -18967.516   -31871.625   -10229.765   -14801.157   -4387.0176    921.89526    27202.625    78.621663 
   95800    510.76811   -116.56897   0.46215372   -116.10682   -34684.997    4.3020253    4.3020253    4.3020253   -34684.997      52304.5   -81785.717   -74573.774    3529.5956    4609.2203   -128298.12    79.619397 
   95900    2824.8753   -118.60519    2.5560066   -116.04918   -12711.559     4.294599     4.294599     4.294599   -12711.559    1502.6016   -13857.869    -25779.41     21452.44    19070.996    23083.346    79.207784 
   96000    1570.9485   -117.51594    1.4214272   -116.09451    1076.7965    4.3062915    4.3062915    4.3062915    1076.7965    58526.338    6914.6957   -62210.644    9106.7661        26345   -50976.642    79.856502 
   96100    2845.5836   -118.62601    2.5747438   -116.05127    -52865.45    4.3196389    4.3196389    4.3196389    -52865.45   -25544.621   -84346.987   -48704.741   -26409.031    3301.4534   -4759.2058    80.601355 
   96200    1428.4722   -117.34223    1.2925116   -116.04972    10353.302    4.3155263    4.3155263    4.3155263    10353.302    51826.184   -35647.859    14881.582    8592.0433   -3526.1121   -50187.965    80.371359 
   96300    2507.2717   -118.29496    2.2686321   -116.02633    -17059.43    4.3153047    4.3153047    4.3153047    -17059.43    21932.171   -36177.034   -36933.425    14717.374    650.83484   -5111.5343    80.358978 
   96400    1626.1271   -117.49858    1.4713539   -116.02723    24676.557    4.2946302    4.2946302    4.2946302    24676.557    15918.983    54867.972    3242.7144   -14156.857   -4407.1433    18391.535     79.20951 
   96500    2084.8077   -117.95248    1.8863778    -116.0661   -12649.418    4.2922233    4.2922233    4.2922233   -12649.418    792.76569   -20660.395   -18080.626    5376.2353   -10161.777   -81972.795    79.076406 
   96600    2308.4181   -118.17041    2.0887052    -116.0817   -3284.5249    4.2889617    4.2889617    4.2889617   -3284.5249    18149.645   -16344.946   -11658.274    18121.504    12942.198     67149.89    78.896275 
   96700    1370.5461   -117.36281    1.2400989   -116.12271    25770.524    4.2938109    4.2938109    4.2938109    25770.524    31328.721    10485.727    35497.123   -9516.6868    16398.246    50357.852    79.164186 
   96800     2785.025   -118.60411    2.5199492   -116.08416   -19772.376    4.3038022    4.3038022    4.3038022   -19772.376   -10647.045   -38883.263   -9786.8205     3162.334   -5432.2807   -19627.655    79.718096 
   96900    1442.3982   -117.38544    1.3051122   -116.08033    8670.5404    4.3099665    4.3099665    4.3099665    8670.5404    64644.276   -8338.3068   -30294.348   -4096.1433    698.76101    72425.216    80.061126 
   97000    2296.0402   -118.11222    2.0775054   -116.03472   -47532.053    4.3264534    4.3264534    4.3264534   -47532.053   -69637.997   -58279.626   -14678.537    3924.3074    4512.9403   -22372.623    80.983418 
   97100    1549.9139      -117.42    1.4023947    -116.0176    4069.0772    4.3209075    4.3209075    4.3209075    4069.0772    55416.009   -18936.363   -24272.414   -15176.601   -6232.3089    61514.093     80.67239 
   97200    2586.9224   -118.34774    2.3407017   -116.00704    20250.645    4.3123983    4.3123983    4.3123983    20250.645   -2654.2521    30673.372    32732.814    11647.655    -35248.25    -29647.51    80.196718 
   97300    1406.3202   -117.31558    1.2724681   -116.04311    4485.0236    4.3131318    4.3131318    4.3131318    4485.0236    39298.518    -35230.18    9386.7331   -4030.4942    5996.4253    74371.397    80.237647 
   97400    2674.4983   -118.44495    2.4199422   -116.02501   -9241.9183    4.2985893    4.2985893    4.2985893   -9241.9183    6525.2614   -45566.916      11315.9   -5419.2669    4182.8775    19325.394    79.428772 
   97500    1657.2549   -117.57526    1.4995191   -116.07574    60797.199     4.292699     4.292699     4.292699    60797.199    72584.701    63521.948    46284.948    16841.006   -34719.901    -676.9018      79.1027 
   97600    1773.6209   -117.69065    1.6048094   -116.08584   -37819.381    4.3214913    4.3214913    4.3214913   -37819.381   -28512.094   -70924.274   -14021.776    7038.6385    8050.1766     67964.79    80.705089 
   97700    2730.3173   -118.51157    2.4704485   -116.04112   -15237.177    4.3169699    4.3169699    4.3169699   -15237.177   -11327.056    9660.1602   -44044.635   -20294.983    9242.6847   -40686.049    80.452038 
   97800    1170.8238   -117.12648     1.059386    -116.0671    2646.8869    4.3075138    4.3075138    4.3075138    2646.8869     98893.64   -53190.552   -37762.428    22318.581   -27229.514    56852.204     79.92452 
   97900    2954.6647   -118.72052    2.6734427   -116.04708   -31993.996    4.3022004    4.3022004    4.3022004   -31993.996   -39138.174    -26604.47   -30239.344   -9314.8416    37166.983   -5438.9183    79.629117 
   98000    602.96988   -116.63426   0.54557982   -116.08868     43551.23    4.3153561    4.3153561    4.3153561     43551.23    18040.473    34588.298    78024.918   -1551.4096   -30861.386    24161.781    80.361846 
   98100    2353.8045   -118.17702    2.1297717   -116.04725   -39629.127    4.3443024    4.3443024    4.3443024   -39629.127   -90917.299   -69577.385    41607.302    485.25442    6934.5808   -8582.7239    81.989861 
   98200    1496.1816   -117.38625    1.3537765   -116.03247   -47345.559    4.3563664    4.3563664    4.3563664   -47345.559    47197.424     -46439.8    -142794.3    5348.8538   -3712.1216   -11821.837    82.674809 
   98300    2329.3251   -118.10155    2.1076223   -115.99393    -5381.566    4.3179665    4.3179665    4.3179665    -5381.566   -8493.5263    27790.392   -35441.564   -2877.6191   -20319.872    29929.201     80.50777 
   98400    2583.1001    -118.3342    2.3372432   -115.99696     -11284.3    4.2902918    4.2902918    4.2902918     -11284.3   -20329.997    36546.071   -50068.975   -9177.2735    23047.736   -19517.451    78.969703 
   98500    1816.7363   -117.72434    1.6438212   -116.08052    11495.749    4.2781337    4.2781337    4.2781337    11495.749    46420.526    50173.809   -62107.087   -16573.735   -24849.616   -9098.2925    78.300234 
   98600    2060.9158   -118.00054      1.86476   -116.13578   -12410.248    4.2936142    4.2936142    4.2936142   -12410.248    31446.028    18125.738   -86802.509    16469.038   -3117.4793   -7051.8374    79.153306 
   98700    1705.4953   -117.69474     1.543168   -116.15157   -49657.612    4.3176566    4.3176566    4.3176566   -49657.612   -30858.569   -6527.7793   -111586.49   -27702.478    68481.012    6341.6642     80.49044 
   98800     2224.534   -118.12084    2.0128051   -116.10803   -24409.567    4.3079445    4.3079445    4.3079445   -24409.567    106.88312   -60796.263    -12539.32   -17029.034   -22013.798   -44849.446    79.948497 
   98900    2124.6579   -118.01143    1.9224351   -116.08899    20098.594    4.2980299    4.2980299    4.2980299    20098.594   -4865.1529   -342.99039    65503.926    11814.184    19394.133    -16547.75     79.39777 
   99000    2035.8699   -117.95217    1.8420978   -116.11008   -5167.4902    4.3064157    4.3064157    4.3064157   -5167.4902   -26574.749    -17912.01    28984.288   -1801.9761    55900.712    21865.761    79.863409 
   99100    1909.2116    -117.8376    1.7274948    -116.1101   -24213.086    4.3123891    4.3123891    4.3123891   -24213.086   -11445.152   -65814.402    4620.2953   -25167.019    -15819.18    -38309.12    80.196204 
   99200    2496.6531   -118.33839    2.2590242   -116.07936   -26134.223    4.2946723    4.2946723    4.2946723   -26134.223   -25896.027   -22684.894    -29821.75    10338.366    14537.821   -2815.1866     79.21184 
   99300    1213.4056   -117.20924    1.0979149   -116.11133    14392.166    4.2930645    4.2930645    4.2930645    14392.166    21013.899    14424.733    7737.8667   -1890.0558    25737.818    13847.209    79.122907 
   99400    1574.1316   -117.54124    1.4243074   -116.11694    -2739.397    4.3032507    4.3032507    4.3032507    -2739.397    41855.079   -55180.438    5107.1679   -27278.088   -5284.5211    -10260.79    79.687455 
   99500    2613.6034   -118.46726    2.3648433   -116.10241   -27627.941    4.3035408    4.3035408    4.3035408   -27627.941   -46989.757    -21410.43   -14483.636    5961.2174    12218.655    29283.932    79.703571 
   99600    1681.2156   -117.64153    1.5211992   -116.12033   -11372.639      4.30848      4.30848      4.30848   -11372.639   -72315.585    37014.266    1183.4017   -2627.6328    2818.1343    11490.511    79.978315 
   99700     2804.797   -118.62557    2.5378393   -116.08773   -18447.222    4.3009352    4.3009352    4.3009352   -18447.222   -77771.059   -23692.531    46121.923   -4165.6907   -18134.701   -11494.302    79.558885 
   99800    2233.9028   -118.11347    2.0212822   -116.09219   -11454.099    4.2916632    4.2916632    4.2916632   -11454.099   -1248.1535    -1283.632   -31830.511    9119.1567    4584.9077   -1471.5771    79.045456 
   99900    810.84221    -116.8731   0.73366707   -116.13943    6780.0999    4.2964243    4.2964243    4.2964243    6780.0999    -37486.93     66497.02   -8669.7907    137.96241    -11525.79    33314.707    79.308818 
  100000    2481.7022    -118.3565    2.2454963     -116.111   -9203.1872    4.3023954    4.3023954    4.3023954   -9203.1872   -23566.917    10740.655     -14783.3   -12165.787   -2523.1026    -20321.43    79.639947 
Loop time of 221.505 on 1 procs for 100000 steps with 8 atoms

Pair  time (%) = 72.8821 (32.9031)
Kspce time (%) = 54.0277 (24.3912)
Neigh time (%) = 1.85297 (0.836537)
Comm  time (%) = 11.4712 (5.17874)
Outpt time (%) = 0.337953 (0.152571)
Other time (%) = 80.9333 (36.5379)

Nlocal:    8 ave 8 max 8 min
Histogram: 1 0 0 0 0 0 0 0 0 0
Nghost:    2189 ave 2189 max 2189 min
Histogram: 1 0 0 0 0 0 0 0 0 0
Neighs:    2248 ave 2248 max 2248 min
Histogram: 1 0 0 0 0 0 0 0 0 0

Total # of neighbors = 2248
Ave neighs/atom = 281
Neighbor list builds = 3057
Dangerous builds = 0
unfix 20
unfix 21
print "seeds:3365413"
seeds:3365413
