LAMMPS (10 Feb 2015)
# ---- initialize simulations
clear
units metal
dimension 3
boundary p p p
atom_style charge
atom_modify map array
# ---- create atoms
read_data /Users/eugeneragasa/pyflamestk_git/pypospack/tests/tests_integration/workflow/WorkflowLammpsThermalExpansion/param_1256/MgO_NaCl_unit.npt.T500/lammps.structure
  triclinic box = (0 0 0) to (4.2565 4.2565 4.2565) with tilt (0 0 0)
  1 by 1 by 1 MPI processor grid
  reading atoms ...
  8 atoms
# ---- define interatomic potential
include potential.mod
mass 1 24.305
mass 2 15.999

group Mg type 1
4 atoms in group Mg
group O type 2
4 atoms in group O

set group Mg charge 1.66039996869
  4 settings made for charge
set group O charge -1.66039996869
  4 settings made for charge

variable R_cut equal 10.0

pair_style buck/coul/long ${R_cut}
pair_style buck/coul/long 10
pair_coeff 1 1 0.0 0.5 0.0 ${R_cut}
pair_coeff 1 1 0.0 0.5 0.0 10
pair_coeff 1 2 1528.2261267 0.282600919639 0.0 ${R_cut}
pair_coeff 1 2 1528.2261267 0.282600919639 0.0 10
pair_coeff 2 2 6677.06285722 0.138925130231 8.13419383626 ${R_cut}
pair_coeff 2 2 6677.06285722 0.138925130231 8.13419383626 10

kspace_style pppm 1.0e-5

neighbor 1.0 bin
neigh_modify every 1 delay 0 check yes
# ---- define settings
compute eng all pe/atom
compute eatoms all reduce sum c_eng
# ---- run minimization
reset_timestep 0
fix 1 all box/relax iso 0.0 vmax 0.001
thermo 10
thermo_style custom step pe lx ly lz xy xz yz press pxx pyy pzz pxy pxz pyz c_eatoms
min_style cg
minimize 1e-25 1e-25 5000 10000
PPPM initialization ...
  G vector (1/distance) = 0.352851
  grid = 8 8 8
  stencil order = 5
  estimated absolute RMS force accuracy = 3.9608e-05
  estimated relative force accuracy = 2.75062e-06
  using double precision FFTs
  3d grid and FFT values/proc = 3375 512
Neighbor list info ...
  1 neighbor list requests
  update every 1 steps, delay 0 steps, check yes
  master list distance cutoff = 11
Memory usage per processor = 4.06549 Mbytes
Step PotEng Lx Ly Lz Xy Xz Yz Press Pxx Pyy Pzz Pxy Pxz Pyz eatoms 
       0   -110.92329       4.2565       4.2565       4.2565            0            0            0    120138.29    120138.29    120138.29    120138.29 1.5343687e-10 -1.0407196e-10 -1.3145771e-10   -110.92329 
      10   -111.05478     4.299065     4.299065     4.299065            0            0            0    61836.089    61836.089    61836.089    61836.089 1.0666232e-10 -5.0344756e-11 -1.3613158e-10   -111.05478 
      20   -111.10767      4.34163      4.34163      4.34163            0            0            0    10591.608    10591.608    10591.608    10591.608 -1.2465538e-10 -9.1160209e-12 2.8254225e-10   -111.10767 
      25   -111.10952     4.351169     4.351169     4.351169            0            0            0   -6.6622077   -6.6622077   -6.6622077   -6.6622077 -1.5540302e-10 -3.5403029e-11 3.0098099e-10   -111.10952 
Loop time of 0.0138791 on 1 procs for 25 steps with 8 atoms

Minimization stats:
  Stopping criterion = linesearch alpha is zero
  Energy initial, next-to-last, final = 
        -110.923293971     -111.109518965     -111.109518965
  Force two-norm initial, final = 17.348 0.0010058
  Force max component initial, final = 17.348 0.0010053
  Final line search alpha, max atom move = 0.00777135 7.8125e-06
  Iterations, force evaluations = 25 41

Pair  time (%) = 0.00375605 (27.0627)
Kspce time (%) = 0.00219393 (15.8075)
Neigh time (%) = 0 (0)
Comm  time (%) = 0.00041914 (3.01994)
Outpt time (%) = 3.19481e-05 (0.230189)
Other time (%) = 0.007478 (53.8797)

Nlocal:    8 ave 8 max 8 min
Histogram: 1 0 0 0 0 0 0 0 0 0
Nghost:    2189 ave 2189 max 2189 min
Histogram: 1 0 0 0 0 0 0 0 0 0
Neighs:    2344 ave 2344 max 2344 min
Histogram: 1 0 0 0 0 0 0 0 0 0

Total # of neighbors = 2344
Ave neighs/atom = 293
Neighbor list builds = 0
Dangerous builds = 0
unfix 1
# ---- define output variables ----
variable natoms equal "count(all)"
variable tot_energy equal "c_eatoms"
variable length_x equal "lx"
variable length_y equal "ly"
variable length_z equal "lz"
variable tilt_xy equal "xy"
variable tilt_xz equal "xz"
variable tilt_yz equal "yz"
variable tot_press equal "press"
variable press_xx equal "pxx"
variable press_yy equal "pyy"
variable press_zz equal "pzz"
variable press_xy equal "pxy"
variable press_xz equal "pxz"
variable press_yz equal "pyz"

# ---- output ----
print "pypospack:output_section:begin"
pypospack:output_section:begin
print "tot_energy = ${tot_energy}"
tot_energy = -111.109518965105
print "num_atoms = ${natoms}"
num_atoms = 8
print "xx = ${length_x}"
xx = 4.35116899821938
print "yy = ${length_y}"
yy = 4.35116899821938
print "zz = ${length_z}"
zz = 4.35116899821938
print "xy = ${tilt_xy}"
xy = 0
print "xz = ${tilt_xz}"
xz = 0
print "yz = ${tilt_yz}"
yz = 0
print "tot_press = ${tot_press}"
tot_press = -6.66220766530753
print "pxx = ${press_xx}"
pxx = -6.66220766529406
print "pyy = ${press_yy}"
pyy = -6.66220766581444
print "pzz = ${press_zz}"
pzz = -6.6622076648141
print "pxy = ${press_xy}"
pxy = -1.55403020158447e-10
print "pxz = ${press_xz}"
pxz = -3.54030294322521e-11
print "pyz = ${press_yz}"
pyz = 3.00980987063428e-10
print "pypospack:output_section:done"
pypospack:output_section:done
print "pypospack:lammps_sim:done"
pypospack:lammps_sim:done
#------------------------------------------------------------------------------
# RUN THERMOSTAT
# running using an NPT Nose-Hoover style thermostat
#------------------------------------------------------------------------------
variable tempdamp equal 0.1
variable pressdamp equal 1.0
# set initial velocities
velocity all create 500 7044949 mom yes dist gaussian loop all
# fix for Nose-Hoover style thermostat
fix 20 all npt temp 500 500 0.1 aniso 0.0 0.0 1.0 drag 1.0 couple xyz
variable boxx equal lx
variable boxy equal ly
variable boxz equal lz
variable boxp equal press
variable boxt equal temp
# calculate averages every 10000 steps
reset_timestep 0
fix 21 all ave/time 10 10 100 v_boxx v_boxy v_boxz v_boxp v_boxt file lattice.out
thermo_style custom step temp pe ke etotal press lx ly lz press pxx pyy pzz pxy pxz pyz vol
thermo_modify flush yes
thermo 100
run 100000
PPPM initialization ...
  G vector (1/distance) = 0.351894
  grid = 8 8 8
  stencil order = 5
  estimated absolute RMS force accuracy = 4.14019e-05
  estimated relative force accuracy = 2.8752e-06
  using double precision FFTs
  3d grid and FFT values/proc = 3375 512
Memory usage per processor = 3.06549 Mbytes
Step Temp PotEng KinEng TotEng Press Lx Ly Lz Press Pxx Pyy Pzz Pxy Pxz Pyz Volume 
       0          500   -111.10953   0.45241051   -110.65712    5857.0447     4.351169     4.351169     4.351169    5857.0447    5503.1847    4570.5851    7497.3642   -3225.7728     468.5224    837.34381    82.379254 
     100    125.72745   -110.70695   0.11376084   -110.59318    536.94578    4.3746522    4.3746522    4.3746522    536.94578    -4698.341   -4380.9417     10690.12    664.16932    2783.3914    -549.7243    83.720262 
     200    384.14796    -110.8181   0.34758515   -110.47052    -3102.486    4.3704568    4.3704568    4.3704568    -3102.486   -866.72368   -10001.857    1561.1225   -312.57162   -2157.2535   -1482.4297    83.479628 
     300    473.66824   -110.79572   0.42858498   -110.36713    14786.647    4.3637224    4.3637224    4.3637224    14786.647    20531.958   -905.28522    24733.267    2619.9805   -3895.5606    1767.4448    83.094319 
     400    270.67407   -110.53142   0.24491159   -110.28651   -6616.1022    4.3865621    4.3865621    4.3865621   -6616.1022   -11935.624   -7855.6115   -57.071145    982.88399    5469.0146   -3615.1524     84.40591 
     500      624.441   -110.79336   0.56500734   -110.22835   -6034.7416    4.3712815    4.3712815    4.3712815   -6034.7416   -8192.2087    -9342.575   -569.44115    2319.4298    6560.6702   -1259.1797    83.526895 
     600    600.28095   -110.74756   0.54314682   -110.20441    9846.9586    4.3733835    4.3733835    4.3733835    9846.9586   -2256.0755    2838.0106    28958.941    2757.4684   -5060.9723   -463.67976    83.647444 
     700    391.12072   -110.55316   0.35389425   -110.19927   -13497.009    4.3899356    4.3899356    4.3899356   -13497.009   -22566.842   -12508.234   -5415.9506   -4732.1171    3914.9267   -2075.2563    84.600795 
     800    556.21602   -110.69782   0.50327594   -110.19454    6271.8674    4.3662485    4.3662485    4.3662485    6271.8674    14950.565   -1814.6002    5679.6379    1800.5478    1840.4002   -397.35538    83.238709 
     900    428.83094   -110.58772   0.38801525   -110.19971    4520.9981    4.3837794    4.3837794    4.3837794    4520.9981    -8252.436   -4466.1242    26281.555   -5504.1278    308.08823    521.29026    84.245377 
    1000    459.92909    -110.6174    0.4161535   -110.20125   -11997.057    4.3807392    4.3807392    4.3807392   -11997.057    1087.8061   -16708.789   -20370.187    217.76942    7104.3871    -4418.806    84.070224 
    1100    461.01738   -110.61683   0.41713821   -110.19969    10994.723    4.3689397    4.3689397    4.3689397    10994.723   -6195.3043    973.76148    38205.712   -722.79119   -6882.8206   -817.22966    83.392723 
    1200     686.4795   -110.81994   0.62114108    -110.1988   -11074.379    4.3867079    4.3867079    4.3867079   -11074.379    -10614.33   -16813.944   -5794.8616   -1355.2856    2849.1996    1406.9971    84.414323 
    1300    421.86337   -110.58303   0.38171084   -110.20132   -4049.1651    4.3746391    4.3746391    4.3746391   -4049.1651   -7827.3773   -15093.147    10773.029     1644.479   -6332.7068    -4057.539    83.719515 
    1400    348.18007    -110.5189   0.31504064   -110.20386    11267.501    4.3746376    4.3746376    4.3746376    11267.501    10626.316   -4220.7028     27396.89   -2014.7239    4093.8849    2034.9877    83.719429 
    1500    680.28177   -110.81794   0.61553324   -110.20241    -8180.509    4.3830596    4.3830596    4.3830596    -8180.509    4668.3407   -22518.877   -6690.9903    2934.9933     2026.569   -925.90138    84.203885 
    1600     399.4797    -110.5663   0.36145763   -110.20484    907.98292    4.3744892    4.3744892    4.3744892    907.98292    6339.0679   -13956.779     10341.66     181.3379    1882.6213   -3073.8117    83.710908 
    1700     461.4449   -110.62464   0.41752505   -110.20712    5312.3602    4.3772302    4.3772302    4.3772302    5312.3602   -2826.3964   -8977.3049    27740.782    1311.1695   -3270.6158    942.13031     83.86836 
    1800    716.61372   -110.85474   0.64840715   -110.20633   -11878.386     4.381407     4.381407     4.381407   -11878.386   -13314.055    -17011.81    -5309.294   -1434.5092    1485.2286    458.43687    84.108675 
    1900     287.1903   -110.46839   0.25985582   -110.20853     5032.305    4.3734577    4.3734577    4.3734577     5032.305    9591.2815   -12657.393    18163.027   -1043.4589    6953.8227   -4547.9468    83.651702 
    2000    584.15343   -110.73388    0.5285543   -110.20532   -5146.4023    4.3802643    4.3802643    4.3802643   -5146.4023   -6051.8721   -4247.5192   -5139.8158   -1978.8983   -146.88287    1937.6345    84.042883 
    2100    552.06681   -110.70238   0.49952165   -110.20285   -149.57638    4.3770022    4.3770022    4.3770022   -149.57638    10122.949   -16212.468    5640.7904   -285.12821    -2210.271    -1279.705    83.855257 
    2200    254.91204   -110.44009   0.23064977   -110.20944    9675.7949    4.3745131    4.3745131    4.3745131    9675.7949    3128.6224   -12963.684    38862.446   -4114.5274   -792.71191   -2207.6501    83.712282 
    2300    597.29616   -110.74947   0.54044612   -110.20903   -7074.5353    4.3818486    4.3818486    4.3818486   -7074.5353   -17105.225   -12986.834    8868.4537   -408.65479    121.81742   -1276.7753    84.134108 
    2400    657.22868   -110.79967   0.59467432     -110.205    -2583.257    4.3741366    4.3741366    4.3741366    -2583.257   -1327.3138   -16384.307    9961.8502    1221.3548    5649.6707   -2661.0255    83.690665 
    2500      358.083   -110.52957   0.32400102   -110.20557   -5195.9045    4.3833599    4.3833599    4.3833599   -5195.9045    -2276.035   -19638.031    6326.3527    970.87222    5999.6157    -1586.207    84.221192 
    2600    486.58738   -110.63957   0.44027449    -110.1993    8803.1467    4.3726734    4.3726734    4.3726734    8803.1467    9881.4838   -6234.6672    22762.623    7039.6113   -4407.0952    14.301662    83.606708 
    2700    416.93873   -110.57921   0.37725493   -110.20196     33.47344    4.3831721    4.3831721    4.3831721     33.47344    5570.2041   -26302.842    20833.059    988.60729   -5177.3135   -1027.3647     84.21037 
    2800    515.99922   -110.67069   0.46688693    -110.2038   -4013.9128    4.3757757    4.3757757    4.3757757   -4013.9128      5664.32   -12945.262   -4760.7962    4543.0817    4943.4209   -1198.1596    83.784785 
    2900    627.03215   -110.77122   0.56735187   -110.20387    -4012.695    4.3760036    4.3760036    4.3760036    -4012.695   -11213.656   -10420.269    9595.8402         1692    706.27811    593.05845    83.797879 
    3000    416.22984   -110.58084    0.3766135   -110.20423    3541.2337    4.3814832    4.3814832    4.3814832    3541.2337   -519.89946   -21720.874    32864.474    -2419.338    -1382.161   -4981.1262    84.113065 
    3100    494.27744   -110.65084   0.44723261   -110.20361   -770.75419    4.3735756    4.3735756    4.3735756   -770.75419    9935.5196   -12614.699    366.91735    201.79403    1085.0278    4564.2659    83.658472 
    3200     489.0783   -110.64585   0.44252832   -110.20332   -229.61521    4.3810711    4.3810711    4.3810711   -229.61521    9328.5089   -14054.074    4036.7194    -1391.701    568.94504   -1553.6683    84.089334 
    3300    469.79894   -110.62646   0.42508395   -110.20138    3256.2214    4.3795576    4.3795576    4.3795576    3256.2214    9010.3083   -26820.594     27578.95   -3458.4605    11271.934    2026.1976    84.002211 
    3400    511.22483     -110.666   0.46256697   -110.20344    285.85103    4.3721289    4.3721289    4.3721289    285.85103    130.74648   -6101.3295    6828.1361    1902.4454    1480.9189   -380.78519     83.57548 
    3500    583.24024   -110.73287   0.52772803   -110.20514   -6098.7794    4.3840606    4.3840606    4.3840606   -6098.7794   -14907.442    -20200.36    16811.464    1307.0347   -2051.8534   -3020.8769    84.261589 
    3600     592.0424   -110.73906    0.5356924   -110.20337   -5178.7625    4.3769267    4.3769267    4.3769267   -5178.7625    3783.4104   -20204.916    885.21762   -211.40247   -309.24231    20.505679    83.850916 
    3700    349.18726    -110.5192   0.31595197   -110.20325    7691.8301    4.3723575    4.3723575    4.3723575    7691.8301     3109.356   -3266.1975    23232.332    2240.8142    8599.3851   -3567.4584    83.588587 
    3800    523.56464    -110.6741   0.47373229   -110.20036   -9170.2396    4.3890024    4.3890024    4.3890024   -9170.2396   -2543.2986   -25228.202     260.7817   -3194.8763   -1649.5907    859.73659    84.546855 
    3900    628.92391   -110.76867   0.56906357   -110.19961    2502.4307    4.3666033    4.3666033    4.3666033    2502.4307    11430.297   -7061.2969    3138.2918    2356.8275    11504.693    2213.7523    83.259008 
    4000    339.06566   -110.51815   0.30679374   -110.21135   -5724.5581    4.3808197    4.3808197    4.3808197   -5724.5581   -22996.182   -9192.9484    15015.456   -3927.1465   -8191.4836    926.14633     84.07486 
    4100     545.5375   -110.70132    0.4936138    -110.2077    226.57382     4.377242     4.377242     4.377242    226.57382   -4396.0477   -14276.656    19352.425   -271.85968    1624.5503   -4395.5682    83.869041 
    4200    510.44938   -110.66604   0.46186533   -110.20417    1584.2742    4.3762906    4.3762906    4.3762906    1584.2742   -6556.1526   -11627.594    22936.569    1651.6866    -1676.488    1708.8376    83.814368 
    4300    428.11514   -110.59084   0.38736757   -110.20347   -6006.7544    4.3793345    4.3793345    4.3793345   -6006.7544   -15585.357   -5431.7877    2996.8819   -1064.7732   -4251.9852   -2522.5954    83.989373 
    4400    562.93425   -110.71055   0.50935474    -110.2012    8993.9134    4.3722557    4.3722557    4.3722557    8993.9134    3786.0393   -12327.425    35523.126   -312.72984   -4876.8799    977.60459    83.582752 
    4500    432.76692   -110.59369    0.3915766   -110.20212   -8759.4464    4.3861371    4.3861371    4.3861371   -8759.4464   -8021.6328   -22723.532    4466.8262   -508.01693   -2538.2147   -965.82076    84.381376 
    4600    459.93884   -110.61663   0.41616233   -110.20047     6467.175    4.3637208    4.3637208    4.3637208     6467.175    -9877.554     3058.195    26220.884    831.51343    9294.5389   -3142.8899    83.094232 
    4700    530.06077   -110.68381   0.47961013    -110.2042   -8153.7624     4.389856     4.389856     4.389856   -8153.7624   -3107.0704   -31341.254    9987.0373   -2284.6586   -7780.9238    478.07752    84.596195 
    4800    648.08985   -110.79294   0.58640532   -110.20653   -7793.8269    4.3709084    4.3709084    4.3709084   -7793.8269   -18032.295   -9394.1577    4044.9723    -638.3843    10409.805    1427.3963    83.505507 
    4900    421.55594   -110.59612   0.38143267   -110.21468    6497.6463    4.3704974    4.3704974    4.3704974    6497.6463    5270.2169   -3358.0438    17580.766   -1321.8941    -2995.349   -2275.5692    83.481955 
    5000    635.01416   -110.77893   0.57457416   -110.20435   -21102.012    4.3924898    4.3924898    4.3924898   -21102.012   -18800.934   -32151.242    -12353.86    888.89464    670.10138   -2045.8244    84.748551 
    5100    364.08822   -110.52559   0.32943467   -110.19616    25954.015     4.352024     4.352024     4.352024    25954.015    19593.991    12327.948    45940.106   -109.12317    5180.2083    1010.4451    82.427826 
    5200    506.45526   -110.65997   0.45825137   -110.20172   -29950.052    4.3989478    4.3989478    4.3989478   -29950.052   -25670.458   -30659.286   -33520.412   -1703.5547   -4809.7087   -1631.5501    85.122903 
    5300    471.15322   -110.62874   0.42630934   -110.20243    16721.098    4.3622201    4.3622201    4.3622201    16721.098    6854.0621     5613.564    37695.669   -1206.1537   -1720.9681    -2439.912    83.008531 
    5400    573.97787   -110.72695   0.51934724   -110.20761   -1069.9914    4.3720632    4.3720632    4.3720632   -1069.9914     6890.777   -9737.4052   -363.34604   -344.42875    7377.3184    4274.6841    83.571711 
    5500    367.90164    -110.5358   0.33288514   -110.20292   -18366.427    4.3928094    4.3928094    4.3928094   -18366.427   -28771.578    -17278.27   -9049.4316   -2570.0427   -12562.285      429.882     84.76705 
    5600    579.63639   -110.71236   0.52446719   -110.18789    29372.823    4.3466926    4.3466926    4.3466926    29372.823    46358.589    17403.718    24356.163    75.953087    862.11442   -2082.9334    82.125267 
    5700    484.26804   -110.63147    0.4381759   -110.19329   -28959.855    4.4030928    4.4030928    4.4030928   -28959.855   -43853.645   -35626.696   -7399.2235    2351.2396    2894.1627    2299.2448    85.363756 
    5800    400.12564   -110.55774   0.36204208   -110.19569    22738.824     4.354045     4.354045     4.354045    22738.824      41320.4    19141.594     7754.478    476.75639   -15289.778   -3921.7113    82.542713 
    5900    633.18812   -110.77613   0.57292192   -110.20321   -419.87477    4.3785392    4.3785392    4.3785392   -419.87477   -4573.9724   -16630.524    19944.872    3225.0725    6366.0768   -95.994009    83.943625 
    6000    414.98659   -110.57636   0.37548859   -110.20087   -3347.7587    4.3848972    4.3848972    4.3848972   -3347.7587    21245.776    -20890.04   -10399.013    -1785.507   -1047.1256   -208.69273    84.309836 
    6100    543.11812   -110.68371   0.49142469   -110.19228    16015.049    4.3513736    4.3513736    4.3513736    16015.049    13902.672    20500.178    13642.296      194.294   -15622.099   -691.47164    82.390874 
    6200    499.37287   -110.64378   0.45184307   -110.19194   -14306.542    4.3991069    4.3991069    4.3991069   -14306.542   -3044.1411   -35269.036   -4606.4507    -1233.412    8770.1949   -1645.6325    85.132138 
    6300    567.38271   -110.70662    0.5133798   -110.19324    14735.771    4.3544788    4.3544788    4.3544788    14735.771    31277.227    10756.029    2174.0581   -3944.0484   -9713.8781   -3.3743121    82.567389 
    6400    346.59388   -110.52079   0.31360543   -110.20719    701.17641    4.3772848    4.3772848    4.3772848    701.17641    6998.3639    -4334.617   -560.21771    1156.3184   -7964.3279    592.97577    83.871503 
    6500    657.66758   -110.79304   0.59507144   -110.19796   -10771.558    4.3874933    4.3874933    4.3874933   -10771.558   -2397.8454   -25501.402   -4415.4257    761.31743    3394.2432   -1814.5952    84.459676 
    6600     456.1796   -110.60633   0.41276089   -110.19357    18479.028    4.3465915    4.3465915    4.3465915    18479.028    29189.946    21630.235    4616.9039    1697.1822   -10341.306    906.34844    82.119533 
    6700    393.50734   -110.55876   0.35605371   -110.20271   -19553.617    4.3971366    4.3971366    4.3971366   -19553.617   -13199.974   -26620.382   -18840.493   -2338.0536   -8556.7575   -2238.6158      85.0178 
    6800    632.10663   -110.77143   0.57194336   -110.19949     12081.21     4.364984     4.364984     4.364984     12081.21    25987.894    806.90715     9448.829    2517.9583    836.77631   -711.98577    83.166414 
    6900    513.15096   -110.66445   0.46430977   -110.20014    5199.1751    4.3583816    4.3583816    4.3583816    5199.1751    10461.892    10402.998   -5267.3645   -728.10104   -13550.438   -1522.6402    82.789593 
    7000    393.57993   -110.55563   0.35611939   -110.19951   -12335.574    4.3987963    4.3987963    4.3987963   -12335.574    8228.8933   -30542.925    -14692.69    259.23824    -6056.054   -340.02095    85.114108 
    7100    646.03168   -110.77942   0.58454304   -110.19488    34995.762     4.341114     4.341114     4.341114    34995.762    64272.457    20135.175    20579.653   -437.10183    938.69182    2142.0975    81.809466 
    7200     368.0623   -110.54439    0.3330305   -110.21136   -26697.502    4.3925666    4.3925666    4.3925666   -26697.502   -26075.242   -28537.176   -25480.086   -1814.9849   -19282.282   -1280.1912    84.752999 
    7300    588.92885   -110.73643    0.5328752   -110.20355    7572.9688    4.3694757    4.3694757    4.3694757    7572.9688    24094.613    -8778.354    7402.6478   -1828.2044    3300.8157    1276.0444    83.423421 
    7400      642.635   -110.77657   0.58146965    -110.1951    18341.545     4.351953     4.351953     4.351953    18341.545    37497.447    11064.598    6462.5893    2728.1141   -4070.3821    2403.0118    82.423793 
    7500    253.87976   -110.42288   0.22971574   -110.19317    -31057.84     4.401976     4.401976     4.401976    -31057.84   -18030.861   -40619.507   -34523.152    -1057.149   -15312.567   -299.07283    85.298818 
    7600    756.78326    -110.8673   0.68475339   -110.18255    29611.414    4.3420606    4.3420606    4.3420606    29611.414    30370.505    26867.039    31596.698    3011.1641    6269.9682   -49.943657       81.863 
    7700    456.14399   -110.60896   0.41272867   -110.19623   -11744.714    4.3854645    4.3854645    4.3854645   -11744.714    8413.8652   -25567.066   -18080.942   -4005.1217   -7857.8515     554.4555    84.342562 
    7800    327.19203   -110.49539   0.29605022   -110.19934     5662.923    4.3718391    4.3718391    4.3718391     5662.923     17236.74   -705.89629    457.92565   -3701.9322   -12364.766   -748.63396    83.558863 
    7900    636.78046   -110.77086   0.57617234   -110.19468    17958.369    4.3606817    4.3606817    4.3606817    17958.369    35962.846    8369.6074    9542.6532   -8815.7683    9641.2799   -353.92104    82.920738 
    8000      521.407   -110.67025   0.47178001   -110.19847   -11789.489    4.3834863    4.3834863    4.3834863   -11789.489   -11789.558   -7989.6511   -15589.258    2520.6904   -14595.833    -3140.745    84.228481 
    8100     378.1614   -110.54105   0.34216838   -110.19888    13347.651    4.3647257    4.3647257    4.3647257    13347.651    27375.127    5317.5065    7350.3207    2006.5913   -6530.9854    -2414.618     83.15165 
    8200    616.09351   -110.75493   0.55745436   -110.19747    1688.6855    4.3728246    4.3728246    4.3728246    1688.6855    16135.666   -5132.7768   -5936.8329    343.99497    9125.2306   -49.568583    83.615383 
    8300     386.2969   -110.55095   0.34952955   -110.20142    5628.2007     4.370975     4.370975     4.370975    5628.2007    11518.352    -8969.244    14335.494    2988.2324   -12651.852   -4509.6801    83.509326 
    8400    574.96792   -110.72153   0.52024306   -110.20129   -8785.5633    4.3736256    4.3736256    4.3736256   -8785.5633     402.4591    -8894.431   -17864.718   -1615.7725   -649.60674    2144.8127    83.661338 
    8500    540.37327   -110.69002    0.4889411   -110.20108    11776.029    4.3639619    4.3639619    4.3639619    11776.029    19985.271   -4814.7612    20157.576   -2209.5858    4504.4421    2854.9813    83.108003 
    8600    471.15317   -110.63077   0.42630929   -110.20447   -8765.0999    4.3802759    4.3802759    4.3802759   -8765.0999     6717.433   -17233.332   -15779.401    1586.2895   -10998.864   -2743.7717    84.043551 
    8700    517.44454   -110.66896    0.4681947   -110.20076   -840.61515    4.3691094    4.3691094    4.3691094   -840.61515    7252.4915   -8219.8976   -1554.4393   -137.43028    2609.7861    1369.2698    83.402442 
    8800    491.50298   -110.64488   0.44472223   -110.20016    8261.7394    4.3647216    4.3647216    4.3647216    8261.7394    7010.6799    -118.9218     17893.46   -3358.7178    5044.0383   -1430.8001    83.151416 
    8900    492.92725   -110.64697   0.44601093   -110.20096   -13006.254    4.3833525    4.3833525    4.3833525   -13006.254    5987.7857   -17717.693   -27288.854   -1522.0345   -17282.226   -3767.3068    84.220766 
    9000    464.59015   -110.61944   0.42037093   -110.19907    22559.815    4.3557586    4.3557586    4.3557586    22559.815    33986.268    13399.965    20293.212   -8958.3416    6417.9194   -636.77257    82.640211 
    9100     521.2419   -110.67699   0.47163062   -110.20536   -10634.962    4.3828368    4.3828368    4.3828368   -10634.962    1728.1475   -14859.378   -18773.657   -147.76829    1840.6858   -914.55884    84.191042 
    9200    532.12121   -110.68415   0.48147445   -110.20268   -1045.0831    4.3691501    4.3691501    4.3691501   -1045.0831    6071.5996   -2252.2025   -6954.6463    3010.4125   -12316.883   -859.22142    83.404772 
    9300    407.87968   -110.57021    0.3690581   -110.20115    16574.187    4.3601504    4.3601504    4.3601504    16574.187     42679.95   -683.58655    7726.1965   -5.7686611    9860.2422   -1696.1672    82.890431 
    9400    443.39836   -110.60034   0.40119615   -110.19915   -16289.953    4.3878148    4.3878148    4.3878148   -16289.953   -5297.2534   -21064.193   -22508.413    852.27991   -1824.7947    315.97676    84.478241 
    9500    651.72521   -110.78331   0.58969467   -110.19362    15075.279    4.3537525    4.3537525    4.3537525    15075.279     25567.54    11181.197    8477.1008   -432.44835   -8529.8352   -1482.1281    82.526077 
    9600    513.03187    -110.6657   0.46420202    -110.2015   -12445.362    4.3807019    4.3807019    4.3807019   -12445.362   -5284.7943    -19887.59   -12163.701   -7680.9049    13184.644     -21.9211    84.068073 
    9700    368.33486   -110.53596   0.33327713   -110.20269    5121.9592    4.3691409    4.3691409    4.3691409    5121.9592     38632.92   -10154.243     -13112.8   -427.62608   -873.11559   -2460.8355    83.404244 
    9800    588.44571   -110.73454   0.53243805   -110.20211    6970.9537    4.3634403    4.3634403    4.3634403    6970.9537    21293.588   -4674.4006    4293.6739    1810.0019   -5925.1553    -1072.682    83.078207 
    9900    475.95527   -110.63443   0.43065433   -110.20378   -22768.787    4.3818328    4.3818328    4.3818328   -22768.787   -18554.356   -31793.831   -17958.174   -3823.3383    13229.994    1319.0742    84.133198 
   10000    438.68364   -110.59699   0.39693018   -110.20006    24919.448    4.3541225    4.3541225    4.3541225    24919.448     46700.62     15410.26    12647.463    1698.5278   -4938.5436   -2703.3223    82.547122 
   10100    586.93675   -110.73154   0.53107271   -110.20046   -11444.327    4.3841737    4.3841737    4.3841737   -11444.327    13280.386   -23750.992   -23862.377   -5782.7678    1506.6272    2909.5607    84.268112 
   10200    416.43476   -110.57965   0.37679892   -110.20285    10178.561    4.3593723    4.3593723    4.3593723    10178.561    12007.061    6229.5765    12299.045   -4276.9938    12156.034    1059.4014    82.846063 
   10300    605.43266   -110.75286   0.54780819   -110.20505   -5977.0045    4.3762602    4.3762602    4.3762602   -5977.0045    16657.872   -14813.359   -19775.527    3896.8176   -9481.1823    107.58008    83.812618 
   10400    390.05648   -110.55858    0.3529313   -110.20565     9288.347    4.3656226    4.3656226    4.3656226     9288.347     34527.86   -10249.784    3586.9654    -2627.955    85.558983    2411.5608    83.202922 
   10500      490.449   -110.65307   0.44376856    -110.2093   -10472.102     4.368771     4.368771     4.368771   -10472.102   -6070.3982   -9940.1194   -15405.788   -3227.5504    16068.696   -1908.6532    83.383062 
   10600    620.74557   -110.76505   0.56166363   -110.20338   -8057.2886    4.3764987    4.3764987    4.3764987   -8057.2886    4359.2085   -14143.114    -14387.96    -1546.856   -7805.0793    854.17709    83.826321 
   10700     557.2919   -110.70498   0.50424942   -110.20073    11882.296    4.3554469    4.3554469    4.3554469    11882.296    32771.511    2642.8626    232.51521   -1902.9582    10664.188    -947.1612    82.622469 
   10800    262.67968   -110.44007   0.23767809   -110.20239   -19951.924    4.3881889    4.3881889    4.3881889   -19951.924   -4270.1486   -28574.403   -27011.221   -5230.4898     6269.826     -2716.88    84.499849 
   10900    764.15893   -110.88653   0.69142706    -110.1951     12554.97    4.3507518    4.3507518    4.3507518     12554.97    20086.363    7641.5577    9936.9899    8556.2945   -3973.1216    849.65622    82.355558 
   11000    396.00732   -110.56253   0.35831574   -110.20422   -15346.751    4.3822392    4.3822392    4.3822392   -15346.751    1361.0522   -26810.518   -20590.786    -6387.725    11875.421    1168.8204    84.156612 
   11100    375.34511   -110.54406   0.33962014   -110.20444    8320.6764    4.3614398    4.3614398    4.3614398    8320.6764    31543.504    1795.4618   -8376.9368    2394.3876    8267.6866   -2574.6108    82.963993 
   11200    674.33547   -110.81347   0.61015291   -110.20332    5886.0167    4.3650302    4.3650302    4.3650302    5886.0167    26260.628   -6932.3074   -1670.2707    604.70069   -3985.1579     2762.811    83.169051 
   11300    537.48296   -110.68758   0.48632587   -110.20125    -19107.56    4.3814541    4.3814541    4.3814541    -19107.56   -14579.896   -15197.985   -27544.801   -3759.8934    11332.345    2629.6216    84.111387 
   11400    368.58852   -110.53182   0.33350664   -110.19831    20725.267    4.3550438    4.3550438    4.3550438    20725.267    50179.157    8020.7626     3975.882    4196.4233    4782.7734   -2455.7912    82.599531 
   11500    580.03027   -110.72341   0.52482358   -110.19859   -14614.859    4.3792308    4.3792308    4.3792308   -14614.859    5905.6583   -29752.939   -19997.296    2679.9145   -621.90291    5242.2305    83.983412 
   11600    382.44965   -110.54624   0.34604848   -110.20019    8984.2432    4.3603867    4.3603867    4.3603867    8984.2432     12674.06    13942.795     335.8747   -649.81596    17930.521   -132.52655    82.903913 
   11700    625.56238   -110.76611   0.56602199   -110.20008   -18426.535    4.3756592    4.3756592    4.3756592   -18426.535   -12620.873   -27728.855   -14929.876    1392.5932   -1024.1124    933.37038    83.778091 
   11800    457.40847   -110.61397    0.4138728   -110.20009    10563.479    4.3621398    4.3621398    4.3621398    10563.479    22476.688    2673.5731    6540.1743    7363.0653   -346.77085    3485.6962    83.003949 
   11900    444.75808   -110.60468   0.40242646   -110.20226   -11152.483    4.3763995    4.3763995    4.3763995   -11152.483   -1721.5732   -8754.3848   -22981.491   -7069.1354    14329.099   -1929.2282    83.820625 
   12000    520.02299   -110.67011   0.47052773   -110.19958    28.295748    4.3630607    4.3630607    4.3630607    28.295748    12004.918   -13937.111    2017.0803    7382.8166    -3944.375    2243.7828    83.056528 
   12100    506.89454     -110.661   0.45864883   -110.20235   -3729.7973    4.3705012    4.3705012    4.3705012   -3729.7973    4065.5137   -5361.3273   -9893.5783    954.67752    10079.779    3008.4961    83.482173 
   12200    512.87785   -110.66713   0.46406265   -110.20307   -7162.1305    4.3728257    4.3728257    4.3728257   -7162.1305      2941.85   -9547.1175   -14881.124   -6150.5464     14523.23   -2650.6751    83.615446 
   12300    495.43458   -110.64888   0.44827962    -110.2006     22116.48    4.3511914    4.3511914    4.3511914     22116.48    51368.368    1323.6107    13657.461    6262.9446   -5411.0622    4109.5475    82.380526 
   12400    444.62904   -110.60229    0.4023097   -110.19998   -19684.251    4.3901867    4.3901867    4.3901867   -19684.251   -15083.431   -20733.207   -23236.115     237.4535      10316.4    3169.9718    84.615315 
   12500    686.28397   -110.81531   0.62096416   -110.19435    17573.247    4.3473578    4.3473578    4.3473578    17573.247    28020.234    14247.643    10451.864     2480.329    4344.0399   -2524.3784    82.162976 
   12600    336.62734   -110.50698   0.30458749   -110.20239   -6473.9861    4.3803607    4.3803607    4.3803607   -6473.9861     12879.15   -21673.372   -10627.736    3767.0888   -1318.5334    7871.9151    84.048434 
   12700    441.49534   -110.60203   0.39947426   -110.20255    -2466.144    4.3657954    4.3657954    4.3657954    -2466.144    12597.255   -7299.3945   -12696.292    4615.4016    10620.771    1536.6888      83.2128 
   12800    648.83457    -110.7873   0.58707915   -110.20022    11239.636    4.3555257    4.3555257    4.3555257    11239.636    16664.166    10986.769    6067.9734   -4970.2501     6980.556    947.35531    82.626956 
   12900    500.87666   -110.65107   0.45320373   -110.19786   -23426.064    4.3850194    4.3850194    4.3850194   -23426.064   -19937.914   -32242.129   -18098.149     10531.17   -1261.1829    7045.8394    84.316886 
   13000    427.05272   -110.58183   0.38640628   -110.19542    13702.108     4.350418     4.350418     4.350418    13702.108    20408.867    8563.2164     12134.24    1230.8177    17126.071   -2425.7393    82.336608 
   13100      547.114   -110.69227   0.49504024   -110.19723   -9091.1959    4.3790069    4.3790069    4.3790069   -9091.1959    9367.2911   -15669.454   -20971.425    721.58893    6537.7355    3496.8669    83.970527 
   13200    361.90036   -110.52835   0.32745505   -110.20089    3885.8689    4.3625948    4.3625948    4.3625948    3885.8689    2293.3235   -8673.8951    18038.179    11175.514    1082.8546    3337.1778    83.029921 
   13300    553.25491   -110.70215   0.50059667   -110.20155   -9312.8525    4.3665607    4.3665607    4.3665607   -9312.8525   -8489.1524   -2281.5784   -17167.827   -2680.8978    21152.399   -3838.9151    83.256568 
   13400    593.35477   -110.73573   0.53687986   -110.19885    2527.5337    4.3702393    4.3702393    4.3702393    2527.5337    4501.9782   -4838.1147    7918.7375    4187.5972   -5487.2563    3887.9335    83.467163 
   13500    426.31481   -110.58774    0.3857386     -110.202    1988.3224    4.3618709    4.3618709    4.3618709    1988.3224    18831.993   -11048.581    -1818.445    7748.7732    7731.4423    2478.7449    82.988595 
   13600    409.93955   -110.57333   0.37092192   -110.20241   -6452.3068    4.3730736    4.3730736    4.3730736   -6452.3068    3592.5795   -4777.6816   -18171.818    -112.2412    12517.227   -1091.2147    83.629668 
   13700    678.71555   -110.81186    0.6141161   -110.19775    5705.2183    4.3608807    4.3608807    4.3608807    5705.2183    7520.2779    1847.1193    7748.2577    6009.6363   -4713.4667    1180.9157    82.932091 
   13800     396.4953   -110.56098   0.35875728   -110.20222   -13502.276    4.3752589    4.3752589    4.3752589   -13502.276   -4029.7428   -15917.495   -20559.591    4680.5935    7921.6151    4691.3473    83.755099 
   13900    477.31782   -110.63358    0.4318872   -110.20169    6357.4867    4.3610909    4.3610909    4.3610909    6357.4867    9298.2421    14597.463   -4823.2453   -7321.1037    11287.622   -3306.1749    82.944085 
   14000    630.56407   -110.77076   0.57054762   -110.20021    1713.1839    4.3690056    4.3690056    4.3690056    1713.1839     26139.32   -16612.381   -4387.3877    1544.6506   -3045.0458    3823.9798    83.396498 
   14100    368.66401   -110.53732   0.33357495   -110.20375   -10471.943    4.3704798    4.3704798    4.3704798   -10471.943   -13779.962   -4116.7866   -13519.079    4255.4341    12324.641    2957.2075    83.480945 
   14200    578.92267   -110.72362    0.5238214    -110.1998    2586.9045    4.3584282    4.3584282    4.3584282    2586.9045    4350.5391    2304.7257    1105.4488   -4722.2969    13025.303   -2888.6664    82.792249 
   14300    541.48576   -110.68859   0.48994769   -110.19864   -12297.956    4.3793396    4.3793396    4.3793396   -12297.956   -5901.2512   -23311.462   -7681.1544    7170.6309   -9034.5855    4395.6059    83.989672 
   14400    340.99997   -110.51022   0.30854394   -110.20168    7153.4761    4.3548326    4.3548326    4.3548326    7153.4761    11818.786    12709.567   -3067.9247    3217.5076    15470.501    -2355.245    82.587516 
   14500    530.83276   -110.68419   0.48030864   -110.20388   -5703.2419    4.3752798    4.3752798    4.3752798   -5703.2419    708.85846   -13135.018   -4683.5665      -4087.4    6207.6963   -2047.4861    83.756302 
   14600    674.23793   -110.81151   0.61006465   -110.20144   -6873.7162    4.3661353    4.3661353    4.3661353   -6873.7162    -7186.142    -8947.837   -4487.1695     8529.815    -3205.553    185.11971    83.232237 
   14700    323.08569   -110.49439   0.29233472   -110.20206    7853.0071    4.3584647    4.3584647    4.3584647    7853.0071   -4613.0106    12068.914    16103.118   -1093.2783    16168.423   -1296.4656    82.794331 
   14800    601.58897   -110.74114   0.54433034   -110.19681    -16268.79    4.3817162    4.3817162    4.3817162    -16268.79    4437.9366   -30647.298    -22597.01    1068.9693   -3736.8056   -4308.6961    84.126484 
   14900    396.81927   -110.55556   0.35905042   -110.19651    28387.203    4.3465215    4.3465215    4.3465215    28387.203     31606.14    26861.087    26694.382    5604.8142   -3874.1948     1724.239    82.115569 
   15000    433.48446   -110.59481   0.39222585   -110.20259   -22128.598    4.3834786    4.3834786    4.3834786   -22128.598   -12150.981   -23811.772   -30423.041    -983.7266    15147.124   -3853.8232    84.228038 
   15100    645.11791   -110.78154   0.58371624   -110.19782    8002.6537    4.3594378    4.3594378    4.3594378    8002.6537    10476.004    1346.5925    12185.364   -2061.1781    -2074.489    -7132.479    82.849796 
   15200    577.50539   -110.72115   0.52253901   -110.19861    3022.5669     4.360279     4.360279     4.360279    3022.5669    2232.2469    2390.7799    4444.6739    5265.0891    2536.7965    5594.4064    82.897767 
   15300    329.40713   -110.49703    0.2980545   -110.19897   -14216.615    4.3809927    4.3809927    4.3809927   -14216.615    830.95669   -22795.555   -20685.247    899.74155    12551.307     -8164.79    84.084817 
   15400    588.53011    -110.7248   0.53251441   -110.19229    21437.078    4.3479223    4.3479223    4.3479223    21437.078    37598.402    7721.9661    18990.865    2773.4054    -1533.945   -3429.4039    82.194985 
   15500    449.04712    -110.6051   0.40630727    -110.1988   -12846.232     4.378266     4.378266     4.378266   -12846.232   -10128.526   -10866.957   -17543.212    7156.6055    2767.7068    1565.4035    83.927915 
   15600     467.4122   -110.62315   0.42292438   -110.20023   -3227.6949    4.3623792    4.3623792    4.3623792   -3227.6949   -1669.9402   -7471.9536   -541.19071   -2451.6107      15177.7   -11175.934    83.017611 
   15700    668.87121   -110.80325   0.60520872   -110.19804    4885.7847    4.3627104    4.3627104    4.3627104    4885.7847    6070.5616    137.02493    8449.7676    3826.5026   -9086.6306   -4468.3174     83.03652 
   15800    462.72021   -110.61835   0.41867897   -110.19967   -6362.0499    4.3736078    4.3736078    4.3736078   -6362.0499   -4128.7786    -15746.32    788.94895    3215.5778     3452.583   -1246.6607    83.660317 
   15900    373.72818   -110.53846   0.33815711    -110.2003    3572.7564    4.3608547    4.3608547    4.3608547    3572.7564    19975.947   -9708.2876    450.60952   -2998.2235    5175.8243    -10679.31    82.930607 
   16000    624.37276   -110.76241   0.56494559   -110.19746    2461.0192    4.3680944    4.3680944    4.3680944    2461.0192    7311.1132   -8303.5729    8375.5173    6732.3499    -4447.181   -404.27684    83.344328 
   16100    463.63129   -110.62205   0.41950333   -110.20255   -5077.0891    4.3667668    4.3667668    4.3667668   -5077.0891   -12344.182   -5806.8207    2919.7358    4924.4011    9972.4186   -2091.6163     83.26836 
   16200    388.15293   -110.55537   0.35120893   -110.20416   -1044.6055    4.3629578    4.3629578    4.3629578   -1044.6055   -3116.1863   -3438.5994    3420.9692   -2220.0125    8408.6139    -15000.66     83.05065 
   16300     722.8177   -110.85437   0.65402064   -110.20035    2755.2102    4.3656451    4.3656451    4.3656451    2755.2102   -4561.5959   -3745.0148    16572.241    5225.7343   -2842.0019     4132.565    83.204206 
   16400    407.78474   -110.57322    0.3689722   -110.20425   -8960.9772    4.3704527    4.3704527    4.3704527   -8960.9772   -5567.9886   -16205.888   -5109.0547     724.7302    9396.5095   -9336.2513    83.479392 
   16500    344.37404   -110.51588   0.31159687   -110.20429    1284.1012    4.3599898    4.3599898    4.3599898    1284.1012     17159.89   -11427.318    -1880.269   -2331.7988    11857.664   -11554.611    82.881275 
   16600    714.30217   -110.84633   0.64631561   -110.20002   -2966.7604    4.3698681    4.3698681    4.3698681   -2966.7604   -3063.5879   -13894.687    8057.9935    5458.6609   -2920.1085    5322.3227    83.445895 
   16700    322.88162   -110.49726   0.29215008   -110.20511   -5789.0245    4.3668112    4.3668112    4.3668112   -5789.0245   -10084.756   -5353.3356   -1928.9817     2009.664    14529.749   -15192.504    83.270895 
   16800    487.22372   -110.64448   0.44085026   -110.20363   -2988.0822    4.3617017    4.3617017    4.3617017   -2988.0822    -697.4147   -3840.5684   -4426.2636    -351.9708    1665.6323   -4006.5204    82.978941 
   16900    710.82695   -110.84046   0.64317116   -110.19729   -10060.015    4.3752363    4.3752363    4.3752363   -10060.015   -21031.818   -12606.871    3458.6435      4410.25   -3216.1744    4229.5188    83.753803 
   17000    373.64567   -110.53985   0.33808246   -110.20176    3905.8656    4.3547378    4.3547378    4.3547378    3905.8656    8074.5304   -758.01564     4401.082   -2829.0133    13372.638   -11146.712    82.582118 
   17100     484.2021     -110.642   0.43811623   -110.20389   -11385.945    4.3748532    4.3748532    4.3748532   -11385.945   -3593.2404    -26551.01   -4013.5857    2085.6942    3575.5856   -4616.4691    83.731804 
   17200    620.05897   -110.76003   0.56104239   -110.19898    7580.6498    4.3631367    4.3631367    4.3631367    7580.6498    8778.4397   -2372.3134    16335.823    2173.8767    39.312148    4767.5713    83.060867 
   17300    347.93762   -110.51746   0.31482127   -110.20264   -2072.0362    4.3624717    4.3624717    4.3624717   -2072.0362    4912.8361   -4118.7112   -7010.2336    1472.1026    13722.689   -18290.681    83.022894 
   17400    464.46152   -110.61988   0.42025454   -110.19962   -5775.5302    4.3745203    4.3745203    4.3745203   -5775.5302   -8639.3418   -12121.783    3434.5344     2003.933   -2913.7669    2223.1465    83.712691 
   17500    671.29729   -110.80361    0.6074039    -110.1962    11205.471    4.3530378    4.3530378    4.3530378    11205.471    7333.8927      11295.6     14986.92    2189.3372    1567.8499    6118.4166    82.485445 
   17600    318.06259   -110.49092   0.28778971   -110.20313   -13440.667    4.3765123    4.3765123    4.3765123   -13440.667   -19318.382   -17954.982   -3048.6366   -4053.4447     10278.11   -15188.746    83.827102 
   17700    682.71727   -110.81545   0.61773694   -110.19771   -1306.7085    4.3628742    4.3628742    4.3628742   -1306.7085    1797.0978   -10638.206    4920.9823    -3838.766   -710.43206     6019.561    83.045879 
   17800    524.70443   -110.67317    0.4747636    -110.1984    6459.8291    4.3617431    4.3617431    4.3617431    6459.8291     117.6301    6487.1454    12774.712    2080.2356    121.67256   -1702.9868      82.9813 
   17900    345.81426   -110.51567   0.31290001   -110.20277   -11539.951    4.3724423    4.3724423    4.3724423   -11539.951   -8914.5534   -15615.832   -10089.468   -2557.7748    6694.5091   -12996.571    83.593451 
   18000     498.1005   -110.65079    0.4506918    -110.2001     12581.65    4.3594718    4.3594718    4.3594718     12581.65    13059.078    15897.915    8787.9571    4971.6094   -5058.1765    8634.7757    82.851738 
   18100    526.86181   -110.67823   0.47671564   -110.20151   -17.038643    4.3676236    4.3676236    4.3676236   -17.038643   -5366.9775    5930.9607   -615.09908    3384.0633   -3480.4212   -3560.7366    83.317379 
   18200    418.56252   -110.58173   0.37872417   -110.20301   -7755.8355    4.3691802    4.3691802    4.3691802   -7755.8355    -1827.099   -3439.0033   -18001.404   -273.81242    11284.143   -11943.058    83.406496 
   18300    636.57697   -110.77446   0.57598822   -110.19847    7442.4601     4.360826     4.360826     4.360826    7442.4601    1012.4639    7091.9121    14223.004   -1809.6794   -5512.7211    5749.3206    82.928972 
   18400    540.65734   -110.68989   0.48919813   -110.20069   -9972.9228    4.3702829    4.3702829    4.3702829   -9972.9228   -19557.113    1341.2932   -11702.949    -2044.482    591.98584   -5079.3519    83.469663 
   18500    316.09075   -110.48879   0.28600555   -110.20278    15.963795    4.3651869    4.3651869    4.3651869    15.963795   -8909.7404    7947.3609    1010.2709    -1215.328    8851.5021   -8928.3018    83.178013 
   18600    692.54479   -110.82562   0.62662908   -110.19899    4414.7328    4.3614027    4.3614027    4.3614027    4414.7328    4940.6857    8606.6576   -303.14492   -1342.0643   -10827.878    6276.9576    82.961875 
   18700    372.45138   -110.54048   0.33700183   -110.20348    2050.5886    4.3691387    4.3691387    4.3691387    2050.5886   -4988.8588     13579.16   -2438.5351    2910.0978    6238.5744   -9075.4746    83.404116 
   18800    468.60793    -110.6262   0.42400631    -110.2022     2237.307       4.3646       4.3646       4.3646     2237.307    6582.4241   -5549.3238    5678.8206   -2044.3789    9734.0868   -9740.0774    83.144468 
   18900    667.74108   -110.80219   0.60418616     -110.198    8210.9986    4.3635207    4.3635207    4.3635207    8210.9986     3072.043    9037.3609    12523.592       1756.2   -3123.9121    7660.5336    83.082802 
   19000    355.78667   -110.52482   0.32192326    -110.2029   -6315.8537    4.3692101    4.3692101    4.3692101   -6315.8537   -15494.471   -826.95983   -2626.1298   -3071.0292    6496.7249   -10876.029    83.408205 
   19100    529.35478   -110.68074   0.47897133   -110.20177    -3357.746    4.3617706    4.3617706    4.3617706    -3357.746   -4635.4677    -4262.718   -1175.0523   -1496.7667    5142.2671   -7776.4808    82.982873 
   19200    580.69774   -110.72535   0.52542752   -110.19992    8912.3699    4.3663279    4.3663279    4.3663279    8912.3699   -536.58236    8606.9997    18666.692     536.4801   -5881.0008    2719.4329    83.243253 
   19300    396.74628   -110.56272   0.35898437   -110.20373   -7184.9045    4.3677789    4.3677789    4.3677789   -7184.9045   -4019.6184    -6594.085    -10941.01   -1085.1381    4866.6408   -14540.331    83.326266 
   19400    476.40873   -110.63391   0.43106463   -110.20284    8053.9812    4.3617652    4.3617652    4.3617652    8053.9812    14562.501   -6633.8101    16233.253   -2592.2579    5800.0576   -8045.7712    82.982562 
   19500    660.32354    -110.7973   0.59747462   -110.19982   -2809.6403    4.3687249    4.3687249    4.3687249   -2809.6403   -85.554733    2345.5487   -10688.915    456.98176   -9777.5849     1963.875    83.380423 
   19600    330.84554   -110.50404     0.299356   -110.20468    -8265.239    4.3641498    4.3641498    4.3641498    -8265.239   -5059.2016   -11293.608   -8442.9072   -1184.9561    5663.8553   -13231.676    83.118737 
   19700    526.03747   -110.67826   0.47596976   -110.20229    42.332346    4.3673826    4.3673826    4.3673826    42.332346    7348.1008   -8631.2916    1410.1878   -6935.6814    1371.9158   -4756.9755    83.303592 
   19800    639.76213   -110.77854   0.57887022   -110.19967   -1822.3142    4.3649902    4.3649902    4.3649902   -1822.3142   -5091.3798   -81.493027   -294.06979    2311.5207   -3611.4588    1069.8698    83.166767 
   19900      243.885   -110.42583   0.22067227   -110.20516   -2209.1592    4.3660229    4.3660229    4.3660229   -2209.1592    20090.779   -9948.8822   -16769.375    353.78501    12418.949   -17779.166    83.225812 
   20000    652.95679   -110.79073   0.59080903   -110.19992   -134.94998    4.3659404    4.3659404    4.3659404   -134.94998    15439.738   -5289.9461   -10554.642    -1954.172    2084.9611     1520.364    83.221091 
   20100    564.64478   -110.71214   0.51090247   -110.20124    1500.9127    4.3635218    4.3635218    4.3635218    1500.9127    10319.125    1294.0246   -7110.4119    1201.4838   -6970.6176    -4519.594    83.082865 
   20200    331.67201     -110.505    0.3001038   -110.20489    -13720.22    4.3710848    4.3710848    4.3710848    -13720.22    3492.5506   -16516.654   -28136.557    -3261.431    9329.8643   -15047.399    83.515618 
   20300    631.55383   -110.77064   0.57144318    -110.1992    6804.4378    4.3589208    4.3589208    4.3589208    6804.4378    7980.5056    1147.4242    11285.384   -9319.3642    492.26685    6335.4594    82.820328 
   20400    485.04005   -110.63919   0.43887443   -110.20032   -7529.1597    4.3721641    4.3721641    4.3721641   -7529.1597    14648.566   -10460.621   -26775.424    1357.0279   -2458.1086     -15513.1    83.577495 
   20500    345.38617   -110.51452   0.31251266   -110.20201   -1387.3412    4.3627724    4.3627724    4.3627724   -1387.3412    15562.479    -3655.046   -16069.456   -883.05279    10920.627    -7851.589    83.040063 
   20600     640.1569   -110.77834   0.57922742   -110.19912    4573.1367    4.3627096    4.3627096    4.3627096    4573.1367    9851.2561    9385.7297   -5517.5758   -2850.7325   -1270.3755    3902.8894    83.036477 
   20700    521.08915   -110.67295   0.47149242   -110.20146   -10324.896    4.3725768    4.3725768    4.3725768   -10324.896   -1858.0806   -3850.7033   -25265.904    2270.1767   -1613.3099   -11626.406    83.601166 
   20800    421.51048   -110.58301   0.38139154   -110.20162    4835.5932    4.3563899    4.3563899    4.3563899    4835.5932    9990.4557     11988.27   -7471.9458   -6501.9643    12177.012   -484.80448    82.676148 
   20900    540.39054   -110.68891   0.48895671   -110.19995   -6020.7871    4.3742774    4.3742774    4.3742774   -6020.7871    1135.7122   -8615.2509   -10582.822   -7901.2091    97.276528     3983.958    83.698746 
   21000    506.48915   -110.65802   0.45828203   -110.19974    741.67277    4.3615153    4.3615153    4.3615153    741.67277    11613.763    6158.4779   -15547.222    2351.5466    5123.9691    -8763.897    82.968304 
   21100    382.72497   -110.54819   0.34629759   -110.20189    3923.5445    4.3625792    4.3625792    4.3625792    3923.5445     1888.389    15229.471   -5347.2264   -5201.8836    11502.079   -351.95999    83.029033 
   21200    632.97274   -110.77067   0.57272704   -110.19795    -11292.95    4.3735241    4.3735241    4.3735241    -11292.95   -8439.5496   -8443.4653   -16995.834   -6542.7514   -2568.7483    4549.1843    83.655511 
   21300    514.77007   -110.66451   0.46577477   -110.19873    12558.912    4.3533545    4.3533545    4.3533545    12558.912    12499.675    27113.993   -1936.9333    1940.6213    6721.6552      -9901.8     82.50345 
   21400    428.87318    -110.5902   0.38805347   -110.20215   -11632.309     4.375213     4.375213     4.375213   -11632.309   -7333.2116   -5388.4078   -22175.307   -8431.9706    3352.6365    4547.2913    83.752466 
   21500    508.78316   -110.66009   0.46035769   -110.19974    530.68223    4.3628171    4.3628171    4.3628171    530.68223    12403.097   -9329.1589   -1481.8919   -1001.3284    -1830.131    3709.5708    83.042614 
   21600    534.82806   -110.68296   0.48392367   -110.19903    8272.0882    4.3580039    4.3580039    4.3580039    8272.0882    3558.7402    27471.021   -6213.4971    3492.5142    7899.0362   -10354.202    82.768075 
   21700    422.85136   -110.58226   0.38260479   -110.19966   -16884.708    4.3778499    4.3778499    4.3778499   -16884.708   -11810.617   -22534.806     -16308.7   -7609.8822    2325.6445    8529.8628    83.903988 
   21800    540.52481   -110.68607   0.48907821   -110.19699    9551.8873    4.3537008    4.3537008    4.3537008    9551.8873    14818.397    7702.3766    6134.8887   -5378.7616   -2657.8564   -1038.0783    82.523141 
   21900    537.04536   -110.68425   0.48592992   -110.19832   -3488.9516    4.3711241    4.3711241    4.3711241   -3488.9516    1504.0054    713.31887   -12684.179    337.69228    6772.3759   -3118.9674    83.517868 
   22000    381.11187   -110.54742   0.34483803   -110.20258    -7350.618     4.364816     4.364816     4.364816    -7350.618    8902.6923   -23439.683   -7514.8632   -12478.648    -11.58424    13319.845    83.156811 
   22100    557.46242   -110.70443   0.50440371   -110.20003    5489.9889    4.3605107    4.3605107    4.3605107    5489.9889    2899.0037    9434.9207    4136.0423   -981.77871    3305.7603    2600.4151    82.910981 
   22200    606.32494   -110.74686   0.54861555   -110.19824   -9803.6857    4.3738646    4.3738646    4.3738646   -9803.6857   -1669.4513    -7272.301   -20469.305    518.47043    7837.4857    830.83839    83.675056 
   22300    323.91984   -110.49503   0.29308948   -110.20194    3867.6504    4.3568452    4.3568452    4.3568452    3867.6504    13637.781   -10079.977    8045.1479   -16764.635    511.61708    11226.902    82.702074 
   22400    607.86308   -110.75131   0.55000729   -110.20131    1672.7207     4.369078     4.369078     4.369078    1672.7207    19655.867   -3430.2747    -11207.43    1486.9649   -803.76773    80.588539    83.400641 
   22500    511.94271   -110.66674   0.46321652   -110.20352   -1361.3209    4.3660152    4.3660152    4.3660152   -1361.3209     9212.039   -2700.5742   -10595.427   -3101.2472    1267.2655   -230.22632     83.22537 
   22600    372.91371   -110.54258   0.33742016   -110.20516   -1649.1808    4.3594147    4.3594147    4.3594147   -1649.1808   -1776.6014   -8415.8782    5244.9371   -9775.2177   -1152.5729    12266.871    82.848482 
   22700    674.17192   -110.80859   0.61000492   -110.19858   -2535.9295    4.3747775    4.3747775    4.3747775   -2535.9295    4350.0353    2244.9942   -14202.818    3408.6171    22.757899   -2722.0442    83.727458 
   22800    468.50282   -110.62582    0.4239112    -110.2019    4555.3574    4.3572831    4.3572831    4.3572831    4555.3574    13130.345   -507.04015    1042.7673   -8052.9913    5863.2969    5240.7909    82.727013 
   22900    303.17342   -110.48105   0.27431768   -110.20674   -351.00357    4.3681729    4.3681729    4.3681729   -351.00357    17837.638   -14533.411   -4357.2377   -13226.918     -3424.64    10028.909    83.348823 
   23000    745.86683   -110.87315   0.67487598   -110.19828   -3558.7304     4.369147     4.369147     4.369147   -3558.7304    4766.0938   -1299.8207   -14142.464    4426.9761    1339.9006   -5310.1361    83.404596 
   23100    400.39395   -110.56422   0.36228486   -110.20193    5496.7056    4.3530806    4.3530806    4.3530806    5496.7056    4905.0914    4686.7575     6898.268   -8790.8989      2240.84    10457.581    82.487878 
   23200     444.0851   -110.60437   0.40181753   -110.20255   -14093.033    4.3798372    4.3798372    4.3798372   -14093.033    1475.8561   -29489.278   -14265.676   -9357.9282    465.00495    5612.2507    84.018304 
   23300    637.15048   -110.77439   0.57650714   -110.19789    15158.723    4.3548432    4.3548432    4.3548432    15158.723    21809.223    18592.365    5074.5813    3893.5811    3106.3929   -2128.2277    82.588119 
   23400    303.09774   -110.47938   0.27424921   -110.20513   -4585.0322    4.3651374    4.3651374    4.3651374   -4585.0322    8342.1106   -14596.825   -7500.3823   -14510.782    3437.3506    12424.621    83.175181 
   23500    541.77801    -110.6906   0.49021213   -110.20039   -9545.7614    4.3736086    4.3736086    4.3736086   -9545.7614   -7512.5162   -10131.064   -10993.704   -7199.9268   -2522.2895    1976.7037    83.660362 
   23600    662.60375   -110.79518   0.59953779   -110.19565    14271.226     4.351484     4.351484     4.351484    14271.226     17480.23    23622.482    1710.9662     9257.285    1314.8968   -1249.6365    82.397149 
   23700    331.82997   -110.50273   0.30024673   -110.20248   -18341.676    4.3785778    4.3785778    4.3785778   -18341.676    625.24604   -30519.572   -25130.703   -12365.035    2102.0673    8700.4968    83.945844 
   23800    542.03102   -110.68961   0.49044106   -110.19917     15463.85    4.3559639    4.3559639    4.3559639     15463.85    22563.474    14993.244    8834.8324   -6562.8351    917.82525   -8.0260866    82.651894 
   23900    612.08612   -110.75414   0.55382838   -110.20031   -832.63353    4.3658299    4.3658299    4.3658299   -832.63353    9664.7077   -693.70384   -11468.904   -614.55728    2662.7117   -1281.3398    83.214772 
   24000    287.85717   -110.46405   0.26045921   -110.20359   -10431.388    4.3711964    4.3711964    4.3711964   -10431.388   -10786.713   -9606.8262   -10900.625   -16345.849    2005.9068    12862.827    83.522017 
   24100    671.49933   -110.80627    0.6075867   -110.19868    12413.624    4.3518057    4.3518057    4.3518057    12413.624    14227.705    11804.733    11208.435   -5134.1549   -2861.7251   -2677.3349    82.415421 
   24200    501.04695   -110.65384   0.45335781   -110.20048   -11675.865    4.3781284    4.3781284    4.3781284   -11675.865    3892.4651   -10339.478   -28580.582    3802.1146   -977.19774    -2815.812    83.920001 
   24300    332.20724   -110.50296   0.30058809   -110.20237    1545.6097    4.3578329    4.3578329    4.3578329    1545.6097    7812.9132   -4383.0331    1206.9491   -21203.255     1303.705    11103.421    82.758333 
   24400     654.5759   -110.79237   0.59227403   -110.20009    4473.4891    4.3628342    4.3628342    4.3628342    4473.4891    12692.466     5317.771   -4589.7691   -913.50713   -3123.3482   -10777.469    83.043592 
   24500    486.48343   -110.64181   0.44018043   -110.20163    -14073.13    4.3738125    4.3738125    4.3738125    -14073.13   -12593.088   -7174.7998   -22451.501   -1573.0062    5812.2033    7122.6661    83.672063 
   24600    354.08379   -110.52311   0.32038246   -110.20273    1517.9239    4.3528829    4.3528829    4.3528829    1517.9239    5116.6716   -8030.8589    7467.9591   -17911.959   -451.08807    9206.0347     82.47664 
   24700    701.89075   -110.83407    0.6350855   -110.19898   -5093.2656    4.3729685    4.3729685    4.3729685   -5093.2656    2667.0022   -4922.9474   -13023.851    2099.9041    1746.9627   -4451.9872    83.623636 
   24800      426.044   -110.59016   0.38549356   -110.20466   -1414.1225    4.3633538    4.3633538    4.3633538   -1414.1225     4490.573    5175.8179   -13908.758    -9434.185    3438.4625    8981.0875    83.073266 
   24900    346.00105   -110.51987   0.31306902    -110.2068    3522.6961    4.3574051    4.3574051    4.3574051    3522.6961    7235.4401   -4643.8886    7976.5367   -20473.958    1287.0354    5339.9295    82.733959 
   25000    720.27742   -110.84983   0.65172215   -110.19811    -7377.124     4.375746     4.375746     4.375746    -7377.124   -6343.0557    2818.6429   -18606.959    3282.8779    1847.3292   -2282.7092    83.783079 
   25100    449.30563   -110.60869   0.40654118   -110.20215   -727.39464     4.354493     4.354493     4.354493   -727.39464    5424.9093   -7501.0236   -106.06967   -9401.9575    1964.6823    6953.7042    82.568197 
   25200    351.60465   -110.52523   0.31813927   -110.20709   -5662.0262    4.3703007    4.3703007    4.3703007   -5662.0262   -14483.661    947.06538   -3449.4826   -15917.712    1239.9262    6758.1905    83.470682 
   25300     755.0289   -110.88432   0.68316602   -110.20115    4920.9959    4.3637191    4.3637191    4.3637191    4920.9959     10128.47    14813.639   -10179.121    5444.5169   -2937.1791   -6658.3221    83.094131 
   25400    275.48711   -110.45571   0.24926653   -110.20645    7489.7012    4.3586915    4.3586915    4.3586915    7489.7012    9590.0362    14095.199   -1216.1318    -18730.42    1155.2363    7147.4288    82.807255 
   25500    444.79522   -110.60546   0.40246006     -110.203   -13969.026    4.3769643    4.3769643    4.3769643   -13969.026   -11841.636   -17745.685   -12319.757   -9088.9397   -3900.7932    1097.3896    83.853079 
   25600    803.65031   -110.92151   0.72715969   -110.19435    17285.867    4.3484982    4.3484982    4.3484982    17285.867    22275.212    20104.565    9477.8244    6589.0677    207.80735    -3532.805    82.227652 
   25700    247.06066   -110.42904   0.22354568    -110.2055   -18306.292    4.3778016    4.3778016    4.3778016   -18306.292   -25681.325   -11830.944   -17406.607   -19194.202    3074.3739    11734.016     83.90121 
   25800    521.01578   -110.67399   0.47142603   -110.20256     5184.756    4.3584219    4.3584219    4.3584219     5184.756    7962.4641    423.39475    7168.4091   -10566.698   -1163.2617    856.42755     82.79189 
   25900    640.01222   -110.77805   0.57909651   -110.19896    12212.213    4.3601634    4.3601634    4.3601634    12212.213    23963.253    15775.186   -3101.7986    1189.3526    6156.3607    1117.9084    82.891176 
   26000    248.27541   -110.43008   0.22464481   -110.20543   -17781.637    4.3741396    4.3741396    4.3741396   -17781.637    -6239.864   -34945.745   -12159.301   -21825.848    2507.6549    9234.1779    83.690839 
   26100    616.12445   -110.75722   0.55748235   -110.19974    14516.957    4.3515816    4.3515816    4.3515816    14516.957    22854.105    7902.3279    12794.437    634.17473    207.13366   -3010.4147    82.402694 
   26200    710.21911   -110.84175   0.64262118   -110.19913   -15230.976    4.3761375    4.3761375    4.3761375   -15230.976   -11872.648   -14030.721    -19789.56    1474.6278    1931.0416    3024.7959    83.805572 
   26300    182.36881   -110.37064   0.16501114   -110.20563    705.94207    4.3574943    4.3574943    4.3574943    705.94207    9514.1501    -10933.94    3537.6162   -24586.121    328.74227     8119.005     82.73904 
   26400    672.15906   -110.81028   0.60818365   -110.20209    3732.4252    4.3642953    4.3642953    4.3642953    3732.4252    17240.862   -2701.9093   -3341.6775      4701.99    553.13887   -1592.1762    83.127052 
   26500    512.18832   -110.66727   0.46343876   -110.20383    8.6648115    4.3664859    4.3664859    4.3664859    8.6648115    17323.559   -12424.858   -4872.7065   -6268.6974    546.75132    3154.3783    83.252292 
   26600    253.03028   -110.43648   0.22894711   -110.20753   -4855.2667    4.3600276    4.3600276    4.3600276   -4855.2667   -3130.9312   -16109.842    4674.9731   -17282.394    1645.8168    6686.0642    82.883429 
   26700    816.40427    -110.9373   0.73869974    -110.1986   -4977.6576    4.3687486    4.3687486    4.3687486   -4977.6576   -4649.4684   -2103.2621   -8180.2423    4047.2123   -1794.6568   -3617.1248    83.381783 
   26800    412.72828   -110.57767   0.37344522   -110.20422    5437.5232    4.3592046    4.3592046    4.3592046    5437.5232    18795.031   -3416.7002     934.2391   -12927.435   -1933.8016    2541.0708    82.836504 
   26900     277.5123   -110.45757   0.25109896   -110.20647   -5647.2663    4.3690288    4.3690288    4.3690288   -5647.2663    6233.8314   -13187.809   -9987.8207   -16921.959    971.83538    5903.4887    83.397822 
   27000    785.14363   -110.90689   0.71041446   -110.19647    5109.9426    4.3644432    4.3644432    4.3644432    5109.9426    19648.312    3897.7902   -8216.2738    8360.6388   -4466.5637   -3593.2605    83.135507 
   27100     323.8832   -110.49738   0.29305632   -110.20432    1321.9388    4.3597802    4.3597802    4.3597802    1321.9388    722.34999   -3786.7063    7030.1729    -12491.42    3051.4087    7278.4958    82.869321 
   27200    476.80545   -110.63586   0.43142359   -110.20444    -11750.69    4.3705788    4.3705788    4.3705788    -11750.69   -10083.692   -14209.815   -10958.565    -12450.94   -2525.0793    2868.6293    83.486615 
   27300    708.02315   -110.83917   0.64063422   -110.19853    10158.626     4.361437     4.361437     4.361437    10158.626    24201.942    6461.4791    -187.5423    6610.9891   -798.34783    174.23105    82.963836 
   27400    253.25966   -110.43604   0.22915466   -110.20688     5649.934    4.3592341    4.3592341    4.3592341     5649.934    19830.635   -4409.4021    1528.5686   -20722.829    220.62726    7311.9195    82.838184 
   27500    553.59922   -110.70359   0.50090821   -110.20269   -11189.188     4.375393     4.375393     4.375393   -11189.188    5637.3994   -20607.888   -18597.075   -8774.9922     369.8357     859.6096    83.762801 
   27600    718.42102   -110.84775   0.65004244   -110.19771    14156.339    4.3538345    4.3538345    4.3538345    14156.339    14479.406    18360.343    9629.2685    4524.5233    -41.04444    1678.3554    82.530744 
   27700     256.7305   -110.43908   0.23229515   -110.20679   -7947.9193    4.3689899    4.3689899    4.3689899   -7947.9193    12114.242    -28271.69   -7686.3095   -22014.942    2575.2632    7494.1122    83.395596 
   27800    571.51911   -110.71972    0.5171225   -110.20259   -1819.7498    4.3692166    4.3692166    4.3692166   -1819.7498    12852.328   -7306.5446   -11005.033   -3820.2312    1178.4206    1786.0419    83.408581 
   27900    601.75866   -110.74422   0.54448388   -110.19974    17171.068    4.3505356    4.3505356    4.3505356    17171.068    28519.689     11614.21    11379.305   -2619.4783   -9107.9064   -1107.0449    82.343282 
   28000    281.18918   -110.45731   0.25442588   -110.20288   -22515.084    4.3809268    4.3809268    4.3809268   -22515.084   -15260.905   -30856.692   -21427.656   -21901.359    2394.4757    9428.3377    84.081023 
   28100    760.65122    -110.8842   0.68825321   -110.19595    13597.971    4.3518323    4.3518323    4.3518323    13597.971    14553.207    19693.676    6547.0295    6876.4088   -4795.4424   -4048.7344    82.416932 
   28200    486.34758   -110.64276   0.44005751   -110.20271   -635.82275    4.3673588    4.3673588    4.3673588   -635.82275    11825.917   -9610.8844   -4122.5011   -8562.6221   -2010.0729    1734.2723    83.302227 
   28300    237.01517   -110.42082    0.2144563   -110.20637   -8729.5898    4.3703036    4.3703036    4.3703036   -8729.5898   -76.175523   -19455.347   -6657.2469   -20836.176    2206.3745    8908.4081    83.470848 
   28400    753.96035   -110.87741   0.68219917   -110.19521    16275.599     4.352509     4.352509     4.352509    16275.599    19438.379    19745.461    9642.9579    1286.6748   -2563.0953   -4158.8964    82.455386 
   28500     392.7274   -110.55738   0.35534801   -110.20203   -10919.491    4.3747966    4.3747966    4.3747966   -10919.491   -12773.396   -5853.0787   -14131.999   -13992.198   -1262.7144    7528.4024    83.728553 
   28600    439.40242   -110.60135   0.39758054   -110.20377   -1007.1462    4.3564015    4.3564015    4.3564015   -1007.1462   -346.90357   -5141.2211    2466.6862   -16956.584   -1409.0778    4345.5301    82.676806 
   28700    746.58496   -110.87568   0.67552576   -110.20015    4956.1027    4.3649796    4.3649796    4.3649796    4956.1027    17821.347    7324.5043   -10277.544    11059.415    942.94523   -47.869588    83.166159 
   28800    329.45741   -110.50345   0.29809999   -110.20535   -11801.478     4.369794     4.369794     4.369794   -11801.478   -8873.9418   -18686.082   -7844.4109   -20721.295   -1364.0998    5151.4945    83.441654 
   28900    422.28495   -110.58455   0.38209229   -110.20246    2797.8409    4.3560946    4.3560946    4.3560946    2797.8409    8576.0767    -4508.521     4325.967   -14751.196    3531.3852    8533.2281    82.659336 
   29000    696.43972   -110.82841    0.6301533   -110.19826   -1141.4399    4.3699585    4.3699585    4.3699585   -1141.4399   -4273.5065    10520.923   -9671.7363    7844.6305   -1456.9116    1083.4073    83.451075 
   29100    278.64356   -110.45772   0.25212255    -110.2056   -10983.935    4.3654013    4.3654013    4.3654013   -10983.935   -11324.992   -22948.414    1321.5994   -23510.902   -1372.8827    9749.0632    83.190265 
   29200    552.63304   -110.70255   0.50003399   -110.20251    5385.7747    4.3565731    4.3565731    4.3565731    5385.7747    19331.035   -5444.3097    2270.5985   -2384.1171    675.61189    7117.0721    82.686578 
   29300    679.70521   -110.81465   0.61501155   -110.19964   -6907.3527    4.3732532    4.3732532    4.3732532   -6907.3527   -3033.3809   -5798.6357   -11890.042   -1460.2536   -5096.3189   -6341.0176    83.639972 
   29400    197.64491   -110.38595   0.17883327   -110.20712   -1345.9711    4.3577767    4.3577767    4.3577767   -1345.9711    192.32903   -12427.963    8197.7211   -26151.231    1343.1887    10339.092     82.75513 
   29500    657.30422   -110.79702   0.59474267   -110.20228    549.18822    4.3634004    4.3634004    4.3634004    549.18822    -1004.603    8762.4636    -6110.296   -701.28585    -786.1695    1877.5611    83.075926 
   29600    558.07027   -110.70587   0.50495371   -110.20091   -6717.1475    4.3719427    4.3719427    4.3719427   -6717.1475   -6078.5998   -7046.9224   -7025.9202   -1966.9644   -2378.2385   -1271.8678    83.564804 
   29700    332.67726   -110.50348   0.30101337   -110.20247   -1946.7088    4.3546467    4.3546467    4.3546467   -1946.7088   -2373.0631   -12981.394    9514.3302   -19444.351   -990.27641    13008.875     82.57694 
   29800     672.8805   -110.80884   0.60883642       -110.2   -281.59592    4.3709915    4.3709915    4.3709915   -281.59592    7361.6644    2998.1781    -11204.63    3906.9826   -2861.2314    69.761892    83.510268 
   29900    493.43867   -110.64948   0.44647368   -110.20301    6549.2151    4.3597061    4.3597061    4.3597061    6549.2151    2552.9742    8096.2894    8998.3818   -9734.5451   -511.35343   -1949.5533    82.865098 
   30000    244.01905   -110.42711   0.22079356   -110.20632   -3855.3448    4.3660915    4.3660915    4.3660915   -3855.3448   -5466.0832   -5635.1964   -464.75493   -17384.179    -3402.939    10770.861    83.229734 
   30100    760.07975   -110.88463   0.68773613    -110.1969    23.134617    4.3655007    4.3655007    4.3655007    23.134617    2243.7928    1057.8515   -3232.2404    8137.9362     3074.949    3005.7456     83.19595 
   30200    446.70639   -110.60575   0.40418933   -110.20156   -2058.5117    4.3612389    4.3612389    4.3612389   -2058.5117   -12426.784   -6094.4146    12345.663   -11338.891    1317.3824    3804.9209    82.952528 
   30300    411.40028   -110.57641   0.37224362   -110.20417    -11683.25    4.3686318    4.3686318    4.3686318    -11683.25   -6119.2616   -13685.092   -15245.397   -10814.684       2307.3    15915.082    83.375091 
   30400    695.55853   -110.82713   0.62935598   -110.19777    11371.353    4.3616755    4.3616755    4.3616755    11371.353    9117.7008    18005.012    6991.3468    978.56307    3053.2643    -1431.495    82.977446 
   30500    403.77997   -110.56917    0.3653486   -110.20382   -4840.0277    4.3655011    4.3655011    4.3655011   -4840.0277   -2815.9115   -13199.693    1495.5213   -20838.895   -1639.8031   -238.46137    83.195973 
   30600     388.0704   -110.55455   0.35113426   -110.20341    3885.5159    4.3631273    4.3631273    4.3631273    3885.5159    11967.958   -10811.577    10500.166   -3693.2704    1407.2037    12481.185    83.060333 
   30700    711.28561   -110.84105   0.64358617   -110.19747   -1509.9409    4.3673014    4.3673014    4.3673014   -1509.9409   -3780.7352    -4506.755    3757.6674    1923.9031   -3381.2217   -3931.7242    83.298942 
   30800    308.56682   -110.48229   0.27919775   -110.20309    3234.1149    4.3588688    4.3588688    4.3588688    3234.1149    1181.3866    -4930.501    13451.459   -13995.046    377.45808    7300.4751    82.817362 
   30900    519.18236   -110.67377   0.46976711     -110.204    -5348.336     4.369198     4.369198     4.369198    -5348.336   -3478.8711   -2148.8331   -10417.304   -3041.4125   -723.28985    12161.277    83.407515 
   31000    614.11347   -110.75587   0.55566277   -110.20021    7632.6768    4.3634829    4.3634829    4.3634829    7632.6768    5582.4627    8910.8188    8404.7489   -3322.1472     772.0067   -6346.3198    83.080638 
   31100     451.5895   -110.61097   0.40860767   -110.20236   -1102.8452    4.3588786    4.3588786    4.3588786   -1102.8452    6614.5057   -16896.788    6973.7469   -16376.796   -2380.8611    8262.1176    82.817919 
   31200    442.72207   -110.60058   0.40058423       -110.2   -3070.7694    4.3738795    4.3738795    4.3738795   -3070.7694   -2882.2014   -4095.5439   -2234.5628    6302.2939    1650.3912    9637.9796    83.675908 
   31300    613.49664   -110.75181   0.55510465    -110.1967    9210.2148    4.3543196    4.3543196    4.3543196    9210.2148    5602.2699    11882.804    10145.571   -4221.9631    4440.4153   -2577.8786    82.558333 
   31400     279.0525     -110.456   0.25249257   -110.20351    -6910.371    4.3694187    4.3694187    4.3694187    -6910.371   -17968.055    -1082.147   -1680.9108    -10470.27   -2379.4756    13051.777    83.420157 
   31500    641.16397   -110.77903   0.58013863   -110.19889   -1874.7804    4.3640774    4.3640774    4.3640774   -1874.7804   -854.69511    6387.7013   -11157.347    572.84365    10215.977    8115.8574      83.1146 
   31600    614.43443   -110.75497   0.55595318   -110.19901    4685.9403    4.3598497    4.3598497    4.3598497    4685.9403    3462.4285    1281.2537    9314.1388   -8310.0082    147.28605   -8245.6624    82.873287 
   31700    404.38024   -110.56717   0.36589174   -110.20128   -10967.969    4.3723151    4.3723151    4.3723151   -10967.969   -7839.4591   -12768.798   -12295.649   -7041.9108    51.593467    14135.287    83.586158 
   31800     531.8153   -110.67833   0.48119766   -110.19714    10923.934    4.3574221    4.3574221    4.3574221    10923.934    11424.824    17690.778    3656.1983    6088.2992    4313.1908    2088.5605    82.734926 
   31900     410.0986    -110.5695   0.37106583   -110.19844   -3254.2442    4.3693518    4.3693518    4.3693518   -3254.2442   -10017.796    6141.1077   -5886.0442   -4719.4772   -3434.3115    -1489.911    83.416324 
   32000    412.08573   -110.57338   0.37286383   -110.20052   -3732.9747    4.3614423    4.3614423    4.3614423   -3732.9747   -2250.5946    -8302.255    -646.0746   -8857.3268      -1510.9    17539.485    82.964136 
   32100    647.46441   -110.78543    0.5858394    -110.1996   -1569.6928    4.3635184    4.3635184    4.3635184   -1569.6928   -1921.9348     4165.877   -6953.0204     2258.156    4709.1054   -4131.5777    83.082671 
   32200    546.39904   -110.69476   0.49439333   -110.20037   -11133.972    4.3681127    4.3681127    4.3681127   -11133.972   -15121.492   -16036.142   -2244.2818       -12325    407.05847   -27.393622    83.345377 
   32300    444.64852   -110.60243   0.40232733    -110.2001    -499.6507    4.3604547    4.3604547    4.3604547    -499.6507    1326.2063    498.39631   -3323.5547   -4034.4445    1656.9665    12168.233    82.907788 
   32400    497.56111   -110.64843   0.45020375   -110.19823   -1467.9024    4.3675688    4.3675688    4.3675688   -1467.9024   -5251.0594    15140.285   -14292.932    6106.8166     9994.695   -2200.1217    83.314245 
   32500    392.66573   -110.55638   0.35529221   -110.20109    2139.4783     4.360305     4.360305     4.360305    2139.4783   -2511.3566   -1935.8073    10865.599    -7385.311   -4930.6898    2935.2612    82.899253 
   32600    490.57129   -110.64586   0.44387921   -110.20198   -4095.8827    4.3656788    4.3656788    4.3656788   -4095.8827    4205.9445   -6706.6673   -9786.9252   -1926.3111    5699.6208     13871.23    83.206132 
   32700    601.85793   -110.74366   0.54457371   -110.19909   -1518.6919     4.366107     4.366107     4.366107   -1518.6919   -8110.3287   -4113.6424    7667.8955    1619.7928    7691.4292   -7111.3372    83.230618 
   32800    546.92594   -110.69403   0.49487009   -110.19916   -2440.8496    4.3612342    4.3612342    4.3612342   -2440.8496    285.11061   -9565.3533    1957.6939   -12759.779     -2420.69    2225.8098     82.95226 
   32900    469.08056   -110.62407   0.42443395   -110.19963     423.3161    4.3660334    4.3660334    4.3660334     423.3161   -1720.5568    3955.3257   -964.82052    544.77904    8867.7286    11169.145    83.226409 
   33000    500.40181   -110.65181   0.45277407   -110.19904    3052.7261    4.3639136    4.3639136    4.3639136    3052.7261   -10247.092    9953.7427    9451.5277    2159.6732     2438.263   -4597.3951    83.105246 
   33100    416.51561   -110.57742   0.37687208   -110.20055    8294.7455    4.3606458    4.3606458    4.3606458    8294.7455    17083.834   -1587.6054    9388.0074   -8295.1557   -7423.3191    7628.1856    82.918693 
   33200    498.35708   -110.65234   0.45092396   -110.20142   -546.75967     4.367951     4.367951     4.367951   -546.75967    -6875.407    415.41231    4819.7157    1479.4664    9386.0316    2348.8559    83.336122 
   33300    585.79001   -110.72951   0.53003511   -110.19947    477.18865    4.3626947    4.3626947    4.3626947    477.18865    252.10387   -3269.9615    4449.4235    -2721.014    5225.7664   -3867.8203    83.035629 
   33400    575.07785   -110.71947   0.52034252   -110.19913    814.60175    4.3614987    4.3614987    4.3614987    814.60175    596.40057   -5568.9167    7416.3214   -9121.6634   -3788.2739   -63.576755    82.967355 
   33500    465.25309   -110.62069   0.42097077   -110.19972   -5207.0297    4.3694703    4.3694703    4.3694703   -5207.0297   -16988.187    6703.4192   -5336.3212    4305.3101    18556.725    6629.0142    83.423108 
   33600    446.04249   -110.60266   0.40358862   -110.19907    9785.8296    4.3582846    4.3582846    4.3582846    9785.8296    8227.8373    10087.593    11042.059    2880.5255   -1736.2003   -1764.6853    82.784069 
   33700    464.54141   -110.62113   0.42032683   -110.20081   -2330.8427    4.3684645    4.3684645    4.3684645   -2330.8427    -5643.576    4243.0601   -5592.0121   -4286.5484    -307.1884    3812.7188    83.365517 
   33800    418.00034   -110.57905   0.37821549   -110.20084    1888.7702    4.3621477    4.3621477    4.3621477    1888.7702    1025.4879    8620.7247   -3979.9018    6651.2457    19332.483     3045.822    83.004399 
   33900    666.53422   -110.80167   0.60309417   -110.19858   -5022.3468    4.3620684    4.3620684    4.3620684   -5022.3468   -5663.1096   -5920.1003   -3483.8306   -5325.1899   -3572.4392   -7767.0776    82.999872 
   34000    516.79583   -110.66686   0.46760772   -110.19925   -11892.204    4.3694007    4.3694007    4.3694007   -11892.204   -17778.368   -12075.023   -5823.2193   -9257.6299    6036.3668    4363.9865    83.419124 
   34100    442.07505   -110.60017   0.39999879   -110.20017    2002.8522    4.3575389    4.3575389    4.3575389    2002.8522   -4653.3507    13083.197   -2421.2899    5031.4897     15865.72     2.899869    82.741582 
   34200    526.76203   -110.67492   0.47662535    -110.1983   -3065.6774    4.3699781    4.3699781    4.3699781   -3065.6774   -2159.7706   -7979.6406    942.37898   -4323.5782   -9916.9681    3149.4682    83.452196 
   34300    384.13256   -110.54768   0.34757121    -110.2001    4893.9841    4.3605586    4.3605586    4.3605586    4893.9841    1156.5284    18367.763   -4842.3394    36.703513    9238.7696    2513.7568    82.913715 
   34400    478.57037   -110.63341   0.43302053   -110.20039   -4744.9253    4.3651425    4.3651425    4.3651425   -4744.9253   -7847.9184    6852.5601   -13239.418    5811.6634    18366.144    3389.3805    83.175475 
   34500    661.51962   -110.79578   0.59855685   -110.19722   -8.3008962    4.3629963    4.3629963    4.3629963   -8.3008962   -5526.2193   -1447.0588    6948.3754   -4820.2525   -7081.4586    -4626.276    83.052851 
   34600    404.83676    -110.5682   0.36630481   -110.20189   -7679.0502    4.3651628    4.3651628    4.3651628   -7679.0502   -10719.343     2294.939   -14612.747   -4509.9479    20184.636    1034.5008    83.176631 
   34700    510.19481    -110.6632   0.46163498   -110.20157    1324.4981    4.3616285    4.3616285    4.3616285    1324.4981    1080.3394   -2.5373199    2895.6923     7240.038     9125.727    1811.4919    82.974764 
   34800    625.24642   -110.76603    0.5657361    -110.2003    4944.8756    4.3630681    4.3630681    4.3630681    4944.8756    6985.5271    4821.8495    3027.2502   -3755.0961   -4788.3005    -3056.044    83.056952 
   34900    319.82114   -110.49347   0.28938089   -110.20409   -5618.3643    4.3687767    4.3687767    4.3687767   -5618.3643   -8014.5929    6644.3247   -15484.825    1764.8464    22015.931    4292.7806    83.383388 
   35000    601.58482   -110.74252   0.54432659    -110.1982    8115.9376    4.3575618    4.3575618    4.3575618    8115.9376    1635.4885    13334.222    9378.1019     4322.182    2040.0116   -2734.8916    82.742887 
   35100    527.48103   -110.67685   0.47727592   -110.19958   -3710.5152    4.3692158    4.3692158    4.3692158   -3710.5152    -6103.457   -2497.2817   -2530.8069   -9312.3664    2232.3887   -2014.4097    83.408531 
   35200    276.12958   -110.45287   0.24984785   -110.20303    1854.6337    4.3618392    4.3618392    4.3618392    1854.6337   -4081.1781    11589.552   -1944.4731   -850.64575    18644.511   -2668.5489    82.986787 
   35300    732.33358   -110.86072   0.66263081   -110.19809    4481.6005      4.36176      4.36176      4.36176    4481.6005    12855.184   -5076.4846    5666.1025   -415.12718   -4761.9001    6442.1478    82.982268 
   35400     489.1398   -110.64331   0.44258397   -110.20073   -6670.2714    4.3702078    4.3702078    4.3702078   -6670.2714   -4599.0702   -3777.6269   -11634.117   -2030.1151    9194.9335   -1492.0536    83.465361 
   35500    439.32999   -110.59858   0.39751501   -110.20107   -2451.7781    4.3587079    4.3587079    4.3587079   -2451.7781   -5458.0023    5214.2635   -7111.5954    241.74573     21831.84    2712.0377     82.80819 
   35600    661.77332   -110.79607   0.59878641   -110.19728    164.70922    4.3664479    4.3664479    4.3664479    164.70922    3094.5546   -5887.3421    3286.9151    2893.2841   -6135.8689    2307.5225    83.250118 
   35700    311.59501   -110.48415   0.28193771   -110.20221   -1169.2946    4.3651172    4.3651172    4.3651172   -1169.2946   -12129.355    5447.8842    3173.5869   -6577.2873    15917.465   -9191.1262    83.174027 
   35800    406.67399   -110.57011   0.36796717   -110.20214    3661.3858    4.3617038    4.3617038    4.3617038    3661.3858    1992.9112    15172.931   -6181.6846   -442.19567     11272.23    1857.9894    82.979058 
   35900    726.53665   -110.85482   0.65738563   -110.19744    2941.9831    4.3645791    4.3645791    4.3645791    2941.9831     6437.414   -524.28026    2912.8154    515.54452   -6234.3497   -202.35932     83.14327 
   36000    367.26247   -110.53674    0.3323068   -110.20443   -8883.3118    4.3653514    4.3653514    4.3653514   -8883.3118   -16289.449    5725.7152   -16086.202   -5933.9218    25814.937   -1314.4851    83.187416 
   36100     551.9048   -110.70223   0.49937506   -110.20285   -1307.7222    4.3593884    4.3593884    4.3593884   -1307.7222   -33.948256   -4023.7926    134.57429     5469.082    3593.4389    2585.7248    82.846985 
   36200    578.36862   -110.72363   0.52332008   -110.20031   -4347.0347    4.3695629    4.3695629    4.3695629   -4347.0347   -5127.1545   -9709.8989    1795.9491   -3850.9046   -1577.1982    3493.1888    83.428411 
   36300    287.91782   -110.46467    0.2605141   -110.20415    -839.8497    4.3613408    4.3613408    4.3613408    -839.8497   -11810.669    17333.975   -8042.8547   -3717.7434    19980.574   -5770.3413    82.958346 
   36400    594.81182   -110.73835   0.53819824   -110.20015    5547.0058    4.3620662    4.3620662    4.3620662    5547.0058    14734.443    10064.435   -8157.8604   -3492.2078   -1809.6413    6487.6061    82.999744 
   36500    564.41399   -110.71149   0.51069364   -110.20079   -2446.8091     4.369837     4.369837     4.369837   -2446.8091   -8641.6557     8395.795   -7094.5665   -1088.6985    7706.9758     6811.353    83.444114 
   36600    385.95966   -110.55165   0.34922441   -110.20242    5069.9731    4.3567362    4.3567362    4.3567362    5069.9731   -6645.8216    15482.451    6373.2903   -4530.1197    24250.997   -39.846845    82.695863 
   36700    558.00707   -110.70368   0.50489652   -110.19879   -4484.6785    4.3707445    4.3707445    4.3707445   -4484.6785    -7160.342   -14439.435    8145.7414    2267.1893   -8066.7243    5225.7322    83.496116 
   36800    499.76327   -110.65067   0.45219631   -110.19848   -4298.0025    4.3632871    4.3632871    4.3632871   -4298.0025   -11384.351     217.8542   -1727.5105      1304.67    11865.948   -588.98128    83.069458 
   36900    483.03976   -110.63645   0.43706453   -110.19938    -259.0895    4.3611997    4.3611997    4.3611997    -259.0895   -8186.3668    11299.069   -3889.9705   -5362.0177     14140.04   -4747.3015     82.95029 
   37000    613.39504   -110.75289   0.55501272   -110.19787   -1198.9137    4.3690463    4.3690463    4.3690463   -1198.9137    858.73749   -4107.4197     -348.059    4331.2031    -8804.041     3131.772    83.398826 
   37100    407.04041   -110.56799   0.36829872   -110.19969    7806.0705     4.360819     4.360819     4.360819    7806.0705     -10477.2    21959.888    11935.524   -4866.4454    20631.454     5481.769    82.928569 
   37200    470.98309   -110.62617    0.4261554   -110.20002    2394.0445    4.3646549    4.3646549    4.3646549    2394.0445   -8644.6055    6927.1166    8899.6223    788.61451    6768.6189   -2238.4018    83.147605 
   37300    552.89921   -110.69905   0.50027482   -110.19877   -1732.9605    4.3641725    4.3641725    4.3641725   -1732.9605   -1121.1207     4853.309   -8931.0698   -804.81794   -5353.4597    6511.3576    83.120036 
   37400     440.7342   -110.60034   0.39878557   -110.20155   -2976.5805    4.3641856    4.3641856    4.3641856   -2976.5805   -18545.046    6554.1058    3061.1986   -1116.6329    17957.121   -2267.1594    83.120786 
   37500     583.6614   -110.72707    0.5281091   -110.19896    1715.3918    4.3634055    4.3634055    4.3634055    1715.3918   -5475.7623    8478.4595    2143.4783    1025.4288   -192.31332   -1449.6297    83.076219 
   37600    485.13266   -110.63905   0.43895823   -110.20009   -2220.9337    4.3672931    4.3672931    4.3672931   -2220.9337   -5781.3894   -3325.0187     2443.607    -565.0919    722.48246    7975.3115    83.298471 
   37700    505.46085    -110.6578    0.4573516   -110.20045    3437.8071    4.3605684    4.3605684    4.3605684    3437.8071   -8759.6439    20699.551   -1626.4862    -233.6054    19765.501    3648.2283    82.914277 
   37800    545.92707   -110.69315   0.49396629   -110.19919    1779.1875    4.3649746    4.3649746    4.3649746    1779.1875    1588.2258    10247.847   -6498.5102   -4407.6952   -6603.5829   -279.27716    83.165877 
   37900    374.42403      -110.54   0.33878673   -110.20121   -8971.5445    4.3690498    4.3690498    4.3690498   -8971.5445   -9669.5537   -5226.6197    -12018.46     2042.439    4326.0985     2881.192    83.399029 
   38000    492.46297   -110.64438   0.44559085   -110.19879    12470.468    4.3539467    4.3539467    4.3539467    12470.468   -4789.0404    22739.899    19460.546     -5799.82    12615.885   -2883.9366     82.53712 
   38100    564.96526   -110.71092   0.51119244   -110.19972    -13568.86    4.3744272    4.3744272    4.3744272    -13568.86   -11565.281   -16496.019   -12645.279    2626.8009   -8593.9828   -1693.5159    83.707346 
   38200    456.15182   -110.61406   0.41273575   -110.20133   -1665.5123    4.3576935    4.3576935    4.3576935   -1665.5123   -1345.6645    4751.9004   -8402.7728    785.49862    11908.008    7177.2624    82.750387 
   38300    671.96451   -110.80766   0.60800761   -110.19965    514.10737    4.3627561    4.3627561    4.3627561    514.10737   -7655.5006    11122.563   -1924.7404   -3792.9217    8714.2596   -2183.8901    83.039135 
   38400    387.49252    -110.5518   0.35061138   -110.20119   -9040.1117    4.3726739    4.3726739    4.3726739   -9040.1117   -9233.2256   -10511.667   -7375.4425    1323.8541   -11761.526   -2304.9693    83.606736 
   38500    335.03147   -110.50287   0.30314351   -110.19973     10721.33    4.3514283    4.3514283    4.3514283     10721.33    6058.0107    15584.378      10521.6   -4842.0618    10264.242    72.015597    82.393984 
   38600    604.09424   -110.74394   0.54659717   -110.19734   -7733.9342    4.3737904    4.3737904    4.3737904   -7733.9342   -17422.359     4433.155   -10212.598    584.92855   -494.48572    -2183.093    83.670797 
   38700    476.28189    -110.6308   0.43094986   -110.19985   -7308.4727    4.3621136    4.3621136    4.3621136   -7308.4727    5975.1913   -6293.1302   -21607.479    -2927.409   -8103.8656    1693.9238    83.002448 
   38800    536.67495   -110.68572   0.48559477   -110.20013    318.66865     4.359004     4.359004     4.359004    318.66865    -4031.284    4125.0005    862.28953    4377.2352    16525.447    9543.9027    82.825069 
   38900    615.64522   -110.75461   0.55704874   -110.19756   -6276.2599    4.3713931    4.3713931    4.3713931   -6276.2599   -14011.345   -3618.5367   -1198.8977    1855.9074   -5216.4318   -4790.3728    83.533292 
   39000    310.28085   -110.48238   0.28074864   -110.20163   -551.81299    4.3584218    4.3584218    4.3584218   -551.81299    1750.6082   -2440.3668   -965.68029    1562.2792   -4501.8296     605.2125    82.791887 
   39100    519.46165   -110.67022   0.47001982    -110.2002   -1743.1933    4.3660205    4.3660205    4.3660205   -1743.1933   -8661.1496    14305.366   -10873.796    614.80446    9032.2288    6143.3493     83.22567 
   39200    642.08979   -110.77984   0.58097634   -110.19887   -6910.9459    4.3657429    4.3657429    4.3657429   -6910.9459   -8085.5706    3034.0737   -15681.341   -3127.3072   -9320.3133   -5962.5541    83.209797 
   39300    278.22389   -110.45545   0.25174282   -110.20371     1006.668    4.3604806    4.3604806    4.3604806     1006.668    10889.585   -4586.5634    -3283.018      1142.27     1797.586    9659.0315    82.909268 
   39400    700.85374   -110.83299   0.63414719   -110.19884   -659.94778    4.3650122    4.3650122    4.3650122   -659.94778   -10015.165    1819.4074    6215.9141   -4909.4277    10598.828   -956.81464    83.168024 
   39500    419.56584    -110.5816   0.37963199   -110.20197   -622.45259     4.365572     4.365572     4.365572   -622.45259    2626.9359   -1765.7485   -2728.5451     1425.318   -11445.772   -4907.9257    83.200024 
   39600    398.86118   -110.56408   0.36089798   -110.20318   -6314.2685    4.3605086    4.3605086    4.3605086   -6314.2685    854.62654    444.92119   -20242.353    -1099.772    781.50432    6062.9847    82.910863 
   39700    671.52137   -110.80559   0.60760665   -110.19799    1944.3027    4.3672627    4.3672627    4.3672627    1944.3027   -8488.7679    15211.946   -890.27037   -690.64526    1023.0723    4783.4702    83.296728 
   39800    427.57655   -110.58875   0.38688025   -110.20187   -3061.8982    4.3642562    4.3642562    4.3642562   -3061.8982    -4911.845   -1677.4927    -2596.357    96.873752   -13843.885    1580.2403    83.124816 
   39900    411.70617   -110.57561   0.37252039   -110.20309    5655.5482    4.3591303    4.3591303    4.3591303    5655.5482    8735.5312    1963.7846    6267.3288    1675.8723    7480.4752    8149.7637    82.832266 
   40000    722.77758   -110.85137   0.65398435   -110.19738   -3411.5365    4.3705003    4.3705003    4.3705003   -3411.5365   -8907.1821    454.24852   -1781.6757    5246.3975   -2282.5714   -1531.0118    83.482117 
   40100    352.03354   -110.52149   0.31852734   -110.20296   -899.25965    4.3583407    4.3583407    4.3583407   -899.25965    11991.456    2134.5744    -16823.81    341.62841   -11376.644   -2235.8809    82.787265 
   40200    436.73648   -110.59841   0.39516834   -110.20325    894.18104    4.3656108    4.3656108    4.3656108    894.18104   -1881.2812    2387.5095    2176.3148    5202.8248    2955.0241     11905.44    83.202243 
   40300    593.33756   -110.73598   0.53686429   -110.19912    8351.5735    4.3655844    4.3655844    4.3655844    8351.5735   -3926.1186    11063.903    17916.936   -724.51556   -8119.2244    -1834.582    83.200735 
   40400    356.69209   -110.52594    0.3227425    -110.2032    662.76117    4.3613311    4.3613311    4.3613311    662.76117   -2232.9478     5126.787   -905.55573   -1919.5206   -7532.9356    5930.2207    82.957792 
   40500    635.81664   -110.77452   0.57530026   -110.19922   -4957.6472    4.3681228    4.3681228    4.3681228   -4957.6472   -3098.3692   -1448.9646   -10325.608   -2204.5116    6294.2814    2190.3126    83.345955 
   40600    647.91171   -110.78382   0.58624413   -110.19758    1133.8058     4.360874     4.360874     4.360874    1133.8058   -2299.0253    6597.2539   -896.81129   -3528.0374   -9504.9288   -3928.2827    82.931712 
   40700    283.84186   -110.45967   0.25682608   -110.20284    -3111.322    4.3665471    4.3665471    4.3665471    -3111.322   -2918.1311   -9466.0076    3050.1727   -593.28919   -6328.2277     5722.418    83.255792 
   40800    564.98495    -110.7103   0.51121025   -110.19909    8766.0883    4.3629763    4.3629763    4.3629763    8766.0883    3178.0491    7389.1765    15731.039   -1881.8005    1076.6287    5504.9564    83.051707 
   40900    541.53167   -110.69038   0.48998924   -110.20039    3108.2184    4.3625825    4.3625825    4.3625825    3108.2184   -3677.4485     13884.58   -882.47651    2648.3088    -15460.89    760.56954     83.02922 
   41000    413.36285   -110.57693   0.37401939   -110.20291   -5087.6214    4.3671562    4.3671562    4.3671562   -5087.6214   -1398.4521    5999.5173   -19863.929    1938.7809   -817.74678    6828.3309    83.290638 
   41100    648.97172   -110.78549   0.58720325   -110.19829    8997.1863    4.3588061    4.3588061    4.3588061    8997.1863    8946.4331    5525.7943    12519.332    2520.3796     1516.074    2283.4386     82.81379 
   41200     367.2197   -110.53488    0.3322681   -110.20261   -1800.2906    4.3671142    4.3671142    4.3671142   -1800.2906   -17638.988    1676.3223    10561.794    1148.4089   -14617.958   -1910.3475    83.288232 
   41300    452.35631   -110.61115   0.40930149   -110.20185    482.58294     4.362517     4.362517     4.362517    482.58294    7076.1572   -2284.0231   -3344.3853    271.32327    977.25064    13837.999    83.025483 
   41400     684.9171   -110.81769   0.61972739   -110.19796    2483.1527    4.3633217    4.3633217    4.3633217    2483.1527    -4107.844     9001.449    2555.8532    1124.9951   -6963.7547   -1201.9744     83.07143 
   41500    431.86702   -110.59274   0.39076235   -110.20198    -4507.333    4.3653144    4.3653144    4.3653144    -4507.333   -14526.618    13644.786   -12640.167   -1929.9963   -13729.722    1802.5404    83.185302 
   41600    442.43225   -110.60193     0.400322    -110.2016     6028.334    4.3626056    4.3626056    4.3626056     6028.334      10026.4   -1494.6089    9553.2114    1975.8775    6530.9026    1639.8025    83.030536 
   41700    541.15046   -110.68852   0.48964431   -110.19887    2363.0826    4.3651979    4.3651979    4.3651979    2363.0826   -11179.744      4127.84    14141.151    -419.3743   -7798.8904   -4486.0748    83.178639 
   41800    426.50927   -110.58793   0.38591455   -110.20202   -6365.4167    4.3616823    4.3616823    4.3616823   -6365.4167   -6826.9435     561.2668   -12830.574   -2618.9825   -13184.373    3334.2182    82.977831 
   41900    567.08624   -110.71381   0.51311155    -110.2007   -2982.7481    4.3655121    4.3655121    4.3655121   -2982.7481    5705.7417   -9724.5939   -4929.3921     -1054.14    3787.5479    9906.2021    83.196601 
   42000    592.30418   -110.73578   0.53592927   -110.19985   -2300.2165    4.3632133    4.3632133    4.3632133   -2300.2165   -18871.681    8530.7502    3440.2815   -1661.8641   -15220.405   -163.25935    83.065243 
   42100     337.7659   -110.50883   0.30561768   -110.20321     -3360.78    4.3647169    4.3647169    4.3647169     -3360.78   -8743.8714    2049.2135   -3387.6821    85.074727   -7101.1028    2698.3745    83.151147 
   42200    574.37599   -110.71906   0.51970746   -110.19935    1275.6282    4.3632758    4.3632758    4.3632758    1275.6282    4965.5516   -4857.3616    3718.6946    841.08912    6882.8303     8517.706    83.068809 
   42300    544.28472   -110.69197   0.49248025   -110.19949   -7662.8152     4.365064     4.365064     4.365064   -7662.8152   -17945.345    9764.4935   -14807.594    3231.8271   -20055.404   -3242.4202    83.170986 
   42400    366.92307   -110.53359   0.33199971   -110.20159   -2245.9675    4.3644079    4.3644079    4.3644079   -2245.9675    3799.0237   -12369.057    1832.1303    1757.0266   -4835.2228    14393.457    83.133488 
   42500    547.47831   -110.69391   0.49536988   -110.19854    2601.2707    4.3628396    4.3628396    4.3628396    2601.2707   -123.84933     -3952.34    11880.001     867.4138   -4861.4003    4442.5566      83.0439 
   42600     468.1856   -110.62354   0.42362417   -110.19991   -6942.5404    4.3657979    4.3657979    4.3657979   -6942.5404   -19702.287    5650.7747   -6776.1086    1403.6338     -22507.6   -2174.2041    83.212941 
   42700    533.33164   -110.68212   0.48256968   -110.19955   -4488.0562    4.3625625    4.3625625    4.3625625   -4488.0562    2655.7575   -9622.3533   -6497.5726   -685.74648     4517.922    9587.5102    83.028079 
   42800    589.15636   -110.73164   0.53308105   -110.19856   -7222.0178    4.3657937    4.3657937    4.3657937   -7222.0178   -10447.129   -5614.6479   -5604.2764   -372.25872   -6607.9789   -1706.3945    83.212702 
   42900    393.07175   -110.55633   0.35565958   -110.20067   -1868.9547    4.3618617    4.3618617    4.3618617   -1868.9547   -19108.507    5468.0581    8033.5851   -2886.7192   -19019.246    3043.1637    82.988071 
   43000    490.03371   -110.64391    0.4433928   -110.20052   -1606.5653    4.3645875    4.3645875    4.3645875   -1606.5653    9053.9963   -18976.363    5102.6703   -605.60147    4923.5099    11579.064    83.143752 
   43100    526.31517   -110.67619   0.47622103   -110.19997   -5470.2045    4.3638758    4.3638758    4.3638758   -5470.2045   -12488.759    8973.4391   -12895.294   -820.63739   -16142.708    773.91254    83.103087 
   43200    500.99848   -110.65412   0.45331395    -110.2008   -3174.9388    4.3621718    4.3621718    4.3621718   -3174.9388   -4121.8018    2767.0643   -8170.0788   -2610.1194   -13843.151   -925.22417    83.005773 
   43300    554.80026   -110.70084   0.50199494   -110.19884   -4943.3387    4.3676315    4.3676315    4.3676315   -4943.3387    2660.9601   -17165.594   -325.38225   -286.04705    9857.8636    10753.292    83.317833 
   43400    410.08158   -110.57061   0.37105043   -110.19956    652.74783    4.3595208    4.3595208    4.3595208    652.74783   -15298.498    9930.8326    7325.9085    728.08165     -22585.2   -1470.8051    82.854528 
   43500    541.97115    -110.6898   0.49038689   -110.19941   -10244.052    4.3675504    4.3675504    4.3675504   -10244.052   -7648.2998   -10722.611   -12361.245    1243.9139   -11321.075    9660.5739    83.313192 
   43600    542.80997   -110.69013   0.49114587   -110.19898    607.32221    4.3616521    4.3616521    4.3616521    607.32221    16099.461   -7659.4386   -6618.0554    1780.7353    1903.1244    12474.306     82.97611 
   43700    421.63282    -110.5823   0.38150224   -110.20079   -2275.5125    4.3636211    4.3636211    4.3636211   -2275.5125   -11223.065    17796.657   -13400.129    5093.1686   -23509.919   -5658.2333    83.088534 
   43800    488.95447   -110.64168   0.44241628   -110.19927    3177.2016    4.3664234    4.3664234    4.3664234    3177.2016    9829.8105   -7265.3151    6967.1095    1923.4842    2901.0163    8069.1352    83.248716 
   43900    508.92432   -110.65943   0.46048542   -110.19894    5737.3974    4.3591065    4.3591065    4.3591065    5737.3974    5516.6664    8380.9507    3314.5752    193.53547   -2589.4655    3694.0949    82.830911 
   44000    467.54281   -110.62334   0.42304256    -110.2003   -13814.085    4.3705532    4.3705532    4.3705532   -13814.085    -21048.84    1864.3251   -22257.739   -1262.5242   -24080.789   -2785.1384    83.485151 
   44100    624.07816   -110.76215   0.56467904   -110.19747    5373.9593    4.3583459    4.3583459    4.3583459    5373.9593    19359.168    -7440.692    4203.4022    -2819.004    2345.7475    12611.941    82.787559 
   44200    478.18597   -110.63315   0.43267271   -110.20047   -1140.8598    4.3643773    4.3643773    4.3643773   -1140.8598    15.972052   -514.81003   -2923.7413    -2663.708   -6464.0991    3711.7281     83.13174 
   44300    331.96386   -110.50232   0.30036787   -110.20195    4231.4556    4.3674046    4.3674046    4.3674046    4231.4556    205.83847    4247.1142     8241.414    1210.2251   -15768.873   -3251.5196    83.304851 
   44400     710.4731   -110.83964   0.64285099   -110.19679    7809.9874    4.3569387    4.3569387    4.3569387    7809.9874    18760.986   -1500.1939    6169.1704    561.60849     6982.624    8589.2334    82.707396 
   44500    417.94601   -110.57966   0.37816633   -110.20149   -5859.3316    4.3698322    4.3698322    4.3698322   -5859.3316   -5506.9637    6749.2604   -18820.292    1694.3105   -17472.987    966.49238    83.443839 
   44600      536.708   -110.68585   0.48562468   -110.20022   -828.35974    4.3621904    4.3621904    4.3621904   -828.35974   -3338.8828    1229.3739    -375.5703    286.57204   -15050.998    345.71384    83.006835 
   44700    538.47535   -110.68588   0.48722381   -110.19865     13925.25    4.3582714    4.3582714    4.3582714     13925.25    26622.267   -4339.9558    19493.439   -1653.0473    8725.2493    12978.675    82.783318 
   44800    335.58382   -110.50639    0.3036433   -110.20275   -4550.5046    4.3709565    4.3709565    4.3709565   -4550.5046   -7580.3643   -1176.8563   -4894.2933    1550.0509   -21075.312   -945.22776    83.508265 
   44900    576.93781   -110.72136   0.52202546   -110.19934    3554.5161    4.3582287    4.3582287    4.3582287    3554.5161    10254.001    4934.7402   -4525.1933    -1622.382   -6480.0313   -309.76299    82.780881 
   45000    650.21131   -110.78749   0.58832486   -110.19917    699.19373    4.3628343    4.3628343    4.3628343    699.19373    9560.4341   -3887.3436   -3575.5093    1644.7403   -1714.4714    8600.3063    83.043601 
   45100    356.32233   -110.52488   0.32240794   -110.20247   -8979.9319    4.3704984    4.3704984    4.3704984   -8979.9319   -15200.443   -1197.1058   -10542.247    341.98809   -23833.421    -4203.484    83.482009 
   45200    554.99537   -110.70057   0.50217147    -110.1984     13241.41    4.3548767    4.3548767    4.3548767     13241.41    16643.632    13.124102    23067.473    1217.6207     5021.316    6191.6488    82.590024 
   45300     500.3057    -110.6526   0.45268711   -110.19992   -4668.4096    4.3710607    4.3710607    4.3710607   -4668.4096    6118.6355   -12246.604   -7877.2604   -3476.4192   -1978.8632    7766.8143    83.514235 
   45400    383.92266   -110.54895   0.34738129   -110.20157   -7426.4951    4.3625803    4.3625803    4.3625803   -7426.4951   -11247.231    6624.5347   -17656.789   -1136.7438   -23192.553   -1346.1429    83.029094 
   45500    649.65859   -110.78573   0.58782474    -110.1979     7591.014    4.3566142    4.3566142    4.3566142     7591.014    8919.6758    7570.6301    6282.7361    640.28777    4542.4465    1222.1946    82.688918 
   45600    439.50324   -110.59884   0.39767177   -110.20117   -7939.5014    4.3731274    4.3731274    4.3731274   -7939.5014   -11620.866   -6375.2604   -5822.3781    -4834.118   -11943.284    1600.1249    83.632754 
   45700     370.6296   -110.53718   0.33535345   -110.20183    6939.2017    4.3560737    4.3560737    4.3560737    6939.2017   -5938.0791    16431.278    10324.406    3889.6141   -18527.328   -5229.3866    82.658144 
   45800    696.46041    -110.8287   0.63017202   -110.19853    1915.2011    4.3640255    4.3640255    4.3640255    1915.2011    17155.549   -10590.832   -819.11395   -3035.7319    10755.437    412.41547    83.111639 
   45900    393.24454   -110.55865   0.35581592   -110.20283   -14267.091    4.3697274    4.3697274    4.3697274   -14267.091   -19926.082   -8116.9852   -14758.206    -702.3108   -26153.951    5311.2301    83.437835 
   46000    449.65655    -110.6082   0.40685869   -110.20134    5059.5095    4.3540103    4.3540103    4.3540103    5059.5095   -4613.7384    8892.1256    10900.141   -1814.6061   -14027.568   -5435.4414    82.540741 
   46100    665.03408    -110.8003   0.60173681   -110.19856   -2277.0396     4.370296     4.370296     4.370296   -2277.0396   -5211.0141   -11884.713    10264.608   -779.60235     8924.432     4060.153    83.470415 
   46200    304.69541   -110.48072   0.27569481   -110.20503   -2456.2009    4.3619825    4.3619825    4.3619825   -2456.2009    -10771.88    5576.5107   -2173.2334    728.45381   -26569.774   -806.65568    82.994966 
   46300    656.90698   -110.79605   0.59438324   -110.20166    2354.7867    4.3587761    4.3587761    4.3587761    2354.7867    2050.9073    7835.2084   -2821.7557    712.03002   -3398.2375   -1448.8216     82.81208 
   46400    562.66491   -110.70862   0.50911103   -110.19951   -4882.5444     4.371914     4.371914     4.371914   -4882.5444   -4988.0584   -15834.603    6175.0282    1945.6641   -2346.5311    4798.6747    83.563154 
   46500    178.91098   -110.36637   0.16188241   -110.20449    1003.1419    4.3569211    4.3569211    4.3569211    1003.1419   -17943.124    8551.6773    12400.873   -2087.9775   -30635.306    4368.9854    82.706394 
   46600    714.93537   -110.84655   0.64688855   -110.19966   -678.34784    4.3646218    4.3646218    4.3646218   -678.34784   -6022.7418   -4736.8928    8724.5911    3155.4658    4130.3178    1219.5686    83.145709 
   46700    477.10071   -110.63534   0.43169075   -110.20365   -3861.4247    4.3669452    4.3669452    4.3669452   -3861.4247   -8330.4903     3662.224   -6916.0078   -3210.9946   -9686.3585    510.06009    83.278561 
   46800    393.79839   -110.56141   0.35631706   -110.20509   -4088.7458    4.3574176    4.3574176    4.3574176   -4088.7458   -18593.767    8740.2459   -2412.7167   -1149.2233   -31185.419     1518.518    82.734671 
   46900    705.04121   -110.83748    0.6379361   -110.19954    7137.9355    4.3684207    4.3684207    4.3684207    7137.9355    1215.0178   -6784.0921    26982.881    1001.2826    8630.6364   -2729.6153    83.363006 
   47000    319.00095   -110.49535   0.28863876   -110.20671   -6615.1195    4.3625495    4.3625495    4.3625495   -6615.1195   -20112.235   -1064.5846    1331.4614   -3985.6664   -25636.973    947.55509    83.027337 
   47100    434.07091   -110.59784   0.39275648   -110.20508   -7762.3916    4.3604329    4.3604329    4.3604329   -7762.3916   -13972.205   -1411.5715   -7903.3981     318.4368   -18739.523    4584.9525    82.906544 
   47200    794.55171   -110.91702   0.71892709    -110.1981   -2577.4399    4.3691739    4.3691739    4.3691739   -2577.4399   -8467.7676   -12503.249    13238.697   -2066.8404    10108.089   -3977.9034    83.406137 
   47300    193.84924   -110.38279   0.17539887   -110.20739    2637.0388    4.3574818    4.3574818    4.3574818    2637.0388     -17896.6    17090.181    8717.5354   -281.67136   -32770.455     104.7362    82.738331 
   47400    567.12838   -110.71836   0.51314968   -110.20521   -3314.3389    4.3669048    4.3669048    4.3669048   -3314.3389    -12310.88   -5689.6396    8057.5032    -3508.178   -8875.9289   -1887.5244    83.276252 
   47500    699.99434   -110.83281   0.63336959   -110.19944    2610.2162    4.3652059    4.3652059    4.3652059    2610.2162    559.50607    4435.6797    2835.4629   -439.20864   -2162.3561     -1987.36    83.179099 
   47600    241.43203   -110.42352   0.21845277   -110.20507    -9125.669     4.359792     4.359792     4.359792    -9125.669   -19525.696    8766.5173   -16617.828   -3931.6991   -31102.968    3733.8494    82.869995 
   47700    548.33975   -110.69711   0.49614933   -110.20096   -1110.0033    4.3679712    4.3679712    4.3679712   -1110.0033   -6384.9211   -14009.653    17064.564   -152.46669    6307.3646    7807.9909    83.337276 
   47800    548.01204   -110.69719   0.49585281   -110.20134    867.07731    4.3621894    4.3621894    4.3621894    867.07731   -12038.331    2409.7074    12229.855    2462.0026   -12888.554     4071.617    83.006777 
   47900    321.65676   -110.49649   0.29104179   -110.20545   -4616.4061    4.3604437    4.3604437    4.3604437   -4616.4061   -14427.547    10363.579   -9785.2501   -1766.3217   -28844.463    1513.6419    82.907161 
   48000    759.01109   -110.88554   0.68676919   -110.19877   -5553.0647     4.369882     4.369882     4.369882   -5553.0647    5825.8355   -17219.093   -5265.9365    5809.8252    8525.3063    8498.4043    83.446692 
   48100    446.68999   -110.60587   0.40417449   -110.20169    2963.2808    4.3593616    4.3593616    4.3593616    2963.2808   -4053.1993    12980.771    -37.72962    -2754.639   -16561.557   -5370.2892    82.845451 
   48200    302.83127   -110.47722    0.2740081   -110.20321   -3004.1909    4.3632052    4.3632052    4.3632052   -3004.1909   -7082.3941   -8021.7909    6091.6122   -1088.4653   -14372.484    5371.6385     83.06478 
   48300     654.2049   -110.78987   0.59193834   -110.19793   -6005.6031    4.3678049    4.3678049    4.3678049   -6005.6031   -4521.7461   -18519.544    5024.4812   -1852.0475    7458.3899    4940.4384    83.327755 
   48400    446.73215    -110.6056   0.40421264   -110.20139    3360.1576     4.356551     4.356551     4.356551    3360.1576   -2227.2454    15344.749   -3037.0305   -108.60524   -25331.375   -2861.6321    82.685319 
   48500    500.99013   -110.65509    0.4533064   -110.20178   -9054.8522    4.3708209    4.3708209    4.3708209   -9054.8522   -3298.9973   -11166.067   -12699.493   -1921.2664   -9268.2665    5151.1368    83.500491 
   48600    597.87348   -110.73945   0.54096849   -110.19848        12435      4.35744      4.35744      4.35744        12435    18759.565    1262.4357    17282.999   -304.74335    8893.3893    1455.5347    82.735949 
   48700    360.48024   -110.52963    0.3261701   -110.20346    216.51749    4.3641953    4.3641953    4.3641953    216.51749   -10608.976    7505.1989    3753.3296    1698.6801   -24183.753   -936.64382    83.121339 
   48800    537.59504   -110.68666   0.48642729   -110.20023   -10181.811    4.3674437    4.3674437    4.3674437   -10181.811   -6169.4776   -20810.088   -3565.8689   -7111.4351   -2067.8025    6248.2085    83.307087 
   48900    575.50857   -110.71941   0.52073225   -110.19868    6277.9508    4.3552578    4.3552578    4.3552578    6277.9508    14209.522    990.55656    3633.7735    1915.7053   -2695.2366    6963.9316    82.611707 
   49000     434.2196   -110.59385   0.39289102   -110.20096   -13017.134    4.3735467    4.3735467    4.3735467   -13017.134    -15279.05   -9147.3872   -14624.965   -4363.0161   -19486.734   -2147.5009    83.656811 
   49100    496.79151   -110.64897    0.4495074   -110.19946    16238.779    4.3535342    4.3535342    4.3535342    16238.779    23830.765   -180.74188    25066.314   -2130.9611    7206.7243    7501.2792    82.513663 
   49200    570.88315   -110.71759   0.51654708   -110.20104   -2381.0706    4.3680544    4.3680544    4.3680544   -2381.0706   -1130.6665    -2204.063   -3808.4823    3350.9421   -4019.2949   -276.94322    83.342037 
   49300     424.9501   -110.58571   0.38450378    -110.2012   -6100.2185    4.3655561    4.3655561    4.3655561   -6100.2185   -12562.371    3569.7706   -9308.0549   -2188.4329   -20046.517   -613.00401    83.199117 
   49400    587.85143   -110.72925   0.53190032   -110.19735    5316.7834    4.3530254    4.3530254    4.3530254    5316.7834    13852.628   -4425.9268    6523.6491   -1039.1931    3790.8383    11888.042    82.484736 
   49500    412.57214   -110.57235   0.37330394   -110.19905   -9146.3098     4.376209     4.376209     4.376209   -9146.3098   -8296.3093    -12754.58   -6388.0399   -1177.9344   -7322.1428    1950.1351    83.809675 
   49600    431.20302   -110.59016   0.39016156   -110.19999    9936.7969     4.352822     4.352822     4.352822    9936.7969     8375.704    5855.8047    15578.882    -1247.095   -13405.943    5116.1289    82.473175 
   49700    615.02842   -110.75635   0.55649064   -110.19986   -120.32555    4.3642916    4.3642916    4.3642916   -120.32555     14386.79   -12800.731   -1947.0357   -4451.9659    8526.5845    9319.1421     83.12684 
   49800     557.6005   -110.70354   0.50452865   -110.19901   -10589.332    4.3702873    4.3702873    4.3702873   -10589.332   -12054.392   -4566.8347   -15146.769    2327.1177   -18336.902   -4278.9175    83.469913 
   49900    471.37349   -110.62417   0.42650864   -110.19766    4440.5923    4.3528537    4.3528537    4.3528537    4440.5923     2480.034    5603.8993    5237.8438   -4873.4657   -12011.171    4438.3428    82.474981 
   50000    485.42298   -110.63809   0.43922091   -110.19887   -3369.1859    4.3701382    4.3701382    4.3701382   -3369.1859    6816.6551   -26153.812    9229.5994   -2850.2715    5842.3854    7530.7181    83.461373 
   50100    409.50632   -110.57101   0.37052993   -110.20048    3229.5981    4.3620592    4.3620592    4.3620592    3229.5981    6542.3893    1584.8662    1561.5388    408.58418   -11658.386   -2278.3286    82.999347 
   50200    519.96009   -110.67059   0.47047081   -110.20012    4298.1752      4.35756      4.35756      4.35756    4298.1752    14997.619   -2796.9386    693.84551    -9186.263    -3697.331    8400.7733    82.742784 
   50300    617.26735   -110.75718   0.55851647   -110.19866   -5354.2106    4.3701414    4.3701414    4.3701414   -5354.2106    5803.8289   -11862.217   -10004.244   -483.00426     622.9059    6522.6082    83.461552 
   50400    461.62133   -110.61847   0.41768468   -110.20079    1812.3417    4.3574866    4.3574866    4.3574866    1812.3417   -7035.6369    13998.344    -1525.682    617.55121   -17666.906   -4245.1312    82.738602 
   50500    449.11605   -110.60769   0.40636964   -110.20132    998.21802    4.3630947    4.3630947    4.3630947    998.21802    6058.4371   -8685.8086    5622.0255   -642.40177   -576.53957    9670.4427    83.058468 
   50600    485.40388   -110.63826   0.43920364   -110.19906   -1314.5776    4.3674622    4.3674622    4.3674622   -1314.5776    16759.154   -15693.222   -5009.6641    4181.5317     2688.407    5721.5807    83.308144 
   50700    459.65367   -110.61522    0.4159043   -110.19932    603.45924    4.3572273    4.3572273    4.3572273    603.45924    1692.7735    5540.4126   -5422.8084    2448.3479   -17893.724   -1171.7108    82.723833 
   50800    604.48666   -110.74617   0.54695223   -110.19922   -7094.4029    4.3673123    4.3673123    4.3673123   -7094.4029    9636.6839   -18562.822   -12357.071   -1841.1464    32.921859    16092.726    83.299566 
   50900    576.46012   -110.72157   0.52159323   -110.19997    43.701029    4.3615283    4.3615283    4.3615283    43.701029   -3799.0148    1127.5172    2802.6007   -687.24004    -9242.616   -611.70605    82.969046 
   51000    390.78218   -110.55545   0.35358793   -110.20186   -275.06209    4.3607801    4.3607801    4.3607801   -275.06209   -10063.087    5407.0998    3830.8007    2531.8967   -9620.9483    781.90752    82.926351 
   51100    483.71995   -110.63763   0.43767997   -110.19995   -1007.3149    4.3674561    4.3674561    4.3674561   -1007.3149    16852.599   -12972.411   -6902.1326   -1828.7764    6352.8243    12246.583    83.307797 
   51200    511.62237   -110.66165   0.46292667   -110.19872    2388.4448    4.3585901    4.3585901    4.3585901    2388.4448    6574.2065    2545.5766   -1954.4486    134.48301   -4621.2166   -3171.9613    82.801476 
   51300    411.71939    -110.5742   0.37253236   -110.20166   -10055.778    4.3652033    4.3652033    4.3652033   -10055.778   -4375.4003    -6816.706   -18975.228    1026.7048   -11046.049    7237.4684    83.178947 
   51400    626.76065   -110.76678   0.56710621   -110.19968    35.822173    4.3627377    4.3627377    4.3627377    35.822173    10386.041   -10381.485    102.90996   -5568.0752    2183.7201    14311.938    83.038084 
   51500    553.95281   -110.70157   0.50122814   -110.20035     1865.625    4.3610847    4.3610847    4.3610847     1865.625   -6208.4375    6188.9801    5616.3325    3252.3581    -9575.078   -3942.2067    82.943728 
   51600    372.65229   -110.54055   0.33718363   -110.20336    -3066.353     4.364478     4.364478     4.364478    -3066.353    6166.0025   -956.27911   -14408.782    55.894156   -5349.8529    9384.5852    83.137493 
   51700    568.99268    -110.7141   0.51483653   -110.19926    4845.9239    4.3631258    4.3631258    4.3631258    4845.9239    25205.465   -3940.5841   -6727.1089    4226.8573    3668.2127    12630.192    83.060245 
   51800    510.68431   -110.66234    0.4620779   -110.20026    1689.3847    4.3602358    4.3602358    4.3602358    1689.3847    1951.7534    6727.3809   -3610.9803    5842.8631   -15367.891   -4969.6772    82.895306 
   51900    328.23643   -110.50063   0.29699522   -110.20364   -5148.8962    4.3675636    4.3675636    4.3675636   -5148.8962   -430.71267   -11935.895   -3080.0811    1772.7074    -5930.188    19777.775    83.313947 
   52000    634.73934   -110.77271    0.5743255   -110.19839    7219.0767     4.361858     4.361858     4.361858    7219.0767    6272.2575   -972.82308    16357.796    3132.9756    416.95203     6929.456    82.987862 
   52100    566.22369   -110.71233   0.51233109       -110.2    581.83994    4.3605302    4.3605302    4.3605302    581.83994   -4859.9914    5815.6036    789.90758   -2013.7977   -7818.0517   -1287.3849    82.912098 
   52200    403.04206   -110.56693   0.36468092   -110.20225   -10564.971    4.3699908    4.3699908    4.3699908   -10564.971    1893.4717   -10524.624   -23063.762    1677.3074    2020.4345    20697.464    83.452929 
   52300    697.60831   -110.82839   0.63121066   -110.19718    8580.6697    4.3566266    4.3566266    4.3566266    8580.6697    13510.295     3714.821    8516.8933   -5867.9299    1301.8476   -3000.8536    82.689622 
   52400    331.29568   -110.50082   0.29976329   -110.20106   -1358.0588    4.3665186    4.3665186    4.3665186   -1358.0588   -8872.5566   -4530.3865    9328.7669    2421.3771   -13331.366    3574.3743     83.25416 
   52500    366.40021   -110.53457   0.33152661   -110.20305   -3978.4488    4.3637178    4.3637178    4.3637178   -3978.4488    4534.0485    -15239.36   -1230.0348   -1326.6448    276.28776    21955.614     83.09406 
   52600    661.41691   -110.79642   0.59846392   -110.19795    12570.673    4.3571882    4.3571882    4.3571882    12570.673    14610.804    13810.945    9290.2703   -121.32474   -1669.3704   -5863.9955    82.721605 
   52700     540.2296   -110.69104    0.4888111   -110.20223   -15281.204    4.3701562    4.3701562    4.3701562   -15281.204   -11164.826   -10920.709   -23758.076    6472.9155   -7187.9844    8264.7868    83.462405 
   52800    389.16703   -110.55472   0.35212651   -110.20259    7158.7563     4.358402     4.358402     4.358402    7158.7563    15926.839    4083.3691     1466.061   -1848.3849    4315.5639    17836.841    82.790757 
   52900    680.46667   -110.81405   0.61570054   -110.19835    1855.2307    4.3621967    4.3621967    4.3621967    1855.2307   -6215.4059   -5914.8557    17695.954    5360.1004   -4069.2787   -11348.706    83.007191 
   53000    304.58993   -110.47957   0.27559937   -110.20398   -6879.3058    4.3669123    4.3669123    4.3669123   -6879.3058   -5412.9388   -8962.9425   -6262.0361   -695.24686   -7845.2291    17854.594    83.276684 
   53100    522.88549   -110.67402   0.47311778    -110.2009   -1185.2216    4.3600586    4.3600586    4.3600586   -1185.2216    12034.325   -6980.4686   -8609.5213    3153.7155   -1630.4889    15080.763    82.885197 
   53200    622.56188   -110.76153   0.56330707   -110.19822    1837.1964    4.3639515    4.3639515    4.3639515    1837.1964    6957.6924    4443.4598   -5889.5629    618.75011    456.08402   -14816.809    83.107411 
   53300    342.37827   -110.51303   0.30979106   -110.20324   -2936.7405    4.3637601    4.3637601    4.3637601   -2936.7405    7614.6387   -12178.198   -4246.6628     604.8528   -3163.5902    22468.008    83.096477 
   53400    525.35602   -110.67673   0.47535317   -110.20137     3588.246     4.361485     4.361485     4.361485     3588.246    9717.2497   -7980.6531    9028.1414   -2186.1157    5562.0271    4480.8792    82.966571 
   53500    587.69183   -110.73166   0.53175592    -110.1999    -1057.994     4.363082     4.363082     4.363082    -1057.994   -1503.0759    -4668.953     2998.047    -2809.909   -186.98693   -7580.7843    83.057744 
   53600    371.81961   -110.53934    0.3364302   -110.20291   -14378.668    4.3661864    4.3661864    4.3661864   -14378.668   -6359.4483   -16595.829   -20180.727    3106.6231   -5421.9538    28692.078    83.235163 
   53700     597.9937   -110.74026   0.54107726   -110.19918    8140.9192    4.3580553    4.3580553    4.3580553    8140.9192    8270.2795    11001.188    5151.2903   -3613.0157    2005.4143   -6664.9375    82.771004 
   53800    533.68506   -110.68305   0.48288946   -110.20016   -5416.6942    4.3678321    4.3678321    4.3678321   -5416.6942   -6157.7646   -11169.697    1077.3793    8213.7134   -2678.2084   -3477.8063    83.329312 
   53900     306.0661   -110.48066   0.27693504   -110.20373    258.00732    4.3604613    4.3604613    4.3604613    258.00732    8494.0448   -8835.5335    1115.5106    1772.2956   -906.97948    25370.438    82.908165 
   54000    728.73809   -110.85858   0.65937753    -110.1992    3052.2065    4.3607379    4.3607379    4.3607379    3052.2065    7147.8173   -2301.9236    4310.7258   -142.10532   -1242.6035   -5351.1051    82.923944 
   54100    439.96765   -110.60081   0.39809198   -110.20272   -6142.9157    4.3686492    4.3686492    4.3686492   -6142.9157    3351.8957   -9660.0474   -12120.595     496.8358   -483.28163    6171.7643    83.376088 
   54200    415.96078   -110.57867   0.37637006    -110.2023    1620.7359    4.3572751    4.3572751    4.3572751    1620.7359    7784.9154   -2244.4116   -678.29626   -1614.1732   -9759.7304    21159.251    82.726556 
   54300     582.4424   -110.72542   0.52700613   -110.19842    7285.8367    4.3667638    4.3667638    4.3667638    7285.8367    858.92934    3905.3445    17093.236   -2473.2656   -3151.7269   -14157.369    83.268188 
   54400    408.40796   -110.57123   0.36953611   -110.20169   -1925.2597    4.3622441    4.3622441    4.3622441   -1925.2597   -151.84906   -15136.361    9512.4308    750.77841   -429.23807    13042.052      83.0099 
   54500    440.37994   -110.60123   0.39846503   -110.20276   -2827.4427    4.3611436    4.3611436    4.3611436   -2827.4427     527.3349   -877.93439   -8131.7286    1145.1249   -4306.5568    18875.732    82.947091 
   54600    766.77197   -110.89167    0.6937914   -110.19788   -3422.8877    4.3661685    4.3661685    4.3661685   -3422.8877   -9332.0876   -1008.8856    72.309993   -5885.3183    4936.4318   -11710.036    83.234135 
   54700    404.59696   -110.56906   0.36608784   -110.20297   -3131.4818    4.3608077    4.3608077    4.3608077   -3131.4818    5039.6261   -9963.7687   -4470.3028     4020.055   -1327.5435    18775.304    82.927927 
   54800    422.83897   -110.58644   0.38259359   -110.20384    2196.7519    4.3636908    4.3636908    4.3636908    2196.7519   -3080.8219   -237.96054    9909.0381   -5230.2961    -5834.885    6098.7281    83.092514 
   54900    615.92698   -110.75494   0.55730368   -110.19763    1922.0784    4.3660056    4.3660056    4.3660056    1922.0784   -140.03389   -8966.1291    14872.398   -614.86648   -3341.8292   -2851.2231    83.224819 
   55000    324.02495   -110.49545   0.29318458   -110.20226   -870.12532    4.3581217    4.3581217    4.3581217   -870.12532    11120.784     -3401.62    -10329.54    6424.8215   -2817.5282    23492.582    82.774786 
   55100    530.94211   -110.68209   0.48040757   -110.20168    -6904.242    4.3673874    4.3673874    4.3673874    -6904.242   -8603.8562    177.13404   -12286.004   -1848.0508    -6187.521    3853.5765    83.303863 
   55200    605.15209   -110.74705   0.54755432   -110.19949    5491.3069    4.3616296    4.3616296    4.3616296    5491.3069     805.9652    8188.9196    7479.0359    1683.0928    1170.3572   -3390.0257    82.974825 
   55300    395.99806   -110.56162   0.35830737   -110.20331   -4251.5224     4.360788     4.360788     4.360788   -4251.5224    2578.1092   -13584.164   -1748.5121    1572.3869   -1741.2747    19089.233    82.926801 
   55400      530.707   -110.68104   0.48019484   -110.20085    -2478.604    4.3675961    4.3675961    4.3675961    -2478.604   -16821.108    1572.7563    7812.5397   -5335.8067   -10802.141   -388.07811    83.315809 
   55500    641.98399    -110.7799    0.5808806   -110.19902    2704.7768    4.3572725    4.3572725    4.3572725    2704.7768    4885.6819   -1157.2791    4385.9277   -3903.1144    3255.8323    5423.6447    82.726408 
   55600    308.78222   -110.48308   0.27939264   -110.20369   -7860.2496    4.3663248    4.3663248    4.3663248   -7860.2496   -1437.2317   -3394.8687   -18748.648    6476.8799   -7177.2175     19796.42    83.243074 
   55700    529.87514   -110.68011   0.47944217   -110.20067    884.13274    4.3637918    4.3637918    4.3637918    884.13274   -10342.427    11102.594    1892.2318   -7243.7064   -2352.6761   -9046.5652    83.098284 
   55800    559.49465   -110.70561   0.50624252   -110.19936    6677.2873    4.3586457    4.3586457    4.3586457    6677.2873    12028.237   -6497.4699    14501.094    3580.4769    5777.0002     11718.07    82.804645 
   55900    381.52937   -110.54856   0.34521579   -110.20335   -6376.7233    4.3678021    4.3678021    4.3678021   -6376.7233   -8398.3511   -8377.6974   -2354.1213    108.89679   -5793.2416    14405.032    83.327595 
   56000    631.54155   -110.77027   0.57143207   -110.19884    2126.7059    4.3601491    4.3601491    4.3601491    2126.7059   -10741.804    9380.7354     7741.186   -9653.8048   -5933.6638   -589.73615    82.890358 
   56100    497.14288   -110.64933   0.44982532   -110.19951   -1007.7535    4.3633942    4.3633942    4.3633942   -1007.7535   -1597.2004    7116.6372   -8542.6974    3771.1851   -416.36981    14082.901    83.075574 
   56200    415.22381   -110.57691   0.37570323    -110.2012    -10651.36    4.3659316    4.3659316    4.3659316    -10651.36   -16995.198    2987.0096    -17945.89    1615.4223   -8697.5391    6250.5831     83.22059 
   56300    568.69696     -110.713   0.51456896   -110.19843     6043.431    4.3602431    4.3602431    4.3602431     6043.431   -6020.4311    12982.345     11168.38   -3837.3636   -5329.0583    -5805.212    82.895718 
   56400    547.12407   -110.69505   0.49504935       -110.2     -2969.03    4.3648412    4.3648412    4.3648412     -2969.03    6786.5493   -12617.126   -3076.5129     3262.958    5244.5262    12840.764    83.158248 
   56500    369.15336   -110.53746   0.33401772   -110.20344    2448.8791    4.3624069    4.3624069    4.3624069    2448.8791   -6330.6763     15539.03   -1861.7165   -43.167066   -9115.9264    8750.7541    83.019195 
   56600    603.34702   -110.74558   0.54592107   -110.19966    8478.9051    4.3607648    4.3607648    4.3607648    8478.9051    456.89581    23466.776    1513.0439   -10001.563   -330.03822   -3651.6679    82.925477 
   56700    456.26414   -110.61495   0.41283738   -110.20211   -6213.7407    4.3659086    4.3659086    4.3659086   -6213.7407   -4817.4794    2755.6577   -16579.401    7352.8259   -942.04824    17379.084    83.219276 
   56800    415.47364    -110.5781   0.37592928   -110.20218   -4630.3978    4.3620493    4.3620493    4.3620493   -4630.3978   -17589.926    12506.299   -8807.5664    1546.8131   -11909.204   -2279.5586    82.998781 
   56900     730.7089   -110.85879   0.66116077   -110.19763    3161.0586    4.3606545    4.3606545    4.3606545    3161.0586   -3336.9501    8947.5371    3872.5888   -2098.7076     852.7567    4141.6409    82.919189 
   57000    344.20601   -110.51542   0.31144483   -110.20397   -1665.9509    4.3665511    4.3665511    4.3665511   -1665.9509   -6333.8065    11232.492   -9896.5382    5357.0096   -3801.0299    14290.957    83.256021 
   57100     466.5162   -110.62479   0.42211366   -110.20267    4725.3226    4.3604837    4.3604837    4.3604837    4725.3226   -9585.2528    19947.592    3813.6284   -1391.4692   -7977.0557    3635.8791    82.909444 
   57200    673.54782     -110.808   0.60944022   -110.19856    3845.6894     4.362901     4.362901     4.362901    3845.6894     6745.147    7619.2637   -2827.3426   -6204.3828    2620.5982   -506.09769    83.047406 
   57300    295.07557   -110.47106   0.26699058   -110.20407   -9520.9408      4.36499      4.36499      4.36499   -9520.9408   -4783.8192   -6876.7875   -16902.216    7669.5939   -5154.5164    7903.1012    83.166758 
   57400    553.54148   -110.70203   0.50085597   -110.20117   -680.15675    4.3613853    4.3613853    4.3613853   -680.15675   -11579.587    15978.904   -6439.7872    3601.0043   -11329.299   -3481.6523    82.960884 
   57500    606.55857   -110.74795   0.54882694   -110.19912    4259.4538    4.3635947    4.3635947    4.3635947    4259.4538   -1362.4286    18057.878   -3917.0878   -827.48913    3781.2101     2762.664    83.087027 
   57600    330.03143   -110.50509   0.29861937   -110.20647   -7392.3408    4.3620471    4.3620471    4.3620471   -7392.3408   -13698.555    2458.7159   -10937.183    8105.4309   -9408.0601    13291.921    82.998652 
   57700    615.32222   -110.75986   0.55675648   -110.20311    4163.0225    4.3629586    4.3629586    4.3629586    4163.0225   -9928.3451    17074.016    5343.3963    2249.1857   -5508.5526   -2734.7334    83.050698 
   57800    628.19587   -110.76986   0.56840482   -110.20145    18.794141    4.3628861    4.3628861    4.3628861    18.794141    4950.2978    1359.4614   -6253.3767    778.78768    5628.0014     4964.787    83.046554 
   57900    189.47776   -110.37771   0.17144346   -110.20627   -6553.2274    4.3648683    4.3648683    4.3648683   -6553.2274    -13942.27    16840.709   -22558.121    10775.426   -11606.722    5643.4046    83.159802 
   58000    632.04889   -110.77168   0.57189111   -110.19979    7219.1883     4.359828     4.359828     4.359828    7219.1883   -2904.2465    26018.808   -1456.9961    4985.8873   -3013.3537    253.40216     82.87205 
   58100     558.1448   -110.70803   0.50502115   -110.20301   -5003.1294    4.3647887    4.3647887    4.3647887   -5003.1294   -2978.5538   -314.06353   -11716.771   -3000.0746   -1079.5261    5525.0275     83.15525 
   58200    322.17552   -110.49732   0.29151118   -110.20581   -5835.0397    4.3639818    4.3639818    4.3639818   -5835.0397   -16271.675    2526.5172   -3759.9613    8962.0641   -14456.306     8949.712    83.109143 
   58300    787.58194   -110.91112   0.71262069    -110.1985    4729.9549    4.3606566    4.3606566    4.3606566    4729.9549   -7164.6194    9684.0581    11670.426   -5633.2653    1127.7641   -9286.3617    82.919307 
   58400    360.43749   -110.52936   0.32613142   -110.20323   -3924.4765    4.3671846    4.3671846    4.3671846   -3924.4765   -11188.213    14305.834    -14891.05    1742.7857   -1154.7398    2434.1118    83.292262 
   58500    377.51099   -110.54466   0.34157988   -110.20308   -3447.9113    4.3594815    4.3594815    4.3594815   -3447.9113   -12805.505    14157.578   -11695.806    11249.013   -11120.348    2728.1987    82.852288 
   58600    676.93453   -110.80898   0.61250459   -110.19647   -297.71355     4.367289     4.367289     4.367289   -297.71355   -6801.6649    8420.1794   -2511.6551   -44.019204    5865.7687    999.60841    83.298232 
   58700     445.8473   -110.60565   0.40341201   -110.20224    -4497.469    4.3599782    4.3599782    4.3599782    -4497.469    -3362.151    2473.1311   -12603.387    4202.6411   -8765.4777    5870.8842    82.880614 
   58800     424.0896   -110.58873   0.38372518   -110.20501    1991.1399    4.3619591    4.3619591    4.3619591    1991.1399   -10488.056    11333.001    5128.4743    6956.7119   -11278.713     5719.778    82.993629 
   58900    624.26965   -110.76472    0.5648523   -110.19987    2386.8156     4.366896     4.366896     4.366896    2386.8156   -10177.616    14924.724    2413.3382   -4693.4785    6457.2146   -6134.8721    83.275748 
   59000      400.975   -110.56664   0.36281061   -110.20383   -2048.2033    4.3567707    4.3567707    4.3567707   -2048.2033   -7940.7849    8413.1145   -6616.9394    1498.9408    -11322.34    7592.3212    82.697829 
   59100    468.23575   -110.62572   0.42366954   -110.20205    -7846.467    4.3688275    4.3688275    4.3688275    -7846.467   -20217.585    6254.7946   -9576.6102    7566.5791    -2869.604    5843.1822      83.3863 
   59200    712.47338   -110.84277   0.64466089   -110.19811    1784.1835    4.3599931    4.3599931    4.3599931    1784.1835   -7058.3213    9931.8811    2478.9908   -9840.4608    6464.2661   -2724.9905    82.881462 
   59300    346.14347   -110.51651   0.31319789   -110.20331     784.7647     4.362459     4.362459     4.362459     784.7647   -9293.2672    19558.927   -7911.3653    5360.9065    -14715.19    6735.3667    83.022167 
   59400    464.44526   -110.62257   0.42023983   -110.20233    561.30043    4.3659048    4.3659048    4.3659048    561.30043   -13252.675    7536.1524    7400.4242   -2420.2967   -3236.0847   -3991.8822    83.219054 
   59500    574.80241   -110.71886    0.5200933   -110.19877    6670.1719    4.3604772    4.3604772    4.3604772    6670.1719   -2916.8777    9219.2793    13708.114   -5344.6003   -1008.1315   -1318.3803    82.909073 
   59600    379.50524   -110.54502   0.34338432   -110.20163   -9002.3219    4.3664912    4.3664912    4.3664912   -9002.3219   -13710.745    1483.1635   -14779.385    5997.6425   -17763.556    5581.1887    83.252591 
   59700    584.93874   -110.72805   0.52926486   -110.19878    521.00437    4.3605421    4.3605421    4.3605421    521.00437   -7952.3941    330.14492    9185.2623    3142.9055    5617.5797    8928.2532    82.912777 
   59800     561.6793   -110.70705   0.50821923   -110.19883   -4272.0959    4.3665131    4.3665131    4.3665131   -4272.0959   -17163.162     17284.33   -12937.455   -2055.7396    -2064.492    -3076.554    83.253845 
   59900    408.28543    -110.5707   0.36942524   -110.20128   -926.93508    4.3605924    4.3605924    4.3605924   -926.93508   -12233.377    13278.515   -3825.9427     5490.435   -13035.513    9343.9181    82.915647 
   60000    542.37631   -110.68981   0.49075349   -110.19905   -875.00964    4.3658911    4.3658911    4.3658911   -875.00964   -13660.526   -663.82538    11699.322    -5022.595     7449.282   -2922.9899    83.218271 
   60100     539.9246   -110.68814   0.48853513    -110.1996   -2004.3285     4.361243     4.361243     4.361243   -2004.3285   -12069.462    6992.4473   -935.97134   -7849.3785   -13296.224    1023.4302    82.952764 
   60200    391.54129   -110.55642   0.35427479   -110.20215   -2259.1597    4.3640753    4.3640753    4.3640753   -2259.1597   -4263.4813    3933.0681   -6447.0658    5845.9054   -11357.776    11345.553    83.114485 
   60300    605.02492   -110.74634   0.54743926   -110.19891    334.61082    4.3632948    4.3632948    4.3632948    334.61082    -5316.467    5815.7252    504.57427    -5592.395    6780.5314    -1849.291    83.069898 
   60400    437.45528    -110.5978   0.39581873   -110.20198    2146.0857    4.3601979    4.3601979    4.3601979    2146.0857   -13362.086    25292.956   -5492.6125    2077.8543   -14283.467   -109.16614    82.893144 
   60500    438.95002    -110.5998    0.3971712   -110.20263   -5148.8095    4.3666351    4.3666351    4.3666351   -5148.8095   -13359.652   -1985.7226    -101.0542    2455.2383   -5118.0301    2598.0202    83.260823 
   60600    644.29261   -110.78135   0.58296949   -110.19838    2557.2485    4.3598895    4.3598895    4.3598895    2557.2485   -10038.498    -398.5307    18108.774   -3718.9663    2136.6755    2670.0418    82.875556 
   60700    430.47907   -110.59043   0.38950651   -110.20092   -7661.7655    4.3675956    4.3675956    4.3675956   -7661.7655   -22035.004    13151.624   -14101.916   -1954.7016    -20825.24    920.49509    83.315781 
   60800    547.08189     -110.694   0.49501119   -110.19899    2261.9088    4.3592629    4.3592629    4.3592629    2261.9088     3061.175    2262.3401    1462.2113    6115.5298   -702.08609     17015.51    82.839829 
   60900    468.59562   -110.62369   0.42399516    -110.1997    2812.3457    4.3649695    4.3649695    4.3649695    2812.3457   -8413.7067    20590.118   -3739.3744   -2280.4376   -1123.7223   -4977.7409    83.165582 
   61000    402.64208   -110.56616   0.36431902   -110.20184   -226.67454    4.3626866    4.3626866    4.3626866   -226.67454   -7739.8982    12169.594    -5109.719    3078.6863   -14590.365    3297.9903    83.035165 
   61100    533.86131   -110.68274   0.48304893   -110.19969    4905.9906     4.361789     4.361789     4.361789    4905.9906    4300.7655   -2324.3223    12741.529    448.75171    6481.4433    7084.2158    82.983923 
   61200    597.31088   -110.73955   0.54045944   -110.19909    -6392.403    4.3659686    4.3659686    4.3659686    -6392.403   -19305.056    775.30284   -647.45604   -7533.4043    -10484.02   -3059.7212    83.222702 
   61300    445.57701    -110.6037   0.40316744   -110.20053   -564.27574    4.3599614    4.3599614    4.3599614   -564.27574   -10180.273    15083.633   -6596.1873   -1605.4283   -15131.249    7976.2172    82.879655 
   61400    545.38367   -110.69265    0.4934746   -110.19917   -2984.2257    4.3659611    4.3659611    4.3659611   -2984.2257   -5035.1166    1459.4245    -5376.985   -1089.1559    3520.7279    4080.7929    83.222274 
   61500    471.32816   -110.62676   0.42646763   -110.20029    2093.3633    4.3612815    4.3612815    4.3612815    2093.3633   -16170.032    15101.371    7348.7507    -710.8614   -13143.271     -4054.23    82.954961 
   61600     411.8147   -110.57423    0.3726186   -110.20161    1052.0005    4.3636537    4.3636537    4.3636537    1052.0005   -1953.1697    4082.6365    1026.5349    2034.3616   -5371.4484    3322.3989    83.090397 
   61700    609.85247   -110.75093   0.55180733   -110.19912   -1421.4033    4.3633507    4.3633507    4.3633507   -1421.4033    3805.8677    -16789.45    8719.3721    2927.2399    6423.2451    12606.574     83.07309 
   61800    489.33845   -110.64266   0.44276371   -110.19989    452.91042    4.3628334    4.3628334    4.3628334    452.91042   -10959.622    16578.253    -4259.899   -6493.3755   -16828.817    -3470.583    83.043545 
   61900    489.35218   -110.64293   0.44277614   -110.20015   -4117.4462    4.3630386    4.3630386    4.3630386   -4117.4462   -2765.8951   -1368.5597   -8217.8837    2876.6544   -4844.3312    13506.979    83.055263 
   62000    414.96675   -110.57561   0.37547064   -110.20014    1086.4724    4.3639994    4.3639994    4.3639994    1086.4724   -6380.1456    4891.0624    4748.5003    -2389.872    254.83445    78.172103    83.110147 
   62100    576.59398   -110.72159   0.52171435   -110.19987   -629.22119    4.3609911    4.3609911    4.3609911   -629.22119   -16540.421    7159.7843     7492.973    242.00035   -14878.084   -4861.2593    82.938389 
   62200    487.83764   -110.64246   0.44140575   -110.20106    -1513.259    4.3640907    4.3640907    4.3640907    -1513.259   -978.09135   -5841.8624    2280.1768    1763.8676    4323.3434    12569.902    83.115365 
   62300    579.92533   -110.72544   0.52472863   -110.20071   -3176.0045    4.3631024    4.3631024    4.3631024   -3176.0045    386.93653   -4576.9203   -5338.0296   -2460.9726   -1181.0389   -760.19176    83.058908 
   62400    526.20304   -110.67574   0.47611957   -110.19962    5982.3088    4.3616307    4.3616307    4.3616307    5982.3088   -4029.6578    17398.206     4578.378   -4669.7319   -13166.718   -532.84546    82.974885 
   62500    293.87444    -110.4678   0.26590377   -110.20189   -917.08312    4.3657335    4.3657335    4.3657335   -917.08312    4147.6888   -5004.7452   -1894.1929   -3045.9959     2338.517    6425.9605    83.209258 
   62600    435.28394    -110.5949   0.39385406   -110.20105    3470.0375    4.3607823    4.3607823    4.3607823    3470.0375    1872.8897   -1370.7476    9907.9706   -2657.4197   -6410.8503   -3125.2859    82.926476 
   62700    652.73526   -110.78848   0.59060858   -110.19787    1521.9136    4.3648891    4.3648891    4.3648891    1521.9136   -6328.4946    3705.3476    7188.8878   -2006.9558   -6780.4815    1954.7796    83.160991 
   62800    498.70506   -110.65263   0.45123882   -110.20139   -11719.113    4.3646978    4.3646978    4.3646978   -11719.113    1386.8353   -20894.386   -15649.789    4993.6104     8341.285    15985.663    83.150054 
   62900     532.1161   -110.68116   0.48146983   -110.19969    2508.2168    4.3624905    4.3624905    4.3624905    2508.2168    -4623.067    6952.7832    5194.9343    -501.6271    -2458.552   -6991.7117    83.023965 
   63000    607.00106   -110.74683   0.54922731   -110.19761   -224.65817    4.3648261    4.3648261    4.3648261   -224.65817   -10719.575   -1334.5537    11380.154    4547.9321   -61.744129    3009.4124    83.157385 
   63100    179.14977   -110.36577   0.16209848   -110.20367   -1031.7124    4.3615853    4.3615853    4.3615853   -1031.7124    1776.4893    -1973.725   -2897.9014   -241.30779    4426.7052    6538.5191    82.972295 
   63200    690.24704   -110.82523   0.62455003   -110.20068    -3588.551    4.3638394    4.3638394    4.3638394    -3588.551   -5400.0911   -7724.0374    2358.4757   -1356.6477   -5793.0649   -9818.5877    83.101008 
   63300    638.85306   -110.77891   0.57804767   -110.20086     2315.087    4.3632474    4.3632474    4.3632474     2315.087   -1027.7293    5062.8846    2910.1056   -188.76034    877.52909     10619.01    83.067191 
   63400     310.6455   -110.48689   0.28107858   -110.20581   -5925.2216    4.3628557    4.3628557    4.3628557   -5925.2216    2681.7609   -16606.742   -3850.6837    748.88248    7783.9803    2381.7439     83.04482 
   63500    568.34297   -110.71533   0.51424866   -110.20108    11327.586    4.3625865    4.3625865    4.3625865    11327.586    2458.2959    11084.103    20440.361   -124.61845    521.33849   -11759.934    83.029446 
   63600    456.77331   -110.61564   0.41329809   -110.20234    1354.5254    4.3635237    4.3635237    4.3635237    1354.5254    736.53922     -1587.11    4914.1471    2228.7273    5072.0258    9105.1391    83.082969 
   63700    304.77383   -110.48125   0.27576576   -110.20548   -10616.282    4.3638819    4.3638819    4.3638819   -10616.282     3334.058   -17081.565    -18101.34   -244.56972      5481.27    2464.5209    83.103431 
   63800    778.22023   -110.90339   0.70415002   -110.19924    5096.9208    4.3619503    4.3619503    4.3619503    5096.9208    1595.9495    3302.8051    10392.008   -3192.5015     -4411.03   -4355.1041    82.993128 
   63900    538.02522   -110.68995   0.48681652   -110.20313   -4757.1667    4.3653228    4.3653228    4.3653228   -4757.1667   -8969.3378   -11736.297    6434.1343    1744.8325    1111.7288    9164.8582    83.185777 
   64000    266.40649   -110.44626   0.24105019   -110.20521    3705.1536     4.362635     4.362635     4.362635    3705.1536    3.0521308    2306.8263    8805.5823   -2001.7195    3124.2006   -5861.7629    83.032216 
   64100    733.52505   -110.86034   0.66370888   -110.19663    843.37958    4.3649745    4.3649745    4.3649745    843.37958   -6888.9127     2269.427    7149.6245    4773.5485   -627.04569   -8337.5773    83.165868 
   64200    377.34877    -110.5431    0.3414331   -110.20167   -5309.7574    4.3629318    4.3629318    4.3629318   -5309.7574   -2225.7205   -3723.7048   -9979.8468    3886.3176    6371.8805    11540.747    83.049163 
   64300    499.84452   -110.65452   0.45226983   -110.20225   -8617.2069    4.3643903    4.3643903    4.3643903   -8617.2069    6256.6889   -19592.092   -12516.217    3807.3844    2920.6552   -3039.3973    83.132479 
   64400    656.87182   -110.79291   0.59435143   -110.19856    7082.9433    4.3632227    4.3632227    4.3632227    7082.9433   -1837.3705    8607.8583    14478.342   -1325.1131   -5738.3703   -3060.8412    83.065777 
   64500    371.05381   -110.53877   0.33573729   -110.20304    499.27381    4.3630364    4.3630364    4.3630364    499.27381    553.97277   -6130.2546    7074.1032    1256.6003    728.85241    7064.2762    83.055137 
   64600    399.89806   -110.56342   0.36183617   -110.20158    2079.1751    4.3644768    4.3644768    4.3644768    2079.1751    6229.7537     5675.416   -5667.6445   -5247.6981    480.94793   -9988.9123    83.137422 
   64700    591.63956   -110.73387   0.53532791   -110.19855    979.41596    4.3607962    4.3607962    4.3607962    979.41596   -2468.3873    5678.0566   -271.42138   -21.809825     -9144.02    2895.7918    82.927269 
   64800    459.92957   -110.61737   0.41615394   -110.20121   -11063.673    4.3665869    4.3665869    4.3665869   -11063.673   -4078.0487   -15641.704   -13471.265    1330.2718    5008.4126    5412.6347    83.258064 
   64900    533.24685   -110.68345   0.48249296   -110.20096    5952.1069     4.358809     4.358809     4.358809    5952.1069     3458.244    8192.6648    6205.4119   -819.67668   -677.11422   -4848.7219    82.813955 
   65000    572.00282    -110.7185   0.51756017   -110.20094   -2176.3692     4.365919     4.365919     4.365919   -2176.3692   -21449.124    3483.9391    11436.078    1417.5958   -13131.478   -4118.0255    83.219868 
   65100     400.6796   -110.56381   0.36254332   -110.20127    3899.6531    4.3634568    4.3634568    4.3634568    3899.6531    2038.6246    6230.8717    3429.4631   -1380.9462    2711.2094     3172.036    83.079149 
   65200    535.90673   -110.68378   0.48489967   -110.19888   -2320.0617    4.3617437    4.3617437    4.3617437   -2320.0617    5890.2887   -2581.4978   -10268.976   -206.42901   -9410.4804   -3096.7678    82.981339 
   65300    448.53658   -110.60542   0.40584533   -110.19957   -2635.8343    4.3653197    4.3653197    4.3653197   -2635.8343   -3125.5833    1875.1894   -6657.1091    -597.7237   -9287.4078    3237.7232    83.185602 
   65400    553.32606   -110.69933   0.50066104   -110.19867   -828.35886    4.3633139    4.3633139    4.3633139   -828.35886    12681.901   -12749.872   -2417.1062    7210.4139    7279.1399    8643.6094    83.070989 
   65500    469.97702   -110.62447   0.42524508   -110.19922    2636.7978    4.3637052    4.3637052    4.3637052    2636.7978   -7336.8838    14080.045    1167.2326    352.81292     -7021.55   -7086.0012     83.09334 
   65600    518.25165   -110.66831   0.46892499   -110.19938   -812.75241    4.3636345    4.3636345    4.3636345   -812.75241   -19129.914    7218.4704    9473.1863    3590.1035   -7602.7917    2513.8931      83.0893 
   65700    523.81204   -110.67214   0.47395614   -110.19819   -1387.2468     4.364287     4.364287     4.364287   -1387.2468   -476.63424    485.99035   -4171.0965   -2723.6422    1268.1235     1209.854    83.126577 
   65800    496.13626   -110.64826   0.44891452   -110.19935   -3341.7062    4.3619101    4.3619101    4.3619101   -3341.7062   -4822.2463    7015.3466   -12218.219   -3775.4238   -16137.757   -1238.7957    82.990834 
   65900    501.76989   -110.65354   0.45401194   -110.19953   -5104.5195    4.3657688    4.3657688    4.3657688   -5104.5195   -2434.7451   -9602.7854    -3276.028  -0.56794667   -6187.9213    3579.9619     83.21128 
   66000    492.87415   -110.64566   0.44596289    -110.1997    8599.5065    4.3598403    4.3598403    4.3598403    8599.5065    17164.429    6576.7787    2057.3113    2610.3639    4180.1576    3876.2138     82.87275 
   66100    477.94651   -110.63374   0.43245605   -110.20129   -1987.3664    4.3656141    4.3656141    4.3656141   -1987.3664   -16408.793    8354.2745    2092.4187    1096.5444   -14828.774   -4302.9094    83.202433 
   66200    456.05252    -110.6134    0.4126459   -110.20075   -71.769318    4.3618323    4.3618323    4.3618323   -71.769318   -10188.766    2577.2671    7396.1907   -65.984506    1520.6154    4086.8221    82.986394 
   66300    575.73616   -110.72077   0.52093818   -110.19983    -6355.394    4.3626337    4.3626337    4.3626337    -6355.394   -2142.5842    -6009.513   -10914.085    1603.9337   -3832.9143    8330.7212    83.032144 
   66400     559.6838   -110.70585   0.50641366   -110.19943   -8404.3292    4.3662534    4.3662534    4.3662534   -8404.3292   -16690.631    1712.5391   -10234.896   -5114.7162   -13387.781   -4156.0673    83.238992 
   66500      464.072   -110.62027    0.4199021   -110.20036    3131.5243    4.3597063    4.3597063    4.3597063    3131.5243    3391.5607   -6591.1097    12594.122    3911.4511    4741.2045    10498.321    82.865108 
   66600     448.0162    -110.6062   0.40537448   -110.20083    3449.0001    4.3661627    4.3661627    4.3661627    3449.0001    2855.2011    10203.926   -2712.1272    3490.5907   -324.59318   -2916.2931    83.233804 
   66700    471.47546   -110.62588   0.42660091   -110.19928    7364.4711    4.3619959    4.3619959    4.3619959    7364.4711   -6323.3603    12838.289    15578.485    2356.7774   -5450.6625   -4942.7888     82.99573 
   66800    372.91959   -110.53879   0.33742548   -110.20136   -3981.7945     4.364409     4.364409     4.364409   -3981.7945   -3501.5938    -5640.115   -2803.6748    533.14274     5996.815    6549.7419    83.133553 
   66900    623.19229   -110.76094   0.56387748   -110.19706   -4330.2395    4.3644563    4.3644563    4.3644563   -4330.2395    -2491.033    1096.7804   -11596.466   -40.500913   -3838.8986    4687.5871    83.136253 
   67000    647.73458   -110.78313   0.58608386   -110.19704   -5164.4852    4.3637602    4.3637602    4.3637602   -5164.4852   -14823.836   -4783.5405    4113.9212    -6577.945   -9095.3539    2312.5081    83.096483 
   67100    375.64583   -110.54133   0.33989224   -110.20143   -5151.0601    4.3634953    4.3634953    4.3634953   -5151.0601   -9116.2425   -2417.2908   -3919.6468   -1614.0971    7112.2199    11184.185    83.081346 
   67200    599.09816   -110.74184    0.5420766   -110.19976    5385.2795    4.3629785    4.3629785    4.3629785    5385.2795   -2512.1618    9647.8519    9020.1484    2197.0173   -2131.4385    1985.3161     83.05183 
   67300    471.93806   -110.62806   0.42701947   -110.20104    1861.0409    4.3634472    4.3634472    4.3634472    1861.0409   -4928.3461    2394.3494    8117.1195    448.41704     412.6762   -3956.4011      83.0786 
   67400    269.20599   -110.44895   0.24358323   -110.20537   -2226.1983    4.3625245    4.3625245    4.3625245   -2226.1983    7014.4955   -7959.5382   -5733.5523    3666.5598    9633.6581    14554.352    83.025909 
   67500     755.2017   -110.88141   0.68332237   -110.19809    1209.0302    4.3649193    4.3649193    4.3649193    1209.0302    6819.3507    2606.4096   -5798.6697   -1019.9416   -1579.0152   -4409.3841    83.162717 
   67600    477.70048   -110.63458   0.43223343   -110.20235    2239.7749    4.3612237    4.3612237    4.3612237    2239.7749   -4145.4522   -3699.8076    14564.584   -3913.0617   -1168.0951     3839.954    82.951659 
   67700    333.09823   -110.50706   0.30139428   -110.20567   -9237.6611    4.3653321    4.3653321    4.3653321   -9237.6611   -10856.514   -6069.6741   -10786.795   -298.66501    6533.8995    9071.5117    83.186311 
   67800     692.5721   -110.82568   0.62665379   -110.19903    8592.7866    4.3608573    4.3608573    4.3608573    8592.7866   -3689.4916    10997.362     18470.49     1572.979    3199.6243   -5174.3234    82.930757 
   67900    414.60942   -110.57961   0.37514732   -110.20446   -7512.7971    4.3662029    4.3662029    4.3662029   -7512.7971   -7538.4104   -14677.161   -322.81941    267.44881    2066.7667    6323.1901    83.236101 
   68000    356.17117   -110.52697   0.32227116    -110.2047   -1817.2648    4.3624505    4.3624505    4.3624505   -1817.2648    9669.3178   -6654.8994   -8466.2129    3493.6209     11779.53    13675.729    83.021685 
   68100    784.39126   -110.90711    0.7097337   -110.19737    5794.8398    4.3632636    4.3632636    4.3632636    5794.8398    10444.145   -362.58013    7302.9543   -2830.6598   -3131.6241    598.65933    83.068117 
   68200    337.78018   -110.50974    0.3056306   -110.20411   -3988.7098     4.365845     4.365845     4.365845   -3988.7098   -1916.0689    -13500.03    3449.9697   -5685.0818    204.91208    8360.2667    83.215634 
   68300    413.23463   -110.57645   0.37390337   -110.20255    813.43758    4.3609376    4.3609376    4.3609376    813.43758   -6784.7608    7551.3121    1673.7614   -260.62191    7805.6102    9723.1545    82.935338 
   68400    703.82476   -110.83438   0.63683543   -110.19754    -1456.561    4.3662019    4.3662019    4.3662019    -1456.561   -12635.875    1148.1067    7118.0854   -383.77081   -1846.9502   -8781.9855    83.236048 
   68500     346.5607     -110.517   0.31357541   -110.20342   -825.23362    4.3606185    4.3606185    4.3606185   -825.23362    712.72316   -8608.9431    5420.5191    1241.7405    6106.5187    12012.135    82.917131 
   68600    518.88093   -110.67219   0.46949437    -110.2027   -4384.7135    4.3666092    4.3666092    4.3666092   -4384.7135    5317.7096   -2809.1344   -15662.716    2390.1913    8015.0935    3853.9811    83.259342 
   68700    622.88283   -110.76209   0.56359748   -110.19849    10098.241     4.361042     4.361042     4.361042    10098.241    10770.388    21.670241    19502.664   -4622.6571   -6058.5403   -4664.5511    82.941294 
   68800    342.41571   -110.51316   0.30982493   -110.20334   -6174.6498    4.3646096    4.3646096    4.3646096   -6174.6498   -1333.3954   -10749.124   -6441.4297   -3553.1719     3921.683    13076.026    83.145013 
   68900    454.50356   -110.61226   0.41124437   -110.20102    61.839611    4.3637003    4.3637003    4.3637003    61.839611   -12062.739     8088.959    4159.2992   -208.85681    7716.9344   -893.57322    83.093057 
   69000    668.13349   -110.80269   0.60454123   -110.19815    -2868.453    4.3633956    4.3633956    4.3633956    -2868.453   -11630.729    4265.6709   -1240.3005   -717.20125   -5707.4561    3074.3017    83.075656 
   69100    366.57492   -110.53455   0.33168469   -110.20286   -4644.2902     4.364769     4.364769     4.364769   -4644.2902   -5776.8421   -5566.4176   -2589.6108    3522.6047    9042.5727    16364.927    83.154121 
   69200    606.75983   -110.74863   0.54900905   -110.19962     1823.124    4.3625082    4.3625082    4.3625082     1823.124   -288.75839    4374.9016    1383.2288    3621.0021    348.49295    2250.6068    83.024977 
   69300    526.98154   -110.67551   0.47682397   -110.19869    1728.7955    4.3667949    4.3667949    4.3667949    1728.7955    7440.5448   -11410.435    9156.2764   -1974.0144   -9801.7345    1910.0987    83.269963 
   69400    351.86287   -110.51881   0.31837292   -110.20044   -160.01295    4.3601354    4.3601354    4.3601354   -160.01295     9066.609   -7631.8785   -1914.7694   -3257.3618    8160.6753    12566.244     82.88958 
   69500    531.90291   -110.68011   0.48127693   -110.19883   -3740.7043    4.3669503    4.3669503    4.3669503   -3740.7043   -13478.993    6172.2483   -3915.3685   -1191.1331   -1267.2521   -7669.9386    83.278857 
   69600    539.69787   -110.68722   0.48832997   -110.19889    486.41504    4.3616648    4.3616648    4.3616648    486.41504   -5389.3233    1547.0081    5301.5603   -3334.9199   -2284.0075    8363.8109    82.976833 
   69700    460.22693    -110.6183     0.416423   -110.20187   -2552.7736    4.3627618    4.3627618    4.3627618   -2552.7736   -6056.7075   -580.99168   -1020.6216    3457.5969    7276.6063    12686.961    83.039459 
   69800    570.31855   -110.71552   0.51603621   -110.19948    804.70121    4.3661501    4.3661501    4.3661501    804.70121   -9515.3991    2893.7203    9035.7824    1994.4562   -4716.0366   -7240.9816    83.233084 
   69900    528.28843    -110.6778   0.47800647   -110.19979    1522.7472    4.3597109    4.3597109    4.3597109    1522.7472    17725.356   -11847.709   -1309.4058    -41.31606   -5996.0392    13848.594    82.865373 
   70000    378.90859   -110.54443   0.34284445   -110.20158   -2775.0899    4.3665454    4.3665454    4.3665454   -2775.0899      1409.72   -15599.783    5864.7936    -934.5543    10477.301    6315.2792    83.255691 
   70100    551.95721   -110.69833   0.49942248   -110.19891    1546.9586     4.361563     4.361563     4.361563    1546.9586   -3854.5132     3560.667    4934.7222   -2166.2432   -5097.0856   -1784.9803    82.971023 
   70200    413.91487   -110.57542   0.37451887    -110.2009    1509.5696    4.3647663    4.3647663    4.3647663    1509.5696   -2167.8345    -4273.911    10970.454   -2211.8277   -730.94449      19616.5    83.153971 
   70300    616.07192   -110.75588   0.55743482   -110.19845   -842.27321    4.3640911    4.3640911    4.3640911   -842.27321   -14296.321    9191.7597    2577.7419    2218.2982    3475.7939    4665.0062    83.115387 
   70400    540.18001   -110.68744   0.48876623   -110.19868   -1327.3934    4.3634036    4.3634036    4.3634036   -1327.3934   -10608.413    7648.1915   -1021.9583    3716.3378   -11140.393    -2836.311    83.076113 
   70500    428.16388   -110.58797   0.38741168   -110.20056   -3226.0409    4.3636489    4.3636489    4.3636489   -3226.0409    10172.764   -17268.599    -2582.287    2527.3433    325.93814    15907.302    83.090123 
   70600    575.18269   -110.71845   0.52043738   -110.19801   -533.17379    4.3652427    4.3652427    4.3652427   -533.17379    1238.9735   -11524.691    8686.1963    2389.6741    3553.5846   -2859.2866    83.181198 
   70700    375.02516   -110.53985   0.33933065   -110.20052    805.53156    4.3629339    4.3629339    4.3629339    805.53156    5400.1211   -6141.9844    3158.4579   -2872.3779   -6070.1131    6566.3416    83.049285 
   70800    473.53904   -110.62982   0.42846807   -110.20135   -2317.6721    4.3636788    4.3636788    4.3636788   -2317.6721    8214.2462   -6119.2688   -9047.9937    -3815.355   -746.77793    21469.739     83.09183 
   70900    654.42757   -110.78955   0.59213982   -110.19741    5985.2694    4.3645676    4.3645676    4.3645676    5985.2694   -10093.136    16912.427    11136.517   -2496.8523    172.40987   -6427.5397    83.142612 
   71000     413.1495   -110.57593   0.37382635    -110.2021   -5443.0649    4.3625566    4.3625566    4.3625566   -5443.0649   -6319.3006     3327.558   -13337.452    759.78604   -10160.333    13159.187    83.027741 
   71100     438.6183   -110.59882   0.39687106   -110.20195   -4244.6046    4.3647592    4.3647592    4.3647592   -4244.6046    94.266373   -18186.235    5358.1548    1618.6392     3066.511    12276.702    83.153563 
   71200     749.8571   -110.87614   0.67848646   -110.19766   -1843.1987    4.3626524    4.3626524    4.3626524   -1843.1987   -7618.8867   -4756.1062    6845.3967    2874.6501   -652.90891   -3220.2495    83.033212 
   71300    288.90293   -110.46608   0.26140544   -110.20467   -5669.0862    4.3644992    4.3644992    4.3644992   -5669.0862    2102.5366   -12989.212   -6120.5829    -309.4984   -8471.3814    19255.504    83.138702 
   71400    521.70134   -110.67575   0.47204634    -110.2037    2902.0829    4.3638518    4.3638518    4.3638518    2902.0829    9010.6599    1590.9899   -1895.4009   -3861.3137    1516.0285    5799.9797    83.101715 
   71500    618.33314   -110.75842   0.55948082   -110.19894    10656.119    4.3633986    4.3633986    4.3633986    10656.119   -757.48236     18198.18    14527.661   -2639.6566   -8692.3794    -6311.522    83.075825 
   71600    245.97724   -110.42718   0.22256538   -110.20462   -3454.9772    4.3643728    4.3643728    4.3643728   -3454.9772    11873.387    -10982.92   -11255.398   -2697.6265   -6173.3637    20572.262    83.131479 
   71700    573.57978   -110.71848   0.51898703   -110.19949   -1750.6588    4.3636636    4.3636636    4.3636636   -1750.6588      5409.42   -13677.997    3016.6008    862.46728   -20.543103    1359.3954    83.090963 
   71800    621.22805   -110.76107    0.5621002   -110.19897    306.66415     4.362998     4.362998     4.362998    306.66415   -755.93271   -9524.7756    11200.701    3053.9713   -1140.2584    1525.4307    83.052946 
   71900    349.76732   -110.52108   0.31647682   -110.20461   -10526.559    4.3652276    4.3652276    4.3652276   -10526.559    -533.2127   -13311.789   -17734.675    3424.1307   -3286.1571     23412.94    83.180338 
   72000    584.05556   -110.72949   0.52846574   -110.20102    7146.3767    4.3625858    4.3625858    4.3625858    7146.3767   -3109.1782    13423.292    11125.016   -1164.3038     2117.854   -10547.841    83.029409 
   72100    645.71741   -110.78365   0.58425868    -110.1994   -4424.6698    4.3656939    4.3656939    4.3656939   -4424.6698   -7923.4169    2850.8482   -8201.4405   -2741.0573   -976.37684     11130.39    83.206996 
   72200    297.93345   -110.47221   0.26957645   -110.20263   -2631.0578    4.3625103    4.3625103    4.3625103   -2631.0578    12309.322   -14225.205   -5977.2902   -3697.6575   -5022.5435    20256.723    83.025096 
   72300    652.07447   -110.78808   0.59001068   -110.19807   -4330.2657    4.3645057    4.3645057    4.3645057   -4330.2657    2432.6659   -15055.658   -367.80507   -2711.5629    7244.0811   -12045.663    83.139074 
   72400    407.42341    -110.5693   0.36864527   -110.20066    3018.6813    4.3637585    4.3637585    4.3637585    3018.6813    11379.513   -9131.9066    6808.4374    2685.7883   -49.840237    13116.871    83.096383 
   72500    399.19436    -110.5638   0.36119945    -110.2026   -90.597334    4.3633978    4.3633978    4.3633978   -90.597334    10907.775    3270.7103   -14450.277    3138.0242   -1553.3431    8515.0961    83.075781 
   72600    567.07589   -110.71189   0.51310219   -110.19878    6270.0544    4.3644546    4.3644546    4.3644546    6270.0544   -487.73812    15010.479     4287.422    3541.5137    2885.8314   -13074.421    83.136156 
   72700     501.4776   -110.65388   0.45374747   -110.20013   -3165.9189    4.3637667    4.3637667    4.3637667   -3165.9189    5919.5108   -4894.9494   -10522.318   -306.90066   -3613.0293    20532.764    83.096849 
   72800    488.04441   -110.64044   0.44159284   -110.19884   -5179.4302    4.3646578    4.3646578    4.3646578   -5179.4302   -133.78745     -13752.5   -1652.0032   -835.74066   -3213.9204    6965.4684    83.147771 
   72900    562.98111   -110.70737   0.50939714   -110.19797   -1687.7562    4.3630736    4.3630736    4.3630736   -1687.7562   -5494.1882   -6725.4094    7156.3289   -3365.5259    4934.3035   -12052.703    83.057264 
   73000    484.52425   -110.63842   0.43840773   -110.20002   -4041.6134    4.3644806    4.3644806    4.3644806   -4041.6134   -143.59466   -3463.4532   -8517.7922    299.63141    2784.7292    21244.051    83.137643 
   73100    509.40156   -110.66088   0.46091724   -110.19997     5765.645    4.3635574    4.3635574    4.3635574     5765.645    648.21288    15629.244    1019.4784    2945.9661   -2459.0029   -754.16236    83.084896 
   73200    541.48781    -110.6899   0.48994955   -110.19995   -801.80146    4.3637129    4.3637129    4.3637129   -801.80146    415.15082    5045.9275   -7866.4827     980.7572    9180.1422   -3051.2468    83.093778 
   73300    376.66864   -110.54161    0.3408177    -110.2008    4435.9226    4.3634367    4.3634367    4.3634367    4435.9226    19706.754   -10004.084    3605.0978    2312.5864   -4573.5059    22070.576    83.078001 
   73400    578.20355   -110.72104   0.52317072   -110.19787   -4336.0502    4.3658132    4.3658132    4.3658132   -4336.0502    3239.7067   -11163.068   -5084.7892   -3033.9782   -3235.2502   -9270.3413     83.21382 
   73500    402.05501   -110.56306   0.36378782   -110.19927     1046.544    4.3622903    4.3622903    4.3622903     1046.544    6268.1882   -5241.4912    2112.9349   -4474.4153    8841.2955   -1148.0713    83.012537 
   73600    592.95186   -110.73559    0.5365153   -110.19907   -4868.6305    4.3650271    4.3650271    4.3650271   -4868.6305    -2718.662    1069.7038   -12956.933   -3204.9055   -3388.9796    14910.619    83.168873 
   73700    531.87061   -110.68012   0.48124771   -110.19888     4124.515    4.3634791    4.3634791    4.3634791     4124.515   -10558.663    17759.512     5172.696    266.79829   -112.96931   -5759.6718    83.080422 
   73800    447.52211   -110.60561   0.40492741   -110.20069   -4348.7484    4.3645068    4.3645068    4.3645068   -4348.7484   -6046.3671    1672.4317   -8672.3098    930.70402    6933.6136     6291.026    83.139141 
   73900    506.09682   -110.65634   0.45792704   -110.19841    307.22084    4.3649314    4.3649314    4.3649314    307.22084    6748.5271   -5187.9488   -638.91576    4036.6376   -8330.5165     12404.36    83.163408 
   74000    506.42007   -110.65675   0.45821952   -110.19853   -85.982418    4.3615686    4.3615686    4.3615686   -85.982418    6956.0513    -3703.132   -3510.8665    2116.4064    -1864.291   -9439.0337    82.971341 
   74100     436.8902   -110.59596   0.39530743   -110.20066   -5516.1429    4.3669733    4.3669733    4.3669733   -5516.1429    8247.8767    -12880.68   -11915.626   -3667.3164    12570.064    7368.7598    83.280171 
   74200    567.45275   -110.71157   0.51344318   -110.19813    5863.2398    4.3618909    4.3618909    4.3618909    5863.2398    1030.9395    8943.8377    7614.9424   -162.90451   -6890.8358    7686.9206    82.989738 
   74300    509.92393   -110.66147   0.46138988   -110.20008   -3333.7454    4.3640355    4.3640355    4.3640355   -3333.7454   -15989.277    12043.733   -6055.6921   -2530.9135    3641.7341   -6127.4698    83.112212 
   74400    405.12635   -110.56748   0.36656683   -110.20092    556.91868    4.3641055    4.3641055    4.3641055    556.91868    -63.85451    4101.1032   -2366.4927    1669.0309    7479.5071    9221.1933    83.116209 
   74500    602.01215   -110.74349   0.54471324   -110.19877   -2638.0843    4.3628085    4.3628085    4.3628085   -2638.0843   -4816.2765    3210.4764   -6308.4527    2935.1332   -14088.042   -253.79399    83.042123 
   74600    386.62496   -110.55049   0.34982638   -110.20066   -1546.0546    4.3656732    4.3656732    4.3656732   -1546.0546    1690.6147   -4685.3786   -1643.3998    1445.5571     8344.353   -6098.5944    83.205814 
   74700     586.2846   -110.72964   0.53048262   -110.19915   -1845.4881    4.3622466    4.3622466    4.3622466   -1845.4881     5251.936   -9902.3869   -886.01345   -2635.5024     5068.212    7885.3492    83.010044 
   74800    514.22183   -110.66473   0.46527872   -110.19945    1581.6255    4.3640125    4.3640125    4.3640125    1581.6255   -10001.972     6926.105    7820.7432    652.33452   -12046.523    2544.4487    83.110893 
   74900    499.31872   -110.65246   0.45179407   -110.20067   -5657.1367    4.3645972    4.3645972    4.3645972   -5657.1367   -14362.448    9406.4151   -12015.378   -2989.6251    7848.6337   -738.35162    83.144308 
   75000    520.92057    -110.6698   0.47133988   -110.19846     1063.494    4.3644021    4.3644021    4.3644021     1063.494   -6171.0134    9456.4115    -94.91601    1495.6442    8.2379752    3139.8254    83.133154 
   75100    439.80949   -110.59742   0.39794887   -110.19947    2278.4231    4.3624627    4.3624627    4.3624627    2278.4231   -9140.4498    11718.954    4256.7649    6677.3791   -11476.369   -1209.0087    83.022382 
   75200    416.82077   -110.57769   0.37714819   -110.20054   -202.75216     4.366169     4.366169     4.366169   -202.75216    3153.3519   -1081.1865   -2680.4219    2150.8582    18297.885   -6234.2868    83.234167 
   75300    560.38086   -110.70472   0.50704438   -110.19767    7368.4166    4.3620453    4.3620453    4.3620453    7368.4166    11192.244   -455.94644    11368.952    2361.7506   -1160.8461    4818.0878    82.998553 
   75400    509.17377   -110.66044   0.46071113   -110.19973   -8593.7931    4.3656347    4.3656347    4.3656347   -8593.7931   -13325.656   -1087.1166   -11368.607    895.12046   -10648.181   -2255.4673     83.20361 
   75500    512.82087   -110.66373    0.4640111   -110.19971   -2677.5777    4.3628868    4.3628868    4.3628868   -2677.5777   -7926.6547    255.39031   -361.46874   -2781.8607    14480.646   -1058.9845    83.046597 
   75600    674.33799   -110.80807   0.61015519   -110.19791   -4855.6422    4.3647862    4.3647862    4.3647862   -4855.6422   -10733.094   -4156.3646    322.53201   -530.84513   -11136.667    2135.4565    83.155106 
   75700    314.83597   -110.48701   0.28487021   -110.20214   -200.37734    4.3638342    4.3638342    4.3638342   -200.37734   -4264.2345    997.90594    2665.1965    4808.7093   -2375.9901   -4064.5838    83.100705 
   75800    524.18769   -110.67544   0.47429604   -110.20114     2333.735    4.3630922    4.3630922    4.3630922     2333.735    11605.733    2545.5798   -7150.1077    2029.3804    15825.837   -2867.1493    83.058325 
   75900     543.5843   -110.69032   0.49184649   -110.19848    3291.8645     4.366365     4.366365     4.366365    3291.8645     -381.667    3230.6461    7026.6143    7229.8348   -12148.843   -830.20104    83.245376 
   76000    385.30517   -110.55022   0.34863221   -110.20159   -1061.5691    4.3594729    4.3594729    4.3594729   -1061.5691   -12775.977    16935.741   -7344.4712    3581.7794   -2516.0591   -175.17244    82.851802 
   76100    536.04186   -110.68522   0.48502194   -110.20019   -4096.5228    4.3683454    4.3683454    4.3683454   -4096.5228   -13990.586    2127.4814   -426.46377   -2742.9693    15178.575   -4680.6856    83.358695 
   76200    584.39805   -110.72732   0.52877563   -110.19855    5216.6844    4.3604028    4.3604028    4.3604028    5216.6844     -2250.98    6429.2826    11471.751   -541.28557   -11895.714    3569.2675    82.904832 
   76300    350.52635    -110.5205   0.31716361   -110.20334   -7633.7288    4.3655724    4.3655724    4.3655724   -7633.7288   -3450.8828   -4596.3928   -14853.911   -1660.6138    8088.1631   -5580.5791    83.200051 
   76400    586.61935   -110.73011   0.53078551   -110.19933    2687.7063    4.3639632    4.3639632    4.3639632    2687.7063    11546.452   -6767.2975    3283.9646    1011.2532    10502.941   -4013.7665    83.108076 
   76500    639.06961   -110.77713   0.57824362   -110.19889   -1493.9126    4.3628305    4.3628305    4.3628305   -1493.9126    -8849.378     1315.903    3051.7373    2883.0937   -16897.289    2884.9226    83.043379 
   76600    325.69709   -110.49724   0.29469757   -110.20254   -5829.6212     4.365504     4.365504     4.365504   -5829.6212   -17796.661    5718.7717   -5410.9745    4806.7457    13911.659   -3569.7748     83.19614 
   76700    614.57766   -110.75561   0.55608279   -110.19952    1941.2018    4.3616102    4.3616102    4.3616102    1941.2018    -3442.127     7495.005    1770.7275   -3542.0118    6123.3076    1373.4093    82.973716 
   76800    457.63824   -110.61527    0.4140807   -110.20119    2106.7977    4.3652109    4.3652109    4.3652109    2106.7977    263.51166     5535.294     521.5876    781.92468   -8553.8602    76.592502    83.179385 
   76900    338.88606   -110.50983   0.30663123    -110.2032   -1270.8094    4.3633104    4.3633104    4.3633104   -1270.8094    5032.7849     6434.558   -15279.771   -2477.9256    12391.992   -5218.6722    83.070788 
   77000    638.41173   -110.77628   0.57764835   -110.19863    2700.0796     4.363835     4.363835     4.363835    2700.0796    1000.2467   -3828.5086    10928.501   -1445.0538   -592.05295   -6773.1792    83.100753 
   77100    537.25137   -110.68607   0.48611633   -110.19995   -1636.6002    4.3641401    4.3641401    4.3641401   -1636.6002   -12221.305    6480.5485    830.95547    3783.4424   -7477.8596    292.81365    83.118185 
   77200    413.90722   -110.57554   0.37451195   -110.20103   -8646.3752    4.3647565    4.3647565    4.3647565   -8646.3752   -17279.829   -3797.9255   -4861.3714    2629.3153    19096.386   -7168.3084    83.153409 
   77300    607.94513   -110.74857   0.55008153   -110.19848     2017.542    4.3629255    4.3629255    4.3629255     2017.542    7045.0459   -2983.3531    1990.9331   -2744.1871   -1493.9008    1441.3731    83.048808 
   77400    453.53418   -110.61129   0.41036726   -110.20092   -1113.0783     4.364551     4.364551     4.364551   -1113.0783    5815.8724   -3281.2372     -5873.87   -1643.0305   -2287.6567    4302.6428    83.141664 
   77500    399.70202   -110.56388   0.36165879   -110.20222    636.12027    4.3637905    4.3637905    4.3637905    636.12027     291.7832    4958.3225   -3341.7449   -3652.4971    14814.043   -7347.2325     83.09821 
   77600    655.55419   -110.79105   0.59315921   -110.19789    938.48316    4.3643577    4.3643577    4.3643577    938.48316    -4383.585    2377.7841    4821.2505   -8212.0164   -8332.7078    6372.6457    83.130616 
   77700    434.15153   -110.59309   0.39282943   -110.20027   -1506.0098    4.3635747    4.3635747    4.3635747   -1506.0098    -18557.61    14997.497   -957.91625    6821.6598    9380.4109   -1374.4633    83.085884 
   77800    471.23005    -110.6267   0.42637885   -110.20032   -6718.7576    4.3644975    4.3644975    4.3644975   -6718.7576   -11112.474   -985.18632   -8058.6127    1260.6527    10742.867   -865.75458    83.138606 
   77900    547.36549   -110.69386    0.4952678    -110.1986    3066.7233    4.3635839    4.3635839    4.3635839    3066.7233    9952.0455   -7443.3255    6691.4499   -3163.7558   -6095.2546    5132.7179    83.086408 
   78000    458.49513   -110.61529   0.41485603   -110.20043   -2398.8494     4.364556     4.364556     4.364556   -2398.8494    698.90777   -2626.4507   -5269.0052    2724.8984    6745.6054   -2940.5843     83.14195 
   78100    506.11467   -110.65793   0.45794319   -110.19999    1076.7797    4.3635435    4.3635435    4.3635435    1076.7797   -1502.4792    -707.1137     5439.932   -5535.5785    5189.0758   -6180.2706    83.084102 
   78200    541.05891   -110.68815   0.48956148   -110.19858    2441.2845    4.3642499    4.3642499    4.3642499    2441.2845    -7352.372    10535.057    4141.1685    -6355.572   -3687.1945    817.39372    83.124461 
   78300    431.21323   -110.59021   0.39017079   -110.20004   -1947.8922    4.3638021    4.3638021    4.3638021   -1947.8922   -20349.279    14018.037    487.56554    8205.9227    14133.293   -3289.7735    83.098873 
   78400    511.80585   -110.66185   0.46309269   -110.19875   -2416.2312    4.3646208    4.3646208    4.3646208   -2416.2312   -2877.1727   -61.372198   -4310.1487   -3373.5334    6627.6659    815.17436    83.145653 
   78500    508.99726   -110.65976   0.46055142   -110.19921    1383.2684    4.3628602    4.3628602    4.3628602    1383.2684     11871.42   -11836.715    4115.1002   -6319.5851   -2323.5131    9943.3615    83.045079 
   78600    517.03358   -110.66761   0.46782285   -110.19978   -3700.7449    4.3656538    4.3656538    4.3656538   -3700.7449   -4339.1829    2590.3001    -9353.352    2860.5887    15135.102   -2158.9696    83.204703 
   78700    551.78897   -110.69779   0.49927026   -110.19852    2580.2466    4.3631869    4.3631869    4.3631869    2580.2466   -1503.5394    5230.0259    4014.2532   -13794.656   -3848.7322    3703.4581    83.063731 
   78800    461.95621    -110.6177   0.41798768   -110.19971    -1073.498    4.3631618    4.3631618    4.3631618    -1073.498   -16102.255    16536.859   -3655.0978   -381.06842    6751.9592    4395.0085    83.062302 
   78900    455.24798   -110.61183   0.41191794   -110.19991    -1931.539    4.3660421    4.3660421    4.3660421    -1931.539   -13359.605    12275.157   -4710.1682    9171.4271    12271.337   -1716.6007    83.226907 
   79000    574.76595   -110.71831   0.52006031   -110.19825    1025.8216    4.3619247    4.3619247    4.3619247    1025.8216    10060.415   -8208.1403      1225.19   -7148.0417   -5760.3705     3002.678    82.991667 
   79100    407.77362   -110.56998   0.36896214   -110.20102   -411.79889    4.3645381    4.3645381    4.3645381   -411.79889    1309.4838    2307.4311   -4852.3116   -3325.7745    8861.9684    3645.4338    83.140931 
   79200    592.77404   -110.73591   0.53635441   -110.19955   -1038.5547    4.3641691    4.3641691    4.3641691   -1038.5547   -5058.7077    10927.554   -8984.5102    2613.1233    6034.6735   -6889.3051    83.119842 
   79300    483.14361    -110.6364   0.43715849   -110.19924     6261.824    4.3622858    4.3622858    4.3622858     6261.824   -4938.6973    19321.892    4402.2776   -13225.578   -3545.2656    2922.7272     83.01228 
   79400    415.89625   -110.57741   0.37631167    -110.2011   -8138.6687     4.366558     4.366558     4.366558   -8138.6687   -20552.743    8346.4125   -12209.675    4365.3763     14504.44   -1317.3707    83.256415 
   79500    572.19622    -110.7157   0.51773517   -110.19796    4126.4902    4.3611046    4.3611046    4.3611046    4126.4902    780.24322    5984.8129    5614.4145    3277.5553    7786.3548    650.18787    82.944864 
   79600     511.6313   -110.66286   0.46293475   -110.19993    -850.0617    4.3651978    4.3651978    4.3651978    -850.0617    9043.5824   -9352.6653   -2241.1022   -15448.152    739.90434    5970.0652    83.178634 
   79700    417.30517   -110.57907   0.37758648   -110.20148   -964.13715    4.3656964    4.3656964    4.3656964   -964.13715   -10206.579    17576.288    -10262.12   -653.34513    17297.195    2940.4304     83.20714 
   79800    621.48491   -110.75889   0.56233261   -110.19656    7583.1508    4.3617496    4.3617496    4.3617496    7583.1508   -1431.2302    26350.997   -2170.3141   -1534.4742   -961.27282     951.4047    82.981676 
   79900    404.35226   -110.56688   0.36586642   -110.20101   -7405.2114    4.3664511    4.3664511    4.3664511   -7405.2114   -20596.317    9087.6003   -10706.918   -6920.2536     4891.309    2187.1927    83.250298 
   80000    471.16252   -110.62681   0.42631775   -110.20049   -6186.1742    4.3635969    4.3635969    4.3635969   -6186.1742   -15726.778    8580.4163   -11412.161    7700.2745    17160.128    2613.0761    83.087153 
   80100     688.4395   -110.81968   0.62291453   -110.19677     308.3808    4.3644706    4.3644706    4.3644706     308.3808    3995.0351   -6915.9583    3846.0656    215.36715   -6643.3804   -4350.1236    83.137069 
   80200    319.34736   -110.49163    0.2889522   -110.20267   -5193.1592      4.36459      4.36459      4.36459   -5193.1592   -12528.184    11610.859   -14662.153   -15534.631    14536.126    7984.8686    83.143891 
   80300    480.47556   -110.63757   0.43474439   -110.20283    9021.7761    4.3614066    4.3614066    4.3614066    9021.7761    -3421.135    34776.185   -4289.7221    3474.5422    10071.045   -2096.4266    82.962101 
   80400    667.62637   -110.80341   0.60408237   -110.19933    -816.8716    4.3661092    4.3661092    4.3661092    -816.8716   -11840.095    14953.323   -5563.8426   -7275.2247   -5528.1715    3804.2299    83.230744 
   80500    230.68312   -110.41334   0.20872694   -110.20461   -9716.8409    4.3644178    4.3644178    4.3644178   -9716.8409   -25928.815    11661.787   -14883.495   -5791.5862    20140.919    2740.3799    83.134053 
   80600    758.38369   -110.88561    0.6862015   -110.19941   -1432.6127    4.3610994    4.3610994    4.3610994   -1432.6127   -8998.3288    6981.0351   -2280.5443    1563.9762    2209.9907    1512.4414    82.944569 
   80700     478.4602   -110.63593   0.43292084   -110.20301     6356.027    4.3645871    4.3645871    4.3645871     6356.027   -2986.4382    24010.497   -1955.9775   -5922.4338    1777.3654    -2598.585    83.143728 
   80800    229.67836   -110.41541   0.20781781    -110.2076   -2697.4531    4.3649386    4.3649386    4.3649386   -2697.4531   -21830.636    32418.344   -18680.068   -11125.294    20121.845    4262.1631     83.16382 
   80900    770.59752   -110.89547   0.69725283   -110.19821    10800.474    4.3613606    4.3613606    4.3613606    10800.474    5206.1453    20722.725    6472.5535    4421.2258   -3378.1823   -2686.0702    82.959475 
   81000    472.29242    -110.6318   0.42734011   -110.20446   -11283.406    4.3669435    4.3669435    4.3669435   -11283.406    -24860.06    2849.1226    -11839.28   -5065.1263    10840.236    2008.7162    83.278468 
   81100     352.9504   -110.52547   0.31935694   -110.20611    -7663.463    4.3610285    4.3610285    4.3610285    -7663.463   -23703.701    5948.2901   -5234.9786   -4199.0966    14702.378    1666.0468    82.940523 
   81200    771.38574   -110.89596   0.69796602   -110.19799    3373.3535    4.3673804    4.3673804    4.3673804    3373.3535   -8514.0322    21354.665   -2720.5726     2388.832   -4886.8561    2768.3251    83.303464 
   81300    259.04271   -110.43984   0.23438729   -110.20545    1907.5963    4.3634275    4.3634275    4.3634275    1907.5963   -15931.716    31732.886   -10078.381   -10700.531    16912.902    469.90425    83.077474 
   81400    446.53271   -110.60816   0.40403218   -110.20413    226.00864    4.3630826    4.3630826    4.3630826    226.00864   -6316.5582     13490.56   -6495.9759   -10479.278    6297.4858    10711.266    83.057778 
   81500    711.12279   -110.84111   0.64343884   -110.19767    5230.6612    4.3667514    4.3667514    4.3667514    5230.6612    5133.4779    5293.9353    5264.5705    434.19884   -378.87097     1545.297    83.267476 
   81600    337.38558   -110.50757   0.30527356    -110.2023   -7645.5982    4.3636392    4.3636392    4.3636392   -7645.5982   -20228.851    276.01794   -2983.9613   -7683.6623    21854.246   -1042.4662    83.089566 
   81700    512.30125   -110.66342   0.46354094   -110.19988   -3278.7537    4.3666305    4.3666305    4.3666305   -3278.7537   -15725.318    4289.3606    1599.6961   -1193.3812   -3843.7064    2476.5667    83.260561 
   81800    624.98002     -110.763   0.56549506   -110.19751    7136.7828    4.3612487    4.3612487    4.3612487    7136.7828   -4623.9477    24228.908    1805.3877    3681.5342    5377.6415   -7839.4257    82.953087 
   81900    336.09048   -110.50725   0.30410173   -110.20315   -4469.0391    4.3668992    4.3668992    4.3668992   -4469.0391   -19011.722    22406.511   -16801.907   -9993.5083    13046.686    2700.5545     83.27593 
   82000    590.78474   -110.73366   0.53455445   -110.19911    2785.9026    4.3641443    4.3641443    4.3641443    2785.9026    5534.8624    2063.9588    758.88672    -4090.297    -6938.539    4446.1887    83.118427 
   82100    604.67578   -110.74573   0.54712335    -110.1986    146.20048    4.3622713    4.3622713    4.3622713    146.20048    -1376.996    4826.0239   -3010.4265    2981.6745    13538.294    4792.5869    83.011451 
   82200    337.96828   -110.50814    0.3058008   -110.20234   -6913.3912    4.3666671    4.3666671    4.3666671   -6913.3912   -19351.885    2084.1506   -3472.4393   -7464.5225    10110.835    471.47406    83.262655 
   82300    596.21902   -110.73839    0.5394715   -110.19892    2820.7608    4.3610208    4.3610208    4.3610208    2820.7608   -6824.6455    10356.662    4930.2657   -1109.9996   -3094.5335    7095.5096    82.940086 
   82400    441.96558   -110.60053   0.39989974   -110.20063    1594.9923    4.3668598    4.3668598    4.3668598    1594.9923   -12767.047    25192.145   -7640.1207    1704.4149    12545.161   -2681.5048    83.273677 
   82500    506.59018   -110.65894   0.45837344   -110.20057   -4363.7081    4.3622587    4.3622587    4.3622587   -4363.7081   -7072.2845    1693.5943   -7712.4341   -18983.457    4204.6141    3875.8181    83.010734 
   82600    562.14395   -110.70843   0.50863966   -110.19979    1934.9209    4.3648958    4.3648958    4.3648958    1934.9209    10630.595   -7969.0851    3143.2527    2513.5661    -1600.812     5771.234     83.16137 
   82700    519.79228   -110.67048   0.47031898   -110.20016   -3236.5144    4.3646439    4.3646439    4.3646439   -3236.5144   -8813.2532    6084.5129   -6980.8028    2168.7735    15952.839   -3697.3407    83.146976 
   82800     400.8217   -110.56332    0.3626719   -110.20065    1257.0233    4.3636814    4.3636814    4.3636814    1257.0233   -11513.266    5183.5424    10100.794   -8037.2478    384.25645   -414.35201    83.091976 
   82900    481.73261   -110.63449   0.43588179   -110.19861    3041.2374    4.3664033    4.3664033    4.3664033    3041.2374   -10986.634    21374.399   -1264.0524    4726.3197    1694.6703   -1145.6495    83.247566 
   83000    492.78238   -110.64454   0.44587985   -110.19866    2051.8457    4.3623971    4.3623971    4.3623971    2051.8457   -9455.2717     12071.17     3539.639   -3388.2777    9468.2374   -3812.3261    83.018634 
   83100    532.41185   -110.68058   0.48173743   -110.19884   -7377.1157    4.3672389    4.3672389    4.3672389   -7377.1157   -5093.1954    -15905.86   -1132.2914   -16370.176    -7915.904    5098.7297    83.295365 
   83200    574.52954   -110.71721    0.5198464   -110.19737   -325.30368    4.3631459    4.3631459    4.3631459   -325.30368    4765.4002   -69.380574   -5671.9306     7202.075    5605.3785    8599.4764    83.061393 
   83300    478.06695   -110.63158   0.43256503   -110.19902   -4249.8593    4.3649965    4.3649965    4.3649965   -4249.8593   -14728.543    9202.7656   -7223.8006   -3651.9032    8554.6363     987.0614     83.16713 
   83400    438.40124   -110.59576   0.39667466   -110.19908     2713.792    4.3643853    4.3643853    4.3643853     2713.792   -9801.8273    13089.991    4853.2128   -10989.149   -1388.1824    1743.5911    83.132196 
   83500    563.00611   -110.70785   0.50941976   -110.19843   -1279.0182    4.3642294    4.3642294    4.3642294   -1279.0182   -8549.5135     10852.04   -6139.5815    7385.5511    11543.451    1171.8674    83.123289 
   83600    466.76189   -110.62232   0.42233596   -110.19999   -2361.1412    4.3633907    4.3633907    4.3633907   -2361.1412   -11830.797   -3849.9194    8597.2926   -14509.379    4817.7196   -3118.2592    83.075372 
   83700    566.26623   -110.71207   0.51236959    -110.1997   -3540.0008      4.36538      4.36538      4.36538   -3540.0008    26.760908   -11276.377    629.61357   -5819.4844   -1759.5807    5736.6886    83.189048 
   83800    439.38034   -110.59847   0.39756057   -110.20091    4056.1704     4.362823     4.362823     4.362823    4056.1704   -2677.6996    19813.132   -4966.9215    8915.7077    9073.4678    5789.5012    83.042954 
   83900    446.65255   -110.60508   0.40414061   -110.20094   -117.10348    4.3637741    4.3637741    4.3637741   -117.10348   -14232.976    11705.269    2176.3967   -9268.0595    3780.1608   -6361.7761    83.097277 
   84000    565.48069   -110.71079   0.51165881   -110.19914   -3085.3607    4.3664554    4.3664554    4.3664554   -3085.3607   -8868.9115    698.59948   -1085.7702    -3414.772   -65.077772    4059.6674    83.250546 
   84100    499.19827   -110.65118   0.45168508    -110.1995    241.97337    4.3611483    4.3611483    4.3611483    241.97337   -7875.0401     3.130576    8597.8296    2899.2961    11496.081   -902.75089    82.947361 
   84200    547.24171   -110.69443    0.4951558   -110.19928   -8371.2374    4.3686871    4.3686871    4.3686871   -8371.2374   -18772.632   -12949.056    6607.9763   -16458.194   -4533.9448    4659.2748    83.378257 
   84300    432.79986   -110.59009   0.39160641   -110.19849    9343.2481    4.3623367    4.3623367    4.3623367    9343.2481    865.57511    20294.736    6869.4337    2786.8757    1721.3962    10917.102    83.015187 
   84400    435.44343   -110.59316   0.39399837   -110.19916   -1761.4609    4.3651005    4.3651005    4.3651005   -1761.4609   -15010.114    17863.599   -8137.8677    2989.5311    7778.7045      5032.75    83.173073 
   84500    528.09458    -110.6753   0.47783108   -110.19747    -331.3564    4.3658207    4.3658207    4.3658207    -331.3564   -8538.8776    2691.6555    4853.1529   -10693.872   -4684.3768   -3706.1586    83.214245 
   84600    611.44947   -110.75089   0.55325233   -110.19764   -5106.3685    4.3620687    4.3620687    4.3620687   -5106.3685    -3369.024   -3806.3384   -8143.7433    4225.2891    12185.164    3828.4748    82.999888 
   84700    453.87967   -110.61089   0.41067987   -110.20021   -7263.1643    4.3674792    4.3674792    4.3674792   -7263.1643   -16938.373   -3212.4442   -1638.6763   -4963.0395    5955.3115   -743.81059    83.309115 
   84800    560.54367   -110.70489   0.50719169    -110.1977    4967.6464     4.362022     4.362022     4.362022    4967.6464   -8400.4594    14094.341    9209.0576   -12177.683    520.97039    1569.1331     82.99722 
   84900    359.34618    -110.5266   0.32514398   -110.20146    3010.2769    4.3640018    4.3640018    4.3640018    3010.2769   -7046.9794    18721.357   -2643.5472    8863.1623    8140.8709    11364.664    83.110284 
   85000    439.34002    -110.5989   0.39752408   -110.20138   -2489.4094    4.3654633    4.3654633    4.3654633   -2489.4094   -16247.664    6505.8458    2273.5901   -3515.1345    2511.8014   -2049.6201    83.193814 
   85100    707.73252   -110.83811   0.64037126   -110.19774   -30.707441    4.3622781    4.3622781    4.3622781   -30.707441    66.264422   -5370.8478     5212.461   -8221.8977    -2483.876    3862.6818    83.011842 
   85200    426.60102   -110.58856   0.38599757   -110.20256   -5339.6332    4.3651928    4.3651928    4.3651928   -5339.6332   -11305.191    8112.4229   -12826.132    3918.8448    10138.508    1305.8754    83.178349 
   85300    484.37466   -110.63956   0.43827237   -110.20129    1587.7768    4.3646976    4.3646976    4.3646976    1587.7768    -10682.38    15028.503    417.20803   -9908.8546    178.08322    3585.4105    83.150041 
   85400    587.90242   -110.73092   0.53194647   -110.19897    7065.1759    4.3622636    4.3622636    4.3622636    7065.1759   -6203.5655    20868.756    6530.3368   -1009.0822    1651.6334    1560.9676    83.011011 
   85500    280.48343   -110.45747    0.2537873   -110.20368   -3661.9367    4.3656192    4.3656192    4.3656192   -3661.9367   -13885.357    3815.5483   -916.00116    7549.0417     10596.98     9313.621    83.202727 
   85600    626.72821   -110.76712   0.56707685   -110.20004   -2503.7696    4.3635262    4.3635262    4.3635262   -2503.7696   -9051.9737   -9726.9934    11267.658   -3034.9148   -7211.6436   -5898.1297    83.083114 
   85700    594.90682   -110.73753   0.53828419   -110.19925   -2280.2282    4.3661213    4.3661213    4.3661213   -2280.2282   -8052.5267    6214.0711    -5002.229   -3176.3992    9370.6076   -1838.6007    83.231439 
   85800    382.19725   -110.54835    0.3458201   -110.20253   -3292.9473    4.3637816    4.3637816    4.3637816   -3292.9473   -13060.361    14327.309    -11145.79    4843.7969    6306.6009    3023.3781    83.097701 
   85900    609.33401    -110.7494   0.55133822   -110.19806    4148.8022    4.3647717    4.3647717    4.3647717    4148.8022   -9325.0615    15456.646    6314.8217   -8183.3968   -537.94391    3298.2057    83.154276 
   86000    422.65413   -110.58315   0.38242634   -110.20072    972.33465    4.3641795    4.3641795    4.3641795    972.33465   -10824.266    5959.8707    7781.3995    2754.7129    11224.584    4424.7094    83.120438 
   86100    365.36004   -110.53242   0.33058544   -110.20184   -5090.2016    4.3653293    4.3653293    4.3653293   -5090.2016   -15469.814   -9536.0269    9735.2363    5326.3237    900.71368     5904.717    83.186151 
   86200     678.3928   -110.81068   0.61382406   -110.19686    3128.2279     4.363742     4.363742     4.363742    3128.2279    -6206.947    4376.9122    11214.719   -5056.1486   -3364.8897   -3874.7335    83.095441 
   86300    477.03768   -110.63322   0.43163372   -110.20159   -6520.8153    4.3646468    4.3646468    4.3646468   -6520.8153   -14608.473    7867.0896   -12821.062    1702.6161    8964.2534    -5611.553    83.147139 
   86400    431.55254   -110.59248   0.39047781     -110.202    3114.0943    4.3643877    4.3643877    4.3643877    3114.0943   -8738.3918    19869.336   -1788.6614    1779.9238    198.26891    7805.6981    83.132334 
   86500    671.60338   -110.80632   0.60768085   -110.19864    3641.4207    4.3626694    4.3626694    4.3626694    3641.4207   -4433.1721    1420.3391    13937.095   -928.16949    2651.3064   -5107.0616    83.034183 
   86600    261.84598   -110.44137   0.23692375   -110.20444   -3610.9899    4.3654142    4.3654142    4.3654142   -3610.9899   -15912.792   -974.33879    6054.1612    4391.3841    12933.722      241.434    83.191003 
   86700    570.11531   -110.71591   0.51585231   -110.20006    -55.49034    4.3645514    4.3645514    4.3645514    -55.49034   -12656.593    729.05315    11761.069    8062.3198   -3819.8239    -3422.879    83.141689 
   86800    614.78174   -110.75477   0.55626744    -110.1985   -1338.4657    4.3654163    4.3654163    4.3654163   -1338.4657   -10802.343    15677.321   -8890.3745   -2064.1864    5996.0821   -7819.4583    83.191124 
   86900    354.48718   -110.52342   0.32074745   -110.20268   -1408.5868    4.3632298    4.3632298    4.3632298   -1408.5868   -19092.657    21392.399   -6525.5021    6872.1178    6518.2378   -798.68385    83.066182 
   87000    681.54522   -110.81484   0.61667644   -110.19816    2127.9365    4.3665096    4.3665096    4.3665096    2127.9365   -13955.836    4554.4822    15785.163    1740.6252   -2872.8521    10742.617    83.253646 
   87100    425.24706   -110.58539   0.38477247   -110.20062    1787.1691    4.3629881    4.3629881    4.3629881    1787.1691   -11414.921     2558.877    14217.551   -2730.5361    9936.2745   -4925.7056    83.052381 
   87200    337.23825   -110.50803   0.30514025   -110.20289   -7887.3288     4.365373     4.365373     4.365373   -7887.3288   -19281.858    -7382.995    3002.8661    7526.9766    4458.2774   -2638.4773     83.18865 
   87300    655.16717   -110.79059   0.59280903   -110.19778    8451.1317    4.3626137    4.3626137    4.3626137    8451.1317   -5613.0295    25959.483    5006.9419    2371.4638   -4518.6132   -377.94804    83.031001 
   87400    467.43514   -110.62632   0.42294513   -110.20337   -5996.0188    4.3645838    4.3645838    4.3645838   -5996.0188   -14174.091    10196.589   -14010.554   -817.69912    10594.469   -8711.4473    83.143537 
   87500    441.60603    -110.6034   0.39957442   -110.20382   -2051.6982    4.3654417    4.3654417    4.3654417   -2051.6982   -18551.949    9646.9082    2749.9467    9353.8318   -3013.8241    1733.5102    83.192576 
   87600    718.73677   -110.84905   0.65032813   -110.19872    5823.4328    4.3611213    4.3611213    4.3611213    5823.4328    -7948.669    2749.8529    22669.115   -1570.2965   -102.68578    -3602.168    82.945819 
   87700    305.97106   -110.48204   0.27684905   -110.20519   -8608.9848    4.3676341    4.3676341    4.3676341   -8608.9848   -23235.835    3475.4644   -6066.5836    946.88167    11320.741   -9779.0872    83.317984 
   87800    410.11997   -110.57277   0.37108517   -110.20169    6456.3422     4.363765     4.363765     4.363765    6456.3422   -12846.584    32476.653   -261.04266    9830.4256   -4582.5591   -5376.4904    83.096752 
   87900    681.20945    -110.8139   0.61637263   -110.19753   -539.03116    4.3655518    4.3655518    4.3655518   -539.03116   -10069.047    18100.952    -9648.998   -1305.1034     6946.846    4655.1183    83.198874 
   88000    367.25293   -110.53434   0.33229817   -110.20204   -6737.9155    4.3650724    4.3650724    4.3650724   -6737.9155   -13950.841    5252.5099   -11515.415    4208.8332    5466.2663    -4542.412    83.171466 
   88100    725.65791   -110.85501   0.65659052   -110.19842   -1430.4864    4.3650292    4.3650292    4.3650292   -1430.4864   -9388.8607   -2392.0543    7489.4559    4444.6428   -5645.7711    4800.1949    83.168997 
   88200     454.3336   -110.61148   0.41109059   -110.20039    1704.0908    4.3653759    4.3653759    4.3653759    1704.0908   -17285.323    17935.029    4462.5662   -7932.8237    7398.0756   -5152.9718    83.188815 
   88300    241.43602   -110.42239   0.21845639   -110.20393    4537.9654     4.361974     4.361974     4.361974    4537.9654   -17584.367     33438.85   -2240.5867    2278.3806    1418.8596   -8282.3196    82.994481 
   88400    668.87072   -110.80249   0.60520828   -110.19728    241.74303    4.3674897    4.3674897    4.3674897    241.74303   -12186.099    13381.727   -470.39859    5532.3819    -3357.033   -5008.4066    83.309719 
   88500    470.55626   -110.62743   0.42576919   -110.20166    840.41109    4.3598827    4.3598827    4.3598827    840.41109   -7242.6487    10000.471   -236.58865   -6932.9367    9903.0294    3375.9283    82.875168 
   88600    559.14578   -110.70794   0.50592686   -110.20202   -10337.589    4.3685725    4.3685725    4.3685725   -10337.589   -16323.304   -688.71914   -14000.743    8096.5564   -2328.3941   -9063.3936      83.3717 
   88700    595.11852   -110.73734   0.53847574   -110.19886    11550.916    4.3607875    4.3607875    4.3607875    11550.916    -5682.627     32210.61    8124.7635   -3791.4054   -428.21173    3098.1643    82.926777 
   88800    259.06136   -110.43854   0.23440416   -110.20414    -1682.847    4.3650843    4.3650843    4.3650843    -1682.847   -21312.696    22168.803   -5904.6476   -7671.1511    7562.4545   -5536.8696    83.172144 
   88900    546.03323   -110.69464   0.49406234   -110.20058   -3336.1042    4.3647629    4.3647629    4.3647629   -3336.1042   -11978.795    2538.1151   -567.63231    2259.9737   -6768.9454   -5656.9436    83.153774 
   89000    607.84501   -110.74996   0.54999094   -110.19997    5318.1811    4.3603515    4.3603515    4.3603515    5318.1811   -2921.4382    8617.7158    10258.266   -3397.3878    4840.8839    7063.7692    82.901902 
   89100    397.98168    -110.5639   0.36010219    -110.2038   -9289.0999    4.3687256    4.3687256    4.3687256   -9289.0999   -22117.314    9736.2597   -15486.245   -5581.1737    5257.0878    443.04035    83.380465 
   89200    610.34505   -110.75044   0.55225302   -110.19819    8795.0285    4.3617669    4.3617669    4.3617669    8795.0285   -3833.1015    32245.658   -2027.4706    3924.8776   -2788.3207   -8103.8604     82.98266 
   89300    512.32359   -110.66374   0.46356115   -110.20018   -2899.7309    4.3646067    4.3646067    4.3646067   -2899.7309   -18993.426    9374.6662    919.56697   -8349.4029    8191.8203   -1333.8926    83.144851 
   89400    357.61341   -110.52616   0.32357613   -110.20258   -5959.4027    4.3652351    4.3652351    4.3652351   -5959.4027   -19783.265    2081.5422   -176.48522   -3673.5724    1681.1527   -3895.8557    83.180765 
   89500     649.1708   -110.78526   0.58738338   -110.19788    4527.7578    4.3643779    4.3643779    4.3643779    4527.7578   -2813.9606    11644.217    4753.0171    4071.3055   -4072.1496   -4143.7597    83.131775 
   89600    404.43014   -110.56876   0.36593689   -110.20282    726.08423     4.362479     4.362479     4.362479    726.08423   -13876.497    17079.325   -1024.5751   -4827.6165    7606.1987    11987.259    83.023312 
   89700      405.271   -110.56996   0.36669771   -110.20326    2038.7206    4.3652101    4.3652101    4.3652101    2038.7206   -9864.1549    23851.875   -7871.5581   -191.47654   -3569.0665   -4780.5765    83.179339 
   89800    780.34366   -110.90359   0.70607135   -110.19752   -1809.0526    4.3641786    4.3641786    4.3641786   -1809.0526   -4210.7397    2682.0826   -3898.5007    566.89014    695.59646   -645.58881    83.120384 
   89900    294.12547   -110.47057   0.26613091   -110.20444   -6443.1252    4.3631913    4.3631913    4.3631913   -6443.1252   -22739.636    10028.664   -6618.4035   -12422.335      8653.28    3290.8963    83.063987 
   90000    465.60503   -110.62457   0.42128922   -110.20328    2165.3271    4.3642449    4.3642449    4.3642449    2165.3271   -10860.672    22918.674   -5562.0211   -2063.6587   -5357.7754    686.05396    83.124175 
   90100    603.25206   -110.74732   0.54583514   -110.20148    772.72797    4.3654766    4.3654766    4.3654766    772.72797   -12953.359    15911.013   -639.47022    312.74628    5460.3524   -763.99648     83.19457 
   90200    302.00457    -110.4784   0.27326008   -110.20514   -1680.1338    4.3625902    4.3625902    4.3625902   -1680.1338   -16944.698    11167.881    736.41538   -7892.2183     3052.697    7270.3541    83.029661 
   90300    793.60575   -110.91712   0.71807116   -110.19905   -3529.1298    4.3653063    4.3653063    4.3653063   -3529.1298    -6338.425   -2296.9034    -1952.061    1195.8731   -3476.1789   -9515.9289    83.184835 
   90400    455.53455   -110.61403   0.41217724   -110.20185   -1710.4964    4.3669796    4.3669796    4.3669796   -1710.4964   -16732.441    16895.229   -5294.2773   -2483.4976    7647.6934    349.79182    83.280533 
   90500     305.7881   -110.48051    0.2766835   -110.20383    2546.7094    4.3598248    4.3598248    4.3598248    2546.7094   -15909.355    25653.385   -2103.9017   -8471.9619    3226.9233     5063.251    82.871867 
   90600    668.17757   -110.80177    0.6045811   -110.19719   -2791.2315    4.3710649    4.3710649    4.3710649   -2791.2315   -12768.225    6648.2701   -2253.7399    1369.0388   -882.71838     7291.529    83.514477 
   90700    390.30311   -110.55502   0.35315446   -110.20186    3800.9295    4.3595795    4.3595795    4.3595795    3800.9295   -14635.353    11584.586    14453.556     1355.936    9295.3634    666.55193    82.857877 
   90800    529.33029   -110.68083   0.47894917   -110.20188   -5123.2658    4.3662247    4.3662247    4.3662247   -5123.2658   -15452.925    -4835.977    4919.1048   -7015.4907   -2171.7731    5896.0025    83.237349 
   90900    626.23111   -110.76476   0.56662707   -110.19814      5509.26    4.3658429    4.3658429    4.3658429      5509.26   -9434.1872     20929.63    5032.3372    4994.2412   -1329.0427   -5018.5568    83.215518 
   91000    345.12703   -110.51519   0.31227819   -110.20291   -3507.4678    4.3615479    4.3615479    4.3615479   -3507.4678   -20948.902    13907.369    -3480.871   -5847.2947    8951.6008    1545.6739     82.97016 
   91100    549.31745   -110.69754   0.49703397   -110.20051   -6314.3523     4.366374     4.366374     4.366374   -6314.3523   -8699.2028   -56.074987   -10187.779   -4901.7573   -4078.4181    8864.2129    83.245891 
   91200    566.94975   -110.71335   0.51298805   -110.20037    3204.5412    4.3621708    4.3621708    4.3621708    3204.5412    -6113.271    4889.2569    10837.638    6608.6954    6988.9203   -495.04102    83.005718 
   91300    374.18136   -110.54233   0.33856716   -110.20377   -6349.2458    4.3671443    4.3671443    4.3671443   -6349.2458    -24083.98   -110.57038    5146.8127   -2117.6455    7782.3109   -2396.8702    83.289956 
   91400    516.07411   -110.66655    0.4669547   -110.19959    8735.3652    4.3616388    4.3616388    4.3616388    8735.3652   -1440.3776    19371.817    8274.6559   -52.482902   -939.39254    3225.2169    82.975348 
   91500    511.08043   -110.66368   0.46243632   -110.20125    -4899.463    4.3672894    4.3672894    4.3672894    -4899.463   -22735.281    8778.2779    -741.3859    6951.5166    6820.2935    1959.4702    83.298259 
   91600    474.50859   -110.62942   0.42934534   -110.20007   -7485.9362    4.3638409    4.3638409    4.3638409   -7485.9362   -16727.589      1708.41   -7438.6291    -7254.526    4181.4089    3838.9978    83.101089 
   91700    656.90184   -110.79209   0.59437859   -110.19771   -4641.0805    4.3632324    4.3632324    4.3632324   -4641.0805   -1833.5712   -5845.0538   -6244.6166    -735.5225   -3098.0318    13960.752    83.066332 
   91800    381.49218   -110.54686   0.34518214   -110.20167   -5841.4746    4.3683605    4.3683605    4.3683605   -5841.4746   -25973.724    11151.203    -2701.903    6365.8449    7283.4241   -6166.7311    83.359561 
   91900     438.1916   -110.59683   0.39648497   -110.20034    12786.353    4.3590174    4.3590174    4.3590174    12786.353   -7246.6739    28927.663     16678.07   -6095.3916    -522.3966   -1445.0801    82.825831 
   92000    587.12402   -110.73012   0.53124215   -110.19888   -6996.8167    4.3708108    4.3708108    4.3708108   -6996.8167   -15956.079   -2911.7356    -2122.636    6817.6643   -104.28008    998.40452    83.499916 
   92100    358.85057   -110.52626   0.32469554   -110.20156    1184.0072    4.3599132    4.3599132    4.3599132    1184.0072   -17978.512    11472.035    10058.498     5850.281    8740.0853    1412.2728    82.876909 
   92200    676.09094   -110.81046   0.61174129   -110.19872   -3330.5774    4.3652504    4.3652504    4.3652504   -3330.5774   -5430.5741    2511.0462   -7072.2043   -6062.1991   -2837.2692    2553.7553    83.181638 
   92300    469.14861   -110.62655   0.42449552   -110.20206   -3569.5813    4.3661243    4.3661243    4.3661243   -3569.5813   -10991.222    13569.586   -13287.108    6644.0335    4450.0424    9100.6257    83.231606 
   92400    308.47095   -110.48428     0.279111   -110.20517    6242.0906    4.3585002    4.3585002    4.3585002    6242.0906   -13302.947     21455.02    10574.199    4252.4077    5417.6374   -5252.3975    82.796355 
   92500    770.27715   -110.89537   0.69696295    -110.1984   -6580.6432    4.3705893    4.3705893    4.3705893   -6580.6432   -13385.171   -9213.2739    2856.5155   -5661.6393    41.656244    3280.5656    83.487221 
   92600    352.12444   -110.52217    0.3186096   -110.20356    3952.8901    4.3595773    4.3595773    4.3595773    3952.8901   -13350.242    9213.6988    15995.213    11947.593    6877.1539    6304.3524    82.857755 
   92700    422.23917   -110.58655   0.38205087    -110.2045   -3724.2225    4.3654618    4.3654618    4.3654618   -3724.2225   -20862.541    12828.594   -3138.7199   -1484.4806    7570.0555    3573.3952    83.193728 
   92800    648.91697   -110.78514   0.58715372   -110.19798    3968.0715    4.3672002    4.3672002    4.3672002    3968.0715   -1844.3645    21411.222   -7662.6434   -3991.0693   -1026.0038    311.74752    83.293151 
   92900    348.21799   -110.51855   0.31507496   -110.20347   -5395.2351    4.3611305    4.3611305    4.3611305   -5395.2351   -14555.397     5694.608   -7324.9168    11863.841    6139.5817    483.39181    82.946344 
   93000    616.96108   -110.75891   0.55823935   -110.20067   -8852.0633    4.3686439    4.3686439    4.3686439   -8852.0633    -15153.09   -8587.5661   -2815.5337    460.15673    1074.0855   -5862.0071    83.375786 
   93100    648.70403   -110.78495   0.58696104   -110.19799     1286.904    4.3640344    4.3640344    4.3640344     1286.904    -8183.071    9537.4985    2506.2845    3450.5515   -4235.3472    -1435.813    83.112146 
   93200    215.11106   -110.39872   0.19463701   -110.20408   -2771.0793    4.3634133    4.3634133    4.3634133   -2771.0793   -31490.532    17514.307     5662.987     13289.01    7996.5823    7097.5088    83.076663 
   93300    576.70825   -110.72124   0.52181775   -110.19942    3476.2213    4.3672521    4.3672521    4.3672521    3476.2213   -11600.274    21792.797    236.14152   -2502.7442   -1725.5246    3065.7169     83.29612 
   93400    602.68466   -110.74603   0.54532175   -110.20071    2721.7101    4.3604835    4.3604835    4.3604835    2721.7101   -3543.5992    9666.8155    2041.9141    609.81059    4514.9449    934.61265    82.909435 
   93500    374.53655   -110.54414   0.33888854   -110.20525   -15257.277    4.3695285    4.3695285    4.3695285   -15257.277   -27426.639   -7518.1365   -10827.055    13013.385    7748.3024    2026.9563    83.426442 
   93600    634.77807   -110.77412   0.57436054   -110.19976    16204.424    4.3578392    4.3578392    4.3578392    16204.424    6848.6686    33559.465    8205.1376    -1641.595   -1256.3138   -3797.3045    82.758686 
   93700    400.02648   -110.56641   0.36195236   -110.20446   -7827.4968    4.3690449    4.3690449    4.3690449   -7827.4968   -26112.745    13309.294   -10679.039    8650.8447    5367.5267   -4266.7412    83.398749 
   93800    340.64675   -110.51289   0.30822434   -110.20467   -2680.9078    4.3615585    4.3615585    4.3615585   -2680.9078   -18267.286    5624.0408    4600.5216    11276.978    3606.3303    6532.3923    82.970769 
   93900    778.75474   -110.90428   0.70463365   -110.19964    4202.9141     4.361103     4.361103     4.361103    4202.9141    3959.8694     4166.918    4481.9548   -4665.9729   -298.54787   -10857.396    82.944773 
   94000    419.01285   -110.58398   0.37913163   -110.20485   -12823.887    4.3716352    4.3716352    4.3716352   -12823.887   -25496.079   -53.075551   -12922.507    7912.2683    3690.0865   -1145.7821    83.547171 
   94100    412.19966   -110.57449   0.37296691   -110.20152     14015.48    4.3561644    4.3561644    4.3561644     14015.48   -2303.2657    34507.077    9842.6292    10835.202    4918.5972   -653.52403    82.663307 
   94200    632.46603   -110.77053   0.57226856   -110.19826   -6193.7481     4.370644     4.370644     4.370644   -6193.7481   -10578.889    7127.6878   -15130.043   -3127.1509   -2648.2409   -2159.6217    83.490355 
   94300    318.92757   -110.49087   0.28857237    -110.2023   -4012.0469    4.3606148    4.3606148    4.3606148   -4012.0469   -13244.223   -1851.5088    3059.5914    12232.613    5436.1585    1215.1533    82.916923 
   94400     632.7855    -110.7734   0.57255762   -110.20084   -2241.3403    4.3667249    4.3667249    4.3667249   -2241.3403   -8773.2409    1837.0675    212.15255     3657.176    -709.9047     4300.415    83.265958 
   94500    543.70029   -110.69327   0.49195145   -110.20132    4795.2813    4.3642934    4.3642934    4.3642934    4795.2813   -647.57211    20488.249   -5454.8331   -7026.4732    -1168.388    -11786.38    83.126942 
   94600    323.06676   -110.49664   0.29231759   -110.20433    7145.1444    4.3610596    4.3610596    4.3610596    7145.1444   -16635.391    32170.453    5900.3712    13231.276    5914.5253   -2602.3432    82.942297 
   94700    677.82163   -110.81099   0.61330726   -110.19768   -6201.5919    4.3706312    4.3706312    4.3706312   -6201.5919   -15916.635   -2641.5559   -46.585418    5250.1443     -1343.61   -4878.4773    83.489622 
   94800    460.67637   -110.61655   0.41682966   -110.19972    6168.9632    4.3547236    4.3547236    4.3547236    6168.9632     1636.284    7773.2931    9097.3126   -3285.2723    4843.0333   -7111.1486    82.581311 
   94900    396.68832   -110.56114   0.35893193   -110.20221   -11614.742    4.3753351    4.3753351    4.3753351   -11614.742    -28749.91    2820.8575    -8915.174    12747.614    5519.3034    2989.5517    83.759478 
   95000    619.47454   -110.75875   0.56051358   -110.19823     16566.93     4.354777     4.354777     4.354777     16566.93    9071.9295    33002.529    7626.3314    -7291.487   -208.11537   -507.77497    82.584352 
   95100    377.02908    -110.5458   0.34114383   -110.20466   -3913.8771    4.3665978    4.3665978    4.3665978   -3913.8771   -9525.2996    6584.9656   -8801.2972   -4079.2345    3933.4135     -8455.97    83.258689 
   95200    598.63635    -110.7422   0.54165875   -110.20054   -11641.277    4.3677118    4.3677118    4.3677118   -11641.277   -20906.364   -9674.8025    -4342.664    14463.816    4384.8626    3913.6624    83.322429 
   95300     558.6827   -110.70331   0.50550784    -110.1978    17282.581    4.3515717    4.3515717    4.3515717    17282.581     7483.536    24426.843    19937.365   -4507.4903   -3295.7853   -2352.2557    82.402131 
   95400    278.44952   -110.45477   0.25194698   -110.20283   -17586.528    4.3785108    4.3785108    4.3785108   -17586.528   -35755.763    4614.4476    -21618.27    953.09422    6208.8426   -2182.5709    83.941992 
   95500    576.37006   -110.71851   0.52151174     -110.197    17460.053    4.3515406    4.3515406    4.3515406    17460.053    1974.0115    31604.238    18801.911    9324.1747    3848.0625    500.58456     82.40036 
   95600    613.39025   -110.75483   0.55500839   -110.19982   -10043.012    4.3693297    4.3693297    4.3693297   -10043.012   -7946.8233   -10321.265   -11860.947   -9822.9424   -2796.2892   -4774.0849    83.415056 
   95700    394.33619    -110.5597   0.35680367    -110.2029   -6703.6407    4.3644645    4.3644645    4.3644645   -6703.6407   -11484.708    534.05325   -9160.2675    4651.1418    7841.6133   -7886.5822    83.136723 
   95800     614.7917   -110.75428   0.55627645     -110.198    12718.191     4.358993     4.358993     4.358993    12718.191   -3322.5149    34493.515    6983.5733    10473.414   -3018.0739    2137.1954     82.82444 
   95900    393.21494   -110.55819   0.35578914    -110.2024   -5117.8701    4.3696952    4.3696952    4.3696952   -5117.8701   -19322.541    14665.756   -10696.825    -10663.72   -454.58486   -747.15837    83.435991 
   96000    437.01728   -110.59736   0.39542242   -110.20193    3036.7928    4.3581833    4.3581833    4.3581833    3036.7928   -8916.1008    10816.842    7209.6371    2505.0633    5550.8907   -4215.1908    82.778294 
   96100    759.45446   -110.88456   0.68717036   -110.19739   -3847.3164    4.3685827    4.3685827    4.3685827   -3847.3164   -10032.077   -967.23409   -542.63781   -209.61001   -2316.5743    4295.4574    83.372282 
   96200    354.42656   -110.52393    0.3206926   -110.20323   -1300.9197    4.3612066    4.3612066    4.3612066   -1300.9197   -12035.735    13438.736   -5305.7608   -8778.0666    4686.6705    -9418.152    82.950687 
   96300    381.28192   -110.54884   0.34499189   -110.20385    4549.3791    4.3651515    4.3651515    4.3651515    4549.3791   -10245.724    32241.127   -8347.2655    6853.2944    5993.3309   -5847.5294    83.175988 
   96400    703.82068   -110.83651   0.63683174   -110.19967    1862.6679    4.3625666    4.3625666    4.3625666    1862.6679    -1542.328    10777.551   -3647.2196    3131.7887   -3334.1244    1783.9497     83.02831 
   96500    288.13796    -110.4674   0.26071329   -110.20669   -5942.4625    4.3634419    4.3634419    4.3634419   -5942.4625   -10706.501   -455.47297   -6665.4138   -11826.684     5496.279   -4237.6917    83.078296 
   96600     638.0373   -110.77877   0.57730956   -110.20146   -3470.5311    4.3674175    4.3674175    4.3674175   -3470.5311   -7679.7036    8370.5342   -11102.424   -1324.9017     3099.519   -5990.4398    83.305587 
   96700    540.02372   -110.68943   0.48862481   -110.20081    8009.5953    4.3593884    4.3593884    4.3593884    8009.5953   -5894.2855    28407.144    1515.9273   -5923.9541   -5275.8239    5159.1487    82.846984 
   96800    256.92689   -110.43765   0.23247285   -110.20518   -7423.7244    4.3673099    4.3673099    4.3673099   -7423.7244   -21611.377    13894.051   -14553.848   -7073.8467    8144.5784   -9600.9311    83.299433 
   96900    747.29643   -110.87514   0.67616952   -110.19897    -2020.826    4.3623681    4.3623681    4.3623681    -2020.826   -6155.0161    2709.8793   -2617.3412     3089.459    268.05459    1798.4235    83.016979 
   97000    506.97038   -110.66132   0.45871745    -110.2026   -2274.6165    4.3629634    4.3629634    4.3629634   -2274.6165   -15263.048    11602.734    -3163.535   -2248.3701   -2764.8609    2279.5415     83.05097 
   97100    298.92589   -110.47585   0.27047442   -110.20537   -1577.1521    4.3671975    4.3671975    4.3671975   -1577.1521   -14801.202    22450.814   -12381.068   -10346.498    8117.5835    -5311.269    83.292997 
   97200    693.89722   -110.82617   0.62785279   -110.19831    8891.3064    4.3602884    4.3602884    4.3602884    8891.3064    2689.3916    25986.534   -2002.0062    892.69098   -5826.6928   -6667.9777    82.898305 
   97300    422.31111   -110.58499   0.38211597   -110.20287   -1016.7266    4.3657392    4.3657392    4.3657392   -1016.7266   -13130.945    11910.834   -1830.0688    -5444.148    1099.7117    1945.8828    83.209589 
   97400     507.6672   -110.66154   0.45934796   -110.20219    -10498.09    4.3645781    4.3645781    4.3645781    -10498.09   -12420.517   -11183.496   -7890.2567   -5781.4053    5247.3123   -11424.669    83.143212 
   97500    585.04828   -110.72795   0.52936398   -110.19859     3744.343    4.3622955    4.3622955    4.3622955     3744.343   -10696.063     19291.87     2637.222    4752.2788   -7215.5902     5485.431    83.012834 
   97600    335.19049   -110.50548    0.3032874   -110.20219   -1736.9306    4.3673669    4.3673669    4.3673669   -1736.9306   -24355.213      28611.4   -9466.9783   -7663.6686     6164.307     3025.494    83.302691 
   97700    516.51055   -110.66803    0.4673496   -110.20068    3672.0376    4.3596532    4.3596532    4.3596532    3672.0376    1052.8491    13635.123   -3671.8591   -9214.5349    5869.0627   -3786.6192    82.862081 
   97800    610.14937   -110.75211   0.55207597   -110.20004     54.96159    4.3668176    4.3668176    4.3668176     54.96159    -3963.626    10989.216   -6860.7054    1806.5794   -8083.9794    1099.4939    83.271262 
   97900    485.39718   -110.64096   0.43919757   -110.20177   -4296.8609    4.3635941    4.3635941    4.3635941   -4296.8609   -2244.1269   -1012.1864   -9634.2693   -2329.1358    9136.9355   -474.11728    83.086995 
   98000    447.37615   -110.60526   0.40479534   -110.20046    4397.6594    4.3608867    4.3608867    4.3608867    4397.6594   -1984.3762    18481.733   -3304.3788   -674.43209   -552.46808    -7357.668    82.932432 
   98100     451.8678   -110.60913   0.40885948   -110.20027   -1792.5835    4.3684945    4.3684945    4.3684945   -1792.5835   -23970.275    28677.601   -10085.076    9122.4886   -7383.3469    497.44341    83.367231 
   98200    485.01355   -110.63893   0.43885046   -110.20008    3730.4578    4.3593492    4.3593492    4.3593492    3730.4578    -2373.859    17434.787   -3869.5543   -10308.367    12636.092   -3901.2348    82.844749 
   98300    607.35299   -110.74869   0.54954575   -110.19914   -5832.3373    4.3664935    4.3664935    4.3664935   -5832.3373   -8218.9829   -2997.7389   -6280.2901   -1594.7625   -6277.9808   -5727.7669    83.252723 
   98400    533.29729   -110.68245    0.4825386   -110.19992   -2007.5934    4.3639548    4.3639548    4.3639548   -2007.5934   -5598.2497    8744.1772   -9168.7076    4456.6076   -1316.2277   -313.07073    83.107596 
   98500    465.09427   -110.62108   0.42082707   -110.20026     7041.308    4.3610976    4.3610976    4.3610976     7041.308   -987.16724    27751.952    -5640.861   -1952.2177    10182.361    1439.1297    82.944468 
   98600    460.04533   -110.61682   0.41625869   -110.20056    1134.2917    4.3666483    4.3666483    4.3666483    1134.2917   -16600.918     23766.63   -3762.8368    673.30976   -11673.747    1767.8818    83.261579 
   98700    413.64357   -110.57524    0.3742734   -110.20097    -483.8015    4.3636208    4.3636208    4.3636208    -483.8015    -16952.32    21099.201   -5598.2855    5558.7649    5553.0997     4276.576     83.08852 
   98800    631.75087   -110.76981   0.57162147   -110.19819    -1408.089    4.3621213    4.3621213    4.3621213    -1408.089   -10487.966    4253.2864    2010.4127   -6566.0771    7075.1962    2169.2164    83.002888 
   98900    556.09595     -110.703   0.50316731   -110.19983   -7151.2197    4.3662609    4.3662609    4.3662609   -7151.2197   -12748.199   -2382.1953   -6323.2648     2543.082   -10247.644   -7122.3168    83.239419 
   99000    357.71594   -110.52655    0.3236689   -110.20288    4170.5166    4.3636672    4.3636672    4.3636672    4170.5166   -12345.512    34480.243   -9623.1807    8096.7433    12712.908   -383.60155    83.091166 
   99100    598.88635   -110.74014   0.54188496   -110.19825    9083.0144    4.3613511    4.3613511    4.3613511    9083.0144    -2996.379    33389.906   -3144.4834    502.75379    2205.9253   -5735.3205    82.958929 
   99200    369.89346   -110.53816   0.33468737   -110.20347   -3460.5707     4.367015     4.367015     4.367015   -3460.5707   -16596.978    20110.815   -13895.549    4423.3179   -9262.3416    749.67768    83.282557 
   99300    471.83932   -110.62886   0.42693013   -110.20193   -4133.7285    4.3621789    4.3621789    4.3621789   -4133.7285   -17708.178    14883.804   -9576.8112    3593.7205    15676.531   -2128.2221    83.006181 
   99400    765.81927   -110.89046   0.69292937   -110.19753   -2901.3075    4.3639325    4.3639325    4.3639325   -2901.3075    -4233.546    559.94419   -5030.3208   -6242.4047   -5355.7237    5496.0483    83.106322 
   99500    357.19966   -110.52535   0.32320176   -110.20214   -3586.8464    4.3666727    4.3666727    4.3666727   -3586.8464   -19565.513    27972.005   -19167.031    3374.4439   -1770.6201   -3425.5924    83.262976 
   99600    449.98489     -110.609   0.40715578   -110.20184    2651.6657    4.3603614    4.3603614    4.3603614    2651.6657   -13396.862     27143.28   -5791.4214    7596.3009    14766.728    3635.2307    82.902466 
   99700    576.49027   -110.72042   0.52162052    -110.1988    2537.3005    4.3656018    4.3656018    4.3656018    2537.3005   -480.28142    16414.348   -8322.1654    3944.4198    -7711.461    1651.3847    83.201729 
   99800    355.52532   -110.52418   0.32168678    -110.2025   -7618.6972    4.3658382    4.3658382    4.3658382   -7618.6972   -13209.385    9292.3933     -18939.1    6827.7999    5599.0458   -1017.6076     83.21525 
   99900    561.48942   -110.70836   0.50804743   -110.20031    923.36238    4.3591897    4.3591897    4.3591897    923.36238   -793.22046    5127.5794   -1564.2718    1601.1827    7615.7212   -621.81883    82.835655 
  100000    588.97869   -110.73279    0.5329203   -110.19987   -2853.8143    4.3687465    4.3687465    4.3687465   -2853.8143   -8405.6704    14838.186   -14993.959    -5900.703     -6429.55   -663.11568    83.381661 
Loop time of 21.6709 on 1 procs for 100000 steps with 8 atoms

Pair  time (%) = 6.68133 (30.831)
Kspce time (%) = 5.30867 (24.4968)
Neigh time (%) = 0 (0)
Comm  time (%) = 1.06481 (4.91354)
Outpt time (%) = 0.0260537 (0.120224)
Other time (%) = 8.59 (39.6385)

Nlocal:    8 ave 8 max 8 min
Histogram: 1 0 0 0 0 0 0 0 0 0
Nghost:    2189 ave 2189 max 2189 min
Histogram: 1 0 0 0 0 0 0 0 0 0
Neighs:    2056 ave 2056 max 2056 min
Histogram: 1 0 0 0 0 0 0 0 0 0

Total # of neighbors = 2056
Ave neighs/atom = 257
Neighbor list builds = 0
Dangerous builds = 0
unfix 20
unfix 21
print "seeds:7044949"
seeds:7044949
