LAMMPS (16 Mar 2018)
# ---- initialize simulations
clear
units metal
dimension 3
boundary p p p
atom_style charge
atom_modify map array
# ---- create atoms
read_data /home/manuelesp/repos/pypospack/dev/MgO_iterative_sampler/rank_1/MgO_NaCl.lmps_min_all/lammps.structure
  triclinic box = (0 0 0) to (4.2565 4.2565 4.2565) with tilt (0 0 0)
  1 by 1 by 1 MPI processor grid
  reading atoms ...
  8 atoms
# ---- define interatomic potential
include potential.mod
mass 1 24.305
mass 2 15.999

group Mg type 1
4 atoms in group Mg
group O type 2
4 atoms in group O

set group Mg charge 1.6102951165102182
  4 settings made for charge
set group O charge -1.6102951165102182
  4 settings made for charge

variable R_cut equal 10.0

pair_style buck/coul/long ${R_cut}
pair_style buck/coul/long 10
pair_coeff 1 1 0.0 0.5 0.0 ${R_cut}
pair_coeff 1 1 0.0 0.5 0.0 10
pair_coeff 1 2 872.8291467350588 0.29889716378497794 0.0 ${R_cut}
pair_coeff 1 2 872.8291467350588 0.29889716378497794 0.0 10
pair_coeff 2 2 3727.0736816732065 0.3476815772257621 63.9105328410665 ${R_cut}
pair_coeff 2 2 3727.0736816732065 0.3476815772257621 63.9105328410665 10

kspace_style pppm 1.0e-5

neighbor 1.0 bin
neigh_modify every 1 delay 0 check yes
# ---- define settings
compute eng all pe/atom
compute eatoms all reduce sum c_eng
# ---- run minimization
reset_timestep 0
fix 1 all box/relax aniso 0.0 vmax 0.001
thermo 10
thermo_style custom step pe xhi xlo yhi ylo zhi xy xz yz press pxx pyy pzz pxy pxz pyz c_eatoms
min_style cg
minimize 1e-25 1e-25 5000 10000
PPPM initialization ...
  using 12-bit tables for long-range coulomb (../kspace.cpp:321)
  G vector (1/distance) = 0.352439
  grid = 8 8 8
  stencil order = 5
  estimated absolute RMS force accuracy = 3.78769e-05
  estimated relative force accuracy = 2.63041e-06
  using double precision FFTs
  3d grid and FFT values/proc = 3375 512
Neighbor list info ...
  update every 1 steps, delay 0 steps, check yes
  max neighbors/atom: 2000, page size: 100000
  master list distance cutoff = 11
  ghost atom cutoff = 11
  binsize = 5.5, bins = 1 1 1
  1 neighbor lists, perpetual/occasional/extra = 1 0 0
  (1) pair buck/coul/long, perpetual
      attributes: half, newton on
      pair build: half/bin/newton/tri
      stencil: half/bin/3d/newton/tri
      bin: standard
Per MPI rank memory allocation (min/avg/max) = 4.909 | 4.909 | 4.909 Mbytes
Step PotEng Xhi Xlo Yhi Ylo Zhi Xy Xz Yz Press Pxx Pyy Pzz Pxy Pxz Pyz c_eatoms 
       0   -92.195912       4.2565            0       4.2565            0       4.2565            0            0            0    852492.92    852492.92    852492.92    852492.92 -9.1638482e-11 -1.7359512e-10 -3.2140806e-10   -92.195912 
      10   -93.339541    4.2777825   -0.0212825    4.2777825   -0.0212825    4.2777825            0            0            0    722560.04    722560.04    722560.04    722560.04 1.6668369e-11 8.9370579e-12 -8.6901586e-11   -93.339541 
      20   -94.326473     4.299065    -0.042565     4.299065    -0.042565     4.299065            0            0            0    606943.36    606943.36    606943.36    606943.36 5.7340386e-12 -7.7266973e-11 -1.7570718e-10   -94.326473 
      30   -95.167205    4.3203475   -0.0638475    4.3203475   -0.0638475    4.3203475            0            0            0    504274.63    504274.63    504274.63    504274.63 2.0734508e-10 1.3171912e-10 1.4245558e-10   -95.167205 
      40   -95.875072      4.34163     -0.08513      4.34163     -0.08513      4.34163            0            0            0    413046.41    413046.41    413046.41    413046.41 9.918981e-11 -1.5500713e-10 -1.9418716e-10   -95.875072 
      50   -96.461085    4.3629125   -0.1064125    4.3629125   -0.1064125    4.3629125            0            0            0    332131.28    332131.28    332131.28    332131.28 1.2438698e-11 1.432413e-10 -3.8435109e-11   -96.461085 
      60    -96.93321     4.384195    -0.127695     4.384195    -0.127695     4.384195            0            0            0    260513.27    260513.27    260513.27    260513.27 2.6734457e-11 -2.3095269e-11 -2.7759712e-10    -96.93321 
      70   -97.306721    4.4054775   -0.1489775    4.4054775   -0.1489775    4.4054775            0            0            0    197071.19    197071.19    197071.19    197071.19 -1.3386623e-09 -9.0899802e-11 -2.6734805e-10   -97.306721 
      80    -97.58747      4.42676     -0.17026      4.42676     -0.17026      4.42676            0            0            0    141040.46    141040.46    141040.46    141040.46 -1.6553581e-10 1.7821943e-10 3.1904187e-10    -97.58747 
      90   -97.784183    4.4480425   -0.1915425    4.4480425   -0.1915425    4.4480425            0            0            0    91571.962    91571.962    91571.962    91571.962 1.0599766e-10 7.3591085e-10 8.1736175e-10   -97.784183 
     100    -97.90407     4.469325    -0.212825     4.469325    -0.212825     4.469325            0            0            0    48007.227    48007.227    48007.227    48007.227 -7.0552975e-10 -4.275049e-10 -4.5983698e-10    -97.90407 
     110   -97.947634    4.4851539  -0.22865386    4.4851539  -0.22865386    4.4851539            0            0            0    19059.998    19059.998    19059.998    19059.998 6.6811118e-10 7.6143626e-10 7.7465854e-10   -97.947634 
     114   -97.947807    4.4852578  -0.22875778    4.4852578  -0.22875778    4.4852578            0            0            0    18877.512    18877.512    18877.512    18877.512 -7.4531855e-11 -1.4662159e-10 -1.1600552e-10   -97.947807 
Loop time of 0.151757 on 1 procs for 114 steps with 8 atoms

61.3% CPU use with 1 MPI tasks x no OpenMP threads

Minimization stats:
  Stopping criterion = linesearch alpha is zero
  Energy initial, next-to-last, final = 
         -92.195911525      -97.947806541      -97.947806541
  Force two-norm initial, final = 71.0721 1.93032
  Force max component initial, final = 41.0335 1.11447
  Final line search alpha, max atom move = 1.71144e-09 1.90735e-09
  Iterations, force evaluations = 114 162

MPI task timing breakdown:
Section |  min time  |  avg time  |  max time  |%varavg| %total
---------------------------------------------------------------
Pair    | 0.032763   | 0.032763   | 0.032763   |   0.0 | 21.59
Kspace  | 0.038339   | 0.038339   | 0.038339   |   0.0 | 25.26
Neigh   | 8.3923e-05 | 8.3923e-05 | 8.3923e-05 |   0.0 |  0.06
Comm    | 0.0015771  | 0.0015771  | 0.0015771  |   0.0 |  1.04
Output  | 0.00021982 | 0.00021982 | 0.00021982 |   0.0 |  0.14
Modify  | 0          | 0          | 0          |   0.0 |  0.00
Other   |            | 0.07877    |            |       | 51.91

Nlocal:    8 ave 8 max 8 min
Histogram: 1 0 0 0 0 0 0 0 0 0
Nghost:    1323 ave 1323 max 1323 min
Histogram: 1 0 0 0 0 0 0 0 0 0
Neighs:    1840 ave 1840 max 1840 min
Histogram: 1 0 0 0 0 0 0 0 0 0

Total # of neighbors = 1840
Ave neighs/atom = 230
Neighbor list builds = 1
Dangerous builds = 0
# ---- define output variables ----
variable natoms equal "count(all)"
variable tot_energy equal "c_eatoms"
variable a11 equal "xhi-xlo"
variable a22 equal "yhi-ylo"
variable a33 equal "zhi-zlo"
variable tilt_xy equal "xy"
variable tilt_xz equal "xz"
variable tilt_yz equal "yz"
variable tot_press equal "press"
variable press_xx equal "pxx"
variable press_yy equal "pyy"
variable press_zz equal "pzz"
variable press_xy equal "pxy"
variable press_xz equal "pxz"
variable press_yz equal "pyz"

# ---- output ----
print "pypospack:output_section:begin"
pypospack:output_section:begin
print "tot_energy = ${tot_energy}"
tot_energy = -97.9478065409926
print "num_atoms = ${natoms}"
num_atoms = 8
print "a11 = ${a11}"
a11 = 4.71401555566408
print "a22 = ${a22}"
a22 = 4.71401555566408
print "a33 = ${a33}"
a33 = 4.71401555566408
print "a12 = ${tilt_xy}"
a12 = 0
print "a13 = ${tilt_xz}"
a13 = 0
print "a23 = ${tilt_yz}"
a23 = 0
print "tot_press = ${tot_press}"
tot_press = 18877.5117877425
print "pxx = ${press_xx}"
pxx = 18877.5117877427
print "pyy = ${press_yy}"
pyy = 18877.5117877424
print "pzz = ${press_zz}"
pzz = 18877.5117877425
print "pxy = ${press_xy}"
pxy = -7.45318554902922e-11
print "pxz = ${press_xz}"
pxz = -1.46621594216747e-10
print "pyz = ${press_yz}"
pyz = -1.16005523002293e-10
print "pypospack:output_section:done"
pypospack:output_section:done
print "pypospack:lammps_sim:done"
pypospack:lammps_sim:done
Total wall time: 0:00:00
