LAMMPS (10 Feb 2015)
# ---- initialize simulations
clear
units metal
dimension 3
boundary p p p
atom_style charge
atom_modify map array
# ---- create atoms
read_data /Users/eugeneragasa/pyflamestk_git/pypospack/tests/tests_integration/workflow/WorkflowLammpsThermalExpansion/param_2856/MgO_NaCl_unit.npt.T800/lammps.structure
  triclinic box = (0 0 0) to (4.2565 4.2565 4.2565) with tilt (0 0 0)
  1 by 1 by 1 MPI processor grid
  reading atoms ...
  8 atoms
# ---- define interatomic potential
include potential.mod
mass 1 24.305
mass 2 15.999

group Mg type 1
4 atoms in group Mg
group O type 2
4 atoms in group O

set group Mg charge 1.71287520642
  4 settings made for charge
set group O charge -1.71287520642
  4 settings made for charge

variable R_cut equal 10.0

pair_style buck/coul/long ${R_cut}
pair_style buck/coul/long 10
pair_coeff 1 1 0.0 0.5 0.0 ${R_cut}
pair_coeff 1 1 0.0 0.5 0.0 10
pair_coeff 1 2 1268.25800143 0.292150986054 0.0 ${R_cut}
pair_coeff 1 2 1268.25800143 0.292150986054 0.0 10
pair_coeff 2 2 34972.2762623 0.190168709461 15.9037418312 ${R_cut}
pair_coeff 2 2 34972.2762623 0.190168709461 15.9037418312 10

kspace_style pppm 1.0e-5

neighbor 1.0 bin
neigh_modify every 1 delay 0 check yes
# ---- define settings
compute eng all pe/atom
compute eatoms all reduce sum c_eng
# ---- run minimization
reset_timestep 0
fix 1 all box/relax iso 0.0 vmax 0.001
thermo 10
thermo_style custom step pe lx ly lz xy xz yz press pxx pyy pzz pxy pxz pyz c_eatoms
min_style cg
minimize 1e-25 1e-25 5000 10000
PPPM initialization ...
  G vector (1/distance) = 0.353245
  grid = 8 8 8
  stencil order = 5
  estimated absolute RMS force accuracy = 4.15075e-05
  estimated relative force accuracy = 2.88254e-06
  using double precision FFTs
  3d grid and FFT values/proc = 3375 512
Neighbor list info ...
  1 neighbor list requests
  update every 1 steps, delay 0 steps, check yes
  master list distance cutoff = 11
Memory usage per processor = 4.06549 Mbytes
Step PotEng Lx Ly Lz Xy Xz Yz Press Pxx Pyy Pzz Pxy Pxz Pyz eatoms 
       0    -118.2398       4.2565       4.2565       4.2565            0            0            0    92099.563    92099.563    92099.563    92099.563 -2.6648665e-10 1.3518399e-10 2.2028947e-10    -118.2398 
      10   -118.33067     4.299065     4.299065     4.299065            0            0            0    34673.493    34673.493    34673.493    34673.493 -1.1760899e-11 -1.3745134e-10 -5.0678772e-11   -118.33067 
      18   -118.34767    4.3277342    4.3277342    4.3277342            0            0            0    -4.391814    -4.391814    -4.391814    -4.391814 -1.1240186e-10 -1.6034703e-10 -8.891662e-11   -118.34767 
Loop time of 0.013896 on 1 procs for 18 steps with 8 atoms

Minimization stats:
  Stopping criterion = linesearch alpha is zero
  Energy initial, next-to-last, final = 
        -118.239795936     -118.347671294     -118.347671294
  Force two-norm initial, final = 13.2992 0.00175014
  Force max component initial, final = 13.2992 0.000655584
  Final line search alpha, max atom move = 0.00390625 2.56088e-06
  Iterations, force evaluations = 18 35

Pair  time (%) = 0.00370431 (26.6574)
Kspce time (%) = 0.00243306 (17.5091)
Neigh time (%) = 0 (0)
Comm  time (%) = 0.000493526 (3.55158)
Outpt time (%) = 2.19345e-05 (0.157848)
Other time (%) = 0.00724316 (52.1241)

Nlocal:    8 ave 8 max 8 min
Histogram: 1 0 0 0 0 0 0 0 0 0
Nghost:    2189 ave 2189 max 2189 min
Histogram: 1 0 0 0 0 0 0 0 0 0
Neighs:    2344 ave 2344 max 2344 min
Histogram: 1 0 0 0 0 0 0 0 0 0

Total # of neighbors = 2344
Ave neighs/atom = 293
Neighbor list builds = 0
Dangerous builds = 0
unfix 1
# ---- define output variables ----
variable natoms equal "count(all)"
variable tot_energy equal "c_eatoms"
variable length_x equal "lx"
variable length_y equal "ly"
variable length_z equal "lz"
variable tilt_xy equal "xy"
variable tilt_xz equal "xz"
variable tilt_yz equal "yz"
variable tot_press equal "press"
variable press_xx equal "pxx"
variable press_yy equal "pyy"
variable press_zz equal "pzz"
variable press_xy equal "pxy"
variable press_xz equal "pxz"
variable press_yz equal "pyz"

# ---- output ----
print "pypospack:output_section:begin"
pypospack:output_section:begin
print "tot_energy = ${tot_energy}"
tot_energy = -118.347671293792
print "num_atoms = ${natoms}"
num_atoms = 8
print "xx = ${length_x}"
xx = 4.32773421076983
print "yy = ${length_y}"
yy = 4.32773421076983
print "zz = ${length_z}"
zz = 4.32773421076983
print "xy = ${tilt_xy}"
xy = 0
print "xz = ${tilt_xz}"
xz = 0
print "yz = ${tilt_yz}"
yz = 0
print "tot_press = ${tot_press}"
tot_press = -4.39181402043263
print "pxx = ${press_xx}"
pxx = -4.39181402021402
print "pyy = ${press_yy}"
pyy = -4.39181402042068
print "pzz = ${press_zz}"
pzz = -4.39181402066319
print "pxy = ${press_xy}"
pxy = -1.12401857084108e-10
print "pxz = ${press_xz}"
pxz = -1.60347032595802e-10
print "pyz = ${press_yz}"
pyz = -8.89166196817966e-11
print "pypospack:output_section:done"
pypospack:output_section:done
print "pypospack:lammps_sim:done"
pypospack:lammps_sim:done
#------------------------------------------------------------------------------
# RUN THERMOSTAT
# running using an NPT Nose-Hoover style thermostat
#------------------------------------------------------------------------------
variable tempdamp equal 0.1
variable pressdamp equal 1.0
# set initial velocities
velocity all create 800 9444740 mom yes dist gaussian loop all
# fix for Nose-Hoover style thermostat
fix 20 all npt temp 800 800 0.1 aniso 0.0 0.0 1.0 drag 1.0 couple xyz
variable boxx equal lx
variable boxy equal ly
variable boxz equal lz
variable boxp equal press
variable boxt equal temp
# calculate averages every 10000 steps
reset_timestep 0
fix 21 all ave/time 10 10 100 v_boxx v_boxy v_boxz v_boxp v_boxt file lattice.out
thermo_style custom step temp pe ke etotal press lx ly lz press pxx pyy pzz pxy pxz pyz vol
thermo_modify flush yes
thermo 100
run 100000
PPPM initialization ...
  G vector (1/distance) = 0.352508
  grid = 8 8 8
  stencil order = 5
  estimated absolute RMS force accuracy = 4.29555e-05
  estimated relative force accuracy = 2.9831e-06
  using double precision FFTs
  3d grid and FFT values/proc = 3375 512
Memory usage per processor = 3.06549 Mbytes
Step Temp PotEng KinEng TotEng Press Lx Ly Lz Press Pxx Pyy Pzz Pxy Pxz Pyz Volume 
       0          800   -118.34768   0.72385681   -117.62383    9532.3284    4.3277342    4.3277342    4.3277342    9532.3284    8644.6828    5754.7185    14197.584   -3187.1181   -677.13919    6732.8154    81.055361 
     100    369.85206   -117.85942   0.33464992   -117.52477   -6948.3363     4.365466     4.365466     4.365466   -6948.3363    7960.8918   -26650.696   -2155.2046    -803.5133   -910.87933   -3707.9007    83.193966 
     200    718.55576   -117.98735   0.65016435   -117.33719   -21326.699    4.3718406    4.3718406    4.3718406   -21326.699   -11218.895   -26877.453    -25883.75    329.01331   -3846.8126     462.3923    83.558946 
     300    895.27272   -117.96057   0.81006157   -117.15051    11280.063      4.35408      4.35408      4.35408    11280.063     21028.05   -8524.0979    21336.238     826.5799    133.99108    3089.8659    82.544704 
     400    549.25733   -117.52461   0.49697958   -117.02763    3420.6164    4.3865319    4.3865319    4.3865319    3420.6164    2779.2395    28268.138   -20785.529     3241.165    5715.4183   -15627.078    84.404165 
     500    880.52479   -117.72597   0.79671733   -116.92925   -15864.906    4.3816564    4.3816564    4.3816564   -15864.906   -25136.954    5105.2274   -27562.992    1998.4261    4730.5915   -931.47614     84.12304 
     600    525.60103    -117.3531   0.47557486   -116.87752    42833.338    4.3572878    4.3572878    4.3572878    42833.338    37431.882    61528.341    29539.791    3147.6108    648.75769    -13346.21    82.727277 
     700    565.44264   -117.39697   0.51162438   -116.88534   -262.49606    4.3969273    4.3969273    4.3969273   -262.49606   -42741.806    3714.4437    38239.875    2090.3418    -2674.021   -22955.024    85.005663 
     800    841.39618   -117.63778   0.76131294   -116.87646   -5703.7329    4.3799663    4.3799663    4.3799663   -5703.7329   -35122.043    11636.146    6374.6983   -40.019945   -4320.5934   -3165.5694    84.025733 
     900    289.26752   -117.12456   0.26173533   -116.86282    64840.265     4.348294     4.348294     4.348294    64840.265     59199.67    83909.598    51411.527    3838.3657    3687.9487   -26666.844    82.216068 
    1000      650.471   -117.48052   0.58855983   -116.89196    -21073.79    4.4055252    4.4055252    4.4055252    -21073.79   -44412.954   -3326.8006   -15481.614    2459.8443    4405.9395    -16365.67    85.505308 
    1100    774.04946   -117.58766   0.70037622   -116.88729   -18348.938    4.3813081    4.3813081    4.3813081   -18348.938   -45962.483   -6510.6517    -2573.678    509.26061   -4744.8655   -2930.1339    84.102977 
    1200     540.6715   -117.34358   0.48921094   -116.85437     65673.02    4.3235087    4.3235087    4.3235087     65673.02    45183.431    49307.932    102527.69   -1491.3332   -881.87615   -12466.432    80.818169 
    1300    938.03088   -117.76127   0.84875006   -116.91252   -58479.787    4.4049906    4.4049906    4.4049906   -58479.787   -54137.852   -75411.228    -45890.28   -2383.1018   -3226.1195    5764.4195    85.474184 
    1400    608.23154   -117.44469   0.55034068   -116.89434     -38760.6    4.3869572    4.3869572    4.3869572     -38760.6   -49034.855   -53962.805   -13284.139   -1640.3728   -3948.4357   -11589.219     84.42872 
    1500    1072.6605   -117.80038   0.97056573   -116.82982    59224.194     4.303725     4.303725     4.303725    59224.194    43296.261    82937.076    51439.246   -774.86594   -5078.8935    12328.644    79.713804 
    1600    1036.2795   -117.83343   0.93764743   -116.89579   -41397.123    4.3947931    4.3947931    4.3947931   -41397.123   -56270.409   -59490.713   -8430.2473    2687.5694   -842.32708    -4847.916    84.881944 
    1700    469.21505   -117.31797   0.42455563   -116.89341    -22702.49    4.3861977    4.3861977    4.3861977    -22702.49   -37499.797   -34274.213    3666.5392   -1992.7994    -8138.775   -13891.223    84.384872 
    1800    696.31279   -117.48134   0.63003845    -116.8513    47680.443     4.320608     4.320608     4.320608    47680.443    19676.468    39749.307    83615.555   -2892.8502     -6678.41   -23961.289    80.655611 
    1900    939.51027    -117.7393   0.85008864   -116.88921   -18855.494     4.384126     4.384126     4.384126   -18855.494    -43022.25   -2980.5701   -10563.664   -2193.7416    1814.0236    7078.3097    84.265359 
    2000    950.20574   -117.74659   0.85976612   -116.88683   -25254.376    4.3801994    4.3801994    4.3801994   -25254.376   -41223.893   -5704.3143   -28834.922   -18.868959   -4502.2564   -3709.0739    84.039149 
    2100    561.98055   -117.39373   0.50849181   -116.88524     30593.47    4.3354329    4.3354329    4.3354329     30593.47    2262.2165    16184.978    73333.216   -1652.7324   -9340.6545    7466.5476    81.488702 
    2200    499.58348   -117.36678   0.45203363   -116.91474    5658.8091    4.3811155    4.3811155    4.3811155    5658.8091   -45261.199    2261.7806    59975.846   -3898.5785   -1809.4126    8354.2333    84.091889 
    2300    843.37881   -117.65906   0.76310687   -116.89596   -6744.6351    4.3820288    4.3820288    4.3820288   -6744.6351   -39184.428   -2227.1535    21177.676    1311.7929    2036.4597    12607.624    84.144491 
    2400     973.2985   -117.75564   0.88066094   -116.87498    22319.504    4.3419471    4.3419471    4.3419471    22319.504    6253.2344    38424.276    22281.003    2236.1902   -6498.2958   -8021.8996     81.85658 
    2500    933.54515   -117.73853   0.84469127   -116.89384   -31564.548    4.3851344    4.3851344    4.3851344   -31564.548   -47040.279   -15318.723   -32334.643     3381.419   -4493.6243   -16366.665    84.323517 
    2600    1043.8986   -117.83041   0.94454135   -116.88587   -12986.971     4.373527     4.373527     4.373527   -12986.971   -27419.872   -16024.995    4483.9552    182.53763   -239.53094   -10718.098    83.655678 
    2700     847.3589   -117.64563   0.76670814   -116.87893    30360.036    4.3502382    4.3502382    4.3502382    30360.036    5211.5506    2341.0882     83527.47   -1553.1546    2191.5952   -3355.4975    82.326399 
    2800    758.88965   -117.57783    0.6866593   -116.89117   -15248.861    4.3895042    4.3895042    4.3895042   -15248.861   -40114.039   -21202.244    15569.701    1229.8371   -6347.2221    3522.3853    84.575857 
    2900    844.17784    -117.6561   0.76382985   -116.89227    -14011.57    4.3654905    4.3654905    4.3654905    -14011.57   -20017.265   -22257.597    240.15305   -2063.6032    5643.4118    7981.4693    83.195367 
    3000    805.35775   -117.61054   0.72870461   -116.88184    30930.766     4.334134     4.334134     4.334134    30930.766    10033.733    66532.887    16225.678   -510.28587    3681.0155    19230.856    81.415482 
    3100    892.20873   -117.70643   0.80728921   -116.89914   -27738.478    4.3901727    4.3901727    4.3901727   -27738.478   -50583.855   -12981.012   -19650.567   -3354.7693   -5244.5732   -9377.9405    84.614503 
    3200    703.04613   -117.54199   0.63613091   -116.90586   -9277.9673    4.3621078    4.3621078    4.3621078   -9277.9673   -15451.905   -199.67227   -12182.325    1583.4046   -15.104106   -35040.023     83.00212 
    3300    557.68819   -117.38135   0.50460799   -116.87674    40244.461     4.324647     4.324647     4.324647    40244.461    22391.383    21742.339    76599.661    2947.0946    12431.265    1434.4805    80.882023 
    3400    822.39314   -117.63046   0.74411859   -116.88634   -41339.465    4.3900605    4.3900605    4.3900605   -41339.465   -46264.919   -60052.284   -17701.191   -492.65878    954.18634    16371.448    84.608015 
    3500    886.43149   -117.69342   0.80206184   -116.89136    2783.6551    4.3514643    4.3514643    4.3514643    2783.6551   -5532.3036   -1728.1875    15611.456    3043.3462   -4817.4592   -11793.816     82.39603 
    3600      874.552   -117.67029   0.79131303   -116.87898    11224.848    4.3299395    4.3299395    4.3299395    11224.848    17934.221    14765.823    974.49959   -4654.4549    12293.458   -9000.6707    81.179334 
    3700    583.23339   -117.41355   0.52772183   -116.88583   -35977.538    4.3893447    4.3893447    4.3893447   -35977.538   -44823.943   -43948.243   -19160.428   -1873.5463    1110.8793     17344.34    84.566637 
    3800     832.1081   -117.64058    0.7529089   -116.88767    6248.2247    4.3526598    4.3526598    4.3526598    6248.2247   -8436.9395   -18963.713    46145.327    1065.5906    605.62272    6158.9637     82.46396 
    3900    713.57481   -117.52603   0.64565748   -116.88038    45941.282    4.3298442    4.3298442    4.3298442    45941.282    16124.564    48612.243    73087.039    583.63749   -598.75856    -25608.62    81.173974 
    4000    728.45106   -117.55116   0.65911783   -116.89204   -41687.264    4.3860976    4.3860976    4.3860976   -41687.264   -40948.161   -49688.763   -34424.868   -2451.9826     6998.923    4340.0147    84.379095 
    4100     740.7591   -117.56132    0.6702544   -116.89107   -3238.5452    4.3556406    4.3556406    4.3556406   -3238.5452   -9920.6537    7600.2719   -7395.2538   -475.65536    3825.6133    24727.822    82.633491 
    4200    1009.9856   -117.79422   0.91385618   -116.88036    30392.801    4.3330055    4.3330055    4.3330055    30392.801    19181.032    11733.955    60263.416    1089.2523    -9174.417   -7853.5938    81.351906 
    4300     583.6918   -117.41862   0.52813661   -116.89048   -10926.065    4.3806724    4.3806724    4.3806724   -10926.065   -24865.769   -28592.868    20680.441   -4156.4602   -2528.5054   -8910.3246    84.066375 
    4400    492.26244   -117.33672    0.4454094   -116.89132    727.71883    4.3586191    4.3586191    4.3586191    727.71883    2849.4161   -3992.9062    3326.6465   -742.71625    3875.3382     20311.58     82.80313 
    4500    891.28823   -117.68814   0.80645632   -116.88169    18638.104    4.3389705    4.3389705    4.3389705    18638.104    7121.6582    17856.097    30936.555    3513.0846   -6694.7141    5807.5347    81.688346 
    4600    1040.9286   -117.82678    0.9418541   -116.88492   -19071.381    4.3701435    4.3701435    4.3701435   -19071.381   -9423.0026   -25617.196   -22173.943   -730.48907   -2177.5956   -13275.313    83.461674 
    4700    569.07132   -117.40475   0.51490769   -116.88984    8508.6481    4.3544078    4.3544078    4.3544078    8508.6481    21995.135    11378.067   -7847.2578   -8440.3162    11559.098    12033.654     82.56335 
    4800    682.49268   -117.50775   0.61753372   -116.89021    1660.9854    4.3560426    4.3560426    4.3560426    1660.9854   -2734.6293   -24195.133    31912.718    480.71767    -3099.393    18369.888    82.656376 
    4900     877.2341   -117.68192   0.79373985   -116.88818    1580.6757    4.3575439    4.3575439    4.3575439    1580.6757    -18910.78     8448.366    15204.441   -2526.7799   -5356.9584   -3283.7414    82.741868 
    5000    846.27981   -117.65396   0.76573175   -116.88823    28469.221    4.3405221    4.3405221    4.3405221    28469.221    29357.993    11629.404    44420.265    -3715.148    766.68325    4069.8834    81.776012 
    5100    731.09638   -117.55556   0.66151136   -116.89405   -37874.038     4.378745     4.378745     4.378745   -37874.038   -26609.789   -41757.431   -45254.893    2610.9304    3674.2911    32506.581    83.955466 
    5200    809.10567   -117.62717   0.73209582   -116.89508   -104.73537    4.3463825    4.3463825    4.3463825   -104.73537   -9360.3549     6183.203    2862.9458    941.13753   -3019.0446    4310.6396    82.107687 
    5300    1002.4587    -117.7949   0.90704566   -116.88786    29229.667    4.3316356    4.3316356    4.3316356    29229.667     12415.32    33553.415    41720.267    4446.0814   -16588.273   -10014.603    81.274766 
    5400     888.3608   -117.68899   0.80380752   -116.88518   -30962.737    4.3786192    4.3786192    4.3786192   -30962.737   -27114.005   -53115.045    -12659.16   -4894.9742     3464.254    26704.576    83.948228 
    5500    651.21692   -117.47794   0.58923476    -116.8887    22133.932    4.3407262    4.3407262    4.3407262    22133.932    6433.0032    692.04632    59276.746    3302.9956   -5856.6373    9746.0513    81.787549 
    5600    947.85296   -117.74915   0.85763728   -116.89151    3208.7919    4.3445618    4.3445618    4.3445618    3208.7919    -11342.18    7371.1162     13597.44    8641.1835   -13898.689   -6136.5686    82.004548 
    5700    845.73825   -117.65011   0.76524174   -116.88487   -20270.255    4.3714413    4.3714413    4.3714413   -20270.255   -26029.864   -28415.198   -6365.7032   -8541.8763     173.2038    3409.8105    83.536055 
    5800    1138.2887   -117.91141    1.0299475   -116.88147   -1352.0975     4.342026     4.342026     4.342026   -1352.0975   -1266.7978   -16112.249    13322.754   -1481.5963    4856.4209    17388.895    81.861041 
    5900    642.28552   -117.47261   0.58115343   -116.89145    7022.3666    4.3491549    4.3491549    4.3491549    7022.3666   -10140.405    8804.0036    22403.501    5135.8178   -16958.385   -3473.0982    82.264909 
    6000    685.44772   -117.51385    0.6202075   -116.89364   -15352.735    4.3685097    4.3685097    4.3685097   -15352.735   -41577.252   -25851.821     21370.87   -6216.5668   -7829.3693   -9920.4476    83.368102 
    6100    964.19451   -117.76031   0.87242345   -116.88789    5783.9806    4.3524266    4.3524266    4.3524266    5783.9806   -6656.0408    2597.6867    21410.296    1665.6679    7030.9677    8124.6674    82.450703 
    6200    991.18928   -117.78433   0.89684889   -116.88749    13525.913    4.3392391    4.3392391    4.3392391    13525.913     932.1293    13188.646    26456.962    152.19486    -13240.66    7400.0856    81.703514 
    6300    617.36193   -117.45771   0.55860205   -116.89911   -19754.691    4.3653693    4.3653693    4.3653693   -19754.691   -37840.819   -9044.9738    -12378.28   -2290.2852   -14617.138   -14573.112     83.18844 
    6400    647.67383   -117.48295   0.58602889   -116.89692   -3350.1944    4.3585418    4.3585418    4.3585418   -3350.1944   -35710.322     11893.35    13766.389    4345.4938    7572.8031   -1332.5504    82.798726 
    6500    1117.5656   -117.89779    1.0111968   -116.88659    30032.992     4.330944     4.330944     4.330944    30032.992    15581.237    19992.194    54525.546    526.66093    7038.6356    7941.5679    81.235846 
    6600    758.58918   -117.59088   0.68638743   -116.90449    -16071.57    4.3660083    4.3660083    4.3660083    -16071.57   -37495.629    7132.2028   -17851.283    831.86089   -27250.818   -580.78991    83.224977 
    6700    506.62036   -117.35038   0.45840075   -116.89198   -21468.556    4.3684677    4.3684677    4.3684677   -21468.556   -48576.286    11257.042   -27086.424    1797.8593    401.03342   -10029.366    83.365698 
    6800    1121.1963   -117.88704    1.0144819   -116.87256    16391.457    4.3315284    4.3315284    4.3315284    16391.457    6541.4362    11951.913    30681.022   -1187.5066    15080.002   -11422.216    81.268737 
    6900    847.12301   -117.65521    0.7664947   -116.88871    6014.7563    4.3540891    4.3540891    4.3540891    6014.7563   -22330.392    28860.467    11514.193    2199.2629   -15170.044    4202.7074    82.545223 
    7000    669.67118   -117.49581   0.60593255   -116.88988    -18665.46    4.3671944    4.3671944    4.3671944    -18665.46    -37746.68   -22915.728    4666.0265   -578.53865   -7861.4041   -8763.9071     83.29282 
    7100    625.18495   -117.45288   0.56568048    -116.8872    9608.3543    4.3462836    4.3462836    4.3462836    9608.3543   -13768.213    1209.7414    41383.534     1604.336    16808.811   -8418.6488    82.102086 
    7200    1069.2205   -117.85196   0.96745318   -116.88451    -1879.001    4.3494265    4.3494265    4.3494265    -1879.001   -18620.491    3226.1923     9757.296   -3152.4397    1612.2625    10106.665    82.280321 
    7300    777.97531   -117.59284   0.70392841   -116.88891   -19999.844    4.3684263    4.3684263    4.3684263   -19999.844   -45283.825   -19992.627    5276.9195    -3288.707   -15781.266    3188.1568    83.363329 
    7400    652.17444   -117.47894   0.59010114   -116.88884   -9931.4697    4.3525362    4.3525362    4.3525362   -9931.4697   -23892.778   -472.66641   -5428.9646    953.19782    20577.395   -11339.032    82.456933 
    7500    878.30453   -117.67762   0.79470839   -116.88292    17315.466     4.337172     4.337172     4.337172    17315.466   -1322.8309    11063.533    42205.698   -808.97408    7053.0275    209.87038    81.586805 
    7600    666.42465   -117.49137   0.60299503   -116.88838   -22280.835    4.3754247    4.3754247    4.3754247   -22280.835   -46201.984   -12506.052   -8134.4693   -1357.2663   -12237.098    5526.2032    83.764625 
    7700    583.09569   -117.41721   0.52759723   -116.88961   -13236.837    4.3547584    4.3547584    4.3547584   -13236.837   -39052.218    18843.207   -19501.499    2217.0088    14310.329   -7705.8427    82.583292 
    7800     699.2344   -117.51141   0.63268198   -116.87873    37284.701      4.33119      4.33119      4.33119    37284.701    3187.5735     62328.97    46337.558   -1769.2424    12271.941   -8950.5531    81.249689 
    7900    787.42293   -117.59412   0.71247682   -116.88164   -27243.817    4.3755941    4.3755941    4.3755941   -27243.817   -31325.931   -11057.162   -39348.359   -783.35024   -10804.159    12027.597    83.774354 
    8000     398.2237   -117.24891   0.36032117   -116.88859   -3162.8418    4.3514655    4.3514655    4.3514655   -3162.8418   -23914.116    33985.795   -19560.204    1800.5682    9236.4328     8004.448    82.396097 
    8100    883.74235   -117.68019   0.79962865   -116.88056    14577.705    4.3358578    4.3358578    4.3358578    14577.705   -11092.557    44701.859    10123.814    -57.00046    20776.446   -9134.0798    81.512666 
    8200    941.89889   -117.73249   0.85224991   -116.88024   -13373.898    4.3701843    4.3701843    4.3701843   -13373.898   -19307.988   -16749.111   -4064.5956   -5487.2817   -11899.917     11476.99    83.464013 
    8300    549.70838    -117.3835    0.4973877   -116.88611    2878.5857    4.3479331    4.3479331    4.3479331    2878.5857    2277.8587    1296.2183    5061.6801   -309.76441    9610.9709     14724.38      82.1956 
    8400    751.50739   -117.56564   0.67997968   -116.88566   -866.64784    4.3507535    4.3507535    4.3507535   -866.64784   -21451.356    4197.4315    14653.981    3755.4786    15895.564    2318.6192    82.355655 
    8500    1163.2933   -117.92984    1.0525722   -116.87727   -9423.2747    4.3627033    4.3627033    4.3627033   -9423.2747   -12846.929   -4678.4278   -10744.467   -9662.2761   -2981.1527     9.253802     83.03612 
    8600    744.95954   -117.55709   0.67405504   -116.88304    10151.224    4.3426772    4.3426772    4.3426772    10151.224   -5371.4794   -5406.6518    41231.802    -4525.558    5753.2075    7501.6012    81.897877 
    8700    511.13515   -117.35971   0.46248583   -116.89723   -17482.006    4.3588076    4.3588076    4.3588076   -17482.006   -29667.679     17275.66       -40054    4821.6896    15417.009    6827.1714    82.813874 
    8800    1017.0676   -117.80669   0.92026411   -116.88642    4305.5398    4.3490994    4.3490994    4.3490994    4305.5398   -1696.9783    13726.908    886.68966   -1615.8678     7005.457   -7371.5644    82.261761 
    8900    894.92492   -117.69842   0.80974688   -116.88867     5284.289    4.3445074    4.3445074    4.3445074     5284.289    -3189.162    5101.0426    13940.986   -8162.2098   -2391.1903   -4410.4912    82.001467 
    9000    446.55411   -117.29816   0.40405154   -116.89411   -25363.068    4.3641787    4.3641787    4.3641787   -25363.068   -37104.855   -3504.7347   -35479.614   -3535.9666    24196.772    12934.245    83.120391 
    9100    896.67059   -117.69748   0.81132639   -116.88615    9473.0643    4.3367159    4.3367159    4.3367159    9473.0643    12874.021    12366.484    3178.6877    3893.0861    14716.269    10031.536    81.561068 
    9200    905.79452    -117.7119   0.81958191   -116.89231   -1163.0204    4.3535076    4.3535076    4.3535076   -1163.0204   -5906.0099   -11092.104    13509.053   -11985.771   -10628.496   -14783.453    82.512154 
    9300    619.47437   -117.44987   0.56051343   -116.88936    -20380.59    4.3622751    4.3622751    4.3622751    -20380.59   -26733.162   -13543.938    -20864.67   -4668.8915    22418.541    4284.2762     83.01167 
    9400    785.27063   -117.59197   0.71052937   -116.88144    16634.093    4.3335136    4.3335136    4.3335136    16634.093    25830.723    7195.6728    16875.885    8278.3498    16458.442    11080.093    81.380528 
    9500    873.66101   -117.67722   0.79050684   -116.88671   -8090.3479    4.3583926    4.3583926    4.3583926   -8090.3479   -779.04933   -28548.319    5056.3241   -16436.192   -5560.9617   -10090.921    82.790222 
    9600    864.00192   -117.66842   0.78176709   -116.88665    103.49203    4.3486326    4.3486326    4.3486326    103.49203    9229.5594   -10634.459    1715.3761   -4703.1014    11102.945   -9880.0464    82.235277 
    9700    630.68606   -117.46044   0.57065801   -116.88978    11681.733     4.344674     4.344674     4.344674    11681.733    25922.545    3633.5271    5489.1255   -4809.5698    17487.964    15632.993      82.0109 
    9800    811.25073   -117.62011   0.73403671   -116.88608   -17575.979     4.361737     4.361737     4.361737   -17575.979   -5485.9155   -28114.176   -19127.844    947.59736    6591.8069    3268.5603    82.980952 
    9900    986.77587   -117.77431   0.89285555   -116.88145    19043.811    4.3333567    4.3333567    4.3333567    19043.811     36282.73    -4439.879    25288.582    1969.7488   -7159.2074   -19682.922    81.371689 
   10000    646.12909    -117.4819   0.58463118   -116.89727    -5474.624    4.3564826    4.3564826    4.3564826    -5474.624    65.843328    4872.2333   -21361.949     -6749.15    21655.779    6033.3538    82.681424 
   10100    658.72574    -117.4885   0.59602889   -116.89247   -21524.438    4.3593669    4.3593669    4.3593669   -21524.438   -23301.393   -18020.249   -23251.672    11091.879    21676.161    12714.073    82.845754 
   10200    954.60776   -117.74215   0.86374916    -116.8784    25498.855    4.3273576    4.3273576    4.3273576    25498.855    45861.045     9786.259    20849.261   -1229.6611   -14385.166   -10127.496      81.0342 
   10300    833.99432   -117.64355   0.75461559   -116.88894   -16300.322       4.3612       4.3612       4.3612   -16300.322   -23707.442   -1459.7602   -23733.763   -3720.5454    20430.614   -6519.9834    82.950312 
   10400    611.41266   -117.44381   0.55321903   -116.89059   -7455.1125     4.351797     4.351797     4.351797   -7455.1125    1893.9168    -2612.266   -21646.988    5862.6361    22252.784    9503.6247    82.414927 
   10500    774.53881   -117.58509   0.70081899   -116.88428    15588.393    4.3373009    4.3373009    4.3373009    15588.393    23145.284    17009.733    6610.1618    4578.9845   -5868.7317   -1879.0347    81.594084 
   10600    977.07494   -117.76716   0.88407793   -116.88309   -15260.205    4.3606401    4.3606401    4.3606401   -15260.205   -6649.4823   -14216.988   -24914.144    1245.7578    5965.5154   -9158.3353    82.918365 
   10700    707.31314   -117.52687   0.63999179   -116.88688    6009.0681    4.3439657    4.3439657    4.3439657    6009.0681    5935.2644     17668.34      -5576.4   -6359.5046     26185.66    5531.3916    81.970799 
   10800    685.09997   -117.50946   0.61989285   -116.88956     5907.937     4.347286     4.347286     4.347286     5907.937    11163.457    10318.063   -3757.7084    6276.7867    4246.3596    11645.278    82.158905 
   10900     1017.805   -117.80622   0.92093135   -116.88529   -11512.342    4.3551657    4.3551657    4.3551657   -11512.342   -4429.3832   -19684.003   -10423.641    9055.4444   -11928.255   -974.92109     82.60647 
   11000    733.67509   -117.55038   0.66384464   -116.88654    10709.597    4.3431668    4.3431668    4.3431668    10709.597    2617.0692    23172.109    6339.6126   -3646.6923    31120.741   -3457.7295    81.925583 
   11100    820.85425   -117.63073   0.74272617   -116.88801   -9091.6521    4.3574582    4.3574582    4.3574582   -9091.6521    -20576.18   -6582.7068   -116.06898    1600.2133    15355.124    9874.8496    82.736987 
   11200    958.85349   -117.74886   0.86759079   -116.88127    2698.2396    4.3513973    4.3513973    4.3513973    2698.2396    15980.099   -15689.765    7804.3847    8874.3157   -14572.939     3076.954    82.392222 
   11300    692.01141   -117.50965   0.62614647    -116.8835   -617.02799    4.3460361    4.3460361    4.3460361   -617.02799   -20927.514    11439.137    7637.2924    5533.4085    28287.799   -4414.9024     82.08806 
   11400    776.01859   -117.58814   0.70215793   -116.88598   -9181.4414    4.3527919    4.3527919    4.3527919   -9181.4414   -13403.432    3245.1611   -17386.053   -2567.5096    30610.534    -1372.602    82.471463 
   11500     1144.399   -117.91672    1.0354763   -116.88125    5623.5974    4.3472869    4.3472869    4.3472869    5623.5974    11752.764   -16466.953     21584.98     567.7096   -12193.459    260.95331    82.158953 
   11600    630.39837   -117.46075   0.57039769   -116.89035   -12942.637    4.3529964    4.3529964    4.3529964   -12942.637   -21462.485    -2121.803   -15243.621    6625.8424    22779.034     2005.622    82.483088 
   11700    580.77932    -117.4198   0.52550133    -116.8943   -11650.765    4.3469001    4.3469001    4.3469001   -11650.765   -25512.197    12902.902   -22343.002    2111.0302    37506.574   -5076.1328    82.137028 
   11800    1172.5776   -117.94637    1.0609729    -116.8854   -456.10797    4.3540242    4.3540242    4.3540242   -456.10797    8888.0457    -12259.91    2003.5401   -439.29363   -7748.4781    2720.6749    82.541532 
   11900    809.29427   -117.61787   0.73226646   -116.88561    -15816.92    4.3584633    4.3584633    4.3584633    -15816.92   -29799.946   -18435.526    784.71261    4726.4635    16185.795    2647.2481    82.794249 
   12000    336.77287   -117.19338   0.30471917   -116.88866    455.49695    4.3397714    4.3397714    4.3397714    455.49695   -4874.2665    22811.833   -16571.076    4214.4182    41343.095   -7086.9238    81.733588 
   12100    1056.1682    -117.8427   0.95564315   -116.88706   -5006.4015     4.354195     4.354195     4.354195   -5006.4015   -5076.0111   -6294.7281   -3648.4654   -1679.5454   -2627.4633    2761.7401    82.551243 
   12200    999.31956   -117.78847   0.90420534   -116.88426   -1471.0056    4.3557304    4.3557304    4.3557304   -1471.0056    4689.1318   -9800.7952    698.64654    280.31023    2304.2278    3853.6309    82.638607 
   12300    496.99449   -117.33892   0.44969105   -116.88923    1607.7407    4.3411574    4.3411574    4.3411574    1607.7407   -947.79538    17954.884   -12183.866    4403.0357    41942.933    3249.3472    81.811923 
   12400    830.79994   -117.64203   0.75172524    -116.8903   -8998.7473    4.3553112    4.3553112    4.3553112   -8998.7473   -8102.7643   -3009.6366   -15883.841    3344.6264    5532.9027   -233.64492    82.614746 
   12500    1108.5051   -117.88308    1.0029987   -116.88008    2049.4246    4.3520756    4.3520756    4.3520756    2049.4246    26306.046   -6922.9644   -13234.807    -4679.197   -9219.9232    312.14192    82.430756 
   12600    638.41489   -117.46264   0.57765121   -116.88499   -12027.271    4.3521874    4.3521874    4.3521874   -12027.271   -7919.4709    4364.6107   -32526.951    2365.6699    44678.527    3499.9088    82.437113 
   12700    657.96896   -117.48249   0.59534414   -116.88715   -1354.5475    4.3477029    4.3477029    4.3477029   -1354.5475   -2015.1325    1599.0873   -3647.5972    8192.3622    16115.674   -633.84808    82.182544 
   12800    1198.5444   -117.96772    1.0844682   -116.88325    -1136.756    4.3461177    4.3461177    4.3461177    -1136.756    15290.233   -11540.508   -7159.9925    725.19733   -12525.389     185.9767    82.092685 
   12900    650.85559   -117.48122   0.58890782   -116.89231   -11505.726     4.357682     4.357682     4.357682   -11505.726   -2049.9492   -1673.5185   -30793.709   -6580.5644    32356.699     1960.789    82.749731 
   13000    816.46178   -117.62801   0.73875177   -116.88925    7667.2827    4.3403837    4.3403837    4.3403837    7667.2827    19599.035    5279.5736   -1876.7606     7538.701    21156.853    672.03739    81.768188 
   13100    919.50978   -117.72015   0.83199177   -116.88816   -5721.3768    4.3599237    4.3599237    4.3599237   -5721.3768    20513.207   -28048.857   -9628.4806      11493.5   -9757.0293    1458.9982    82.877503 
   13200      856.089   -117.65968   0.77460732   -116.88507   -4568.5102    4.3517795    4.3517795    4.3517795   -4568.5102    7379.9526    787.04167   -21872.525   -3195.4104    19232.952    1745.2699    82.413936 
   13300    885.35939   -117.68279   0.80109178    -116.8817    11950.653      4.33707      4.33707      4.33707    11950.653     21111.06    19155.851   -4414.9529    2763.4917    29623.399    1299.3417    81.581053 
   13400    883.03882    -117.6829   0.79899208   -116.88391   -15973.935     4.362651     4.362651     4.362651   -15973.935   -8820.2855   -28502.739   -10598.781    17854.164   -8827.9605   -105.50366     83.03313 
   13500    752.63085   -117.56438   0.68099621   -116.88338    2977.2589    4.3457561    4.3457561    4.3457561    2977.2589    4882.5996   -10079.196    14128.374    5949.2911    15369.507   -2112.3088    82.072194 
   13600    730.79713    -117.5495    0.6612406   -116.88826    3187.4509    4.3500181    4.3500181    4.3500181    3187.4509   -1690.7229    14156.094   -2903.0186   -7439.3104    25922.916    2579.6979    82.313905 
   13700    1061.9296    -117.8435   0.96085622   -116.88265   -6872.7154    4.3544702    4.3544702    4.3544702   -6872.7154   -16751.164   -8065.7259    4198.7441      11160.7   -5931.4692   -1993.1031    82.566899 
   13800    763.62073   -117.57547   0.69094008   -116.88453    11263.554    4.3406147    4.3406147    4.3406147    11263.554    3974.6672   -1512.8678    31328.864    17374.138    5261.2861   -4557.1175    81.781241 
   13900    607.39726    -117.4425   0.54958581   -116.89292   -19811.378    4.3590773    4.3590773    4.3590773   -19811.378   -40306.029    8169.5986   -27297.705   -4518.9594    33949.605   -5726.5533    82.829246 
   14000    988.93965    -117.7795   0.89481338   -116.88469    7385.3441    4.3471452    4.3471452    4.3471452    7385.3441     3570.869    14541.291    4043.8726   -2108.3697    9072.5448   -3702.9713    82.150922 
   14100    1100.2613    -117.8781   0.99553958   -116.88256    3238.8974    4.3444659    4.3444659    4.3444659    3238.8974   -9297.3852      1878.54    17135.537    12971.742   -3369.1484   -857.58825    81.999115 
   14200    457.61061   -117.30554   0.41405569   -116.89149   -23803.872    4.3608602    4.3608602    4.3608602   -23803.872   -33444.418    4361.4493   -42328.647    1912.8631    36643.125   -3721.3307    82.930921 
   14300     828.1209   -117.63592   0.74930119   -116.88662    5823.8583    4.3394282    4.3394282    4.3394282    5823.8583   -11058.623    21516.514    7013.6837   -6745.6304    18586.977    3582.2969    81.714197 
   14400    1095.4578   -117.87702   0.99119326   -116.88583    7318.4232    4.3503716    4.3503716    4.3503716    7318.4232    7173.0554   -3578.5777    18360.792    3637.2826   -10866.308    518.18323     82.33397 
   14500    645.89342    -117.4729   0.58441794   -116.88848   -15481.118    4.3598611    4.3598611    4.3598611   -15481.118   -36894.426    3028.0896   -12577.018     9361.459    30567.634    802.93852    82.873932 
   14600    547.52371   -117.38172   0.49541096   -116.88631    13732.446    4.3392825    4.3392825    4.3392825    13732.446    -6356.231    33722.603    13830.966   -2478.3328    23645.098    4653.8983    81.705967 
   14700     1093.757   -117.87417   0.98965436   -116.88451   -3468.0496    4.3529809    4.3529809    4.3529809   -3468.0496   -11628.607   -3839.4645    5063.9231   -11056.955     -12887.1    4744.6939     82.48221 
   14800    772.20921   -117.58481   0.69871112    -116.8861    4860.1114    4.3532843    4.3532843    4.3532843    4860.1114   -11890.943     25899.49    571.78733     1900.035    21947.617    6251.1529    82.499457 
   14900    706.96813   -117.52647   0.63967962   -116.88679    2765.2965    4.3468814    4.3468814    4.3468814    2765.2965   -22149.497    38514.512   -8069.1255    1449.3224    30329.916    107.36431    82.135966 
   15000    870.97398   -117.67202   0.78807557   -116.88395   -2973.2492    4.3538452    4.3538452    4.3538452   -2973.2492    217.58402    294.90855     -9432.24   -10914.008   -9947.0857    -5159.755    82.531348 
   15100    818.73107   -117.62461   0.74080508    -116.8838    1510.0144    4.3482088    4.3482088    4.3482088    1510.0144   -15071.226    28006.498   -8405.2282   -2917.0145     13371.96   -4393.2901    82.211235 
   15200    703.11699   -117.52196   0.63619503   -116.88577    306.11395    4.3541168    4.3541168    4.3541168    306.11395   -25151.456    26683.304   -613.50628    136.96686    30167.035   -6856.1017    82.546799 
   15300    886.40545   -117.68345   0.80203828   -116.88141     6734.527    4.3504211    4.3504211    4.3504211     6734.527    7008.5551   -3278.3586    16473.385   -11407.105   -9446.7104   -11289.458     82.33678 
   15400    638.25006   -117.46247   0.57750206   -116.88497    5661.8428    4.3495232    4.3495232    4.3495232    5661.8428    243.37625   -497.30953    17239.462   -7445.2583    8447.7625   -8190.6976    82.285813 
   15500    690.12455   -117.51314    0.6244392    -116.8887   -11639.173    4.3552907    4.3552907    4.3552907   -11639.173   -32396.875    18834.928   -21355.571    1444.7835    36582.665    4465.0809    82.613578 
   15600    1042.8655   -117.82555   0.94360663   -116.88194    12963.672    4.3424539    4.3424539    4.3424539    12963.672    5905.4808    17520.879    15464.657    1781.1951   -1187.8441   -6597.1035    81.885244 
   15700    920.01753   -117.72158    0.8324512   -116.88913   -11377.784    4.3559358    4.3559358    4.3559358   -11377.784   -10263.552   -8658.7294   -15211.072   -10627.872    2202.4351   -5687.4421    82.650294 
   15800     536.2186   -117.37626   0.48518186   -116.89108   -16836.728    4.3569605    4.3569605    4.3569605   -16836.728    -28295.91    19549.638    -41763.91   -2493.3814    34091.281    7514.4266     82.70864 
   15900    1090.8623   -117.86464   0.98703517   -116.87761    14640.532    4.3389634    4.3389634    4.3389634    14640.532    16550.526    20156.734    7214.3365    5346.3881    6374.2669    4979.1935    81.687941 
   16000    1023.1623   -117.80886   0.92577875   -116.88308   -5766.2241    4.3566043    4.3566043    4.3566043   -5766.2241   -11804.536   -9336.7343    3842.5979   -8108.9145   -7886.4055    4220.9973    82.688355 
   16100    481.18157     -117.329    0.4353832   -116.89361   -4986.7561    4.3501486    4.3501486    4.3501486   -4986.7561   -19067.287    11627.737   -7520.7183   -6558.9476     26386.88     681.5429    82.321311 
   16200    831.54658   -117.64427   0.75240082   -116.89187    10462.541    4.3423463    4.3423463    4.3423463    10462.541     13910.96    9283.4694     8193.194   -1018.4009    22317.748    4571.7839    81.879155 
   16300    1210.3473   -117.98038    1.0951476   -116.88523   -4596.1994    4.3580281    4.3580281    4.3580281   -4596.1994    -5366.779   -4631.8243   -3789.9947   -378.71576   -16902.355   -1076.1714    82.769453 
   16400    641.69554   -117.46906   0.58061961   -116.88844    405.51493    4.3491904    4.3491904    4.3491904    405.51493   -48.211449    9642.0889   -8377.3327   -7075.6433    23712.561   -3460.2117    82.266924 
   16500    741.02635   -117.55852   0.67049622   -116.88803   -8921.3974    4.3500487    4.3500487    4.3500487   -8921.3974   -1352.4802    6064.4511   -31476.163   -3699.5806    31768.395    -1645.403    82.315642 
   16600    1099.1784     -117.876   0.99455969   -116.88144     8851.134    4.3482425    4.3482425    4.3482425     8851.134    34846.649   -65.166442   -8228.0802    7675.7566   -13185.821   -3826.9148    82.213147 
   16700    955.10771   -117.75153   0.86420153   -116.88733    -6373.403    4.3472872    4.3472872    4.3472872    -6373.403   -7553.7791     11255.06    -22821.49   -2269.9834    11190.681   -2148.5313     82.15897 
   16800    525.80149    -117.3696   0.47575624   -116.89385   -15508.485    4.3553323    4.3553323    4.3553323   -15508.485   -21813.178     12044.08   -36756.358    -6099.803    28666.697   -3885.6624    82.615947 
   16900    1136.2553   -117.91197    1.0281077   -116.88386   -2505.7106    4.3436993    4.3436993    4.3436993   -2505.7106    7418.0575   -9787.7922   -5147.3971    13150.732   -2850.7583   -4630.8386    81.955717 
   17000    750.10111   -117.56704   0.67870725   -116.88834    5291.5906    4.3530784    4.3530784    4.3530784    5291.5906    15589.363    20270.552   -19985.143    9206.2115    1036.1415   -498.87573    82.487754 
   17100    707.26384   -117.53039   0.63994719   -116.89044   -18785.949    4.3527117    4.3527117    4.3527117   -18785.949   -29444.104    14734.266    -41648.01   -9602.9223    30138.648    -1119.896     82.46691 
   17200     853.7588    -117.6555   0.77249891   -116.88301    17043.947    4.3345381    4.3345381    4.3345381    17043.947    27331.821    18872.939    4927.0796   -3571.9216     6248.933   -706.47671     81.43826 
   17300    784.38001   -117.59997   0.70972352   -116.89024    407.00373    4.3551875    4.3551875    4.3551875    407.00373    7365.5994    4220.8439   -10365.432     16506.85   -7423.6861    1059.5323    82.607709 
   17400    682.08218   -117.50759   0.61716229   -116.89043   -14362.056    4.3541565    4.3541565    4.3541565   -14362.056   -13955.445    5191.9567    -34322.68    5109.5871     33021.08   -2768.4662    82.549053 
   17500    799.38246   -117.60787   0.72329805   -116.88457    18615.075    4.3315859    4.3315859    4.3315859    18615.075    18400.278    36882.723    562.22534   -5155.1875    15146.821    6301.4334    81.271972 
   17600    1006.8733   -117.80085   0.91104014   -116.88981   -13243.114    4.3558828    4.3558828    4.3558828   -13243.114   -7431.1619   -17601.038   -14697.143    12739.318   -8054.3125      456.945    82.647281 
   17700     471.9784   -117.31771   0.42705598   -116.89065   -2086.2081     4.354697     4.354697     4.354697   -2086.2081    12528.178   -1662.6945   -17124.108    19465.235    22963.274   -3243.1297      82.5798 
   17800    695.68594   -117.51452   0.62947126   -116.88505    11253.317    4.3362242    4.3362242    4.3362242    11253.317    7625.4122    35897.624   -9763.0853   -3017.4956    14388.089    9240.3005     81.53333 
   17900    1011.5585    -117.7996   0.91527936   -116.88432   -7034.5756    4.3493757    4.3493757    4.3493757   -7034.5756     2164.733    -13845.36   -9423.0997    5026.7968    -9844.498   -3412.8925     82.27744 
   18000    735.25306    -117.5573   0.66527242   -116.89203   -4618.6585    4.3491076    4.3491076    4.3491076   -4618.6585   -9694.4204   -5428.9709    1267.4156    10243.149    9013.2529   -654.06717    82.262225 
   18100    469.93075   -117.32161   0.42520322    -116.8964     1682.915    4.3452694    4.3452694    4.3452694     1682.915   -5398.0694    16746.139   -6299.3244    3343.3685     36493.61    -1955.413     82.04462 
   18200    994.88983   -117.79012   0.90019723   -116.88992   -2684.0999    4.3464018    4.3464018    4.3464018   -2684.0999   -6939.2704     8713.134   -9826.1635   -3792.7799    230.09314    3333.1301    82.108785 
   18300    778.04059   -117.59396   0.70398748   -116.88997    3190.6072    4.3497972    4.3497972    4.3497972    3190.6072   -7155.2446    3218.3104    13508.756    1708.0438    -4050.659    3549.4377    82.301362 
   18400    440.94753   -117.29189   0.39897859   -116.89291   -1857.2214    4.3487337    4.3487337    4.3487337   -1857.2214   -5288.4562    3167.0118   -3450.2197    13477.295    42239.483   -6034.2096    82.241011 
   18500    797.16433   -117.61228   0.72129104   -116.89099    9443.4515    4.3415754    4.3415754    4.3415754    9443.4515    9167.9619    21238.257   -2075.8646   -2917.5385    13465.515    6529.5838    81.835558 
   18600    979.05146   -117.77476   0.88586634    -116.8889    7393.7146    4.3491409    4.3491409    4.3491409    7393.7146   -4412.6949     13736.18    12857.659   -5073.7444   -13891.746    2029.7447    82.264115 
   18700    591.98717   -117.43074   0.53564244    -116.8951   -16662.001    4.3543132    4.3543132    4.3543132   -16662.001   -29646.921   -3233.8603   -17105.222    11580.569     25344.48   -1667.6807     82.55797 
   18800    559.99925   -117.40051   0.50669909   -116.89381    8951.2456    4.3419472    4.3419472    4.3419472    8951.2456    48.801545    25420.615    1384.3207    13963.505    24753.807   -323.33724    81.856581 
   18900    1205.9889   -117.97708    1.0912041   -116.88588    6265.9871    4.3469855    4.3469855    4.3469855    6265.9871   -2549.6992    20276.796    1070.8645    3923.2132   -11284.175   -1566.6815    82.141869 
   19000    730.40115   -117.55365   0.66088231   -116.89277   -5878.4972    4.3545581    4.3545581    4.3545581   -5878.4972    -9194.744    7376.3709   -15817.118   -4145.3703     14142.48    5074.5466    82.571896 
   19100    483.82951   -117.33102   0.43777911   -116.89325    1082.0585    4.3455314    4.3455314    4.3455314    1082.0585   -23924.058    31508.549   -4338.3152    10347.639     30758.71   -3985.9464    82.059467 
   19200    994.44702    -117.7874   0.89979656    -116.8876    7983.3143    4.3468615    4.3468615    4.3468615    7983.3143    18111.694    1568.5993    4269.6497    12446.159   -7040.2993     176.7737    82.134841 
   19300    1072.9328   -117.85966   0.97081212   -116.88885   -9115.1906    4.3515509    4.3515509    4.3515509   -9115.1906   -13701.487   -712.96324   -12931.122   -3197.2322    9783.2345    2416.5087    82.400948 
   19400    634.68128   -117.46867   0.57427296    -116.8944   -7851.1152    4.3443173    4.3443173    4.3443173   -7851.1152   -32260.793    23715.564   -15008.116    2891.9527    38190.087    743.31807    81.990704 
   19500    839.72548   -117.65506   0.75980126   -116.89525   -5185.8109    4.3478065    4.3478065    4.3478065   -5185.8109   -14153.722   -4519.5754    3115.8644    13563.767    4492.3808   -1180.2415    82.188418 
   19600     1061.489    -117.8498   0.96045751   -116.88935   -10977.238    4.3540462    4.3540462    4.3540462   -10977.238   -5387.1554   -16342.177   -11202.382    2191.9166   -679.95804    -4848.989    82.542784 
   19700    698.69162   -117.52271   0.63219086   -116.89052    4103.2888    4.3420353    4.3420353    4.3420353    4103.2888    3227.3858    22485.661    -13403.18   -2050.2497    30712.301       9709.2    81.861564 
   19800    756.82103   -117.57835   0.68478757   -116.89356   -2771.1968    4.3518242    4.3518242    4.3518242   -2771.1968   -3131.1399    9805.5959   -14988.046    21146.557     10212.91   -987.43309    82.416474 
   19900    949.96624    -117.7475   0.85954942   -116.88795    2874.9072    4.3531203    4.3531203    4.3531203    2874.9072    9016.4638     1085.377   -1477.1194    14601.378   -13895.009   -542.99905    82.490134 
   20000    781.60426     -117.596   0.70721196   -116.88879    11763.519     4.338783     4.338783     4.338783    11763.519     6311.186    34893.655    -5914.283   -6204.4233    16608.926    8794.2781    81.677752 
   20100    668.56985   -117.49853   0.60493605   -116.89359    -7252.519    4.3546682    4.3546682    4.3546682    -7252.519   -16613.467    18513.642   -23657.733    5075.4523    24061.545    4940.7454    82.578162 
   20200    1121.9222   -117.90052    1.0151388   -116.88538   -1160.7747    4.3493178    4.3493178    4.3493178   -1160.7747   -14358.862     1279.557    9596.9808    19085.768    -5483.688    5060.1726    82.274153 
   20300    804.91847   -117.61633   0.72830715   -116.88802    6065.8289    4.3464617    4.3464617    4.3464617    6065.8289     6565.693    9120.9463    2510.8474   -9428.3433    14372.974    938.27869    82.112175 
   20400    712.46042   -117.53667   0.64464916   -116.89202   -18040.926     4.352595     4.352595     4.352595   -18040.926   -19070.193   -296.41492   -34756.171   -10734.218    28939.285    3715.0629    82.460277 
   20500    985.99754   -117.78036    0.8921513   -116.88821    16103.549    4.3409145    4.3409145    4.3409145    16103.549    29226.322   -1585.3228    20669.646    6411.8553   -2232.4221    5452.9631    81.798191 
   20600    1011.7058   -117.80459   0.91541263   -116.88917   -7406.1311    4.3538074    4.3538074    4.3538074   -7406.1311   -4154.7246   -19486.573    1422.9043    13141.532    9262.8542   -6382.0701      82.5292 
   20700     547.3562   -117.39002   0.49525939   -116.89476   -3923.6514    4.3466255    4.3466255    4.3466255   -3923.6514    1667.2658    2860.5687   -16298.789   -3393.8259    33366.225   -2156.7959    82.121461 
   20800    894.69265   -117.70135   0.80953671   -116.89182    8816.0694    4.3427786    4.3427786    4.3427786    8816.0694    11797.145    7690.2891    6960.7742   -2132.8807    3744.2735   -2168.6204    81.903612 
   20900    1175.0318   -117.94884    1.0631934   -116.88565   -6404.2637    4.3561314    4.3561314    4.3561314   -6404.2637   -13301.943   -6267.7949    356.94687    15411.543   -6861.0251   -1209.9646    82.661432 
   21000    616.99722   -117.44949   0.55827205   -116.89121     6522.093     4.341751     4.341751     4.341751     6522.093   -9982.4778    33904.887   -4356.1298    4888.3338    23027.034   -7259.7989    81.845486 
   21100    638.85322   -117.47232   0.57804782   -116.89427    -9923.996    4.3509195    4.3509195    4.3509195    -9923.996   -18763.901    10180.953    -21189.04    -8878.703    14506.279   -6286.0231    82.365085 
   21200    1156.3724   -117.93158      1.04631   -116.88527   -7383.5445     4.351322     4.351322     4.351322   -7383.5445   -7369.0272   -17849.127    3067.5206   -7945.3044   -7785.9816    8672.9192    82.387946 
   21300    841.12312   -117.64914   0.76106587   -116.88807    13563.452    4.3374117    4.3374117    4.3374117    13563.452    -1885.023    43835.707   -1260.3274    900.68604     17910.89   -566.72571    81.600336 
   21400    539.71722   -117.38442   0.48834748   -116.89607   -23182.291    4.3554667    4.3554667    4.3554667   -23182.291   -25325.181   -13086.082   -31135.611   -5862.1907    20428.815   -7502.7476    82.623596 
   21500    738.84256   -117.56111   0.66852028   -116.89259   -4887.0416    4.3488085    4.3488085    4.3488085   -4887.0416    -7898.307    -31487.32    24724.503   -20848.367   -7507.9508    2585.5514    82.245257 
   21600    982.68122   -117.77447   0.88915062   -116.88532    6791.8763    4.3440485    4.3440485    4.3440485    6791.8763    256.76183    3395.3585    16723.508   -4864.7765    16957.302    192.35732    81.975486 
   21700    615.12293   -117.44611   0.55657615   -116.88954    -8455.347    4.3557443    4.3557443    4.3557443    -8455.347   -23558.562    8476.7277   -10284.207   -309.97654    35779.444    6036.4957    82.639397 
   21800    599.74632   -117.43354   0.54266307   -116.89087    4636.3536    4.3419257    4.3419257    4.3419257    4636.3536    6033.4845   -16021.354     23896.93   -15309.401   -1094.1323   -7896.5302    81.855365 
   21900     875.9162   -117.68359   0.79254738   -116.89104   -1653.5117     4.349058     4.349058     4.349058   -1653.5117    369.66149   -9509.2334    4179.0366    -7338.132    1449.1564   -1661.6282     82.25941 
   22000    802.69321     -117.613   0.72629369   -116.88671   -1062.9017    4.3571183    4.3571183    4.3571183   -1062.9017   -3941.9833     5748.015   -4994.7368     5317.869    27561.978    6928.1164    82.717626 
   22100    798.20006   -117.60755   0.72222819   -116.88532   -1191.7536    4.3442593    4.3442593    4.3442593   -1191.7536   -5355.0701    2686.2465   -906.43724   -19108.992    6032.0647   -8624.6846    81.987418 
   22200    708.55505   -117.53015    0.6411155   -116.88904    -3158.303    4.3443023    4.3443023    4.3443023    -3158.303   -8634.3285   -6988.1255    6147.5449   -18989.906   -13616.699   -5804.3974    81.989855 
   22300    910.69176   -117.71416   0.82401304   -116.89014   -8325.6065    4.3519574    4.3519574    4.3519574   -8325.6065    -19823.41    9141.7314   -14295.141     9967.221    7340.5637   -3936.0987     82.42404 
   22400    955.88215     -117.752   0.86490226   -116.88709   -4126.4801    4.3514118    4.3514118    4.3514118   -4126.4801   -10380.469     3520.025   -5518.9961   -447.77525     14298.59   -408.89615    82.393045 
   22500    737.04063   -117.55409   0.66688985    -116.8872   -785.43623    4.3466329    4.3466329    4.3466329   -785.43623   -16113.738    5138.5521    8618.8769   -17459.495   -10957.817   -7552.8002    82.121884 
   22600     761.4502   -117.57896   0.68897614   -116.88999   -9744.7396    4.3476918    4.3476918    4.3476918   -9744.7396   -13272.386   -12705.714   -3256.1184    6130.3959    2823.3611   -10249.955    82.181915 
   22700    885.41378   -117.69042   0.80114099   -116.88928    9652.6955    4.3439071    4.3439071    4.3439071    9652.6955    9571.4331    6379.9754    13006.678    12390.541    20131.654     5067.279    81.967481 
   22800     815.6118   -117.62974    0.7379827   -116.89176    3632.6244    4.3506734    4.3506734    4.3506734    3632.6244    9588.7728   -10893.693    12202.793   -17027.509    96.320346    771.08748    82.351107 
   22900    687.41975   -117.51355   0.62199183   -116.89155   -8641.0264    4.3519558    4.3519558    4.3519558   -8641.0264   -11020.763   -18408.499    3506.1831   -14945.003   -3893.4304   -10325.179     82.42395 
   23000    775.94903    -117.5889   0.70209499   -116.88681    7570.3439    4.3412502    4.3412502    4.3412502    7570.3439    3762.8917    3979.1291    14969.011    8481.6153    12037.986    613.40333    81.817169 
   23100    831.52311   -117.64173   0.75237959   -116.88935   -2188.8445    4.3537128    4.3537128    4.3537128   -2188.8445   -6927.0383   -334.60612    695.11093   -8429.6099    11739.141    11220.455    82.523823 
   23200    836.45684   -117.64689   0.75684373   -116.89005   -7288.4575    4.3483037    4.3483037    4.3483037   -7288.4575   -24391.002   -9476.8229    12002.452   -23836.249   -8926.3028    4558.5502    82.216619 
   23300    651.30332   -117.48008   0.58931293   -116.89077    11266.585    4.3410125    4.3410125    4.3410125    11266.585   -5873.7093    19875.216    19798.249    7262.2598   -5437.7129   -5123.0921     81.80373 
   23400    763.22514   -117.58068   0.69058214    -116.8901   -11622.826    4.3613484    4.3613484    4.3613484   -11622.826   -8982.4627    2485.0238    -28371.04     11909.77    12319.583    8319.9976    82.958776 
   23500    652.79497   -117.47698    0.5906626   -116.88632    12401.184    4.3478666    4.3478666    4.3478666    12401.184    6673.7863    23113.344      7416.42   -14093.923    -7057.061    10784.489    82.191826 
   23600    726.89921   -117.54184   0.65771368   -116.88413     11005.27     4.339452     4.339452     4.339452     11005.27    5584.2001    14393.436    13038.175   -1677.4658   -6014.0232   -10123.796    81.715543 
   23700     675.4307   -117.50073   0.61114389   -116.88959   -13203.527    4.3568299    4.3568299    4.3568299   -13203.527   -4978.4982   -2709.0978   -31922.986    15757.121    7404.3848   -2449.0957    82.701198 
   23800    667.59612   -117.49444     0.604055   -116.89039    2553.6476      4.34588      4.34588      4.34588    2553.6476     13318.51    6502.8748   -12160.442   -4312.6032    9075.6309    12576.787    82.079215 
   23900    853.58355   -117.66055   0.77234033   -116.88821    3291.9348     4.344461     4.344461     4.344461    3291.9348   -3010.8616    3622.5627    9264.1033   -16191.125   -3175.2139   -820.71424    81.998837 
   24000    877.70435   -117.68001   0.79416534   -116.88584   -20635.647    4.3578278    4.3578278    4.3578278   -20635.647   -27430.283   -10608.358     -23868.3    4149.2381    5717.8008   -11276.449    82.758039 
   24100    574.41059   -117.40935   0.51973877   -116.88961   -5947.6733    4.3444712    4.3444712    4.3444712   -5947.6733   -14890.092    20456.397   -23409.325    3602.4609     17305.41    13602.965    81.999416 
   24200    850.00081   -117.65835    0.7690986   -116.88925    9051.0627     4.335844     4.335844     4.335844    9051.0627    7991.6212    8995.1902    10166.377   -12950.023    1487.9517    17108.097    81.511888 
   24300    1028.2442   -117.81957   0.93037698   -116.88919    -2043.492    4.3554163    4.3554163    4.3554163    -2043.492   -17283.225    20593.158   -9440.4099   -5688.5522    53.614304   -14502.162    82.620729 
   24400     572.4818    -117.4124   0.51799356   -116.89441   -14334.245    4.3517679    4.3517679    4.3517679   -14334.245   -14891.559    3747.9667   -31859.143    12852.899    10355.119    5947.2745    82.413276 
   24500    498.04878   -117.34526     0.450645   -116.89461    7897.2006    4.3322112    4.3322112    4.3322112    7897.2006    18678.057    8386.4647     -3372.92    358.16941    9192.0344    26658.964    81.307171 
   24600    1088.6918   -117.87826   0.98507123   -116.89319    482.94886    4.3523224    4.3523224    4.3523224    482.94886    5463.3999    8934.2086   -12948.762   -3908.1112   -938.75571   -2617.5108    82.444785 
   24700    913.72545   -117.72262   0.82675799   -116.89586   -7498.9449    4.3505022    4.3505022    4.3505022   -7498.9449   -4566.5449   -6413.8179   -11516.472    5794.9981   -4314.2298   -4221.2402     82.34139 
   24800    254.32804   -117.12987   0.23012135   -116.89975    8428.4125    4.3322915    4.3322915    4.3322915    8428.4125    33503.467   -1217.3817   -7000.8483    5650.5463    7736.0813    26133.833    81.311693 
   24900    795.65436   -117.61827   0.71992478   -116.89834   -15416.891    4.3562765    4.3562765    4.3562765   -15416.891   -7141.2419   -2764.9939   -36344.437    1616.2885    284.13718     16315.94     82.66969 
   25000    1037.9886   -117.83066   0.93919392   -116.89146     9709.866    4.3455913    4.3455913    4.3455913     9709.866   -55.445801    28007.945    1177.0987   -5049.2352   -11499.111   -12725.281    82.062859 
   25100    712.54918   -117.53931   0.64472948   -116.89458    11708.628    4.3300288    4.3300288    4.3300288    11708.628    32503.195    15953.231   -13330.542    5819.9113    821.39726    19542.898    81.184357 
   25200    342.27068   -117.21154    0.3096937   -116.90185    -18206.03    4.3594729    4.3594729    4.3594729    -18206.03   -5712.2117    1571.2694   -50477.149    6482.5026    11377.311    27115.986    82.851797 
   25300    986.04345    -117.7829   0.89219284   -116.89071   -194.17796    4.3426604    4.3426604    4.3426604   -194.17796   -6497.7906    18961.951   -13046.694   -1461.8997   -5357.4904   -6404.7679    81.896929 
   25400    857.24309    -117.6642   0.77565156   -116.88855    12843.363    4.3341938    4.3341938    4.3341938    12843.363    26699.564    28618.607   -16788.084   -1983.2846   -16157.082    9911.4296    81.418852 
   25500    595.44881   -117.43311   0.53877459   -116.89434   -24204.502    4.3562842    4.3562842    4.3562842   -24204.502    7615.6955   -27073.598   -53155.605    3872.2985    8543.1699    29586.372    82.670128 
   25600    590.74771   -117.42742   0.53452094    -116.8929   -613.20765    4.3406082    4.3406082    4.3406082   -613.20765    10177.697    10915.073   -22932.393    8807.6596    6086.9992    1707.2741    81.780878 
   25700    793.13977   -117.61085   0.71764953    -116.8932   -1786.9243    4.3420099    4.3420099    4.3420099   -1786.9243   -4730.3183    15999.989   -16630.444    -3847.102   -17140.321    -7817.297    81.860128 
   25800    857.31476   -117.66725   0.77571641   -116.89153   -8371.3671    4.3506111    4.3506111    4.3506111   -8371.3671    16525.021   -11742.655   -29896.468    2314.2803   -3171.1637    18226.646    82.347572 
   25900    686.91296   -117.51311   0.62153328   -116.89157   -1650.5937    4.3444869    4.3444869    4.3444869   -1650.5937    7901.8584   -9345.7315    -3507.908    11781.379    6575.3299    14296.229    82.000304 
   26000    575.66021   -117.41516   0.52086945   -116.89429   -5330.1457    4.3449873    4.3449873    4.3449873   -5330.1457   -18122.783     25962.96   -23830.615   -487.26421   -7204.7224    -12892.76    82.028642 
   26100    893.43258   -117.70066   0.80839657   -116.89226    6539.2122    4.3400948    4.3400948    4.3400948    6539.2122    8658.5401    15340.233   -4381.1364   -1377.3375   -14285.859   -2925.0511    81.751858 
   26200    939.43634   -117.74316   0.85002174   -116.89313    4318.4349    4.3477818    4.3477818    4.3477818    4318.4349    13587.305   -3520.8347    2888.8345    2321.4192     1520.727     13142.14    82.187018 
   26300    616.44365   -117.45474   0.55777117   -116.89697    -6495.486    4.3471788    4.3471788    4.3471788    -6495.486   -5510.8483    13759.873   -27735.483    7623.5585     8261.437    1000.5273    82.152824 
   26400    502.22525   -117.35175   0.45442396   -116.89732    13311.382    4.3384911    4.3384911    4.3384911    13311.382    16942.102     32005.06    -9013.017    852.61329   -13139.428   -7986.7698    81.661272 
   26500     1045.845   -117.83705   0.94630255   -116.89075   -5798.8475    4.3509102    4.3509102    4.3509102   -5798.8475    5785.9714   -6804.7607   -16377.753   -3250.5478   -5479.9575   -6870.3972    82.364554 
   26600    856.87951   -117.66644   0.77532259   -116.89112   -1028.4511     4.344997     4.344997     4.344997   -1028.4511    1981.5265    3043.5962   -8110.4761    16716.275    10814.093    2819.8202    82.029197 
   26700    544.65165   -117.38926   0.49281226   -116.89645   -10142.071    4.3396357    4.3396357    4.3396357   -10142.071   -17807.366    11778.991   -24397.838    4610.4462    2001.8739   -3333.3963    81.725918 
   26800    657.57048   -117.49181   0.59498359   -116.89682   -12426.383    4.3476264    4.3476264    4.3476264   -12426.383   -2828.2894    7834.8149   -42285.675   -5550.1836   -13649.811   -18962.711    82.178206 
   26900    953.62698   -117.75482   0.86286173   -116.89195    -2696.831    4.3446923    4.3446923    4.3446923    -2696.831    2272.7414   -11675.584     1312.349    11916.348    -1824.729    2008.3455    82.011937 
   27000    803.30741   -117.62073   0.72684943   -116.89388   -7657.6981    4.3420469    4.3420469    4.3420469   -7657.6981   -14890.172   -1240.8553   -6842.0668     7206.309    8475.3925    77.853179     81.86222 
   27100    661.30442   -117.49495   0.59836214   -116.89659   -4376.6803    4.3435592    4.3435592    4.3435592   -4376.6803    7759.5394     13277.63    -34167.21   -309.31519   -9658.7018   -13951.624    81.947787 
   27200    733.04392   -117.55719   0.66327354   -116.89391    1427.9154    4.3493931    4.3493931    4.3493931    1427.9154     15115.26    3685.4783   -14516.992    986.69815   -9093.3642   -5047.8304    82.278428 
   27300    766.19194    -117.5858   0.69326657   -116.89253   -4179.5486    4.3435247    4.3435247    4.3435247   -4179.5486     -8960.92   -13677.366     10099.64     6250.169    2239.4231    4055.3013    81.945838 
   27400     650.7855    -117.4824   0.58884439   -116.89356    6749.9013    4.3388788    4.3388788    4.3388788    6749.9013    10504.279    15262.634   -5517.2093    1975.6167     -3727.09    3516.6193    81.683162 
   27500    1027.2488   -117.82178   0.92947628   -116.89231   -9904.3801    4.3498498    4.3498498    4.3498498   -9904.3801       -12761    14484.656   -31436.796   -5934.7345    -5822.151   -10073.197    82.304346 
   27600    694.88679   -117.52366   0.62874817   -116.89491    3390.3737    4.3447289    4.3447289    4.3447289    3390.3737    811.98897   -1067.8841    10427.016    7358.0097    677.80454    9539.6082    82.014008 
   27700    504.80853   -117.35597   0.45676137   -116.89921   -7688.3234    4.3410181    4.3410181    4.3410181   -7688.3234   -13689.349   -12258.926    2883.3049     4691.494    2441.3603    13890.849    81.804046 
   27800    883.64062   -117.69596    0.7995366   -116.89642   -7615.6179    4.3457063    4.3457063    4.3457063   -7615.6179   -13490.929    12284.603   -21640.528    -3718.657   -5074.0899   -3955.8877    82.069375 
   27900    1061.2496   -117.85074   0.96024095    -116.8905    655.86303    4.3474292    4.3474292    4.3474292    655.86303   -1915.0768    9304.9771   -5422.3112     7231.814   -2277.5745   -20.906533    82.167021 
   28000    639.50425   -117.47512   0.57863689   -116.89648   -5980.2142    4.3451607    4.3451607    4.3451607   -5980.2142   -12784.986   -14333.596    9177.9395    5015.2699    5304.5845    6162.4607    82.038467 
   28100    565.57357   -117.40841   0.51174285   -116.89666    31.589068    4.3395812    4.3395812    4.3395812    31.589068   -2712.4846    4684.3416   -1877.0899    219.10951     519.0066    8542.9271    81.722841 
   28200    944.62602   -117.74718   0.85471748   -116.89246   -6276.4187    4.3510914    4.3510914    4.3510914   -6276.4187   -11.808365    5454.7476   -24272.195   -5620.9618   -4201.8371   -6742.6481    82.374845 
   28300    834.57581   -117.64597   0.75514173   -116.89083   -3320.5361    4.3479298    4.3479298    4.3479298   -3320.5361   -3140.0136    2813.5947   -9635.1894    8439.0921   -3082.7776   -8206.6338    82.195414 
   28400    684.20923   -117.51217   0.61908689   -116.89308    11284.854    4.3339329    4.3339329    4.3339329    11284.854   -10539.009     14443.18    29950.393    8422.4931    3012.7622     9786.103    81.404153 
   28500    758.70015   -117.58275   0.68648784   -116.89626   -10257.442    4.3510605    4.3510605    4.3510605   -10257.442     -9691.81    997.46626   -22077.982   -10113.969   -4816.5507   -11664.493    82.373093 
   28600    865.33168   -117.67701   0.78297029   -116.89404   -6774.3413    4.3462592    4.3462592    4.3462592   -6774.3413   -1968.3387    6699.2583   -25053.943    7498.6088   -5943.2425   -20770.868      82.1007 
   28700    803.73928   -117.62041   0.72724019   -116.89317    3292.5874    4.3402724    4.3402724    4.3402724    3292.5874   -13631.959   -480.76728    23990.488    12903.374    2031.8673   -451.63764    81.761896 
   28800    811.44372   -117.62566   0.73421133   -116.89145    -15068.99    4.3526284    4.3526284    4.3526284    -15068.99   -35864.612    -15317.71    5975.3519   -7726.0382   -6194.6051   -1313.7593    82.462175 
   28900    919.18243   -117.72029   0.83169558   -116.88859   -1783.9684    4.3426853    4.3426853    4.3426853   -1783.9684    2597.4855    8421.8419   -16371.233   -1228.3892   -7174.3919   -13532.416    81.898337 
   29000    815.61699   -117.62936   0.73798739   -116.89137   -124.10108    4.3421289    4.3421289    4.3421289   -124.10108   -8319.1909    499.55407    7447.3336    8271.9439   -1104.7304   -6133.7925    81.866862 
   29100    676.98267   -117.50839   0.61254814   -116.89584   -4041.0936    4.3466563    4.3466563    4.3466563   -4041.0936   -26599.298   -6977.2475    21453.265   -314.57552    6068.2867    10151.538    82.123208 
   29200    786.50649   -117.60708    0.7116476   -116.89543    3608.3133    4.3462503    4.3462503    4.3462503    3608.3133   -14728.573    19641.734    5911.7782   -13268.233    178.08601   -3814.4054    82.100195 
   29300    1124.7396    -117.9076    1.0176881   -116.88991    5456.2979    4.3447227    4.3447227    4.3447227    5456.2979    1624.0523    13815.701    929.14038     2213.036   -1594.7659    -10924.06    82.013659 
   29400    651.41349   -117.48601   0.58941261    -116.8966    7865.6953    4.3448899    4.3448899    4.3448899    7865.6953   -12860.242    7311.2417    29146.086    5533.9867    5887.6192    2102.0933     82.02313 
   29500    500.55014   -117.35147   0.45290829   -116.89856   -3033.8605    4.3522552    4.3522552    4.3522552   -3033.8605   -28742.291   -5910.9225    25551.632   -14429.116    1857.7441    663.29582    82.440965 
   29600    1107.3953   -117.89019    1.0019946    -116.8882    12340.859    4.3437179    4.3437179    4.3437179    12340.859   -5544.7376    26047.521    16519.794   -6084.3968    1926.5469   -2096.2128     81.95677 
   29700     996.5152   -117.79143   0.90166789   -116.88976    17920.326    4.3410485    4.3410485    4.3410485    17920.326   -2664.4252    33459.016    22966.389    10524.947    5019.3559   -5314.9943    81.805763 
   29800    322.92693   -117.19676   0.29219108   -116.90457    -11503.15    4.3536988    4.3536988    4.3536988    -11503.15   -44785.001   -22017.193    32292.743   -8748.5338    5667.8363    4468.8633    82.523028 
   29900    591.37538   -117.43615   0.53508887   -116.90106    5769.8461    4.3432218    4.3432218    4.3432218    5769.8461   -17244.676   -2551.9369    37106.151    -13119.77    2964.4116    164.04732    81.928693 
   30000    1277.1403   -118.04486    1.1555833   -116.88928    13554.926    4.3412194    4.3412194    4.3412194    13554.926   -2235.5687    24536.033    18364.313    6985.0213    609.26062   -7878.8461    81.815428 
   30100    707.19292   -117.53762   0.63988301   -116.89774   -8976.6262    4.3565719    4.3565719    4.3565719   -8976.6262   -40801.114   -12436.891    26308.126   -8724.3963    6002.6603    1407.7035    82.686507 
   30200    449.15791   -117.30208   0.40640751   -116.89567    3933.8467    4.3443154    4.3443154    4.3443154    3933.8467   -34262.279   -6351.5707    52415.389   -12620.777    3331.7018    1896.7362    81.990598 
   30300     967.8179   -117.76321   0.87570197   -116.88751     14543.31    4.3439862    4.3439862    4.3439862     14543.31   -699.16625    28462.955    15866.142    4509.6683    1242.4965     5494.933    81.971958 
   30400     977.6059   -117.77283   0.88455836   -116.88827   -1792.7909    4.3506289    4.3506289    4.3506289   -1792.7909   -20094.705    7149.2918    7567.0402   -7301.7181    2017.0409   -4207.6837    82.348579 
   30500    579.26565   -117.41741   0.52413173   -116.89328    1172.2739    4.3450276    4.3450276    4.3450276    1172.2739   -38305.157    13061.679      28760.3   -13051.558    2069.1793    1821.8603    82.030929 
   30600    832.12865   -117.64385   0.75292749   -116.89092   -4433.0693    4.3476128    4.3476128    4.3476128   -4433.0693   -27945.861    3258.1622    11388.491    5355.0665   -164.91492     9046.676    82.177434 
   30700    993.26195   -117.78735   0.89872428   -116.88863    3588.8773    4.3452503    4.3452503    4.3452503    3588.8773    7296.3819    16315.787   -12845.537    1205.7792   -4517.2959   -8636.8176    82.043539 
   30800    757.21043    -117.5776   0.68513991   -116.89246    -17819.83    4.3496244    4.3496244    4.3496244    -17819.83   -31113.115   -11285.473   -11060.902   -12989.601    607.32113    -10977.12    82.291556 
   30900    684.82999   -117.51187   0.61964857   -116.89222   -16062.136    4.3483539    4.3483539    4.3483539   -16062.136   -43225.095   -20894.579    15933.267    4084.5367    1267.4552   -2428.9662    82.219465 
   31000    1107.4808   -117.88855    1.0020719   -116.88648   -3635.2493    4.3446504    4.3446504    4.3446504   -3635.2493   -13000.415    6086.1385   -3991.4713    11358.239   -6210.2675   -1851.7676    82.009565 
   31100    866.26129   -117.67251   0.78381142    -116.8887   -10619.133    4.3518899    4.3518899    4.3518899   -10619.133   -9119.6244   -278.82488    -22458.95   -7152.8259   -4576.5164   -11356.347    82.420208 
   31200    520.82784   -117.36451   0.47125598   -116.89326   -5505.6856    4.3455258    4.3455258    4.3455258   -5505.6856   -34912.684    458.06676     17937.56   -3803.4003   -1645.9066   -1450.7417    82.059147 
   31300    805.62389    -117.6216   0.72894543   -116.89265   -1540.9424    4.3478473    4.3478473    4.3478473   -1540.9424   -30391.998    7815.6879    17953.483    9836.5234   -2860.9829    6667.9461    82.190731 
   31400    1088.4022   -117.87123   0.98480922   -116.88642    86.851197    4.3483088    4.3483088    4.3483088    86.851197   -15911.081    16731.672    -560.0378    802.73599   -7084.0774   -321.64311    82.216905 
   31500    712.74534   -117.53728   0.64490696   -116.89238    1347.1254    4.3449986    4.3449986    4.3449986    1347.1254   -17617.718    4634.9458    17024.149   -10318.447   -4249.1296   -3215.9203    82.029285 
   31600    572.96685   -117.41537   0.51843245   -116.89694   -10982.017    4.3479889    4.3479889    4.3479889   -10982.017   -33733.057   -31454.723    32241.728    3630.9835    4546.5714   -1189.6427    82.198765 
   31700    879.15213   -117.68706   0.79547533   -116.89159    5819.4909    4.3432704    4.3432704    4.3432704    5819.4909   -9788.2396    5923.0052    21323.707    7588.5564   -5412.0726    11573.172    81.931442 
   31800     912.5949   -117.71581   0.82573504   -116.89007   -5057.5939    4.3528586    4.3528586    4.3528586   -5057.5939   -21502.686    9561.0463   -3231.1419   -7130.8794   -5889.3012   -36.338409    82.475259 
   31900    698.39571   -117.52351   0.63192312   -116.89159    2849.5891      4.34421      4.34421      4.34421    2849.5891   -16414.728    1157.2759    23806.219    4251.7409    7873.6504   -9718.8426    81.984627 
   32000    585.83673   -117.42235   0.53007738   -116.89227    16359.331    4.3390664    4.3390664    4.3390664    16359.331   -2279.2428    17911.978    33445.258     11754.46   -10.871093    2491.6973    81.693762 
   32100    794.24404   -117.61019    0.7186487   -116.89154   -8740.9546    4.3563537    4.3563537    4.3563537   -8740.9546   -4479.5345    10750.512   -32493.842    1976.3773   -8659.2238    6713.3802    82.674086 
   32200    836.98306   -117.64524   0.75731986   -116.88792    8807.5889     4.341779     4.341779     4.341779    8807.5889   -3638.9243    22085.868    7975.8229    5082.1812   -4416.8301   -1492.5989    81.847069 
   32300    690.55067   -117.51626   0.62482476   -116.89143    6076.3397    4.3405234    4.3405234    4.3405234    6076.3397   -4321.1204   -6249.0598    28799.199    2792.2216    6299.9289     -6337.95    81.776081 
   32400    730.94057   -117.55214   0.66137039   -116.89077   -13526.507    4.3547411    4.3547411    4.3547411   -13526.507   -7572.1978   -11457.323   -21550.001    688.85938   -4609.9776    12205.331    82.582311 
   32500    886.85076   -117.69034    0.8024412    -116.8879    1172.5058    4.3419164    4.3419164    4.3419164    1172.5058    7069.3687    16524.507   -20076.359    199.71066    -12083.27    16684.722    81.854842 
   32600    858.30956   -117.66751   0.77661653   -116.89089   -2937.5045    4.3428159    4.3428159    4.3428159   -2937.5045   -15112.315   -6485.2564    12785.058   -2412.7899    1145.7545    -5630.871    81.905725 
   32700    824.42114   -117.63813   0.74595357   -116.89218   -12756.299    4.3510564    4.3510564    4.3510564   -12756.299   -20475.794   -9402.7919   -8390.3104   -590.94719   -4067.9088    6749.5868    82.372861 
   32800    984.60209   -117.78014   0.89088866   -116.88925   -1198.6397    4.3453053    4.3453053    4.3453053   -1198.6397   -14273.637    30228.904   -19551.186   -2955.2122    -12810.84    13159.548    82.046658 
   32900    931.66289   -117.73282   0.84298817   -116.88983   -1446.7828    4.3428771    4.3428771    4.3428771   -1446.7828   -16320.816    15695.796   -3715.3279    2996.3131   -7974.6021   -5337.6898    81.909188 
   33000    679.48063   -117.50928   0.61480835   -116.89447   -3548.4741    4.3477815    4.3477815    4.3477815   -3548.4741     -24619.9    10834.381     3140.097     1557.031     1503.667   -6680.7474    82.186999 
   33100    923.61679   -117.72818   0.83570788   -116.89247   -2048.3792    4.3477445    4.3477445    4.3477445   -2048.3792    -13153.24     19025.62   -12017.517   -646.91067   -7796.6504    2724.3763    82.184902 
   33200    1095.6688   -117.87929   0.99138419   -116.88791    3673.6538    4.3443872    4.3443872    4.3443872    3673.6538    4307.8897    15290.603   -8577.5315    2076.5361   -13814.159   -2302.6347    81.994662 
   33300     629.1748   -117.46462   0.56929059   -116.89533   -2417.1325    4.3468966    4.3468966    4.3468966   -2417.1325   -1091.6831   -4468.4424   -1691.2722    2443.7508    944.97797   -13102.205    82.136828 
   33400    655.13201   -117.49028   0.59277721    -116.8975   -117.39323    4.3449918    4.3449918    4.3449918   -117.39323   -6960.5759   -101.66307    6710.0593   -1223.4333    2606.6725   -5369.3049    82.028901 
   33500    1042.9134   -117.83492   0.94364999   -116.89127     7079.829    4.3491657    4.3491657    4.3491657     7079.829    1773.6537    26311.269   -6845.4361   -3488.8793   -5745.3833    5455.9535    82.265525 
   33600    963.26461    -117.7618   0.87158206   -116.89022    2601.4984    4.3471937    4.3471937    4.3471937    2601.4984   -1691.1233    22377.699    -12882.08   -3168.3218   -3141.7728   -6536.7507    82.153673 
   33700    622.67966   -117.45942   0.56341364   -116.89601    -2989.119    4.3415083    4.3415083    4.3415083    -2989.119   -20562.223   -3493.2682    15088.134   -4115.0516    6999.8912    -9777.255    81.831763 
   33800    764.83639   -117.59013   0.69204004   -116.89809   -8503.8567    4.3468778    4.3468778    4.3468778   -8503.8567   -29145.331   -5732.3903     9366.151    3922.3259    104.99728    4422.9698    82.135765 
   33900     1233.312   -118.00513    1.1159267   -116.88921   -7088.2423    4.3486144    4.3486144    4.3486144   -7088.2423   -10527.826    8861.2759   -19598.177    796.58708   -6312.1844    11005.363    82.234246 
   34000    928.58856   -117.73201   0.84020645    -116.8918   -11993.468    4.3487662    4.3487662    4.3487662   -11993.468   -26750.983   -10771.597    1542.1758   -328.99711    5885.3222   -608.88809    82.242855 
   34100    693.19602   -117.52078   0.62721833   -116.89356   -11264.278    4.3430799    4.3430799    4.3430799   -11264.278   -39833.671    -11843.99    17884.828    7185.9434    4984.2548    -2788.218    81.920663 
   34200     870.2937    -117.6798   0.78746003   -116.89234   -893.66446    4.3483471    4.3483471    4.3483471   -893.66446   -13323.522     23812.96   -13170.432   -662.16178    -4687.589    12162.179    82.219077 
   34300    1115.3421   -117.89929     1.009185    -116.8901   -3814.2055    4.3467355    4.3467355    4.3467355   -3814.2055   -2195.2931    5815.0346   -15062.358   -1097.0876   -2893.6082    12569.083    82.127698 
   34400    806.20703   -117.62294   0.72947307   -116.89346    9992.8307    4.3374899    4.3374899    4.3374899    9992.8307   -10643.624     16199.37    24422.746   -3817.4759    2952.6065    -9577.952    81.604746 
   34500    647.43747   -117.48308   0.58581502   -116.89727   -10197.044    4.3542923    4.3542923    4.3542923   -10197.044   -17180.121   -6993.8048   -6417.2064    2558.5215   -831.97539    7101.7155    82.556781 
   34600     892.9609    -117.6996   0.80796979   -116.89163    3395.0431    4.3470651    4.3470651    4.3470651    3395.0431    23209.461    4872.1355   -17896.467   -817.80766   -5085.6742    22212.174     82.14638 
   34700    984.66458   -117.77592    0.8909452   -116.88497    14603.264    4.3355288    4.3355288    4.3355288    14603.264    15896.525    18595.266    9318.0009   -833.42493    1991.2795   -2469.7626    81.494108 
   34800    649.00576   -117.48038   0.58723405   -116.89315    -6507.343    4.3512299    4.3512299    4.3512299    -6507.343   -20861.769   -1983.7411    3323.4807    11448.336   -154.87862    821.10008    82.382714 
   34900    594.12577   -117.43285   0.53757748   -116.89528    8964.2924    4.3452439    4.3452439    4.3452439    8964.2924    4853.0469    25428.929   -3389.0986    2644.1093   -2956.7627    17717.925    82.043178 
   35000    976.98653   -117.77262   0.88399794   -116.88862    14050.454      4.33785      4.33785      4.33785    14050.454    25900.678    20483.981    -4233.297    3105.0435   -3171.7431    2223.7985    81.625077 
   35100    731.84361    -117.5555   0.66218748   -116.89331   -3249.6306    4.3486183    4.3486183    4.3486183   -3249.6306   -2800.9296   -2036.5288   -4911.4335    6560.6297    2753.8398    -12266.33    82.234464 
   35200    702.04584   -117.52999   0.63522583   -116.89477   -3031.2636    4.3448032    4.3448032    4.3448032   -3031.2636   -11357.427   -5369.1796    7632.8164    2244.8744    186.79549    6835.0312    82.018218 
   35300    804.52883   -117.61887   0.72795459   -116.89092    11125.473     4.340287     4.340287     4.340287    11125.473    22406.115    15624.536   -4654.2343   -4862.0939   -5015.4336    7934.5752    81.762725 
   35400    723.00798   -117.54547   0.65419281   -116.89128   -7951.7713    4.3491487    4.3491487    4.3491487   -7951.7713    15033.543    -10498.05   -28390.807   -1030.9998    2072.2805    -25627.66    82.264556 
   35500      714.116   -117.53821   0.64614716   -116.89206   -4755.8783    4.3439343    4.3439343    4.3439343   -4755.8783   -13611.948    5580.2323    -6235.919   -3634.3968    2035.6185    -6250.348    81.969018 
   35600    821.24841   -117.63325   0.74308282   -116.89017    8278.0474    4.3409722    4.3409722    4.3409722    8278.0474    1541.0147    17354.734    5938.3931   -3496.3006    -274.1466    6952.4999    81.801452 
   35700    810.90161   -117.62617   0.73372082   -116.89245   -9327.4357    4.3478967    4.3478967    4.3478967   -9327.4357    14403.257   -9037.5654   -33347.999    1592.1724   -518.22326   -28623.915    82.193535 
   35800    604.06103   -117.44232   0.54656712   -116.89575   -3485.8042    4.3437409    4.3437409    4.3437409   -3485.8042   -1121.2659    6337.1079   -15673.255    2306.7908    8073.0124   -13933.607    81.958073 
   35900    867.46083    -117.6786   0.78489679   -116.89371   -2586.6922    4.3419951    4.3419951    4.3419951   -2586.6922   -12973.883    7376.6522    -2162.846    5953.0391    3049.6514    8008.4974    81.859295 
   36000    983.23154   -117.78065   0.88964856     -116.891    687.70303    4.3454691    4.3454691    4.3454691    687.70303    7236.8401    5084.9825   -10258.714   -4605.3512    -3904.037   -10416.071    82.055935 
   36100    849.70479   -117.66143   0.76883075    -116.8926    -726.9299    4.3459526    4.3459526    4.3459526    -726.9299    6151.6813    16826.757   -25159.228    180.41749    5203.8185   -13295.482    82.083329 
   36200    594.91272   -117.43424   0.53828953   -116.89595   -4362.9694     4.344572     4.344572     4.344572   -4362.9694   -12783.684    16681.096    -16986.32    1608.5827    3777.6848    5387.1456    82.005126 
   36300    813.81853    -117.6322   0.73636011   -116.89583     7243.859    4.3412955    4.3412955    4.3412955     7243.859    11008.686    19761.144   -9038.2533   -2871.6823    1766.0391    9214.4844     81.81973 
   36400    1203.5974   -117.97968    1.0890402   -116.89064     10244.76      4.34394      4.34394      4.34394     10244.76    13232.551    22076.847   -4575.1178    1833.1494    1136.4845   -7600.6387    81.969344 
   36500    759.14327   -117.58687   0.68688878   -116.89998   -4367.3578    4.3463801    4.3463801    4.3463801   -4367.3578    3992.0514    13746.651   -30840.776   -6880.8977    5589.5265   -3706.0731    82.107554 
   36600    284.35998   -117.16197   0.25729489   -116.90468   -1587.0749    4.3453597    4.3453597    4.3453597   -1587.0749    9576.7648     8896.048   -23234.037    569.27551   -2287.8652    15060.179    82.049739 
   36700    1046.8576   -117.84112   0.94721875    -116.8939    6389.0187    4.3442405    4.3442405    4.3442405    6389.0187    24298.161    7276.4084   -12407.513    2659.3435   -4166.7178    2308.5545    81.986353 
   36800    1192.4845   -117.97036     1.078985   -116.89137   -1704.4879     4.343676     4.343676     4.343676   -1704.4879   -3439.7444    13299.377   -14973.096   -2218.4244    4167.5793    -6105.671    81.954397 
   36900    521.42418   -117.37512   0.47179556   -116.90333   -7821.6459    4.3406558    4.3406558    4.3406558   -7821.6459   -18523.242    19907.957   -24849.653    4290.3406   -1648.3983    9353.0789    81.783568 
   37000    531.92528   -117.38496   0.48129717   -116.90366    5558.6807    4.3440956    4.3440956    4.3440956    5558.6807     21002.48    13932.172    -18258.61   -3944.7532   -2582.4245    11067.499    81.978149 
   37100    1095.3371   -117.88369   0.99108403    -116.8926   -807.19941    4.3481403    4.3481403    4.3481403   -807.19941    10875.138    9723.7709   -23020.507      3314.43   -2719.8068   -6745.0249    82.207349 
   37200    786.29349    -117.6047   0.71145487   -116.89325    10965.476    4.3376554    4.3376554    4.3376554    10965.476    4750.2312    35557.214   -7411.0161       2098.4    3120.2539   -7998.0047     81.61409 
   37300    700.86589   -117.53051   0.63415819   -116.89636    835.17362    4.3456801    4.3456801    4.3456801    835.17362    730.25396    27176.721   -25401.454   -4086.6917    -4268.109    11312.074    82.067886 
   37400    691.45082   -117.51981   0.62563923   -116.89417    2072.5067    4.3490688    4.3490688    4.3490688    2072.5067    21079.355    12020.631   -26882.466    3559.7395   -1030.8057   -5428.5888    82.260024 
   37500    775.10267   -117.59378   0.70132919   -116.89245    12601.259    4.3336782    4.3336782    4.3336782    12601.259    31530.344    18595.379   -12321.946   -6393.0963     3166.991   -24638.866    81.389798 
   37600    820.78237   -117.63856   0.74266114    -116.8959   -3259.1257     4.346348     4.346348     4.346348   -3259.1257   -10091.961    24933.521   -24618.937    2396.4396   -531.04108     3267.895    82.105736 
   37700    721.24336   -117.54656   0.65259615   -116.89397   -11368.191    4.3503645    4.3503645    4.3503645   -11368.191   -14404.694    11692.244   -31392.122    4018.8887    759.71073   -1629.3062    82.333567 
   37800    589.40266   -117.42689   0.53330391   -116.89359    8398.9286    4.3338977    4.3338977    4.3338977    8398.9286    47591.235   -3681.9833   -18712.466   -3422.3376    1841.7725   -26608.359    81.402165 
   37900    824.44925   -117.64026   0.74597901   -116.89428   -13754.714    4.3457094    4.3457094    4.3457094   -13754.714    -2377.183   -6206.7555   -32680.203    1535.8905     1458.118   -4020.5263    82.069547 
   38000    858.68143   -117.66993   0.77695301   -116.89297   -13987.107    4.3482778    4.3482778    4.3482778   -13987.107    -38032.42    14181.626   -18110.528   -4688.6041   -2532.9882     6027.603    82.215151 
   38100    688.08775   -117.51755   0.62259626   -116.89495   -2215.7112    4.3362974    4.3362974    4.3362974   -2215.7112    16978.331    1997.7329   -25623.197    2301.9691   -864.46796   -23201.346    81.537463 
   38200    687.11975    -117.5188   0.62172039   -116.89708   -4609.5362    4.3442991    4.3442991    4.3442991   -4609.5362    26705.847   -5981.0251    -34553.43    5220.5552   -520.08342   -11164.818    81.989671 
   38300    769.80896   -117.59085   0.69653932   -116.89431   -6906.0699    4.3484059    4.3484059    4.3484059   -6906.0699   -19964.767    19778.173   -20531.615   -4703.3738    1098.6106    14873.621    82.222417 
   38400    876.09738    -117.6848   0.79271132   -116.89209    1570.0228    4.3392069    4.3392069    4.3392069    1570.0228    -8396.856    32146.786   -19039.861    4067.1406   -3618.8721   -6564.7304    81.701698 
   38500    726.06229   -117.55141   0.65695642   -116.89445    6732.1663    4.3428476    4.3428476    4.3428476    6732.1663    30399.121     19213.12   -29415.742   -1663.4091   -3173.7056   -11840.286     81.90752 
   38600    653.36624   -117.48725    0.5911795   -116.89607   -2885.3366    4.3483899    4.3483899    4.3483899   -2885.3366    12809.063    7787.7945   -29252.867   -1512.2439    2047.1203    19194.577    82.221509 
   38700    776.90272   -117.59737   0.70295791   -116.89441     6325.228    4.3395351    4.3395351    4.3395351     6325.228    4404.7191    27944.113   -13373.148    4286.2119   -4092.6445    10980.692    81.720235 
   38800    911.66182   -117.71894   0.82489077   -116.89404     5214.953    4.3425466    4.3425466    4.3425466     5214.953   -9745.9867     33790.14   -8399.2946   -3940.6154    1443.6584    -9514.358     81.89049 
   38900     667.3388   -117.50023   0.60382217   -116.89641   -1211.2068    4.3489719    4.3489719    4.3489719   -1211.2068    16606.686     9340.504    -29580.81    1824.2715    1014.5843    16864.166    82.254526 
   39000    562.49558   -117.40618   0.50895782   -116.89722    3491.2619    4.3392346    4.3392346    4.3392346    3491.2619    25939.559    5638.8862    -21104.66   -406.19755    1032.7721    20058.354    81.703261 
   39100    787.46281   -117.60702    0.7125129   -116.89451   -2102.2938     4.341604     4.341604     4.341604   -2102.2938   -20060.516    18163.492   -4409.8573    3052.0687   -2902.2185   -6884.0987    81.837173 
   39200    846.22539   -117.65805   0.76568252   -116.89237   -15843.327    4.3498103    4.3498103    4.3498103   -15843.327   -24410.718    892.14312   -24011.405    11224.739   -2111.4494    8440.7736    82.302109 
   39300    704.80308   -117.53224   0.63772063   -116.89452   -1015.8985    4.3385291    4.3385291    4.3385291   -1015.8985    35527.619   -11396.888   -27178.427   -6656.8005    4502.2597    24610.907    81.663417 
   39400    601.92794   -117.44167   0.54463705   -116.89704   -6587.5296    4.3390349    4.3390349    4.3390349   -6587.5296   -5487.6489   -1960.5109   -12314.429    -505.8395   -6234.4315   -148.39892    81.691979 
   39500    634.42594   -117.47191   0.57404192   -116.89787   -20612.027    4.3511037    4.3511037    4.3511037   -20612.027   -45896.495    10371.511   -26311.098    9820.4752    401.71712   -6161.8043    82.375546 
   39600    982.15282   -117.78103   0.88867251   -116.89235   -1263.1581    4.3406923    4.3406923    4.3406923   -1263.1581   -2918.5999    14314.853   -15185.728   -2623.6361    1335.3403    14878.415    81.785632 
   39700    825.24335   -117.64122   0.74669752   -116.89452    9637.6733    4.3380879    4.3380879    4.3380879    9637.6733    24939.004    16392.137   -12418.122    364.50433   -4421.3961    2784.8987    81.638506 
   39800    270.25648   -117.14788   0.24453375   -116.90335   -14287.586    4.3505536    4.3505536    4.3505536   -14287.586   -36432.975    16764.336   -23194.119    484.77136     1067.791   -15350.011    82.344306 
   39900    672.80833   -117.51011   0.60877111   -116.90134   -3378.2323    4.3423288    4.3423288    4.3423288   -3378.2323   -19556.645     17130.75   -7708.8018    5309.5271    3365.9816   -2336.9714    81.878168 
   40000    1293.1239   -118.06082    1.1700457   -116.89077    11568.251    4.3381491    4.3381491    4.3381491    11568.251    7653.9278    23898.712    3152.1128    4386.4646     1964.193    1202.9668    81.641959 
   40100    578.78466   -117.42747   0.52369652   -116.90377   -4745.2645     4.348943     4.348943     4.348943   -4745.2645   -13222.116    3922.9886   -4936.6661   -6229.8511   -1983.2935    -6668.541    82.252887 
   40200    263.91834    -117.1464   0.23879886    -116.9076   -9507.7987    4.3417504    4.3417504    4.3417504   -9507.7987   -19132.944   -3420.5908   -5969.8614    5595.0686    1893.4229   -10928.717    81.845452 
   40300    874.58809   -117.69063   0.79134568   -116.89929   -1249.0029    4.3434654    4.3434654    4.3434654   -1249.0029    129.21745    3703.1026   -7579.3287    3019.0735    2570.1205    4514.8928     81.94248 
   40400     1003.754   -117.79987   0.90821774   -116.89166   -5257.3119    4.3482097    4.3482097    4.3482097   -5257.3119   -13949.301    5362.4113    -7185.046   -10002.257    -115.0031    13116.044    82.211285 
   40500     547.0746   -117.39156   0.49500459   -116.89655    7290.8585    4.3379025    4.3379025    4.3379025    7290.8585   -2048.8804    24006.515   -85.059231    5153.1783   -1889.5983   -10658.192    81.628037 
   40600     573.6363   -117.41568   0.51903818   -116.89664   -6109.8605    4.3461847    4.3461847    4.3461847   -6109.8605   -10908.611    5154.9489   -12575.919    10886.485   -1034.5446    1257.3563    82.096477 
   40700    828.33243    -117.6413   0.74949259   -116.89181   -4156.5395    4.3467451    4.3467451    4.3467451   -4156.5395    2138.3148    6460.5806   -21068.514   -3798.6786    347.68122    25184.576    82.128243 
   40800     912.8269   -117.71629   0.82594496   -116.89034    6474.8795    4.3383741    4.3383741    4.3383741    6474.8795   -3035.2301    29106.596   -6646.7275    1768.0029   -3540.2112    3689.8622    81.654664 
   40900    749.45964   -117.57033   0.67812683    -116.8922   -1949.2651    4.3475277    4.3475277    4.3475277   -1949.2651   -14204.329    16594.846   -8238.3124    9843.4727   -1512.4734   -3559.0968     82.17261 
   41000    742.77936    -117.5653   0.67208238   -116.89322   -5389.0536    4.3440223    4.3440223    4.3440223   -5389.0536    1267.2069    5081.9846   -22516.352     2403.469   -687.87201    15980.365       81.974 
   41100    855.35644   -117.66697   0.77394449   -116.89302   -1690.4095    4.3420463    4.3420463    4.3420463   -1690.4095    5033.5874    9720.8614   -19825.677   -3174.8248     -295.965    9171.9386    81.862186 
   41200    920.32815   -117.72369   0.83273225   -116.89096   -5242.3353    4.3473387    4.3473387    4.3473387   -5242.3353   -23412.001    21966.695     -14281.7     2229.611   -2823.9892   -6991.5508    82.161892 
   41300    746.01385   -117.56774   0.67500901   -116.89273     1967.143    4.3423726    4.3423726    4.3423726     1967.143    88.577582    18620.702   -12807.851    14636.665    475.15943    9232.6413    81.880644 
   41400    809.92483   -117.62494     0.732837   -116.89211   -263.88348    4.3432236    4.3432236    4.3432236   -263.88348    13905.175    1386.8537   -16083.679   -53.988137    896.97102    19281.165    81.928797 
   41500    830.98717   -117.64408   0.75189466   -116.89219   -2896.6316    4.3456338    4.3456338    4.3456338   -2896.6316   -4723.8289    16006.805   -19972.871   -4269.2814   -2977.0943   -5482.5232    82.065267 
   41600    749.37756   -117.57226   0.67805257   -116.89421   -1790.9867    4.3443241    4.3443241    4.3443241   -1790.9867   -13190.102    8109.9601   -292.81842    19238.525    2752.5734   -1419.3296     81.99109 
   41700     856.1097   -117.66746   0.77462605   -116.89284     1899.408    4.3429519    4.3429519    4.3429519     1899.408    10994.068    -5801.079    505.23516   -1431.8588    423.37802    21743.383    81.913419 
   41800    934.86081   -117.73656   0.84588171   -116.89068   -343.18332    4.3438477    4.3438477    4.3438477   -343.18332    7312.9588    122.97137   -8465.4802   -5299.9592    1749.9584   -2197.2612    81.964117 
   41900    578.17323   -117.41942   0.52314329   -116.89628   -6876.7364    4.3465449    4.3465449    4.3465449   -6876.7364    -21542.72   -2105.6064     3018.117    15915.337    3697.4327   -12241.349    82.116891 
   42000    829.47351   -117.64625   0.75052506   -116.89573    -3049.353    4.3418817    4.3418817    4.3418817    -3049.353   -14566.257    6571.4877   -1153.2902    15562.965   -1557.8038     2232.969    81.852877 
   42100    1162.8049   -117.94337    1.0521303   -116.89124    11081.441    4.3396394    4.3396394    4.3396394    11081.441    11410.728    13256.933    8576.6637   -3745.3955    357.70577    3683.0422    81.726128 
   42200    666.90898   -117.50282   0.60343326   -116.89939   -1036.8322    4.3499185    4.3499185    4.3499185   -1036.8322   -11289.578    9462.4029   -1283.3218   -2886.0903   -376.90822   -8356.6835    82.308248 
   42300    508.17314   -117.36034   0.45980574   -116.90053   -11276.683    4.3474413    4.3474413    4.3474413   -11276.683   -29757.444    4056.7185   -8129.3235    26505.427    244.57012   -10848.958    82.167709 
   42400    1114.5387   -117.90093    1.0084581   -116.89248    17156.044    4.3346251    4.3346251    4.3346251    17156.044    6250.7582    32754.189    12463.185    5973.3042   -3127.0403    4220.2561    81.443161 
   42500    1189.2521   -117.97037    1.0760602   -116.89431    402.81536    4.3490642    4.3490642    4.3490642    402.81536   -5863.4167    8103.5034   -1031.6406   -17320.161    -888.2734   -3646.3252    82.259766 
   42600    591.76567   -117.43776   0.53544202   -116.90232   -19451.126    4.3503038    4.3503038    4.3503038   -19451.126   -26873.858   -22190.804   -9288.7149    14460.293   -840.86737   -12655.564     82.33012 
   42700    698.61237   -117.53103   0.63211915   -116.89891    11137.826    4.3304493    4.3304493    4.3304493    11137.826    9851.6665    15093.931    8467.8818    17479.586   -4707.0274    2403.0368    81.208009 
   42800    1303.3578   -118.07254    1.1793055   -116.89323   -6324.7639    4.3507658    4.3507658    4.3507658   -6324.7639    1703.4112   -804.89944   -19872.803    -3016.594    607.23629    14075.727    82.356353 
   42900    897.09718   -117.70677   0.81171238   -116.89506   -2825.0503    4.3510748    4.3510748    4.3510748   -2825.0503   -18419.955    13617.532    -3672.728    5541.6972   -3135.9817    1369.5611    82.373901 
   43000    712.21713   -117.53713   0.64442903    -116.8927    8058.7955    4.3322552    4.3322552    4.3322552    8058.7955   -2240.3814    19295.219    7121.5486    23596.106   -2626.9977   -12743.397     81.30965 
   43100    869.93578   -117.68307   0.78713618   -116.89594   -4280.8656    4.3466151    4.3466151    4.3466151   -4280.8656    3909.3739    5689.5713   -22441.542    2020.5629      283.557    15333.643    82.120872 
   43200    1086.2335    -117.8751   0.98284691   -116.89225   -1604.0029    4.3470155    4.3470155    4.3470155   -1604.0029    1923.9558     6291.774   -13027.738   -4541.5395    659.24919    16840.023    82.143571 
   43300    1038.3904   -117.83208   0.93955742   -116.89253    1097.3136    4.3405373    4.3405373    4.3405373    1097.3136   -9126.2501    3803.2855    8614.9055    20785.356   -1133.2637    -10925.72    81.776868 
   43400     709.4031   -117.53823   0.64188284   -116.89635   -283.68138    4.3450029    4.3450029    4.3450029   -283.68138   -5415.7296    12004.454   -7439.7686    8116.7324    1358.8234    11969.223     82.02953 
   43500    782.44646   -117.60428     0.707974   -116.89631   -772.10828    4.3453896    4.3453896    4.3453896   -772.10828    15884.171    10800.131   -29000.627   -4445.1759    4293.7721    29681.595     82.05143 
   43600    1011.7587   -117.80814   0.91546057   -116.89268    8061.9271    4.3407528    4.3407528    4.3407528    8061.9271    1548.1592     13741.14    8896.4819    6811.7794   -993.72572    2232.1292    81.789052 
   43700    1018.2965   -117.81535   0.92137609   -116.89397    5483.4249    4.3421953    4.3421953    4.3421953    5483.4249   -15527.378    15930.454    16047.198    16670.407     2140.781    1009.6816    81.870613 
   43800    628.16816    -117.4671   0.56837976   -116.89872   -7171.4358    4.3497482    4.3497482    4.3497482   -7171.4358    3073.7975   -8253.9153   -16334.189    -710.1818   -230.74782    29433.196    82.298583 
   43900    819.02497   -117.63673     0.741071   -116.89566    3765.5382    4.3393467    4.3393467    4.3393467    3765.5382    15927.417   -1165.2355   -3465.5672   -5991.6302   -697.52202    10307.015    81.709595 
   44000    1176.2264   -117.95575    1.0642744   -116.89148    4813.2307    4.3429877    4.3429877    4.3429877    4813.2307   -9471.7675    13389.475    10521.984    12349.749    1708.0248    -19609.96    81.915444 
   44100    907.26055    -117.7148   0.82090841   -116.89389   -6128.5872    4.3496208    4.3496208    4.3496208   -6128.5872   -10322.024    3167.9142   -11231.652    1694.7362   -1610.9787    23308.519     82.29135 
   44200    652.88788   -117.48766   0.59074667   -116.89691    676.35207    4.3384823    4.3384823    4.3384823    676.35207    18140.662    7359.7821   -23471.388    -6192.423    1642.0518    25962.205    81.660775 
   44300     959.2554    -117.7641   0.86795445   -116.89615   -1341.8444    4.3432869    4.3432869    4.3432869   -1341.8444    3907.6885   -4293.2564   -3639.9654    5122.6134    648.31696   -20848.896    81.932376 
   44400    1138.1545   -117.92068    1.0298261   -116.89086    1337.9281    4.3469136    4.3469136    4.3469136    1337.9281   -8693.8846   -663.35354    13371.022    4186.1397    414.33701    1536.7871    82.137791 
   44500    679.58644   -117.51046   0.61490409   -116.89556    1663.3986    4.3451607    4.3451607    4.3451607    1663.3986    6737.8964   -3615.6099    1867.9092   -2142.0971    2316.4189    31798.736    82.038463 
   44600    687.67091   -117.51753   0.62221909   -116.89531   -3405.4097    4.3423322    4.3423322    4.3423322   -3405.4097    12064.126   -16839.073   -5441.2822    -2066.777    5790.5714   -11184.039    81.878357 
   44700    1042.4877   -117.83557   0.94326475    -116.8923    3368.3178    4.3424519    4.3424519    4.3424519    3368.3178    7760.2598    5740.6634   -3395.9699    356.10124    206.77493   -29483.546    81.885133 
   44800    1080.6987   -117.87027   0.97783887   -116.89243   -3039.6727     4.345374     4.345374     4.345374   -3039.6727    4775.5451   -1306.8531    -12587.71   -1300.7094    93.172576    28658.802    82.050549 
   44900    685.98998   -117.51779   0.62069815   -116.89709    -2472.022    4.3432625    4.3432625    4.3432625    -2472.022    18029.406   -2020.0657   -23425.407   -6448.3625   -1040.7466    12904.446    81.930997 
   45000    801.03995   -117.62181   0.72479778   -116.89702    -786.3456    4.3423128    4.3423128    4.3423128    -786.3456    15844.756     -5572.01   -12631.783    4094.7273   -878.61968   -36908.323     81.87726 
   45100    1128.6273   -117.91255    1.0212057   -116.89134    8538.1647    4.3421291    4.3421291    4.3421291    8538.1647    9733.2557    8146.1465     7735.092    2072.9284    1414.2966    2372.3374    81.866874 
   45200    833.13897   -117.64745   0.75384165    -116.8936    2573.9531    4.3490266    4.3490266    4.3490266    2573.9531    5668.3551    -3187.937    5241.4412   -5555.5451   -4712.7112    22122.651    82.257629 
   45300    653.44696   -117.48814   0.59125254   -116.89688   -1511.9686    4.3406568    4.3406568    4.3406568   -1511.9686      24080.6    -11236.54   -17379.966   -1270.0757     2916.046   -25370.281    81.783622 
   45400    891.93738   -117.70144   0.80704368    -116.8944    10949.999    4.3365949    4.3365949    4.3365949    10949.999    18371.776    17582.203   -3103.9816    1895.9552   -1724.5696   -25573.343    81.554242 
   45500    1102.4084   -117.88916   0.99748225   -116.89168   -8637.0229     4.352484     4.352484     4.352484   -8637.0229     -12750.2   -128.87821    -13031.99    4849.9315    -3118.837    13155.513    82.453966 
   45600    715.63857   -117.54296   0.64752482   -116.89543    1660.7538    4.3438127    4.3438127    4.3438127    1660.7538    17706.813    3955.3553   -16679.907   -7528.6493    163.91618     1187.018    81.962139 
   45700    827.93695   -117.64116   0.74913475   -116.89203    2389.0758    4.3355343    4.3355343    4.3355343    2389.0758    23354.895    347.82279   -16535.491   -2120.7397   -2495.6655   -23889.123    81.494423 
   45800    971.25106   -117.77061   0.87880837    -116.8918   -4885.4783    4.3493307    4.3493307    4.3493307   -4885.4783   -14909.823    8475.3359   -8221.9482    16063.098    383.63434   -775.41167    82.274889 
   45900    943.20865   -117.74575   0.85343501   -116.89232   -2605.5206    4.3441748    4.3441748    4.3441748   -2605.5206   -4204.0741    7877.2524    -11489.74   -253.06289    -6586.941    5304.6342    81.982637 
   46000    701.54702   -117.52838   0.63477448   -116.89361    6714.0741    4.3383461    4.3383461    4.3383461    6714.0741    25305.788    4267.8673   -9431.4334   -4918.4212    3108.2394   -23060.118    81.653085 
   46100    803.59544    -117.6216   0.72711004   -116.89449   -7840.9417    4.3470334    4.3470334    4.3470334   -7840.9417   -6000.1008   -718.94674   -16803.777    15515.169    2383.6601   -11771.498    82.144584 
   46200    881.58003   -117.68972   0.79767214   -116.89205    4914.1318    4.3414713    4.3414713    4.3414713    4914.1318   -14316.688    21933.609    7125.4752    18744.028   -9370.9497    4198.7676    81.829672 
   46300    912.72888   -117.71789   0.82585627   -116.89203    2595.3951    4.3419878    4.3419878    4.3419878    2595.3951    8828.0069    10048.907   -11090.729   -5007.2132   -562.71495   -19656.386    81.858881 
   46400    683.25665   -117.51406   0.61822498   -116.89583   -7727.9588    4.3464196    4.3464196    4.3464196   -7727.9588    3379.7673   -15027.522   -11536.122    93.315807    750.47706   -21264.412     82.10979 
   46500    663.17254    -117.4948   0.60005245   -116.89475    1754.3223    4.3404615    4.3404615    4.3404615    1754.3223   -13363.765    2855.6723     15771.06    30888.807   -220.44295    4001.2777    81.772586 
   46600    1029.2243   -117.82246   0.93126382    -116.8912   -4556.2797    4.3453429    4.3453429    4.3453429   -4556.2797   -10150.693    3756.0154   -7274.1614    7708.6903   -3893.3842    2646.9651    82.048783 
   46700    964.08038   -117.76516   0.87232019   -116.89284    1236.7707    4.3433358    4.3433358    4.3433358    1236.7707    8183.3948    1600.1867   -6073.2692   -8226.2472      807.701    -14394.99    81.935142 
   46800     617.3787   -117.45636   0.55861722   -116.89774    718.00863    4.3387868    4.3387868    4.3387868    718.00863   -4499.5683   -4019.7583    10673.353    28811.928    2482.1299   -5878.5253     81.67797 
   46900    593.96505   -117.43663   0.53743206    -116.8992   -6573.2435    4.3490739    4.3490739    4.3490739   -6573.2435   -22542.025    1678.6114    1143.6828    11165.878   -7687.2609    13905.457    82.260312 
   47000    1133.4807   -117.91583    1.0255971   -116.89023    720.79126    4.3420192    4.3420192    4.3420192    720.79126    1058.7058     8139.669    -7036.001   -17176.278    338.12719   -5843.3775    81.860655 
   47100    921.48902    -117.7262   0.83378263   -116.89242    8523.4705    4.3381734    4.3381734    4.3381734    8523.4705    2851.6441    6355.3118    16363.456     19301.58   -368.15831   -8116.3214    81.643333 
   47200    557.88683   -117.40384   0.50478773   -116.89906   -14160.893     4.349224     4.349224     4.349224   -14160.893   -28289.764    -25662.14    11469.224    25813.631   -196.97977    4653.9053    82.268829 
   47300    695.99823   -117.52656   0.62975382    -116.8968    2824.8677     4.339518     4.339518     4.339518    2824.8677   -8090.5706    5930.7353    10634.438   -18522.838    -8539.092    7499.5879    81.719269 
   47400     1033.309   -117.82659   0.93495966   -116.89163     106.4008    4.3433722    4.3433722    4.3433722     106.4008   -6410.0385   -3213.4773    9942.7182   -3895.7406   -4461.9322    3313.2445    81.937205 
   47500    859.26068   -117.66923   0.77747712   -116.89175   -1632.7247    4.3480244    4.3480244    4.3480244   -1632.7247   -18933.922   -13264.501    27300.249    32665.409    3520.1197   -4058.1322    82.200779 
   47600    627.56168    -117.4613     0.567831   -116.89347    1834.5138    4.3373764    4.3373764    4.3373764    1834.5138   -10405.919    -259.1917    16168.652   -6448.7293   -7337.1877    11759.609    81.598344 
   47700    530.26868   -117.37813   0.47979825   -116.89833   -4956.6945    4.3473858    4.3473858    4.3473858   -4956.6945    -17382.48   -3701.5866    6213.9834   -25440.253   -3375.2278     11807.33    82.164562 
   47800     1056.914   -117.84785   0.95631802   -116.89154    1326.1834    4.3443612    4.3443612    4.3443612    1326.1834   -14451.229    4618.8702    13810.909    11978.553    -3666.926   -5003.9442    81.993191 
   47900    960.02276   -117.76166   0.86864877   -116.89301    9018.6951    4.3388028    4.3388028    4.3388028    9018.6951   -6758.4357    9122.8405     24691.68    5293.6652    3667.8304    3608.1576    81.678872 
   48000    311.61171   -117.18508   0.28195283   -116.90312   -13546.802    4.3479895    4.3479895    4.3479895   -13546.802   -21419.786   -15261.599   -3959.0204   -27876.703   -3228.7872    13343.309    82.198795 
   48100    693.57329   -117.52648   0.62755969   -116.89892   -2826.1692    4.3415094    4.3415094    4.3415094   -2826.1692   -5213.9297    5577.8021   -8842.3799   -11456.421   -2837.0411     7503.326    81.831826 
   48200    1255.0066   -118.02657    1.1355563   -116.89101    6774.9513    4.3446844    4.3446844    4.3446844    6774.9513   -7469.6183    9173.4826     18620.99    9472.1563    4879.4247   -6032.2885     82.01149 
   48300    744.29317   -117.57269    0.6734521   -116.89924   -4574.1295    4.3468578    4.3468578    4.3468578   -4574.1295   -17952.171   -1165.6246    5395.4073   -20588.695   -1162.5021    5013.6465     82.13463 
   48400    389.01386   -117.25243   0.35198791   -116.90044   -3523.1403    4.3410664    4.3410664    4.3410664   -3523.1403   -1517.2505   -3813.1314   -5239.0392   -20506.328   -4233.0151     14365.73    81.806778 
   48500    946.03338   -117.75007   0.85599089   -116.89408   -4876.4351     4.346725     4.346725     4.346725   -4876.4351   -3257.3455   -6031.8366   -5340.1232     9747.506   -4557.6343   -8005.8249    82.127104 
   48600    1042.9585   -117.83496   0.94369076   -116.89127    8157.7536    4.3392594    4.3392594    4.3392594    8157.7536    1394.0182    5447.0538    17632.189   -3212.7423    4360.2998   -4560.7814    81.704662 
   48700    566.59889   -117.41225   0.51267058   -116.89958    615.16315    4.3438014    4.3438014    4.3438014    615.16315    12007.349   -17056.256    6894.3971   -17750.973   -3221.8642    20070.517    81.961496 
   48800    576.90283   -117.41981    0.5219938   -116.89781   -5597.2314    4.3483834    4.3483834    4.3483834   -5597.2314    7073.2949   -19614.405   -4250.5847   -1794.3867   -8291.3152    9177.5566    82.221136 
   48900    921.64684   -117.72334   0.83392543   -116.88941    10614.408    4.3380094    4.3380094    4.3380094    10614.408    6678.8505    7603.6327     17560.74    17857.762   -145.69257   -8187.4333    81.634072 
   49000    705.69764   -117.53261   0.63853006   -116.89408   -814.23141    4.3465768    4.3465768    4.3465768   -814.23141   -12777.268   -16707.767    27042.341    855.71266     270.7326    6974.3316    82.118704 
   49100    617.71231   -117.45336   0.55891908   -116.89444    2313.7547    4.3438838    4.3438838    4.3438838    2313.7547    16921.799   -8048.4915   -1932.0439   -20893.116    1819.8746    18125.602     81.96616 
   49200    765.24427   -117.58454    0.6924091   -116.89213    3179.0055    4.3388691    4.3388691    4.3388691    3179.0055   -2020.5743    3970.7875    7586.8035    16407.686   -7695.7693    1576.5071    81.682619 
   49300    756.84628   -117.57807   0.68481042   -116.89326   -10186.583    4.3472393    4.3472393    4.3472393   -10186.583    -28255.19   -16199.492    13894.933      24665.1     5086.262   -11287.284    82.156257 
   49400    738.18386   -117.56151   0.66792427   -116.89359   -1071.9135    4.3405585    4.3405585    4.3405585   -1071.9135   -879.68907   -3138.2623    802.21092     -15235.5    7073.4749    12956.464    81.778069 
   49500    662.23028   -117.49403   0.59919988   -116.89483   -781.27418    4.3434138    4.3434138    4.3434138   -781.27418    11300.582    -12237.71   -1406.6946   -7471.5236   -1032.5765    17208.504     81.93956 
   49600    768.00033   -117.58823   0.69490284   -116.89333   -13170.762    4.3464261    4.3464261    4.3464261   -13170.762   -26377.744   -22557.335    9422.7919    25112.382    4005.2519   -5583.6702    82.110162 
   49700    774.28451   -117.59248    0.7005889   -116.89189    2741.1957    4.3370066    4.3370066    4.3370066    2741.1957    38.975969    2156.8529    6027.7584    14891.127    1467.6614   -4799.3626    81.577475 
   49800    702.37878   -117.53047   0.63552708   -116.89494   -2876.2726    4.3449833    4.3449833    4.3449833   -2876.2726    9252.3584   -15349.315    -2531.861   -17678.315    5442.9683    12450.241     82.02842 
   49900      594.008   -117.43443   0.53747092   -116.89696    910.18834    4.3428478    4.3428478    4.3428478    910.18834    -4329.274   -10462.321     17522.16    5732.7309   -5750.0907    7689.3417     81.90753 
   50000    733.94699   -117.55788   0.66409066   -116.89379    6959.7984     4.341531     4.341531     4.341531    6959.7984   -1489.4245    10281.269     12087.55    27624.449    -6377.556   -11934.678    81.833047 
   50100    864.39683    -117.6736   0.78212442   -116.89148   -4761.6219    4.3471111    4.3471111    4.3471111   -4761.6219   -1434.5525   -10641.921   -2208.3923   -6795.3361    4026.9414   -2657.7591    82.148987 
   50200    663.46681   -117.49334   0.60031871   -116.89302    15852.921    4.3364567    4.3364567    4.3364567    15852.921     10101.58    9861.7298    27595.453    -8974.175   -1238.1152    13441.383    81.546449 
   50300    628.06648   -117.46437   0.56828775   -116.89609   -4108.6163    4.3462194    4.3462194    4.3462194   -4108.6163   -19065.459   -5367.1953    12106.806    16443.821   -1211.9636    1220.5982    82.098448 
   50400    730.71483   -117.55592   0.66116613   -116.89475   -5754.8818    4.3446801    4.3446801    4.3446801   -5754.8818   -15336.096   -9136.2694    7207.7204    10671.571   -6166.6929   -15666.688    82.011247 
   50500    871.04344    -117.6799   0.78813841   -116.89176    12851.114    4.3345649    4.3345649    4.3345649    12851.114    9339.4529    5550.9162    23662.974   -8035.9423    1363.3269   -2080.1108    81.439771 
   50600    744.32341   -117.56777   0.67347946   -116.89429   -6519.6345    4.3507541    4.3507541    4.3507541   -6519.6345   -6612.0108   -20816.098    7869.2056    101.19726    1678.6095    15273.954    82.355688 
   50700    578.57905   -117.41998   0.52351048   -116.89647   -1976.2592    4.3400689    4.3400689    4.3400689   -1976.2592   -12022.808   -11424.573    17518.603    16343.341   -10205.131   -11163.954    81.750396 
   50800    598.32372   -117.43809   0.54137588   -116.89672    6293.5139    4.3386906    4.3386906    4.3386906    6293.5139    9927.8287    5510.5449     3442.168    3545.6316    -544.9761    -26003.99    81.672538 
   50900    1021.7701   -117.81347   0.92451904   -116.88895   -10992.362    4.3515202    4.3515202    4.3515202   -10992.362   -14836.763    -6037.154   -12103.168   -6437.5744   -1728.4433    7745.4247    82.399204 
   51000    652.44114   -117.48364   0.59034245   -116.89329    11362.368    4.3361416    4.3361416    4.3361416    11362.368    5011.1511    11138.676    17937.276     16207.54   -2014.6766    6153.0305    81.528674 
   51100    340.65609   -117.21056   0.30823278   -116.90232   -10152.035    4.3403801    4.3403801    4.3403801   -10152.035   -5893.6889   -15237.882   -9324.5352    12404.349   -4648.1588   -32626.665    81.767986 
   51200    801.65888   -117.62326    0.7253578    -116.8979   -7731.5932    4.3459739    4.3459739    4.3459739   -7731.5932   -7243.9321    1594.7183   -17545.566   -5880.0137   -6005.6263    -17908.03    82.084534 
   51300    1194.0307   -117.97197    1.0803841   -116.89159    242.14173    4.3420923    4.3420923    4.3420923    242.14173   -14958.759    6601.3425    9083.8419    10566.135    6596.5196    13219.921    81.864788 
   51400    357.52327   -117.22893   0.32349457   -116.90543   -4643.5029    4.3408041    4.3408041    4.3408041   -4643.5029    10343.066   -20606.198   -3667.3769    13326.413   -3068.8214   -25147.402     81.79195 
   51500    380.64199   -117.25029   0.34441287   -116.90587   -7320.1274    4.3399495    4.3399495    4.3399495   -7320.1274   -3699.7257   -6979.7685   -11280.888    603.33534   -6488.9199   -32924.016    81.743648 
   51600    1023.9556   -117.82258   0.92649657   -116.89608   -2534.8602    4.3506147    4.3506147    4.3506147   -2534.8602   -21403.012    11631.298    2167.1332   -6587.8527   -2891.4948    11685.415    82.347776 
   51700    955.63254   -117.76057    0.8646764   -116.89589    7905.4871    4.3362241    4.3362241    4.3362241    7905.4871    1965.4442    12420.055    9330.9618    494.58534   -208.44861   -8867.1729    81.533324 
   51800    358.83998   -117.22807   0.32468595   -116.90338    4840.3283    4.3370485    4.3370485    4.3370485    4840.3283    20570.958   -1183.2191   -4866.7543    11508.852   -4144.5456   -38519.248    81.579836 
   51900    618.26301   -117.45701   0.55941736   -116.89759   -18139.896    4.3537714    4.3537714    4.3537714   -18139.896   -29231.204   -22019.907   -3168.5772   -9357.4803   -12362.333    815.12475    82.527151 
   52000    910.64918    -117.7144   0.82397452   -116.89043    7908.3607    4.3331722    4.3331722    4.3331722    7908.3607     -6599.66    13223.329    17101.413   -11095.208    2286.0766    8290.6562    81.361295 
   52100    756.75819    -117.5804   0.68473071   -116.89567   -3814.7419    4.3402032    4.3402032    4.3402032   -3814.7419    9618.9331   -12187.412   -8875.7469    4296.8877    816.14263   -30159.679    81.757984 
   52200    595.33426   -117.43225   0.53867095   -116.89357   -13794.034    4.3520257    4.3520257    4.3520257   -13794.034   -2092.8818   -27395.588   -11893.634    231.25317   -8241.7568   -17583.675    82.427922 
   52300    685.46341   -117.51145   0.62022169   -116.89122    3923.7589    4.3334581    4.3334581    4.3334581    3923.7589   -17543.781    5289.8771    24025.181   -8799.0407   -3262.6028    13228.381    81.377401 
   52400    664.80319   -117.49578   0.60152789   -116.89425   -6388.5781    4.3430953    4.3430953    4.3430953   -6388.5781   -3505.1608    -10241.82   -5418.7532   -9053.1149     1913.528   -6101.5453    81.921535 
   52500    784.70561   -117.60287   0.71001812   -116.89285   -4726.6139    4.3460504    4.3460504    4.3460504   -4726.6139    3369.1781   -13436.592    -4112.428    6547.3351    6548.6058    -27154.32     82.08887 
   52600    661.19798   -117.49246   0.59826583    -116.8942    11573.566    4.3364597    4.3364597    4.3364597    11573.566   -3684.2509    3285.1617    35119.787   -104.98799   -3747.4241    2950.5939    81.546615 
   52700    611.54323   -117.44985   0.55333717   -116.89651   -7393.4058    4.3455646    4.3455646    4.3455646   -7393.4058   -14186.383   -21130.618    13136.783   -10379.054   -4910.0313    11915.869    82.061347 
   52800    679.40364   -117.50883   0.61473869   -116.89409    5024.5326    4.3409814    4.3409814    4.3409814    5024.5326    12081.248   -6308.9021    9301.2518    1039.0709    5296.9515   -7760.1765    81.801973 
   52900    812.78898   -117.62791   0.73542855   -116.89248    2627.1976    4.3415265    4.3415265    4.3415265    2627.1976   -6338.3164    26.821102    14193.088    7004.1455    3788.1853   -10665.947    81.832789 
   53000    625.87386   -117.45984   0.56630382   -116.89353   -4003.4465    4.3454608    4.3454608    4.3454608   -4003.4465   -15928.387   -23286.005    27204.052   -3601.4363   -2355.4005    2747.4218    82.055466 
   53100     718.0566   -117.54231    0.6497127    -116.8926   -1261.4702    4.3387312    4.3387312    4.3387312   -1261.4702    1120.6687   -13883.063    8977.9837   -7180.0482    2016.9234    20426.777    81.674828 
   53200    791.00471   -117.60901   0.71571769   -116.89329    -5620.474    4.3440102    4.3440102    4.3440102    -5620.474   -6947.1597    343.25338   -10257.516    6198.7254    6702.8113    -5073.486    81.973318 
   53300    717.71739    -117.5435   0.64940578    -116.8941   -6380.1262    4.3433543    4.3433543    4.3433543   -6380.1262   -31296.723   -3955.8843    16112.228    1858.3817     3753.783   -9699.7757    81.936194 
   53400    482.13915   -117.33362   0.43624964   -116.89737    2098.3536    4.3401222    4.3401222    4.3401222    2098.3536   -7756.0048   -11503.432    25554.497   -8464.6719   -6479.3098     21509.88    81.753407 
   53500    814.89239   -117.63187   0.73733176   -116.89454   -9001.5953    4.3459615    4.3459615    4.3459615   -9001.5953   -8398.5905   -10763.105   -7843.0905   -3437.6179    2437.2852        13198    82.083833 
   53600    943.65071   -117.74417   0.85383499   -116.89034    4236.0269     4.340947     4.340947     4.340947    4236.0269   -22285.043    17095.451    17897.673    3952.2743    8541.3673    -3014.579    81.800029 
   53700    554.79614   -117.40003   0.50199121   -116.89804   -2217.0788    4.3425311    4.3425311    4.3425311   -2217.0788   -25135.017    -7150.988    25634.769   -4690.4338   -395.20166    2700.7803    81.889612 
   53800    430.08069   -117.29011   0.38914605   -116.90096   -7608.3318    4.3463492    4.3463492    4.3463492   -7608.3318    -1266.073   -24065.096    2506.1733   -8342.0918   -777.90353    29017.915    82.105804 
   53900    1085.4752   -117.87362   0.98216073   -116.89145    4192.0895    4.3423864    4.3423864    4.3423864    4192.0895   -3688.5523    11645.266    4619.5544    6299.0381    2649.3333     6742.461    81.881424 
   54000    1028.3338   -117.82182   0.93045805   -116.89136   -8075.8646    4.3477497    4.3477497    4.3477497   -8075.8646   -27140.035   -783.44794    3695.8887   -5814.9408    7306.6817    -9325.931    82.185199 
   54100     409.5374   -117.26917   0.37055805   -116.89861   -5254.7792    4.3414505    4.3414505    4.3414505   -5254.7792   -7163.5876   -17280.312    8679.5619   -10499.546   -1230.4127    30806.891    81.828496 
   54200    763.97035   -117.59024   0.69125643   -116.89899   -773.17311    4.3415545    4.3415545    4.3415545   -773.17311    2439.3233    1498.2565   -6257.0991    259.02465   -5057.0918    13391.595    81.834377 
   54300     1158.847   -117.93926    1.0485491   -116.89071   -2413.1091    4.3472952    4.3472952    4.3472952   -2413.1091    -14438.29    9562.1896   -2363.2271   -3964.3246     1247.411   -17771.261    82.159424 
   54400    835.13882    -117.6511   0.75565116   -116.89545    6654.1399    4.3360744    4.3360744    4.3360744    6654.1399   -3268.8939    2094.6115    21136.702   -3780.5969    120.56725    10872.493    81.524881 
   54500    509.98444   -117.36353   0.46144464   -116.90209   -2516.1732    4.3453876    4.3453876    4.3453876   -2516.1732    -4347.534   -7182.4943    3981.5086   -2098.6088   -5449.0893    29676.861    82.051316 
   54600    892.54823   -117.70131   0.80759639   -116.89371   -316.25808    4.3473502    4.3473502    4.3473502   -316.25808   -3149.1415    9715.5171   -7515.1499    1646.5828   -13439.886   -9232.3742    82.162541 
   54700    1066.8416   -117.85294   0.96530074   -116.88764    10280.896     4.337705     4.337705     4.337705    10280.896    5883.8534    5234.8083    19724.027   -580.61692   -201.33426   -19070.087    81.616887 
   54800    727.94658   -117.55246   0.65866137    -116.8938   -8036.0175    4.3451508    4.3451508    4.3451508   -8036.0175   -2478.1478   -6800.4379   -14829.467   -8317.5409   -2103.3253    31801.213    82.037903 
   54900    621.45097   -117.45846   0.56230189   -116.89615    812.81125    4.3409398    4.3409398    4.3409398    812.81125    3260.3751     11679.42   -12501.362    3925.0104   -16226.791    13749.391    81.799619 
   55000     930.9576   -117.73618      0.84235   -116.89383    5648.3407    4.3419409    4.3419409    4.3419409    5648.3407    5033.5633   -2693.1263    14604.585    3822.9426   -266.42167   -27754.753    81.856225 
   55100    985.52669   -117.78441   0.89172526   -116.89269   -476.98518    4.3434206    4.3434206    4.3434206   -476.98518    10411.572   -5841.1282   -6001.3992   -813.43395    4820.2501    11950.801    81.939944 
   55200    608.54658   -117.44674   0.55062574   -116.89611    2143.5166    4.3429902    4.3429902    4.3429902    2143.5166    4446.0888   -1420.5849     3405.046   -642.93952   -2417.6559    25085.422    81.915587 
   55300    683.50632   -117.51308   0.61845088   -116.89463   -7789.5419    4.3463149    4.3463149    4.3463149   -7789.5419   -7430.4928   -16924.065     985.9323   -3645.7457   -10183.811   -12380.467    82.103857 
   55400    868.65997   -117.67718   0.78598179   -116.89119    13723.714    4.3336175    4.3336175    4.3336175    13723.714    24947.499   -4276.2512    20499.893    6282.2809   -1213.2666   -8768.5452    81.386381 
   55500    844.54247   -117.65803   0.76415977   -116.89387    -3113.925    4.3470184    4.3470184    4.3470184    -3113.925    9277.6182   -14924.061   -3695.3327    2380.1586    7482.8181    20823.558    82.143735 
   55600    671.71186   -117.50117     0.607779   -116.89339   -13724.128    4.3501166    4.3501166    4.3501166   -13724.128   -17504.866   -9771.9823   -13895.537   -5016.7001   -15838.379    7232.3592    82.319494 
   55700    592.70905   -117.42801   0.53629561   -116.89171    13902.723    4.3288215    4.3288215    4.3288215    13902.723    12067.243    12483.555    17157.373    2447.4006   -13072.541   -18567.617    81.116467 
   55800     872.5605   -117.68382   0.78951108   -116.89431   -9019.4004    4.3472018    4.3472018    4.3472018   -9019.4004   -2562.1457   -17759.304   -6736.7516    5859.2692    3580.1492    12266.471    82.154128 
   55900    965.07364   -117.76262   0.87321891    -116.8894   -7325.3701    4.3502748    4.3502748    4.3502748   -7325.3701   -6377.6929   -1061.1018   -14537.316    -2259.164   -6833.6776    15662.569    82.328477 
   56000    578.15286   -117.41561   0.52312486   -116.89248    2564.0251    4.3362858    4.3362858    4.3362858    2564.0251   -16677.515    16889.935    7479.6552   -10610.889   -14775.611   -13233.672    81.536803 
   56100    515.76603   -117.36315   0.46667594   -116.89648   -7116.3766    4.3453711    4.3453711    4.3453711   -7116.3766   -17400.071   -17989.736    14040.677    6192.3651   -7558.4142   -5992.3664    82.050382 
   56200    1036.9659   -117.82786   0.93826858   -116.88959    156.74306    4.3457998    4.3457998    4.3457998    156.74306    1625.4607   -8469.7716      7314.54    6940.3092    5904.3608    3929.5182    82.074669 
   56300    822.24388   -117.63604   0.74398354   -116.89206   -1430.9012    4.3448827    4.3448827    4.3448827   -1430.9012   -7409.7948   -3574.6131    6691.7042   -13124.593     -1903.37    1311.0715    82.022722 
   56400    330.10302   -117.19785   0.29868415   -116.89917   -8632.2197    4.3447255    4.3447255    4.3447255   -8632.2197     -9550.24   -23708.515    7362.0965   -2502.5815   -11390.173   -13800.427    82.013816 
   56500    709.13671   -117.53733    0.6416418   -116.89568    7913.5221    4.3413207    4.3413207    4.3413207    7913.5221    17432.089   -8105.5802    14414.057     11573.33    6698.4861   -3027.3141    81.821155 
   56600    1014.2948   -117.80728   0.91775525   -116.88952   -4243.0163    4.3494858    4.3494858    4.3494858   -4243.0163    270.74317   -4557.9258   -8441.8663   -4515.8652    14221.278    10714.727     82.28369 
   56700    541.34766   -117.38503   0.48982274    -116.8952   -5488.0752    4.3436976    4.3436976    4.3436976   -5488.0752   -4247.5661   -17132.968    4916.3088   -13327.091   -2828.2363    -11414.55    81.955624 
   56800    600.69877    -117.4389   0.54352487   -116.89538    6205.0799    4.3380506    4.3380506    4.3380506    6205.0799    7494.1287   -1692.9527    12814.064    5190.1201   -7982.5444   -10254.624      81.6364 
   56900    1021.9119   -117.81298   0.92464738   -116.88834   -6263.9964    4.3524189    4.3524189    4.3524189   -6263.9964    -15700.13    2429.2836   -5521.1426    7929.0436    14098.132   -1475.8747    82.450267 
   57000    919.45522   -117.72272   0.83194241   -116.89078   -1616.9634    4.3408211    4.3408211    4.3408211   -1616.9634   -12467.324    8521.7951   -905.36107   -10606.583    10670.334   -219.88217    81.792911 
   57100    772.29774   -117.59241   0.69879123   -116.89362    4753.1904    4.3358035    4.3358035    4.3358035    4753.1904   -39.770463    3536.1107    10763.231   -7527.8498   -15029.464   -11517.143    81.509602 
   57200    805.28091   -117.62011   0.72863509   -116.89148   -12048.896    4.3543127    4.3543127    4.3543127   -12048.896   -24380.005   -8980.3585   -2786.3248    8219.8211    4966.1175   -8860.1271    82.557941 
   57300    966.16618   -117.76384   0.87420746   -116.88964    3217.1092     4.339016     4.339016     4.339016    3217.1092   -10515.617    15498.545    4668.3999   -908.15455    25011.888    13350.835    81.690912 
   57400    913.71167   -117.71612   0.82674552   -116.88937    8194.3092      4.33712      4.33712      4.33712    8194.3092    12502.515    3604.9993    8475.4135   -7463.5172   -3386.5694    -8781.686    81.583874 
   57500    800.75226   -117.61538   0.72453747   -116.89084   -11472.741    4.3516438    4.3516438    4.3516438   -11472.741   -7764.3732   -21964.991   -4688.8595   -2521.7194    -6902.043   -13661.548    82.406227 
   57600     697.0085     -117.524   0.63066794   -116.89333    11053.966    4.3366827    4.3366827    4.3366827    11053.966    8334.8009    13010.911    11816.185    5013.5127    28103.235     11779.22    81.559198 
   57700    950.94885   -117.75286    0.8604385   -116.89243    2230.5342    4.3420153    4.3420153    4.3420153    2230.5342     8612.855    855.70567    -2776.958    2715.1034     16300.05   -2917.7533    81.860435 
   57800    996.53616   -117.79142   0.90168686   -116.88973    255.18205    4.3475827    4.3475827    4.3475827    255.18205    6299.7861   -15554.764    10020.524   -6889.3366   -9226.2202    -15399.29    82.175725 
   57900    725.85291   -117.54959   0.65676697   -116.89282    5589.3281    4.3386458    4.3386458    4.3386458    5589.3281    52.631802    11520.386    5194.9667    594.96735    15675.424   -1705.9413    81.670006 
   58000    745.38995   -117.56746   0.67444449   -116.89301   -8468.3959    4.3479508    4.3479508    4.3479508   -8468.3959   -24536.516     2719.781   -3588.4527    5138.8349    28814.548    9121.7161      82.1966 
   58100     1110.195   -117.89376    1.0045278   -116.88924    2734.1646    4.3389292    4.3389292    4.3389292    2734.1646      6139.09    -7144.345    9207.7489    1437.8373   -5412.4815   -9233.6345    81.686011 
   58200    1002.7054    -117.8006   0.90726891   -116.89333    9532.6833    4.3361725    4.3361725    4.3361725    9532.6833    4477.2593    3353.0594    20767.731   -1562.1423   -1348.5309   -19100.181    81.530414 
   58300    628.54216   -117.46675   0.56871815   -116.89803   -14621.961    4.3510829    4.3510829    4.3510829   -14621.961   -43521.496    5697.6536   -6042.0422    938.25545    32800.768    9775.6477    82.374364 
   58400    852.37781   -117.66482   0.77124936   -116.89357    -974.6472    4.3384683    4.3384683    4.3384683    -974.6472   -9864.2241    232.56046     6707.722    9495.4985    8914.8265   -4004.4395    81.659983 
   58500    1028.2277   -117.81956   0.93036203    -116.8892    5441.8953    4.3404584    4.3404584    4.3404584    5441.8953    14634.079   -6946.8971    8638.5043   -1529.3068   -9131.4271   -20294.584    81.772409 
   58600    789.37124   -117.60571   0.71423968   -116.89147   -12472.443    4.3492004    4.3492004    4.3492004   -12472.443   -28075.924   -827.04119   -8514.3648   -7729.2798    19977.122    3039.0368    82.267493 
   58700    584.03859   -117.42234   0.52845039   -116.89389    278.20743    4.3359823    4.3359823    4.3359823    278.20743   -8215.4628     14308.69   -5258.6051    3297.9963    21595.583     4619.756    81.519685 
   58800    836.67797   -117.65052   0.75704381   -116.89348   -2271.6166    4.3397041    4.3397041    4.3397041   -2271.6166    20194.052   -13373.037   -13635.865    5646.5724   -4915.3459   -2335.6542    81.729782 
   58900    800.08267   -117.61661   0.72393162   -116.89268   -1121.4323    4.3474362    4.3474362    4.3474362   -1121.4323    3532.3076   -3964.5766   -2932.0278   -4123.6461   -139.31971   -11439.318     82.16742 
   59000    637.51178   -117.47055   0.57683406   -116.89371    2691.5822    4.3391029    4.3391029    4.3391029    2691.5822    425.06654    13600.594    -5950.914   -13460.401    25503.701    2930.5842    81.695819 
   59100    644.62704   -117.47651   0.58327209   -116.89324    3665.7361    4.3410007    4.3410007    4.3410007    3665.7361    12007.944    4356.1709   -5366.9072     5630.489    7416.9539    7755.6733    81.803062 
   59200    832.66333   -117.64322   0.75341128    -116.8898   -3060.4865    4.3465299    4.3465299    4.3465299   -3060.4865    14561.153   -14927.076   -8815.5372    5608.2916   -10810.042   -14418.439    82.116044 
   59300    659.19201   -117.48934   0.59645078   -116.89289   -854.51502    4.3403197    4.3403197    4.3403197   -854.51502   -2954.3349   -430.24503    821.03492   -15291.188    6823.0582   -2201.5545    81.764571 
   59400    684.32669   -117.51501   0.61919317   -116.89582    207.50462    4.3369987    4.3369987    4.3369987    207.50462    1891.2614   -486.79133   -781.95624   -5230.6083    13019.084     10739.41    81.577027 
   59500    892.59557   -117.69967   0.80763923   -116.89203   -8132.7793    4.3479902    4.3479902    4.3479902   -8132.7793    9361.6406   -15748.383   -18011.596    5706.4328   -3768.0097     6101.238    82.198835 
   59600     809.8566   -117.62317   0.73277527   -116.89039   -10704.129    4.3474128    4.3474128    4.3474128   -10704.129      -9435.3   -7000.2488   -15676.838   -1263.2624   -18720.562   -6779.9301    82.166092 
   59700     605.2671   -117.43787   0.54765839   -116.89021   -1027.2769    4.3379695    4.3379695    4.3379695   -1027.2769    2173.7762   -4853.5879   -402.01881   -17329.743    2924.4248     46.55084    81.631819 
   59800    866.72028   -117.67442   0.78422672   -116.89019   -5112.1795    4.3422886    4.3422886    4.3422886   -5112.1795    15934.251   -12331.647   -18939.143   -6369.6013    12613.045    17582.827    81.875894 
   59900     931.4085   -117.73475   0.84275799   -116.89199    1820.3833    4.3414138    4.3414138    4.3414138    1820.3833    18685.425    2521.9012   -15746.177    8820.0538    -15836.37    52.071094    81.826417 
   60000    643.50695   -117.47778   0.58225861   -116.89552    2882.5288    4.3422831    4.3422831    4.3422831    2882.5288    6427.3848    1467.4114    752.79025    -15868.87   -10647.995     -9009.78     81.87558 
   60100    632.19973   -117.46826    0.5720276   -116.89623   -5535.0323    4.3448749    4.3448749    4.3448749   -5535.0323    2831.7047   -8493.5362   -10943.265   -13170.223    11214.973    13201.999    82.022277 
   60200    829.93181   -117.64235   0.75093974   -116.89141    9033.0629    4.3390294    4.3390294    4.3390294    9033.0629    23521.166    9143.3588   -5565.3365     6389.421    4290.9023    15142.399    81.691669 
   60300    885.92481   -117.69116   0.80160339   -116.88956   -795.38269    4.3449956    4.3449956    4.3449956   -795.38269   -1694.2576    7544.0693   -8235.9598   -6229.4451   -10724.132   -4993.0345    82.029116 
   60400    548.43543   -117.39098    0.4962359   -116.89475   -3410.4343    4.3440926    4.3440926    4.3440926   -3410.4343   -14799.838    8223.3291   -3654.7939   -17539.575   -7584.5891   -402.84241    81.977979 
   60500    599.76729   -117.43833   0.54268205   -116.89565    8581.0545     4.334044     4.334044     4.334044    8581.0545    19425.798    4331.8878    1985.4779   -7202.7189    12597.795    27622.329    81.410413 
   60600    906.08193   -117.71498   0.81984197   -116.89514    1759.9035    4.3450586    4.3450586    4.3450586    1759.9035    5335.6973    14137.596   -14193.582    9233.1578    1743.9693    10375.584    82.032682 
   60700    895.55372   -117.70401   0.81031583   -116.89369   -4730.9916    4.3466445    4.3466445    4.3466445   -4730.9916   -11834.967    10311.537   -12669.545   -11956.714   -12027.975   -10147.361    82.122537 
   60800    387.29252     -117.248   0.35043041   -116.89757    6205.0614    4.3348879    4.3348879    4.3348879    6205.0614    22452.804   -3689.8505   -147.76928   -18147.209    3475.4481      22009.4    81.457975 
   60900    723.43516    -117.5531   0.65457933   -116.89852   -8066.9261    4.3451748    4.3451748    4.3451748   -8066.9261    15250.777    -6930.792   -32520.764     6394.672    7665.7966    24133.109    82.039266 
   61000    1145.6122   -117.92693     1.036574   -116.89035   -3481.8629    4.3452159    4.3452159    4.3452159   -3481.8629   -5995.7999    6152.3904   -10602.179    -562.3397     1313.374   -9172.2245    82.041594 
   61100    772.15935   -117.59628     0.698666   -116.89762    1984.3363    4.3343812    4.3343812    4.3343812    1984.3363    7733.4906   -2487.4017    706.91995    -13814.46   -8759.5002     6924.279    81.429417 
   61200    390.31855   -117.25747   0.35316843    -116.9043    -13434.67    4.3446523    4.3446523    4.3446523    -13434.67    8354.8337   -8867.5269   -39791.317   -7580.1264    3674.8695    33978.432    82.009675 
   61300    877.17703   -117.69114   0.79368821   -116.89746   -2993.1806    4.3454305    4.3454305    4.3454305   -2993.1806     6089.153    9242.3904   -24311.085    5621.1523    10636.187     3845.115    82.053751 
   61400    1132.5288   -117.91483    1.0247358   -116.89009     2188.264    4.3385039    4.3385039    4.3385039     2188.264    4487.9225    8322.8516   -6245.9821   -2197.9436   -288.87389   -6090.2764    81.661995 
   61500    631.81174   -117.46875   0.57167654   -116.89707   -10902.834    4.3431704    4.3431704    4.3431704   -10902.834    7256.8137   -10494.961   -29470.355   -15036.919   -2049.1464    31242.619    81.925783 
   61600    637.58817   -117.47452   0.57690318   -116.89761   -2139.4278    4.3418202    4.3418202    4.3418202   -2139.4278    22798.265   -4224.5301   -24992.018    3332.3184    4640.0003    12671.679    81.849399 
   61700    938.68997     -117.742   0.84934641   -116.89265    2265.5149    4.3421486    4.3421486    4.3421486    2265.5149    17294.889    8025.5189   -18523.863    1477.5192    9444.9527   -17915.324    81.867974 
   61800    936.02039   -117.73933   0.84693092    -116.8924    1546.0161    4.3412581    4.3412581    4.3412581    1546.0161    20871.331   -6393.0028   -9840.2797   -8095.7421   -3802.7457    14384.662    81.817619 
   61900    783.53842   -117.60234   0.70896203   -116.89338    3610.6466    4.3425625    4.3425625    4.3425625    3610.6466    38189.349   -16206.659    -11150.75   -5032.5752     9709.461    20127.327    81.891388 
   62000    703.97339   -117.53069   0.63696992   -116.89372   -2156.7818    4.3447476    4.3447476    4.3447476   -2156.7818    17534.881    837.06567   -24842.292   -622.74135    11757.934   -14125.784    82.015069 
   62100    811.74825   -117.62778   0.73448687   -116.89329    5059.1405    4.3380109    4.3380109    4.3380109    5059.1405    12923.091    11864.602   -9610.2712    3009.9921   -6033.8844   -3964.5686    81.634158 
   62200    1016.8677   -117.81139   0.92008322   -116.89131    2111.0851    4.3428675    4.3428675    4.3428675    2111.0851    20813.834   -7751.4584   -6729.1204    -13358.94   -2953.7728    16354.609    81.908642 
   62300    874.43077   -117.68507   0.79120334   -116.89386   -7680.2704    4.3441804    4.3441804    4.3441804   -7680.2704   -1406.0004   -6510.5271   -15124.284   -472.80212    17511.022   -1899.7167    81.982951 
   62400    550.39986   -117.39766   0.49801336   -116.89965   -1733.0739    4.3365299    4.3365299    4.3365299   -1733.0739   -1440.4777    21440.632   -25199.376    3908.4424    1596.9932   -12969.636    81.550575 
   62500    924.45158    -117.7354   0.83646322   -116.89894   -2242.8416    4.3446439    4.3446439    4.3446439   -2242.8416    3934.6918    8565.8658   -19229.082   -5987.1054   -27912.378    1476.0542    82.009198 
   62600    1290.1949   -118.05807    1.1673954   -116.89067    2924.7213    4.3439658    4.3439658    4.3439658    2924.7213    14937.557   -1918.2085   -4245.1845    3857.8963    8177.4675    4173.3566    81.970803 
   62700    677.06777   -117.51253   0.61262515    -116.8999    4234.6492    4.3367337    4.3367337    4.3367337    4234.6492    20564.766    16668.631   -24529.449    4453.2819    15890.551   -10930.687    81.562075 
   62800    488.06223   -117.34563   0.44160897   -116.90402   -13170.382     4.346674     4.346674     4.346674   -13170.382   -9853.8056    11134.777   -40792.116    4561.3719   -21792.329     -9365.88    82.124213 
   62900    1249.8457   -118.02311    1.1308867   -116.89222     4480.714    4.3410323    4.3410323    4.3410323     4480.714    14266.562    4205.1742   -5029.5948     1914.574    -13187.69    4190.7499    81.804848 
   63000    1177.0611   -117.95704    1.0650297   -116.89201    1819.3259    4.3420083    4.3420083    4.3420083    1819.3259    24515.693   -10482.241   -8575.4742   -1606.4349    13390.144   -1575.1779    81.860042 
   63100    548.75319   -117.39877   0.49652341   -116.90224   -15873.363    4.3437174    4.3437174    4.3437174   -15873.363   -15996.325    4787.4336   -36411.198     5068.308   -11889.207   -12330.278    81.956741 
   63200    692.03426   -117.52779   0.62616714   -116.90163    5429.1473    4.3370266    4.3370266    4.3370266    5429.1473    20604.636    9994.7859    -14311.98   -838.67155   -21174.787      374.667    81.578602 
   63300    1187.6638   -117.96812    1.0746232    -116.8935   -2250.2119    4.3483198    4.3483198    4.3483198   -2250.2119     29261.93   -26523.407   -9489.1588   -2428.5528    2558.2791    15472.144    82.217529 
   63400    944.45192   -117.74999   0.85455994   -116.89543    6412.3336    4.3386336    4.3386336    4.3386336    6412.3336    26371.985   -4805.4552   -2329.5289   -143.65037   -15846.852   -2584.4951    81.669315 
   63500    689.41548   -117.52405   0.62379761   -116.90025    2254.8207    4.3372161    4.3372161    4.3372161    2254.8207    4568.5466    17459.716   -15263.801    -484.6091   -21451.023   -9564.8109    81.589297 
   63600     790.4166   -117.61176   0.71518555   -116.89657   -10409.872    4.3499018    4.3499018    4.3499018   -10409.872    8660.7589   -14544.212   -25346.163   -826.48633    2514.0555    15609.753    82.307301 
   63700    1062.0437   -117.85044   0.96095943   -116.88948    2663.2018    4.3402538    4.3402538    4.3402538    2663.2018    25323.471   -14006.695   -3327.1711   -9639.9699    5976.2776     14125.64    81.760844 
   63800    1012.3502   -117.80574   0.91599577   -116.88974    -3194.626    4.3427492    4.3427492    4.3427492    -3194.626   -8738.4522    8081.4359   -8926.8616     1915.391   -25454.169   -9073.1021     81.90195 
   63900    757.18422     -117.578    0.6851162   -116.89289   -7669.2443    4.3456847    4.3456847    4.3456847   -7669.2443    5970.1116   -470.61951   -28507.225   -767.28829   -7874.7728    3281.4664    82.068148 
   64000    738.13128   -117.56171   0.66787669   -116.89384   -3712.4095    4.3426403    4.3426403    4.3426403   -3712.4095     19118.18   -5014.9835   -25240.425   -5092.9437    21084.571    26314.346    81.895789 
   64100    1019.7651   -117.81424   0.92270492   -116.89153    212.68761    4.3435976    4.3435976    4.3435976    212.68761     4071.061     975.2395   -4408.2376   -2659.4085   -3416.8114    166.49924     81.94996 
   64200    989.62399   -117.78677   0.89543258   -116.89134    7053.1542     4.341907     4.341907     4.341907    7053.1542    9003.1035    11203.681    952.67843   -1078.0394   -19864.872   -3788.0887    81.854308 
   64300    494.52271   -117.34568   0.44745454   -116.89822   -3215.5909    4.3452405    4.3452405    4.3452405   -3215.5909    15434.964   -1029.2403   -24052.497    3366.2946    253.01567    25779.272    82.042983 
   64400    615.34052   -117.45392   0.55677303   -116.89715    934.74247    4.3441691    4.3441691    4.3441691    934.74247    1154.2879    5857.7623   -4207.8228    -9593.754    17789.369     11148.85    81.982312 
   64500    1048.3604   -117.83755   0.94857851   -116.88897    8220.1915    4.3422951    4.3422951    4.3422951    8220.1915    -457.5503    15247.095    9871.0297    308.98972   -3470.1782   -6004.5134    81.876261 
   64600    793.19565   -117.61285   0.71770009   -116.89515    2774.6306    4.3394829    4.3394829    4.3394829    2774.6306    14668.231    4525.2501   -10869.589    9396.6458   -11374.739    17888.703     81.71729 
   64700    315.72886   -117.18833   0.28567811   -116.90266   -5302.4282    4.3429937    4.3429937    4.3429937   -5302.4282    11496.785    5716.6132   -33120.683   -2099.2958    13261.383    22312.841    81.915787 
   64800    771.12087   -117.59706   0.69772637   -116.89933   -8080.1027    4.3436815    4.3436815    4.3436815   -8080.1027    -7074.609    13523.881    -30689.58    1081.1524    16921.107   -7524.9247    81.954712 
   64900    1029.0074   -117.82427   0.93106751    -116.8932    11886.638    4.3367764    4.3367764    4.3367764    11886.638    18052.091    17130.117    477.70777   -1096.8054   -772.24199    4250.6131    81.564486 
   65000    693.84647   -117.52668   0.62780687   -116.89887   -5313.2539    4.3465081    4.3465081    4.3465081   -5313.2539    14409.089    1730.5803   -32079.431    6778.2056    3303.4523     22251.44    82.114807 
   65100    424.25127   -117.28473   0.38387147   -116.90086   -13292.375    4.3442794    4.3442794    4.3442794   -13292.375    3777.3131    5893.9647   -49548.401   -3087.0875    30790.244   -2647.9578    81.988559 
   65200    743.65548   -117.56701    0.6728751   -116.89413    5768.2324    4.3341334    4.3341334    4.3341334    5768.2324    10739.108    18455.455   -11889.866   -2485.0808    6901.6794   -13285.673     81.41545 
   65300    995.06342   -117.79061    0.9003543   -116.89025    -6120.589    4.3485598    4.3485598    4.3485598    -6120.589   -76.754644   -6867.0919    -11417.92     8071.242   -11663.093    11357.869    82.231144 
   65400    637.78955   -117.47248   0.57708539    -116.8954   -5140.8525    4.3430504    4.3430504    4.3430504   -5140.8525    13714.322    2684.7632   -31821.643   -5704.8942    24728.447    7380.8595    81.918996 
   65500    397.51511   -117.25731   0.35968003   -116.89763   -4338.8276    4.3338542    4.3338542    4.3338542   -4338.8276   -1878.3829    15929.575   -27067.675   -2380.8314    19949.542   -15805.395    81.399718 
   65600    742.98956   -117.56903   0.67227257   -116.89676   -11433.285    4.3470051    4.3470051    4.3470051   -11433.285    -10207.73   -719.51676   -23372.609   -5415.8392   -25756.705   -5293.1025    82.142979 
   65700    940.24903   -117.74213   0.85075708   -116.89137     2108.346    4.3433183    4.3433183    4.3433183     2108.346    5985.3136    10391.088   -10051.364   -3622.5696   -2398.2478    5624.5918    81.934152 
   65800    635.97617   -117.47117    0.5754446   -116.89573    840.31238     4.336756     4.336756     4.336756    840.31238    7364.7037    19166.133     -24009.9    2710.0403     34606.88   -694.40905    81.563334 
   65900    413.46872   -117.27269   0.37411519   -116.89857   -11051.462    4.3454951    4.3454951    4.3454951   -11051.462   -5824.4378    18489.008   -45818.956   -7713.1658   -11992.609   -9836.6252    82.057408 
   66000    844.17968   -117.65637   0.76383152   -116.89254    502.77535    4.3444399    4.3444399    4.3444399    502.77535    824.39653    19479.265   -18795.335    2380.1387   -25965.753   -3639.5282    81.997647 
   66100    990.99938   -117.78528   0.89667707    -116.8886     8458.109    4.3410261    4.3410261    4.3410261     8458.109    9776.4831    16505.547   -907.70284    841.73569    22305.151    5160.2477      81.8045 
   66200    649.59743   -117.48416   0.58776941   -116.89639    -2060.638    4.3393406    4.3393406    4.3393406    -2060.638   -4298.6886    24964.196   -26847.421   -2805.6833    9565.3895   -6884.5928     81.70925 
   66300    427.20334    -117.2886   0.38654256   -116.90206   -3492.3424    4.3429605    4.3429605    4.3429605   -3492.3424   -5121.6672    22895.458   -28250.818    1573.0656   -33410.651   -7152.1946    81.913905 
   66400    965.65226    -117.7673   0.87374246   -116.89356   -3517.0138    4.3492884    4.3492884    4.3492884   -3517.0138    1062.4423   -1389.7597   -10223.724   -1804.1919   -5443.1266    6184.4009    82.272485 
   66500    1103.9442    -117.8879   0.99887191   -116.88902    6247.2017    4.3385145    4.3385145    4.3385145    6247.2017    8541.0288    14709.537    -4508.961    6227.0621    12295.932    4437.5527    81.662593 
   66600    496.72307   -117.34673   0.44944547   -116.89729   -7630.5836    4.3406794    4.3406794    4.3406794   -7630.5836   -4162.8662    15386.202   -34115.087   -1984.3938   -29393.237   -13903.379    81.784901 
   66700    575.54487   -117.42105    0.5207651   -116.90029   -15286.073    4.3481155    4.3481155    4.3481155   -15286.073    6477.2905   -7675.0568   -44660.453    428.99459   -19605.794   -2945.9528    82.205944 
   66800    1129.8662   -117.91468    1.0223267   -116.89235    12943.981    4.3379256    4.3379256    4.3379256    12943.981     35796.63     5355.415   -2320.1017    5487.9007     10459.56    11909.095    81.629341 
   66900    1042.7864   -117.83818   0.94353507   -116.89465    4620.1344    4.3413447    4.3413447    4.3413447    4620.1344    7897.7683    21275.738   -15313.103   -8128.2354   -17036.066   -4346.4288    81.822514 
   67000    525.72527   -117.37614   0.47568727   -116.90045   -9087.6731    4.3486469    4.3486469    4.3486469   -9087.6731   -1673.6475    14446.562   -40035.934   -5103.7571   -27057.426   -5909.9438    82.236088 
   67100    767.18715   -117.58899   0.69416706   -116.89482    1200.9042    4.3409806    4.3409806    4.3409806    1200.9042    21178.819     9460.803   -27036.909   -5734.5667    5093.6973    8220.3965    81.801928 
   67200    1138.3952   -117.91954    1.0300439    -116.8895    9320.4042    4.3387891    4.3387891    4.3387891    9320.4042    6667.0893    24649.964   -3355.8407    1839.4664    7203.1356    9469.1163    81.678098 
   67300    962.00942   -117.76381   0.87044634   -116.89337   -3359.1253    4.3448961    4.3448961    4.3448961   -3359.1253   -20250.054     23871.37   -13698.693   -3975.2613   -16153.953   -4615.9657    82.023482 
   67400    654.67139   -117.48984   0.59236043   -116.89748   -9675.6911    4.3432192    4.3432192    4.3432192   -9675.6911   -3094.3044   -622.61753   -25310.151   -9500.0901   -11397.095    4322.7697    81.928543 
   67500    828.68352   -117.64677   0.74981027   -116.89696   -2343.1711    4.3380107    4.3380107    4.3380107   -2343.1711    10100.486    4729.9082   -21859.908    4860.6598    16084.668    12853.893    81.634146 
   67600    1119.6036   -117.90498    1.0130408   -116.89194   -3273.8199    4.3450052    4.3450052    4.3450052   -3273.8199   -21556.793    20825.224   -9089.8903    -2104.254    8312.2331   -3285.6242    82.029656 
   67700    1039.2845   -117.83211   0.94036643   -116.89174   -6376.0308     4.344495     4.344495     4.344495   -6376.0308    -5525.365   -2870.2451   -10732.482   -2052.2756   -12853.286   -1660.7191    82.000767 
   67800    656.88683   -117.49055   0.59436501   -116.89618   -4751.4657    4.3369122    4.3369122    4.3369122   -4751.4657    17953.609    -7415.934   -24792.072   -115.97305    8499.4264    8502.9531    81.572145 
   67900    685.46893   -117.52149    0.6202267   -116.90127   -4766.1915    4.3431087    4.3431087    4.3431087   -4766.1915   -7351.2818    24773.324   -31720.617    954.60212    27761.475    3060.1864    81.922292 
   68000    1251.7577   -118.02729    1.1326167   -116.89467    4693.2582    4.3411901    4.3411901    4.3411901    4693.2582   -977.86402    17304.084   -2246.4456    5881.2762    2636.7008   -5947.1009    81.813771 
   68100    1047.9442   -117.84518   0.94820194   -116.89697    11924.952    4.3362375    4.3362375    4.3362375    11924.952    28090.958    14441.302   -6757.4043   -8601.8694   -6014.3463    4634.7178    81.534079 
   68200    417.85386    -117.2838   0.37808296   -116.90572   -13176.736    4.3482268    4.3482268    4.3482268   -13176.736   -2289.9321    8130.4804   -45370.757   -1473.4449    29872.425    8332.4937    82.212254 
   68300    836.80585   -117.65596   0.75715952    -116.8988   -4394.4067    4.3403008    4.3403008    4.3403008   -4394.4067   -5114.1165    13692.384   -21761.488    1087.5733    19067.574    483.17762    81.763501 
   68400    1136.8124   -117.92042    1.0286118   -116.89181    15388.487     4.335343     4.335343     4.335343    15388.487    17206.092    19730.861    9228.5066    1548.1392   -18217.753   -1394.4152    81.483636 
   68500    847.75007   -117.66355   0.76706208   -116.89649   -13318.696    4.3494011    4.3494011    4.3494011   -13318.696   -6998.3803   -5583.4067     -27374.3    497.34616    14010.902    5503.8872    82.278883 
   68600    635.31883   -117.47281   0.57484983   -116.89796   -1132.7617    4.3377716    4.3377716    4.3377716   -1132.7617    5723.0589    6281.8086   -15403.153   -3513.8405    29448.728    3991.8596    81.620651 
   68700    830.90388   -117.64799    0.7518193   -116.89618    3025.2488     4.336498     4.336498     4.336498    3025.2488   -6684.0386    17593.105   -1833.3195    9659.7166   -17307.766    36.835022    81.548778 
   68800    877.55459   -117.68709   0.79402984   -116.89306   -8797.0474    4.3498033    4.3498033    4.3498033   -8797.0474   -19164.511   -6019.3016   -1207.3291   -2820.5973    -12735.16    3858.4438    82.301707 
   68900    949.62084   -117.74946   0.85923689   -116.89023    2095.5414     4.339745     4.339745     4.339745    2095.5414    3483.6866   -844.44889    3647.3866    -8147.492    18734.917    9355.1861    81.732098 
   69000    811.94264   -117.62791   0.73466277   -116.89325    833.90578    4.3366467    4.3366467    4.3366467    833.90578   -5248.6387    11464.122    -3713.766    10275.048   -1504.2437    7131.3991    81.557166 
   69100    625.85144   -117.46519   0.56628354    -116.8989     -5386.11    4.3432719    4.3432719    4.3432719     -5386.11   -19974.645    8010.5616   -4194.2463     6108.163   -28528.013   -5623.0759    81.931528 
   69200    958.19309   -117.76282   0.86699324   -116.89583   -1297.8431    4.3443847    4.3443847    4.3443847   -1297.8431    2615.5015   -12973.226    6464.1949   -5458.5024   -2601.0412    671.46318    81.994523 
   69300    1073.3103   -117.86332    0.9711537   -116.89217    8049.8809    4.3385022    4.3385022    4.3385022    8049.8809    20904.275    8399.7625   -5154.3952   -5455.3682    9297.6522    10624.777    81.661897 
   69400    708.77542   -117.53933   0.64131489   -116.89802    1033.3934    4.3397555    4.3397555    4.3397555    1033.3934    2499.2087    13754.729   -13153.757    11156.169   -27713.483     4993.015    81.732688 
   69500     676.9555   -117.51055   0.61252357   -116.89803   -4176.1882     4.346822     4.346822     4.346822   -4176.1882   -4447.1511   -6067.9403   -2013.4731    1948.0909   -13400.571   -8158.3181    82.132602 
   69600    1036.1845   -117.82911   0.93756152   -116.89155    4684.8695    4.3380548    4.3380548    4.3380548    4684.8695    16800.494    -8763.475    6017.5891   -16866.574     9881.355    1585.8539    81.636636 
   69700    931.73328   -117.73691   0.84305185   -116.89386    2169.1754    4.3372899    4.3372899    4.3372899    2169.1754    9462.5877    2667.3662   -5622.4277   -1325.5043   -14991.617    15365.698    81.593462 
   69800    741.25978   -117.56779   0.67070743   -116.89708    -6264.117    4.3469669    4.3469669    4.3469669    -6264.117   -10081.573   -2665.1019   -6045.6763    3358.8301   -22801.367   -1603.6324    82.140815 
   69900    950.23481   -117.75157   0.85979243   -116.89178    2460.4006    4.3402202    4.3402202    4.3402202    2460.4006    3790.2515   -10558.916    14149.866   -3708.5706   -179.12558   -1576.3668    81.758948 
   70000     872.2831   -117.68236   0.78926008    -116.8931     65.99522    4.3390765    4.3390765    4.3390765     65.99522    5487.5625   -12309.927    7020.3504   -6474.4626    6854.4699     14006.14    81.694332 
   70100    726.96826   -117.55357   0.65777615    -116.8958   -6713.5948    4.3447408    4.3447408    4.3447408   -6713.5948   -2299.0058   -4192.4622   -13649.316    2979.9188   -19448.904    11822.603    82.014684 
   70200    917.78252   -117.72426   0.83042891   -116.89383    2452.3127    4.3395784    4.3395784    4.3395784    2452.3127    1749.3064   -4420.2373    10027.869    9345.9473   -14879.694   -2967.6419    81.722684 
   70300    954.69137   -117.75778   0.86382481   -116.89396   -309.85747    4.3398152    4.3398152    4.3398152   -309.85747   -4558.5995   -18160.752    21789.779   -5523.8425    12155.961    430.52893    81.736064 
   70400    772.14966   -117.59477   0.69865724   -116.89612   -5727.0283    4.3419686    4.3419686    4.3419686   -5727.0283    3344.8806   -5711.7597   -14814.206   -5579.0935   -9987.3592    18705.607    81.857795 
   70500    737.62487   -117.56445   0.66741848   -116.89703   -4511.1201    4.3423351    4.3423351    4.3423351   -4511.1201   -5934.4054   -3116.2996   -4482.6554    13457.524   -20205.725    780.80861    81.878523 
   70600    882.47294   -117.69184   0.79848006   -116.89336   -5413.5536    4.3437982    4.3437982    4.3437982   -5413.5536   -10211.299   -23663.965    17634.604    12525.732   -448.84942   -10522.942    81.961315 
   70700    1036.1958   -117.82829   0.93757176   -116.89072    2721.7429     4.336338     4.336338     4.336338    2721.7429    6833.3229    -11333.55    12665.456   -9492.2597    1319.9417     6177.978    81.539749 
   70800    903.52938   -117.71283   0.81753237    -116.8953   -4845.1141    4.3414148    4.3414148    4.3414148   -4845.1141   -10460.261    2267.1353   -6342.2166   -766.20512   -5984.9904    6397.2518    81.826473 
   70900    592.41416   -117.43599   0.53602879   -116.89996   -8140.6843    4.3444638    4.3444638    4.3444638   -8140.6843   -18340.259    -24266.56    18184.765     18915.14   -10831.328   -7943.7258    81.998996 
   71000    872.17608   -117.68752   0.78916325   -116.89835    2647.4663    4.3347309    4.3347309    4.3347309    2647.4663    15299.234     -22823.1    15466.265    4692.3055    3163.3817   -18007.067    81.449124 
   71100    1159.4063   -117.94245    1.0490552    -116.8934     1731.035    4.3442087    4.3442087    4.3442087     1731.035    458.44494   -1628.8771     6363.537   -7146.9365   -2789.6848    2820.8161    81.984557 
   71200    806.04084   -117.62622   0.72932269    -116.8969   -9247.3399    4.3469519    4.3469519    4.3469519   -9247.3399   -25339.808   -9310.2748    6908.0637    11282.046   -9746.5184   -1857.1094    82.139965 
   71300     558.7194   -117.40376   0.50554106   -116.89822    4663.9085    4.3330521    4.3330521    4.3330521    4663.9085     12186.15   -14916.893    16722.468     16894.18    2850.1261   -24209.168    81.354531 
   71400    1002.2389   -117.80127   0.90684682   -116.89442    1272.0419    4.3421502    4.3421502    4.3421502    1272.0419    9818.9506   -13671.314    7668.4889   -5294.9842   -2901.3689   -7378.6535    81.868068 
   71500    1040.5446   -117.83425   0.94150658   -116.89274   -5639.3528    4.3472107    4.3472107    4.3472107   -5639.3528   -17870.309   -4344.2116     5296.462   -3351.0905   -4042.5369    8634.2675    82.154635 
   71600    486.70482   -117.34051   0.44038075   -116.90013    6071.5172    4.3340156    4.3340156    4.3340156    6071.5172   -1045.9001    4218.8177    15041.634    19598.307   -3571.7742   -12288.407    81.408813 
   71700    713.50415    -117.5454   0.64559355    -116.8998    1313.7213    4.3386026    4.3386026    4.3386026    1313.7213     5345.213   -7400.9189    5996.8699    14335.421    4787.5862   -19782.313    81.667564 
   71800    1125.0032    -117.9091    1.0179265   -116.89117   -3589.2233    4.3487813    4.3487813    4.3487813   -3589.2233   -6213.0812   -10804.249    6249.6605   -7209.2472   -323.06405    11667.858    82.243711 
   71900    708.47733   -117.53648   0.64104518   -116.89544    3089.5817    4.3392699    4.3392699    4.3392699    3089.5817   -9871.7157    16597.167    2543.2939    10001.849   -4517.9764    8096.8311    81.705258 
   72000    534.66745   -117.38118   0.48377835   -116.89741    2169.9294    4.3358677    4.3358677    4.3358677    2169.9294   -14070.435    6505.4555    14074.767    23422.279   -485.16646   -16405.313    81.513221 
   72100    939.28319   -117.74464   0.84988317   -116.89476   -1343.0155    4.3448418    4.3448418    4.3448418   -1343.0155   -7278.7046   -7865.3577    11115.016   -1325.4471   -1537.1805    -2601.211    82.020404 
   72200    1022.9083   -117.81869   0.92554897   -116.89314    5108.3659    4.3403211    4.3403211    4.3403211    5108.3659    5551.4335    6615.5104    3158.1536   -3642.5746    2747.6817    10960.347    81.764647 
   72300    661.57179   -117.49783   0.59860406   -116.89922    3710.4453    4.3365229    4.3365229    4.3365229    3710.4453   -15853.704     6486.221    20498.819    23864.631   -1187.4637   -616.80948    81.550184 
   72400    645.53226   -117.48339   0.58409115    -116.8993   -6669.6403    4.3445826    4.3445826    4.3445826   -6669.6403   -26420.711   -12852.157    19263.947    12145.071   -1390.1859   -16720.012    82.005723 
   72500    951.17485   -117.75359   0.86064299   -116.89294   -531.10103    4.3424202    4.3424202    4.3424202   -531.10103    6089.1309   -4067.7753   -3614.6587   -14831.262    -798.8867    7778.9686     81.88334 
   72600    877.83515   -117.68786   0.79428369   -116.89358    568.72923    4.3381566    4.3381566    4.3381566    568.72923   -3214.9194    -5421.537    10342.644    16640.455    343.90459    18290.527    81.642385 
   72700    788.83446   -117.61018   0.71375399   -116.89643   -7612.4395    4.3405373    4.3405373    4.3405373   -7612.4395   -26609.643   -12198.245     15970.57     32386.15   -1703.3694   -10195.018    81.776872 
   72800    857.37173   -117.67184   0.77576796   -116.89607   -6366.3983    4.3425444    4.3425444    4.3425444   -6366.3983   -8714.9823    649.64529   -11033.858   -14918.091   -2134.3404   -1951.1237    81.890363 
   72900    854.44547   -117.67006   0.77312021   -116.89694   -6630.5359    4.3398321    4.3398321    4.3398321   -6630.5359   -3792.6534   -16962.742     863.7879   -10264.586    919.05858    7293.9819    81.737019 
   73000    783.60316   -117.60704   0.70902061   -116.89802    2657.8382    4.3383106    4.3383106    4.3383106    2657.8382   -14901.183   -415.46005    23290.158    37438.397   -2593.3714    3868.4434    81.651078 
   73100     1045.549   -117.83977   0.94603467   -116.89374   -5242.6832    4.3460969    4.3460969    4.3460969   -5242.6832   -18304.973    1945.4632    631.46033    9660.6814   -3066.8587    1412.7004    82.091504 
   73200    950.35825   -117.75582   0.85990411   -116.89591    2617.2857    4.3380804    4.3380804    4.3380804    2617.2857   -271.37349    1912.2169    6211.0137   -21776.643   -1613.4303   -560.28288    81.638079 
   73300    602.43498   -117.44619   0.54509583    -116.9011    5886.4859    4.3348334    4.3348334    4.3348334    5886.4859   -2352.7115   -13452.812    33464.981    19659.409    3354.8308    9816.0063    81.454905 
   73400    852.08307   -117.67073   0.77098267   -116.89974   -4067.1843    4.3493461    4.3493461    4.3493461   -4067.1843   -11188.569   -17668.114    16655.129    28019.593   -1095.8284    2508.7569    82.275761 
   73500    1254.2004   -118.02767    1.1348269   -116.89284    11554.478    4.3371188    4.3371188    4.3371188    11554.478    4330.0808    9674.7956    20658.558   -8025.1016   -7134.5361   -5742.6627    81.583806 
   73600    867.23304   -117.68288   0.78469068   -116.89819    13332.255    4.3336415    4.3336415    4.3336415    13332.255    1939.0242    3723.1625    34334.578    3384.5751    2139.9567    4535.9542    81.387734 
   73700    630.73639    -117.4723   0.57070354    -116.9016   -11986.181    4.3495438    4.3495438    4.3495438   -11986.181   -14282.674   -43847.175    22171.306    27391.993     2317.979    6022.4987     82.28698 
   73800    935.12683   -117.74213    0.8461224   -116.89601    9951.8233    4.3371453    4.3371453    4.3371453    9951.8233    10567.994   -1168.5419    20456.017    3137.3395    -5059.979    108.62524    81.585303 
   73900    1080.4221    -117.8714   0.97758859   -116.89381    5486.9838    4.3365068    4.3365068    4.3365068    5486.9838   -306.42737    9113.7932    7653.5856     -5474.37   -6896.7371   -7048.3787    81.549271 
   74000     832.8491   -117.64969   0.75357937   -116.89611    -10940.58    4.3468995    4.3468995    4.3468995    -10940.58   -27176.825   -20335.586     14690.67    22484.048    1022.3318    2221.5431    82.136992 
   74100    915.22262   -117.72273   0.82811266   -116.89462    781.51802    4.3365565    4.3365565    4.3365565    781.51802    2179.7615   -16558.737     16723.53    14676.858    2594.4717    11565.253    81.552074 
   74200    886.67636   -117.69765    0.8022834   -116.89537   -3065.2595    4.3401097    4.3401097    4.3401097   -3065.2595    635.66158    3335.1247   -13166.565   -7263.7766   -11221.933   -7856.5095    81.752704 
   74300    727.92546   -117.55685   0.65864226   -116.89821   -13278.224    4.3435496    4.3435496    4.3435496   -13278.224    -32134.61   -6351.0545   -1349.0071    13187.844   -858.21829   -5614.4338    81.947246 
   74400     851.1313   -117.66798   0.77012149   -116.89786    2894.4224    4.3368714    4.3368714    4.3368714    2894.4224   -20658.467   -6270.2092    35611.944    23063.228    12080.836    4294.0487    81.569846 
   74500    1204.0818   -117.98344    1.0894786   -116.89396     1338.611     4.340906     4.340906     4.340906     1338.611   -746.28475   -6284.5842    11046.702   -1033.4789   -7022.0536   -9796.3671    81.797711 
   74600    765.75005    -117.5936   0.69286674   -116.90073    224.41828    4.3416022    4.3416022    4.3416022    224.41828   -15037.956    3175.3645    12535.847     1873.985   -13896.689   -4626.6393    81.837074 
   74700     439.2041   -117.30168    0.3974011   -116.90428   -9489.2932    4.3413363    4.3413363    4.3413363   -9489.2932   -34505.039   -6650.5451    12687.705    27857.113    11303.517   -2139.1926    81.822035 
   74800    1026.4562   -117.82604   0.92875914   -116.89728   -3340.6487    4.3398194    4.3398194    4.3398194   -3340.6487   -14092.254   -7310.5496    11380.857    8980.2012    11399.793    3936.2861    81.736301 
   74900    1161.9939   -117.94408    1.0513965   -116.89268    3577.9324    4.3414454    4.3414454    4.3414454    3577.9324   -1993.3272   -4836.0601    17563.185   -11362.484   -8353.2858   -521.95309    81.828203 
   75000    516.97319   -117.37068   0.46776821   -116.90291   -13582.633    4.3431551    4.3431551    4.3431551   -13582.633   -28339.067   -7760.5427   -4648.2899    16889.594    1988.7254   -12680.179    81.924919 
   75100    440.04432   -117.30192   0.39816135   -116.90376   -4834.7787    4.3347174    4.3347174    4.3347174   -4834.7787    -21381.44   -321.61774    7198.7215    22299.715    17037.275    2748.3633    81.448367 
   75200     954.2411   -117.76217    0.8634174   -116.89875   -2500.1248    4.3435833    4.3435833    4.3435833   -2500.1248   -8426.9012   -13997.132    14923.659   -11450.005    5295.5194    5486.7844    81.949152 
   75300    957.50431   -117.76281   0.86637002   -116.89644   -3595.8602    4.3437628    4.3437628    4.3437628   -3595.8602   -9063.6199   -17058.965    15335.005   -4320.1944    -3290.687   -3311.7961    81.959311 
   75400    497.86442   -117.34986   0.45047819   -116.89938    7232.1223    4.3338301    4.3338301    4.3338301    7232.1223   -8133.0706    7224.0873     22605.35    22182.626    14148.907   -418.85273    81.398359 
   75500    506.40987   -117.35805    0.4582103   -116.89984   -14042.044    4.3458088    4.3458088    4.3458088   -14042.044    -17931.37   -18332.857   -5861.9039    -580.1604    7323.2657    10943.587     82.07518 
   75600    805.22166   -117.62376   0.72858148   -116.89518   -4495.8334    4.3402666    4.3402666    4.3402666   -4495.8334   -1634.0743    -25043.24    13189.814   -21148.191   -4832.3995     9562.688    81.761567 
   75700    926.46284    -117.7308   0.83828304   -116.89252    8093.7664    4.3353622    4.3353622    4.3353622    8093.7664     1522.332    191.42452    22567.543    8099.3633    549.77815   -5499.0086    81.484715 
   75800    615.72257   -117.45409   0.55711872   -116.89697   -8259.0165    4.3477735    4.3477735    4.3477735   -8259.0165   -14547.915   -11663.912    1434.7769    15418.371     15074.05     3549.728    82.186548 
   75900    526.56315   -117.37328   0.47644541   -116.89683   -2770.8501    4.3397995    4.3397995    4.3397995   -2770.8501   -4300.5744   -12813.434    8801.4585   -16844.518     4867.483    12605.837    81.735172 
   76000     816.3107   -117.63171   0.73861507   -116.89309    3936.1232     4.339553     4.339553     4.339553    3936.1232    2797.8549   -1873.6973    10884.212   -10773.007   -13142.651    3064.5587    81.721251 
   76100    964.72722   -117.76544   0.87290546   -116.89253    2716.7456    4.3413508    4.3413508    4.3413508    2716.7456   -519.06627   -5183.9179    13853.221    15613.237    7643.3763   -5842.8446    81.822857 
   76200    587.74532   -117.43129   0.53180432   -116.89949    9500.7299    4.3364101    4.3364101    4.3364101    9500.7299    3927.7452    12337.315    12237.129    2481.9266    19301.488    9430.5774     81.54382 
   76300    536.93125   -117.38762   0.48582668   -116.90179   -7816.5221    4.3453335    4.3453335    4.3453335   -7816.5221   -6749.7382   -1158.7536   -15541.075   -15121.476   -6215.4048    13246.386    82.048255 
   76400    943.21546    -117.7468   0.85344117   -116.89336    4201.1191    4.3395291    4.3395291    4.3395291    4201.1191    9495.2428   -4854.3723    7962.4867   -2271.9891   -14472.443   -4183.1561    81.719897 
   76500    878.64812   -117.68849   0.79501929   -116.89347    6212.1892    4.3396306    4.3396306    4.3396306    6212.1892   -2382.1825    14114.334     6904.416    10285.867    18347.162   -1424.2737    81.725634 
   76600    611.14989   -117.45175   0.55298126   -116.89877   -6651.5148    4.3423947    4.3423947    4.3423947   -6651.5148   -9815.3905   -63.348721   -10075.805   -1894.4463    20437.189     14972.32    81.881898 
   76700    745.06673   -117.57329   0.67415203   -116.89914   -177.28545    4.3370127    4.3370127    4.3370127   -177.28545    404.85489   -10903.314    9966.6026   -16265.956   -16036.916     13638.28    81.577819 
   76800    984.58367   -117.78707   0.89087199    -116.8962   -3770.5172    4.3444048    4.3444048    4.3444048   -3770.5172   -13506.077    2550.8565   -356.33087   -2830.7694   -4942.2344   -3301.8758    81.995656 
   76900    923.09692   -117.73037   0.83523749   -116.89513   -1627.5973    4.3406515    4.3406515    4.3406515   -1627.5973   -11273.698    6221.3289    169.57757    7987.9312     22518.14    1271.1774    81.783325 
   77000    702.07714   -117.53152   0.63525415   -116.89626   -4592.0165    4.3399065    4.3399065    4.3399065   -4592.0165   -7033.6511   -10531.792    3789.3942   -6801.7005   -1511.5576    19940.918    81.741218 
   77100    867.25051   -117.68066   0.78470649   -116.89595     -9161.08    4.3440616    4.3440616    4.3440616     -9161.08   -17117.851   -3790.9665    -6574.422   -10618.366   -23271.812    8595.4156    81.976227 
   77200    1091.6068    -117.8809   0.98770876    -116.8932    8435.6739     4.335654     4.335654     4.335654    8435.6739   -4774.4143    25362.925    4718.5106    667.09623    7372.2259   -5099.9117     81.50117 
   77300    870.55567    -117.6844   0.78769706    -116.8967    26.552439    4.3449733    4.3449733    4.3449733    26.552439   -3896.5481    287.32429    3688.8811    5708.4557    21306.552    10365.252    82.027854 
   77400    641.73563   -117.47968   0.58065589   -116.89903   -4749.9083    4.3444517    4.3444517    4.3444517   -4749.9083    -14174.03    32.449359    -108.1442   -7221.4575   -15261.209     11734.23    81.998314 
   77500    889.06019   -117.70011   0.80444034   -116.89567    14227.404    4.3334183    4.3334183    4.3334183    14227.404   -2626.0564    31631.567    13676.703   -11603.304   -19192.238   -4223.3861    81.375158 
   77600    1120.9461   -117.90729    1.0142556   -116.89304    5618.4039    4.3451656    4.3451656    4.3451656    5618.4039   -1885.2618    12771.441     5969.032    2092.5094    12637.038   -3998.7296    82.038742 
   77700     809.7087   -117.63022   0.73264145   -116.89757   -993.08648    4.3444888    4.3444888    4.3444888   -993.08648   -7964.9249    9497.1342   -4511.4687    9239.0584    7228.6683    14709.165    82.000413 
   77800    613.60304   -117.45389   0.55520093   -116.89869    1187.3306    4.3361489    4.3361489    4.3361489    1187.3306   -11431.885    11980.301    3013.5753   -6130.4893   -21023.599    9017.8907    81.529084 
   77900    1063.0166   -117.85661   0.96183979   -116.89477     -1959.03    4.3437079    4.3437079    4.3437079     -1959.03    -14891.97    7242.2818     1772.598    -11746.96   -10696.122   -5936.4473    81.956205 
   78000    1252.4744   -118.02543    1.1332651   -116.89216   -918.84058    4.3427651    4.3427651    4.3427651   -918.84058   -2187.6895    1305.7791   -1874.6114    7565.5603    12360.218    6737.8161    81.902853 
   78100    657.89252   -117.49675   0.59527498   -116.90148   -3345.6268    4.3357316    4.3357316    4.3357316   -3345.6268   -13709.873    2340.1033    1332.8898    3159.5451   -13469.148     13947.39    81.505549 
   78200    540.01363   -117.39327   0.48861568   -116.90466   -8798.7431    4.3450792    4.3450792    4.3450792   -8798.7431   -36863.738     8692.973    1774.5352   -17176.971    -24624.17    5269.0402     82.03385 
   78300    1192.5337   -117.97131    1.0790296   -116.89228   -1006.2225    4.3469033    4.3469033    4.3469033   -1006.2225   -14723.553    9894.8006    1810.0852   -7315.2859    4710.7656   -3548.1657     82.13721 
   78400    1072.4513   -117.86321   0.97037651   -116.89283    13449.614    4.3316643    4.3316643    4.3316643    13449.614    9372.4127    19055.978    11920.453    11348.737   -1365.2921    6333.7761    81.276382 
   78500    354.03521   -117.22705    0.3203385   -116.90671   -5892.7475    4.3412277    4.3412277    4.3412277   -5892.7475   -31410.458      15493.1   -1760.8848   -8663.7977   -24744.771    9337.5228    81.815897 
   78600    564.27101   -117.41559   0.51056427   -116.90503   -12613.502     4.347227     4.347227     4.347227   -12613.502   -35639.686   -1455.3561   -745.46317    -21917.86   -11883.396   -2630.6181    82.155559 
   78700    1149.4024   -117.93272    1.0400034   -116.89271    13472.148      4.33378      4.33378      4.33378    13472.148    3703.4624    17272.809    19440.173    3190.5831    12093.438   -2489.2195    81.395537 
   78800      826.718   -117.64475   0.74803182   -116.89672   -8589.0541    4.3456169    4.3456169    4.3456169   -8589.0541   -12383.971    -2561.297   -10821.894    469.30439   -10802.404    7052.3118    82.064307 
   78900    464.42911   -117.32081   0.42022522   -116.90059   -14352.105    4.3414387    4.3414387    4.3414387   -14352.105   -28246.079   -12346.671   -2463.5648   -20383.347   -20647.352    6162.6598    81.827828 
   79000    670.44668   -117.50504   0.60663425    -116.8984    5277.0579    4.3334044    4.3334044    4.3334044    5277.0579   -11360.921    7877.2319    19314.863   -14065.934    12299.284   -4439.6268    81.374374 
   79100    1000.5489   -117.79975   0.90531764   -116.89443   -8696.4178    4.3466283    4.3466283    4.3466283   -8696.4178   -8304.2479   -6281.6119   -11503.394    6001.3288    11316.452   -5135.4952    82.121619 
   79200    817.37417   -117.63627   0.73957732   -116.89669    1584.5821    4.3378692    4.3378692    4.3378692    1584.5821     7551.612   -4834.1097    2036.2441   -8639.8509   -13394.718    9909.0156    81.626161 
   79300    538.53573   -117.38703   0.48727844   -116.89976   -655.89012    4.3392459    4.3392459    4.3392459   -655.89012    -11937.98   -5211.2331    15181.543   -26033.953   -3009.0995    3731.8533    81.703901 
   79400    776.72094    -117.5987   0.70279343    -116.8959   -8136.8055    4.3454305    4.3454305    4.3454305   -8136.8055   -15911.407   -2646.8561   -5852.1531    3655.8591    19973.033   -5613.1168    82.053748 
   79500      915.474   -117.72066   0.82834011   -116.89232    8639.6481    4.3356771    4.3356771    4.3356771    8639.6481    27658.037   -2005.0783    265.98536    8831.3465    5215.4319    2533.9835    81.502474 
   79600    824.11052   -117.64166   0.74567252   -116.89599   -7563.1117    4.3412775    4.3412775    4.3412775   -7563.1117   -10962.975   -21966.101    10239.741   -24823.154   -12680.508    7307.1593    81.818711 
   79700     713.2461   -117.54341   0.64536006   -116.89805   -2925.2594    4.3407404    4.3407404    4.3407404   -2925.2594   -13166.757   -4477.5035    8868.4827   -18193.219    3424.1494    -513.2088     81.78835 
   79800    916.06724   -117.72447   0.82887689   -116.89559     1443.024    4.3400162    4.3400162    4.3400162     1443.024    4153.4496    5286.1122   -5110.4897    14893.198    18245.354   -5276.2765    81.747418 
   79900    901.87293   -117.71139   0.81603358   -116.89536   -5285.0329    4.3419555    4.3419555    4.3419555   -5285.0329   -7756.3558   -22271.557    14172.815   -314.36506     2046.197    4662.7778    81.857051 
   80000    729.19955   -117.55697   0.65979508   -116.89717    4943.5436    4.3366701    4.3366701    4.3366701    4943.5436    3337.9465   -20483.345    31976.029   -32358.119   -7645.2222      5173.97    81.558487 
   80100       936.21   -117.74236   0.84710248   -116.89525   -400.80135    4.3441929    4.3441929    4.3441929   -400.80135    778.78418   -820.91199   -1160.2762   -4768.5098    6066.1769   -2914.5441     81.98366 
   80200    1016.0466   -117.81314    0.9193403    -116.8938    4661.1434    4.3390253    4.3390253    4.3390253    4661.1434   -490.76866   -3066.0954    17540.294    17611.278    9270.5694    345.55729     81.69144 
   80300     707.8325   -117.53873   0.64046172   -116.89827    2365.1143    4.3358692    4.3358692    4.3358692    2365.1143    2610.7812   -28674.496    33159.058   -16656.553   -2353.1563    6857.5649    81.513307 
   80400    789.36337   -117.61359   0.71423257   -116.89936   -11884.093    4.3447781    4.3447781    4.3447781   -11884.093   -10757.521   -21515.364   -3379.3931   -22610.963    78.287665    4567.6593    82.016796 
   80500    964.39095   -117.76751    0.8726012   -116.89491    7373.2073    4.3369738    4.3369738    4.3369738    7373.2073    6941.4441    10409.069    4769.1089    7990.8489    8349.4728   -4187.1792    81.575622 
   80600    955.68592   -117.75986    0.8647247   -116.89514   -6101.0338    4.3398384    4.3398384    4.3398384   -6101.0338   -11792.709   -22129.094    15618.701    5082.5922    3407.8122   -1401.2649    81.737376 
   80700     657.6766   -117.49297   0.59507961   -116.89789   -9891.3304    4.3440965    4.3440965    4.3440965   -9891.3304   -7125.2749   -34002.802    11454.086   -19356.951   -3950.0275      6222.63    81.978202 
   80800    812.12525   -117.62978     0.734828   -116.89495    5956.5928    4.3359033    4.3359033    4.3359033    5956.5928    13941.018    3579.8168    348.94319   -7859.5794   -2252.3448    -1911.276    81.515233 
   80900    890.17063   -117.70002   0.80544509   -116.89458    2666.4174    4.3405636    4.3405636    4.3405636    2666.4174    3451.5942   -5687.0579    10234.716    8368.4416    5362.4661   -5158.3011    81.778357 
   81000    754.21719   -117.57845   0.68243157   -116.89602   -3655.3671    4.3429133    4.3429133    4.3429133   -3655.3671   -5728.6203   -30431.182    25193.701   -7898.2584    709.55946    1603.8809    81.911239 
   81100    856.35018   -117.66966   0.77484364   -116.89482    1983.6013    4.3359516    4.3359516    4.3359516    1983.6013   -6331.3871   -11162.262    23444.453   -11539.646   -5395.8686    877.15864    81.517955 
   81200    860.66394   -117.67433   0.77874682   -116.89558      3853.93    4.3408244    4.3408244    4.3408244      3853.93    7464.1537    3239.3183    858.31805    1413.8773   -9012.7006   -2863.4709    81.793098 
   81300    808.68871   -117.62799   0.73171854   -116.89627   -8972.6477    4.3435315    4.3435315    4.3435315   -8972.6477     -9208.04   -21059.936    3350.0331   -328.10118    1958.7015   -3904.8905    81.946221 
   81400    618.91362    -117.4572   0.56000605    -116.8972   -2197.4057    4.3359282    4.3359282    4.3359282   -2197.4057    -8666.047   -26945.468    29019.298    -12188.98    2050.1523    1484.1669    81.516637 
   81500     856.7191     -117.672   0.77517744   -116.89682   -5047.1453    4.3408288    4.3408288    4.3408288   -5047.1453   -3995.3797   -5881.4039   -5264.6523   -2266.4157   -20554.413    1076.0178    81.793348 
   81600    1015.2292   -117.81166   0.91860071   -116.89306   -2270.3914    4.3437982    4.3437982    4.3437982   -2270.3914    5552.3177    3545.2519   -15908.744    5350.2641   -4150.2926    -3966.815    81.961315 
   81700    801.60317    -117.6213   0.72530739     -116.896    1510.3023    4.3349461    4.3349461    4.3349461    1510.3023    941.47551   -20771.044    24360.475   -9524.1362    8105.8736    99.694714    81.461258 
   81800    553.31206    -117.4015   0.50064838   -116.90085   -9306.4033    4.3428147    4.3428147    4.3428147   -9306.4033   -2968.7922   -27326.067    2375.6492   -7684.5188   -8140.8612    6704.3489    81.905655 
   81900    865.34956   -117.68015   0.78298646   -116.89717   -545.49967    4.3443597    4.3443597    4.3443597   -545.49967    11392.231    6783.1557   -19811.886     3303.061   -16201.241    3963.8822    81.993107 
   82000    1194.0536     -117.971    1.0804048    -116.8906    14610.018    4.3314874    4.3314874    4.3314874    14610.018    23854.093    2140.5691    17835.391   -2253.4793   -3163.5766   -684.93175    81.266425 
   82100    676.48601   -117.51288   0.61209876   -116.90078    -7983.407    4.3439671    4.3439671    4.3439671    -7983.407    -6774.299   -31252.916    14076.994   -13806.409    4194.4415   -2254.9927    81.970879 
   82200    547.36053   -117.39709   0.49526331   -116.90183   -11433.582     4.343146     4.343146     4.343146   -11433.582    -20047.01   -11615.704   -2638.0323   -753.05457   -24908.226    3808.4171    81.924401 
   82300    1045.0574   -117.83961   0.94558993   -116.89402    12120.136    4.3321474    4.3321474    4.3321474    12120.136    21362.763    8891.9023    6105.7419    2173.0937   -14899.759    728.39714    81.303584 
   82400     1057.831     -117.851   0.95714774   -116.89385   -9508.5041    4.3462576    4.3462576    4.3462576   -9508.5041   -10541.532   -24177.116    6193.1358   -13538.656     14286.08   -3927.7431    82.100611 
   82500    653.98856   -117.49068   0.59174259   -116.89894   -3517.8627    4.3379911    4.3379911    4.3379911   -3517.8627    -19679.67   -9635.2009    18761.283    -250.0713   -15210.434    4294.4001    81.633038 
   82600    679.88296   -117.51452   0.61517239   -116.89935    1951.4723    4.3369252    4.3369252    4.3369252    1951.4723    15725.769   -2535.9523   -7335.4001    9469.5721    -18582.76    3965.9251     81.57288 
   82700    1046.6118   -117.84037   0.94699637   -116.89337   -7877.3032    4.3455705    4.3455705    4.3455705   -7877.3032    8919.1172   -15061.856   -17489.171   -3777.3597    10815.024   -6224.7887    82.061681 
   82800     1007.811   -117.80409    0.9118886    -116.8922     10553.53    4.3329457    4.3329457    4.3329457     10553.53    16071.022    2790.0749    12799.493    -3782.803    1713.8636   -4337.1632    81.348534 
   82900    707.03145   -117.53822   0.63973692   -116.89848   -12179.775    4.3439878    4.3439878    4.3439878   -12179.775   -11020.392   -12801.486   -12717.448    8135.1994   -22501.526    4011.9069    81.972047 
   83000    646.76028   -117.48494    0.5852023   -116.89973   -7727.5651    4.3408497    4.3408497    4.3408497   -7727.5651    12277.999   -11854.508   -23606.186    6792.7094   -2868.4377    3505.8452    81.794528 
   83100    1093.9733   -117.88347   0.98984999   -116.89362    10712.111    4.3313654    4.3313654    4.3313654    10712.111    20418.301    9424.5702    2293.4603   -1773.9937    22206.634    -3743.989    81.259562 
   83200    1036.4048   -117.83157   0.93776086    -116.8938   -9633.4716    4.3486871    4.3486871    4.3486871   -9633.4716   -13987.381   -7059.6109    -7853.423    2739.2532   -21016.801     2982.682    82.238367 
   83300    613.21153   -117.45391   0.55484668   -116.89906      1104.63    4.3369984    4.3369984    4.3369984      1104.63    8211.3619   -1385.8744   -3511.5974    10017.208   -20823.949    3221.9488    81.577008 
   83400    783.32214   -117.60525   0.70876634   -116.89649    4967.4405    4.3370314    4.3370314    4.3370314    4967.4405    13357.573   -2617.2142    4161.9626    1287.8062     22116.41   -9549.1475    81.578873 
   83500     1134.172   -117.91646    1.0262227   -116.89024   -6584.3494    4.3456801    4.3456801    4.3456801   -6584.3494   -8315.4387   -5057.2095   -6380.4001   -8855.0372    2640.7299   -1764.0429    82.067888 
   83600    878.16166   -117.68885   0.79457913   -116.89427    8860.2244    4.3329684    4.3329684    4.3329684    8860.2244     1339.404    11309.187    13932.082    4324.1167   -26573.589    6153.2108    81.349812 
   83700    730.56353   -117.55947   0.66102923   -116.89844    -5288.552    4.3421212    4.3421212    4.3421212    -5288.552   -6314.9521   -8649.6146   -901.08924    13430.055   -1797.6546   -4414.1844    81.866423 
   83800    967.75209   -117.77018   0.87564243   -116.89454   -728.81827    4.3407192    4.3407192    4.3407192   -728.81827    334.90366   -11484.648    8963.2893   -3530.1058    16717.203    -6525.206    81.787149 
   83900    897.55802   -117.70544   0.81212936   -116.89331    6523.8658    4.3384672    4.3384672    4.3384672    6523.8658   -6243.7466    1336.9196    24478.424   -13651.181   -18182.026    19.676875    81.659922 
   84000    931.23824    -117.7359   0.84260393    -116.8933   -6169.1309    4.3432701    4.3432701    4.3432701   -6169.1309   -14030.734   -5465.4067    988.74762    9592.8204   -22411.709    1627.7351    81.931427 
   84100    907.06861   -117.71405   0.82073474   -116.89331    11369.306    4.3333515    4.3333515    4.3333515    11369.306    17074.786   -4829.1961    21862.329    11805.838    11876.119   -4631.8486    81.371392 
   84200    790.94184     -117.613    0.7156608   -116.89734   -5529.8752    4.3432904    4.3432904    4.3432904   -5529.8752   -9950.5717   -22952.041    16312.987   -25485.342   -1999.7222   -7180.5468    81.932573 
   84300    903.30911   -117.71313   0.81733307    -116.8958   -3951.3086    4.3411897    4.3411897    4.3411897   -3951.3086    -9493.557   -4257.6486    1897.2799   -12217.807   -18272.442    2362.0621     81.81375 
   84400    1089.8006   -117.87861   0.98607447   -116.89254    8065.8222    4.3334031    4.3334031    4.3334031    8065.8222    6147.0494    7704.2735    10346.144    19871.016   -2806.9123   -1621.9303    81.374299 
   84500    766.55697   -117.59101   0.69359685   -116.89742   -6408.1669    4.3444225    4.3444225    4.3444225   -6408.1669   -7331.6935   -22004.905    10112.097   -8572.5234    7568.4612   -5256.7881    81.996662 
   84600    714.94567   -117.54537   0.64689787   -116.89847    20.463531    4.3382007    4.3382007    4.3382007    20.463531   -1532.2318   -8285.1382    9878.7606   -29545.872   -8795.4091    1744.5741    81.644871 
   84700    1055.8281   -117.84928   0.95533542   -116.89394    3911.6811    4.3392325    4.3392325    4.3392325    3911.6811    167.25772     11416.13    151.65601    6565.4391   -17616.704    1975.9878    81.703144 
   84800    1003.0451   -117.80089   0.90757629   -116.89332    1760.2437    4.3413568    4.3413568    4.3413568    1760.2437    3212.7851    -8800.627    10868.573     13497.37    3174.3919   -382.10177    81.823197 
   84900    624.78314   -117.46399   0.56531692   -116.89867    5157.4162    4.3367035    4.3367035    4.3367035    5157.4162    11469.366   -16102.911    20105.794   -29652.115    2646.2962   -5459.2471     81.56037 
   85000    801.72646   -117.62355   0.72541895   -116.89813   -2435.1372    4.3416882    4.3416882    4.3416882   -2435.1372   -2102.2364   -6546.0654    1342.8901   -18057.921   -10432.608    3498.9753    81.841938 
   85100    1074.2652   -117.86476   0.97201774   -116.89274    8748.4119    4.3372225    4.3372225    4.3372225    8748.4119    18483.145    3516.8873    4245.2031    15874.741   -4187.7191    8035.8108    81.589654 
   85200    824.07821   -117.64268   0.74564328   -116.89704    1336.2629    4.3398716    4.3398716    4.3398716    1336.2629    561.21804   -16558.177    20005.748   -14040.302    3633.9662   -4558.3961    81.739248 
   85300    672.57244    -117.5069   0.60855768   -116.89835    -7669.677    4.3426384    4.3426384    4.3426384    -7669.677   -15237.025   -19976.547    12204.541   -24934.375    164.89338    1443.0934    81.895683 
   85400    908.38277   -117.71604   0.82192382   -116.89412    7379.0848    4.3346975    4.3346975    4.3346975    7379.0848    20050.725     2748.625   -662.09542    4554.8831      -9260.7    11584.501    81.447245 
   85500    909.06169   -117.71662   0.82253812   -116.89409   -5409.7416    4.3427214    4.3427214    4.3427214   -5409.7416   -1467.2818   -15679.695      917.752   -2330.5264    -5557.279    4406.9138     81.90038 
   85600    713.57712   -117.54217   0.64565958   -116.89651    -6697.985    4.3413173    4.3413173    4.3413173    -6697.985   -19433.711    -23304.57    22644.326   -26583.421    1967.0986   -5642.4462    81.820966 
   85700     852.8451   -117.66602   0.77167217   -116.89435    7090.4064    4.3330555    4.3330555    4.3330555    7090.4064    12682.584   -54.152091     8642.787   -5594.1611   -2581.8957    4696.6449    81.354723 
   85800    907.83589   -117.71571     0.821429   -116.89428   -3641.4977    4.3431533    4.3431533    4.3431533   -3641.4977    12804.933   -8448.7069   -15280.719    5227.3729   -4373.1691    15730.928    81.924814 
   85900    671.36472   -117.50517   0.60746491   -116.89771   -6447.7025    4.3410301    4.3410301    4.3410301   -6447.7025   -4586.2417    -28916.18    14159.315   -27108.144    1139.0916     668.8401    81.804725 
   86000     731.6391   -117.55883   0.66200243   -116.89682    7089.1572    4.3359099    4.3359099    4.3359099    7089.1572    7301.7996   -14122.065    28087.737   -11440.999    391.02714     689.5461    81.515602 
   86100    1087.1579   -117.87504    0.9836833   -116.89136    639.51609    4.3420844    4.3420844    4.3420844    639.51609    9320.0164   -4105.6387   -3295.8294    12687.601   -3232.5627    8871.4941    81.864341 
   86200    830.97477   -117.64674   0.75188344   -116.89486    2163.7102    4.3389703    4.3389703    4.3389703    2163.7102    13230.168   -14499.608      7760.57   -20041.739   -3493.2499   -1569.9691    81.688332 
   86300    504.55025   -117.35693   0.45652767    -116.9004   -5334.7511    4.3400793    4.3400793    4.3400793   -5334.7511   -2256.0871    -36994.63    23246.463   -20350.304    111.22346   -5584.5262    81.750984 
   86400    865.43983   -117.68063   0.78306815   -116.89756   -142.20527    4.3382285    4.3382285    4.3382285   -142.20527    926.65318   -13997.882    12644.613    20355.522   -744.47271   -839.12254    81.646442 
   86500    1185.3518   -117.96496    1.0725313   -116.89243    6169.7136    4.3374871    4.3374871    4.3374871    6169.7136    10139.281    2627.7859    5742.0743    2394.1197   -3582.0181    5047.9229     81.60459 
   86600    717.81076   -117.54903   0.64949026   -116.89954   -7382.1256    4.3447993    4.3447993    4.3447993   -7382.1256   -6960.8709   -25834.603    10649.098   -30538.214    1181.5491   -3844.2217    82.017998 
   86700    477.11095   -117.33385   0.43170002   -116.90215   -2474.3963    4.3356161    4.3356161    4.3356161   -2474.3963    707.64248   -30332.153    22201.321    11522.606    1424.1899   -11758.983    81.499034 
   86800    953.57571   -117.76108   0.86281534   -116.89826    3665.9122    4.3378692    4.3378692    4.3378692    3665.9122    8489.1916   -9269.6103    11778.155     27228.46     750.1271   -281.97592    81.626156 
   86900    1173.3214   -117.95433    1.0616459   -116.89268    193.86487    4.3441806    4.3441806    4.3441806    193.86487     4708.401   -10134.191    6007.3846   -16536.791   -277.00167   -906.15494    81.982963 
   87000    663.50879    -117.5005    0.6003567   -116.90014    5653.3456    4.3352536    4.3352536    4.3352536    5653.3456    8889.8408   -20682.185    28752.381   -5422.1261     -3005.89   -4764.1461    81.478596 
   87100    575.74174   -117.42352   0.52094323   -116.90258   -7237.8563    4.3392001    4.3392001    4.3392001   -7237.8563   -7649.3917   -38555.088     24490.91    30087.768    3225.4044   -755.40499    81.701312 
   87200    1014.8618   -117.81454   0.91826832   -116.89627    3311.8865    4.3384925    4.3384925    4.3384925    3311.8865    13140.483    -12172.41    8967.5864    7132.9099   -2096.9723    8540.9281    81.661347 
   87300    1039.1012   -117.83588   0.94020063   -116.89568   -45.339741     4.339815     4.339815     4.339815   -45.339741    7676.0235   -16403.761    8591.7184   -7840.6403   -1410.0135    9087.9308    81.736053 
   87400    635.28799   -117.47445   0.57482192   -116.89963   -11005.197    4.3426145    4.3426145    4.3426145   -11005.197   -28877.768   -37149.634     33011.81    25196.975   -177.43128   -5526.4438     81.89433 
   87500    796.95616   -117.61708   0.72110268   -116.89598     3073.363    4.3323401    4.3323401    4.3323401     3073.363    6274.4099   -20662.237    23607.916    14430.673    21.249429    6877.4701    81.314434 
   87600    1023.2528   -117.81911   0.92586065   -116.89325    -8576.664    4.3436842    4.3436842    4.3436842    -8576.664    13552.446   -16783.023   -22499.415   -6878.0851     7555.909    17140.017    81.954865 
   87700    714.31103   -117.54381   0.64632363   -116.89749   -13380.508    4.3424612    4.3424612    4.3424612   -13380.508   -17997.129   -33191.165    11046.772     20629.95   -1782.7538    32.141502    81.885655 
   87800     675.4273   -117.50788   0.61114082   -116.89674    7151.5034    4.3296891    4.3296891    4.3296891    7151.5034   -2438.9198   -18311.318    42204.748    17171.937   -888.05174   -3665.5275    81.165253 
   87900    1015.7172   -117.81168   0.91904231   -116.89264   -8616.8641     4.346785     4.346785     4.346785   -8616.8641     7127.437   -21284.545   -11693.484   -9601.3958    4703.8607    10090.229    82.130503 
   88000     874.1345   -117.68651   0.79093527   -116.89557     -3830.59    4.3388984    4.3388984    4.3388984     -3830.59     4996.203    -15960.39   -527.58269    11068.109     858.5375    4299.4075    81.684271 
   88100    480.62948   -117.33379   0.43488365   -116.89891     2978.752    4.3322111    4.3322111    4.3322111     2978.752   -4471.9887   -31546.461    44954.706    24020.814    320.48547   -4553.2951    81.307165 
   88200    755.17414   -117.58017   0.68329743   -116.89687   -10107.641    4.3468424    4.3468424    4.3468424   -10107.641   -12754.105   -28794.184    11225.367   -11531.228   -1699.6627   -1683.8564    82.133756 
   88300    1081.0342   -117.86912   0.97814245   -116.89098     7931.846    4.3348853    4.3348853    4.3348853     7931.846    13368.752   -616.55392     11043.34   -8242.8632    9698.6372    2390.6905    81.457832 
   88400    703.42871   -117.53358   0.63647708    -116.8971   -4555.7719    4.3377017    4.3377017    4.3377017   -4555.7719   -8932.9746   -24179.391     19445.05    28454.439    4878.0106   -159.74989    81.616703 
   88500    484.07717   -117.33757   0.43800319   -116.89957   -15039.758    4.3430698    4.3430698    4.3430698   -15039.758   -18088.767   -46297.124    19266.618     2576.831    -4925.549   -10587.812    81.920092 
   88600    768.50532   -117.59155   0.69535976   -116.89619    9667.4635    4.3344225    4.3344225    4.3344225    9667.4635     20474.72   -5007.4626    13535.133   -25898.077    8010.4566   -1821.0767    81.431744 
   88700    999.72099   -117.79704   0.90456856   -116.89247   -4475.2954    4.3414458    4.3414458    4.3414458   -4475.2954   -2345.7617   -7432.5959   -3647.5285    9655.2597     10362.51    2323.9073    81.828229 
   88800    681.95025   -117.51389   0.61704292   -116.89685   -2905.1177    4.3376991    4.3376991    4.3376991   -2905.1177   -50.801017   -24546.902     15882.35    16858.872   -102.70842   -3709.2416    81.616558 
   88900    530.05784   -117.37911   0.47960748    -116.8995   -1149.0685    4.3385529    4.3385529    4.3385529   -1149.0685    13276.113   -33448.292    16724.974   -22535.773   -3246.7794   -2747.3745    81.664761 
   89000    795.40173   -117.61476    0.7196962   -116.89506   -445.92403    4.3422891    4.3422891    4.3422891   -445.92403    8614.0616   -3887.5321   -6064.3015    -11724.42     11646.34    3218.2625    81.875919 
   89100    953.75227   -117.75405    0.8629751   -116.89108    7333.8044    4.3343149    4.3343149    4.3343149    7333.8044    13676.802   -1745.4124    10070.024    13510.364    9842.8215    7186.6719    81.425677 
   89200    653.32134   -117.48748   0.59113888   -116.89634   -6249.2953    4.3428358    4.3428358    4.3428358   -6249.2953    467.77398   -42806.016    23590.356   -6759.3766   -5486.9298   -6000.8637    81.906851 
   89300    656.98384   -117.49056   0.59445278   -116.89611   -2992.0594     4.339667     4.339667     4.339667   -2992.0594    4580.7742   -29850.515    16293.563   -19596.461    2327.9126   -2879.2834    81.727689 
   89400    804.79847   -117.62183   0.72819857   -116.89363    13466.427    4.3330346    4.3330346    4.3330346    13466.427    21557.834    6049.6101    12791.837    1755.4393     13848.86    13671.208    81.353542 
   89500     785.0977   -117.60502   0.71037289   -116.89464   -5651.0725    4.3447736    4.3447736    4.3447736   -5651.0725    3799.0735   -32579.616    11827.325    1996.4304    5110.1379    4397.4719    82.016543 
   89600     710.2003   -117.53654   0.64260415   -116.89393   -1470.1122    4.3390545    4.3390545    4.3390545   -1470.1122   -3555.6757   -38071.159    37216.498   -19588.137   -1540.8562   -3484.1362     81.69309 
   89700    771.39473   -117.59093   0.69797416   -116.89296    3764.3733    4.3357215    4.3357215    4.3357215    3764.3733    13178.002   -10940.905    9056.0236   -3068.4948    13067.367    8543.2336    81.504976 
   89800    783.25066   -117.60158   0.70870165   -116.89288   -4440.7682    4.3416814    4.3416814    4.3416814   -4440.7682     10625.87   -8884.2265   -15063.948    3599.9624    13900.784    10952.354    81.841552 
   89900    664.24259   -117.49612   0.60102066    -116.8951   -4742.1518     4.336983     4.336983     4.336983   -4742.1518    -1175.132   -36043.399    22992.076   -18739.921   -4008.3483    143.81519    81.576141 
   90000    715.38316   -117.54293   0.64729371   -116.89564   -10058.001    4.3404099    4.3404099    4.3404099   -10058.001   -7300.4436   -38504.058    15630.499   -8253.0541   -615.56055   -3591.5214    81.769667 
   90100    834.70721   -117.64764   0.75526063   -116.89238   -4847.2315    4.3401101    4.3401101    4.3401101   -4847.2315     13317.72   -8071.4965   -19787.918     6005.848     21080.11    11058.179    81.752727 
   90200    741.13901   -117.56392   0.67059815   -116.89332    1546.5173    4.3352314    4.3352314    4.3352314    1546.5173    8962.1043    -10225.02    5902.4678   -12605.559    7670.7942    7332.8288    81.477344 
   90300    555.99464   -117.39919   0.50307563   -116.89612   -11824.443    4.3431431    4.3431431    4.3431431   -11824.443   -5227.8302   -51015.838     20770.34   -19421.892   -5592.2342   -6746.4849    81.924238 
   90400     700.5185   -117.52893   0.63384386   -116.89509    -2318.064    4.3380667    4.3380667    4.3380667    -2318.064    15119.019   -21263.527   -809.68395    10527.125    11251.459   -1408.9273    81.637309 
   90500    929.96435    -117.7333   0.84145129   -116.89185    7430.0309    4.3332914    4.3332914    4.3332914    7430.0309    21367.611    2590.1554   -1667.6734    810.45889    13715.757    3250.2051    81.368007 
   90600    607.94464   -117.44616   0.55008108   -116.89608   -3787.5809    4.3443249    4.3443249    4.3443249   -3787.5809    11008.546   -34314.867    11943.578    -27860.05   -1657.6145   -25.930418    81.991132 
   90700    464.61002   -117.31845   0.42038891   -116.89806   -7146.3916    4.3403539    4.3403539    4.3403539   -7146.3916    5689.7543   -40782.334    13653.405    1101.3535   -3110.5316   -4068.7957    81.766503 
   90800    779.49254   -117.59937   0.70530123   -116.89407     5771.935    4.3310687    4.3310687    4.3310687     5771.935     22061.12   -12205.986    7460.6709    21190.202    11930.196   -2277.2269    81.242863 
   90900    932.69716   -117.73658   0.84392399   -116.89266   -4452.7991    4.3424294    4.3424294    4.3424294   -4452.7991    12282.301   -24085.743   -1554.9554   -18135.689    6114.1178     2378.119     81.88386 
   91000    448.87713   -117.30457   0.40615346   -116.89841   -11975.381    4.3438142    4.3438142    4.3438142   -11975.381   -6415.3425   -41735.807    12225.005   -16542.989    -6745.335   -2061.6562    81.962222 
   91100    469.80314   -117.32414   0.42508775   -116.89905   -2466.3412    4.3295121    4.3295121    4.3295121   -2466.3412    3975.8157   -34889.575    23514.736    32136.001    4199.4311   -6731.0115    81.155295 
   91200     928.6136   -117.73565    0.8402291   -116.89542   -4206.0014    4.3402017    4.3402017    4.3402017   -4206.0014    17514.468   -29125.403   -1007.0693    6649.2412    5324.3132    725.85941    81.757901 
   91300    840.23314   -117.65502   0.76026061   -116.89476    -12030.54    4.3455179    4.3455179    4.3455179    -12030.54    882.98162   -35042.531    -1932.072   -18922.748   -2943.2452    3036.2234      82.0587 
   91400    342.27969   -117.21054   0.30970186   -116.90083   -1946.6341    4.3309068    4.3309068    4.3309068   -1946.6341   -1596.0588   -37436.732    33192.888    23359.922   -2716.6035   -4970.8907    81.233751 
   91500    594.74952   -117.43989   0.53814187   -116.90175   -4676.7129    4.3383861    4.3383861    4.3383861   -4676.7129    13681.827    -43037.44    15325.474    24476.603   -988.00475   -2091.4365     81.65534 
   91600    1077.5985   -117.86689   0.97503373   -116.89186   -5423.3277    4.3435761    4.3435761    4.3435761   -5423.3277     25708.28   -31930.005   -10048.258   -8514.0954     3060.673    10221.837    81.948745 
   91700     614.0907   -117.45387   0.55564217   -116.89822   -2517.4544    4.3357979    4.3357979    4.3357979   -2517.4544    10105.227   -36776.498    19118.907    16162.388    -3146.689     5246.139    81.509286 
   91800    423.94332   -117.28548   0.38359282   -116.90189   -6251.4695    4.3360959    4.3360959    4.3360959   -6251.4695   -12238.196   -41701.733     35185.52    31430.591   -3216.7699   -5359.0549    81.526096 
   91900    871.17412   -117.68417   0.78825665   -116.89591    -1695.252    4.3395217    4.3395217    4.3395217    -1695.252    25469.013   -33480.784    2926.0154    -6759.008    2244.3784    9008.2134    81.719478 
   92000    869.42805   -117.68098   0.78667678    -116.8943   -9994.7242    4.3427167    4.3427167    4.3427167   -9994.7242    15986.496   -40969.381   -5001.2872     8259.142   -880.32067    11623.322    81.900111 
   92100    574.87618   -117.41841   0.52016005   -116.89825   -3217.5975     4.333744     4.333744     4.333744   -3217.5975   -8907.7373   -35613.049    34867.994    32354.162    545.19296   -2331.1327    81.393507 
   92200    680.00481     -117.513   0.61528264   -116.89772      2628.37    4.3353851    4.3353851    4.3353851      2628.37    5156.5284   -25737.128     28465.71   -3972.8563   -3493.2233    2839.7478    81.486005 
   92300    843.44886    -117.6571   0.76317026   -116.89393   -10324.238    4.3469491    4.3469491    4.3469491   -10324.238    18761.284   -40479.608   -9254.3896   -12265.532    1107.6958    12970.682    82.139802 
   92400    770.79109   -117.59181   0.69742798   -116.89438    3674.0819    4.3332285    4.3332285    4.3332285    3674.0819    14680.338   -25733.387    22075.294    23593.433    5331.3492    3566.8168    81.364466 
   92500    736.75705   -117.56245   0.66663326   -116.89582    5825.1989     4.333941     4.333941     4.333941    5825.1989     4042.681   -21225.623    34658.539    7458.3894   -7122.4322   -6718.8098    81.404609 
   92600    684.25555   -117.51436    0.6191288   -116.89523   -5990.9529    4.3463393    4.3463393    4.3463393   -5990.9529    6216.9745   -31153.446    6963.6127   -24717.409   -2092.7992     8454.046     82.10524 
   92700    827.29317   -117.64268   0.74855224   -116.89413    5155.0466    4.3340571    4.3340571    4.3340571    5155.0466    21839.621   -15361.408    8986.9274    3064.4989    5980.2958    8783.3207     81.41115 
   92800    852.81774   -117.66562   0.77164741   -116.89397    1782.1549    4.3355287    4.3355287    4.3355287    1782.1549    13577.455   -19747.591      11516.6    10075.687    4132.5103   -3911.7584    81.494104 
   92900      725.147   -117.55202   0.65612824   -116.89589   -7300.4614    4.3428761    4.3428761    4.3428761   -7300.4614   -12601.187   -24792.793    15492.596   -19928.407   -9245.8125    2752.3788    81.909133 
   93000    673.74781   -117.50579   0.60962118   -116.89617    2205.7822    4.3363991    4.3363991    4.3363991    2205.7822    8719.5958   -6013.3209    3911.0717   -12096.959   -1846.5477    5343.9205      81.5432 
   93100    898.78646   -117.70667   0.81324088   -116.89343   -7047.0929    4.3383643    4.3383643    4.3383643   -7047.0929    10684.337    -13163.62   -18661.996    5670.3046    20693.674    1223.0917    81.654111 
   93200    867.50612   -117.67916   0.78493777   -116.89422   -5919.6434    4.3376842    4.3376842    4.3376842   -5919.6434   -5250.2693   -17530.117    5021.4557   -10199.323   -6275.5602   -3617.6293    81.615714 
   93300    668.33051   -117.50175   0.60471949   -116.89703   -5133.8292    4.3388576    4.3388576    4.3388576   -5133.8292   -10106.667   -9276.7713     3981.951   -22114.436   -14949.905     2219.923     81.68197 
   93400    684.96014   -117.51715   0.61976633   -116.89738   -7169.0674    4.3405393    4.3405393    4.3405393   -7169.0674    5994.0092   -4427.1907   -23074.021     858.7867    20570.938     10818.01    81.776983 
   93500    909.42948   -117.71664   0.82287091   -116.89377    1587.7226    4.3342525    4.3342525    4.3342525    1587.7226    11349.319   -244.79022   -6341.3605     4440.671    16582.505    -160.1177    81.422164 
   93600     890.7606    -117.6999   0.80597891   -116.89392   -2266.7639    4.3401534    4.3401534    4.3401534   -2266.7639   -1517.9662     -11854.8    6572.4741   -21448.641   -16606.617   -2043.1107    81.755171 
   93700    590.08367   -117.43177    0.5339201   -116.89785   -4006.8672    4.3416103    4.3416103    4.3416103   -4006.8672     4351.892    1307.8862    -17680.38   -7405.6742   -5882.7431    5291.8998    81.837533 
   93800    700.76478   -117.53102    0.6340667   -116.89695    5487.7999    4.3324899    4.3324899    4.3324899    5487.7999    9922.9383    13583.719   -7043.2578    6798.5926    29426.114    3794.6925    81.322868 
   93900    953.36336   -117.75651    0.8626232   -116.89389    613.82342    4.3391309    4.3391309    4.3391309    613.82342    3208.1915    -8839.597    7472.8757   -1153.4884    5240.3189    474.61155    81.697405 
   94000    819.31621   -117.63702   0.74133453   -116.89569   -8050.2444    4.3429793    4.3429793    4.3429793   -8050.2444   -6514.1324   -6956.0892   -10680.512   -9044.5746   -24308.724   -287.19036    81.914968 
   94100    546.86395   -117.39251     0.494814    -116.8977    2740.4267    4.3342088    4.3342088    4.3342088    2740.4267     3943.221    16275.377   -11997.318   -6963.4416    10663.751    7196.8804      81.4197 
   94200    806.76512    -117.6256   0.72997803   -116.89562    50.318932    4.3377009    4.3377009    4.3377009    50.318932   -741.76386    1291.5992   -398.87858    16521.615    22166.814    4265.8204    81.616656 
   94300    904.74574   -117.71224   0.81863295   -116.89361    -3152.365    4.3409167    4.3409167    4.3409167    -3152.365   -6390.2035   -5730.0182    2663.1267    10003.992   -10225.159   -3122.5252    81.798317 
   94400     741.2152   -117.56629   0.67066709   -116.89562    4328.2802    4.3359389    4.3359389    4.3359389    4328.2802    11727.619    7559.8172   -6302.5957   -13745.455   -13128.712    1680.4874    81.517239 
   94500    681.56148   -117.51356   0.61669115   -116.89687   -626.48921    4.3382156    4.3382156    4.3382156   -626.48921     3363.406    5831.0065    -11073.88    6717.4565    15600.025    3727.6302    81.645715 
   94600    718.61787   -117.54676   0.65022055   -116.89654    2482.4899    4.3386972    4.3386972    4.3386972    2482.4899   -359.54892   -4144.7132    11951.732    28235.011    10075.449   -32.650458    81.672909 
   94700    938.17504   -117.74175   0.84888049   -116.89287    2818.7605     4.338611     4.338611     4.338611    2818.7605    11288.411   -8053.2833    5221.1543    3025.3328   -12542.133   -3145.6143    81.668044 
   94800    850.44099   -117.66303   0.76949688   -116.89353    4994.9817    4.3383192    4.3383192    4.3383192    4994.9817    22346.047    2261.5391   -9622.6407   -11672.695   -4203.3311     1100.359    81.651564 
   94900    495.89302   -117.34876   0.44869443   -116.90006   -3912.2167    4.3363458    4.3363458    4.3363458   -3912.2167   -9415.8671   -8710.3866    6389.6038    27563.505    10511.418    3736.8673    81.540192 
   95000    689.65177   -117.52461   0.62401141    -116.9006   -839.45082    4.3383902    4.3383902    4.3383902   -839.45082   -449.63653   -17333.705    15264.989    29415.078    8441.3569   -3496.2502    81.655574 
   95100    1248.1049     -118.021    1.1293115   -116.89168    2267.5366    4.3405139    4.3405139    4.3405139    2267.5366    22919.295   -8607.0701   -7509.6155    -10838.92   -10034.979   -2027.8693    81.775546 
   95200    664.83746   -117.50246    0.6015589    -116.9009   -2691.1087    4.3367097    4.3367097    4.3367097   -2691.1087    4513.4839   -14601.007    2014.1967    20599.071    3864.9007    3798.7042    81.560718 
   95300    317.62481    -117.1934    0.2873936     -116.906   -9271.8527    4.3365834    4.3365834    4.3365834   -9271.8527   -17745.515    -24585.47    14515.428     37222.74     13863.16    1584.2422    81.553595 
   95400    993.52585   -117.79727   0.89896307   -116.89831   -4649.2923    4.3423456    4.3423456    4.3423456   -4649.2923    4225.0865   -14598.667   -3574.2966   -9751.2599   -2225.2836   -5195.3817    81.879119 
   95500    1044.8275   -117.83925   0.94538191   -116.89386    7854.4949    4.3361345    4.3361345    4.3361345    7854.4949     27899.14   -7726.2577    3390.6018   -1351.8094    183.52247   -50.326689    81.528272 
   95600    587.57192   -117.43154   0.53164742   -116.89989    -4154.981    4.3356314    4.3356314    4.3356314    -4154.981   -8858.4574   -17773.567    14167.081    39426.816    5883.4536    7747.5887    81.499898 
   95700    600.09617   -117.44191   0.54297962   -116.89893    -11557.31    4.3426021    4.3426021    4.3426021    -11557.31   -21035.923   -13560.129   -75.879415    3657.3116    13202.016   -4626.7277     81.89363 
   95800    898.74172   -117.70678    0.8132004   -116.89358    2456.1175    4.3367242    4.3367242    4.3367242    2456.1175    6992.6039    2156.0115   -1780.2628   -23971.682   -1284.7167   -4914.3867    81.561539 
   95900     841.8682   -117.65529   0.76174004   -116.89355      755.342    4.3370889    4.3370889    4.3370889      755.342     1462.067     -6731.65     7535.609    21793.186    -11710.83    2537.0587    81.582118 
   96000    723.56761   -117.54956   0.65469918   -116.89486    -6904.341    4.3399762    4.3399762    4.3399762    -6904.341    -16335.76   -9289.1512    4911.8879    20516.742    18009.051    258.29459    81.745159 
   96100    616.82127   -117.45454   0.55811285   -116.89643   -7921.9525    4.3384638    4.3384638    4.3384638   -7921.9525   -19145.651    2115.7613   -6735.9679   -16533.306    13457.119   -4161.2422     81.65973 
   96200    709.26063   -117.53813   0.64175393   -116.89637    -649.3436    4.3382928    4.3382928    4.3382928    -649.3436   -1857.9101    2622.9896   -2713.1102   -5406.0135    -18703.66   -1718.1317    81.650071 
   96300    947.77979   -117.75006   0.85757107   -116.89249    2384.7633    4.3367817    4.3367817    4.3367817    2384.7633   -3156.9974    2834.5052    7476.7821    11292.582   -4626.6735    4275.5365    81.564786 
   96400    692.63795   -117.52316   0.62671337   -116.89644   -6139.5167    4.3404908    4.3404908    4.3404908   -6139.5167   -19191.597    2212.2865   -1439.2393    -3038.002    28667.592   -1703.1541    81.774241 
   96500    445.23057   -117.30226   0.40285398   -116.89941   -6703.1957    4.3398123    4.3398123    4.3398123   -6703.1957   -15798.104     1734.628   -6046.1108   -16144.745   -2382.5243   -4880.7453    81.735897 
   96600    814.08714   -117.63116   0.73660315   -116.89455    5557.2039    4.3366682    4.3366682    4.3366682    5557.2039    6733.0231    8088.7144    1849.8742   -2135.0494   -27794.788   -844.16515    81.558379 
   96700       1004.1   -117.79991   0.90853083   -116.89138   -630.94183    4.3394991    4.3394991    4.3394991   -630.94183   -3107.0008    5639.5862   -4425.4109      7720.94    18203.945   -428.56503    81.718201 
   96800    556.87822    -117.4028   0.50387511   -116.89893   -6484.6982    4.3381015    4.3381015    4.3381015   -6484.6982    -20407.44    5976.1055   -5022.7598   -10694.939    21496.009    -1230.496    81.639271 
   96900    471.96392   -117.32839   0.42704288   -116.90135   -5439.7126    4.3374474    4.3374474    4.3374474   -5439.7126   -11883.044     3100.138   -7536.2317   -14764.953   -26742.579   -5195.7321    81.602351 
   97000    905.25543   -117.71382   0.81909414   -116.89473    619.83408    4.3402293    4.3402293    4.3402293    619.83408    2018.2624    1009.8449    -1168.605    4093.7007   -13368.146    263.25683    81.759459 
   97100    941.03644   -117.74393   0.85146954   -116.89246   -3451.2492    4.3395806    4.3395806    4.3395806   -3451.2492   -11886.707    1510.1883    22.770975    2513.2155     27166.39    2555.6236    81.722806 
   97200    493.42972   -117.34436   0.44646558   -116.89789   -3291.0897    4.3373484    4.3373484    4.3373484   -3291.0897   -11376.469    4592.0953   -3088.8951   -18160.676   -7804.3238   -4130.3486     81.59676 
   97300    546.91948   -117.39338   0.49486424   -116.89851    185.51205    4.3382607    4.3382607    4.3382607    185.51205   -801.11954   -1738.8186    3096.4743   -5913.4881   -27419.142   -1476.4424    81.648261 
   97400    902.13123   -117.70996   0.81626729   -116.89369    3235.7366    4.3391256    4.3391256    4.3391256    3235.7366    1016.1597    -5214.818    13905.868      23039.8    5523.4893    1806.0313    81.697105 
   97500    903.91789   -117.71089    0.8178839   -116.89301    2539.1152    4.3384028    4.3384028    4.3384028    2539.1152    963.46157   -859.83433    7513.7182   -5955.2873    2430.0864    667.21398    81.656287 
   97600    514.78339   -117.36429   0.46578683    -116.8985    334.03439    4.3387592    4.3387592    4.3387592    334.03439   -6273.0439   -4063.8641    11339.011   -18728.529   -18475.332   -4881.5525    81.676411 
   97700    528.17571   -117.37661   0.47790448    -116.8987   -1228.1057    4.3381515    4.3381515    4.3381515   -1228.1057   -4060.3213   -11471.906     11847.91    23207.164   -14015.107   -3457.6629    81.642094 
   97800    957.87125   -117.76054   0.86670204   -116.89383    1420.7538    4.3382508    4.3382508    4.3382508    1420.7538   -2855.9294   -11694.677    18812.868    19796.905    6652.5902    3302.1441    81.647704 
   97900    967.19306   -117.76817   0.87513661   -116.89303    -825.1828    4.3399141    4.3399141    4.3399141    -825.1828   -3862.1694   -7434.1891    8820.8101   -19454.457   -2559.5242   -4095.5825     81.74165 
   98000    413.47744   -117.27481   0.37412308   -116.90069   -2792.4188    4.3384181    4.3384181    4.3384181   -2792.4188   -7291.8839   -13669.598    12584.226    2545.9517   -23598.924   -5164.7017    81.657149 
   98100    602.76497   -117.44619   0.54539441   -116.90079   -2864.2365    4.3375238    4.3375238    4.3375238   -2864.2365   -9747.2983   -14489.765    15644.353    33603.741   -518.03132    -720.0676    81.606661 
   98200    1101.4518   -117.88869   0.99661675   -116.89208     1970.243    4.3395006    4.3395006    4.3395006     1970.243    361.63947   -4955.9609     10505.05    94.688637    11276.037    506.47644    81.718285 
   98300    871.04432    -117.6842   0.78813921   -116.89606   -1930.8102    4.3390651    4.3390651    4.3390651   -1930.8102    -1220.417   -8965.3353    4393.3216   -8522.4656   -10144.297    183.67348    81.693685 
   98400     474.0351   -117.32873   0.42891692   -116.89981   -2369.5066    4.3381642    4.3381642    4.3381642   -2369.5066   -7620.1699   -16165.756    16677.406    25461.218   -15885.324   -2446.2812     81.64281 
   98500     797.5612   -117.61787   0.72165013   -116.89622   -4319.4648    4.3395585    4.3395585    4.3395585   -4319.4648   -8682.6896   -7969.7539    3694.0491    13358.882     11148.08     656.0827    81.721558 
   98600     1019.029   -117.81443   0.92203883   -116.89239    549.59558    4.3373672    4.3373672    4.3373672    549.59558    1639.0617    5987.8387   -5978.1137   -7129.7212     27275.41   -1443.8395    81.597821 
   98700    829.23499   -117.64537   0.75030924   -116.89506    5126.9684    4.3375475    4.3375475    4.3375475    5126.9684     3991.574   -7388.7208    18778.052    15535.215   -14508.292   -2143.4305    81.607997 
   98800    609.47405    -117.4491   0.55146493   -116.89763   -6099.2843    4.3419981    4.3419981    4.3419981   -6099.2843   -14266.341   -15362.264    11330.752     22436.59   -3044.2594   -2834.6614    81.859462 
   98900    707.50883   -117.53601   0.64016886   -116.89584     1281.034    4.3363309    4.3363309    4.3363309     1281.034    -3064.272    13047.796   -6140.4221   -4822.2892    36412.305    3170.3117    81.539351 
   99000    1029.0133    -117.8228   0.93107285   -116.89172    2691.6977    4.3384137    4.3384137    4.3384137    2691.6977    4942.8749    131.50042    3000.7178   -1359.4152    4890.2248    3629.3668    81.656903 
   99100    846.30897   -117.65872   0.76575814   -116.89296   -1491.6704    4.3426666    4.3426666    4.3426666   -1491.6704    605.89924   -20461.409    15380.499    20938.876   -11786.073   -3197.4265    81.897279 
   99200    530.64967   -117.37905   0.48014297    -116.8989    -3897.834    4.3341659    4.3341659    4.3341659    -3897.834   -6889.1089     11990.09   -16794.483    12049.429    26769.469   -333.55223    81.417279 
   99300    742.90445   -117.57095   0.67219556   -116.89875   -2728.3217    4.3371108    4.3371108    4.3371108   -2728.3217     -4271.07    10920.639   -14834.534   -11837.219    28128.927    -1921.068    81.583354 
   99400     1106.884   -117.89279    1.0015319   -116.89126   -4848.6458    4.3438982    4.3438982    4.3438982   -4848.6458    2908.1044   -23158.702    5704.6605   -5163.0372   -6781.2386   -96.877123    81.966976 
   99500    754.49946   -117.57841   0.68268697   -116.89572     -2514.65    4.3380207    4.3380207    4.3380207     -2514.65    1510.1848   -3559.0807   -5495.0542    15590.983    11020.009   -2402.1929     81.63471 
   99600    532.34381   -117.37944   0.48167586   -116.89777   -5908.3587    4.3341733    4.3341733    4.3341733   -5908.3587   -13237.373    17000.501   -21488.203   -2147.6576     32416.54   -2266.3772    81.417699 
   99700    846.97151   -117.66233   0.76635762   -116.89598   -5992.0958    4.3416544    4.3416544    4.3416544   -5992.0958   -2875.5722   -16726.756    1626.0408   -24213.358   -2022.8429    2711.0496    81.840025 
   99800    1033.6424   -117.82709   0.93526132   -116.89183   -3246.3781    4.3412978    4.3412978    4.3412978   -3246.3781    5976.7166   -17143.237    1427.3863   -4620.5718   -3567.4438   -6500.0451    81.819863 
   99900    731.47287   -117.55676   0.66185202   -116.89491    2782.5775    4.3337781    4.3337781    4.3337781    2782.5775    1411.3367    13354.386   -6417.9899    9996.3264    36323.427   -3157.6273    81.395429 
  100000    595.14718   -117.43619   0.53850167   -116.89769   -7102.0896    4.3405871    4.3405871    4.3405871   -7102.0896   -8438.4808   -11094.169   -1773.6192   -16348.886    12033.713    870.84457    81.779682 
Loop time of 22.1362 on 1 procs for 100000 steps with 8 atoms

Pair  time (%) = 6.86749 (31.0238)
Kspce time (%) = 5.43923 (24.5717)
Neigh time (%) = 0 (0)
Comm  time (%) = 1.09939 (4.96648)
Outpt time (%) = 0.02529 (0.114247)
Other time (%) = 8.7048 (39.3238)

Nlocal:    8 ave 8 max 8 min
Histogram: 1 0 0 0 0 0 0 0 0 0
Nghost:    2189 ave 2189 max 2189 min
Histogram: 1 0 0 0 0 0 0 0 0 0
Neighs:    2056 ave 2056 max 2056 min
Histogram: 1 0 0 0 0 0 0 0 0 0

Total # of neighbors = 2056
Ave neighs/atom = 257
Neighbor list builds = 0
Dangerous builds = 0
unfix 20
unfix 21
print "seeds:9444740"
seeds:9444740
