LAMMPS (10 Feb 2015)
# ---- initialize simulations
clear
units metal
dimension 3
boundary p p p
atom_style charge
atom_modify map array
# ---- create atoms
read_data /Users/eugeneragasa/pyflamestk_git/pypospack/tests/tests_integration/workflow/WorkflowLammpsThermalExpansion/param_785/MgO_NaCl_unit.npt.T700/lammps.structure
  triclinic box = (0 0 0) to (4.2565 4.2565 4.2565) with tilt (0 0 0)
  1 by 1 by 1 MPI processor grid
  reading atoms ...
  8 atoms
# ---- define interatomic potential
include potential.mod
mass 1 24.305
mass 2 15.999

group Mg type 1
4 atoms in group Mg
group O type 2
4 atoms in group O

set group Mg charge 1.62294375895
  4 settings made for charge
set group O charge -1.62294375895
  4 settings made for charge

variable R_cut equal 10.0

pair_style buck/coul/long ${R_cut}
pair_style buck/coul/long 10
pair_coeff 1 1 0.0 0.5 0.0 ${R_cut}
pair_coeff 1 1 0.0 0.5 0.0 10
pair_coeff 1 2 1315.47688947 0.28024601768 0.0 ${R_cut}
pair_coeff 1 2 1315.47688947 0.28024601768 0.0 10
pair_coeff 2 2 7992.27283476 0.124296175577 7.5002562575 ${R_cut}
pair_coeff 2 2 7992.27283476 0.124296175577 7.5002562575 10

kspace_style pppm 1.0e-5

neighbor 1.0 bin
neigh_modify every 1 delay 0 check yes
# ---- define settings
compute eng all pe/atom
compute eatoms all reduce sum c_eng
# ---- run minimization
reset_timestep 0
fix 1 all box/relax iso 0.0 vmax 0.001
thermo 10
thermo_style custom step pe lx ly lz xy xz yz press pxx pyy pzz pxy pxz pyz c_eatoms
min_style cg
minimize 1e-25 1e-25 5000 10000
PPPM initialization ...
  G vector (1/distance) = 0.352546
  grid = 8 8 8
  stencil order = 5
  estimated absolute RMS force accuracy = 3.83063e-05
  estimated relative force accuracy = 2.66022e-06
  using double precision FFTs
  3d grid and FFT values/proc = 3375 512
Neighbor list info ...
  1 neighbor list requests
  update every 1 steps, delay 0 steps, check yes
  master list distance cutoff = 11
Memory usage per processor = 4.06549 Mbytes
Step PotEng Lx Ly Lz Xy Xz Yz Press Pxx Pyy Pzz Pxy Pxz Pyz eatoms 
       0   -108.88461       4.2565       4.2565       4.2565            0            0            0   -30879.056   -30879.056   -30879.056   -30879.056 -2.5133272e-10 -7.2643252e-11 5.7873381e-11   -108.88461 
      10   -108.89911    4.2290577    4.2290577    4.2290577            0            0            0   0.26053131   0.26053131   0.26053131   0.26053131 3.8284322e-11 -1.3873734e-12 -2.9889769e-10   -108.89911 
      12   -108.89911    4.2290577    4.2290577    4.2290577            0            0            0   0.25210742   0.25210742   0.25210742   0.25210742 1.3658055e-10 -3.2077679e-12 -1.3269119e-10   -108.89911 
Loop time of 0.008641 on 1 procs for 12 steps with 8 atoms

Minimization stats:
  Stopping criterion = linesearch alpha is zero
  Energy initial, next-to-last, final = 
        -108.884606122     -108.899110632     -108.899110632
  Force two-norm initial, final = 4.45895 5.1421e-05
  Force max component initial, final = 4.45895 3.59365e-05
  Final line search alpha, max atom move = 0.5 1.79683e-05
  Iterations, force evaluations = 12 23

Pair  time (%) = 0.00238848 (27.6412)
Kspce time (%) = 0.00145841 (16.8777)
Neigh time (%) = 0 (0)
Comm  time (%) = 0.000253677 (2.93574)
Outpt time (%) = 2.47955e-05 (0.286952)
Other time (%) = 0.00451565 (52.2584)

Nlocal:    8 ave 8 max 8 min
Histogram: 1 0 0 0 0 0 0 0 0 0
Nghost:    2189 ave 2189 max 2189 min
Histogram: 1 0 0 0 0 0 0 0 0 0
Neighs:    2344 ave 2344 max 2344 min
Histogram: 1 0 0 0 0 0 0 0 0 0

Total # of neighbors = 2344
Ave neighs/atom = 293
Neighbor list builds = 0
Dangerous builds = 0
unfix 1
# ---- define output variables ----
variable natoms equal "count(all)"
variable tot_energy equal "c_eatoms"
variable length_x equal "lx"
variable length_y equal "ly"
variable length_z equal "lz"
variable tilt_xy equal "xy"
variable tilt_xz equal "xz"
variable tilt_yz equal "yz"
variable tot_press equal "press"
variable press_xx equal "pxx"
variable press_yy equal "pyy"
variable press_zz equal "pzz"
variable press_xy equal "pxy"
variable press_xz equal "pxz"
variable press_yz equal "pyz"

# ---- output ----
print "pypospack:output_section:begin"
pypospack:output_section:begin
print "tot_energy = ${tot_energy}"
tot_energy = -108.899110631848
print "num_atoms = ${natoms}"
num_atoms = 8
print "xx = ${length_x}"
xx = 4.22905766787052
print "yy = ${length_y}"
yy = 4.22905766787052
print "zz = ${length_z}"
zz = 4.22905766787052
print "xy = ${tilt_xy}"
xy = 0
print "xz = ${tilt_xz}"
xz = 0
print "yz = ${tilt_yz}"
yz = 0
print "tot_press = ${tot_press}"
tot_press = 0.252107417895481
print "pxx = ${press_xx}"
pxx = 0.252107418292273
print "pyy = ${press_yy}"
pyy = 0.252107418323333
print "pzz = ${press_zz}"
pzz = 0.252107417070837
print "pxy = ${press_xy}"
pxy = 1.36580554666579e-10
print "pxz = ${press_xz}"
pxz = -3.20776791999541e-12
print "pyz = ${press_yz}"
pyz = -1.32691186845421e-10
print "pypospack:output_section:done"
pypospack:output_section:done
print "pypospack:lammps_sim:done"
pypospack:lammps_sim:done
#------------------------------------------------------------------------------
# RUN THERMOSTAT
# running using an NPT Nose-Hoover style thermostat
#------------------------------------------------------------------------------
variable tempdamp equal 0.1
variable pressdamp equal 1.0
# set initial velocities
velocity all create 700 5112657 mom yes dist gaussian loop all
# fix for Nose-Hoover style thermostat
fix 20 all npt temp 700 700 0.1 aniso 0.0 0.0 1.0 drag 1.0 couple xyz
variable boxx equal lx
variable boxy equal ly
variable boxz equal lz
variable boxp equal press
variable boxt equal temp
# calculate averages every 10000 steps
reset_timestep 0
fix 21 all ave/time 10 10 100 v_boxx v_boxy v_boxz v_boxp v_boxt file lattice.out
thermo_style custom step temp pe ke etotal press lx ly lz press pxx pyy pzz pxy pxz pyz vol
thermo_modify flush yes
thermo 100
run 100000
PPPM initialization ...
  G vector (1/distance) = 0.352817
  grid = 8 8 8
  stencil order = 5
  estimated absolute RMS force accuracy = 3.78369e-05
  estimated relative force accuracy = 2.62763e-06
  using double precision FFTs
  3d grid and FFT values/proc = 3375 512
Memory usage per processor = 3.06549 Mbytes
Step Temp PotEng KinEng TotEng Press Lx Ly Lz Press Pxx Pyy Pzz Pxy Pxz Pyz Volume 
       0          700   -108.89911   0.63337471   -108.26573    8944.9062    4.2290577    4.2290577    4.2290577    8944.9062    5766.7382    5845.2617    15222.719   -3248.5491   -2263.0208   -1162.8248    75.636395 
     100    178.72668   -108.34061   0.16171566    -108.1789    8921.6405      4.25503      4.25503      4.25503    8921.6405    4158.1436   -16037.995    38644.773   -720.39517   -2631.1222    3630.8075    77.038511 
     200    515.89729   -108.47556   0.46679471   -108.00877   -16775.158    4.2657107    4.2657107    4.2657107   -16775.158   -10005.139     -37770.1   -2550.2339    1297.8649     7964.596     11529.68    77.620101 
     300    700.11747   -108.49056     0.633481   -107.85708     24152.04    4.2419866    4.2419866    4.2419866     24152.04    447.87226    12494.591    59513.655    -1050.941    634.17169   -7698.6409    76.332218 
     400    491.01847   -108.19614   0.44428383   -107.75186   -4959.0372    4.2623471    4.2623471    4.2623471   -4959.0372    8477.8008   -27659.941    4305.0284   -544.42397    5640.3772    10706.997    77.436628 
     500    489.82387   -108.11282   0.44320293   -107.66961   -12005.679     4.275965     4.275965     4.275965   -12005.679    -10429.58   -36884.447     11296.99   -1221.2134    382.03129    10476.818    78.181217 
     600     917.4397   -108.45404   0.83011872   -107.62392    13038.312    4.2548715    4.2548715    4.2548715    13038.312   -4368.3914    -8777.397    52260.725    1526.1553   -9412.5646   -7291.9909    77.029905 
     700    822.63696   -108.36686   0.74433921   -107.62252   -6639.1444    4.2614247    4.2614247    4.2614247   -6639.1444    11423.653   -20558.294   -10782.792    1608.8843    6097.9693    10068.717    77.386365 
     800    471.33012   -108.05595    0.4264694   -107.62948   -3096.5936    4.2760228    4.2760228    4.2760228   -3096.5936   -24184.202   -21033.137    35927.558    1022.4894    5592.8085    11921.975    78.184386 
     900    1006.5246   -108.53796   0.91072465   -107.62723    2061.4299    4.2580712    4.2580712    4.2580712    2061.4299    -9389.958   -21291.813     36866.06   -139.35433    366.77452   -9842.4597    77.203813 
    1000    582.11792   -108.16318   0.52671253   -107.63647    19340.203    4.2562848    4.2562848    4.2562848    19340.203    10099.074    5861.2847    42060.251   -1373.7256   -1575.6176    13834.659    77.106686 
    1100    755.48796    -108.3139   0.68358138   -107.63032   -30980.483    4.2811138    4.2811138    4.2811138   -30980.483   -34491.187   -43511.106   -14939.155    3883.9873    4686.5844    10888.603    78.463978 
    1200    830.63918   -108.36952   0.75157979   -107.61794    1819.7511      4.26062      4.26062      4.26062    1819.7511   -12053.569   -13100.468     30613.29   -766.03343   -2107.5058   -7852.5444    77.342534 
    1300    466.44164   -108.04644    0.4220462    -107.6244    18072.255    4.2553514    4.2553514    4.2553514    18072.255    9073.0813   -20543.143    65686.826   -396.27904    3039.4598    12429.178    77.055967 
    1400    692.75081   -108.25858   0.62681549   -107.63176   -19340.154     4.279341     4.279341     4.279341   -19340.154   -17011.212   -36793.312   -4215.9387    3871.2413    12511.013    6504.0862    78.366542 
    1500     858.5416   -108.40221   0.77682648   -107.62539   -604.71635     4.265381     4.265381     4.265381   -604.71635     4441.821   -12841.563    6585.5934    1524.1631   -323.23143   -6087.5397    77.602102 
    1600    614.60903   -108.18039   0.55611117   -107.62427    16445.388    4.2530519    4.2530519    4.2530519    16445.388    21998.007   -17792.906    45131.062    2382.1193   -6541.2712    17761.853    76.931117 
    1700    411.62252   -108.00364    0.3724447   -107.63119   -7419.8232    4.2805474    4.2805474    4.2805474   -7419.8232   -27368.314   -23486.688    28595.532    4583.0362   -4599.1233    6606.5606    78.432836 
    1800    837.12226   -108.38462   0.75744582   -107.62717    8026.4269    4.2552968    4.2552968    4.2552968    8026.4269    24311.075   -13908.773    13676.978   -5394.5565   -1697.3478   -5041.9073    77.053004 
    1900    693.11334   -108.26451   0.62714352   -107.63737    5043.5852    4.2573188    4.2573188    4.2573188    5043.5852    4224.3897   -14263.979    25170.345    5514.6649    3791.3118    8537.3428    77.162895 
    2000    540.82653   -108.12116   0.48935121   -107.63181   -23588.929    4.2810614    4.2810614    4.2810614   -23588.929   -19946.294   -49783.079    -1037.415   -180.77682    4752.6846    2267.2018    78.461097 
    2100    911.81625   -108.44292    0.8250305   -107.61789    18503.373    4.2426495    4.2426495    4.2426495    18503.373    16619.259   -4292.3171    43183.177   -6244.8001    7141.4218   -8154.6074    76.368009 
    2200    647.83484   -108.21967   0.58617457    -107.6335   -19336.238    4.2755821    4.2755821    4.2755821   -19336.238    -18334.82   -51465.657    11791.764    2925.0447    -7056.368     14795.52    78.160217 
    2300    599.62052   -108.17207   0.54254925   -107.62952   -12223.717    4.2652479    4.2652479    4.2652479   -12223.717   -16264.231   -39070.884    18663.964    -3198.184   -1270.4249    7653.8579    77.594837 
    2400    876.21804   -108.41407    0.7928205   -107.62125    13023.914    4.2449652    4.2449652    4.2449652    13023.914    1672.8922   -4792.4426    42191.291   -3472.0721    6230.6913   -10918.184    76.493125 
    2500    919.79398   -108.45574   0.83224892   -107.62349   -37585.376    4.2845981    4.2845981    4.2845981   -37585.376   -43090.846   -53011.223   -16654.058    1617.0481   -6954.1302   -3925.9176    78.655712 
    2600    568.89715   -108.14068    0.5147501   -107.62593    23111.954    4.2508452    4.2508452    4.2508452    23111.954   -5032.0846   -12535.496    86903.444   -4507.6011    2612.1496    3953.4162    76.811433 
    2700    757.47111   -108.32005   0.68537578   -107.63467   -5705.6995    4.2630444    4.2630444    4.2630444   -5705.6995   -4271.9258    -31728.21    18883.038     -1772.86    553.75907   -11016.241    77.474643 
    2800    770.62728   -108.32113   0.69727975   -107.62386   -15782.936    4.2758781    4.2758781    4.2758781   -15782.936   -19614.859   -43864.691     16130.74    1975.0557   -2614.4119   -2201.0537    78.176448 
    2900    832.62733   -108.37166   0.75337871   -107.61828   -984.85522    4.2519043    4.2519043    4.2519043   -984.85522   -10291.287    -16042.64    23379.362   -4063.8173   -2117.9984    10434.853    76.868861 
    3000    474.41338   -108.06131   0.42925919   -107.63205    565.28543    4.2680793    4.2680793    4.2680793    565.28543   -11845.239   -24575.369    38116.464    465.28257    9541.3842   -20093.303     77.74947 
    3100    660.01064    -108.2208    0.5971915    -107.6236   -12632.504    4.2797939    4.2797939    4.2797939   -12632.504   -5511.3167   -33250.937    864.74264   -111.57374    7724.5226    1093.1033    78.391427 
    3200    586.98916   -108.15003   0.53112013   -107.61891    6733.3488    4.2522689    4.2522689    4.2522689    6733.3488     15931.53    -15172.12    19440.636   -732.73767    3046.7052    378.39886    76.888637 
    3300    670.44868   -108.23567   0.60663605   -107.62904    4169.3032    4.2640388    4.2640388    4.2640388    4169.3032    37149.429   -6307.7364   -18333.783    4169.9619    8931.1325   -9599.9177    77.528868 
    3400    802.85188   -108.34459   0.72643726   -107.61815   -21430.935    4.2871163    4.2871163    4.2871163   -21430.935   -1806.3164   -42875.868   -19610.622    2965.4457   -8899.8341     8583.501    78.794483 
    3500    749.40636   -108.28903   0.67807862   -107.61095    24469.723    4.2373777    4.2373777    4.2373777    24469.723    45052.833    17614.778     10741.56     3177.515    -9509.232    5061.7863    76.083682 
    3600    600.74227   -108.18203   0.54356423   -107.63847   -5430.2613    4.2719243    4.2719243    4.2719243   -5430.2613   -15906.131   -18978.804    18594.151    51.281453    5371.0128   -1575.4269    77.959786 
    3700    690.91666   -108.24689   0.62515592   -107.62173   -19339.571    4.2824766    4.2824766    4.2824766   -19339.571   -26993.046   -21797.795   -9227.8724   -2127.9213    2561.7769    14440.364    78.538933 
    3800    658.64948   -108.19305   0.59595989   -107.59709    47741.356    4.2242066    4.2242066    4.2242066    47741.356     77399.64    23275.294    42549.133   -577.40316    5775.2511     7898.956    75.376409 
    3900    504.11931   -108.08512   0.45613775   -107.62898   -31689.046    4.2887144    4.2887144    4.2887144   -31689.046   -14926.995   -42805.905   -37334.237   -5051.7888    8537.2667   -8727.4396     78.88263 
    4000    822.31641   -108.36965   0.74404917    -107.6256   -12212.096     4.263239     4.263239     4.263239   -12212.096    18080.303   -29596.453    -25120.14   -1910.1056    8967.8581    7729.4337    77.485252 
    4100    778.34187   -108.30644   0.70426008   -107.60218    44080.352    4.2247476    4.2247476    4.2247476    44080.352    62780.603    32770.765    36689.688   -5121.4654   -4185.4372    6709.3692    75.405373 
    4200    769.80791   -108.30537   0.69653838   -107.60883   -53586.044    4.2931215    4.2931215    4.2931215   -53586.044   -47859.622   -61956.118   -50942.393     476.0854    4392.2135   -16457.824    79.126057 
    4300    682.11938   -108.23246   0.61719595   -107.61527     10214.13     4.246937     4.246937     4.246937     10214.13     21115.44    3195.1387    6331.8095    5199.7244   -4378.4579    5465.5989    76.599769 
    4400    701.83741   -108.24739   0.63503724   -107.61236    21959.273    4.2369291    4.2369291    4.2369291    21959.273    60074.954    1320.1797    4482.6857   -5829.3503    2162.4568    15594.132    76.059522 
    4500    707.76991   -108.25744   0.64040509   -107.61703   -20934.051    4.2757854    4.2757854    4.2757854   -20934.051    722.50331   -31676.503   -31848.154    1546.5351   -5350.8607   -12621.539    78.171365 
    4600    366.31611   -107.94948   0.33145051   -107.61803    23941.629    4.2545405    4.2545405    4.2545405    23941.629    82278.734    -3657.107   -6796.7413    -2328.537    9853.5494    12456.194    77.011926 
    4700    716.01257   -108.26656   0.64786322   -107.61869    5821.3338    4.2537516    4.2537516    4.2537516    5821.3338    25098.881    2782.2234   -10417.103   -1317.2746   -118.31762    11732.565    76.969092 
    4800    1011.9712   -108.54028   0.91565282   -107.62463   -8785.3467    4.2549478    4.2549478    4.2549478   -8785.3467     3936.383   -12102.088   -18190.335   -1978.3445    6147.3235   -11213.776    77.034048 
    4900    435.01385   -108.03107   0.39360967   -107.63746   -3972.9368    4.2579911    4.2579911    4.2579911   -3972.9368    15199.417   -16663.355   -10454.872    418.85073   -7291.8665    16744.346    77.199455 
    5000    931.47251   -108.47238    0.8428159   -107.62956   -4264.6058    4.2486098    4.2486098    4.2486098   -4264.6058    4027.1161   -9771.4566    -7049.477   -5681.6171     4239.106    5030.8804    76.690319 
    5100    794.55289   -108.34545   0.71892815   -107.62652   -5082.9446    4.2636974    4.2636974    4.2636974   -5082.9446    29443.595    -20799.97   -23892.459    4672.2225   -3996.5978   -16604.395    77.510247 
    5200    696.89682   -108.25541   0.63056689   -107.62484   -14446.157    4.2555739    4.2555739    4.2555739   -14446.157    7229.2302   -30329.671   -20238.031   -5841.3151   -10543.279    16199.109    77.068058 
    5300     632.2834   -108.19592   0.57210331   -107.62382    11193.409    4.2423275    4.2423275    4.2423275    11193.409     32008.52     12027.88   -10456.174    6699.5742    992.61401    5239.0295     76.35062 
    5400    733.93187   -108.29015   0.66407698   -107.62607   -7925.6691     4.264314     4.264314     4.264314   -7925.6691    25624.501   -15914.898    -33486.61   -4986.8128   -3314.5106   -13605.911    77.543881 
    5500    656.06674   -108.21743   0.59362297   -107.62381     1046.986    4.2522587    4.2522587    4.2522587     1046.986    22738.093   -11346.287    -8250.848     1252.431    3084.0739    18844.883    76.888083 
    5600     600.0633    -108.1695   0.54294989   -107.62655    5777.7824    4.2491851    4.2491851    4.2491851    5777.7824    26457.741    3722.8713   -12847.265    3587.2537   -1083.0288    6893.1044    76.721478 
    5700    788.03287   -108.33687    0.7130287   -107.62384   -4346.8649    4.2622888    4.2622888    4.2622888   -4346.8649     10987.96    4134.1995   -28162.754   -2198.8068    7782.9084   -7174.9545    77.433452 
    5800    641.70997   -108.20225   0.58063267   -107.62162    11519.633    4.2514331    4.2514331    4.2514331    11519.633    47109.555   -3716.0135   -8834.6431    3034.6573    -9900.015    20835.524    76.843305 
    5900    727.85509   -108.28074   0.65857859   -107.62216   -1997.6362    4.2522046    4.2522046    4.2522046   -1997.6362     3421.689    10710.691   -20125.289   -9106.6827    1435.0102   -196.28323    76.885149 
    6000    876.12992   -108.41563   0.79274076   -107.62289   -19720.522    4.2578342    4.2578342    4.2578342   -19720.522   -2626.1709   -24671.246    -31864.15    6768.3737    883.82655   -10934.191    77.190921 
    6100    570.18343   -108.14383   0.51591395   -107.62791     4605.488    4.2517691    4.2517691    4.2517691     4605.488    43115.318   -14976.622   -14322.231   -5728.6427     4490.803    18751.833    76.861528 
    6200    799.00228   -108.35076   0.72295406    -107.6278   -14678.106    4.2584283    4.2584283    4.2584283   -14678.106   -2259.3886   -11891.739   -29883.191    6278.4274   -5708.1942    907.44993    77.223241 
    6300    561.24936   -108.13452   0.50783021   -107.62669    8142.5264     4.252334     4.252334     4.252334    8142.5264    29616.974    23795.975    -28985.37      3915.87    6038.6003   -4786.9705    76.892168 
    6400    630.14003   -108.19566   0.57016394   -107.62549    856.66575    4.2578079    4.2578079    4.2578079    856.66575    28049.571   -8356.0233    -17123.55   -677.20133   -549.25771    19950.609    77.189493 
    6500    830.88008   -108.37368   0.75179776   -107.62189   -4208.7264    4.2563703    4.2563703    4.2563703   -4208.7264   -20718.725    22552.646     -14460.1   -4043.0952   -5406.3011    3421.2692    77.111334 
    6600    595.26742   -108.16312   0.53861048    -107.6245    11422.525    4.2453783    4.2453783    4.2453783    11422.525    30770.342    22366.298   -18869.065   -5838.1529    8488.6781    5062.2758    76.515461 
    6700    626.62544   -108.19447   0.56698387   -107.62749   -13968.071    4.2689405    4.2689405    4.2689405   -13968.071    16210.936   -31711.107   -26404.042    6219.9519    458.80856    20371.466    77.796542 
    6800     948.6637    -108.4775   0.85837085   -107.61913    5107.4086    4.2516271    4.2516271    4.2516271    5107.4086    11391.089    6357.0487   -2425.9118   -1424.1891   -1902.3505   -5594.6133    76.853826 
    6900    604.09869   -108.17017   0.54660119   -107.62357     8477.458    4.2433066    4.2433066    4.2433066     8477.458    39524.227    628.36762   -14720.221    1487.7052    5300.0204   -230.20492      76.4035 
    7000    477.93171   -108.05884   0.43244265   -107.62639   -26358.018    4.2748092    4.2748092    4.2748092   -26358.018   -8451.4366    -33145.18   -37477.437    3375.1129    -1955.192    20501.975    78.117838 
    7100    977.73946   -108.50198   0.88467921    -107.6173    13458.592    4.2463811    4.2463811    4.2463811    13458.592    20817.782    19665.668   -107.67375   -2789.3812   -3029.1751    -4665.494    76.569694 
    7200    577.04034   -108.14598   0.52211823   -107.62386    21469.032    4.2454373    4.2454373    4.2454373    21469.032    43213.102    20465.732    728.26089   -3967.2738    72.925887    8486.9503     76.51865 
    7300    423.28942   -108.00591   0.38300116   -107.62291   -13594.295    4.2792692    4.2792692    4.2792692   -13594.295    7783.7734   -22011.711   -26554.948   -7749.4583    498.23151    23982.056    78.362597 
    7400    1104.5549   -108.61001   0.99942448   -107.61059    21113.554    4.2420194    4.2420194    4.2420194    21113.554    24876.572     27962.45    10501.641    3533.5145   -137.82917    4733.9553     76.33399 
    7500     596.5247   -108.16387   0.53974808   -107.62412    10294.208    4.2442845    4.2442845    4.2442845    10294.208    17864.809   -7642.4491    20660.265   -602.32318    2346.9424    10393.056    76.456331 
    7600    551.29922   -108.12302   0.49882712   -107.62419   -38194.418    4.2733239    4.2733239    4.2733239   -38194.418   -25458.308   -51474.541   -37650.404     8879.098   -3790.8956    9649.7918     78.03644 
    7700    1000.2861   -108.51751   0.90507985   -107.61243    4128.7141    4.2477608    4.2477608    4.2477608    4128.7141    11168.588   -4633.7255    5851.2795    2130.9565   -1509.9606   -7662.1645    76.644351 
    7800    698.96198   -108.25297   0.63243549   -107.62054   -16583.905     4.260868     4.260868     4.260868   -16583.905   -4798.7516    -35280.71   -9672.2525     1925.961   -4338.7907    7734.6164    77.356041 
    7900    652.55407   -108.20981   0.59044464   -107.61936   -22284.377    4.2645409    4.2645409    4.2645409   -22284.377   -7338.9676   -31124.863   -28389.299    6964.7109    1163.3303    5039.6735    77.556258 
    8000    874.33598   -108.40733   0.79111757   -107.61622    20133.475    4.2478746    4.2478746    4.2478746    20133.475    16938.202    24525.803    18936.419   -3136.7277    2099.2541   -1879.4576    76.650511 
    8100    791.57047   -108.33762   0.71622959   -107.62139   -2486.5037    4.2622558    4.2622558    4.2622558   -2486.5037     12075.72   -12140.474   -7394.7569   -3806.0493    3925.9102    16714.825    77.431652 
    8200    446.72599   -108.02853   0.40420706   -107.62432    12951.122    4.2559383    4.2559383    4.2559383    12951.122    23606.474    22033.886    -6786.993   -6653.0525    3824.5644    16964.287    77.087858 
    8300    545.14632   -108.11424   0.49325984   -107.62098    18400.287    4.2596406    4.2596406    4.2596406    18400.287    19638.638    29934.642    5627.5813   -4680.3044    8002.7442    937.53819    77.289211 
    8400    647.89275    -108.2036   0.58622697   -107.61737    5328.6874    4.2604076    4.2604076    4.2604076    5328.6874    37625.354   -8501.8666   -13137.425   -16141.699     4731.167    9244.6131    77.330969 
    8500    392.41724   -107.97358   0.35506736   -107.61851    25389.518     4.250857     4.250857     4.250857    25389.518    34589.117    30407.549    11171.887   -1349.4672    3116.7691    12200.969    76.812071 
    8600    708.84239   -108.25891   0.64137549   -107.61753   -13557.595    4.2660897    4.2660897    4.2660897   -13557.595   -6839.7069   -15774.998    -18058.08   -2267.0318    6956.5895   -2909.4024     77.64079 
    8700    894.20838   -108.42239   0.80909853   -107.61329    1562.1258    4.2532565    4.2532565    4.2532565    1562.1258    10834.718   -2088.4456   -4059.8946   -2264.0316   -1645.1956     2153.671    76.942223 
    8800    830.04856   -108.36869   0.75104538   -107.61765   -11597.659    4.2560999    4.2560999    4.2560999   -11597.659   -22917.635    -7967.979   -3907.3617    11433.988     783.0049    5535.8178    77.096636 
    8900    730.07726   -108.28081   0.66058925   -107.62022   -6527.5162    4.2578868    4.2578868    4.2578868   -6527.5162   -1817.6607   -1412.4882     -16352.4    8821.8265    198.46801   -6661.6077    77.193786 
    9000     1013.864   -108.53469   0.91736542   -107.61733    2308.3243    4.2526806    4.2526806    4.2526806    2308.3243    23252.075   -7542.7713   -8784.3312    3020.2024    -10356.07    4986.3789    76.910974 
    9100     680.2749   -108.23572   0.61552702   -107.62019    1614.3455    4.2575133    4.2575133    4.2575133    1614.3455   -2448.9467   -3226.1184    10518.102   -2098.7596    5186.5849    1186.2873    77.173471 
    9200    599.71599   -108.16554   0.54263563    -107.6229   -329.18222    4.2503255    4.2503255    4.2503255   -329.18222    26160.475   -1067.3987   -26080.623    5959.4755   -1576.7171    -8177.402    76.783265 
    9300    773.21302   -108.32439   0.69961939   -107.62477   -1293.8838    4.2597439    4.2597439    4.2597439   -1293.8838    8729.8065   -11035.568   -1575.8897   -8006.1343   -3260.8641    2770.6406    77.294832 
    9400    855.97039   -108.39884   0.77449999   -107.62434    6413.8515    4.2491326    4.2491326    4.2491326    6413.8515    23894.923   -3174.1944   -1479.1743   -6404.7604    11506.187    1312.2679    76.718633 
    9500    407.19675   -107.99937   0.36844018   -107.63093    11776.537    4.2476977    4.2476977    4.2476977    11776.537    9908.1449    23148.676    2272.7895    6019.9153    1615.3641     590.0532    76.640939 
    9600    754.17453   -108.30761   0.68239296   -107.62522   -15479.685    4.2653995    4.2653995    4.2653995   -15479.685   -17794.423   -8943.6381   -19700.993   -5157.0271   -9790.1684    -1080.567    77.603114 
    9700    922.96436   -108.45262   0.83511755    -107.6175    15266.553    4.2407041    4.2407041    4.2407041    15266.553    15974.496    19853.343    9971.8195    6813.8866    8807.7423    4305.7941    76.263006 
    9800    354.17668   -107.95167   0.32046651    -107.6312    6772.6025    4.2517753    4.2517753    4.2517753    6772.6025    12206.489    20542.562   -12431.243    5395.2617    1519.0788    114.12074    76.861865 
    9900    738.77502   -108.29293   0.66845917   -107.62447   -21747.337    4.2666274    4.2666274    4.2666274   -21747.337   -18325.244   -5710.7977    -41205.97     2092.725   -17922.354   -6941.1578     77.67015 
   10000    889.31655   -108.42086   0.80467231   -107.61619    25174.547    4.2365996    4.2365996    4.2365996    25174.547     38929.58    12576.178    24017.882    5863.8926    7079.2098    1179.9127     76.04178 
   10100    672.39234   -108.23874   0.60839472   -107.63035   -9380.4715    4.2511361    4.2511361    4.2511361   -9380.4715    -16658.64    15524.078   -27006.852    1977.3146    4650.5088     635.5601    76.827206 
   10200     485.3206   -108.06817   0.43912828   -107.62904   -14855.901    4.2644689    4.2644689    4.2644689   -14855.901    5635.4689   -19685.229   -30517.943    2500.5574   -15638.119   -9739.3964    77.552329 
   10300    990.19422    -108.5147   0.89594854   -107.61875    14263.244    4.2385284    4.2385284    4.2385284    14263.244    32275.896    4048.3639    6465.4714    -12658.64    1579.4278   -1279.6343    76.145684 
   10400    570.44039   -108.14785   0.51614645    -107.6317    2514.3406    4.2533866    4.2533866    4.2533866    2514.3406     16941.53   -2741.9214   -6656.5869    2300.6041   -216.59468   -1560.6015    76.949285 
   10500    463.28677   -108.05347   0.41919161   -107.63428   -21452.017      4.25706      4.25706      4.25706   -21452.017   -26325.355   -4101.9284   -33928.767    4069.8552   -19015.858   -10764.009    77.148826 
   10600    832.96915   -108.37766   0.75368799   -107.62398     10302.13    4.2406641    4.2406641    4.2406641     10302.13    3298.5941    1639.9033    25967.893   -12244.237    2435.1445   -544.29526    76.260848 
   10700    752.34964   -108.30417   0.68074176   -107.62343   -12321.127    4.2627751    4.2627751    4.2627751   -12321.127    4188.4106   -13251.536   -27900.255     2078.374   -6313.9481   -3302.3071    77.459961 
   10800    599.65276   -108.16873   0.54257842   -107.62615    -2774.679    4.2457302    4.2457302    4.2457302    -2774.679    9031.0093    523.50334    -17878.55     3185.972   -10206.665   -6983.9093    76.534488 
   10900    722.35139   -108.28033   0.65359872   -107.62673    11603.851    4.2461492    4.2461492    4.2461492    11603.851    30043.283   -4523.2913    9291.5625   -12324.496    1003.5191     1138.878    76.557149 
   11000    996.86508   -108.52129   0.90198448   -107.61931    -18711.22    4.2638191    4.2638191    4.2638191    -18711.22   -12216.117   -24495.386   -19422.156   -4250.0071    -3204.678     870.9726    77.516882 
   11100     587.3045   -108.15597   0.53140545   -107.62457    9620.5644     4.238711     4.238711     4.238711    9620.5644    25941.786    9621.4834   -6701.5766     804.8692   -12354.356   -3789.7902    76.155526 
   11200    673.75921    -108.2414   0.60963149   -107.63177   -3198.5844    4.2520131    4.2520131    4.2520131   -3198.5844   -2644.9995   -14950.465    7999.7112   -15917.014   -749.55786   -1391.0251    76.874761 
   11300    816.24974   -108.36362   0.73855992   -107.62506   -4352.6725    4.2618587    4.2618587    4.2618587   -4352.6725    25193.116    -21162.72   -17088.413    2124.7796    3664.6085    5827.0313    77.410012 
   11400    540.86106   -108.11724   0.48938245   -107.62786    9495.5105    4.2399092    4.2399092    4.2399092    9495.5105   -2993.5436    16481.229    14998.847    5879.1269   -13039.491   -7379.3106    76.220126 
   11500    519.46265   -108.10571   0.47002072   -107.63569   -2535.7978     4.250944     4.250944     4.250944   -2535.7978    -8656.192    1138.1552   -89.356596   -13550.122    2699.5187   -1467.0493     76.81679 
   11600     806.9487   -108.35389   0.73014414   -107.62374    -1569.866     4.264459     4.264459     4.264459    -1569.866    8849.7762   -12967.782   -591.59264   -9395.2986   -825.91849    2830.6568    77.551791 
   11700    856.12897   -108.39658   0.77464349   -107.62194    16297.706    4.2389522    4.2389522    4.2389522    16297.706    22384.585    21728.913    4779.6209   -762.31464   -13670.272   -7681.0907    76.168525 
   11800    473.96172   -108.06626   0.42885053   -107.63741    544.16957    4.2525363    4.2525363    4.2525363    544.16957    22335.554   -7478.4904   -13224.555   -19693.183    -3049.623   -4083.2118    76.903143 
   11900    801.10344   -108.34842   0.72485523   -107.62356   -14459.168       4.2681       4.2681       4.2681   -14459.168   -13251.094   -25351.405   -4775.0052   -16183.566   -1850.3226   -993.41181    77.750604 
   12000    843.86355    -108.3795   0.76354548   -107.61595    31768.447    4.2312804    4.2312804    4.2312804    31768.447    40757.524    31131.516    23416.301    5646.5864    1890.7218     1374.623    75.755718 
   12100    456.71986   -108.04664   0.41324973   -107.63339    -18632.12     4.259229     4.259229     4.259229    -18632.12   -27419.404   -18144.206   -10332.751   -21033.164   -7163.0125   -4721.9987    77.266809 
   12200    697.32933   -108.25154   0.63095824   -107.62058   -18266.034    4.2652508    4.2652508    4.2652508   -18266.034   -21052.328   -28189.659   -5556.1157   -4860.6638    5005.2822    5043.8531    77.594999 
   12300    976.63682   -108.49452   0.88368152   -107.61084    21028.753    4.2310201    4.2310201    4.2310201    21028.753    26606.075     14917.84    21562.345      11970.5    598.87106    949.72745    75.741739 
   12400    478.60606    -108.0638   0.43305282   -107.63075   -24859.274    4.2604262    4.2604262    4.2604262   -24859.274   -29345.358   -37747.791   -7484.6718    -27647.61   -10037.059   -4078.6978    77.331982 
   12500      620.636   -108.18705   0.56156449   -107.62549   -6779.7807    4.2598578    4.2598578    4.2598578   -6779.7807   -489.06982   -17031.231   -2819.0415   -2661.1792    6264.1188    6885.4991    77.301032 
   12600     1031.993   -108.54719   0.93376891   -107.61343    17503.207    4.2398808    4.2398808    4.2398808    17503.207    28879.664    12424.267     11205.69    276.42819   -6581.1732   -2739.3617    76.218594 
   12700    457.44034   -108.04039   0.41390163   -107.62648     -6690.91    4.2567882    4.2567882    4.2567882     -6690.91   -2965.8704    -13792.02   -3314.8394   -27459.631   -1047.9331   -656.53462    77.134047 
   12800    693.15594    -108.2516   0.62718206   -107.62442   -14718.271    4.2584462    4.2584462    4.2584462   -14718.271   -3445.8034   -14495.042   -26213.969   -7092.1066   -413.81079   -1455.1559    77.224212 
   12900    755.09221   -108.30636    0.6832233   -107.62313    16020.133    4.2458403    4.2458403    4.2458403    16020.133     4854.467    23637.645    19568.288    641.30306    5700.1909      2641.79    76.540442 
   13000    777.06587   -108.33211   0.70310553     -107.629   -14278.812    4.2501526    4.2501526    4.2501526   -14278.812   -21901.188   -17188.384   -3746.8637   -15220.193   -2864.4377   -8014.9909    76.773894 
   13100    499.12396   -108.08068   0.45161784   -107.62906   -9646.0558    4.2597592    4.2597592    4.2597592   -9646.0558    971.22726   -19556.785   -10352.609   -3183.8255    230.06875    8389.2629    77.295664 
   13200    851.36276   -108.39186   0.77033092   -107.62152   -3555.9261    4.2492311    4.2492311    4.2492311   -3555.9261   -4196.5323   -1806.3949   -4664.8512    10003.533    12504.475    7062.5701    76.723967 
   13300    772.02286   -108.32013   0.69854251   -107.62159   -2486.2556    4.2471114    4.2471114    4.2471114   -2486.2556     1838.748   -18273.427    8975.9122   -18033.143   -3616.0359   -1074.6749    76.609207 
   13400    600.11609   -108.16724   0.54299765   -107.62424   -12444.249    4.2604312    4.2604312    4.2604312   -12444.249    3146.9618   -24802.489    -15677.22   -6412.7479    2695.7511    13630.379    77.332253 
   13500    620.23216   -108.18415   0.56119909   -107.62296     4589.586    4.2498262    4.2498262    4.2498262     4589.586   -1421.0071    29905.699   -14715.934    512.94526    8226.6511    52.677114     76.75621 
   13600    726.96448   -108.27923   0.65777274   -107.62146    9226.1642    4.2449269    4.2449269    4.2449269    9226.1642   -6301.1194    22517.065    11462.547   -25282.698   -1787.7602     3761.322    76.491053 
   13700    607.19089   -108.17663   0.54939908   -107.62723   -2682.9759    4.2604855    4.2604855    4.2604855   -2682.9759    4809.8573     9317.843   -22176.628   -237.24843    966.25907    -2093.715    77.335211 
   13800    628.26497   -108.19289   0.56846734   -107.62442   -8274.3236    4.2543986    4.2543986    4.2543986   -8274.3236   -22789.728    28701.998    -30735.24   -1785.8413    2736.0732   -7091.3002    77.004221 
   13900     832.9667   -108.37405   0.75368577   -107.62037    12436.066    4.2431789    4.2431789    4.2431789    12436.066    1969.6697    5352.7241    29985.804   -7753.4083   -2550.4292   -2348.0792    76.396599 
   14000    898.33016   -108.43697   0.81282801   -107.62414   -12659.156     4.263988     4.263988     4.263988   -12659.156   -14444.284    -524.3119   -23008.872    833.72055   -2956.2552    890.46532    77.526099 
   14100    622.97293   -108.19115     0.563679   -107.62747   -6132.7567    4.2512712    4.2512712    4.2512712   -6132.7567   -15518.616    7725.9137   -10605.568    8671.1802    4787.4919    6629.2348    76.834531 
   14200    758.62915   -108.30881    0.6864236   -107.62238    12676.101    4.2414627    4.2414627    4.2414627    12676.101    2606.6695    17699.957    17721.677   -10838.732    4205.4203   -104.93432     76.30394 
   14300    806.43421    -108.3497   0.72967862   -107.62002    -11735.24    4.2670902    4.2670902    4.2670902    -11735.24   -7962.0159    7661.4995   -34905.204   -8042.2115   -2378.0873    5050.7139    77.695428 
   14400    415.49084   -107.99783   0.37594485   -107.62189    8754.6203    4.2488309    4.2488309    4.2488309    8754.6203   -4581.3969    36595.202   -5749.9445     3988.532    2338.0598    1285.5361    76.702294 
   14500    593.51544   -108.15851   0.53702524   -107.62148    11061.292    4.2469332    4.2469332    4.2469332    11061.292    27706.781    11599.871   -6122.7752   -16976.051    1733.7568   -2960.5012    76.599562 
   14600    816.84133   -108.35849    0.7390952    -107.6194   -600.40957    4.2606728    4.2606728    4.2606728   -600.40957    16994.914    762.00804   -19558.151   -7083.3602   -1757.3222    6209.0484    77.345414 
   14700    517.69098    -108.0957   0.46841768   -107.62728    3253.2274     4.248635     4.248635     4.248635    3253.2274    11029.145    7523.2178   -8792.6807    5510.0557    1543.4859   -6221.3707    76.691683 
   14800    767.14682   -108.32104   0.69413057   -107.62691   -7781.2714    4.2488553    4.2488553    4.2488553   -7781.2714    -1249.051   -9974.1172   -12120.646   -2482.6189    1791.8097    2703.7113    76.703614 
   14900    1044.4819    -108.5667   0.94506919   -107.62164    -7265.826    4.2583248    4.2583248    4.2583248    -7265.826   -10132.837   -12426.561    761.91989    2296.1598   -2202.8205   -660.97721    77.217609 
   15000    707.02984   -108.26539   0.63973546   -107.62565    -13319.71    4.2534113    4.2534113    4.2534113    -13319.71   -24146.067   -226.25536   -15586.808    10714.906   -1349.7426   -5594.5532    76.950621 
   15100     567.0452   -108.13994   0.51307442   -107.62687   -153.54574     4.245021     4.245021     4.245021   -153.54574    18310.559   -11850.349   -6920.8466     583.9837     4028.702    4552.4326     76.49614 
   15200    728.13442   -108.28369   0.65883132   -107.62486   -346.12267    4.2606095    4.2606095    4.2606095   -346.12267    21992.676   -13957.197    -9073.847   -2402.1355    2250.1059    2723.2131    77.341964 
   15300    621.81794   -108.18692   0.56263394   -107.62429   -2455.3621    4.2527083    4.2527083    4.2527083   -2455.3621    14532.242    4389.3083   -26287.637   -1443.6195    5845.0058    -1502.154    76.912477 
   15400    431.13094   -108.01589   0.39009633   -107.62579    13601.225    4.2420638    4.2420638    4.2420638    13601.225    18457.575    15903.697    6442.4009   -2580.7895    5993.2195    5024.4008    76.336387 
   15500     892.3282   -108.43193   0.80739731   -107.62454    -4220.484    4.2589803    4.2589803    4.2589803    -4220.484    11781.676    6560.2332   -31003.362   -9016.9785   -1628.8153    5812.7071    77.253273 
   15600    834.67332   -108.37996   0.75522996   -107.62473   -2541.2207    4.2551748    4.2551748    4.2551748   -2541.2207    -13191.88    18199.012   -12630.794   -1793.5073    5094.2091    224.24484    77.046373 
   15700    637.49976   -108.20113   0.57682318   -107.62431    3958.1466    4.2438094    4.2438094    4.2438094    3958.1466   -11911.136      34513.2   -10727.624    3076.8824    2913.4642   -3224.9382    76.430662 
   15800    759.19411   -108.31136   0.68693478   -107.62442   -9533.4632    4.2601745    4.2601745    4.2601745   -9533.4632    16209.377   -11046.242   -33763.524    4517.4535   -5352.4383   -39.148773    77.318279 
   15900    706.41653   -108.25983   0.63918052   -107.62065   -2397.8888    4.2588516    4.2588516    4.2588516   -2397.8888    10375.298    -1171.947   -16397.018     12179.05     9001.985     140.4295    77.246273 
   16000    505.88644   -108.07644   0.45773668    -107.6187      18597.7    4.2407441    4.2407441    4.2407441      18597.7    34531.597    36943.096   -15681.593    3822.2551    4083.2714   -1790.4344     76.26516 
   16100    580.34181   -108.15038   0.52510546   -107.62527   -13313.412    4.2621185    4.2621185    4.2621185   -13313.412     28654.65   -33533.712   -35061.176    4100.4494    952.00815   -3672.7458    77.424172 
   16200    668.00204   -108.22489   0.60442228   -107.62047   -4129.9565    4.2580962    4.2580962    4.2580962   -4129.9565    8188.9488   -1081.1078   -19497.711   -2467.8364    16828.168    1805.5704    77.205173 
   16300    782.35018   -108.32505   0.70788689   -107.61716    12127.909    4.2366798    4.2366798    4.2366798    12127.909    9835.2309    34924.946     -8376.45   -6008.3124    1073.5962    3105.2679    76.046095 
   16400    617.57082   -108.18417   0.55879106   -107.62538   -14787.038    4.2628973    4.2628973    4.2628973   -14787.038   -841.58129   -17184.713    -26334.82   -5213.9529   -4522.1324    1448.9656     77.46662 
   16500     856.7006   -108.39595   0.77516071   -107.62078   -6873.6012    4.2568622    4.2568622    4.2568622   -6873.6012   -7281.7161    12954.141   -26293.228   -8515.1305    9021.1918   -2197.3128     77.13807 
   16600      849.568   -108.38615   0.76870698   -107.61744    17434.838    4.2354482    4.2354482    4.2354482    17434.838   -7083.9886    58232.194    1156.3097    4052.9287   -5040.5503    753.62363    75.979798 
   16700    533.31505   -108.11045   0.48255467   -107.62789   -14728.218    4.2590045    4.2590045    4.2590045   -14728.218    5331.9565    -10866.88   -38649.729   -2871.4112   -3970.0907    3403.5152    77.254591 
   16800    673.47396   -108.23656   0.60937339   -107.62719   -16229.586    4.2571818    4.2571818    4.2571818   -16229.586    7399.4411   -8886.3916   -47201.809    3838.3248    3256.2653   -5874.2163    77.155449 
   16900    881.07256   -108.41822   0.79721297     -107.621    21215.871    4.2331253    4.2331253    4.2331253    21215.871    4238.2891    49831.478    9577.8453    6186.2207   -3291.4046    110.05049    75.854853 
   17000    564.73529   -108.14225   0.51098436   -107.63126   -10280.558    4.2601207    4.2601207    4.2601207   -10280.558    12040.357   -1433.8494   -41448.182    2508.3392   -4300.1969    4740.2941    77.315348 
   17100    533.77954   -108.11365   0.48297494   -107.63068   -11451.526    4.2583234    4.2583234    4.2583234   -11451.526     10785.77   -4579.7036   -40560.646    653.08899   -70.557668   -699.93903    77.217535 
   17200    976.74714   -108.50209   0.88378133   -107.61831    30274.628    4.2251407    4.2251407    4.2251407    30274.628    15727.626    51855.614    23240.643   -6588.0441   -504.34693    -384.7737    75.426427 
   17300    774.73149   -108.33352   0.70099333   -107.63253   -9660.3114    4.2606297    4.2606297    4.2606297   -9660.3114    1716.4385    3638.9158   -34336.288   -2450.4403    -5214.288    5661.2239    77.343063 
   17400    455.83925   -108.04562   0.41245293   -107.63316    -17380.79    4.2604134    4.2604134    4.2604134    -17380.79    6328.4971   -19528.966     -38941.9   -203.60387    829.04127   -1840.9823    77.331285 
   17500    885.73402   -108.41854   0.80143075   -107.61711    27600.879    4.2221331    4.2221331    4.2221331    27600.879    27408.528    46908.679    8485.4287   -145.12102   -1107.9155   -7934.0029    75.265465 
   17600    718.31992   -108.27814   0.64995096   -107.62819   -9342.5863    4.2633104    4.2633104    4.2633104   -9342.5863   -11096.453    12971.955   -29903.261    500.86044   -6507.5288    4657.3362    77.489142 
   17700    428.12269   -108.01867   0.38737441   -107.63129   -17725.918    4.2575172    4.2575172    4.2575172   -17725.918    8192.8552   -24873.801   -36496.807    4234.6852    390.27785    3562.3118    77.173685 
   17800    662.09441   -108.21819   0.59907693   -107.61912     29219.53    4.2194564    4.2194564    4.2194564     29219.53    34117.954    45994.346    7546.2893    422.07636   -4635.5539   -5407.4782    75.122409 
   17900    884.73835   -108.42794   0.80052985   -107.62741   -6179.3819     4.262085     4.262085     4.262085   -6179.3819   -19908.673    11394.483   -10023.955    6135.9353   -5022.7297    2223.1711    77.422344 
   18000    672.81883   -108.23602   0.60878061   -107.62724   -13064.747    4.2584861    4.2584861    4.2584861   -13064.747    4417.4365   -5520.0455   -38091.632     -81.5341    3577.7952   -2976.6486    77.226384 
   18100    617.41762   -108.17944   0.55865244   -107.62078    19054.751    4.2252525    4.2252525    4.2252525    19054.751    29638.491    21856.432     5669.331   -5290.0296   -3335.8319   -6218.7027    75.432414 
   18200    961.48937   -108.49637   0.86997579   -107.62639   -6818.3787     4.254417     4.254417     4.254417   -6818.3787   -15430.094    11527.725   -16552.768       3617.1   -5257.2372   -749.97015    77.005218 
   18300    648.96839   -108.21511   0.58720023   -107.62791   -9851.5203    4.2589282    4.2589282    4.2589282   -9851.5203   -10227.704    9060.8496   -28387.707   -6882.7101    5846.4483   -6151.6124    77.250438 
   18400    460.19132   -108.04458   0.41639078   -107.62819    11430.723    4.2309304    4.2309304    4.2309304    11430.723    29869.302    1795.8938     2626.973    6145.7681    902.82747   -1224.3782    75.736921 
   18500    743.53688   -108.30508   0.67276779   -107.63232    1612.4292    4.2489229    4.2489229    4.2489229    1612.4292   -9734.3841    27561.068   -12989.397   -2593.5402   -5274.3291    4137.9439    76.707276 
   18600    776.44368   -108.32901   0.70254256   -107.62647   -9543.4338    4.2603554    4.2603554    4.2603554   -9543.4338   -11036.509    7073.9113   -24667.704   -2655.9858    6061.8433   -8504.9644    77.328124 
   18700    603.95279   -108.17533   0.54646918   -107.62886    4837.7343    4.2338448    4.2338448    4.2338448    4837.7343    34303.892    8097.7866   -27888.476    3756.3497   -1186.7902   -2244.6563     75.89354 
   18800    678.21073   -108.24786   0.61365932    -107.6342    6585.5489    4.2431662    4.2431662    4.2431662    6585.5489    553.82696    25202.887   -6000.0674   -3448.2531   -1373.5721     10438.47    76.395915 
   18900     923.7412    -108.4609   0.83582045   -107.62508   -11964.701    4.2636516    4.2636516    4.2636516   -11964.701   -14615.999    5406.0763   -26684.181    4180.2771    6941.5135   -4103.5168    77.507751 
   19000    666.69172   -108.23052   0.60323668   -107.62729    11051.427    4.2365408    4.2365408    4.2365408    11051.427    23927.568    13299.105   -4072.3903   -3584.8636   -6708.3478    235.87012    76.038612 
   19100    571.98978   -108.14871   0.51754838   -107.63117    1393.5889    4.2388077    4.2388077    4.2388077    1393.5889    11056.615   -489.46306   -6386.3854   -788.21391   -816.83636    10280.156    76.160739 
   19200     735.2685   -108.29224   0.66528639   -107.62695   -20003.255    4.2623196    4.2623196    4.2623196   -20003.255   -24730.657   -887.69474   -34391.414    4421.6789    12652.463   -67.499364     77.43513 
   19300    713.81055   -108.27148   0.64587078   -107.62561    13978.309    4.2363236    4.2363236    4.2363236    13978.309     19136.77    22611.068    187.08987    1495.4683    510.77996    2196.4132    76.026916 
   19400    622.77389     -108.194    0.5634989    -107.6305   -9633.0057     4.241825     4.241825     4.241825   -9633.0057    11368.361   -12506.783   -27760.595    735.52065    1519.9828    6502.8185    76.323493 
   19500    481.42133   -108.06619   0.43560013   -107.63059    -15271.23    4.2581363    4.2581363    4.2581363    -15271.23   -18284.812    3166.0705   -30694.947    1912.2821    16919.335   -2023.0076    77.207354 
   19600    990.43064   -108.51931   0.89616246   -107.62315    6493.5563    4.2387368    4.2387368    4.2387368    6493.5563    11850.407     15067.55   -7437.2874   -1415.1228    7240.9518    4292.8365    76.156914 
   19700    829.54373   -108.37706    0.7505886   -107.62647   -642.62882    4.2458854    4.2458854    4.2458854   -642.62882    12085.052     -3128.18   -10884.758    2255.0818   -3616.4168    8364.6573     76.54288 
   19800    405.17398   -108.00008   0.36660993   -107.63347   -7293.3764    4.2512316    4.2512316    4.2512316   -7293.3764   -4608.8513    8747.7706   -26019.049   -205.08973    13439.204    -2918.269    76.832384 
   19900    906.17138   -108.44803   0.81992291   -107.62811    891.04214    4.2457772    4.2457772    4.2457772    891.04214   -3263.8275    18112.548   -12175.594    -7657.677    6909.9954    3403.1144     76.53703 
   20000    902.52649   -108.44193   0.81662493    -107.6253     10085.99     4.244486     4.244486     4.244486     10085.99    23217.218    5567.0513    1473.6998    4690.8848   -7318.4816    2481.1719    76.467224 
   20100    369.70914   -107.97104    0.3345206   -107.63652    -13278.13    4.2474911    4.2474911    4.2474911    -13278.13   -1995.7686    -3222.989   -34615.633    481.46928    19115.887    -1564.305    76.629756 
   20200    550.08434   -108.13522   0.49772787   -107.63749   -10072.767    4.2499712    4.2499712    4.2499712   -10072.767   -21676.286    16174.312   -24716.327   -4875.7822    7482.7257   -5952.3968    76.764066 
   20300    950.06738   -108.48595   0.85964093   -107.62631    18873.751    4.2400455    4.2400455    4.2400455    18873.751    19575.862    17611.365    19434.025    8964.1742    -6600.368   -504.38345    76.227477 
   20400    606.53291   -108.18506   0.54880373   -107.63626   -19169.004    4.2507352    4.2507352    4.2507352   -19169.004   -29403.121   -401.57756   -27702.315    2175.4996    14181.991    925.87732    76.805469 
   20500    349.59906   -107.95413   0.31632457    -107.6378   -2930.4967    4.2485992    4.2485992    4.2485992   -2930.4967   -16999.757    22896.728    -14688.46    -1832.597   -249.63422   -7076.3771    76.689742 
   20600    1109.2019   -108.62989    1.0036292   -107.62626    7443.6249    4.2401143    4.2401143    4.2401143    7443.6249    18087.719    7593.0676   -3349.9124   -2813.8896   -5222.4684    96.863084    76.231191 
   20700    794.77161    -108.3502   0.71912605   -107.63107   -851.64027    4.2505663    4.2505663    4.2505663   -851.64027   -6277.9201    9939.0686   -6216.0693    3653.6529    6796.3777    1045.8626    76.796313 
   20800    512.00204     -108.096    0.4632702   -107.63273   -317.28802    4.2485229    4.2485229    4.2485229   -317.28802   -11309.751    24960.992   -14603.105   -2404.5356    6988.7672   -1257.4143     76.68561 
   20900    826.15926   -108.37322   0.74752626   -107.62569    1228.0349    4.2472591    4.2472591    4.2472591    1228.0349    31379.546   -11383.915   -16311.526   -220.30422   -2788.8281    1005.4811    76.617196 
   21000    813.50754   -108.36026   0.73607872   -107.62418    6853.5967    4.2449071    4.2449071    4.2449071    6853.5967    -3587.998    13049.377    11099.411    10970.015   -623.60486    1947.3664    76.489982 
   21100     561.5801   -108.13724   0.50812948   -107.62911    2929.7846    4.2459643    4.2459643    4.2459643    2929.7846    4078.4821    16663.522    -11952.65   -5109.1407     11749.96   -4291.2134    76.547147 
   21200    552.62363   -108.13024   0.50002547   -107.63021   -11003.428    4.2536217    4.2536217    4.2536217   -11003.428    19445.228   -22112.754   -30342.758    1075.3055   -5150.2656    705.43713    76.962044 
   21300    812.01429   -108.35952   0.73472759   -107.62479    18024.248     4.238542     4.238542     4.238542    18024.248    1238.1168    24296.157     28538.47    4528.7397   -2390.5032      4617.95    76.146419 
   21400    778.70144   -108.33348   0.70458543   -107.62889    5839.2572    4.2468893    4.2468893    4.2468893    5839.2572    21854.927    9946.5607   -14283.716   -7248.1627    9549.6986   -7385.5452    76.597187 
   21500    461.78242   -108.05055   0.41783044   -107.63272   -12023.348    4.2553698    4.2553698    4.2553698   -12023.348    8630.6766    -17733.34    -26967.38    -888.2318    1243.9254     1032.144    77.056969 
   21600    837.95546    -108.3854   0.75819971    -107.6272    14635.861    4.2346062    4.2346062    4.2346062    14635.861    23194.852    12635.194    8077.5372    1334.3526     3012.581    9648.9743    75.934493 
   21700    1013.4718   -108.54643   0.91701055   -107.62942   -3204.6584    4.2503295    4.2503295    4.2503295   -3204.6584     8996.575   -6899.9607    -11710.59   -2211.0343    346.76909   -1583.3539    76.783481 
   21800    428.80925     -108.023   0.38799562     -107.635    -18794.33    4.2538936    4.2538936    4.2538936    -18794.33    -9292.414   -24001.738   -23088.838   -10265.483    9116.8788    4122.5269    76.976801 
   21900    649.70255   -108.21631   0.58786452   -107.62845      11881.3    4.2308283    4.2308283    4.2308283      11881.3    20972.243    21137.443   -6465.7853    10484.746    -7080.487    5749.1526    75.731436 
   22000    977.77668   -108.51135   0.88471288   -107.62664   -11321.007    4.2553418    4.2553418    4.2553418   -11321.007   -11862.555   -4759.2611   -17341.205   -5089.6492   -6580.2421   -2923.2452    77.055448 
   22100    539.08509   -108.12142   0.48777552   -107.63365   -4870.7232    4.2463087    4.2463087    4.2463087   -4870.7232   -2534.1213    2708.1791   -14786.227   -10004.125    8024.8283    2340.3795    76.565779 
   22200      443.366   -108.03394   0.40116688   -107.63277    5839.0938    4.2353347    4.2353347    4.2353347    5839.0938    8650.2413    33221.184   -24354.144    3394.3668    -9733.498    5847.2844    75.973687 
   22300    827.64818   -108.37585   0.74887347   -107.62697   -10873.298    4.2572503    4.2572503    4.2572503   -10873.298   -15824.914   -47.971149    -16747.01   -5124.5276   -4261.3558    -272.5941    77.159174 
   22400    744.42675   -108.29919   0.67357297   -107.62562    17821.863    4.2394257    4.2394257    4.2394257    17821.863    19051.756    28961.616    5452.2177    -6245.593    6972.5139    3504.8845    76.194055 
   22500    591.37201   -108.16656   0.53508582   -107.63148   -5140.8575     4.244751     4.244751     4.244751   -5140.8575    11545.371   -6123.2856   -20844.658    1896.0828   -5316.1266    5822.7939    76.481544 
   22600    682.02363    -108.2465   0.61710931   -107.62939   -4547.7936     4.252083     4.252083     4.252083   -4547.7936    6942.3735    531.43995   -21117.194    529.38355   -6229.4218   -799.78874    76.878555 
   22700    890.50543   -108.42928   0.80574803   -107.62353    13456.259    4.2414961    4.2414961    4.2414961    13456.259    24586.397    17958.742   -2176.3607   -5775.6161    2469.0342   -1786.3247    76.305743 
   22800    728.39596   -108.28666   0.65906797   -107.62759   -14123.506    4.2506895    4.2506895    4.2506895   -14123.506     4568.145   -17816.021   -29122.642   -3776.8776   -4328.6144    4403.1918    76.802992 
   22900    503.98613   -108.08627   0.45601724   -107.63025    4858.0368    4.2412044    4.2412044    4.2412044    4858.0368     26474.11    12097.948   -23997.948    5297.3226   -11861.783   -4022.8376    76.289998 
   23000    802.34748   -108.35516   0.72598086   -107.62918   -2578.9694    4.2469168    4.2469168    4.2469168   -2578.9694    473.07506    7253.8371    -15463.82   -2052.2267    3445.8629    190.80726    76.598677 
   23100    741.48816    -108.2987   0.67091407   -107.62778   -12446.257    4.2515743    4.2515743    4.2515743   -12446.257    8105.2542   -19393.232   -26050.794   -5953.7318    2898.7469    4915.5819    76.850962 
   23200    555.65683   -108.13032   0.50276998   -107.62755    12441.299     4.233482     4.233482     4.233482    12441.299    41490.191    4575.1489    -8741.444    5065.3435   -7222.5823   -2793.7986     75.87403 
   23300    733.41562   -108.29534   0.66360986   -107.63173   -18944.554    4.2531737    4.2531737    4.2531737   -18944.554   -33319.724   -6305.5344   -17208.403   -4376.6096     7093.527    1854.0803    76.937728 
   23400    630.21105   -108.20048    0.5702282   -107.63025   -1896.5671    4.2493696    4.2493696    4.2493696   -1896.5671    20148.417   -16320.961   -9517.1577    1298.9489    7979.6465    2522.2252     76.73147 
   23500    862.43201   -108.40561    0.7803466   -107.62527    6491.1405    4.2338627    4.2338627    4.2338627    6491.1405    37971.779   -9346.5481   -9151.8092   -2400.3577   -5097.0672   -5241.7581    75.894501 
   23600    692.89203   -108.25646   0.62694327   -107.62952   -16896.721    4.2536668    4.2536668    4.2536668   -16896.721   -22181.101    2899.7065   -31408.768    455.66042    10056.044   -2886.4137    76.964493 
   23700    529.58241   -108.10995   0.47917729   -107.63077   -4116.2511    4.2449738    4.2449738    4.2449738   -4116.2511    9077.7639    134.56595   -21561.083   -2330.0997    13551.074    1888.2979    76.493587 
   23800     873.1144   -108.41711   0.79001226   -107.62709    2409.4223    4.2410006    4.2410006    4.2410006    2409.4223    27653.703   -8448.9031   -11976.533   -4357.0852   -2368.9586    556.94831    76.279003 
   23900    755.90805    -108.3114   0.68396149   -107.62743    415.40394    4.2506587    4.2506587    4.2506587    415.40394    16377.446    6089.5828   -21220.817    8568.0875    7793.3771   -2637.4607    76.801323 
   24000    445.22473   -108.03509   0.40284869   -107.63224    384.65711     4.243702     4.243702     4.243702    384.65711    12296.756   -2677.7465   -8465.0383   -3318.7987    6903.2919    4189.8008     76.42486 
   24100    723.53448   -108.28637   0.65466921    -107.6317   -10628.574    4.2466859    4.2466859    4.2466859   -10628.574    4515.9431   -22009.455   -14392.209   -7211.7087   -8980.2112    5242.6338    76.586181 
   24200    931.42849   -108.46943   0.84277608   -107.62666    17292.697    4.2440399    4.2440399    4.2440399    17292.697    29553.406    20951.535    1373.1507    3870.4727    2583.6447    407.79238    76.443116 
   24300    729.76905   -108.29133   0.66031037   -107.63102   -7958.4543    4.2512261    4.2512261    4.2512261   -7958.4543    1250.2645    -12579.47   -12546.158    1939.3146    10038.847    1985.8345    76.832084 
   24400    487.10755    -108.0726   0.44074515   -107.63185    208.78531    4.2446257    4.2446257    4.2446257    208.78531    13186.718   -3139.4051   -9420.9567   -10367.471   -4304.6771    682.72445    76.474775 
   24500    877.97611   -108.42042   0.79441124   -107.62601    15049.784    4.2400405    4.2400405    4.2400405    15049.784    21417.711    26855.561   -3123.9207    5636.8837   -1228.2972   -1788.8788    76.227207 
   24600     778.7941   -108.33209   0.70466927   -107.62742   -11692.226    4.2542459    4.2542459    4.2542459   -11692.226   -16825.937   -5621.4213   -12629.319    9817.3335     6869.313     220.8457    76.995927 
   24700    358.33039   -107.95555   0.32422487   -107.63132   -1187.3184    4.2413231    4.2413231    4.2413231   -1187.3184   -12916.222    22871.054   -13516.787    -6834.182   -4196.6472   -2712.9037    76.296406 
   24800    577.05879   -108.15431   0.52213492   -107.63217    6234.5522    4.2417077    4.2417077    4.2417077    6234.5522    3260.5798    23288.992   -7845.9152   -1250.1458   -11568.139   -243.31497    76.317165 
   24900    989.09424   -108.52014   0.89495325   -107.62519    -13896.08    4.2539206    4.2539206    4.2539206    -13896.08   -19851.749   -14873.356   -6963.1356    17177.953   -1062.9465    1042.8368    76.978269 
   25000    696.34885   -108.25933   0.63007108   -107.62926   -2028.8014    4.2387077    4.2387077    4.2387077   -2028.8014   -9693.3032    6588.2586   -2981.3596   -7886.9977    -5420.771    1080.9695     76.15535 
   25100    601.93068   -108.17931   0.54463953   -107.63467   -12025.387    4.2423668    4.2423668    4.2423668   -12025.387   -4622.1869   -4172.4434   -27281.531   -7049.7564    -13792.37    98.341887    76.352742 
   25200    918.47551   -108.45966   0.83105594    -107.6286    -14742.81    4.2547272    4.2547272    4.2547272    -14742.81   -6462.8045   -20731.062   -17034.562    18356.466     3962.388   -4416.6382    77.022066 
   25300    789.30088   -108.34139   0.71417602   -107.62722   -1156.6213    4.2416309    4.2416309    4.2416309   -1156.6213   -9337.8867    12937.999   -7069.9761    1694.3919   -6786.0693    4612.2595    76.313014 
   25400    340.08507   -107.94047   0.30771612   -107.63275     6373.949    4.2400669    4.2400669    4.2400669     6373.949     16987.26    11134.443   -8999.8563   -11685.779   -10314.838   -6087.2277    76.228634 
   25500    648.07661   -108.21645   0.58639334   -107.63006   -14284.382    4.2546505    4.2546505    4.2546505   -14284.382    -13156.44   -4434.3603   -25262.347    12899.566     10509.82    -3828.437    77.017902 
   25600    793.47138   -108.34358   0.71794958   -107.62563    10106.323    4.2402163    4.2402163    4.2402163    10106.323    1878.7959    26994.249    1445.9246    1885.5487   -5225.1616    930.62589    76.236688 
   25700    672.54707   -108.23985   0.60853473   -107.63132   -2398.1613    4.2421205    4.2421205    4.2421205   -2398.1613    4847.6515    6604.5763   -18646.712    -14410.79   -5801.1176    -3299.163    76.339446 
   25800    597.34517   -108.17185   0.54049046   -107.63136   -8520.7523    4.2530148    4.2530148    4.2530148   -8520.7523   -2794.6791    576.40649   -23343.984    4907.3621    10079.532    1231.0318    76.929104 
   25900     1010.659   -108.53936   0.91446548    -107.6249    10488.278    4.2388458    4.2388458    4.2388458    10488.278    19176.852    15042.118    -2754.137    1228.4765   -1988.8784   -1941.5502    76.162793 
   26000     812.8487   -108.36394   0.73548258   -107.62845    2725.1206    4.2459898    4.2459898    4.2459898    2725.1206    8951.4963     6478.319   -7254.4535   -5529.3419   -5785.7004   -345.67352    76.548525 
   26100    502.89588    -108.0863   0.45503076   -107.63127   -14569.729    4.2510373    4.2510373    4.2510373   -14569.729   -21710.624    16650.072   -38648.634    2038.2684    14776.258   -2034.0357     76.82185 
   26200     630.7189   -108.19865   0.57068772   -107.62796    7760.7511    4.2375942    4.2375942    4.2375942    7760.7511    20719.541    12945.151   -10382.439    535.08827    6116.7091    5096.1165    76.095346 
   26300    882.97552    -108.4264    0.7989348   -107.62746   -720.77109     4.246302     4.246302     4.246302   -720.77109   -1230.6664    14273.886   -15205.533    3201.3267   -4263.1641     3588.532    76.565416 
   26400    455.18749    -108.0436    0.4118632   -107.63173   -3805.9545    4.2493645    4.2493645    4.2493645   -3805.9545   -14552.003    31057.162   -27923.022    159.87818    19993.043   -6041.6975    76.731193 
   26500     569.7706   -108.14566   0.51554041   -107.63012   -4727.7111    4.2393252    4.2393252    4.2393252   -4727.7111     23389.22   -6609.3777   -30962.976    1618.0763    6372.7976     9750.393    76.188638 
   26600     979.5066   -108.51323   0.88627816   -107.62695   -9445.3992    4.2480105    4.2480105    4.2480105   -9445.3992    2591.3525   -5433.7655   -25493.785   -4786.2547   -225.39969    5826.1809    76.657872 
   26700    772.17718   -108.32725   0.69868214   -107.62857   -10009.145    4.2481346    4.2481346    4.2481346   -10009.145   -17047.008    16097.688   -29078.115   -3647.2908    21626.992   -2537.4309    76.664586 
   26800    469.34109   -108.05628   0.42466968   -107.63161   -4997.6535    4.2372659    4.2372659    4.2372659   -4997.6535    20746.805   -8759.1942   -26980.571    6132.0527    -739.0137    7924.1124    76.077662 
   26900    776.58996   -108.33474   0.70267491   -107.63206   -11735.886    4.2519501    4.2519501    4.2519501   -11735.886    8046.4274   -14005.449   -29248.636   -5288.9036   -408.98198    3158.4864    76.871342 
   27000    861.94093   -108.40729   0.77990227   -107.62739     2032.382    4.2473362    4.2473362    4.2473362     2032.382    -6848.004    26768.245   -13823.095   -385.28725    15753.516   -2457.6771     76.62137 
   27100    444.66188   -108.03471   0.40233941   -107.63237   -7767.2831     4.236622     4.236622     4.236622   -7767.2831    9708.7944     3261.335   -36271.979     4547.649   -2450.0637    5008.5494    76.042982 
   27200    477.93873   -108.06943     0.432449   -107.63698   -15675.193    4.2520718    4.2520718    4.2520718   -15675.193     18361.54   -16825.989    -48561.13    8069.2084   -2752.2979     465.2959    76.877944 
   27300     1092.571   -108.61339    0.9885812   -107.62481      5300.98    4.2457261    4.2457261    4.2457261      5300.98    5884.4115     20536.12   -10517.591    80.410501    6854.3526    -775.6421    76.534266 
   27400    715.37277    -108.2783   0.64728431   -107.63101    2240.3939    4.2378979    4.2378979    4.2378979    2240.3939    27935.287      244.134   -21458.239   -5099.6605   -1186.7176      10262.6     76.11171 
   27500    293.87089   -107.90515   0.26590056   -107.63925   -12258.768    4.2520612    4.2520612    4.2520612   -12258.768    31176.304   -20025.686   -47926.922    1834.2882   -7157.7103   -1428.6051    76.877373 
   27600    1056.2119   -108.58425   0.95568273   -107.62857    2940.0899    4.2450795    4.2450795    4.2450795    2940.0899    1883.4149    19676.326   -12739.471   -3810.2555   -3899.4271   -6868.3882    76.499302 
   27700     757.0611   -108.31543   0.68500479   -107.63042    15818.292    4.2379387    4.2379387    4.2379387    15818.292    31856.527    18015.384   -2417.0356   -1888.6033    4178.4929    5624.3981    76.113905 
   27800    329.35297   -107.93637   0.29800549   -107.63837   -20067.831    4.2525852    4.2525852    4.2525852   -20067.831    12016.707   -24126.051    -48094.15    2226.8567   -4443.8889   -723.29707    76.905795 
   27900    807.40623   -108.36106   0.73055813    -107.6305   -4980.3854    4.2452664    4.2452664    4.2452664   -4980.3854   -6649.1611    9576.1981   -17868.193    481.09852   -3250.6643   -7786.7478    76.509407 
   28000    942.12025   -108.47725    0.8524502    -107.6248    4562.0166    4.2410051    4.2410051    4.2410051    4562.0166     5428.979    7323.6595    933.41126   -2736.7316    7573.5944    3182.4898    76.279247 
   28100     563.6665   -108.14078   0.51001729   -107.63076   -18227.659    4.2476076    4.2476076    4.2476076   -18227.659    14903.562   -19960.829   -49625.712   -12.394939    -6223.345   -1016.6913    76.636062 
   28200    639.01701   -108.20841   0.57819602   -107.63022   -7343.0973    4.2462947    4.2462947    4.2462947   -7343.0973    4965.1989    7852.6465   -34847.137   -215.82261   -1739.9615   -3383.7742    76.565018 
   28300     786.1781   -108.33737   0.71135047   -107.62602    1937.7537    4.2470659    4.2470659    4.2470659    1937.7537    -6055.761    16147.699   -4278.6769    -9012.185    10637.549    2389.3839    76.606742 
   28400    693.53039   -108.25535   0.62752087   -107.62783    5305.8942    4.2381315    4.2381315    4.2381315    5305.8942    35578.025   -1381.2555   -18279.086   -3556.4308   -7485.7442   -7074.8009    76.124297 
   28500    464.34077   -108.05268   0.42014528   -107.63253   -2519.1764    4.2528329    4.2528329    4.2528329   -2519.1764    9546.7583    5893.9401   -22998.228   -1966.9751    245.12846   -7892.8409    76.919233 
   28600    750.56845   -108.30547    0.6791301   -107.62634   -4360.7288    4.2490228    4.2490228    4.2490228   -4360.7288   -5828.1417    6816.6247   -14070.669   -13523.096     13900.32    2308.3288    76.712683 
   28700    804.95933    -108.3503   0.72834412   -107.62196    16259.928    4.2308686    4.2308686    4.2308686    16259.928    43354.039    6166.2579   -740.51406    4191.6894   -1477.1272   -7581.7894    75.733601 
   28800    670.76562   -108.23389   0.60692283   -107.62697   -16743.341    4.2570658    4.2570658    4.2570658   -16743.341   -9417.1366   -6540.3958   -34272.492    1179.9401    1942.3211   -5151.9759     77.14914 
   28900    665.16282   -108.22959    0.6018533   -107.62773   -465.39557    4.2439281    4.2439281    4.2439281   -465.39557   -2112.7019    17664.677   -16948.162   -9029.9316     15231.31      4345.76    76.437073 
   29000    809.30017   -108.35455    0.7322718   -107.62227    14491.673    4.2340815    4.2340815    4.2340815    14491.673    19434.201    18093.203     5947.614    1923.9738    3316.9381   -2738.5733    75.906267 
   29100    630.86689   -108.19512   0.57082162   -107.62429   -8163.9365    4.2577529    4.2577529    4.2577529   -8163.9365    15954.498    -5248.922   -35197.386    6412.4992    1198.6253   -5512.2176    77.186503 
   29200    657.94589   -108.22205   0.59532326   -107.62673    2030.8182    4.2391816    4.2391816    4.2391816    2030.8182    6307.2318     16751.97   -16966.747   -7950.7452    16057.273    3049.9825    76.180895 
   29300    649.12337   -108.21541   0.58734047   -107.62806    13946.531    4.2362507    4.2362507    4.2362507    13946.531    7233.5352    21329.663    13276.396   -10661.684    4007.5197   -5828.8032    76.022992 
   29400    850.94509   -108.39536     0.769953   -107.62541   -5852.7911    4.2545088    4.2545088    4.2545088   -5852.7911    13390.126   -9066.7335   -21881.766    10737.611   -4364.8481   -6271.0566    77.010206 
   29500    714.04944   -108.27392   0.64608694   -107.62784    2027.4097    4.2423906    4.2423906    4.2423906    2027.4097   -9278.9873    17492.513   -2131.2969    -7127.686    8924.3439    7035.5818    76.354029 
   29600    657.57914   -108.22346   0.59499142   -107.62847    7366.0126    4.2368318    4.2368318    4.2368318    7366.0126   -8166.6165    21585.731    8678.9234   -12528.694    6606.2949   -7815.4575    76.054281 
   29700    851.64595   -108.39839   0.77058715    -107.6278   -2934.8395    4.2483687    4.2483687    4.2483687   -2934.8395     13884.96   -754.20728   -21935.271    11608.679   -6970.2657   -6760.4913    76.677261 
   29800    603.19257   -108.17442   0.54578131   -107.62864    25.000038    4.2488063    4.2488063    4.2488063    25.000038    1156.0266    11850.136   -12931.162   -3453.0251    9291.9195    6024.6454    76.700957 
   29900    588.35465   -108.15923   0.53235565   -107.62687    9244.9821    4.2358954    4.2358954    4.2358954    9244.9821   -804.37184    18059.722    10479.596   -19822.791    9591.4552    -4566.319    76.003865 
   30000    653.58278   -108.22003   0.59137544   -107.62866    6621.8155    4.2455295    4.2455295    4.2455295    6621.8155    27601.137   -3419.1287   -4316.5618    9561.3192   -2852.5749   -3865.5987    76.523634 
   30100    741.41634   -108.29814   0.67084908   -107.62729   -4090.5103    4.2495936    4.2495936    4.2495936   -4090.5103   -6420.2403    402.67602   -6253.9666    9834.9753    7449.7929    1584.8854    76.743604 
   30200    722.79276   -108.28126   0.65399808   -107.62726    2907.7126    4.2389586    4.2389586    4.2389586    2907.7126    4493.8029    1323.5843    2905.7506   -26213.843    5383.9163    6019.7689     76.16887 
   30300     750.6228   -108.30739   0.67917928   -107.62821    -6423.977    4.2488867    4.2488867    4.2488867    -6423.977   -2716.3972   -15847.553   -707.98109    5777.2582    3972.7306   -5024.5417    76.705316 
   30400    775.64049   -108.32772   0.70181582   -107.62591    4324.1732    4.2439151    4.2439151    4.2439151    4324.1732    10722.838   -3647.1574     5896.839    15954.452   -3964.7041   -8033.6453    76.436369 
   30500    726.89948   -108.28574   0.65771393   -107.62803   -1709.8186    4.2438337    4.2438337    4.2438337   -1709.8186    1279.2597   -9803.7051    3394.9897   -33272.758    2420.4515    6374.4691    76.431976 
   30600    656.61617   -108.22216   0.59412011   -107.62804   -6994.5993     4.247882     4.247882     4.247882   -6994.5993   -11401.136    -6733.815    -2848.847   -5560.4603     5208.422   -9774.1445    76.650913 
   30700    715.73266   -108.27348   0.64760995   -107.62587   -1248.0313    4.2394868    4.2394868    4.2394868   -1248.0313    6371.3326    -7112.189   -3003.2374    22280.236   -6803.5976   -6957.0873     76.19735 
   30800    629.11843   -108.19663   0.56923958   -107.62739   -24944.798    4.2525177    4.2525177    4.2525177   -24944.798   -31535.682   -25899.297   -17399.416   -24467.514    8583.7343    2382.4904    76.902134 
   30900    623.17898   -108.18958   0.56386543   -107.62571   -5509.9563    4.2432015    4.2432015    4.2432015   -5509.9563   -9354.7978   -1125.7179   -6049.3533   -10217.602    6944.3442   -8297.7608    76.397823 
   31000    771.20749   -108.32215   0.69780475   -107.62434    2582.1288    4.2364471    4.2364471    4.2364471    2582.1288    2515.2656   -3801.4102    9032.5311    23077.398   -2221.1966   -3325.8443    76.033565 
   31100    501.70226   -108.08551   0.45395075   -107.63156   -18367.947    4.2543899    4.2543899    4.2543899   -18367.947   -24290.422   -20718.707   -10094.713   -21395.185    3301.6856   -123.03329    77.003747 
   31200    708.02254   -108.26934   0.64063367   -107.62871    11067.148    4.2397023    4.2397023    4.2397023    11067.148    16270.283    16293.508    637.65261    -20988.53     7434.849   -2052.1174    76.208967 
   31300    871.26807   -108.41435   0.78834166   -107.62601    5018.6136    4.2469187    4.2469187    4.2469187    5018.6136    12194.355    5757.5545   -2896.0681    15188.613    1562.7902   -1914.1308    76.598777 
   31400    635.04975    -108.2045   0.57460636   -107.62989   -10178.202    4.2481899    4.2481899    4.2481899   -10178.202   -29581.191   -5576.2688    4622.8539   -14158.943   -2715.8824    2621.3403    76.667581 
   31500    735.50163   -108.29377   0.66549733   -107.62828    5818.6832    4.2373117    4.2373117    4.2373117    5818.6832   -1589.6868    17770.834    1274.9023    -15387.51    10366.898    6878.7614    76.080127 
   31600    931.32922   -108.46685   0.84268625   -107.62417   -5269.3223    4.2538284    4.2538284    4.2538284   -5269.3223   -6724.2225    9618.4605   -18702.205    14005.339    3647.2135   -481.29131    76.973266 
   31700     619.3912   -108.18777   0.56043817   -107.62733    164.48112    4.2429779    4.2429779    4.2429779    164.48112   -17403.463    4073.1869     13823.72   -12061.315   -4512.5584   -3936.3523    76.385745 
   31800    378.81106    -107.9739   0.34275621   -107.63115    5263.6917    4.2445874    4.2445874    4.2445874    5263.6917    1610.9662    23112.405   -8932.2963   -20848.948    7622.6868    8404.1278    76.472703 
   31900    852.64224   -108.39508   0.77148862   -107.62359   -2051.4934    4.2493435    4.2493435    4.2493435   -2051.4934   -2434.8458    18960.957   -22680.591    2061.7825    6695.3588   -850.43735    76.730054 
   32000    709.33254    -108.2677   0.64181899   -107.62588     9483.761    4.2348834    4.2348834    4.2348834     9483.761     -5425.72    15024.692    18852.311   -14292.564   -5825.8976   -10507.054    75.949406 
   32100    403.36274   -107.99926   0.36497109   -107.63429   -19468.574    4.2531693    4.2531693    4.2531693   -19468.574   -42914.284   -2971.1151   -12520.322   -17441.812     9409.535    9200.6909     76.93749 
   32200    910.56784   -108.45256   0.82390092   -107.62866   -2045.0767    4.2420758    4.2420758    4.2420758   -2045.0767    -3020.428    10561.497   -13676.299    9928.0617    11974.574   -1700.4553    76.337034 
   32300    925.48676    -108.4641   0.83739987    -107.6267    8291.1216    4.2390507    4.2390507    4.2390507    8291.1216   -2143.8115     4430.001    22587.175   -8842.6331    -6495.762    246.43136    76.173839 
   32400     519.0524   -108.10192   0.46964952   -107.63227    -19386.97    4.2537252    4.2537252    4.2537252    -19386.97   -24643.341    -18157.13   -15360.439   -17691.767    12289.998    4027.8683     76.96766 
   32500    650.63041   -108.21837   0.58870407   -107.62967    10878.195    4.2345718    4.2345718    4.2345718    10878.195    2265.4664    35999.815   -5630.6971    4286.6323    12587.281    6999.7708    75.932639 
   32600     837.2023    -108.3839   0.75751824   -107.62639    3783.8265    4.2489102    4.2489102    4.2489102    3783.8265   -1866.1655    11459.673    1757.9719   -10954.911   -8585.8871    3518.5274    76.706585 
   32700    682.49523    -108.2483   0.61753603   -107.63076   -5010.6345    4.2465532    4.2465532    4.2465532   -5010.6345    -19219.97    5031.3305   -843.26341   -17257.988     12211.56   -6438.2101    76.579001 
   32800    493.85065   -108.07823   0.44684645   -107.63138    15074.092    4.2335584    4.2335584    4.2335584    15074.092     5293.205    39525.978    403.09344    8379.6332    12970.205    11416.841    75.878138 
   32900    901.53655   -108.44393   0.81572922    -107.6282   -13379.458    4.2544568    4.2544568    4.2544568   -13379.458   -28915.362   -2225.7109   -8997.3022    4119.3274   -9954.3211   -1220.3477    77.007384 
   33000    790.78431   -108.34207   0.71551826   -107.62655    3993.0578    4.2434294    4.2434294    4.2434294    3993.0578   -15953.669    27279.634    653.20868   -9088.7324    7890.7736   -3274.1947     76.41013 
   33100    502.61266   -108.08523    0.4547745   -107.63045   -1774.1406    4.2375918    4.2375918    4.2375918   -1774.1406   -5906.6287    3660.0549   -3075.8478    3613.1881    12876.863    9973.9332    76.095215 
   33200    650.71967   -108.21877   0.58878483   -107.62999   -4207.7611    4.2475332    4.2475332    4.2475332   -4207.7611    1226.9686   -7736.7177   -6113.5342    5953.1679    -13831.06    5636.9491     76.63203 
   33300    848.11009    -108.3929   0.76738783   -107.62551    5566.5299    4.2458336    4.2458336    4.2458336    5566.5299    8853.2606    13845.428   -5999.0991    -5015.893    1779.0882   -5869.8147    76.540079 
   33400    535.96802    -108.1153   0.48495513   -107.63034   -3238.6242    4.2436079    4.2436079    4.2436079   -3238.6242     -3887.19    1833.9982   -7662.6809   -4230.9197    15920.555    4261.0915    76.419773 
   33500    628.23399    -108.1989   0.56843932   -107.63046   -1102.2396    4.2385396    4.2385396    4.2385396   -1102.2396   -1549.1564   -3390.9123    1633.3497    13440.474   -14910.304      12088.9    76.146285 
   33600    976.37526   -108.51123   0.88344485   -107.62779   -8238.2669    4.2505582    4.2505582    4.2505582   -8238.2669   -19268.571     6979.743   -12425.972    389.76529   -1247.1465   -9964.9721    76.795879 
   33700    737.56462    -108.2973   0.66736397   -107.62993   -443.78131    4.2435175    4.2435175    4.2435175   -443.78131   -4987.5213    1751.9558    1904.2217   -6850.0258    15321.674    301.10534    76.414891 
   33800    560.59018   -108.13698   0.50723377   -107.62974    179.76534    4.2358908    4.2358908    4.2358908    179.76534   -3579.4703    -2849.577    6968.3433    11385.003    -9442.103    15326.319    76.003616 
   33900    702.25357   -108.26427   0.63541379   -107.62886   -6646.4294    4.2540139    4.2540139    4.2540139   -6646.4294   -16849.489    12888.765   -15978.564    3432.3648   -7720.5483   -3743.3552    76.983335 
   34000    794.11083   -108.34472   0.71852816    -107.6262     12324.18    4.2394472    4.2394472    4.2394472     12324.18    13087.939    9462.1567    14422.445   -6498.5978    8307.2162   -3850.6464    76.195214 
   34100    417.25235   -108.01022    0.3775387   -107.63268    -2492.516    4.2390384    4.2390384    4.2390384    -2492.516    5945.8667   -8142.4338   -5280.9809    7267.4351    -5444.155    12264.602    76.173173 
   34200    579.39214   -108.15608   0.52424618   -107.63183   -7990.5888    4.2525715    4.2525715    4.2525715   -7990.5888   -9793.4332    1181.2098   -15359.543     13204.98   -14101.573    3330.4562    76.905051 
   34300     1105.523   -108.62288    1.0003005   -107.62258    13392.226    4.2402441    4.2402441    4.2402441    13392.226    16301.616    19647.816    4227.2449   -2614.1537    1499.6372   -10883.225    76.238189 
   34400    657.60183   -108.22569   0.59501196   -107.63067   -5851.7743    4.2428155    4.2428155    4.2428155   -5851.7743   -16936.304    1530.2402   -2149.2597    9704.5942    -1969.526    12996.796     76.37697 
   34500    480.29383    -108.0691   0.43457995   -107.63452    -4403.676    4.2453761    4.2453761    4.2453761    -4403.676    -19153.55    15725.319   -9782.7975     17804.26   -9626.3202    8510.8879    76.515342 
   34600    1069.4303   -108.59289   0.96764298   -107.62525    6878.2771    4.2452008    4.2452008    4.2452008    6878.2771   -3108.3211    20541.033    3202.1194   -8134.7592    3504.1114   -6866.0332    76.505862 
   34700    640.73034   -108.20958   0.57974627   -107.62983   -4579.9429    4.2459955    4.2459955    4.2459955   -4579.9429   -5493.1179    586.92077   -8833.6315    4064.7988   -1183.0672    14365.193    76.548837 
   34800    257.08059   -107.86788   0.23261192   -107.63527   -6153.2722    4.2403738    4.2403738    4.2403738   -6153.2722   -10396.764    -3882.917   -4180.1352    12779.921   -10891.359    8309.2234    76.245186 
   34900    864.96907   -108.41368   0.78264219   -107.63104   -869.86724    4.2455715    4.2455715    4.2455715   -869.86724   -8582.3317    5700.9001    271.82989   -5083.8497     -1054.38   -2837.6544    76.525908 
   35000    855.51697   -108.40431   0.77408974   -107.63022    7774.9427    4.2438265    4.2438265    4.2438265    7774.9427    11560.547    6754.7974    5009.4841    4750.4347     1511.891    7739.9226    76.431584 
   35100    529.48254   -108.11335   0.47908693   -107.63426    -1991.637     4.242897     4.242897     4.242897    -1991.637   -8181.4145   -162.98252    2369.4859    19488.274   -16160.833    6414.6523    76.381373 
   35200    792.37044   -108.34564   0.71695342   -107.62868     -3809.22    4.2503687    4.2503687    4.2503687     -3809.22   -29303.453    7925.5282    9950.2649    3187.6328   -2306.7626   -3767.2676    76.785604 
   35300    898.59728   -108.43557    0.8130697    -107.6225    4979.0013    4.2438428    4.2438428    4.2438428    4979.0013    11608.393    9219.1509   -5890.5399   -808.75463    8667.9378    8420.1986    76.432463 
   35400    588.35883   -108.15915   0.53235943   -107.62679   -5797.1423    4.2398121    4.2398121    4.2398121   -5797.1423     -14672.1   -6797.7383    4078.4113    12778.896   -11802.553    12838.244    76.214889 
   35500     485.1722   -108.06923     0.438994   -107.63023   -7012.1469     4.247406     4.247406     4.247406   -7012.1469   -27939.849   -6114.1397    13017.548   -3294.6306   -913.44228   -6020.2452    76.625148 
   35600    704.43912   -108.26222   0.63739132   -107.62483   -401.82087    4.2474939    4.2474939    4.2474939   -401.82087    2035.3791   -7210.8294    3969.9878   -7535.8515    14425.907     11155.01    76.629905 
   35700    800.52008   -108.34834    0.7243274   -107.62401   -639.17083    4.2406006    4.2406006    4.2406006   -639.17083    492.73656   -7089.5579    4679.3088    9424.6265   -7022.7192    12041.172    76.257419 
   35800    594.99704   -108.16772   0.53836583   -107.62936   -1387.4488    4.2413866    4.2413866    4.2413866   -1387.4488   -19525.097    1443.3841    13919.366    1597.0428    -7289.113   -6330.6969    76.299833 
   35900    687.44602   -108.25299   0.62201561   -107.63097   -8155.9893    4.2476211    4.2476211    4.2476211   -8155.9893   -15700.732     3682.209   -12449.445   -5344.9824    16035.137    6827.4359    76.636789 
   36000     988.2523   -108.51964   0.89419145   -107.62544    1154.7398     4.243027     4.243027     4.243027    1154.7398   -7322.5263     9740.745    1046.0007    8375.4902   -2559.1343    1748.5995    76.388397 
   36100    655.08506   -108.22114   0.59273473    -107.6284    6502.6244    4.2410553    4.2410553    4.2410553    6502.6244   -11387.098    15174.812     15720.16    1163.6679   -9043.9812    2041.7688    76.281955 
   36200    422.30435   -108.01512   0.38210985   -107.63301   -10628.713    4.2490542    4.2490542    4.2490542   -10628.713   -35308.292    11649.452   -8227.2978   -11916.222    19917.583    1846.6143    76.714388 
   36300    790.39567    -108.3439   0.71516661   -107.62873    7747.7704     4.241837     4.241837     4.241837    7747.7704    5027.8192    16711.936     1503.556    -4318.245    4128.0897    9387.4091    76.324141 
   36400     864.9527   -108.40996   0.78262738   -107.62734    7172.6243    4.2410875    4.2410875    4.2410875    7172.6243   -4373.6854    13178.285    12713.273    1904.3454   -3840.6825    4435.2991    76.283692 
   36500    373.06367    -107.9725   0.33755585   -107.63494   -16034.098     4.251743     4.251743     4.251743   -16034.098   -41866.101    7460.5708   -13696.764   -10885.785    22114.193   -789.62166    76.860113 
   36600    744.90771   -108.30467   0.67400815   -107.63067    12710.448    4.2383075    4.2383075    4.2383075    12710.448    1587.2744     21175.56    15368.509   -5267.4922    4964.3135    10989.675    76.133781 
   36700    1080.9388   -108.60438   0.97805616   -107.62633     10043.79    4.2422094    4.2422094    4.2422094     10043.79   -991.26674    15896.748     15225.89    7604.3878    121.53311   -6665.2026    76.344246 
   36800    513.70788   -108.09825   0.46481368   -107.63344   -8787.4008    4.2487828    4.2487828    4.2487828   -8787.4008   -39776.876    32579.006   -19164.332   -5621.5039    21342.595   -1617.4769    76.699686 
   36900    547.38937   -108.12592    0.4952894   -107.63063   -880.89005    4.2389171    4.2389171    4.2389171   -880.89005   -14471.535    10980.129    848.73596   -5467.1357    2491.9157     7282.398    76.166638 
   37000     878.0645   -108.41996   0.79449121   -107.62547   -6682.0441    4.2475039    4.2475039    4.2475039   -6682.0441   -14908.224    590.10373   -5728.0116    5774.5746    1551.4956   -1651.8665    76.630446 
   37100    689.64165   -108.25171   0.62400226   -107.62771   -9294.0604    4.2451869    4.2451869    4.2451869   -9294.0604   -30079.471    19273.164   -17075.874   -2362.4775    22211.927   -526.46421     76.50511 
   37200    495.90304   -108.07925   0.44870349   -107.63054    2834.2644    4.2377562    4.2377562    4.2377562    2834.2644   -8884.8634      12257.5    5130.1569   -9405.1731   -3858.6394     7866.141    76.104072 
   37300    827.52764   -108.37694    0.7487644   -107.62818   -14113.501    4.2490699    4.2490699    4.2490699   -14113.501   -20492.445   -21574.257    -273.7997    8677.6909   -2432.7829    10237.493    76.715234 
   37400    775.11391   -108.32777   0.70133935   -107.62643   -419.60838    4.2451172    4.2451172    4.2451172   -419.60838   -20081.393    25775.229   -6952.6605    3596.3359    21716.478   -5240.7886     76.50134 
   37500    697.48341   -108.25869   0.63109765   -107.62759   -7607.8581    4.2386097    4.2386097    4.2386097   -7607.8581   -21939.646    2311.0843   -3195.0124   -11448.593   -2965.2819    5526.9889    76.150064 
   37600    534.59947   -108.11441   0.48371683   -107.63069   -7448.1147     4.246201     4.246201     4.246201   -7448.1147   -23528.508   -4659.4138    5843.5776    14017.692   -5640.9611    7120.7712     76.55995 
   37700    826.92975    -108.3751   0.74822341   -107.62688   -3176.5677    4.2461548    4.2461548    4.2461548   -3176.5677    -21047.94    21214.306   -9696.0689     2173.221    19843.005   -5597.4605    76.557453 
   37800    705.18959    -108.2646   0.63807036   -107.62653    365.53168    4.2408765    4.2408765    4.2408765    365.53168   -11407.229    20696.584   -8192.7595   -7287.1367   -1481.8368    93.978755    76.272308 
   37900    482.58277    -108.0675   0.43665103   -107.63085   -8604.5579    4.2463387    4.2463387    4.2463387   -8604.5579     -26607.6   -5117.5688    5911.4949    10735.508   -6376.2454    5133.4325      76.5674 
   38000    842.05785   -108.38832   0.76191164    -107.6264   -1741.1545    4.2455684    4.2455684    4.2455684   -1741.1545   -12892.643    12098.058   -4428.8791    7558.4253    7444.3496    2504.3422    76.525736 
   38100    856.17255   -108.40059   0.77468292   -107.62591    10731.965    4.2390472    4.2390472    4.2390472    10731.965   -515.29289    29699.397    3011.7911   -2493.1484   -2999.4742   -8544.9211    76.173647 
   38200    499.12823   -108.08405   0.45162171   -107.63243   -3520.4579     4.248815     4.248815     4.248815   -3520.4579   -24412.025    1132.0355    12718.616     11446.76    -6542.173    13086.713    76.701429 
   38300    719.46885   -108.27873   0.65099053   -107.62774    3479.1052    4.2447916    4.2447916    4.2447916    3479.1052   -276.43857    6847.6716    3866.0826    10365.128    1690.5717   -1046.7632     76.48374 
   38400    896.49845   -108.43567   0.81117063    -107.6245    5534.4584    4.2390743    4.2390743    4.2390743    5534.4584    8495.9645    9069.6013   -962.19067   -5107.9064   -3049.3519   -20842.237    76.175109 
   38500    489.28864   -108.07197   0.44271864   -107.62925   -12241.418    4.2508527    4.2508527    4.2508527   -12241.418   -22904.952   -11853.798   -1965.5031    7328.0879   -9108.9214    8150.1704    76.811839 
   38600    678.20082   -108.23989   0.61365036   -107.62624   -6293.7156    4.2411171    4.2411171    4.2411171   -6293.7156    -2391.287   -14019.521   -2470.3388    3660.1556    2451.1124   -1895.1652     76.28529 
   38700    737.70281   -108.29336   0.66748901   -107.62587    2885.0379    4.2438634    4.2438634    4.2438634    2885.0379    6317.4416    19033.812    -16696.14   -5315.4372    2731.1181   -20837.368    76.433577 
   38800    741.92567   -108.29694   0.67130994   -107.62563   -9140.0736    4.2497507    4.2497507    4.2497507   -9140.0736   -18931.024   -532.80776   -7956.3893    4569.4149   -10873.812    1214.0357    76.752117 
   38900    690.69729   -108.24978   0.62495743   -107.62482    3667.0523    4.2381569    4.2381569    4.2381569    3667.0523   -7187.2424    16880.727    1307.6723     8039.951   -1820.1948    3667.9837    76.125664 
   39000    724.26987   -108.28185    0.6553346   -107.62651   -12385.564    4.2487057    4.2487057    4.2487057   -12385.564   -4446.8967   -8945.2525   -23764.542   -714.22702    1327.8637   -25758.006     76.69551 
   39100    864.01973   -108.40542   0.78178321   -107.62363   -4394.0582    4.2463133    4.2463133    4.2463133   -4394.0582   -12705.528    6420.9629   -6897.6099    7026.2804   -9411.7516   -6855.3861    76.566027 
   39200    779.19757   -108.32943   0.70503434    -107.6244    5483.9449    4.2383776    4.2383776    4.2383776    5483.9449   -965.26295    13483.233    3933.8649    9640.5077   -911.04354    1805.2025    76.137558 
   39300    434.46265    -108.0241   0.39311094   -107.63099   -12449.415    4.2504673    4.2504673    4.2504673   -12449.415    2190.7118   -12777.169   -26761.788   -7240.1173    1852.3583   -32145.919     76.79095 
   39400    714.95795   -108.27475   0.64690898   -107.62784    5896.3174    4.2401584    4.2401584    4.2401584    5896.3174    13803.373    18053.057   -14167.477   -1199.0679   -9416.6538   -1774.1408    76.233566 
   39500     793.2955   -108.34428   0.71779044   -107.62649    670.49354    4.2441018    4.2441018    4.2441018    670.49354    3012.0668    15943.784    -16944.37   -573.29177   -3404.1272   -3208.5424     76.44646 
   39600    438.43486   -108.02697   0.39670508   -107.63027    -12881.37    4.2505189    4.2505189    4.2505189    -12881.37    19771.979   -21600.885   -36815.204   -2423.4967    303.09998   -30682.223    76.793749 
   39700    712.58242   -108.27049   0.64475955   -107.62573    7239.1507    4.2362083    4.2362083    4.2362083    7239.1507    25496.216    7749.4162    -11528.18   -6179.2704   -15259.254     5850.316    76.020709 
   39800    878.50644   -108.42062   0.79489109   -107.62573   -1698.3669    4.2473492    4.2473492    4.2473492   -1698.3669    312.19433    9722.3351    -15129.63    1376.3609   -7873.8963   -2518.8758    76.622076 
   39900    734.96996   -108.29336   0.66501626   -107.62834    -11729.23    4.2454659    4.2454659    4.2454659    -11729.23    14364.924   -26357.698   -23194.916    9868.7928    3263.3096   -29673.224    76.520195 
   40000    616.08644    -108.1856   0.55744796   -107.62815   -943.17508    4.2378725    4.2378725    4.2378725   -943.17508   -6.5683411    2222.7399   -5045.6968   -5285.0556   -11787.982    8996.6516    76.110338 
   40100    800.49147   -108.35124    0.7243015   -107.62694   -16619.953      4.24992      4.24992      4.24992   -16619.953   -19808.706   -2403.3016   -27647.851    2021.6198   -10321.831     8069.316     76.76129 
   40200    754.07138   -108.30749   0.68229964   -107.62519    1147.5589    4.2407049    4.2407049    4.2407049    1147.5589    14459.367    1045.2739   -12061.964    1953.4832    9354.3361   -25093.908    76.263046 
   40300    521.78275   -108.10014   0.47211999   -107.62802   -10146.463    4.2436303    4.2436303    4.2436303   -10146.463   -10021.282   -3703.5573   -16714.551   -2927.6436   -9388.2488    8575.0104    76.420984 
   40400    506.72607   -108.08728    0.4584964   -107.62878   -14637.667    4.2469093    4.2469093    4.2469093   -14637.667   -14583.765    1885.2597   -31214.495   -5616.7393   -10526.677     14274.77    76.598268 
   40500    922.20573   -108.45846   0.83443112   -107.62403    7684.1498    4.2378896    4.2378896    4.2378896    7684.1498    20160.506    5834.8213   -2942.8782   -3892.3888    7717.2623   -16908.771    76.111263 
   40600    570.29531   -108.14614   0.51601518   -107.63012    116.43788    4.2470588    4.2470588    4.2470588    116.43788    13209.211    7254.3305   -20114.228    5426.0684   -14407.165    7308.7352    76.606362 
   40700    544.41327   -108.12505   0.49259657   -107.63246   -2543.6079    4.2444009    4.2444009    4.2444009   -2543.6079    8591.2603   -866.41676   -15355.667   -12066.365   -8799.7554    15583.207    76.462621 
   40800    1086.3399   -108.60585   0.98294318    -107.6229    9370.2098    4.2458873    4.2458873    4.2458873    9370.2098    17971.376     6745.856     3393.398    3836.4775   -89.623557   -5988.8063    76.542986 
   40900    802.61249    -108.3563   0.72622065   -107.63008    4477.7594    4.2403657    4.2403657    4.2403657    4477.7594    625.64724    15656.645   -2849.0141    11563.776   -7200.9367    8273.6468    76.244747 
   41000    461.81009   -108.05333   0.41785547   -107.63548   -7196.5779    4.2418215    4.2418215    4.2418215   -7196.5779   -7330.8823   -4630.2102   -9628.6411   -4378.2658   -9302.0494    17410.573    76.323306 
   41100      899.245   -108.44066   0.81365577     -107.627    337.84966    4.2531609    4.2531609    4.2531609    337.84966    10927.951   -342.13212   -9572.2701   -2791.9386    1614.8759    -1892.767    76.937035 
   41200    786.67604   -108.34007   0.71180101   -107.62827    10392.431    4.2343736    4.2343736    4.2343736    10392.431    6184.5869     24262.39    730.31477    2600.6816    1346.3512    4655.9541    75.921977 
   41300     205.2498   -107.82249   0.18571433   -107.63677   -3538.8153    4.2426568    4.2426568    4.2426568   -3538.8153    9994.6777   -15068.953   -5542.1709   -161.95495   -10682.952    19285.847    76.368402 
   41400     778.6114   -108.32986   0.70450396   -107.62536   -12986.503     4.254907     4.254907     4.254907   -12986.503   -4078.0696   -14913.079    -19968.36   -13479.882    3592.2506   -3863.0106    77.031829 
   41500    782.57039   -108.33045   0.70808614   -107.62236     20537.32    4.2303149    4.2303149    4.2303149     20537.32    34958.474    18533.103    8120.3816    8769.1782   -823.02751   -5353.4751    75.703869 
   41600    503.93515   -108.08741   0.45597111   -107.63144   -12369.159    4.2467878    4.2467878    4.2467878   -12369.159   -5357.7827   -22447.126    -9302.568    3352.0746   -8354.9428    19611.415    76.591693 
   41700    828.71955   -108.37322   0.74984286   -107.62338   -9966.8548    4.2517481    4.2517481    4.2517481   -9966.8548   -5341.7475    -14488.39   -10070.427   -13200.195   -5332.1407   -6508.2043    76.860391 
   41800    949.03924   -108.47959   0.85871065   -107.62088    13577.974    4.2327565    4.2327565    4.2327565    13577.974    17984.127    8382.2763    14367.519    15842.275    159.08216   -15701.418     75.83503 
   41900    701.29828   -108.26199   0.63454942   -107.62744   -3756.0465    4.2457812    4.2457812    4.2457812   -3756.0465   -898.03858    -9107.832   -1262.2691    507.14406   -12223.991    21474.592    76.537244 
   42000    689.35438   -108.25065   0.62374233    -107.6269    2885.3905    4.2479729    4.2479729    4.2479729    2885.3905    8772.7977    8255.1877    -8371.814   -6565.4293   -7677.0941   -2599.9221    76.655835 
   42100    798.07904   -108.34581   0.72211868    -107.6237    13164.012    4.2397389    4.2397389    4.2397389    13164.012    24618.011    10481.032    4392.9919   -4605.3847     7068.722    -24687.92    76.210942 
   42200    683.01107   -108.24362   0.61800277   -107.62562    5175.9678    4.2412653    4.2412653    4.2412653    5175.9678    8472.5616    11537.128   -4481.7861     -1637.43   -11481.078    19551.182    76.293287 
   42300    457.57511   -108.04411   0.41402357   -107.63008    73.256185     4.245935     4.245935     4.245935    73.256185   -1298.3894    9148.6864   -7630.5284   -2871.9798   -4791.7545    -2622.883    76.545562 
   42400    661.13106   -108.22579   0.59820528   -107.62758    2756.6499    4.2435003    4.2435003    4.2435003    2756.6499    19457.188   -16213.808     5026.569   -9231.1229    2280.5995   -26371.471     76.41396 
   42500    841.97135   -108.38634   0.76183337   -107.62451    10071.396    4.2376562    4.2376562    4.2376562    10071.396     9308.012    16735.244    4170.9327    9481.5527   -1954.5108     14060.41    76.098687 
   42600    493.74672   -108.07652    0.4467524   -107.62977   -13730.364    4.2501206    4.2501206    4.2501206   -13730.364   -14411.202   -17032.629    -9747.263   -3600.8988    -10928.54    2351.5358    76.772158 
   42700    707.21631   -108.26735   0.63990418   -107.62745   -4705.8189    4.2420625    4.2420625    4.2420625   -4705.8189   -5396.1873   -18279.749    9558.4792   -3971.6059   -152.80015   -21066.627    76.336314 
   42800     1034.777   -108.55917   0.93628798   -107.62288    7382.2862    4.2391768    4.2391768    4.2391768    7382.2862    6166.8798    14570.791    1409.1874    2999.8854    1875.6385    4460.1583    76.180634 
   42900    672.50731   -108.23682   0.60849875   -107.62832   -6729.8572    4.2495004    4.2495004    4.2495004   -6729.8572   -12557.923     1571.074   -9202.7229   -3932.4228   -12724.269    2051.0046    76.738558 
   43000    598.16832   -108.17028   0.54123527   -107.62905    18.901475    4.2414412    4.2414412    4.2414412    18.901475    2399.9586     771.1665   -3114.4206   -5688.6961   -2776.7382   -22293.867     76.30278 
   43100    876.64818   -108.41644   0.79320969   -107.62323    3410.5372    4.2437079    4.2437079    4.2437079    3410.5372   -3265.2702    11051.945    2444.9367   -6997.6999   -2058.1276    2977.8766    76.425176 
   43200    632.18389   -108.19764   0.57201327   -107.62562    209.90642    4.2461008    4.2461008    4.2461008    209.90642   -5616.1394    15067.895   -8822.0365   -2250.3421   -10774.684    -1020.879    76.554532 
   43300    474.15606   -108.05531   0.42902637   -107.62628   -3406.4252    4.2449374    4.2449374    4.2449374   -3406.4252   -627.36626   -7111.4169   -2480.4925   -11582.347    -2328.588    -22522.86    76.491621 
   43400    710.73541   -108.26677   0.64308833   -107.62368    5252.9224    4.2425458    4.2425458    4.2425458    5252.9224   -1119.4596    5604.7226    11273.504   -2212.4589    628.43736    5301.5566    76.362411 
   43500    715.55359   -108.27252   0.64744793   -107.62507     4085.064    4.2434617    4.2434617    4.2434617     4085.064    416.56015    21395.452   -9556.8203    6206.4524   -8250.2248   -5116.7318    76.411875 
   43600    643.06782   -108.20837   0.58186128   -107.62651   -9174.8457    4.2496615    4.2496615    4.2496615   -9174.8457   -6662.9965   -9193.5417   -11667.999   -6911.6007   -4113.2935    -16187.49    76.747283 
   43700    792.04087   -108.34081   0.71665522   -107.62415    2012.3189    4.2397961    4.2397961    4.2397961    2012.3189   -18146.146    12481.129    11701.973    7241.5645    6334.2797    2076.9364    76.214026 
   43800    730.33778   -108.28818   0.66082497   -107.62736    3256.8375    4.2401217    4.2401217    4.2401217    3256.8375   -12932.386    26146.346    -3443.447    7397.2899    -5260.481   -2269.7476    76.231586 
   43900    718.30639   -108.27682   0.64993872   -107.62688   -11227.075    4.2515603    4.2515603    4.2515603   -11227.075    -11904.15    -3616.382   -18160.694   -7235.5151    -6589.957   -15487.215    76.850205 
   44000    812.89943   -108.35872   0.73552849   -107.62319    5786.0603    4.2392052    4.2392052    4.2392052    5786.0603   -6581.9454    9721.6729    14218.454     3325.967    5208.6682   -5915.2114    76.182166 
   44100    632.49958   -108.19916   0.57229892   -107.62686   -5021.0646    4.2422667    4.2422667    4.2422667   -5021.0646    -11972.75     2683.854   -5774.2976    7848.8167   -7595.2165    499.99567    76.347337 
   44200    578.72245   -108.15032   0.52364024   -107.62668   -8361.3084    4.2507185    4.2507185    4.2507185   -8361.3084    4761.4869   -15569.428   -14275.984    -2382.085   -8287.2766   -23813.966    76.804567 
   44300    862.10645    -108.4015   0.78005203   -107.62145    13713.174    4.2382692    4.2382692    4.2382692    13713.174    10407.226    11646.753    19085.542   -280.94518   -3532.4524    -3563.223    76.131713 
   44400    601.31509   -108.17211   0.54408253   -107.62803   -229.35687    4.2434639    4.2434639    4.2434639   -229.35687    3256.0927   -4653.4524    709.28903    5902.5113   -7485.3175   -101.74547    76.411997 
   44500    477.12909   -108.06085   0.43171643   -107.62913   -8016.4841    4.2486493    4.2486493    4.2486493   -8016.4841   -444.20036   -8233.4116    -15371.84   -4631.5374   -5022.7073   -29180.351    76.692457 
   44600    948.29652   -108.47932   0.85803862   -107.62128    1788.5311    4.2422703    4.2422703    4.2422703    1788.5311   -3762.9876   -441.89408    9570.4749     3155.693    809.51902    7727.3026    76.347535 
   44700    664.81243    -108.2281   0.60153626   -107.62656   -9713.6932    4.2429303    4.2429303    4.2429303   -9713.6932   -15807.456   -11465.358   -1868.2662    11442.587   -1356.4405   -996.47934     76.38317 
   44800    450.49487   -108.03852   0.40761722   -107.63091   -8615.1795     4.244184     4.244184     4.244184   -8615.1795    412.62112   -14268.301   -11989.858   -210.31501   -7358.8085   -29322.093    76.450903 
   44900    973.20388   -108.50545   0.88057533   -107.62488   -1791.2499    4.2483352    4.2483352    4.2483352   -1791.2499   -4287.9312    4563.4607   -5649.2793    4696.7636    4165.5904    5412.7593    76.675449 
   45000    849.02788   -108.39537   0.76821827   -107.62715   -641.61916    4.2394001    4.2394001    4.2394001   -641.61916    8942.3563    -11906.46    1039.2465    7220.1617     1149.758   -1463.1943    76.192673 
   45100    422.38677   -108.01721   0.38218442   -107.63503    1832.7297     4.242111     4.242111     4.242111    1832.7297    20156.709   -7206.0809   -7452.4391    4110.7438   -11203.872   -27374.429    76.338933 
   45200    952.94701   -108.48581   0.86224648   -107.62356    -4729.211    4.2555649    4.2555649    4.2555649    -4729.211    1271.8535   -3936.8554   -11522.631   -7737.8291   -1300.1887   -1004.1248     77.06757 
   45300    785.60432   -108.33375    0.7108313   -107.62292    17796.237    4.2350719    4.2350719    4.2350719    17796.237    31413.884     13680.85     8293.976    2854.0254   -5196.3964    4186.6018    75.959547 
   45400    343.71461   -107.94281    0.3110002   -107.63181    181.52647    4.2419303    4.2419303    4.2419303    181.52647    15965.333   -6781.3106   -8639.4431    3087.2561   -11392.353   -23853.021    76.329176 
   45500    655.36785   -108.21895    0.5929906   -107.62596    -4059.155    4.2517031    4.2517031    4.2517031    -4059.155   -12367.224    11800.563   -11610.804   -10896.871   -4996.2874   -2744.2487    76.857951 
   45600    812.34283   -108.35757   0.73502487   -107.62254    10339.455    4.2360728    4.2360728    4.2360728    10339.455    9154.2339    18916.884    2947.2462    975.37508     2198.959    6588.5848    76.013417 
   45700     397.8313   -107.98953   0.35996612   -107.62956   -10541.249    4.2491345    4.2491345    4.2491345   -10541.249    -6861.382   -4869.9414   -19892.424    2904.4423   -9494.5715   -25024.399    76.718735 
   45800    816.80031   -108.36212   0.73905808   -107.62306   -7639.3028    4.2480091    4.2480091    4.2480091   -7639.3028    -20008.68    9778.9071   -12688.135   -4664.3317   -2974.0333    2422.0447    76.657792 
   45900    1013.9297   -108.53647   0.91742492   -107.61904     2328.344    4.2392499    4.2392499    4.2392499     2328.344    111.93534    9404.0095   -2530.9127   -1832.1741    6309.9655   -2648.9998    76.184575 
   46000    716.62243   -108.27476   0.64841504   -107.62635    -7484.766    4.2443338    4.2443338    4.2443338    -7484.766    8663.3829   -9131.3119   -21986.369    6586.6201   -5967.9284   -22861.909    76.458997 
   46100    788.00704   -108.33871   0.71300533   -107.62571   -5331.2384    4.2456542    4.2456542    4.2456542   -5331.2384     -15093.6    6885.1853   -7785.3006   -12377.507   -7276.6236    1100.5131    76.530379 
   46200    823.75258   -108.36711   0.74534865   -107.62177   -8160.9261    4.2501071    4.2501071    4.2501071   -8160.9261   -11887.304   -6670.3286   -5925.1461   -9943.8662    4282.1362   -4611.9125    76.771429 
   46300    540.66285   -108.11276   0.48920311   -107.62356   -5218.7143    4.2416643    4.2416643    4.2416643   -5218.7143    17003.918    -3747.095   -28912.966    3469.8398   -5818.5523   -20823.829     76.31482 
   46400    512.90686   -108.08884   0.46408891   -107.62475   -1173.7958    4.2432124    4.2432124    4.2432124   -1173.7958   -9233.4981    9387.4062   -3675.2955   -15663.478    -12700.48   -2742.7526     76.39841 
   46500    714.31767   -108.26951   0.64632964   -107.62318   -3660.1591    4.2492551    4.2492551    4.2492551   -3660.1591    -7704.681   -7639.0933    4363.2969   -11668.801   -1286.5139   -694.74952    76.725268 
   46600    615.64819   -108.18114   0.55705142   -107.62409    6634.1382    4.2395145    4.2395145    4.2395145    6634.1382    26431.576     1563.289   -8092.4504    4500.0491   -7796.1561   -23174.263    76.198842 
   46700    620.80464   -108.18921   0.56171708    -107.6275   -5531.5836    4.2428237    4.2428237    4.2428237   -5531.5836   -13082.259    733.48318   -4245.9747   -11668.946   -15051.888    4832.7163    76.377416 
   46800    736.73138    -108.2912   0.66661004   -107.62459   -7893.2166    4.2491649    4.2491649    4.2491649   -7893.2166    -5932.017   -13522.395   -4225.2377   -11204.037   -828.07687    -4684.986    76.720381 
   46900    840.26394   -108.38276   0.76028847   -107.62247    1449.2099    4.2380084    4.2380084    4.2380084    1449.2099    16782.107   -4961.3981   -7473.0794     6508.795   -663.75125   -21028.031    76.117665 
   47000    586.53609   -108.15773   0.53071018   -107.62702   -8466.9182    4.2432877    4.2432877    4.2432877   -8466.9182   -15220.269     3188.519   -13369.004   -16790.273   -11308.724    11619.629    76.402474 
   47100    677.54076   -108.23912   0.61305312   -107.62606   -12122.122    4.2479526    4.2479526    4.2479526   -12122.122    -21492.16    -13923.32   -950.88509   -13501.142   -2725.1641   -4140.9243    76.654732 
   47200    937.91951   -108.47148   0.84864928   -107.62283     3179.408    4.2383201    4.2383201    4.2383201     3179.408    15253.623    945.09322   -6660.4926    8857.7391    4500.8434   -10392.119    76.134461 
   47300    560.33342   -108.13686   0.50700145   -107.62985    -2549.531    4.2415032    4.2415032    4.2415032    -2549.531   -6386.9948    8550.5648    -9812.163   -10813.291   -8242.4987    8165.6268    76.306126 
   47400    547.14811   -108.12676    0.4950711   -107.63169   -7782.8463    4.2491795    4.2491795    4.2491795   -7782.8463   -1899.6771   -11160.434   -10288.428   -12176.874   -5878.0641    6722.4495    76.721174 
   47500    993.49862   -108.52108   0.89893843   -107.62214    14076.974    4.2403758    4.2403758    4.2403758    14076.974    14319.082    7925.0411    19986.799     10366.03    1127.8897   -3861.6762    76.245296 
   47600    579.91231   -108.15486   0.52471685   -107.63014    1672.8822    4.2393702    4.2393702    4.2393702    1672.8822   -2375.4906    9314.5447   -1920.4076   -13601.863   -6444.7138    1525.6384    76.191063 
   47700    317.18339   -107.92117    0.2869942   -107.63417   -15221.248    4.2512832    4.2512832    4.2512832   -15221.248   -13208.941   -33015.779    560.97643   -16955.758   -3185.6927    11601.392    76.835179 
   47800    1110.8451   -108.62789     1.005116   -107.62277    5629.8755    4.2387971    4.2387971    4.2387971    5629.8755    10907.653   -3793.9333    9775.9064    5773.4718   -1712.2796   -9353.2137    76.160167 
   47900     600.3483   -108.17451   0.54320776    -107.6313    8324.3708    4.2385121    4.2385121    4.2385121    8324.3708    14853.329    3087.7713    7032.0124   -11100.551    210.74631    4734.4408    76.144808 
   48000    372.77596   -107.97268   0.33729552   -107.63538   -19845.697    4.2543665    4.2543665    4.2543665   -19845.697   -13897.399   -23819.683   -21820.009   -17068.944   -7101.4622    7169.4228     77.00248 
   48100      1121.92   -108.63872    1.0151368   -107.62358    16623.134    4.2376403    4.2376403    4.2376403    16623.134    16212.557    16169.572    17487.273    4124.5939   -431.43447     310.7833    76.097828 
   48200    849.56868   -108.39761    0.7687076   -107.62891    7307.0775    4.2376472    4.2376472    4.2376472    7307.0775    813.49718    12339.907    8767.8286   -5254.7954    337.91024    6512.2691      76.0982 
   48300    354.55814   -107.95603   0.32081166   -107.63522     -14418.3    4.2523443    4.2523443    4.2523443     -14418.3   -32544.498   -13746.778    3036.3767   -20275.629   -7282.5592    11390.192    76.892728 
   48400    950.44375   -108.48349   0.85998148   -107.62351    4545.3753     4.242846     4.242846     4.242846    4545.3753    2803.5654    6039.5748    4792.9858    7037.4524    1311.9487    1604.3947    76.378621 
   48500     696.5747   -108.25531   0.63027542   -107.62503    5182.4648    4.2394134    4.2394134    4.2394134    5182.4648   -3560.9286   -1515.1675     20623.49   -5180.6994    3847.0634   -6499.1157    76.193392 
   48600    368.50627   -107.96307   0.33343222   -107.62963   -13142.928    4.2463519    4.2463519    4.2463519   -13142.928   -24408.347   -8958.9351   -6061.5011   -23107.295   -4511.7549    14765.988    76.568115 
   48700    761.77601   -108.31343   0.68927094   -107.62415   -7482.2361    4.2466739    4.2466739    4.2466739   -7482.2361    6409.9946   -15577.877   -13278.826     6524.249   -3824.2118   -8546.4096    76.585532 
   48800    751.65915   -108.30354     0.680117   -107.62342   -612.62473    4.2412246    4.2412246    4.2412246   -612.62473    8181.6216   -16300.768    6281.2722   -6584.9564     2238.129       -14229     76.29109 
   48900    631.65771   -108.19896   0.57153717   -107.62743    1046.1424    4.2423197    4.2423197    4.2423197    1046.1424   -14357.632    12297.868    5198.1921   -19671.786   -9074.4333    9977.1465    76.350201 
   49000    813.26036   -108.35971   0.73585507   -107.62386    327.27226    4.2508042    4.2508042    4.2508042    327.27226   -1106.5019    4604.2514   -2515.9327    4062.5509   -8557.9393   -5231.6478     76.80921 
   49100    781.89522   -108.33018   0.70747523    -107.6227    6421.2503    4.2391275    4.2391275    4.2391275    6421.2503    3244.4465    3587.2534    12432.051   -3723.0361    1628.7836   -13856.218    76.177975 
   49200    610.08253   -108.17764   0.55201549   -107.62562    4584.4413    4.2415776    4.2415776    4.2415776    4584.4413   -19187.508    11429.065    21511.766   -16630.861   -7348.8873    6202.9116    76.310142 
   49300    807.29583   -108.35257   0.73045823   -107.62211   -10040.097    4.2495165    4.2495165    4.2495165   -10040.097   -3484.1511   -9802.4918   -16833.647    3286.1499   -2018.5681    3792.0889    76.739427 
   49400     565.8912   -108.13583   0.51203025    -107.6238   -3330.6268    4.2415403    4.2415403    4.2415403   -3330.6268   -2174.8981   -19028.894    11211.912   -4088.0874    2652.4982   -18529.713    76.308128 
   49500    595.17703    -108.1647   0.53852868   -107.62617   -3589.8265    4.2425343    4.2425343    4.2425343   -3589.8265   -26074.441    2347.9988    12956.963   -21863.859   -2728.8959    3608.0601    76.361786 
   49600    913.37599   -108.44839   0.82644179   -107.62195    656.84967    4.2462618    4.2462618    4.2462618    656.84967    -6233.752    8253.9533   -49.652324    5601.1378   -4060.7631   -1608.9703    76.563237 
   49700    630.19092   -108.19631   0.57020999    -107.6261   -4166.3377    4.2460763    4.2460763    4.2460763   -4166.3377   -12941.315   -9527.7583    9970.0605   -6574.4768   -1253.0724   -17935.766    76.553205 
   49800     661.3656    -108.2254   0.59841749   -107.62698    594.83677    4.2417023    4.2417023    4.2417023    594.83677   -23674.396    -166.9867    25625.893   -17896.308   -5888.0456   -3028.5703    76.316872 
   49900    981.92623   -108.51045   0.88846749   -107.62198    11609.819    4.2432494    4.2432494    4.2432494    11609.819    3447.9574    15616.529    15764.972    6345.4315    -10253.71   -7650.0831    76.400407 
   50000    591.27033    -108.1622   0.53499382    -107.6272   -3214.2989    4.2514245    4.2514245    4.2514245   -3214.2989   -102.40597   -18311.502    8771.0116   -14280.796   -3949.4893   -10090.452     76.84284 
   50100    383.03227   -107.97415   0.34657565   -107.62757    2313.8788    4.2419558    4.2419558    4.2419558    2313.8788   -2030.2237   -7810.1633    16782.023   -17910.488   -3581.1905    -4365.852    76.330557 
   50200    785.33235   -108.33199   0.71058521    -107.6214     12360.52    4.2421862    4.2421862    4.2421862     12360.52    20429.553    7672.8042    8979.2033    3449.2205   -3847.7235    4436.1477    76.342992 
   50300    619.70164   -108.18353   0.56071907   -107.62281   -9040.9015    4.2546117    4.2546117    4.2546117   -9040.9015   -3698.3096   -15180.911   -8243.4844   -19400.324    1419.7672   -8350.7927    77.015792 
   50400    552.83398   -108.12315    0.5002158   -107.62294   -2125.5426    4.2408968    4.2408968    4.2408968   -2125.5426    -10992.73    -7222.708     11838.81   -11628.042    3398.7504    690.19901      76.2734 
   50500    961.55587   -108.49034   0.87003596    -107.6203    1901.5222    4.2422531    4.2422531    4.2422531    1901.5222   -5599.9512    11512.865   -208.34716    16831.924   -661.75689     12323.52    76.346605 
   50600    969.89469    -108.4977    0.8775811   -107.62011   -18544.789    4.2556765    4.2556765    4.2556765   -18544.789   -22539.307   -14069.703   -19025.357   -12669.473    3060.4407   -5090.4263    77.073633 
   50700    732.41397   -108.28515   0.66270355   -107.62244   -7319.1097    4.2421294    4.2421294    4.2421294   -7319.1097    -15524.26   -13139.888     6706.819   -10901.563    3452.2304   -3612.9807    76.339928 
   50800    798.17405   -108.34315   0.72220465   -107.62094    4919.5365    4.2413017    4.2413017    4.2413017    4919.5365    4163.6781    11751.848    -1156.916    16851.645   -775.38247    12940.426     76.29525 
   50900    652.38785   -108.21214   0.59029424   -107.62184   -7578.8256    4.2537707    4.2537707    4.2537707   -7578.8256    5904.9451   -15952.842    -12688.58    -16694.24    669.56519    3760.8684    76.970129 
   51000    502.45706   -108.07735   0.45463371   -107.62272    15963.261    4.2388308    4.2388308    4.2388308    15963.261    16306.056    11970.679    19613.049   -23768.133    33.484036   -10335.102    76.161985 
   51100    620.93279   -108.18454   0.56183304    -107.6227    5599.5804    4.2449471    4.2449471    4.2449471    5599.5804    21402.858   -9028.9843    4424.8674    12607.253   -7086.6349    6869.5285    76.492147 
   51200    611.16444    -108.1749   0.55299443    -107.6219   -231.96089    4.2502157    4.2502157    4.2502157   -231.96089    18817.686   -19664.027    150.45863   -15816.147   -3460.4674    9418.4816    76.777315 
   51300    812.08166    -108.3548   0.73478855   -107.62001    7677.2575     4.241696     4.241696     4.241696    7677.2575    1595.7973   -161.77093    21597.746   -18193.642   -1593.2908   -9282.7204    76.316533 
   51400    836.34708   -108.37922   0.75674441   -107.62247   -761.56347     4.242546     4.242546     4.242546   -761.56347    9730.0809   -10850.601     -1164.17    13996.518   -8097.4262     6542.896    76.362421 
   51500    646.31606   -108.21205   0.58480035   -107.62725   -1893.3309    4.2446897    4.2446897    4.2446897   -1893.3309    3947.1603   -11241.121    1613.9684   -6040.6477   -1501.1191    19424.059    76.478232 
   51600    797.17831   -108.34626   0.72130369   -107.62496   -7821.5978    4.2482272    4.2482272    4.2482272   -7821.5978   -16565.908   -12014.752    5115.8669   -15058.248   -1733.9699   -7869.8284      76.6696 
   51700    645.72859   -108.20821    0.5842688   -107.62394    1386.1625    4.2398745    4.2398745    4.2398745    1386.1625    23243.816   -11225.796   -7859.5325    4858.2324    2257.4643    7759.0724    76.218258 
   51800    512.02637   -108.09032   0.46329222   -107.62703   -7022.8476    4.2438795    4.2438795    4.2438795   -7022.8476     7155.397   -20192.074    -8031.866   -3675.6705   -1749.1644     22440.19    76.434448 
   51900    687.17633   -108.24537   0.62177158    -107.6236   -8344.1908    4.2491145    4.2491145    4.2491145   -8344.1908    1163.9899   -24895.776   -1300.7862   -23732.424     1480.269    -14664.45    76.717654 
   52000    778.12971   -108.32696   0.70406812   -107.62289    8632.3361     4.233984     4.233984     4.233984    8632.3361    39494.154   -7105.4475    -6491.698    3391.7458      6112.68    3071.7741    75.901025 
   52100    644.68587   -108.21172   0.58332532    -107.6284   -6451.1482    4.2478051    4.2478051    4.2478051   -6451.1482    15278.976   -17727.214   -16905.206   -2721.5096     -6758.95    22668.939     76.64675 
   52200    838.17904   -108.38354   0.75840201   -107.62514   -7046.2564     4.245834     4.245834     4.245834   -7046.2564   -2430.9996   -10555.878   -8151.8917   -17509.746    1098.5485   -12699.472    76.540103 
   52300    784.57032   -108.33324   0.70989571   -107.62334    8782.6833    4.2332079    4.2332079    4.2332079    8782.6833    27271.237   -975.55815    52.370916    5507.0942   -6263.9663   -9237.6315    75.859291 
   52400    668.25375   -108.23127   0.60465004   -107.62662   -7143.8587    4.2487171    4.2487171    4.2487171   -7143.8587    9908.5942    -17881.43    -13458.74   -1126.2226   -1657.5206    22507.826    76.696129 
   52500    688.99445    -108.2493   0.62341665   -107.62589   -2022.7957    4.2407964    4.2407964    4.2407964   -2022.7957   -1241.5576   -15796.158    10969.328   -5092.1699   -1327.7687   -4843.0144    76.267985 
   52600    465.46905   -108.04883   0.42116617   -107.62767    4477.0298    4.2394879    4.2394879    4.2394879    4477.0298    26637.852   -16061.683    2854.9206   -5551.0864    30.808785   -17056.959    76.197409 
   52700    807.65278   -108.35623   0.73078121   -107.62544   -8800.4733    4.2451986    4.2451986    4.2451986   -8800.4733    11508.158   -20657.429   -17252.149    6385.4457    8159.0591    18776.274    76.505743 
   52800    616.52162    -108.1847   0.55784172   -107.62686    14519.556    4.2391165    4.2391165    4.2391165    14519.556    19757.049   -10911.672    34713.291    -5626.722   -2734.4958   -3561.5671    76.177386 
   52900    669.90532   -108.23767   0.60614441   -107.63152   -10725.389    4.2440925    4.2440925    4.2440925   -10725.389    7982.5019   -17619.963   -22538.705    -7201.739    4647.0557    -28643.97    76.445959 
   53000    862.69325   -108.40838   0.78058298    -107.6278    13839.403    4.2374016    4.2374016    4.2374016    13839.403    27280.507    9661.5469    4576.1557    3823.3402   -3639.9485     10988.21    76.084973 
   53100    853.51192   -108.40087   0.77227552   -107.62859    -1896.782    4.2450674    4.2450674    4.2450674    -1896.782   -3738.3924   -14387.357    12435.403   -3761.1849    32.128175    1330.9173    76.498648 
   53200    491.01426   -108.07626   0.44428002   -107.63198   -8995.0766    4.2437691    4.2437691    4.2437691   -8995.0766    13353.327   -23372.552   -16966.005   -2280.0587   -1592.0273   -32302.815    76.428481 
   53300    869.53031   -108.41236    0.7867693   -107.62559    13205.855    4.2333873    4.2333873    4.2333873    13205.855    23192.663    3060.4537    13364.448   -2225.8555   -7997.9215    3843.2546    75.868938 
   53400    764.75276   -108.31944   0.69196437   -107.62748   -17352.459    4.2512705    4.2512705    4.2512705   -17352.459   -8192.0993    -36861.34    -7003.937    4576.1654    6000.5619    1332.7866     76.83449 
   53500    270.08783    -107.8796   0.24438114   -107.63522   -10511.391    4.2381706    4.2381706    4.2381706   -10511.391    8370.9457   -36870.359   -3034.7606   -6835.4405   -4034.4249   -36636.533    76.126401 
   53600    926.84668   -108.46865   0.83863035   -107.63002     7430.788    4.2358343    4.2358343    4.2358343     7430.788    17521.982    1081.3952    3688.9872   -812.27252    7601.0382   -1545.0708    76.000578 
   53700    834.18192   -108.38207   0.75478533   -107.62728   -4680.1416    4.2523346    4.2523346    4.2523346   -4680.1416   -1119.7298    -9369.301    -3551.394    4289.7897    2556.0933    -3476.288    76.892201 
   53800    383.95452   -107.98177   0.34741012   -107.63436     974.5501    4.2325409    4.2325409    4.2325409     974.5501    18001.016   -22370.133    7292.7676   -5086.5327   -757.58021   -37082.839    75.823444 
   53900    799.48097   -108.35644   0.72338718   -107.63305    3995.7405    4.2428069    4.2428069    4.2428069    3995.7405    9426.0135   -7427.0296    9988.2375   -4444.7851    255.69427    1973.5501    76.376508 
   54000    983.38056   -108.51589    0.8897834   -107.62611   -859.50399    4.2473036    4.2473036    4.2473036   -859.50399    11255.354   -3494.6571   -10339.209    1390.1823   -5902.7408   -1288.3243    76.619605 
   54100      402.497   -107.99594   0.36418775   -107.63176      4403.68    4.2355874    4.2355874    4.2355874      4403.68     29998.01   -31893.347    15106.376   -3834.9954    2157.2141   -32155.769    75.987289 
   54200    704.53751   -108.26717   0.63748034   -107.62969   -9526.0674    4.2459475    4.2459475    4.2459475   -9526.0674   -6511.7787    -21247.63   -818.79352   -11538.061   -5374.3734   -1040.3941    76.546241 
   54300    808.03319   -108.35594   0.73112541   -107.62481    1351.9421    4.2423468    4.2423468    4.2423468    1351.9421    11028.855   -5677.8228   -1295.2055    1755.5644    5505.1402    5095.9898    76.351665 
   54400    534.44851   -108.11225   0.48358024   -107.62867   -12552.055    4.2443765    4.2443765    4.2443765   -12552.055    12560.279   -37611.748   -12604.696   -4766.1793    864.46556   -30618.304    76.461304 
   54500    751.88168   -108.30573   0.68031834   -107.62541   -3590.5795    4.2425461    4.2425461    4.2425461   -3590.5795   -1456.4466   -17910.502    8595.2106   -7331.6968     10.50367   -3186.9338    76.362425 
   54600    850.24478   -108.39241   0.76931935   -107.62309    7454.0029    4.2409116    4.2409116    4.2409116    7454.0029     25178.37    3346.3285   -6162.6899    3808.9784    9205.1492    9731.7719    76.274199 
   54700    674.94054    -108.2384   0.61070038    -107.6277   -9749.8056    4.2483889    4.2483889    4.2483889   -9749.8056    24955.306   -23855.504   -30349.219    340.44886    566.47314   -21676.993    76.678359 
   54800    675.27658   -108.23668   0.61100444   -107.62568    10635.556    4.2376476    4.2376476    4.2376476    10635.556    24626.369   -2343.0357    9623.3348   -10929.954   -80.224329   -2009.8429    76.098221 
   54900     786.3381   -108.33765   0.71149524   -107.62616   -1700.0901    4.2428565    4.2428565    4.2428565   -1700.0901    31704.333   -18187.532   -18617.072    313.06267   -3307.3238    8534.2876    76.379187 
   55000    623.35698   -108.18869   0.56402649   -107.62466   -12464.835      4.24989      4.24989      4.24989   -12464.835    19756.034   -37266.538   -19884.001   -2107.9388    649.17114   -16758.013    76.759665 
   55100    620.20221   -108.18456   0.56117199   -107.62338   -1650.3047    4.2365824    4.2365824    4.2365824   -1650.3047    208.44992    -15798.28    10638.916   -18447.978    -4146.767   -630.66446    76.040854 
   55200    639.54234   -108.20414   0.57867135   -107.62547   -9411.8739    4.2458556    4.2458556    4.2458556   -9411.8739    3530.8453   -17566.484   -14199.983    2786.4006   -4579.4711    8715.4163    76.541271 
   55300    803.87403   -108.35028   0.72736212   -107.62291   -6586.1155    4.2473683    4.2473683    4.2473683   -6586.1155    14522.049   -18913.324   -15367.072   -950.26278    4696.8564   -14404.698    76.623108 
   55400    708.40172   -108.26371   0.64097677   -107.62273    10358.065    4.2362909    4.2362909    4.2362909    10358.065    15313.824   -1050.4796    16810.852   -14184.179   -1346.2206   -959.31265    76.025159 
   55500    632.82864   -108.19976   0.57259665   -107.62716   -5967.6229    4.2483531    4.2483531    4.2483531   -5967.6229    16502.562   -22689.952   -11715.479    824.35653    1693.4637     13409.19    76.676418 
   55600    809.19418   -108.35626    0.7321759   -107.62409    9866.1799    4.2424746    4.2424746    4.2424746    9866.1799    40766.401   -7735.0292   -3432.8317    4877.5224    2843.2757    -6649.164    76.358562 
   55700    761.01866   -108.31343   0.68858568   -107.62484    3302.0157    4.2407995    4.2407995    4.2407995    3302.0157    8278.4451   -15108.897    16736.499   -22846.397    3113.5772   -2642.7403    76.268149 
   55800    488.15218   -108.06901   0.44169035   -107.62732   -10853.672    4.2468019    4.2468019    4.2468019   -10853.672   -8737.5584    -26620.13    2796.6728   -5060.7719    -3174.241    10769.995    76.592461 
   55900    708.09269   -108.26337   0.64069715   -107.62267    4809.0625    4.2388371    4.2388371    4.2388371    4809.0625     15034.98   -2088.3171    1480.5249     8153.437   -3008.2933    2322.9489    76.162321 
   56000    683.54406   -108.24272   0.61848503   -107.62424   -14245.831    4.2492819    4.2492819    4.2492819   -14245.831   -15759.434   -31252.421    4274.3631   -28203.303   -1070.2253   -4473.3626    76.726719 
   56100    639.05504   -108.20259   0.57823043   -107.62436     3811.391    4.2391633    4.2391633    4.2391633     3811.391    12538.846   -12643.859    11539.187   -1544.6795   -4181.7244    9340.7134    76.179906 
   56200     807.0952   -108.35271    0.7302767   -107.62243    5820.3728    4.2446811    4.2446811    4.2446811    5820.3728    23351.086    8946.6628    -14836.63    9633.6711   -948.41358    2072.6142     76.47777 
   56300    768.69115   -108.31776   0.69552791   -107.62223   -12050.538    4.2506684    4.2506684    4.2506684   -12050.538   -9953.6408   -20037.943   -6160.0302   -29878.263    4447.5176   -2959.5657    76.801849 
   56400    796.34565   -108.34052   0.72055028   -107.61997    15224.645    4.2313639    4.2313639    4.2313639    15224.645    18504.396    6000.8677    21168.672   -2584.4474    1066.8902    5876.0542    75.760201 
   56500     801.6573   -108.34866   0.72535637    -107.6233   -10828.665    4.2488221    4.2488221    4.2488221   -10828.665   -7907.9609   -15829.308   -8748.7257     11327.91   -2212.5248    5546.0491    76.701815 
   56600    567.42521   -108.14022   0.51341825    -107.6268   -9039.8345    4.2448731    4.2448731    4.2448731   -9039.8345   -13938.651   -30535.649    17354.796   -32826.506    6763.7288    -4417.618    76.488144 
   56700    636.92655   -108.19938   0.57630453   -107.62308     9366.963    4.2346331    4.2346331    4.2346331     9366.963    15231.028   -14915.594    27785.455     -102.262   -1494.2269    6069.7615    75.935937 
   56800    625.83718   -108.19043   0.56627063   -107.62416   -7580.0823    4.2496161    4.2496161    4.2496161   -7580.0823    7391.5705    -22001.27   -8130.5474    18082.292   -3855.5168    10305.872    76.744824 
   56900    559.00472   -108.13197   0.50579922   -107.62617    7228.6735    4.2376439    4.2376439    4.2376439    7228.6735    709.54103   -9941.2904     30917.77   -31850.421    132.42491   -2007.1288    76.098021 
   57000    878.75276   -108.41953   0.79511397   -107.62442   -3791.7384    4.2425207    4.2425207    4.2425207   -3791.7384   -7184.5657   -9141.3204     4950.671   -597.90041    827.87499    4910.3793    76.361054 
   57100    786.19218   -108.33466   0.71136321    -107.6233   -9435.8648    4.2471667    4.2471667    4.2471667   -9435.8648   -10609.807   -16350.147   -1347.6398    17957.421   -1320.5259    11475.907      76.6122 
   57200    735.60942   -108.28984   0.66559486   -107.62425   -1599.3767    4.2352038    4.2352038    4.2352038   -1599.3767   -9625.5764   -9837.6271    14665.073   -29869.043   -2895.4206    3589.9407    75.966646 
   57300    777.20722   -108.32813   0.70323343    -107.6249   -7787.7866    4.2441124    4.2441124    4.2441124   -7787.7866   -2860.5018   -18033.931   -2468.9267   -2525.4739    5285.7439   -12031.557    76.447032 
   57400    561.21793   -108.13435   0.50780178   -107.62655   -5987.6002    4.2447379    4.2447379    4.2447379   -5987.6002    13170.598   -22923.859   -8209.5394    19772.339   -5142.8706    6669.6137    76.480838 
   57500    538.45949   -108.11334   0.48720946   -107.62613    3529.7355    4.2379708    4.2379708    4.2379708    3529.7355    12843.013   -20407.479    18153.673   -19159.113   -1758.5941    7228.0938    76.115638 
   57600    713.25316   -108.26946   0.64536645   -107.62409    -5851.763     4.244903     4.244903     4.244903    -5851.763    4665.3079   -28024.539    5803.9423   -5085.0998   -1995.9654   -17087.748    76.489762 
   57700    632.64718   -108.19888   0.57243246   -107.62645   -6246.6363    4.2433634    4.2433634    4.2433634   -6246.6363    5747.5319   -27680.074    3192.6334    21948.566   -1385.1825    10297.412    76.406566 
   57800    752.18256   -108.30621   0.68059059   -107.62562    4429.8573    4.2393204    4.2393204    4.2393204    4429.8573   -6150.6993   -212.27704    19652.548   -12920.626   -109.06399    10994.697    76.188379 
   57900     935.0826    -108.4696   0.84608239   -107.62352   -4717.0956    4.2442944    4.2442944    4.2442944   -4717.0956   -3628.6602   -10026.398   -496.22869    -4665.197   -2059.4911   -16366.289    76.456865 
   58000     587.6565   -108.15932   0.53172396    -107.6276   -601.87979    4.2434641    4.2434641    4.2434641   -601.87979    12954.831   -12794.455    -1966.015    18488.831    4763.8059    1530.9506    76.412004 
   58100    781.06876   -108.33152   0.70672743   -107.62479    898.86041    4.2392617    4.2392617    4.2392617    898.86041    9827.5768    -13309.11    6178.1143   -3400.0187   -4758.4458    18070.292    76.185214 
   58200    735.96226    -108.2901   0.66591412   -107.62419    1203.2447    4.2423249    4.2423249    4.2423249    1203.2447    29202.431    -21900.07   -3692.6274   -6139.8628    701.58314   -18415.343    76.350481 
   58300    452.31077   -108.03766   0.40926029    -107.6284   -6544.5475    4.2442339    4.2442339    4.2442339   -6544.5475    23200.718     -37704.7   -5129.6605    13538.138   -2106.9327   -2465.5438    76.453597 
   58400    662.22479   -108.22522   0.59919491   -107.62602    7550.1294    4.2395594    4.2395594    4.2395594    7550.1294    16519.935   -8840.3006    14970.754    3763.2889   -2930.1447    23859.259    76.201264 
   58500    858.07934   -108.39868   0.77640822   -107.62228    4386.3793    4.2443577    4.2443577    4.2443577    4386.3793    22138.699    -15327.41    6347.8484   -5838.3818   -2753.8216   -18574.509    76.460291 
   58600    583.25155   -108.15392   0.52773826   -107.62618   -7029.1055    4.2448466    4.2448466    4.2448466   -7029.1055    4286.1625   -25582.403    208.92415    17891.551   -834.02126   -1198.0567    76.486714 
   58700    760.64189    -108.3138   0.68824477   -107.62555    2514.6179    4.2383847    4.2383847    4.2383847    2514.6179    9944.6668   -12344.607    9943.7943    8774.4677    3863.0578    26938.384    76.137942 
   58800    1041.9512   -108.56413   0.94277936   -107.62135    322.76887     4.243852     4.243852     4.243852    322.76887    4382.2771   -2959.1202   -454.85025   -3905.4594   -2594.8228   -13700.934     76.43296 
   58900     579.0762   -108.15339   0.52396031   -107.62943   -13442.942     4.244518     4.244518     4.244518   -13442.942    3434.6586    -29907.19   -13856.293    10959.573    3168.8269    4270.8363    76.468955 
   59000    426.72629   -108.01729   0.38611092   -107.63118    1291.8702    4.2396116    4.2396116    4.2396116    1291.8702    16871.297   -25014.626     12018.94    9511.3955   -1585.7031    31369.438    76.204078 
   59100    910.54482   -108.44704   0.82388009   -107.62316    3760.8743    4.2446709    4.2446709    4.2446709    3760.8743    9968.2436   -17162.423    18476.802   -6370.7392   -2522.9883   -10324.889    76.477214 
   59200    466.71136   -108.05118   0.42229025   -107.62889    3460.6404    4.2412276    4.2412276    4.2412276    3460.6404    27851.021    -28914.85    11445.751    5635.1396   -4785.6498    5584.4114    76.291251 
   59300    416.55768   -108.00951   0.37691014    -107.6326    -5849.594     4.244299     4.244299     4.244299    -5849.594    19774.543   -42815.682    5492.3574    10159.442   -2038.1659    25867.992    76.457114 
   59400    1013.4938   -108.53865    0.9170305   -107.62162    10403.905    4.2428153    4.2428153    4.2428153    10403.905    6758.7214    2963.4157    21489.579   -7967.7535   -899.39013   -6833.0495     76.37696 
   59500    857.32726    -108.4013   0.77572772   -107.62557   -2287.2071    4.2413807    4.2413807    4.2413807   -2287.2071    14220.775   -15308.074   -5774.3229    4388.8945   -3659.3203    15052.695    76.299515 
   59600    556.70423   -108.13329   0.50371769   -107.62957    -13246.47    4.2452033    4.2452033    4.2452033    -13246.47    3329.8086   -30892.706   -12176.513    10572.063    4374.3193    29592.373    76.505999 
   59700    913.92487   -108.45125   0.82693842   -107.62431    4597.5595    4.2372498    4.2372498    4.2372498    4597.5595   -7170.1526    -5039.006    26001.837   -12258.004   -726.99688   -6579.1164    76.076794 
   59800    754.76115   -108.30975   0.68292375   -107.62682   -7452.3446    4.2446121    4.2446121    4.2446121   -7452.3446    6392.9265   -29627.313     877.3524   -3015.7973    4806.0389    13207.836     76.47404 
   59900    438.92895   -108.02737   0.39715214   -107.63022   -1.5433835    4.2413927    4.2413927    4.2413927   -1.5433835    22078.783   -33652.089    11568.677    13926.731   -2496.6258    24730.534    76.300159 
   60000    667.20536   -108.23105   0.60370143   -107.62735      8978.45    4.2374038    4.2374038    4.2374038      8978.45    11110.843   -9926.3867    25750.893   -19467.146    1276.2136   -10939.199    76.085087 
   60100    675.70438   -108.23728   0.61139152   -107.62589   -3354.4398    4.2472047    4.2472047    4.2472047   -3354.4398    18127.537   -27797.229   -393.62717   -5283.7919    -3129.088    10008.272    76.614255 
   60200     703.6014    -108.2624   0.63663334   -107.62577    4305.7771    4.2383777    4.2383777    4.2383777    4305.7771    22241.487   -11694.994    2370.8382    9916.7103   -4031.3636    22583.725     76.13756 
   60300    725.48071   -108.28265   0.65643019   -107.62622    5473.8834    4.2396736    4.2396736    4.2396736    5473.8834    10462.715   -12087.633    18046.568   -15315.311    3028.8354   -5209.8668     76.20742 
   60400    793.95701   -108.34354   0.71838899   -107.62515   -2627.1361    4.2459912    4.2459912    4.2459912   -2627.1361     13278.79   -13578.184   -7582.0141   -10453.842   -3491.6568    3888.1214    76.548601 
   60500    833.07854   -108.37769   0.75378697    -107.6239    4570.7939    4.2385961    4.2385961    4.2385961    4570.7939    20781.909    831.87025   -7901.3974    11514.733      -119.46    16471.709    76.149331 
   60600    569.31207   -108.14261   0.51512552   -107.62748    3455.0972    4.2397867    4.2397867    4.2397867    3455.0972    9798.3225   -19187.294    19754.263   -6933.2113   -1947.4797   -5726.5821    76.213521 
   60700    595.06003    -108.1658   0.53842282   -107.62737     3277.981    4.2429754    4.2429754    4.2429754     3277.981    25995.435   -26559.941    10398.449   -14118.613    3003.7427   -2469.8354    76.385606 
   60800    845.73254   -108.38821   0.76523658   -107.62297    4163.7693    4.2412394    4.2412394    4.2412394    4163.7693    26133.509   -13120.147   -522.05399    8739.7765   -2024.1026    11307.924    76.291888 
   60900    534.62782   -108.11221   0.48374249   -107.62847   -1800.6978    4.2403339    4.2403339    4.2403339   -1800.6978   -654.31996   -30603.483    25855.709   -10861.315   -402.94172   -3737.1224    76.243034 
   61000    588.38824   -108.16242   0.53238605   -107.63004    201.66108    4.2407193    4.2407193    4.2407193    201.66108    9612.0417   -17455.152    8448.0937   -12550.796    4779.9636   -6566.0198    76.263823 
   61100    1118.2928   -108.63433    1.0118548   -107.62248    1698.8079    4.2431292    4.2431292    4.2431292    1698.8079    20378.918   -2028.0616   -13254.432    1029.4485   -7070.9407    5566.6765    76.393916 
   61200    605.76362    -108.1782   0.54810765   -107.63009    3498.8358    4.2398848    4.2398848    4.2398848    3498.8358    8896.8828   -19865.514    21465.138   -4729.5186    3048.2685    44.415203    76.218809 
   61300    519.90311   -108.10351   0.47041926   -107.63309   -3154.2863    4.2402278    4.2402278    4.2402278   -3154.2863    15914.086   -23098.205   -2278.7405   -7847.1627   -2199.2991   -13189.118    76.237309 
   61400    1043.1961    -108.5674   0.94390578    -107.6235    922.05888    4.2456272    4.2456272    4.2456272    922.05888    27297.039   -9184.8676   -15345.995    3522.8951    492.34331   -2992.7039    76.528919 
   61500    608.45868   -108.18103    0.5505462   -107.63048    3298.7364    4.2364752    4.2364752    4.2364752    3298.7364    14329.553   -24330.598    19897.255    -7714.365     1108.884    1261.3113     76.03508 
   61600    296.66994   -107.90431    0.2684332   -107.63587     -7033.29    4.2415979    4.2415979    4.2415979     -7033.29     3574.041   -37310.137    12636.226   -7764.1017   -1821.2424   -12749.538    76.311235 
   61700    890.50937   -108.43217   0.80575159   -107.62642    1465.5978    4.2462788    4.2462788    4.2462788    1465.5978    27105.222   -21586.771   -1121.6573     5279.916    8556.8148   -4015.3711    76.564158 
   61800    706.37412   -108.26777   0.63914215   -107.62863    5448.3518    4.2371521    4.2371521    4.2371521    5448.3518    19780.968    -24131.79    20695.877   -12013.268   -1553.6853    5733.8797    76.071533 
   61900    413.11663   -108.00797   0.37379661   -107.63418   -5181.4346    4.2423833    4.2423833    4.2423833   -5181.4346    1765.8091   -39035.953     21725.84   -5147.8934    4437.7869   -9583.3985    76.353637 
   62000    1035.1759   -108.56201    0.9366489   -107.62536    7519.7607    4.2412702    4.2412702    4.2412702    7519.7607    13284.294   -4774.6022     14049.59     1360.482   -276.42251   -1276.3951     76.29355 
   62100    873.41838   -108.41777    0.7902873   -107.62748   -905.39245    4.2430352    4.2430352    4.2430352   -905.39245     9252.424   -14976.472    3007.8709   -10032.977   -798.38433    9748.2196    76.388836 
   62200    520.20486   -108.10173   0.47069229   -107.63104    -3309.321    4.2404054    4.2404054    4.2404054    -3309.321   -2344.0996   -29236.892    21653.029   -4834.3831   -678.30326   -10498.043    76.246889 
   62300    875.99574   -108.41731   0.79261935   -107.62469    7872.1905    4.2387937    4.2387937    4.2387937    7872.1905     28444.85   -12966.717    8138.4388    12342.302   -199.21494    2082.4784    76.159985 
   62400    619.09278   -108.18568   0.56016815   -107.62552   -12247.199    4.2500828    4.2500828    4.2500828   -12247.199    19162.336   -33975.792   -21928.142   -9115.0767    3013.9051    17548.882    76.770113 
   62500    467.33121    -108.0503    0.4228511   -107.62745   -4163.1627    4.2349929    4.2349929    4.2349929   -4163.1627   -1102.8197   -32819.229     21432.56   -1725.9796   -1689.5953   -8896.7483    75.955296 
   62600    711.50635    -108.2705    0.6437859   -107.62672    7859.0639    4.2386835    4.2386835    4.2386835    7859.0639    22583.598   -9165.2333    10158.827    8676.6804    2235.4513    3209.6917    76.154041 
   62700    736.74645    -108.2906   0.66662367   -107.62397   -19170.396    4.2542075    4.2542075    4.2542075   -19170.396    4380.6499   -37169.744   -24722.094   -8574.3172    2340.5659    25141.177    76.993846 
   62800    645.42248   -108.20788   0.58399183   -107.62389    9375.8762    4.2311295    4.2311295    4.2311295    9375.8762     6376.966   -11563.612    33314.275   -5673.1889   -1119.8144    -5208.796    75.747614 
   62900    812.29408   -108.36115   0.73498076   -107.62617   -1984.6843    4.2412822    4.2412822    4.2412822   -1984.6843    10053.476   -17602.514    1594.9852    5237.6252   -403.93567    5089.7411    76.294198 
   63000    738.59001    -108.2936   0.66829177   -107.62531   -8128.2197    4.2496457    4.2496457    4.2496457   -8128.2197    25145.046   -29051.271   -20478.435    85.570363   -3776.1628     28489.47    76.746428 
   63100    811.96693    -108.3563   0.73468474   -107.62162    8539.4907    4.2322105    4.2322105    4.2322105    8539.4907    6452.2102   -12361.899    31528.161   -7299.4987    4433.0708    -3004.494    75.805684 
   63200    557.20233   -108.13087   0.50416837   -107.62671   -10017.549    4.2456149    4.2456149    4.2456149   -10017.549    3273.1343   -29162.353   -4163.4293    9137.7219   -2448.0172    11828.384    76.528253 
   63300     676.7105    -108.2372   0.61230188    -107.6249   -10978.275    4.2430446    4.2430446    4.2430446   -10978.275    24803.747   -36830.154   -20908.417   -172.10908    414.21419    29974.991    76.389343 
   63400    796.28806   -108.34265   0.72049817   -107.62215    3640.5832    4.2375039    4.2375039    4.2375039    3640.5832    5390.9513   -22192.493    27723.291   -4060.3263     2921.968   -8638.6552    76.090481 
   63500    527.31517   -108.10588   0.47712585   -107.62875   -11468.614    4.2436226    4.2436226    4.2436226   -11468.614   -1166.9362   -34421.062    1182.1562    5536.3752   -2595.0923    14783.705     76.42057 
   63600    545.69504   -108.12457   0.49375634   -107.63082    8109.4522    4.2393006    4.2393006    4.2393006    8109.4522    31055.413   -17648.103    10921.046    2638.9847   -2722.5542    28327.537    76.187308 
   63700    1040.0135   -108.56422    0.9410261   -107.62319    4750.6012    4.2443029    4.2443029    4.2443029    4750.6012    8029.1853    -7349.482      13572.1   -1917.2239   -3278.2407   -10279.604    76.457327 
   63800    605.86148   -108.17856    0.5481962   -107.63036     5866.051    4.2388912    4.2388912    4.2388912     5866.051    21733.481    -14378.04    10242.711    6266.7552    2468.4834    17257.255    76.165237 
   63900    581.88659   -108.15822   0.52650321   -107.63171   -38.902912    4.2417571    4.2417571    4.2417571   -38.902912    19104.992   -24748.737    5527.0369    6377.5242   -1861.3951    26419.441     76.31983 
   64000    987.49531   -108.51678   0.89350651   -107.62328    857.54253    4.2454757    4.2454757    4.2454757    857.54253    15243.826   -14757.524    2086.3255   -3587.9087   -2096.5525   -13469.415    76.520723 
   64100    643.76067   -108.20978   0.58248818   -107.62729    5793.2827    4.2367455    4.2367455    4.2367455    5793.2827    20325.454   -23660.948    20715.342    7540.5648    6670.5153    15028.234    76.049633 
   64200    410.52576   -108.00242   0.37145234   -107.63097   -9525.2182    4.2455443    4.2455443    4.2455443   -9525.2182    2906.1625   -26679.699   -4802.1177    2438.6862   -6060.3183    22254.257    76.524436 
   64300    879.59655   -108.42046   0.79587744   -107.62458     803.4533    4.2400196    4.2400196    4.2400196     803.4533    15336.558   -11882.532   -1043.6667   -4095.7139   -2271.5747   -20561.233    76.226082 
   64400    797.84591   -108.34784   0.72190774   -107.62593   -1446.8433    4.2398499    4.2398499    4.2398499   -1446.8433    15793.588   -18219.686   -1914.4322    4080.4364    2555.8762    16417.053    76.216931 
   64500     543.4044   -108.12093   0.49168372   -107.62924   -15214.093    4.2471616    4.2471616    4.2471616   -15214.093    4639.7561   -25723.319   -24558.715    1855.5199   -2201.0786    20987.408    76.611924 
   64600    823.26147   -108.36876   0.74490428   -107.62385    6891.9988    4.2359167    4.2359167    4.2359167    6891.9988    23406.565     6915.659   -9646.2278    1594.9858    -9582.181   -22776.235    76.005013 
   64700     823.4587   -108.36928   0.74508273    -107.6242   -3017.6104    4.2449901    4.2449901    4.2449901   -3017.6104    25928.629   -16371.765   -18609.695   -2146.6814    1226.2237    15236.381    76.494468 
   64800    569.19521   -108.14298   0.51501979   -107.62796    871.67436    4.2407887    4.2407887    4.2407887    871.67436    19358.782   -5809.8616   -10933.898    11576.715    3540.8863     20051.97    76.267568 
   64900    610.32293   -108.17865   0.55223301   -107.62642    3671.4082    4.2361854    4.2361854    4.2361854    3671.4082    13565.344   -8658.6092      6107.49    2033.0309   -11430.694   -23991.497    76.019477 
   65000    683.09991   -108.24304   0.61808315   -107.62495   -14333.936    4.2491165    4.2491165    4.2491165   -14333.936    4706.4435   -29905.622   -17802.628   -4268.7528    5079.9793    13276.047     76.71776 
   65100    649.69899    -108.2117    0.5878613   -107.62384    10990.739    4.2361212    4.2361212    4.2361212    10990.739    33124.111   -5966.2747    5814.3809    8528.7386   -420.49297    19393.429    76.016022 
   65200    630.80526   -108.19645   0.57076586   -107.62569   -2218.6348    4.2409668    4.2409668    4.2409668   -2218.6348    8016.0653   -8504.7405   -6167.2294   -1186.0256   -5334.4765   -23930.897    76.277177 
   65300    695.13084   -108.25511   0.62896899   -107.62614   -4325.3744    4.2440829    4.2440829    4.2440829   -4325.3744    17709.093   -11646.418   -19038.799   -3751.0264   -6069.0298    11141.595    76.445437 
   65400    925.42382   -108.46107   0.83734292   -107.62373    13015.717     4.234936     4.234936     4.234936    13015.717    29430.764    4255.8294    5360.5577    2398.7185    1955.4259    15777.041    75.952237 
   65500    673.78284   -108.23731   0.60965288   -107.62765   -5052.1209     4.246456     4.246456     4.246456   -5052.1209    16638.883   -15780.329   -16014.916    13118.202   -6059.0615    -20561.67    76.573746 
   65600    744.87574   -108.30081   0.67397922   -107.62683    2845.7058    4.2372161    4.2372161    4.2372161    2845.7058     11335.36    2576.0503   -5374.2927   -14153.432   -10317.085    2649.6188     76.07498 
   65700    927.34167   -108.46374   0.83907823   -107.62466    8296.6495    4.2389938    4.2389938    4.2389938    8296.6495    22604.078   -2747.1842    5033.0545    5416.5034    6290.8638    10685.529    76.170769 
   65800    519.50407   -108.09846    0.4700582   -107.62841   -12342.491    4.2473983    4.2473983    4.2473983   -12342.491   -5126.8079   -21696.507   -10204.157    19122.009   -7123.8917   -16089.509     76.62473 
   65900    569.36028    -108.1414   0.51516914   -107.62623    2232.2043    4.2333899    4.2333899    4.2333899    2232.2043    2409.4059    -1619.429     5906.636   -12695.114   -3752.6096   -3024.0358    75.869076 
   66000    749.90017    -108.3024   0.67852543   -107.62387    3540.3167    4.2441829    4.2441829    4.2441829    3540.3167    29271.968   -19548.285    897.26741    2830.1219    1886.8008    10571.523    76.450844 
   66100     507.5635   -108.08788   0.45925413   -107.62863   -8701.9081    4.2429248    4.2429248    4.2429248   -8701.9081   -2300.4444   -14056.877   -9748.4035    18551.837    211.33826   -12681.348    76.382877 
   66200    574.13479   -108.14828   0.51948922   -107.62879    2811.0733    4.2336981    4.2336981    4.2336981    2811.0733    -1591.743    3378.5761    6646.3868   -11227.797   -9126.5868   -5212.0627    75.885652 
   66300    1033.8126   -108.55832   0.93541532   -107.62291   -8753.6955    4.2473457    4.2473457    4.2473457   -8753.6955   -5030.4764   -12666.229   -8564.3815   -5571.0521    -602.4091    7821.1199    76.621885 
   66400     598.7028   -108.17082   0.54171888    -107.6291   -1321.5423    4.2410381    4.2410381    4.2410381   -1321.5423     4226.265   -2074.1812   -6116.7105    22997.012    9714.2192   -8548.1447    76.281025 
   66500    733.90967   -108.29274    0.6640569   -107.62869   -1078.6917    4.2359744    4.2359744    4.2359744   -1078.6917    4233.1796   -8291.7258    822.47108    -11491.51   -16214.105   -10205.731    76.008121 
   66600    965.39073   -108.49752   0.87350582   -107.62402    2040.8516    4.2446173    4.2446173    4.2446173    2040.8516    15835.136   -6675.0176   -3037.5635    185.07499    5519.7213    2272.0894    76.474319 
   66700    587.54343   -108.16154   0.53162164   -107.62991   -369.51846    4.2395694    4.2395694    4.2395694   -369.51846   -6353.9369   -1358.7832    6604.1648    18898.551    12738.291   -3466.5015    76.201801 
   66800    529.23657   -108.10722   0.47886437   -107.62836   -8178.1697     4.243317     4.243317     4.243317   -8178.1697   -9426.9895    -17657.05    2549.5308   -7055.8829   -12915.756   -14185.682    76.404061 
   66900    780.34693   -108.32968    0.7060743    -107.6236    7075.8343    4.2397106    4.2397106    4.2397106    7075.8343    14010.321   -1571.2083    8788.3896   -1659.0281    4441.9031    3768.4878    76.209414 
   67000     571.5597   -108.14503   0.51715923   -107.62787    5755.6061    4.2356522    4.2356522    4.2356522    5755.6061    1189.4374    1221.1443    14856.237    14264.679    9530.7108    -919.6529    75.990777 
   67100    483.64604   -108.06664    0.4376131   -107.62902   -10722.564    4.2513096    4.2513096    4.2513096   -10722.564   -5623.7707   -23453.766   -3090.1558   -3562.3844   -9100.8547   -14526.251    76.836609 
   67200    935.81365    -108.4697   0.84674386   -107.62295    5917.6819    4.2354079    4.2354079    4.2354079    5917.6819    9123.8964     7233.933    1395.2163   -8306.3864   -6536.6005    5054.2971    75.977626 
   67300    745.74779   -108.30091   0.67476827   -107.62614    12350.295     4.233423     4.233423     4.233423    12350.295    17929.772    6495.4696    12625.643    16927.965    15859.282    3000.2466     75.87086 
   67400    749.14549   -108.30425   0.67784258    -107.6264    -20115.44    4.2541216    4.2541216    4.2541216    -20115.44   -13887.487   -27335.045   -19123.788   -2.8613707   -8272.9388   -15197.435    76.989182 
   67500    819.67003   -108.36501   0.74165467   -107.62335    12049.941    4.2328491    4.2328491    4.2328491    12049.941    26425.131    5895.3077    3829.3847   -6703.1385   -5103.3478    5102.6963    75.840003 
   67600    747.99665   -108.30194   0.67680308   -107.62514    75.175128    4.2379864    4.2379864    4.2379864    75.175128    4565.0891   -9835.9323    5496.3685    6348.8079    21422.588    10849.907    76.116477 
   67700    512.12113   -108.08787   0.46337796   -107.62449   -13976.325    4.2515352    4.2515352    4.2515352   -13976.325   -6876.9271   -27113.578   -7938.4709    3965.8021   -9737.4942   -19531.092    76.848845 
   67800    573.28645   -108.14167   0.51872163   -107.62295    5253.5701    4.2318609    4.2318609    4.2318609    5253.5701    27549.379      -9884.2   -1904.4689   -1362.4563    -2361.809    6132.4224      75.7869 
   67900    648.71455   -108.21198   0.58697056   -107.62501    -4354.046    4.2415925    4.2415925    4.2415925    -4354.046    15465.166   -22024.538   -6502.7651    3167.0065    8599.0622     18265.34    76.310943 
   68000     693.1834   -108.25115   0.62720691   -107.62394   -11664.613    4.2473619    4.2473619    4.2473619   -11664.613   -3689.0052   -20678.501   -10626.333    5414.9128   -8362.9148    -22663.14    76.622763 
   68100    640.30117   -108.20465   0.57935796   -107.62529   -3267.3739    4.2352522    4.2352522    4.2352522   -3267.3739    11268.761   -14090.746   -6980.1363   -3278.0467   -10720.829     12131.61     75.96925 
   68200    854.75612   -108.39854    0.7734013   -107.62513   -4055.3897    4.2434237    4.2434237    4.2434237   -4055.3897    5853.0206    -18296.84    277.64994    4958.2613    3588.9492    24044.949    76.409821 
   68300    945.44059   -108.47864   0.85545451   -107.62318    -2248.897    4.2429369    4.2429369    4.2429369    -2248.897    -2555.003   -9834.4968    5642.8088    2382.4093    1411.4354   -20565.898    76.383529 
   68400    470.41649   -108.05462   0.42564272   -107.62898   -11127.078    4.2407669    4.2407669    4.2407669   -11127.078    8668.9053   -24464.335   -17585.805   -5170.6611   -10611.907    14194.213     76.26639 
   68500    786.01064   -108.33774   0.71119894   -107.62654   -6633.3833    4.2413642    4.2413642    4.2413642   -6633.3833    12400.007   -25370.718   -6929.4392    -2359.794    7303.0184    27006.489    76.298623 
   68600    896.18134   -108.43307   0.81088371   -107.62219    1656.9651    4.2419033    4.2419033    4.2419033    1656.9651     3060.501   -13033.536     14943.93    749.62426     797.2643   -17786.178    76.327719 
   68700     316.4262   -107.91751   0.28630907    -107.6312   -17733.221    4.2447964    4.2447964    4.2447964   -17733.221    11661.093   -41138.676    -23722.08    646.84743   -9818.6153    15121.423    76.483997 
   68800     577.9609   -108.15348   0.52295117   -107.63053    3546.0373    4.2403167    4.2403167    4.2403167    3546.0373    28401.084   -26355.505    8592.5333   -5896.8491   -1299.6614    23379.198    76.242104 
   68900    1046.2106    -108.5681   0.94663329   -107.62147    10854.632    4.2400282    4.2400282    4.2400282    10854.632    9662.1153    -5319.363    28221.144   -898.97015   -4562.5614   -11545.296    76.226547 
   69000    420.73914   -108.01339   0.38069361    -107.6327    -6930.724    4.2454995    4.2454995    4.2454995    -6930.724    23108.236    -31374.74   -12525.668    4718.8667   -11535.091    19792.334    76.522013 
   69100    649.47995   -108.21758   0.58766311   -107.62992    8.6111355    4.2413667    4.2413667    4.2413667    8.6111355    24596.275   -18095.148    -6475.293   -1813.1108    -7582.226    20948.637    76.298757 
   69200    1035.4629   -108.55833    0.9369086   -107.62142    14641.664    4.2374416    4.2374416    4.2374416    14641.664    14745.672    8392.9933    20786.326   -993.29856    8438.6491   -3992.1928    76.087127 
   69300    478.07405   -108.06191   0.43257145   -107.62933    -15440.78    4.2505425    4.2505425    4.2505425    -15440.78    16818.523   -28928.856   -34212.007    2704.5495   -2074.0691    23971.652    76.795027 
   69400    598.52246   -108.16658    0.5415557   -107.62503   -1787.4079    4.2380288    4.2380288    4.2380288   -1787.4079    14983.217   -10359.688   -9985.7533   -517.66984   -5530.1664    9758.4796    76.118762 
   69500    845.99968   -108.38704   0.76547829   -107.62156     5426.345    4.2377058    4.2377058    4.2377058     5426.345   -7705.4062   -2826.0917    26810.533   -4329.5038    18694.991   -5936.0452    76.101359 
   69600    555.17461   -108.12729   0.50233365   -107.62496   -20265.352    4.2509599    4.2509599    4.2509599   -20265.352   -2987.5089   -39476.801   -18331.746   -598.16048   -3729.6276      24018.2    76.817649 
   69700    712.19491   -108.26655   0.64440892   -107.62214    6731.9313    4.2356873    4.2356873    4.2356873    6731.9313    17715.001   -9899.5932    12380.386   -4642.4022    -9773.062    6973.3017    75.992665 
   69800    885.23351   -108.42231   0.80097789   -107.62133     -2773.22    4.2411711    4.2411711    4.2411711     -2773.22   -9482.6506   -1057.7404     2220.731   -5207.0314    18463.126   -4810.6451    76.288204 
   69900    613.98182   -108.18182   0.55554366   -107.62628   -7694.9565    4.2445885    4.2445885    4.2445885   -7694.9565    20099.227   -19539.786   -23644.311    1881.8199    3453.5277    24562.199    76.472764 
   70000    784.38108   -108.33279   0.70972449   -107.62306    2574.0973    4.2411635    4.2411635    4.2411635    2574.0973    25813.479   -4082.0295   -14009.157   -767.23072   -8801.6506     7232.803    76.287792 
   70100    761.67463    -108.3125   0.68917921   -107.62332    2652.3375    4.2400436    4.2400436    4.2400436    2652.3375   -1774.3685    11407.396   -1676.0148   -1934.6943    18606.117   -7563.3163    76.227377 
   70200     532.5615   -108.10865   0.48187283   -107.62677    1446.8705    4.2401546    4.2401546    4.2401546    1446.8705    25571.131    -5804.004   -15426.515    1849.1885    12831.195    24001.872    76.233363 
   70300    776.09409   -108.32567   0.70222624   -107.62344   -4417.8886    4.2463078    4.2463078    4.2463078   -4417.8886    780.04915   -3436.1495   -10597.566    5164.6819   -17579.265    3269.5913     76.56573 
   70400    680.24317   -108.23862   0.61549831   -107.62312    1046.4416    4.2395874    4.2395874    4.2395874    1046.4416   -747.78714    7689.7857   -3802.6738   -2568.4323    19069.149   -5175.9288    76.202774 
   70500    579.58233   -108.14942   0.52441827     -107.625   -7528.3473     4.241972     4.241972     4.241972   -7528.3473    6946.2421   -16909.201   -12622.083   -4254.9452    15975.982    21582.455    76.331432 
   70600    854.17944   -108.39424   0.77287951   -107.62137   -3634.9398    4.2429745    4.2429745    4.2429745   -3634.9398    4396.0111   -9632.9949   -5667.8355    167.13074   -17159.725    3005.2085    76.385557 
   70700    570.46303   -108.14129   0.51616694   -107.62513    5757.3483    4.2385923    4.2385923    4.2385923    5757.3483    6215.8807    15269.841   -4213.6764    -4297.254    22754.711   -3345.0259    76.149128 
   70800    615.14533   -108.18382   0.55659642   -107.62722   -9119.1728     4.245186     4.245186     4.245186   -9119.1728   -2316.9999   -11305.813   -13734.706    -6414.129    19697.028     12310.54    76.505062 
   70900    869.58358   -108.40832   0.78681749   -107.62151    4241.9141    4.2398689    4.2398689    4.2398689    4241.9141    11270.651   -1001.1621    2456.2534   -3223.3918   -12086.654    5125.2942    76.217955 
   71000     612.6722   -108.18172   0.55435869   -107.62736   -784.19781    4.2385168    4.2385168    4.2385168   -784.19781   -11877.228    12504.854   -2980.2194    2664.9507    18013.772   -6368.1029    76.145061 
   71100    662.35046   -108.22704   0.59930861   -107.62773   -13244.476    4.2471213    4.2471213    4.2471213   -13244.476    -22632.46   -14497.446   -2603.5223   -4929.4889    16832.556    9582.5874    76.609744 
   71200    1024.4657   -108.54789   0.92695808   -107.62093    6290.1841    4.2362553    4.2362553    4.2362553    6290.1841   -1371.0825   -3655.2477    23896.882   -1098.3998   -11126.774    4836.9267    76.023239 
   71300    528.41768   -108.10709   0.47812342   -107.62896   -7106.4493    4.2434163    4.2434163    4.2434163   -7106.4493   -23152.912    4483.8488    -2650.285    2532.7894    22242.868    -10315.18    76.409426 
   71400     599.7875   -108.17196   0.54270033   -107.62926    -9162.657    4.2441715    4.2441715    4.2441715    -9162.657   -21420.091   -10657.627    4589.7462   -5334.8539    20856.978    4329.6469    76.450225 
   71500    964.94978   -108.49483   0.87310684   -107.62172    15689.245    4.2321469    4.2321469    4.2321469    15689.245    17528.515   -1759.2337    31298.453   -3005.4557   -8438.2746    761.86162    75.802268 
   71600    397.58767   -107.99071   0.35974568   -107.63096   -11350.834    4.2493381    4.2493381    4.2493381   -11350.834   -20243.307    1677.3871   -15486.583     1165.878    28333.973   -5852.8411    76.729764 
   71700    555.85257   -108.13259   0.50294709   -107.62964   -4217.5115    4.2406017    4.2406017    4.2406017   -4217.5115   -6353.2217     6916.187     -13215.5   -3816.9031    14205.343    30.738929    76.257483 
   71800    1020.1354    -108.5441   0.92303997   -107.62106    10181.609    4.2338281    4.2338281    4.2338281    10181.609     8839.505     5261.188    16444.134   -9440.9748   -10510.665    1445.8818    75.892639 
   71900    552.93412   -108.12872   0.50030641   -107.62842    -12536.58    4.2490042    4.2490042    4.2490042    -12536.58   -26889.423    3256.3576   -13976.673    1009.3185    28425.322   -4061.4606    76.711677 
   72000    694.27806   -108.25724   0.62819738   -107.62904   -167.71313    4.2386491    4.2386491    4.2386491   -167.71313    -15754.32    12888.212    2362.9688   -4172.7472    7380.2671   -5412.2322    76.152188 
   72100    992.89729   -108.52085   0.89839434   -107.62245    12278.852    4.2362536    4.2362536    4.2362536    12278.852    3773.4284    1653.9555    31409.173   -3663.9585   -7874.9356    4130.0789     76.02315 
   72200    550.93058   -108.12793   0.49849357   -107.62944   -4813.0069    4.2461874    4.2461874    4.2461874   -4813.0069   -11834.755    675.83123   -3280.0967    4801.1716    28173.955   -6765.4565    76.559216 
   72300    563.26853   -108.13762    0.5096572   -107.62796    828.84558    4.2416441    4.2416441    4.2416441    828.84558    3348.3991    7838.9458   -8700.8081    864.91749    5009.4871   -4053.8011    76.313727 
   72400    900.15536   -108.43673   0.81447949   -107.62225    5721.3963    4.2354819    4.2354819    4.2354819    5721.3963    5240.1518    985.40148    10938.636   -2055.8624   -11036.826    5066.4677    75.981611 
   72500    474.60746   -108.06029    0.4294348   -107.63085   -5584.1003    4.2436167    4.2436167    4.2436167   -5584.1003   -8476.1774    -3352.695   -4923.4285    728.06138    24635.675   -5368.5547    76.420251 
   72600    607.86232    -108.1798    0.5500066   -107.62979   -6636.5034    4.2447566    4.2447566    4.2447566   -6636.5034     -11870.5    8755.6471   -16794.657    2243.9159    4004.8055   -2125.6638    76.481849 
   72700    981.88641   -108.50994   0.88843145   -107.62151    11699.365     4.234031     4.234031     4.234031    11699.365    18117.106    12795.177    4185.8131   -7722.4556   -14703.514    3709.6194    75.903554 
   72800    576.26695   -108.15105   0.52141845   -107.62963   -4560.1938    4.2444627    4.2444627    4.2444627   -4560.1938    1187.2938    -4100.153   -10767.722   -199.73138    26151.392    2914.3438    76.465964 
   72900    638.28804   -108.20723   0.57753643   -107.62969   -3691.2473      4.24221      4.24221      4.24221   -3691.2473   -10556.918    4410.6007   -4927.4247    3985.7207    7660.3039   -9679.3793    76.344278 
   73000    974.68856   -108.50398   0.88191869   -107.62206    10266.353    4.2343269    4.2343269    4.2343269    10266.353    12254.608    8965.8998    9578.5511   -3768.5455   -13571.547   -29.689457    75.919469 
   73100    530.43507   -108.10877    0.4799488   -107.62883   -15697.688    4.2479121    4.2479121    4.2479121   -15697.688   -20808.991   -16029.092   -10254.981    1752.5683    27152.536    12749.889    76.652544 
   73200    511.70132   -108.09177   0.46299811   -107.62877   -4242.7388    4.2385135    4.2385135    4.2385135   -4242.7388   -1159.8645    5752.9748   -17321.327    6402.3348    10363.289   -14620.479    76.144879 
   73300     876.8863   -108.41698   0.79342515   -107.62356     5458.757    4.2344498    4.2344498    4.2344498     5458.757    10386.648    15397.006    -9407.383    2970.6403   -15787.298    4579.8699     75.92608 
   73400     596.9104    -108.1696   0.54009708    -107.6295   -9071.7599    4.2459382    4.2459382    4.2459382   -9071.7599    2033.5577   -2558.1964   -26690.641    638.71681    21140.425    16428.518    76.545737 
   73500     585.1604   -108.15894   0.52946543   -107.62948   -2044.5682    4.2418024    4.2418024    4.2418024   -2044.5682    4914.8323    8814.2366   -19862.773    4897.7194    13694.089   -14391.585    76.322273 
   73600    939.13294   -108.47185   0.84974722    -107.6221    7739.7318    4.2381137    4.2381137    4.2381137    7739.7318    14021.143    12634.993   -3436.9407     868.4493   -12543.839    1475.2149    76.123336 
   73700    756.45412   -108.31002   0.68445558   -107.62557   -2337.9674     4.242017     4.242017     4.242017   -2337.9674    3304.9931    5555.6693   -15874.564    -3327.353    15345.521    9682.9336    76.333861 
   73800    520.29937   -108.09957    0.4707778   -107.62879   -853.17144    4.2416816    4.2416816    4.2416816   -853.17144    4727.6764     12959.24   -20246.431    1790.5912    17404.362   -15644.267    76.315754 
   73900    800.72847   -108.34986   0.72451594   -107.62534    1065.6095    4.2375393    4.2375393    4.2375393    1065.6095    2868.7397   -294.54025    622.62897    1702.5958   -7239.7766    -8400.622    76.092391 
   74000    721.24121   -108.27832    0.6525942   -107.62573     -1513.93    4.2421743    4.2421743    4.2421743     -1513.93   -5605.4342    9831.1454   -8767.5012   -3171.7941    9216.3777    11129.313    76.342351 
   74100    503.90238    -108.0835   0.45594146   -107.62755   -10302.669    4.2449607    4.2449607    4.2449607   -10302.669   -4356.7301    3380.9422   -29932.218    4074.8719    16237.895   -16997.156    76.492881 
   74200    728.12246   -108.28377    0.6588205   -107.62495    2522.6069    4.2371824    4.2371824    4.2371824    2522.6069    11509.924   -940.21765   -3001.8857    4460.9369   -4500.1375   -12488.023    76.073164 
   74300    923.02722   -108.45858   0.83517442   -107.62341    544.46907    4.2403719    4.2403719    4.2403719    544.46907   -2839.7649    16281.515   -11808.343   -1286.1205    8625.5327    13351.178    76.245086 
   74400    597.37756   -108.16911   0.54051977   -107.62859   -3063.1739    4.2434132    4.2434132    4.2434132   -3063.1739    12404.149    1646.1643   -23239.835    2362.6318    14301.148   -19964.302    76.409254 
   74500    663.20773     -108.228   0.60008429   -107.62791    2535.8333    4.2385796    4.2385796    4.2385796    2535.8333     10867.29   -16455.764    13195.974    3651.2823   -75.594365   -14308.727    76.148443 
   74600    861.88494   -108.40303   0.77985161   -107.62317   -243.86301    4.2421992    4.2421992    4.2421992   -243.86301   -6903.1203    1937.6597    4233.8715   -3387.9968    8493.6575    11996.532    76.343697 
   74700    554.00116   -108.12835    0.5012719   -107.62708   -4262.5525    4.2425087    4.2425087    4.2425087   -4262.5525    6565.6653   -4177.2193   -15176.104   -3789.3765    13843.353   -20174.116    76.360407 
   74800    579.39898    -108.1513   0.52425238   -107.62705   -127.31163    4.2380632    4.2380632    4.2380632   -127.31163    1669.6833    -5487.569    3435.9508    6293.0865   -3154.0089   -15811.806    76.120615 
   74900    833.11562   -108.37703   0.75382052   -107.62321   -6367.0643    4.2438319    4.2438319    4.2438319   -6367.0643   -20208.269    3888.5138   -2781.4379    181.89311   -32.571722    5677.0728    76.431873 
   75000    655.67725   -108.21832   0.59327056   -107.62505   -5034.3936     4.242326     4.242326     4.242326   -5034.3936    -484.0405    4465.3722   -19084.512   -1828.3823    13170.183   -21644.932     76.35054 
   75100    742.19683   -108.29606   0.67155529    -107.6245    -368.5182     4.238121     4.238121     4.238121    -368.5182    2127.8028    1478.9568   -4712.3142    9239.9037    -3729.524   -15030.545    76.123729 
   75200    754.88889   -108.30782   0.68303933   -107.62478   -3026.5103    4.2439941    4.2439941    4.2439941   -3026.5103   -16664.654     7355.136    229.98667    3410.3514    809.99175    5386.7866    76.440642 
   75300    745.44761    -108.2997   0.67449666   -107.62521    1387.3511    4.2400615    4.2400615    4.2400615    1387.3511    7188.1007    9531.2501   -12557.298   -3089.8765    12975.121   -11859.978    76.228341 
   75400    653.36204   -108.21613   0.59117571   -107.62495    9037.2422     4.241935     4.241935     4.241935    9037.2422     12050.25    11936.348    3125.1288    3993.8343    3627.9499   -10596.934    76.329433 
   75500    640.60629   -108.20559   0.57963403   -107.62595   -775.32855    4.2420654    4.2420654    4.2420654   -775.32855   -18213.686   -11972.628    27860.328    2756.6374    698.63618    9522.8969    76.336473 
   75600    664.89487   -108.22685   0.60161085   -107.62524    7420.8716    4.2390054    4.2390054    4.2390054    7420.8716    6307.2479    5146.6807    10808.686   -5699.8363    10191.953   -4523.5946    76.171393 
   75700    798.21718     -108.345   0.72224368   -107.62275   -2154.0442    4.2464107    4.2464107    4.2464107   -2154.0442   -7758.1202   -667.28224    1963.2699    6226.2147    4113.2824   -11468.841    76.571293 
   75800     523.9365   -108.10074   0.47406876   -107.62667    1314.1087    4.2381313    4.2381313    4.2381313    1314.1087   -20515.397   -2922.6594    27380.382    8691.8094   -2310.1742    4405.3203    76.124283 
   75900    770.49415   -108.32261    0.6971593   -107.62545   -1279.0242    4.2417863    4.2417863    4.2417863   -1279.0242     -6882.23    9531.0427   -6485.8852   -9204.8003    5400.1262   -4082.2577    76.321404 
   76000    911.63296   -108.44649   0.82486466   -107.62163   -205.20974    4.2457031    4.2457031    4.2457031   -205.20974   -11008.526    15761.432   -5368.5344    8951.7508   -1959.6152   -10642.589    76.533021 
   76100    408.78763   -107.99916   0.36987964   -107.62928   -2357.9625    4.2358271    4.2358271    4.2358271   -2357.9625   -21709.082    -4273.163    18908.357    7526.4305   -9215.1571    2821.0517    76.000187 
   76200    658.18663   -108.22511    0.5955411   -107.62956   -8694.0511    4.2443014    4.2443014    4.2443014   -8694.0511   -4508.4591   -9728.3854   -11845.309    -11655.67    2421.6065    5372.4345    76.457246 
   76300    1007.8129   -108.53359   0.91189032    -107.6217     2935.259    4.2432662    4.2432662    4.2432662     2935.259    434.02882    16005.121   -7633.3731    5900.0979   -3295.8759   -2076.9837    76.401316 
   76400    393.59746   -107.98726   0.35613526   -107.63112   -5105.8373    4.2378861    4.2378861    4.2378861   -5105.8373   -14513.781   -14878.861     14075.13    6634.2581     -7296.49    3735.3661    76.111073 
   76500    601.42749   -108.17621   0.54418423   -107.63202   -10328.275     4.244212     4.244212     4.244212   -10328.275   -17234.387   -13392.306   -358.13316    -10132.93     1386.655    10982.996    76.452414 
   76600    1147.1789   -108.66049    1.0379916    -107.6225    7283.4922    4.2396583    4.2396583    4.2396583    7283.4922    55.254337    25053.268   -3258.0457    618.01113    4655.7025    1922.8351    76.206599 
   76700     561.8842   -108.13946   0.50840463   -107.63105   -794.95043    4.2419463    4.2419463    4.2419463   -794.95043   -21569.155     10698.49    8485.8137     7673.891   -4128.7376   -4123.0292    76.330044 
   76800    682.24624   -108.24684   0.61731073   -107.62953   -8986.5847    4.2454139    4.2454139    4.2454139   -8986.5847   -26787.841    3534.0423   -3705.9552    -13043.38   -2336.0469    7555.6266    76.517385 
   76900    1067.3267   -108.58729   0.96573967   -107.62155    14651.323    4.2352789    4.2352789    4.2352789    14651.323    20678.651    28431.459     -5156.14   -97.268531    2839.9061   -905.07166    75.970688 
   77000     543.1903   -108.12147      0.49149   -107.62998   -5778.7999    4.2441653    4.2441653    4.2441653   -5778.7999   -13536.047     -88.5371   -3711.8154    6687.2323   -4596.2783   -6677.5692     76.44989 
   77100    493.41853   -108.07549   0.44645545   -107.62904   -6649.8697    4.2450591    4.2450591    4.2450591   -6649.8697   -15778.331   -12989.657    8818.3785   -7617.8716   -4832.9905    7094.4708    76.498202 
   77200    771.74911   -108.31973   0.69829482   -107.62143    14296.765    4.2346542    4.2346542    4.2346542    14296.765    24398.221    22130.712   -3638.6396    2055.4891    3038.7226    -3317.519    75.937074 
   77300    426.59013   -108.01382   0.38598772   -107.62783    -6949.869    4.2450227    4.2450227    4.2450227    -6949.869   -20163.739    8185.9733   -8871.8409    9367.4131    81.259938   -6143.2397    76.496234 
   77400    628.95588   -108.19555    0.5690925   -107.62646   -8365.9416    4.2436443    4.2436443    4.2436443   -8365.9416   -21609.208   -15173.596    11684.979   -4665.8723   -7124.3741    2764.2021    76.421738 
   77500    906.57507   -108.44295   0.82028817   -107.62266    4414.1454    4.2355979    4.2355979    4.2355979    4414.1454    319.39576    13880.736   -957.69514   -4818.9299    10960.919    -4434.139    75.987855 
   77600    674.12472   -108.23889   0.60996222   -107.62893   -9298.4968    4.2421822    4.2421822    4.2421822   -9298.4968   -24695.305    10516.178   -13716.363    8825.5642    8624.4977   -10592.796    76.342778 
   77700    807.27072   -108.35813   0.73043551    -107.6277   -4592.5272    4.2443875    4.2443875    4.2443875   -4592.5272   -23481.018    5001.1796    4702.2566   -6738.0441   -9919.9872    3397.0922    76.461899 
   77800    913.48536    -108.4505   0.82654075   -107.62395    1241.9192    4.2395363    4.2395363    4.2395363    1241.9192   -5938.7061    24496.864   -14832.401    -4842.202    18969.658   -1742.1525    76.200019 
   77900    588.89771   -108.16079   0.53284702   -107.62794   -5196.6206    4.2393997    4.2393997    4.2393997   -5196.6206    -12632.19    18161.837   -21119.509    7814.1438     13051.86   -11254.167    76.192654 
   78000    653.95921   -108.21822   0.59171603    -107.6265   -5280.2384    4.2426994    4.2426994    4.2426994   -5280.2384   -10557.051   -15642.878    10359.213    4021.3207   -12538.017    2857.9251    76.370702 
   78100    662.86437    -108.2248   0.59977361   -107.62502   -6471.7258     4.242661     4.242661     4.242661   -6471.7258   -10645.628    1357.4394   -10126.989   -4393.6704    17307.965    2393.3342     76.36863 
   78200    482.40437   -108.06358   0.43648961   -107.62709   -4350.8262    4.2395915    4.2395915    4.2395915   -4350.8262   -12433.018    14967.645   -15587.106     2685.702    16562.103   -10795.667    76.202995 
   78300    735.05052   -108.28931   0.66508916   -107.62422   -4157.3932    4.2415542    4.2415542    4.2415542   -4157.3932   -8819.1566   -16104.699    12451.676    8869.0916   -9732.5513   -3082.6365    76.308878 
   78400    638.44793   -108.20352    0.5776811   -107.62584   -5640.3988    4.2442618    4.2442618    4.2442618   -5640.3988   -19420.463    11693.956   -9194.6893   -5054.3495    19868.952     4073.578    76.455107 
   78500    621.81961    -108.1903   0.56263545   -107.62767    3872.0464    4.2386733    4.2386733    4.2386733    3872.0464   -3561.5855    26262.995    -11085.27    2445.1635    24812.241   -7608.1016    76.153492 
   78600    997.46315   -108.52593   0.90252562    -107.6234    4209.3364    4.2428885    4.2428885    4.2428885    4209.3364    5740.0714    659.76241    6228.1754    7629.2119   -9440.5142   -6155.8244    76.380915 
   78700    656.92072   -108.22167   0.59439567   -107.62728    -412.2559     4.244643     4.244643     4.244643    -412.2559   -8701.1542    21718.313   -14253.926    1054.2337     22096.06    6290.8945    76.475707 
   78800    669.52799   -108.23259   0.60580299   -107.62678    2171.5273    4.2377284    4.2377284    4.2377284    2171.5273    3550.6901    13635.291   -10671.399    2869.8302     21633.53    -2122.649    76.102575 
   78900    942.07031   -108.47436   0.85240501   -107.62196   -1942.8322    4.2456106    4.2456106    4.2456106   -1942.8322    3969.3787   -14668.021     4870.146    9323.2084   -11054.132   -5886.6993    76.528018 
   79000    606.32258    -108.1742   0.54861341   -107.62559   -5294.6066    4.2425345    4.2425345    4.2425345   -5294.6066   -18142.857    8536.7951   -6277.7579   -1954.6393    21771.358    6484.7587      76.3618 
   79100    522.09251   -108.09843   0.47240028   -107.62603   -6037.8122    4.2393433    4.2393433    4.2393433   -6037.8122    2833.6322   -6577.2921   -14369.777   -6143.2162    20327.473   -2498.8415    76.189614 
   79200    749.80001   -108.30163    0.6784348    -107.6232   -1801.1616    4.2438081    4.2438081    4.2438081   -1801.1616    14627.647   -18075.437   -1955.6946    7469.0719   -9358.1142   -7208.7849    76.430587 
   79300    558.38407   -108.13164   0.50523764    -107.6264    6451.7701    4.2378142    4.2378142    4.2378142    6451.7701    13292.248    12528.606   -6465.5431    4114.7092     19459.58    1250.2022      76.1072 
   79400    568.72114   -108.14307   0.51459084   -107.62848   -1227.4043    4.2454815    4.2454815    4.2454815   -1227.4043    19230.782    -713.5245    -22199.47   -1790.7406    22452.908   -2629.2409     76.52104 
   79500    860.88874   -108.40341   0.77895022   -107.62446    8073.6407    4.2397953    4.2397953    4.2397953    8073.6407    21114.028    1031.3206    2075.5731    11197.926   -12392.489   -8828.1628    76.213982 
   79600    741.79827    -108.2982   0.67119466     -107.627    9423.5127    4.2374707    4.2374707    4.2374707    9423.5127    5137.3192    27143.104   -4009.8849    7992.2561     16373.28   -645.53889    76.088695 
   79700    829.94488   -108.37586   0.75095157   -107.62491   -9263.6911    4.2492812    4.2492812    4.2492812   -9263.6911   -12739.825     5978.466   -21029.714   -4404.5504    21586.114    2856.9823    76.726681 
   79800    867.22107   -108.40658   0.78467985    -107.6219    13913.575    4.2346261    4.2346261    4.2346261    13913.575    28802.594    8200.0309    4738.1013    2896.6989    -11494.24   -7941.4734    75.935559 
   79900    628.26995   -108.19508   0.56847185   -107.62661   -4294.6859    4.2430752    4.2430752    4.2430752   -4294.6859   -2965.3837    7754.4506   -17673.125    6146.0675    14681.199   -930.70436    76.390998 
   80000    608.81825    -108.1763   0.55087155   -107.62543   -6687.0808    4.2451207    4.2451207    4.2451207   -6687.0808    6047.6495    -8113.814   -17995.078    456.55941    18140.377    4804.8339    76.501533 
   80100    723.10694   -108.27618   0.65428236   -107.62189     8791.275    4.2345268    4.2345268    4.2345268     8791.275    36657.465   -13552.267    3268.6269    -2145.308    -6433.774   -3113.5963    75.930218 
   80200    555.58547   -108.12831   0.50270541   -107.62561   -12039.743    4.2464675    4.2464675    4.2464675   -12039.743   -15071.214   -2227.9475   -18820.068    11391.243    6043.0951   -1368.7581    76.574364 
   80300    593.59005   -108.16244   0.53709275   -107.62535   -428.95247    4.2393775    4.2393775    4.2393775   -428.95247   -1983.3767    6040.3695   -5343.8502    59.063031    17119.521    2920.9174    76.191453 
   80400    797.34349    -108.3456   0.72145315   -107.62415   -1789.8232    4.2403758    4.2403758    4.2403758   -1789.8232    19471.495   -16365.497   -8475.4675   -7129.0592   -6932.1684   -3005.9796    76.245292 
   80500    753.87623    -108.3065   0.68212306   -107.62438    -1132.855    4.2439504    4.2439504    4.2439504    -1132.855   -1706.6575    8179.2935   -9871.2009    4925.7458    3564.4676   -3135.5861    76.438277 
   80600    737.32227   -108.29228   0.66714469   -107.62513    4327.0427    4.2372482    4.2372482    4.2372482    4327.0427    6389.4622    17185.895   -10594.229   -2806.4507    19009.847    4677.9891    76.076708 
   80700    709.22664   -108.26866   0.64172317   -107.62694   -5261.1598    4.2442238    4.2442238    4.2442238   -5261.1598    23098.127   -21986.481   -16895.125   -11310.817   -3126.1755     4098.557     76.45305 
   80800    802.29815   -108.35058   0.72593623   -107.62464    2941.5285    4.2378576    4.2378576    4.2378576    2941.5285    3922.0391    13991.043   -9088.4968   -2158.8038    3679.1643    -3119.404    76.109538 
   80900    599.46955   -108.16925   0.54241265   -107.62684    -4599.447    4.2417472    4.2417472    4.2417472    -4599.447    2676.1423     3084.559   -19559.042    1487.0702    13795.087    8873.8326    76.319295 
   81000    580.18191   -108.14964   0.52496078   -107.62468   -14629.702    4.2469202    4.2469202    4.2469202   -14629.702    10037.003   -37724.484   -16201.625   -12776.003   -624.63174    12156.272    76.598858 
   81100    689.75161   -108.24622   0.62410175   -107.62212    5610.4953    4.2353154    4.2353154    4.2353154    5610.4953    6379.3821    2654.5125    7797.5913   -1005.2749   -789.05484   -4721.9245    75.972652 
   81200    644.65432   -108.20901   0.58329678   -107.62571   -10564.585     4.241523     4.241523     4.241523   -10564.585   -8136.5056   -2861.1716   -20696.079    3724.3725    7168.2947    5657.4966    76.307193 
   81300    672.33823   -108.23458   0.60834576   -107.62623   -9880.6577    4.2452733    4.2452733    4.2452733   -9880.6577    18967.125   -34374.709    -14234.39   -12166.057   -9.6692181    15612.014    76.509783 
   81400    940.91822   -108.47268   0.85136258   -107.62132   -1394.8128    4.2401397    4.2401397    4.2401397   -1394.8128    1525.0226   -2650.9834   -3058.4777   -1019.2785   -1163.6914     -4644.91    76.232561 
   81500    619.17598   -108.18673   0.56024344   -107.62649   -9018.7546    4.2409701    4.2409701    4.2409701   -9018.7546   -8879.9311     6508.987    -24685.32    3714.2551    12248.975    5355.1586    76.277359 
   81600    753.53389   -108.30847    0.6818133   -107.62666   -1482.5593    4.2403881    4.2403881    4.2403881   -1482.5593    19466.695   -13382.406   -10531.967   -3062.3437    777.41572     20634.09    76.245955 
   81700    898.67664   -108.43561   0.81314151   -107.62247    366.46565    4.2440717    4.2440717    4.2440717    366.46565   -1335.3559    2234.2764    200.47643   -4179.9205    2797.7899   -1979.8297    76.444831 
   81800    413.67583   -108.00527   0.37430258   -107.63096   -6262.4622    4.2368106    4.2368106    4.2368106   -6262.4622   -8381.0919    15814.298   -26220.592    3969.4106    7694.8887    8540.5311    76.053141 
   81900     542.3294   -108.12292   0.49071104   -107.63221   -2711.9901    4.2417094    4.2417094    4.2417094   -2711.9901     27935.89   -11783.022   -24288.839    274.40873    44.821935    22947.809    76.317253 
   82000    984.25221   -108.51329   0.89057209   -107.62272    1266.3533    4.2450092    4.2450092    4.2450092    1266.3533    12888.046   -2889.5954   -6199.3911   -3457.1565    3140.0244   -2778.6915    76.495502 
   82100      467.791   -108.05405   0.42326713   -107.63078    1504.4868    4.2338222    4.2338222    4.2338222    1504.4868    8923.8735    16201.202   -20611.615    7381.8493    5354.5806    4542.4924    75.892325 
   82200    532.19652   -108.11469    0.4815426   -107.63315   -9935.8448    4.2475099    4.2475099    4.2475099   -9935.8448    14483.445   -20339.393   -23951.586    2105.4261    1106.9974    18969.321    76.630772 
   82300     1104.901   -108.62325   0.99973764   -107.62351      4769.52    4.2390795    4.2390795    4.2390795      4769.52    13643.181   -3601.9326    4267.3117    1736.4793   -3634.5591   -6639.1464    76.175391 
   82400    548.61712   -108.12692    0.4964003   -107.63052    12817.132    4.2314599    4.2314599    4.2314599    12817.132    14724.906    22652.496    1073.9959    2499.3672    9608.1085   -1510.4723    75.765362 
   82500    554.06394   -108.13162    0.5013287   -107.63029   -18591.727    4.2529132    4.2529132    4.2529132   -18591.727    -7193.616   -20151.682   -28429.882     5057.108   -1872.4675    21704.588    76.923594 
   82600    904.30969     -108.441   0.81823842   -107.62276    10298.523    4.2344075    4.2344075    4.2344075    10298.523    18568.784     5664.024    6662.7619   -3711.5147   -2559.5634   -8442.6494    75.923801 
   82700     666.7936   -108.22972   0.60332886   -107.62639    902.78337     4.233665     4.233665     4.233665    902.78337    8405.7493    19477.988   -25175.387   -2855.0755    8038.5162   -6616.3965    75.883868 
   82800    584.97776   -108.15594   0.52930017   -107.62664   -14633.707     4.250387     4.250387     4.250387   -14633.707    2152.1637   -9733.2989   -36319.985    5468.8198   -185.79997    17422.379    76.786598 
   82900    790.55707    -108.3388   0.71531265   -107.62349    9738.8411    4.2352914    4.2352914    4.2352914    9738.8411    20678.281    8586.7026   -48.459913   -10198.062    661.14338   -12406.413    75.971356 
   83000    709.50306   -108.26761   0.64197328   -107.62564     6335.058    4.2369716    4.2369716    4.2369716     6335.058    16844.921    5600.0305   -3439.7777    1375.6015    1060.7295    -16324.74    76.061811 
   83100    724.03774   -108.28007   0.65512457   -107.62494   -1360.4113    4.2451013    4.2451013    4.2451013   -1360.4113   -1681.2735   -1963.4978    -436.4626    10894.456    2551.2307    11992.006     76.50048 
   83200    652.37676   -108.21599    0.5902842   -107.62571    3477.2352    4.2397755    4.2397755    4.2397755    3477.2352    9368.9101   -4348.0276     5410.823   -9264.2018   -1484.2493   -14700.829    76.212919 
   83300    747.41302   -108.30112   0.67627501   -107.62485    2422.2278    4.2384451    4.2384451    4.2384451    2422.2278    11792.626   -5892.9001    1366.9573   -85.698872    2901.8063   -18434.397    76.141197 
   83400    800.63804   -108.34794   0.72443413    -107.6235    7478.2387    4.2399964    4.2399964    4.2399964    7478.2387    8718.3817    16103.663   -2387.3285    8057.3064    971.37789    16870.016    76.224833 
   83500    543.91129   -108.11997   0.49214236   -107.62783   -10088.145    4.2448041    4.2448041    4.2448041   -10088.145   -3064.2016   -5642.1277   -21558.107   -8781.0044   -5043.6496   -15834.729    76.484419 
   83600    636.90763   -108.20314   0.57628741   -107.62686   -313.44701    4.2371074    4.2371074    4.2371074   -313.44701    12654.865    -5266.532   -8328.6742   -9153.0752    1946.4577   -23378.076    76.069124 
   83700    856.69503   -108.39857   0.77515566   -107.62341    5480.0983    4.2387573    4.2387573    4.2387573    5480.0983    2150.8175    19442.294   -5152.8166    10927.973    281.71851      12396.4    76.158019 
   83800    508.33314   -108.08978   0.45995051   -107.62983   -14212.612    4.2465657    4.2465657    4.2465657   -14212.612    3812.0355   -22635.403   -23814.467   -1756.0467   -1476.9241   -20018.156     76.57968 
   83900    605.68097   -108.17761   0.54803287   -107.62958    10769.683    4.2325657    4.2325657    4.2325657    10769.683    22239.026    228.48764     9841.536   -13226.391   -1865.1491   -26835.235    75.824772 
   84000    1036.7189   -108.56276   0.93804508   -107.62472    4135.6615      4.24237      4.24237      4.24237    4135.6615   -5075.6406    4198.4708    13284.154    14812.079     2280.861     11591.69    76.352917 
   84100    642.64169   -108.21183   0.58147571   -107.63036   -6552.3213    4.2437139    4.2437139    4.2437139   -6552.3213   -383.24762   -19685.265    411.54881    1407.1918    645.03429   -16158.272    76.425499 
   84200    654.03642   -108.22122   0.59178589   -107.62943    5138.9935    4.2331622    4.2331622    4.2331622    5138.9935    10820.781    7207.6909   -2611.4911   -10162.705    -5413.458   -25144.659    75.856837 
   84300    1006.3024   -108.53389   0.91052354   -107.62336   -2564.4781    4.2446696    4.2446696    4.2446696   -2564.4781   -16801.182    1995.5655    7112.1821    16121.889    1810.0685    7139.3521    76.477146 
   84400     649.4249   -108.21613    0.5876133   -107.62852   -485.43077    4.2384193    4.2384193    4.2384193   -485.43077    5576.3166   -2333.8549    -4698.754    3444.1541   -610.15248   -18112.865    76.139805 
   84500    439.22585    -108.0282   0.39742078   -107.63078   -4584.2099    4.2397093    4.2397093    4.2397093   -4584.2099   -1501.1602   -2576.9151   -9674.5545   -11248.521   -1662.3799   -25286.927    76.209349 
   84600    746.40368    -108.2998   0.67536173   -107.62444   -4339.2454    4.2437819    4.2437819    4.2437819   -4339.2454   -22824.382   -6140.6431    15947.289    10842.146    2636.0228    9160.2407    76.429172 
   84700    594.93899   -108.16398    0.5383133   -107.62567    227.88586    4.2365112    4.2365112    4.2365112    227.88586    4301.3546   -123.41563   -3494.2814    9579.9686    321.67029   -15781.936     76.03702 
   84800    407.63756   -107.99886   0.36883903   -107.63002   -10937.232    4.2433187    4.2433187    4.2433187   -10937.232    1569.2764   -11702.769   -22678.204   -13716.567   -463.64472   -27064.453    76.404152 
   84900    855.46625   -108.39837   0.77404384   -107.62432    98.191815    4.2376419    4.2376419    4.2376419    98.191815   -13006.661   -4534.6771    17835.913    7118.0935   -4410.5598    8226.4874    76.097918 
   85000    844.10945   -108.38923   0.76376797   -107.62546   -7438.6455    4.2409492    4.2409492    4.2409492   -7438.6455    874.36515   -9626.1675   -13564.134    12811.775    304.11501   -16163.738    76.276229 
   85100    650.38969   -108.21706   0.58848626   -107.62857   -15441.712    4.2432306    4.2432306    4.2432306   -15441.712    -4721.308    -20489.37   -21114.458   -13198.293   -1070.4245   -28144.788     76.39939 
   85200    886.37991   -108.42736   0.80201517   -107.62534    5651.3179    4.2343138    4.2343138    4.2343138    5651.3179   -10839.674   -3257.1476    31050.775    1778.1863   -1289.0363    7599.7349    75.918764 
   85300    896.12699   -108.43592   0.81083453   -107.62509   -4220.3129    4.2441332    4.2441332    4.2441332   -4220.3129   -6758.2485    -14569.96    8667.2703    9655.1986     249.3914   -3224.0242    76.448155 
   85400    491.53024   -108.07436   0.44474689   -107.62961   -1554.5207    4.2412912    4.2412912    4.2412912   -1554.5207    90.442335   -10302.286    5548.2816   -10778.138   -4475.7119   -20024.167    76.294683 
   85500      698.356    -108.2569   0.63188719   -107.62501    4447.7552    4.2377921    4.2377921    4.2377921    4447.7552   -7647.1518   -4784.7356    25775.153   -11697.503    1674.0138    2057.6194    76.106009 
   85600     805.4505   -108.35124   0.72878854   -107.62246   -5510.7587    4.2438685    4.2438685    4.2438685   -5510.7587   -313.15955   -2778.5657   -13440.551    8890.2149    3328.3433   -2571.7358    76.433854 
   85700    412.92026   -108.00254   0.37361893   -107.62892   -5091.1402    4.2372324    4.2372324    4.2372324   -5091.1402    10122.495   -10303.113   -15092.803   -10069.254    -2562.199   -18647.652    76.075858 
   85800    567.15678   -108.14292   0.51317537   -107.62974   -1599.8221    4.2416036    4.2416036    4.2416036   -1599.8221   -9771.7337   -2035.9154    7008.1827   -23359.484   -429.24871   -879.81577    76.311544 
   85900    965.73671   -108.49715   0.87381887   -107.62333    1875.0959    4.2418482    4.2418482    4.2418482    1875.0959    9628.5928   -196.77433   -3806.5309    11087.954   -123.08307    4523.5948    76.324748 
   86000    443.52079   -108.03158   0.40130693   -107.63028    4214.2922     4.236803     4.236803     4.236803    4214.2922     10088.59   -4522.1766    7076.4628    -11901.78   -1317.1487   -9548.2394    76.052728 
   86100    633.34078   -108.20544   0.57306005   -107.63238   -7076.1478    4.2437832    4.2437832    4.2437832   -7076.1478   -24967.678   -15388.012    19127.247    -27912.16   -5831.8517   -2532.9108    76.429246 
   86200     1115.029   -108.63233    1.0089017   -107.62343    16377.882    4.2356404    4.2356404    4.2356404    16377.882     13869.14    1813.7195    33450.786    6501.6671    901.74409    5498.4513     75.99014 
   86300    672.80509   -108.24172   0.60876818   -107.63295   -5351.1426    4.2414516    4.2414516    4.2414516   -5351.1426   -2028.7617   -21759.915     7735.249    -13621.23    3513.4131   -10254.164    76.303339 
   86400    502.94624   -108.08894   0.45507633   -107.63386   -9170.1312     4.243528     4.243528     4.243528   -9170.1312   -24205.601    -14338.93    11034.137    -29211.07   -1385.9091   -8494.1755    76.415457 
   86500    1114.0562   -108.63102    1.0080215     -107.623    12763.234    4.2317091    4.2317091    4.2317091    12763.234    18865.036    8142.0032    11282.661    9111.8583    925.74466    6012.6128    75.778745 
   86600     636.8871   -108.20773   0.57626883   -107.63146   -10323.473    4.2457823    4.2457823    4.2457823   -10323.473   -1948.7624   -8000.2075   -21021.448   -11749.587   -2778.6414   -4270.9195    76.537307 
   86700    413.07394   -108.00734   0.37375799   -107.63359   -7884.8275    4.2384033    4.2384033    4.2384033   -7884.8275   -6382.1232   -18991.633    1719.2733   -31700.195    626.07279   -9019.1143    76.138942 
   86800    792.55666   -108.34324   0.71712192   -107.62611    12929.406    4.2353494    4.2353494    4.2353494    12929.406    21669.026    9152.8942    7966.2988    17943.556    -1647.228    3611.2467    75.974478 
   86900    684.42192   -108.24565   0.61927934   -107.62638   -12423.884    4.2469194    4.2469194    4.2469194   -12423.884   -7586.3364   -16107.082   -13578.235   -4665.4999   -558.99107    -2869.885    76.598818 
   87000    403.37425   -107.99392   0.36498149   -107.62894    7822.0765    4.2336261    4.2336261    4.2336261    7822.0765    14658.486   -4358.3379    13166.081   -31708.386    967.39563   -13897.747    75.881776 
   87100    730.13073   -108.28819   0.66063763   -107.62755   -438.70683     4.241616     4.241616     4.241616   -438.70683    -8126.512   -6790.3892    13600.781    21028.254   -4256.2072     819.8265    76.312213 
   87200    769.47486    -108.3228   0.69623702   -107.62656    3300.5022    4.2406271    4.2406271    4.2406271    3300.5022   -290.08099     -7832.74    18024.328    5484.0632    2425.0165   -2693.1815    76.258851 
   87300    711.37617   -108.27153   0.64366811   -107.62786    9359.8035     4.235715     4.235715     4.235715    9359.8035    16299.129   -9638.0035    21418.285    -30278.92    1622.8031   -12744.329    75.994153 
   87400    769.67739   -108.32315   0.69642027   -107.62673   -10354.764     4.246404     4.246404     4.246404   -10354.764   -24102.655   -14676.337    7714.6986    20147.442    1041.4394    1143.9592    76.570931 
   87500    809.63898   -108.35865   0.73257836   -107.62608    8927.6513    4.2327643    4.2327643    4.2327643    8927.6513    5112.2791     3287.259    18383.416    12022.273    727.95598    704.45172     75.83545 
   87600    887.41725   -108.42981   0.80295378   -107.62686   -4293.1561    4.2408149    4.2408149    4.2408149   -4293.1561    3566.6481   -14582.965   -1863.1513    -21225.25   -4857.2929   -7238.3536    76.268984 
   87700    569.03317   -108.14418   0.51487317   -107.62931   -11655.776    4.2446895    4.2446895    4.2446895   -11655.776   -23981.011   -9968.9869   -1017.3294    20759.573   -1630.3819    55.133555    76.478223 
   87800    605.49204    -108.1748   0.54786193   -107.62693    4586.9639    4.2311172    4.2311172    4.2311172    4586.9639    1420.4506    11923.528    416.91271    18159.129    2135.8145    1558.7243    75.746952 
   87900    764.56674   -108.31656   0.69179606   -107.62476   -8480.1341    4.2455698    4.2455698    4.2455698   -8480.1341   -2569.1016   -1641.0673   -21230.233   -17156.569    1823.2376   -5406.9018    76.525812 
   88000    519.81481   -108.09927   0.47033937   -107.62893   -2658.8639     4.237311     4.237311     4.237311   -2658.8639   -4544.1966    2569.4213   -6001.8165    15715.284   -3791.9404    -4230.451    76.080092 
   88100    449.91325   -108.03887   0.40709096   -107.63178    -2639.449    4.2370047    4.2370047    4.2370047    -2639.449    -4270.422    2021.2936   -5669.2184    19458.324    2571.0642     850.3733    76.063592 
   88200    906.52678   -108.44623   0.82024448   -107.62598   -4214.4765    4.2440274    4.2440274    4.2440274   -4214.4765    286.32917    2817.0936   -15746.852   -15431.148    8398.9689   -4363.3946    76.442441 
   88300    793.44548   -108.34444   0.71792615   -107.62651    10401.274    4.2336579    4.2336579    4.2336579    10401.274    18264.579    2912.8123     10026.43     19572.18   -5319.8998     -6074.14    75.883486 
   88400     576.3416   -108.15368   0.52148599   -107.63219   -15430.078    4.2449183    4.2449183    4.2449183   -15430.078   -25623.427   -10904.945   -9761.8608    24189.353    2921.3127    32.449573     76.49059 
   88500    904.24884   -108.44535   0.81818335   -107.62717    8012.7968    4.2353841    4.2353841    4.2353841    8012.7968    1790.9206    29027.556   -6780.0867    -10799.31    10521.284    1337.4296    75.976349 
   88600    933.64902   -108.47147   0.84478526   -107.62668    2152.2373    4.2375868    4.2375868    4.2375868    2152.2373    5661.2905   -8373.4869    9168.9084    19517.211   -4290.9282   -1489.4525    76.094945 
   88700    420.91204   -108.01291   0.38085006   -107.63206   -14275.057    4.2463151    4.2463151    4.2463151   -14275.057   -32041.682    320.70398   -11104.192    18687.351    3915.1119   -531.15731    76.566124 
   88800    704.00618   -108.26313   0.63699958   -107.62613    6067.8554    4.2307549    4.2307549    4.2307549    6067.8554   -3026.5738    36520.713   -15290.573   -3770.6466     7811.874    2992.8112    75.727495 
   88900    764.75727   -108.31718   0.69196845   -107.62521   -7132.6883    4.2439298    4.2439298    4.2439298   -7132.6883   -3389.9995   -7511.2886   -10496.777    9451.8246   -2105.2108   -2149.5016    76.437164 
   89000    476.38383   -108.06148    0.4310421   -107.63044   -13379.883     4.239822     4.239822     4.239822   -13379.883   -15154.743   -4624.7069     -20360.2    14797.839    5039.2024    209.00843    76.215424 
   89100    534.16493   -108.11325   0.48332366   -107.62992    5827.7624    4.2322206    4.2322206    4.2322206    5827.7624    4991.6424    32196.604   -19704.959   -2630.5765    9214.1453    1190.9087    75.806227 
   89200    897.78585   -108.43638   0.81233551   -107.62404   -8897.7575    4.2471243    4.2471243    4.2471243   -8897.7575   -5492.1842   -14859.953   -6341.1351   -1733.1066   -2051.2584   -1545.0713    76.609903 
   89300    708.61207    -108.2682    0.6411671   -107.62703    6849.8521    4.2328674    4.2328674    4.2328674    6849.8521    3094.5317    13526.278     3928.746    14592.621    6246.9439    1794.2044    75.840988 
   89400    617.70983   -108.18979   0.55891683   -107.63087    -3752.953    4.2388095    4.2388095    4.2388095    -3752.953    -10059.98    27102.485   -28301.364   -3397.0472    13794.846    -738.2969    76.160833 
   89500    860.69544   -108.40507   0.77877532   -107.62629   -2810.2518    4.2432097    4.2432097    4.2432097   -2810.2518   -9576.2732   -4662.6564    5808.1743   -4174.9341   -3445.0671    805.77815    76.398261 
   89600    853.80853   -108.39772    0.7725439   -107.62517      12955.2    4.2302942    4.2302942    4.2302942      12955.2    1540.4444    22021.977    15303.178    10296.061    4282.3125   -2269.1472    75.702758 
   89700    625.89264   -108.19545   0.56632082   -107.62913    -7738.706    4.2455383    4.2455383    4.2455383    -7738.706   -23428.039    28503.725   -28291.804    513.56649    16684.126    667.90081    76.524108 
   89800    784.72537   -108.33644   0.71003601   -107.62641    2492.8147     4.236021     4.236021     4.236021    2492.8147    -4426.082    11579.556    324.97005   -6476.7686   -4637.8058    3871.5088    76.010626 
   89900    672.63559   -108.23552   0.60861482   -107.62691    4437.4092    4.2336734    4.2336734    4.2336734    4437.4092   -2428.4807    18043.919   -2303.2104   -1865.8418    5282.6425   -4230.7901    75.884323 
   90000    598.32447    -108.1689   0.54137655   -107.62753   -17067.892    4.2465544    4.2465544    4.2465544   -17067.892   -22275.498    13923.277   -42851.456    7138.6501    23750.978    2751.2932    76.579068 
   90100     684.4122   -108.24474   0.61927054   -107.62547    12405.858    4.2312901    4.2312901    4.2312901    12405.858    9465.0345    9609.2178    18143.322   -14598.425   -5314.9561    2662.0571     75.75624 
   90200    631.24527    -108.1987   0.57116399   -107.62753   -2683.5384    4.2392633    4.2392633    4.2392633   -2683.5384   -7131.4106   -1717.6823    798.47757   -11143.918    5792.6941    554.16064    76.185298 
   90300    534.11825   -108.11194   0.48328142   -107.62866   -6594.2853    4.2429462    4.2429462    4.2429462   -6594.2853   -12460.696    15697.496   -23019.655    11785.764    27732.822    1067.4012    76.384029 
   90400    806.72548   -108.35472   0.72994216   -107.62477    5259.0779    4.2326529    4.2326529    4.2326529    5259.0779     -2472.06    9464.6827     8784.611   -14537.823   -3404.4399   -1282.9636    75.829461 
   90500     671.2992   -108.23492   0.60740562   -107.62752   -2995.3977    4.2411123    4.2411123    4.2411123   -2995.3977   -19110.189   -3388.3315    13512.327   -16720.488    385.93448    1772.9312    76.285031 
   90600    682.68155   -108.24663   0.61770461   -107.62892   -2861.1502    4.2384577    4.2384577    4.2384577   -2861.1502   -13650.023    20325.429   -15258.857    9407.5748    28105.002   -6016.8434    76.141874 
   90700     809.7481   -108.35949    0.7326771   -107.62681    4381.8959    4.2373372    4.2373372    4.2373372    4381.8959   -12948.982    9417.1878    16677.482   -9380.9226    1132.6456   -1100.0746    76.081503 
   90800     818.1321   -108.36779   0.74026312   -107.62752   -100.31764    4.2381997    4.2381997    4.2381997   -100.31764   -15100.266    951.75358    13847.559   -21416.537    -7749.932    396.58481    76.127971 
   90900     682.7328    -108.2462   0.61775098   -107.62845   -46.283943    4.2391637    4.2391637    4.2391637   -46.283943   -14176.375    18134.189   -4096.6653    7690.7263    32271.448    -47.43239    76.179929 
   91000    804.21357   -108.35327   0.72766934    -107.6256   -3530.2666    4.2420797    4.2420797    4.2420797   -3530.2666   -14634.187   -5757.2766     9800.664   -2533.5267    6861.4033   -821.55819    76.337241 
   91100    759.72849   -108.31245    0.6874183   -107.62504    8162.8955     4.233621     4.233621     4.233621    8162.8955   -655.50664    110.45881    25033.734   -23254.181   -7803.3791    617.76693    75.881503 
   91200    637.60039   -108.20475   0.57691423   -107.62783   -5310.3213     4.239533     4.239533     4.239533   -5310.3213   -10235.904      7349.43    -13044.49    6259.0476    27623.358    1366.7969    76.199839 
   91300    607.37479   -108.17622   0.54956548   -107.62666    -3550.618    4.2427534    4.2427534    4.2427534    -3550.618   -9091.1856   -6370.1403    4809.4719    4791.7444    7743.2125   -1356.0693    76.373622 
   91400     663.7265   -108.22471   0.60055369   -107.62415    4728.5326    4.2353019    4.2353019    4.2353019    4728.5326     151.4039   -4483.6376    18517.831   -21984.945   -6646.7307    2797.8181    75.971924 
   91500    512.15755   -108.09022   0.46341091   -107.62681   -2500.4852    4.2397544    4.2397544    4.2397544   -2500.4852   -13924.592    5147.7749    1275.3613    1182.3697    14417.571   -665.52228    76.211778 
   91600     625.8344   -108.19287   0.56626812   -107.62661   -1402.8817    4.2403861    4.2403861    4.2403861   -1402.8817   -8282.2553   -10147.492    14221.103    11393.754    8532.7362   -849.49787     76.24585 
   91700    776.47913   -108.32797   0.70257464    -107.6254    8216.3031    4.2354789    4.2354789    4.2354789    8216.3031    -4353.478    2459.2763    26543.111   -11860.523   -7575.3427   -1212.3412    75.981448 
   91800    731.86397   -108.28981    0.6622059    -107.6276   -1887.2583    4.2399354    4.2399354    4.2399354   -1887.2583   -16205.204    14292.049   -3748.6208   -3188.0832    3444.4031   -817.48707    76.221541 
   91900    752.67518   -108.30885   0.68103632   -107.62781   -37.726426    4.2401116    4.2401116    4.2401116   -37.726426   -8975.1984   -3852.4375    12714.457    21622.654    12516.856     1708.243    76.231043 
   92000    966.40503   -108.49908   0.87442358   -107.62466    5054.8081    4.2366241    4.2366241    4.2366241    5054.8081    604.27244   -7599.2169    22159.369    2473.1803   -8144.7445   -560.61396    76.043098 
   92100    764.36876   -108.31923   0.69161692   -107.62762   -148.42463    4.2386715    4.2386715    4.2386715   -148.42463   -9310.8932    12110.447    -3244.828   -8918.9912    1123.9514    2215.0724    76.153398 
   92200     591.0241   -108.16442   0.53477102   -107.62965   -6589.3156     4.239361     4.239361     4.239361   -6589.3156   -17717.584    -11553.56    9503.1974    21723.474    11949.382   -1210.8869    76.190565 
   92300    788.94048   -108.33953   0.71384993   -107.62568   -945.33608    4.2393145    4.2393145    4.2393145   -945.33608   -17057.314   -6694.3741     20915.68    10363.485   -4402.3897   -2322.6187    76.188056 
   92400    700.48035   -108.26061   0.63380934    -107.6268    1418.5167     4.234989     4.234989     4.234989    1418.5167   -13890.093    13995.474    4150.1687   -10962.942   -4434.3287    1756.1792    75.955088 
   92500    261.94259   -107.87034   0.23701116   -107.63333   -10806.555     4.241464     4.241464     4.241464   -10806.555   -31212.122   -18000.208    16792.666    28436.995    8315.0294   -377.01048    76.304007 
   92600    735.24261   -108.29403   0.66526297   -107.62876   -1762.7241    4.2400259    4.2400259    4.2400259   -1762.7241   -13021.077   -11972.808    19705.712    20397.599    3088.2115    2103.4235    76.226419 
   92700    886.49095   -108.42722   0.80211564    -107.6251    14975.478    4.2335369    4.2335369    4.2335369    14975.478    8655.8428    29211.979    7058.6135     -7244.59   -8322.9439   -405.20046    75.876981 
   92800    370.32696   -107.97008   0.33507961     -107.635   -13164.111    4.2436511    4.2436511    4.2436511   -13164.111   -33829.591   -14404.327    8741.5836    32944.896    6690.9665    3891.9735    76.422107 
   92900    798.30069   -108.35303   0.72231924   -107.63071    1435.5667    4.2390111    4.2390111    4.2390111    1435.5667   -11875.484    118.01374     16064.17    17257.281    7334.4508   -79.701139    76.171705 
   93000    1183.0789   -108.69382    1.0704747   -107.62334    10199.714    4.2345911    4.2345911    4.2345911    10199.714    3670.9111    17523.128    9405.1022   -10894.728   -7498.1296   -1837.3197    75.933678 
   93100    455.70254   -108.04688   0.41232924   -107.63455   -8902.6469    4.2420139    4.2420139    4.2420139   -8902.6469   -37384.234   -1453.4283    12129.721    33273.906    4556.1334    3894.2312    76.333689 
   93200    674.40932   -108.24179   0.61021973   -107.63157   -5129.4193    4.2401357    4.2401357    4.2401357   -5129.4193   -24343.423   -1757.8015    10712.967    12842.097    6269.7753   -1652.5199    76.232341 
   93300    981.25455   -108.51183   0.88785974   -107.62397    9840.8225    4.2361333    4.2361333    4.2361333    9840.8225   -4228.7384      15095.8    18655.406   -19030.727   -4767.6431    2251.3544    76.016673 
   93400    533.96392   -108.11398   0.48314178   -107.63084   -2437.7669    4.2381181    4.2381181    4.2381181   -2437.7669    -16370.17   -10280.986    19337.856    31639.634    2777.7135   -1748.5766    76.123573 
   93500     520.9083   -108.10225   0.47132878   -107.63092   -5025.9901    4.2423744    4.2423744    4.2423744   -5025.9901    -11806.22   -13959.467    10687.717    13007.019    6292.7602    1098.4829    76.353153 
   93600    887.60011   -108.42762   0.80311924    -107.6245    8690.9569    4.2351431    4.2351431    4.2351431    8690.9569    2738.6778   -32.631599    23366.824   -27611.086    2272.5769   -305.58651    75.963378 
   93700    688.89423   -108.25093   0.62332598    -107.6276    3313.5774    4.2360629    4.2360629    4.2360629    3313.5774    223.02859   -7671.0787    17388.782    26479.645    498.11541   -3755.7789    76.012885 
   93800    619.02363   -108.18779   0.56010559   -107.62768   -12907.556     4.244616     4.244616     4.244616   -12907.556   -20188.962   -13462.346   -5071.3604    14268.638    14036.144    2185.8517     76.47425 
   93900    726.57673   -108.28229   0.65742189   -107.62487    7089.7324    4.2340556    4.2340556    4.2340556    7089.7324    763.52848    2101.2713    18404.397   -31123.666    2806.1395   -5109.2888    75.904876 
   94000    667.73907   -108.23012   0.60418434   -107.62593    4322.8188    4.2369062    4.2369062    4.2369062    4322.8188   -1430.9675   -7295.8548    21695.279     20378.82   -3401.6782    3704.6345    76.058288 
   94100    580.70882   -108.15218   0.52543754   -107.62674   -7454.9278     4.242162     4.242162     4.242162   -7454.9278    -15780.32   -3645.3995    -2939.064    17722.317    14674.399    1496.2944    76.341688 
   94200    613.44272   -108.18161   0.55505586   -107.62656    -538.0254    4.2360624    4.2360624    4.2360624    -538.0254   -13221.881    4448.6783    7159.1263   -31477.816    2434.4098    535.28955    76.012857 
   94300    789.09644   -108.33962   0.71399104   -107.62563   -1303.5492     4.237636     4.237636     4.237636   -1303.5492   -16954.162   -10226.138    23269.653    11659.775   -2839.2032    3627.3129      76.0976 
   94400    791.91885   -108.34329   0.71654481   -107.62675    2436.5283    4.2372557    4.2372557    4.2372557    2436.5283   -11867.951    -1179.237    20356.773    18104.768    6884.6804   -2681.4129    76.077112 
   94500    696.58317   -108.25929   0.63028309   -107.62901   -5893.1274    4.2416097    4.2416097    4.2416097   -5893.1274   -17224.232   -8502.9635    8047.8131   -30522.992    8157.6038     2676.041    76.311874 
   94600    887.33786    -108.4286   0.80288194   -107.62571     2793.194    4.2363588    4.2363588    4.2363588     2793.194   -2189.1353   -10619.403     21188.12    3184.8315   -9116.0417   -4786.1473     76.02881 
   94700    815.98062   -108.36425   0.73831641   -107.62593     2858.038    4.2355457    4.2355457    4.2355457     2858.038   -1128.2264   -1083.4234    10785.764    17857.047    7956.8287   -13.605969    75.985041 
   94800    519.24809   -108.09941   0.46982658   -107.62958    -17092.44    4.2441898    4.2441898    4.2441898    -17092.44    -29862.91   -8402.5196    -13011.89   -25506.987    18839.897   -2084.0876    76.451217 
   94900    657.42252   -108.22066   0.59484971   -107.62581    4312.4845    4.2347062    4.2347062    4.2347062    4312.4845   -9972.3417    2993.1303    19916.665   -2867.5134   -16837.378   -3395.6596     75.93987 
   95000    726.76772   -108.28206   0.65759471   -107.62446   -948.30405    4.2372374    4.2372374    4.2372374   -948.30405   -6785.6029    4350.3877   -409.69702    14670.371    12094.805    4379.1361    76.076127 
   95100    393.00292   -107.98525    0.3555973   -107.62965   -16566.498    4.2423814    4.2423814    4.2423814   -16566.498   -28480.896   -42.172834   -21176.426   -21611.104    22851.297   -3318.9308    76.353533 
   95200    679.66265   -108.24232   0.61497305   -107.62735    1491.4401    4.2346357    4.2346357    4.2346357    1491.4401    -2563.263    7784.6612   -747.07789   -8235.0021   -18246.006    2388.8132    75.936077 
   95300    902.66397   -108.44106   0.81674933   -107.62431    4538.0177    4.2400375    4.2400375    4.2400375    4538.0177   -322.49026    2098.4196    11838.124     9339.501    1653.2195   -1274.8551    76.227048 
   95400    696.31984   -108.25924   0.63004483   -107.62919   -312.33282    4.2370812    4.2370812    4.2370812   -312.33282   -9201.8574     4298.612    3966.2469   -16539.049    24222.164    1394.7626    76.067711 
   95500     720.8327   -108.28222   0.65222457      -107.63    2734.6528    4.2388697    4.2388697    4.2388697    2734.6528   -12733.216    5434.9055    15502.269     -8899.89   -19219.367   -2774.4799    76.164079 
   95600    977.72521   -108.50885   0.88466632   -107.62419    1912.1807    4.2400474    4.2400474    4.2400474    1912.1807   -2061.5872    7909.7108   -111.58156     5946.745    -11009.14   -6216.9612     76.22758 
   95700    624.01712   -108.19214    0.5646238   -107.62752    8396.2564    4.2322306    4.2322306    4.2322306    8396.2564   -2793.6715    18142.846    9839.5945   -8135.9912    29826.657    3189.3053    75.806764 
   95800     456.0456   -108.04358   0.41263964   -107.63094   -8393.0434    4.2433491    4.2433491    4.2433491   -8393.0434   -22337.049     5439.978   -8282.0594   -12502.488   -19171.734   -4214.1523    76.405792 
   95900    742.06045   -108.29649   0.67143189   -107.62506    9136.1543    4.2377612    4.2377612    4.2377612    9136.1543    11211.742    14590.059    1606.6618    4736.5984   -15636.904    2901.5589    76.104345 
   96000    720.61151   -108.27746   0.65202444   -107.62544    6821.7681    4.2330974    4.2330974    4.2330974    6821.7681   -2404.5733    20889.915    1979.9628   -5060.8676    26698.811    2060.1227    75.853353 
   96100     515.8972   -108.09662   0.46679463   -107.62982   -14140.843    4.2444739    4.2444739    4.2444739   -14140.843   -27613.979    581.81878   -15390.369   -19677.043   -14321.083   -1436.6856    76.466566 
   96200    868.20276   -108.41121    0.7855681   -107.62564    6729.7192    4.2369985    4.2369985    4.2369985    6729.7192     2949.212    13054.797    4185.1489    1827.6926   -19350.741    4288.2668    76.063259 
   96300    919.38271   -108.45587    0.8318768   -107.62399    6125.3357     4.235568     4.235568     4.235568    6125.3357    4369.9195    1640.8346    12365.253   -5239.8206    21325.634   -3795.0016    75.986244 
   96400    477.64319   -108.06227   0.43218159   -107.63009   -9678.3753    4.2420995    4.2420995    4.2420995   -9678.3753   -14473.491   -11294.445   -3267.1907   -19633.201   -7755.6868    296.98292    76.338314 
   96500    738.17746   -108.29461   0.66791848   -107.62669   -1594.6235    4.2376226    4.2376226    4.2376226   -1594.6235    885.05265   -4922.9328   -745.99035    3357.7156   -25313.474   -5775.1056    76.096877 
   96600     808.1173   -108.35519   0.73120151   -107.62399    1785.5736    4.2372414    4.2372414    4.2372414    1785.5736   -3412.6327    2780.3216    5989.0318    2759.4382    17645.309   -385.44395    76.076342 
   96700      483.088   -108.06636   0.43710817   -107.62925   -13716.866    4.2407665    4.2407665    4.2407665   -13716.866   -30708.398   -4770.8485   -5671.3524   -18177.731   -10680.336    1870.8967     76.26637 
   96800    672.29998   -108.23522   0.60831115   -107.62691   -4123.8965    4.2398165    4.2398165    4.2398165   -4123.8965   -15248.143    4070.1324   -1193.6787    2822.2857   -24829.618   -5118.8117    76.215127 
   96900    894.53561   -108.43227   0.80939462   -107.62287    2966.9418    4.2366486    4.2366486    4.2366486    2966.9418     1150.774   -2359.2691     10109.32     10549.41     13640.56    5388.2084    76.044415 
   97000    594.56056    -108.1663   0.53797089   -107.62833   -2481.6473    4.2393159    4.2393159    4.2393159   -2481.6473   -12359.942    451.12196    4463.8784   -25977.173    -5712.271    58.129515    76.188135 
   97100    770.28912   -108.32378   0.69697378   -107.62681   -2663.9721    4.2411403    4.2411403    4.2411403   -2663.9721    -8043.364    3118.4937   -3067.0459   -3577.7862   -16493.503    3778.3961    76.286542 
   97200    813.00445   -108.35971   0.73562351   -107.62409    10608.951    4.2361195    4.2361195    4.2361195    10608.951     8609.902    1473.8982    21743.053    17900.761    6425.0902    2868.8472    76.015927 
   97300    586.95394    -108.1586   0.53108826   -107.62752   -6620.9848    4.2408435    4.2408435    4.2408435   -6620.9848   -16563.385   -15035.177    11735.608   -24309.659    149.93294   -1331.4071    76.270526 
   97400    646.55187   -108.20996   0.58501372   -107.62494   -2550.5259     4.239944     4.239944     4.239944   -2550.5259   -5135.9714   -8832.3189    6316.7127   -4920.8447   -18080.956     1780.685    76.222006 
   97500     695.7449   -108.25367   0.62952461   -107.62414    1724.0695    4.2360177    4.2360177    4.2360177    1724.0695    2372.7491   -15596.574    18396.033    24379.516   -457.40655    -2770.614    76.010448 
   97600    465.96065   -108.04962   0.42161099   -107.62801   -6529.1509    4.2411076    4.2411076    4.2411076   -6529.1509    -17371.65   -13709.247    11493.445   -20396.239   -143.32092    1976.6287    76.284776 
   97700    783.88282   -108.33383   0.70927365   -107.62455   -2554.3551    4.2399926    4.2399926    4.2399926   -2554.3551   -4655.1743   -3802.3908     794.4999   -12188.085   -15874.326   -3469.0253    76.224624 
   97800    835.30231   -108.37917   0.75579908   -107.62337     2721.579    4.2385712    4.2385712    4.2385712     2721.579    1246.0947   -6460.9417    13379.584    25510.084    3391.5602   -406.27367    76.147992 
   97900    652.37055   -108.21812   0.59027858   -107.62784   -7041.1882     4.238298     4.238298     4.238298   -7041.1882   -20413.044   -10624.206     9913.685   -18425.601    1572.4174    980.66705     76.13327 
   98000    869.02545   -108.41252   0.78631249   -107.62621    3079.1743    4.2380418    4.2380418    4.2380418    3079.1743    5729.3814    3912.8392   -404.69783   -14860.886   -4024.6288    56.613284    76.119463 
   98100    853.78775   -108.39727    0.7725251   -107.62474   -2499.7912    4.2427011    4.2427011    4.2427011   -2499.7912    -3003.863   -10427.779    5932.2678    28381.498    752.40073    4076.8062    76.370797 
   98200    500.16612   -108.08083   0.45256082   -107.62827   -2645.2494     4.235383     4.235383     4.235383   -2645.2494   -3595.9696   -24893.014    20553.236   -19727.208    3399.4427   -2060.6867    75.976286 
   98300    680.79499   -108.24223   0.61599762   -107.62623    -3487.167     4.239636     4.239636     4.239636    -3487.167    6590.6033   -24434.077    7381.9731   -19588.217    -1500.754    1914.2176    76.205396 
   98400    767.21855   -108.31775   0.69419547   -107.62355   -5393.4329    4.2414411    4.2414411    4.2414411   -5393.4329   -738.28522    -23105.39    7663.3761    24904.223   -7954.4254   -846.51048    76.302772 
   98500    378.41346   -107.97157   0.34239645   -107.62918   -1329.6778    4.2355918    4.2355918    4.2355918   -1329.6778   -15545.712   -15353.703    26910.382   -19002.466    4493.8176   -177.52972    75.987522 
   98600    743.54548   -108.30038   0.67277558    -107.6276   -1715.7931    4.2408849    4.2408849    4.2408849   -1715.7931   -5368.5059   -5873.6648    6094.7914   -19863.502   -1048.4732   -1021.6235    76.272758 
   98700    938.68694   -108.47232   0.84934367   -107.62298     7144.679    4.2402362    4.2402362    4.2402362     7144.679    15542.414    2570.4399    3321.1826    23204.727   -4525.1598   -4360.7115    76.237763 
   98800    561.07363   -108.13757   0.50767121    -107.6299   -4499.5761    4.2381927    4.2381927    4.2381927   -4499.5761   -10928.835     -24742.6    22172.706   -20471.666    3775.0442    105.62767    76.127595 
   98900    858.60153   -108.40469    0.7768807   -107.62781    262.23679    4.2384496    4.2384496    4.2384496    262.23679    5248.5143   -14262.707    9800.9029    -24390.55    1177.8015   -1792.5499    76.141439 
   99000    1049.9331   -108.57327   0.95000155   -107.62327    6859.6492    4.2389459    4.2389459    4.2389459    6859.6492     20333.42    -3510.622      3756.15    14440.294    4965.9537    2648.6612    76.168185 
   99100    348.72158   -107.94854   0.31553061   -107.63301   -13506.774    4.2423608    4.2423608    4.2423608   -13506.774   -23258.634   -41705.452    24443.763   -20881.488   -1708.1698    986.36449    76.352419 
   99200    548.67405   -108.12706   0.49645181   -107.63061    2389.7549    4.2349088    4.2349088    4.2349088    2389.7549    1463.5541   -13533.977    19239.687   -18270.662    4251.6982    1429.9602     75.95077 
   99300    903.52739    -108.4412   0.81753057   -107.62367    5970.9074    4.2401344    4.2401344    4.2401344    5970.9074     20742.19    -4315.365    1485.8975    10078.976    4232.5324    2815.4479    76.232272 
   99400    264.36845   -107.87339   0.23920613   -107.63418    -12355.45    4.2432233    4.2432233    4.2432233    -12355.45   -24986.356   -35887.623    23807.629   -25181.837   -4817.8603    1299.8225    76.398998 
   99500    652.33637    -108.2217   0.59024765   -107.63145    1459.8011    4.2333885    4.2333885    4.2333885    1459.8011   -1077.6598   -15265.306    20722.369   -13414.552    7541.6919     2878.124    75.869002 
   99600    1177.9221   -108.68908    1.0658087   -107.62327    2483.6837    4.2420411    4.2420411    4.2420411    2483.6837    18285.698    -5149.427   -5685.2193     3397.028    633.89466   -2364.4336    76.335161 
   99700    554.18845   -108.13514   0.50144136    -107.6337   -9443.3412    4.2410972    4.2410972    4.2410972   -9443.3412   -8377.5861   -34162.666    14210.229   -29644.009   -2427.5628   -1730.7536    76.284213 
   99800    620.68997   -108.19398   0.56161333   -107.63237    2086.4984    4.2349824    4.2349824    4.2349824    2086.4984    5152.5009    -12052.63    13159.624    3292.8282    5101.5445   -2841.1911    75.954732 
   99900    1059.9285    -108.5826   0.95904558   -107.62356    5768.2297    4.2413123    4.2413123    4.2413123    5768.2297    11761.297    9018.3678   -3474.9755    6654.3954   -408.22034   -1117.2063     76.29582 
  100000    451.42462   -108.04037   0.40845848   -107.63191   -643.41367     4.239858     4.239858     4.239858   -643.41367   -9616.8412   -13343.274    21029.875   -33470.024   -1241.9749   -2110.2879    76.217363 
Loop time of 22.3533 on 1 procs for 100000 steps with 8 atoms

Pair  time (%) = 7.35548 (32.9056)
Kspce time (%) = 5.27643 (23.6047)
Neigh time (%) = 0 (0)
Comm  time (%) = 1.07802 (4.82262)
Outpt time (%) = 0.0255685 (0.114383)
Other time (%) = 8.61783 (38.5528)

Nlocal:    8 ave 8 max 8 min
Histogram: 1 0 0 0 0 0 0 0 0 0
Nghost:    2189 ave 2189 max 2189 min
Histogram: 1 0 0 0 0 0 0 0 0 0
Neighs:    2472 ave 2472 max 2472 min
Histogram: 1 0 0 0 0 0 0 0 0 0

Total # of neighbors = 2472
Ave neighs/atom = 309
Neighbor list builds = 0
Dangerous builds = 0
unfix 20
unfix 21
print "seeds:5112657"
seeds:5112657
