LAMMPS (16 Mar 2018)
# ---- initialize simulations
clear
units metal
dimension 3
boundary p p p
atom_style charge
atom_modify map array
# ---- create atoms
read_data /home/manuelesp/repos/pypospack/dev/MgO_iterative_sampler/rank_7/MgO_NaCl_sch.lmps_min_pos/lammps.structure
  triclinic box = (0 0 0) to (12.7919 12.7919 12.7919) with tilt (0 0 0)
  1 by 1 by 1 MPI processor grid
  reading atoms ...
  214 atoms
# ---- define interatomic potential
include potential.mod
mass 1 24.305
mass 2 15.999

group Mg type 1
107 atoms in group Mg
group O type 2
107 atoms in group O

set group Mg charge 1.9179406879711596
  107 settings made for charge
set group O charge -1.9179406879711596
  107 settings made for charge

variable R_cut equal 10.0

pair_style buck/coul/long ${R_cut}
pair_style buck/coul/long 10
pair_coeff 1 1 0.0 0.5 0.0 ${R_cut}
pair_coeff 1 1 0.0 0.5 0.0 10
pair_coeff 1 2 810.4136342137181 0.29896087357084233 0.0 ${R_cut}
pair_coeff 1 2 810.4136342137181 0.29896087357084233 0.0 10
pair_coeff 2 2 4888.921747208894 0.3126294278687661 51.00665792627922 ${R_cut}
pair_coeff 2 2 4888.921747208894 0.3126294278687661 51.00665792627922 10

kspace_style pppm 1.0e-5

neighbor 1.0 bin
neigh_modify every 1 delay 0 check yes
# ---- define settings
compute eng all pe/atom
compute eatoms all reduce sum c_eng

# ---- run minimization
reset_timestep 0
thermo 1
thermo_style custom step pe lx ly lz xy xz yz press pxx pyy pzz pxy pxz pyz c_eatoms
min_style cg
minimize 1e-20 1e-20 1000 100000
PPPM initialization ...
  using 12-bit tables for long-range coulomb (../kspace.cpp:321)
  G vector (1/distance) = 0.344998
  grid = 20 20 20
  stencil order = 5
  estimated absolute RMS force accuracy = 0.000102442
  estimated relative force accuracy = 7.11423e-06
  using double precision FFTs
  3d grid and FFT values/proc = 19683 8000
Neighbor list info ...
  update every 1 steps, delay 0 steps, check yes
  max neighbors/atom: 2000, page size: 100000
  master list distance cutoff = 11
  ghost atom cutoff = 11
  binsize = 5.5, bins = 3 3 3
  1 neighbor lists, perpetual/occasional/extra = 1 0 0
  (1) pair buck/coul/long, perpetual
      attributes: half, newton on
      pair build: half/bin/newton/tri
      stencil: half/bin/3d/newton/tri
      bin: standard
Per MPI rank memory allocation (min/avg/max) = 7.314 | 7.314 | 7.314 Mbytes
Step PotEng Lx Ly Lz Xy Xz Yz Press Pxx Pyy Pzz Pxy Pxz Pyz c_eatoms 
       0    -4043.631      12.7919      12.7919      12.7919            0            0            0    8755.7816    9180.3411    9180.3411    7906.6627   -386.64888  0.015759623  0.015759623    -4043.631 
       1   -4064.2683      12.7919      12.7919      12.7919            0            0            0    7828.8502    7868.6156    7868.6156    7749.3195    82.387345 -0.00092476023 -0.00092476008   -4064.2683 
       2   -4068.5102      12.7919      12.7919      12.7919            0            0            0    12575.533    12569.314    12569.314    12587.973    290.95881 -0.014192279 -0.014192279   -4068.5102 
       3   -4069.4073      12.7919      12.7919      12.7919            0            0            0     13418.66     13439.68     13439.68    13376.621    118.18486 0.0010607363 0.0010607374   -4069.4073 
       4   -4069.9749      12.7919      12.7919      12.7919            0            0            0    15648.373    15581.641    15581.641    15781.836    77.049341 -0.013779361  -0.01377936   -4069.9749 
       5   -4070.3239      12.7919      12.7919      12.7919            0            0            0    17990.934    17849.311    17849.311    18274.181   -163.07613 -0.0053043716 -0.005304372   -4070.3239 
       6   -4070.5092      12.7919      12.7919      12.7919            0            0            0    19521.399      19351.8      19351.8    19860.597   -370.92724  0.003631267  0.003631267   -4070.5092 
       7    -4070.623      12.7919      12.7919      12.7919            0            0            0    20624.648    20410.102    20410.102     21053.74   -387.32116 0.0026642963  0.002664296    -4070.623 
       8   -4070.6903      12.7919      12.7919      12.7919            0            0            0    21168.904    20913.745    20913.745    21679.223   -592.95823 -0.0090129439 -0.009012943   -4070.6903 
       9   -4070.7573      12.7919      12.7919      12.7919            0            0            0    22270.185    21974.804    21974.804    22860.948   -680.07001 0.0081783234 0.0081783228   -4070.7573 
      10   -4070.8023      12.7919      12.7919      12.7919            0            0            0    22906.054    22530.896    22530.896    23656.372   -796.23728   -0.0193611   -0.0193611   -4070.8023 
      11   -4070.8247      12.7919      12.7919      12.7919            0            0            0    23455.582    23105.806    23105.806    24155.134    -879.7966 -0.0076484726 -0.0076484735   -4070.8247 
      12   -4070.8343      12.7919      12.7919      12.7919            0            0            0    23636.307    23304.042    23304.042    24300.836   -916.54594 0.00069644473 0.0006964449   -4070.8343 
      13   -4070.8473      12.7919      12.7919      12.7919            0            0            0      24010.7    23705.439    23705.439    24621.223   -943.39666 0.0033065477 0.0033065476   -4070.8473 
      14   -4070.8569      12.7919      12.7919      12.7919            0            0            0     24461.42    24187.045    24187.045    25010.171   -924.40798 0.0093285405 0.0093285397   -4070.8569 
      15   -4070.8724      12.7919      12.7919      12.7919            0            0            0    25168.529    24899.807    24899.807    25705.973   -895.56418 0.0082605373 0.0082605371   -4070.8724 
      16   -4070.8925      12.7919      12.7919      12.7919            0            0            0    26221.426    26020.723    26020.723    26622.832   -907.02402 -0.020379183 -0.020379593   -4070.8925 
      17   -4070.9092      12.7919      12.7919      12.7919            0            0            0     27153.51    27046.471    27046.471    27367.589   -943.87773 -0.027502348 -0.027481572   -4070.9092 
      18    -4070.947      12.7919      12.7919      12.7919            0            0            0    29289.057    29424.885    29424.885    29017.401   -852.31889 -0.052757757 -0.052947814    -4070.947 
      19   -4070.9853      12.7919      12.7919      12.7919            0            0            0    31512.448    31933.947    31933.948    30669.448   -761.97071  -0.04787683 -0.048782375   -4070.9853 
      20   -4071.0471      12.7919      12.7919      12.7919            0            0            0    35941.834    36976.081    36976.077    33873.343   -659.96075 -0.078867827 -0.078823068   -4071.0471 
      21   -4071.1207      12.7919      12.7919      12.7919            0            0            0    40421.807    42047.598    42047.598    37170.227   -379.20291  -0.11837005   -0.1211654   -4071.1207 
      22   -4071.2207      12.7919      12.7919      12.7919            0            0            0    45870.836    47859.723    47859.725    41893.061    101.85971 -0.097788201 -0.086733395   -4071.2207 
      23   -4071.3194      12.7919      12.7919      12.7919            0            0            0     51410.99    53692.505    53692.507     46847.96     755.2521 -0.088290461 -0.085316673   -4071.3194 
      24   -4071.4235      12.7919      12.7919      12.7919            0            0            0     55654.01    58145.498    58145.503     50671.03    1377.7106  -0.18037361  -0.17970233   -4071.4235 
      25   -4071.5253      12.7919      12.7919      12.7919            0            0            0    60239.076    62928.517    62928.537    54860.176    1880.3871  -0.22196752  -0.23087341   -4071.5253 
      26   -4071.6373      12.7919      12.7919      12.7919            0            0            0     65100.44    67976.577    67976.586    59348.158    3198.6746  -0.31832832  -0.31094378   -4071.6373 
      27   -4071.7306      12.7919      12.7919      12.7919            0            0            0     68643.56    71637.435     71637.44    62655.804    3911.4588  -0.47053293  -0.47253013   -4071.7306 
      28   -4071.8618      12.7919      12.7919      12.7919            0            0            0    73668.291     76955.88    76955.865    67093.128    5183.5275  -0.79199658  -0.78800845   -4071.8618 
      29   -4071.9689      12.7919      12.7919      12.7919            0            0            0    77672.216    81353.376    81353.361     70309.91    6082.1139   -1.0478064   -1.0489047   -4071.9689 
      30   -4072.0813      12.7919      12.7919      12.7919            0            0            0    81799.238     86028.32    86028.302    73341.091    7251.3497   -1.7414876    -1.736283   -4072.0813 
      31   -4072.1794      12.7919      12.7919      12.7919            0            0            0    84505.377    89235.301    89235.272    75045.558    7782.9139   -2.3282837   -2.3327895   -4072.1794 
      32   -4072.2654      12.7919      12.7919      12.7919            0            0            0    86526.461    91673.057    91673.049    76233.278    8604.6329   -3.1521959   -3.1575351   -4072.2654 
      33    -4072.368      12.7919      12.7919      12.7919            0            0            0    88563.591    94330.898    94330.896    77028.978    9435.4694   -4.4880975   -4.4769212    -4072.368 
      34   -4072.4796      12.7919      12.7919      12.7919            0            0            0    90686.836    97216.861    97216.858    77626.789    10195.307    -6.868417   -6.8719618   -4072.4796 
      35   -4072.6165      12.7919      12.7919      12.7919            0            0            0    93288.767    100669.07    100669.06    78528.175    10673.645   -10.669065   -10.659387   -4072.6165 
      36     -4072.83      12.7919      12.7919      12.7919            0            0            0    97854.535    106524.95    106524.95    80513.706    11919.629   -16.765353   -16.758327     -4072.83 
      37   -4073.1686      12.7919      12.7919      12.7919            0            0            0    100868.22     110137.4    110137.41    82329.845    12819.507   -23.336851   -23.315855   -4073.1686 
      38   -4073.5131      12.7919      12.7919      12.7919            0            0            0    105155.07    114792.31    114792.31    85880.593    14004.239   -30.626676   -30.585819   -4073.5131 
      39   -4073.7844      12.7919      12.7919      12.7919            0            0            0    108872.92     118099.1    118099.16    90420.507    14530.863   -36.217772   -36.170827   -4073.7844 
      40   -4074.1161      12.7919      12.7919      12.7919            0            0            0    112662.55     121365.4    121365.43    95256.824    15965.134   -42.527314    -42.47114   -4074.1161 
      41   -4074.3527      12.7919      12.7919      12.7919            0            0            0    115454.46    123340.16    123340.22    99683.013    16684.907   -45.357394   -45.275358   -4074.3527 
      42   -4074.5595      12.7919      12.7919      12.7919            0            0            0    117953.69    125534.95    125534.95    102791.17     17594.31   -50.910778   -50.817618   -4074.5595 
      43   -4074.7395      12.7919      12.7919      12.7919            0            0            0    120328.55    127559.61    127559.64    105866.41    17972.322   -55.388987   -55.273347   -4074.7395 
      44   -4074.9213      12.7919      12.7919      12.7919            0            0            0    122662.82    129783.94    129783.94    108420.58    18591.447   -63.411968   -63.255516   -4074.9213 
      45   -4075.0797      12.7919      12.7919      12.7919            0            0            0    124587.54    131715.34    131715.41    110331.87    18187.905   -69.352722    -69.15639   -4075.0797 
      46   -4075.2388      12.7919      12.7919      12.7919            0            0            0    126082.52     133547.5    133547.55     111152.5    18236.412   -77.621586   -77.370519   -4075.2388 
      47   -4075.4401      12.7919      12.7919      12.7919            0            0            0    127836.45    135743.45    135743.57    112022.33    17865.524   -86.136823   -85.816755   -4075.4401 
      48   -4075.6327      12.7919      12.7919      12.7919            0            0            0    129808.82    138519.66    138519.79       112387    17600.209   -96.179012   -95.768556   -4075.6327 
      49   -4075.8058      12.7919      12.7919      12.7919            0            0            0    131964.56    141355.41    141355.53    113182.74    17421.847   -107.89147   -107.39141   -4075.8058 
      50   -4075.9584      12.7919      12.7919      12.7919            0            0            0    133186.34    143133.38    143133.62    113292.01    17392.921    -123.8267   -123.21754   -4075.9584 
      51   -4076.1211      12.7919      12.7919      12.7919            0            0            0    134640.47    145067.18    145067.27    113786.96    17426.583    -143.7551   -143.03818   -4076.1211 
      52    -4076.248      12.7919      12.7919      12.7919            0            0            0    135296.14    146013.48     146013.7    113861.23    18315.005   -171.90421   -171.03568    -4076.248 
      53   -4076.3718      12.7919      12.7919      12.7919            0            0            0    135891.61    146726.55    146726.66    114221.63    19330.974   -217.08508   -216.05127   -4076.3718 
      54   -4076.4963      12.7919      12.7919      12.7919            0            0            0    137091.39    148202.44    148202.43    114869.29    20620.314   -293.08027   -291.80404   -4076.4963 
      55   -4076.6665      12.7919      12.7919      12.7919            0            0            0    139905.26     151688.6    151689.02    116338.17    21829.808    -426.8177   -425.21243   -4076.6665 
      56   -4076.8497      12.7919      12.7919      12.7919            0            0            0    144179.32    156851.88    156851.21    118834.86    23419.507    -626.8357   -624.73403   -4076.8497 
      57   -4077.0568      12.7919      12.7919      12.7919            0            0            0    149684.33    163484.22    163485.53    122083.24    25122.623     -917.347   -914.76082   -4077.0568 
      58   -4077.2241      12.7919      12.7919      12.7919            0            0            0     154679.5    169706.31    169705.12    124627.06    26637.672   -1231.8572   -1228.4719   -4077.2241 
      59   -4077.4096      12.7919      12.7919      12.7919            0            0            0    157366.22    173324.25     173326.8    125447.63     28157.46   -1602.1521   -1598.2064   -4077.4096 
      60   -4077.5209      12.7919      12.7919      12.7919            0            0            0    158853.62    175334.92    175333.31    125892.62    29175.272   -1924.8519    -1920.139   -4077.5209 
      61   -4077.6247      12.7919      12.7919      12.7919            0            0            0    159017.48    175547.98    175549.46    125955.01    30167.296    -2389.586   -2384.0828   -4077.6247 
      62   -4077.7146      12.7919      12.7919      12.7919            0            0            0    159013.07    175437.75    175434.72    126166.74     31069.73   -2974.5945   -2967.8746   -4077.7146 
      63   -4077.7976      12.7919      12.7919      12.7919            0            0            0    158787.48    174875.11    174875.97    126611.37    32148.624    -3669.334   -3661.5546   -4077.7976 
      64   -4077.8879      12.7919      12.7919      12.7919            0            0            0    158627.17    174207.65    174202.96     127470.9    33299.129   -4684.7718   -4675.2969   -4077.8879 
      65   -4078.0219      12.7919      12.7919      12.7919            0            0            0    158678.84    173149.03    173148.59    129738.88    34737.647   -6444.0208   -6432.4178   -4078.0219 
      66   -4078.1828      12.7919      12.7919      12.7919            0            0            0    160382.74    173633.96    173625.23    133889.03    35956.202   -8529.5538    -8515.206   -4078.1828 
      67   -4078.4145      12.7919      12.7919      12.7919            0            0            0    164644.44       176355     176347.9    141230.43    36852.529   -11249.893   -11232.482   -4078.4145 
      68   -4078.6461      12.7919      12.7919      12.7919            0            0            0    170917.99    181399.55    181382.32    149972.09     37165.27   -13662.278   -13642.126   -4078.6461 
      69    -4078.949      12.7919      12.7919      12.7919            0            0            0    180638.39    189617.58       189604    162693.58    37738.874    -16522.91   -16498.494    -4078.949 
      70   -4079.2928      12.7919      12.7919      12.7919            0            0            0    191811.06    199883.45    199857.24    175692.49    38296.646   -19296.631   -19271.789   -4079.2928 
      71   -4079.6759      12.7919      12.7919      12.7919            0            0            0    204179.93    211393.74    211374.63    189771.42     39168.11   -21837.083   -21807.857   -4079.6759 
      72   -4080.0842      12.7919      12.7919      12.7919            0            0            0    214221.84    221930.84    221899.42    198835.27     39708.88   -23855.006   -23829.424   -4080.0842 
      73   -4080.4112      12.7919      12.7919      12.7919            0            0            0     221723.4     230407.1    230394.81    204368.29    40368.205   -25445.328   -25414.768   -4080.4112 
      74    -4080.761      12.7919      12.7919      12.7919            0            0            0    229975.58    240539.43    240517.76    208869.55    40919.423   -27291.745   -27268.766    -4080.761 
      75   -4081.1376      12.7919      12.7919      12.7919            0            0            0     239985.1    252146.11    252146.65    215662.53    41684.781   -29342.106   -29314.821   -4081.1376 
      76   -4081.5644      12.7919      12.7919      12.7919            0            0            0    252472.54    265132.89    265109.46    227175.26    42488.173    -31268.48   -31251.345   -4081.5644 
      77   -4082.1939      12.7919      12.7919      12.7919            0            0            0    267438.92    278256.48    278241.38     245818.9    43746.881   -32718.756   -32702.766   -4082.1939 
      78   -4083.4945      12.7919      12.7919      12.7919            0            0            0    282087.08     289667.6    289660.27    266933.37    44267.546   -33334.335    -33324.58   -4083.4945 
      79   -4085.0573      12.7919      12.7919      12.7919            0            0            0    294617.13    300417.78    300444.46    282989.16    43433.884   -34232.796   -34225.403   -4085.0573 
      80   -4087.0691      12.7919      12.7919      12.7919            0            0            0    305582.51    309995.17    310050.51    296701.86    41466.047   -34282.093   -34271.303   -4087.0691 
      81   -4088.0206      12.7919      12.7919      12.7919            0            0            0    308800.02    314043.77    314064.15    298292.15    39647.902   -34710.121    -34694.44   -4088.0206 
      82   -4090.4169      12.7919      12.7919      12.7919            0            0            0    317297.02    323875.94    323846.75    304168.36     35090.94   -35265.568   -35256.665   -4090.4169 
      83    -4093.043      12.7919      12.7919      12.7919            0            0            0     322218.7    328022.18    328013.02     310620.9    33008.961   -34199.412   -34202.264    -4093.043 
      84   -4096.7608      12.7919      12.7919      12.7919            0            0            0    326362.75    330181.37    330176.05    318730.84    30690.255   -31598.414   -31603.622   -4096.7608 
      85    -4099.018      12.7919      12.7919      12.7919            0            0            0       328524     331115.2    331102.99    323353.82    28357.544   -29573.094    -29565.94    -4099.018 
      86   -4104.0767      12.7919      12.7919      12.7919            0            0            0    331624.88    332134.24    332156.34    330584.06    23356.208   -25294.228   -25274.885   -4104.0767 
      87   -4108.1152      12.7919      12.7919      12.7919            0            0            0    331806.89    332034.24    332051.69    331334.74    21914.961   -23593.255   -23595.412   -4108.1152 
      88   -4112.8493      12.7919      12.7919      12.7919            0            0            0     333055.5    333122.81    333109.72    332933.98    19289.572   -22045.753   -22074.452   -4112.8493 
      89   -4116.6762      12.7919      12.7919      12.7919            0            0            0    332245.18    332014.63    332026.21    332694.71     17627.31   -20932.794   -20944.705   -4116.6762 
      90   -4120.2195      12.7919      12.7919      12.7919            0            0            0    332422.45    332810.42    332802.09    331654.84    13453.645   -14838.675   -14812.057   -4120.2195 
      91   -4123.8401      12.7919      12.7919      12.7919            0            0            0    329788.27    330477.43    330482.67    328404.72    9865.4967   -9419.8938   -9405.9258   -4123.8401 
      92   -4127.3592      12.7919      12.7919      12.7919            0            0            0    323666.58    324581.75    324600.44    321817.54    4803.6624   -3427.3962   -3430.0272   -4127.3592 
      93    -4130.694      12.7919      12.7919      12.7919            0            0            0    318341.68    320088.33    320091.83    314844.89    495.26362    1252.0391    1246.1672    -4130.694 
      94   -4133.1308      12.7919      12.7919      12.7919            0            0            0    315647.59    317363.17    317363.05    312216.55   -1777.8697    3806.7287    3810.0057   -4133.1308 
      95   -4135.5271      12.7919      12.7919      12.7919            0            0            0    312741.57    314517.37    314525.83    309181.51   -2302.6704    3970.6108    3979.9202   -4135.5271 
      96   -4137.1834      12.7919      12.7919      12.7919            0            0            0    311967.78    313713.35     313711.2    308478.77   -1117.3849    3224.0252    3222.7618   -4137.1834 
      97   -4138.0621      12.7919      12.7919      12.7919            0            0            0    312447.81    314277.29    314281.24    308784.91    545.47521    1121.3882     1123.229   -4138.0621 
      98   -4138.4423      12.7919      12.7919      12.7919            0            0            0    313302.21    315227.64    315224.88     309454.1     1839.315   -323.85547    -321.1103   -4138.4423 
      99   -4138.8032      12.7919      12.7919      12.7919            0            0            0    312891.05    314749.52    314747.72    309175.91    971.20295    378.04469    378.64733   -4138.8032 
     100   -4138.9635      12.7919      12.7919      12.7919            0            0            0    313014.47    314901.03    314900.55    309241.84    998.31887    376.75437    377.81052   -4138.9635 
     101   -4139.0782      12.7919      12.7919      12.7919            0            0            0    313216.49    315111.23    315109.55    309428.68    1056.6964    150.34564    150.42073   -4139.0782 
     102   -4139.1511      12.7919      12.7919      12.7919            0            0            0    313254.18    315048.81    315048.72    309665.01    1273.8095    -156.2545    -155.5989   -4139.1511 
     103   -4139.2173      12.7919      12.7919      12.7919            0            0            0    313156.19    314715.67    314713.32    310039.57    1257.9139   -66.313099   -66.638356   -4139.2173 
     104   -4139.2545      12.7919      12.7919      12.7919            0            0            0    313080.16    314492.05    314491.68    310256.74    1183.3215   -69.371809   -68.657177   -4139.2545 
     105   -4139.2802      12.7919      12.7919      12.7919            0            0            0    313036.84    314361.71    314361.56    310387.24    1226.3773   -157.19647   -157.18914   -4139.2802 
     106    -4139.293      12.7919      12.7919      12.7919            0            0            0     313055.6     314347.1       314347    310472.71    1245.8896   -173.56259   -173.47381    -4139.293 
     107    -4139.299      12.7919      12.7919      12.7919            0            0            0     313062.2    314321.83    314321.37    310543.38    1170.6097   -196.51213   -196.83077    -4139.299 
     108    -4139.303      12.7919      12.7919      12.7919            0            0            0    313064.65    314277.48    314277.25    310639.24     1123.676   -189.25108   -188.98239    -4139.303 
     109   -4139.3048      12.7919      12.7919      12.7919            0            0            0     313070.5     314255.7    314255.36    310700.45    1102.5009   -175.25146    -175.1465   -4139.3048 
     110   -4139.3064      12.7919      12.7919      12.7919            0            0            0    313095.96    314260.18    314260.16    310767.54    1032.3706    -144.4641   -144.37237   -4139.3064 
     111   -4139.3072      12.7919      12.7919      12.7919            0            0            0     313089.7    314236.63    314236.34    310796.14    1000.9616   -131.63069   -131.67354   -4139.3072 
     112   -4139.3074      12.7919      12.7919      12.7919            0            0            0    313090.32    314218.77    314218.64    310833.55    983.00359   -119.85137   -119.63292   -4139.3074 
     113   -4139.3075      12.7919      12.7919      12.7919            0            0            0     313077.7    314192.27    314192.07    310848.75     955.2072   -111.44382   -111.39938   -4139.3075 
     114   -4139.3077      12.7919      12.7919      12.7919            0            0            0    313077.19    314185.55    314185.46    310860.55    949.47139   -105.49175    -105.3329   -4139.3077 
     115   -4139.3081      12.7919      12.7919      12.7919            0            0            0    313066.12    314170.99    314170.87    310856.51    949.14004   -98.461562   -98.439773   -4139.3081 
     116   -4139.3081      12.7919      12.7919      12.7919            0            0            0    313065.72     314167.5    314167.45    310862.22    943.12447   -95.669817   -95.571278   -4139.3081 
     117   -4139.3082      12.7919      12.7919      12.7919            0            0            0    313063.36    314162.42    314162.32    310865.34    937.09432   -96.455122   -96.454677   -4139.3082 
     118   -4139.3082      12.7919      12.7919      12.7919            0            0            0    313061.96    314159.24    314159.18    310867.46     935.4405   -95.342112   -95.270966   -4139.3082 
     119   -4139.3082      12.7919      12.7919      12.7919            0            0            0    313061.96    314159.24    314159.18    310867.46     935.4405   -95.342112   -95.270966   -4139.3082 
Loop time of 2.65018 on 1 procs for 119 steps with 214 atoms

73.9% CPU use with 1 MPI tasks x no OpenMP threads

Minimization stats:
  Stopping criterion = linesearch alpha is zero
  Energy initial, next-to-last, final = 
        -4043.63102546     -4139.30824086     -4139.30824086
  Force two-norm initial, final = 53.3172 0.017859
  Force max component initial, final = 9.56202 0.00311642
  Final line search alpha, max atom move = 3.05176e-05 9.51055e-08
  Iterations, force evaluations = 119 280

MPI task timing breakdown:
Section |  min time  |  avg time  |  max time  |%varavg| %total
---------------------------------------------------------------
Pair    | 1.7891     | 1.7891     | 1.7891     |   0.0 | 67.51
Kspace  | 0.79663    | 0.79663    | 0.79663    |   0.0 | 30.06
Neigh   | 0.051303   | 0.051303   | 0.051303   |   0.0 |  1.94
Comm    | 0.0070069  | 0.0070069  | 0.0070069  |   0.0 |  0.26
Output  | 0.0033689  | 0.0033689  | 0.0033689  |   0.0 |  0.13
Modify  | 0          | 0          | 0          |   0.0 |  0.00
Other   |            | 0.002734   |            |       |  0.10

Nlocal:    214 ave 214 max 214 min
Histogram: 1 0 0 0 0 0 0 0 0 0
Nghost:    3855 ave 3855 max 3855 min
Histogram: 1 0 0 0 0 0 0 0 0 0
Neighs:    63912 ave 63912 max 63912 min
Histogram: 1 0 0 0 0 0 0 0 0 0

Total # of neighbors = 63912
Ave neighs/atom = 298.654
Neighbor list builds = 9
Dangerous builds = 0

# ---- define output variables ----
variable natoms equal "count(all)"
variable tot_energy equal "c_eatoms"
variable a11 equal "xhi-xlo"
variable a22 equal "yhi-ylo"
variable a33 equal "zhi-zlo"
variable tilt_xy equal "xy"
variable tilt_xz equal "xz"
variable tilt_yz equal "yz"
variable tot_press equal "press"
variable press_xx equal "pxx"
variable press_yy equal "pyy"
variable press_zz equal "pzz"
variable press_xy equal "pxy"
variable press_xz equal "pxz"
variable press_yz equal "pyz"

# ---- output ----
print "pypospack:output_section:begin"
pypospack:output_section:begin
print "tot_energy = ${tot_energy}"
tot_energy = -4139.30824086277
print "num_atoms = ${natoms}"
num_atoms = 214
print "a11 = ${a11}"
a11 = 12.7919
print "a22 = ${a22}"
a22 = 12.7919
print "a33 = ${a33}"
a33 = 12.7919
print "a12 = ${tilt_xy}"
a12 = 0
print "a13 = ${tilt_xz}"
a13 = 0
print "a23 = ${tilt_yz}"
a23 = 0
print "tot_press = ${tot_press}"
tot_press = 313061.958589771
print "pxx = ${press_xx}"
pxx = 314159.239454943
print "pyy = ${press_yy}"
pyy = 314159.177361424
print "pzz = ${press_zz}"
pzz = 310867.458952947
print "pxy = ${press_xy}"
pxy = 935.440504391248
print "pxz = ${press_xz}"
pxz = -95.3421117042377
print "pyz = ${press_yz}"
pyz = -95.2709663274086
print "pypospack:output_section:done"
pypospack:output_section:done
print "pypospack:lammps_sim:done"
pypospack:lammps_sim:done
Total wall time: 0:00:02
