LAMMPS (10 Feb 2015)
# ---- initialize simulations
clear
units metal
dimension 3
boundary p p p
atom_style charge
atom_modify map array
# ---- create atoms
read_data /Users/eugeneragasa/pyflamestk_git/pypospack/tests/tests_integration/workflow/WorkflowLammpsThermalExpansion/param_9215/MgO_NaCl_unit.npt.T1800/lammps.structure
  triclinic box = (0 0 0) to (4.2565 4.2565 4.2565) with tilt (0 0 0)
  1 by 1 by 1 MPI processor grid
  reading atoms ...
  8 atoms
# ---- define interatomic potential
include potential.mod
mass 1 24.305
mass 2 15.999

group Mg type 1
4 atoms in group Mg
group O type 2
4 atoms in group O

set group Mg charge 1.57990545172
  4 settings made for charge
set group O charge -1.57990545172
  4 settings made for charge

variable R_cut equal 10.0

pair_style buck/coul/long ${R_cut}
pair_style buck/coul/long 10
pair_coeff 1 1 0.0 0.5 0.0 ${R_cut}
pair_coeff 1 1 0.0 0.5 0.0 10
pair_coeff 1 2 1322.20855758 0.285006791586 0.0 ${R_cut}
pair_coeff 1 2 1322.20855758 0.285006791586 0.0 10
pair_coeff 2 2 14469.0891926 0.219096223147 48.5612274161 ${R_cut}
pair_coeff 2 2 14469.0891926 0.219096223147 48.5612274161 10

kspace_style pppm 1.0e-5

neighbor 1.0 bin
neigh_modify every 1 delay 0 check yes
# ---- define settings
compute eng all pe/atom
compute eatoms all reduce sum c_eng
# ---- run minimization
reset_timestep 0
fix 1 all box/relax iso 0.0 vmax 0.001
thermo 10
thermo_style custom step pe lx ly lz xy xz yz press pxx pyy pzz pxy pxz pyz c_eatoms
min_style cg
minimize 1e-25 1e-25 5000 10000
PPPM initialization ...
  G vector (1/distance) = 0.352172
  grid = 8 8 8
  stencil order = 5
  estimated absolute RMS force accuracy = 3.68665e-05
  estimated relative force accuracy = 2.56024e-06
  using double precision FFTs
  3d grid and FFT values/proc = 3375 512
Neighbor list info ...
  1 neighbor list requests
  update every 1 steps, delay 0 steps, check yes
  master list distance cutoff = 11
Memory usage per processor = 4.06549 Mbytes
Step PotEng Lx Ly Lz Xy Xz Yz Press Pxx Pyy Pzz Pxy Pxz Pyz eatoms 
       0   -101.30442       4.2565       4.2565       4.2565            0            0            0    88329.967    88329.967    88329.967    88329.967 -1.1961844e-11 -2.4099438e-10 5.9240466e-12   -101.30442 
      10    -101.3918     4.299065     4.299065     4.299065            0            0            0    35693.934    35693.934    35693.934    35693.934 1.4632835e-11 -2.3788485e-11 -3.8066587e-11    -101.3918 
      20   -101.41159    4.3315082    4.3315082    4.3315082            0            0            0   -5.9294003   -5.9294003   -5.9294003   -5.9294003 1.7198652e-10 1.1926792e-10 -5.3176444e-11   -101.41159 
Loop time of 0.0119281 on 1 procs for 20 steps with 8 atoms

Minimization stats:
  Stopping criterion = linesearch alpha is zero
  Energy initial, next-to-last, final = 
        -101.304424021     -101.411593199     -101.411593199
  Force two-norm initial, final = 12.7549 0.00088671
  Force max component initial, final = 12.7549 0.000886651
  Final line search alpha, max atom move = 0.015625 1.38539e-05
  Iterations, force evaluations = 20 34

Pair  time (%) = 0.00320745 (26.8899)
Kspce time (%) = 0.00206232 (17.2896)
Neigh time (%) = 0 (0)
Comm  time (%) = 0.00036335 (3.04617)
Outpt time (%) = 1.3113e-05 (0.109934)
Other time (%) = 0.00628185 (52.6644)

Nlocal:    8 ave 8 max 8 min
Histogram: 1 0 0 0 0 0 0 0 0 0
Nghost:    2189 ave 2189 max 2189 min
Histogram: 1 0 0 0 0 0 0 0 0 0
Neighs:    2344 ave 2344 max 2344 min
Histogram: 1 0 0 0 0 0 0 0 0 0

Total # of neighbors = 2344
Ave neighs/atom = 293
Neighbor list builds = 0
Dangerous builds = 0
unfix 1
# ---- define output variables ----
variable natoms equal "count(all)"
variable tot_energy equal "c_eatoms"
variable length_x equal "lx"
variable length_y equal "ly"
variable length_z equal "lz"
variable tilt_xy equal "xy"
variable tilt_xz equal "xz"
variable tilt_yz equal "yz"
variable tot_press equal "press"
variable press_xx equal "pxx"
variable press_yy equal "pyy"
variable press_zz equal "pzz"
variable press_xy equal "pxy"
variable press_xz equal "pxz"
variable press_yz equal "pyz"

# ---- output ----
print "pypospack:output_section:begin"
pypospack:output_section:begin
print "tot_energy = ${tot_energy}"
tot_energy = -101.411593198701
print "num_atoms = ${natoms}"
num_atoms = 8
print "xx = ${length_x}"
xx = 4.33150823558717
print "yy = ${length_y}"
yy = 4.33150823558717
print "zz = ${length_z}"
zz = 4.33150823558717
print "xy = ${tilt_xy}"
xy = 0
print "xz = ${tilt_xz}"
xz = 0
print "yz = ${tilt_yz}"
yz = 0
print "tot_press = ${tot_press}"
tot_press = -5.92940031006952
print "pxx = ${press_xx}"
pxx = -5.92940030994687
print "pyy = ${press_yy}"
pyy = -5.92940031012476
print "pzz = ${press_zz}"
pzz = -5.92940031013695
print "pxy = ${press_xy}"
pxy = 1.71986520125442e-10
print "pxz = ${press_xz}"
pxz = 1.19267916823708e-10
print "pyz = ${press_yz}"
pyz = -5.31764436793611e-11
print "pypospack:output_section:done"
pypospack:output_section:done
print "pypospack:lammps_sim:done"
pypospack:lammps_sim:done
#------------------------------------------------------------------------------
# RUN THERMOSTAT
# running using an NPT Nose-Hoover style thermostat
#------------------------------------------------------------------------------
variable tempdamp equal 0.1
variable pressdamp equal 1.0
# set initial velocities
velocity all create 1800 447043 mom yes dist gaussian loop all
# fix for Nose-Hoover style thermostat
fix 20 all npt temp 1800 1800 0.1 aniso 0.0 0.0 1.0 drag 1.0 couple xyz
variable boxx equal lx
variable boxy equal ly
variable boxz equal lz
variable boxp equal press
variable boxt equal temp
# calculate averages every 10000 steps
reset_timestep 0
fix 21 all ave/time 10 10 100 v_boxx v_boxy v_boxz v_boxp v_boxt file lattice.out
thermo_style custom step temp pe ke etotal press lx ly lz press pxx pyy pzz pxy pxz pyz vol
thermo_modify flush yes
thermo 100
run 100000
PPPM initialization ...
  G vector (1/distance) = 0.351443
  grid = 8 8 8
  stencil order = 5
  estimated absolute RMS force accuracy = 3.81088e-05
  estimated relative force accuracy = 2.64651e-06
  using double precision FFTs
  3d grid and FFT values/proc = 3375 512
Memory usage per processor = 3.06549 Mbytes
Step Temp PotEng KinEng TotEng Press Lx Ly Lz Press Pxx Pyy Pzz Pxy Pxz Pyz Volume 
       0         1800    -101.4116    1.6286778   -99.782926    21398.369    4.3315082    4.3315082    4.3315082    21398.369    24986.546     19082.15    20126.412   -7993.3943   -11018.622   -4142.4234      81.2676 
     100    435.49744   -99.980415   0.39404724   -99.586368    39981.772    4.3665411    4.3665411    4.3665411    39981.772    97061.852   -28614.014    51497.479   -6964.5134    1871.9354    3087.7175    83.255447 
     200    1368.9347   -100.38941    1.2386409   -99.150765   -32094.879    4.4287396    4.4287396    4.4287396   -32094.879    15943.916   -65816.424    -46412.13   -7831.1464    13566.789    -3549.058    86.864123 
     300    1437.7318   -100.05545      1.30089   -98.754562   -23787.036    4.4363713    4.4363713    4.4363713   -23787.036    15247.193   -73338.515   -13269.788   -14792.247    10273.985   -1239.7165    87.313952 
     400    1148.3898   -99.457508    1.0390872   -98.418421     17595.99    4.4032294    4.4032294    4.4032294     17595.99    35212.607   -46200.554    63775.917   -20127.337    10094.504   -10379.249    85.371701 
     500    2637.1637    -100.5877    2.3861611   -98.201539    17807.531    4.3893648    4.3893648    4.3893648    17807.531    10324.418   -134.56775    43232.741   -6194.1478    754.69758   -19727.068    84.567802 
     600     1448.699   -99.453622    1.3108133   -98.142808    1988.0823    4.4186004    4.4186004    4.4186004    1988.0823   -18486.082   -76901.127    101351.46   -13231.473    -10096.39    5015.8281    86.268883 
     700     1897.989   -99.807368    1.7173403   -98.090027   -20964.454     4.454306     4.454306     4.454306   -20964.454    978.64908   -45947.783   -17924.228   -11079.074   -6952.9735   -4924.2781    88.377183 
     800    2257.6169   -100.07228    2.0427392   -98.029538   -38395.026    4.4488925    4.4488925    4.4488925   -38395.026   -51068.479   -52738.038    -11378.56   -2439.1356   -16756.276    -17134.84    88.055345 
     900    1492.5343   -99.356531    1.3504764   -98.006055    22511.507     4.419383     4.419383     4.419383    22511.507    25399.593   -22165.801    64300.728    15401.176    -972.8419   -6893.3516    86.314732 
    1000    1775.0014   -99.639901    1.6060585   -98.033843    24221.667    4.4204378    4.4204378    4.4204378    24221.667    77244.666   -29746.943    25167.278     12725.43   -1063.7383   -14078.923    86.376548 
    1100    1450.9645   -99.381005    1.3128632   -98.068142     6748.976    4.4338506    4.4338506    4.4338506     6748.976    92971.006   -6774.0294   -65950.049    19056.784    -3268.322   -9658.8651    87.165208 
    1200    1504.6684   -99.432137    1.3614556   -98.070682    9464.9039    4.4439596    4.4439596    4.4439596    9464.9039    62748.047   -30778.204   -3575.1319    9808.5532    22265.511    7425.8638    87.762764 
    1300    1710.7448   -99.597279    1.5479178   -98.049361   -34966.286    4.4347385    4.4347385    4.4347385   -34966.286   -4400.9048   -40882.172    -59615.78     14234.95    20286.331    5085.8822    87.217582 
    1400    2039.6113   -99.874017    1.8454831   -98.028534   -2804.9729    4.4025283    4.4025283    4.4025283   -2804.9729    20579.048   -14504.103   -14489.864   -2998.6885    22721.118    6190.1928    85.330925 
    1500    2088.6319   -99.967278    1.8898381    -98.07744    9718.7812     4.403031     4.403031     4.403031    9718.7812     2944.624   -15346.779    41558.499    261.44674    3523.8581    20946.252     85.36016 
    1600    1485.1947   -99.448677    1.3438354   -98.104841   -27097.176     4.433602     4.433602     4.433602   -27097.176   -22068.261   -18158.104   -41065.163   -1713.8731    11229.791    7978.0215    87.150547 
    1700    1972.3542   -99.859118    1.7846276    -98.07449   -4562.3736    4.4381586    4.4381586    4.4381586   -4562.3736    18096.461   -35299.024    3515.4427    3869.6681   -13718.384   -8693.8538    87.419525 
    1800    942.67716   -98.919039    0.8529541   -98.066085    11655.934    4.4251373    4.4251373    4.4251373    11655.934    98681.076    -21914.32   -41798.954   -12998.658   -2327.5367   -7197.3396     86.65233 
    1900    2100.5288   -99.955343    1.9006026    -98.05474    27778.101    4.4043002    4.4043002    4.4043002    27778.101    37107.381    12115.694    34111.229   -4217.6164     -14106.8    -28282.25    85.434002 
    2000     1508.285   -99.453205     1.364728   -98.088477   -10192.504    4.4080004    4.4080004    4.4080004   -10192.504   -5570.7232   -18068.883   -6937.9047   -28012.789    3145.7378    20563.676    85.649509 
    2100    1771.3436   -99.685713    1.6027489   -98.082964    13521.335    4.4113925    4.4113925    4.4113925    13521.335    40463.482   -5217.5545    5318.0769    4948.4549   -5854.4018   -4629.4783    85.847392 
    2200    2171.3173   -100.06213    1.9646535   -98.097481    -28283.29    4.4218959    4.4218959    4.4218959    -28283.29   -37370.883   -38942.157   -8536.8301   -5001.6683   -7891.0928    1655.8226    86.462055 
    2300     1557.969    -99.48784    1.4096831   -98.078157   -9769.3578    4.4143234    4.4143234    4.4143234   -9769.3578    13727.897   -18582.265   -24453.706    -17771.64    -10053.19    2450.9824    86.018613 
    2400    2073.4125   -99.947064    1.8760672   -98.070997    12166.312    4.3966987    4.3966987    4.3966987    12166.312   -20585.595    46466.448    10618.085    1243.3184   -11826.007     4531.574    84.992404 
    2500     1454.659   -99.397391    1.3162061   -98.081185    15851.324    4.4010943    4.4010943    4.4010943    15851.324    54945.582   -3025.6318    -4365.979   -314.04014    9844.8861    6012.8259    85.247575 
    2600    1728.9135   -99.656131    1.5643573   -98.091774    1274.3564    4.4075923    4.4075923    4.4075923    1274.3564   -2518.5105    19996.099   -13654.519    10205.499   -6858.4946    5362.1406    85.625722 
    2700    2041.5953   -99.934133    1.8472784   -98.086855   -24211.023    4.4068923    4.4068923    4.4068923   -24211.023   -8423.2881   -27579.106   -36630.674   -13302.276   -4888.9116   -13743.436    85.584934 
    2800    1936.2932   -99.834039    1.7519988    -98.08204    14804.486    4.3917297    4.3917297    4.3917297    14804.486     27004.86    43248.384   -25839.787    10970.499    10677.168     18393.27    84.704565 
    2900    1662.5955   -99.617205    1.5043513   -98.112853   -21884.539    4.3944986    4.3944986    4.3944986   -21884.539   -53024.287   -31851.694    19222.363     -19352.6   -1758.4193   -7547.7194     84.86488 
    3000    1983.5301    -99.90447    1.7947397    -98.10973   -13257.611    4.4015726    4.4015726    4.4015726   -13257.611    1349.0565   -7503.4024   -33618.487   -9276.3427   -3195.4488   -10873.065    85.275369 
    3100    1815.8004   -99.744084    1.6429744   -98.101109   -3578.2762    4.4013314    4.4013314    4.4013314   -3578.2762   -22265.668    7539.4698    3991.3694    -3784.396    15407.572    -371.5524    85.261353 
    3200    1933.9228   -99.836691     1.749854   -98.086837   -28857.086    4.4110615    4.4110615    4.4110615   -28857.086   -31293.706   -54358.563   -918.98804   -11893.564    6618.4945    1411.7469    85.828067 
    3300    2073.1994   -99.948934    1.8758744    -98.07306   -3903.5561    4.4066452    4.4066452    4.4066452   -3903.5561   -5188.7114    11294.653    -17816.61   -18156.923    3634.7661    8797.5169    85.570534 
    3400    1663.5095   -99.568446    1.5051784   -98.063268    -2459.021    4.4033523    4.4033523    4.4033523    -2459.021   -42086.125   -1670.3685     36379.43   -11884.885    7745.4339   -19256.549    85.378851 
    3500    2039.8761   -99.913141    1.8457228   -98.067418   -856.77247    4.4053763    4.4053763    4.4053763   -856.77247    5074.1513    6375.5888   -14020.057    2279.9242    16024.279    -7513.724    85.496636 
    3600    2155.8464   -100.02852    1.9506551   -98.077861    687.35037    4.4070816    4.4070816    4.4070816    687.35037    1917.7323    11037.106   -10892.788   -29049.822   -2417.1237    -7593.598    85.595961 
    3700    1563.2452   -99.493277    1.4144571    -98.07882    -42039.07    4.4218091    4.4218091    4.4218091    -42039.07   -54107.603   -45348.476   -26661.131    7398.2504    10088.229    8546.2549     86.45696 
    3800    2061.3092   -99.935468    1.8651159   -98.070352   -15755.569    4.4053467    4.4053467    4.4053467   -15755.569   -27089.803   -939.16256   -19237.742   -30743.364     21442.46   -32964.881    85.494915 
    3900    1790.9354   -99.688472     1.620476   -98.067996    25909.994    4.3807008    4.3807008    4.3807008    25909.994   -15628.563    35799.277    57559.268    2199.0873   -11881.516    25677.814     84.06801 
    4000     1683.925    -99.63959    1.5236507    -98.11594   -16694.377    4.3903956    4.3903956    4.3903956   -16694.377   -33328.345   -19682.883    2928.0965    -36905.88    16760.004   -17938.447    84.627392 
    4100    2099.9248   -100.00731    1.9000561   -98.107251    11539.431    4.4129858    4.4129858    4.4129858    11539.431   -31730.144    93614.666    -27266.23   -11363.722   -3576.8586   -7228.8156    85.940444 
    4200      735.795    -98.78396   0.66576278   -98.118197    29347.784    4.4208376    4.4208376    4.4208376    29347.784   -26970.475    88085.192    26928.636   -10964.393    4502.9077   -19674.817    86.399986 
    4300    2587.7918   -100.43278    2.3414884   -98.091296   -14812.642    4.4351299    4.4351299    4.4351299   -14812.642   -44936.293    6450.6981   -5952.3296    17590.781   -11014.798    -17034.16    87.240678 
    4400    1422.7065   -99.367417    1.2872948   -98.080122   -18759.835    4.4278074    4.4278074    4.4278074   -18759.835   -52320.698    50435.929   -54394.736   -7897.9464    6054.8197    19873.719    86.809285 
    4500    1675.0483   -99.598019    1.5156189     -98.0824    20028.461    4.4034137    4.4034137    4.4034137    20028.461   -31092.796    81072.181    10105.999    22019.557    1049.1936     6291.694    85.382422 
    4600    1323.5512   -99.322999    1.1975769   -98.125422    7916.0843    4.4007066    4.4007066    4.4007066    7916.0843   -76696.025    110873.74   -10429.466   -7171.9423   -13702.264    21859.177    85.225044 
    4700    1581.1612   -99.604025    1.4306679   -98.173357    20949.122      4.42625      4.42625      4.42625    20949.122   -39385.636    142679.88   -40446.878   -13237.819    9909.3192    7292.7049    86.717715 
    4800    1396.7646   -99.440056     1.263822   -98.176234   -8984.2734    4.4379045    4.4379045    4.4379045   -8984.2734   -54403.088    46389.519   -18939.252   -3497.3546   -16286.173    4148.1098    87.404513 
    4900    2490.9836   -100.38344    2.2538943   -98.129549   -23227.759    4.4256687    4.4256687    4.4256687   -23227.759   -52640.189    36711.709   -53754.797   -5739.8689    383.31538   -18176.689    86.683555 
    5000    2361.2048   -100.27752    2.1364678   -98.141052   -27503.712     4.416805     4.416805     4.416805   -27503.712   -65501.825    35928.648   -52937.959   -18760.039   -21099.057    19359.044    86.163768 
    5100    1897.9067   -99.878569    1.7172659   -98.161303   -9933.4347    4.4081461    4.4081461    4.4081461   -9933.4347   -63754.483    49486.981   -15532.802    7112.9478   -6051.7796    15005.907       85.658 
    5200    2682.1497   -100.60129    2.4268654   -98.174424   -11178.556    4.4157472    4.4157472    4.4157472   -11178.556   -30652.059    56913.096   -59796.704    11665.864   -9520.0395    20291.766    86.101872 
    5300     867.1978   -98.956999    0.7846588   -98.172341    1596.6611    4.4357693    4.4357693    4.4357693    1596.6611   -67493.768    66872.538    5411.2132    -6816.614   -12270.046    4821.4932    87.278413 
    5400    1606.1487   -99.582605    1.4532771   -98.129327     21970.45    4.4299738    4.4299738    4.4299738     21970.45   -13755.192    107406.21   -27739.667    13182.267     4971.675   -17031.533    86.936763 
    5500    1248.6796    -99.25908    1.1298315   -98.129249     16652.08    4.4144686    4.4144686    4.4144686     16652.08   -57616.547    124703.79   -17131.005   -30128.107   -23251.287    5961.3173      86.0271 
    5600    2171.5011   -100.09212    1.9648198   -98.127301   -17832.636    4.4166942    4.4166942    4.4166942   -17832.636   -52866.521   -179.29231   -452.09348    -16263.58     11334.65   -16222.649    86.157282 
    5700    2062.6361   -99.998697    1.8663165   -98.132381   -52464.332    4.4362641    4.4362641    4.4362641   -52464.332   -61999.771   -23366.907   -72026.318    3308.3487   -8725.2236    12190.189    87.307625 
    5800    1964.4939   -99.876625    1.7775154    -98.09911   -29734.629    4.4393746    4.4393746    4.4393746   -29734.629   -44816.971   -5792.0216   -38594.896    15440.109    16306.118   -11136.541    87.491404 
    5900    1443.3987    -99.40995    1.3060175   -98.103933    13713.854    4.4158388    4.4158388    4.4158388    13713.854    30650.002     52033.25   -41541.691   -2395.9994   -11693.795    25102.356     86.10723 
    6000    1612.1178   -99.560112    1.4586781   -98.101434    10474.209    4.4106602    4.4106602    4.4106602    10474.209   -25550.026    62138.639   -5165.9856    7626.5621    281.05289    8339.1611    85.804644 
    6100    1907.0543   -99.836153    1.7255428    -98.11061   -9529.4274    4.4323405    4.4323405    4.4323405   -9529.4274    16656.062   -6218.7386   -39025.605    3815.0584   -17243.109   -855.38481    87.076177 
    6200    1759.7114    -99.65577    1.5922239   -98.063546    -19148.63    4.4467738    4.4467738    4.4467738    -19148.63   -52065.705   -11153.336    5773.1498    10676.914   -404.76714    6674.2516    87.929604 
    6300    1771.6703   -99.644101    1.6030446   -98.041057   -22260.729    4.4315287    4.4315287    4.4315287   -22260.729   -64317.651    45396.304    -47860.84   -10895.547   -19711.146    2717.5628    87.028342 
    6400    2276.5687   -100.08663    2.0598872   -98.026744    18090.897    4.4010618    4.4010618    4.4010618    18090.897    -800.9347    28907.978    26165.648   -2321.5473   -399.94753    19540.352    85.245682 
    6500    1337.1851   -99.288062    1.2099132   -98.078149   -10184.459    4.4061369    4.4061369    4.4061369   -10184.459    -76965.69    35687.261    10725.053    7570.1898   -18313.646   -5333.8111    85.540931 
    6600    2747.1414   -100.58846    2.4856713   -98.102786   -26498.979    4.4174516    4.4174516    4.4174516   -26498.979   -8735.9557   -41220.355   -29540.627   -12786.562   -13128.027    32364.842    86.201616 
    6700    609.53391   -98.679519   0.55151909      -98.128    31875.263    4.4348111    4.4348111    4.4348111    31875.263   -30880.595    37377.392    89128.993   -5488.6041    1995.1845   -19123.517    87.221867 
    6800    2496.0128   -100.34394    2.2584449     -98.0855   -21524.671    4.4391343    4.4391343    4.4391343   -21524.671   -24419.958   -36594.615   -3559.4409    1449.8311    -19941.29    17497.888    87.477198 
    6900    1041.6495   -99.011973   0.94250635   -98.069467    1542.6656     4.415238     4.415238     4.415238    1542.6656   -95267.749    70455.023    29440.723   -4996.4817   -12517.864   -16011.614    86.072093 
    7000    2294.7034   -100.13999    2.0762959   -98.063689    32685.264    4.3861304    4.3861304    4.3861304    32685.264    43424.417    11526.276    43105.099   -17034.257     -14516.1    17641.066    84.380993 
    7100    1774.7559   -99.721707    1.6058364    -98.11587    5030.7523    4.3981798    4.3981798    4.3981798    5030.7523   -46244.811    19301.294    42035.774   -10780.949   -9861.4728   -14295.467    85.078327 
    7200    1510.6848   -99.476037    1.3668994   -98.109138    20447.174      4.41882      4.41882      4.41882    20447.174     16684.03    25598.747    19058.744   -11246.141   -8799.6621    7587.3003    86.281747 
    7300    2328.9818   -100.20191    2.1073116   -98.094603   -30394.071    4.4311791    4.4311791    4.4311791   -30394.071   -46951.368   -25769.015   -18461.829   -25317.024    -12360.54   -8187.6477    87.007746 
    7400    1782.3593   -99.666813    1.6127162   -98.054097   -16821.303    4.4134154    4.4134154    4.4134154   -16821.303   -66932.802    29307.323    -12838.43    8402.4617    3585.9528     5658.616    85.965542 
    7500    1742.3072    -99.62211    1.5764762   -98.045634    60491.128    4.3885067    4.3885067    4.3885067    60491.128    70085.606    61764.532    49623.248    -25833.87     13211.81    10869.444    84.518212 
    7600    2414.8155   -100.25546    2.1849758   -98.070486   -22200.381    4.4104316    4.4104316    4.4104316   -22200.381   -55293.004    9012.8098   -20320.947    -4587.676   -4724.7793   -1013.4704    85.791308 
    7700    1199.1684   -99.161514    1.0850328   -98.076481   -6533.6492    4.4225949    4.4225949    4.4225949   -6533.6492   -24161.546    4839.6826   -279.08426   -17656.063    9410.8561    12928.117     86.50306 
    7800    2442.4574   -100.27436    2.2099868   -98.064375    1240.0021    4.4224875    4.4224875    4.4224875    1240.0021   -14138.152    20020.775   -2162.6174   -776.11237    5402.7757   -1651.8797    86.496761 
    7900    913.46605   -98.906372   0.82652328   -98.079849   -18247.286    4.4057809    4.4057809    4.4057809   -18247.286   -43474.807    3098.3957   -14365.448   -31510.671   -3275.8432    34040.922    85.520195 
    8000    2333.7885   -100.17186    2.1116609   -98.060201     32060.39    4.3804125    4.3804125    4.3804125     32060.39    55777.021    55330.696   -14926.546    804.41481   -5209.9802   -7417.9535    84.051415 
    8100    1568.7306   -99.542493    1.4194204   -98.123073   -13676.305    4.4106957    4.4106957    4.4106957   -13676.305   -30272.053   -9308.4695   -1448.3921   -28664.586    20261.071    33714.892    85.806718 
    8200    1421.1521   -99.371219    1.2858883    -98.08533   -11654.058    4.4274848    4.4274848    4.4274848   -11654.058   -22912.253    18833.766   -30883.687     11474.61   -5827.5924     15289.05    86.790307 
    8300    1845.3432   -99.723574    1.6697054   -98.053869   -17514.486    4.4123672    4.4123672    4.4123672   -17514.486    20346.189    -23387.23   -49502.417   -30447.045    10022.106    8809.1178    85.904309 
    8400    2454.6916    -100.2866    2.2210565   -98.065547   -23563.205    4.4062541    4.4062541    4.4062541   -23563.205   -49826.942   -3733.9538   -17128.718   -144.98484    -10614.37    15917.822    85.547752 
    8500    1302.0376   -99.253091     1.178111    -98.07498     35331.99     4.396468     4.396468     4.396468     35331.99    38295.383    59727.676    7972.9099   -1877.4167    3795.4867    20820.202    84.979027 
    8600    2033.5268   -99.942447    1.8399778   -98.102469     -24223.1    4.4093429    4.4093429    4.4093429     -24223.1   -32343.927    6579.3678   -46904.742   -9581.8673   -4851.5183    22022.088    85.727791 
    8700    2359.3356    -100.2224    2.1347765    -98.08762   -24253.383    4.4170284    4.4170284    4.4170284   -24253.383   -35084.303   -512.35295   -37163.492    10500.829    11192.523   -1321.0801    86.176841 
    8800    1367.3768   -99.316576    1.2372313   -98.079345    13897.744    4.3991101    4.3991101    4.3991101    13897.744    48515.067    4832.9251   -11654.761   -5372.1312   -8083.7139    11407.545    85.132325 
    8900    2427.7271   -100.28763    2.1966585   -98.090973   -24098.294     4.402702     4.402702     4.402702   -24098.294   -42516.731   -9804.1384   -19974.013    21428.312     7809.231    15637.877    85.341026 
    9000    1667.1509   -99.602792    1.5084732   -98.094318    1497.2682    4.4021784    4.4021784    4.4021784    1497.2682    32110.009    18945.022   -46563.226   -9345.6723   -9180.9034    10773.187    85.310584 
    9100    1656.3041   -99.603924    1.4986588   -98.105266    27149.681    4.4039965    4.4039965    4.4039965    27149.681   -19853.184    99033.961    2268.2652     11548.37    4706.8423   -2913.4536    85.416329 
    9200     1652.314   -99.603914    1.4950485   -98.108865    -23542.76    4.4086934    4.4086934    4.4086934    -23542.76   -21238.553   -8021.2752   -41368.453     11285.24    4393.0895   -12946.272    85.689913 
    9300    1665.7953   -99.590625    1.5072466   -98.083378    19300.794    4.3938661    4.3938661    4.3938661    19300.794    11881.634    111415.27   -65394.526   -12984.918    7658.9117    15917.386    84.828239 
    9400    2318.3888   -100.19233    2.0977269   -98.094606   -22976.345    4.4024594    4.4024594    4.4024594   -22976.345   -40847.268   -17624.605   -10457.162    16994.684   -19469.528   -14210.579    85.326921 
    9500    1461.6735   -99.424022    1.3225529   -98.101469   -3913.8808    4.4166853    4.4166853    4.4166853   -3913.8808   -22755.879    100440.12   -89425.879    -8966.249   -634.96809    14448.537    86.156762 
    9600    1799.3132   -99.728762    1.6280564   -98.100705    15513.835    4.4119849    4.4119849    4.4119849    15513.835    22909.402    47540.116   -23908.015   -11668.507   -3751.3351    -23900.58    85.881983 
    9700    1895.2035   -99.792479      1.71482   -98.077659    19130.959    4.3903149    4.3903149    4.3903149    19130.959     7087.265    66683.745   -16378.133   -5346.0898   -10884.012    16123.559    84.622729 
    9800    1849.4904   -99.780693    1.6734578   -98.107235    -12766.63    4.3967942    4.3967942    4.3967942    -12766.63   -24314.861   -16819.988    2834.9596   -18137.553   -4705.7064   -22806.572    84.997943 
    9900    2060.0272   -99.977946    1.8639559    -98.11399    6288.0868    4.4174278    4.4174278    4.4174278    6288.0868     8290.732    69574.804   -59001.275    3294.8896   -1885.8713    10894.447    86.200221 
   10000    1663.0906   -99.607319    1.5047993    -98.10252   -55503.609     4.434735     4.434735     4.434735   -55503.609    -59934.01   -30448.196    -76128.62    -32108.77    4921.4609   -10906.198     87.21738 
   10100    2275.3013   -100.12291    2.0587404   -98.064169    13989.532    4.4200588    4.4200588    4.4200588    13989.532   -38340.485    69854.315    10454.766   -3701.3756     4202.522    33821.088    86.354336 
   10200    1298.9467   -99.251986    1.1753143   -98.076671   -13413.583    4.4163485    4.4163485    4.4163485   -13413.583   -11720.644    9361.0675   -37881.171   -15875.087   -8926.8348   -17160.753    86.137052 
   10300    2493.7809   -100.33628    2.2564254   -98.079853   -9039.8882    4.4132799    4.4132799    4.4132799   -9039.8882   -34758.762   -7617.0425     15256.14   -15048.876    4731.5569    11896.421    85.957628 
   10400     1357.597   -99.310022    1.2283823    -98.08164    13096.741    4.4062452    4.4062452    4.4062452    13096.741   -11137.184    74984.488   -24557.081   -5026.4356    -14693.62    5780.0784    85.547235 
   10500    1922.7685   -99.830689    1.7397613   -98.090928    230.20087    4.4075988    4.4075988    4.4075988    230.20087    -23766.85    39231.904   -14774.452   -19295.945     2980.293    1483.6041      85.6261 
   10600     1897.019   -99.819881    1.7164626   -98.103419    19955.919     4.410303     4.410303     4.410303    19955.919   -23717.042    74545.695    9039.1056   -5230.6469    2932.9828    13956.888      85.7838 
   10700    2047.0426   -99.958744    1.8522072   -98.106537   -51787.123    4.4299055    4.4299055    4.4299055   -51787.123   -51180.933   -28791.754   -75388.683   -18180.032   -3479.6741   -5683.9292    86.932742 
   10800    2194.5421    -100.0728    1.9856679   -98.087135    8387.5624    4.4208571    4.4208571    4.4208571    8387.5624   -38252.906    59129.237    4286.3556    91.431369   -1249.3973    10047.101    86.401131 
   10900     929.5994   -98.920749   0.84112108   -98.079628    35061.203    4.3953009    4.3953009    4.3953009    35061.203    -5820.142    61762.156    49241.596   -23860.694   -6625.8353   -19957.685    84.911366 
   11000    2255.1093   -100.12589    2.0404703   -98.085415    22260.099    4.3954606    4.3954606    4.3954606    22260.099   -26833.617    105354.93   -11741.015     10.70553    18289.427    17024.629    84.920622 
   11100    1410.7271   -99.392562    1.2764555   -98.116106   -10434.545    4.4142024    4.4142024    4.4142024   -10434.545   -38628.261    2467.9798    4856.6451   -16793.183    -8172.667   -4662.1605    86.011538 
   11200    1974.4751   -99.888398    1.7865466   -98.101851   -3720.6258    4.4228592    4.4228592    4.4228592   -3720.6258   -50430.667     48320.28    -9051.491    2965.5298    16088.619    457.09378    86.518569 
   11300    2305.1975   -100.17492    2.0857911   -98.089126   -29808.635    4.4235956    4.4235956    4.4235956   -29808.635   -49849.765   -44972.638    5396.4988   -21034.973    5055.1373    -7783.949    86.561793 
   11400    1355.8467   -99.313634    1.2267986   -98.086835    8749.1996    4.4088354    4.4088354    4.4088354    8749.1996   -28373.591    42697.152    11924.038   -208.32982    1741.3184   -19715.841    85.698191 
   11500    2044.0743   -99.940809    1.8495214   -98.091288    24975.178     4.394593     4.394593     4.394593    24975.178    10958.525    56923.103    7043.9067   -1779.7183    13942.415   -4299.5316    84.870348 
   11600    1569.7121   -99.550029    1.4203085    -98.12972    13766.858    4.4002759    4.4002759    4.4002759    13766.858   -8419.3266     23946.64    25773.261   -26253.564    13303.966   -23515.448    85.200024 
   11700     1686.777   -99.646591    1.5262313    -98.12036   -13202.135    4.4216012    4.4216012    4.4216012   -13202.135   -34676.424    24175.678   -29105.659    142.10562   -2152.4135   -2088.4166    86.444768 
   11800    1588.4865   -99.546461     1.437296   -98.109165    2986.6759     4.423508     4.423508     4.423508    2986.6759    -29571.64    58893.766   -20362.098   -19373.035    16928.282   -12933.172    86.556652 
   11900    2079.9716   -99.963257    1.8820021   -98.081255   -26775.778    4.4240704    4.4240704    4.4240704   -26775.778   -22795.141    11863.774   -69395.968   -1931.7546    1696.3579   -408.55768    86.589673 
   12000     1625.379   -99.552006    1.4706771   -98.081329   -23316.892    4.4058593    4.4058593    4.4058593   -23316.892   -88043.564    18566.076   -473.18785    -3337.451    18017.902    8449.0342    85.524759 
   12100    2257.5507   -100.13227    2.0426793    -98.08959    19619.042    4.3921595    4.3921595    4.3921595    19619.042    30025.997    51009.272   -22178.142   -13988.741    10575.336    -14242.33    84.729437 
   12200    1043.1557   -99.063975   0.94386919   -98.120106   -4363.5597    4.4125196    4.4125196    4.4125196   -4363.5597   -79690.524     69350.45   -2750.6058   -483.78092    6712.4376    30288.913    85.913208 
   12300    2319.8818   -100.19583    2.0990778   -98.096755   -7157.6007    4.4206836    4.4206836    4.4206836   -7157.6007   -40113.942     56829.81    -38188.67   -1580.4488     16769.51   -14869.273    86.390957 
   12400    641.31395   -98.674946   0.58027434   -98.094672    28758.017    4.4134996    4.4134996    4.4134996    28758.017   -33042.805    107657.09    11659.772    3337.1037     -4102.87   -17452.001    85.970463 
   12500    2259.3976   -100.13236    2.0443504   -98.088008     18190.24     4.407886     4.407886     4.407886     18190.24   -12534.915    60157.008    6948.6261    6431.6633    20483.614    19623.598    85.642841 
   12600    1813.8691   -99.757477    1.6412269    -98.11625   -34764.399    4.4120919    4.4120919    4.4120919   -34764.399   -69193.901   -2719.8657    -32379.43    2932.5597   -9624.3197   -29188.805    85.888227 
   12700    1785.7095   -99.733369    1.6157475   -98.117621    14766.282    4.4099526    4.4099526    4.4099526    14766.282   -32899.874   -25725.959    102924.68   -4857.5206   -8237.9446    18732.404    85.763354 
   12800    2462.0258   -100.35254    2.2276927   -98.124849   -25462.479    4.4203829    4.4203829    4.4203829   -25462.479   -33175.544   -30918.171   -12293.724    1405.6033   -16446.228   -6252.2309    86.373331 
   12900    2016.1531   -99.944708    1.8242577   -98.120451   -41341.719    4.4197574    4.4197574    4.4197574   -41341.719   -84705.067    -43804.42    4484.3314    292.03425   -13674.291    7901.5612    86.336673 
   13000    2065.9826   -99.975303    1.8693445   -98.105959    21577.307    4.4180539    4.4180539    4.4180539    21577.307   -17818.924   -32045.965    114596.81    7520.4148   -10450.479    5142.4686    86.236879 
   13100     1622.257   -99.576332    1.4678523   -98.108479   -31231.058     4.428576     4.428576     4.428576   -31231.058   -71128.165   -48503.451    25938.444    7551.0096   -1846.5745     7414.378    86.854496 
   13200    2330.9777   -100.21814    2.1091176   -98.109018   -21874.838    4.4247863    4.4247863    4.4247863   -21874.838   -31640.767   -44778.834    10795.087   -4251.6283    15618.517    9251.3423    86.631715 
   13300    2127.8416    -100.0446    1.9253158   -98.119287   -13740.172    4.4195642    4.4195642    4.4195642   -13740.172   -24940.671   -14316.994   -1962.8516    2366.4128   -749.00876    12027.716     86.32535 
   13400    1611.2843     -99.5918    1.4579239   -98.133876   -8324.0135    4.4165028    4.4165028    4.4165028   -8324.0135   -31785.319   -64510.465    71323.744   -12224.296   -3672.2344    21784.385     86.14608 
   13500    1677.5278   -99.659873    1.5178624    -98.14201    34833.558    4.4215091    4.4215091    4.4215091    34833.558    8635.5436   -30144.858    126009.99   -15469.003    30727.076   -24937.797    86.439367 
   13600    1669.2103   -99.634563    1.5103366   -98.124226   -45729.399    4.4428803    4.4428803    4.4428803   -45729.399    8747.2665   -78362.893    -67572.57    -1801.192   -17130.058    39634.636    87.698836 
   13700    1724.3951   -99.636989    1.5602689    -98.07672    10555.904    4.4388142    4.4388142    4.4388142    10555.904   -1177.4359   -38940.001     71785.15   -3693.1118    1869.3347    14482.834    87.458276 
   13800    1193.0606   -99.157634    1.0795063   -98.078128    31248.324     4.424576     4.424576     4.424576    31248.324    19864.514    38542.389    35338.069   -1135.3734   -9393.2267    17760.272    86.619362 
   13900    1963.0537   -99.856225    1.7762123   -98.080012   -13354.792    4.4341914    4.4341914    4.4341914   -13354.792    19903.796   -42592.651   -17375.522   -8280.0218   -4517.8231   -10471.647    87.185309 
   14000    2110.5079   -99.993698    1.9096319   -98.084066   -6615.6936    4.4499625    4.4499625    4.4499625   -6615.6936    33909.091   -61062.223    7306.0512    15419.768    13477.543    24730.576    88.118895 
   14100    2028.5955   -99.885212    1.8355158   -98.049696   -51022.295    4.4601251    4.4601251    4.4601251   -51022.295   -84236.459   -58410.944   -10419.483   -11272.985    11378.077    3063.4766    88.724003 
   14200    1900.2201   -99.743026    1.7193591   -98.023666    5955.4245    4.4424628    4.4424628    4.4424628    5955.4245    16223.059   -11846.599    13489.813    10452.492    -1475.008    14314.488    87.674115 
   14300     1793.737   -99.647228    1.6230109   -98.024217    13971.727    4.4161591    4.4161591    4.4161591    13971.727   -32608.681    36890.151     37633.71   -16231.086     26611.02    6014.9633    86.125969 
   14400    1976.9578   -99.854998     1.788793   -98.066205   -13469.701    4.4139112    4.4139112    4.4139112   -13469.701    3525.1586   -34216.304   -9717.9578   -5810.4551   -21264.678    25415.281    85.994522 
   14500    1547.5556   -99.494419    1.4002608   -98.094159    45152.297    4.4248887    4.4248887    4.4248887    45152.297    102.33857    60461.853    74892.698   -9950.7495    -10538.45   -3227.3492    86.637727 
   14600    2153.7769   -100.03476    1.9487826   -98.085975   -39118.911    4.4522532    4.4522532    4.4522532   -39118.911    -56019.35    -41229.37   -20108.013   -197.92758   -3276.6726    29194.752    88.255049 
   14700    2179.0503   -100.02264    1.9716505   -98.050991   -3094.9481    4.4471886    4.4471886    4.4471886   -3094.9481    2624.4769   -40944.574    29035.252   -16378.922    1916.6864    1910.3347    87.954212 
   14800    1289.2335   -99.207237    1.1665256   -98.040712    27108.666    4.4164031    4.4164031    4.4164031    27108.666    18504.262   -32504.371    95326.105    440.11057    4612.2114    4246.3981    86.140247 
   14900    2127.9446   -99.979507     1.925409   -98.054098    11034.093    4.4019139    4.4019139    4.4019139    11034.093   -43494.108    66063.218    10533.169   -10988.384   -78.521118    11762.432    85.295211 
   15000     1787.905   -99.732906     1.617734   -98.115172    13247.339    4.4155141    4.4155141    4.4155141    13247.339   -13470.667    40892.994     12319.69    10363.188   -93.668208    16769.746    86.088239 
   15100    1595.1288   -99.549455    1.4433061   -98.106149   -3402.9128    4.4476231    4.4476231    4.4476231   -3402.9128   -35175.631   -7036.2132    32003.105   -8294.4504    16604.113    10045.784    87.979997 
   15200    1425.1053   -99.360826    1.2894652   -98.071361    -22298.24    4.4299871    4.4299871    4.4299871    -22298.24   -67653.781   -29722.617    30481.677    608.65503    28976.233   -3365.2448    86.937545 
   15300    2187.0099   -100.00913    1.9788525   -98.030281    36720.039    4.3862908    4.3862908    4.3862908    36720.039    55900.939    -13981.16    68240.338   -7900.7586   -7635.1959    10637.393     84.39025 
   15400    1971.0749   -99.867462      1.78347   -98.083993   -16654.765    4.4057821    4.4057821    4.4057821   -16654.765   -36811.228   -7946.3184   -5206.7498    2617.4511    18682.649   -1293.9624    85.520266 
   15500      1716.11   -99.660514    1.5527724   -98.107741   -26712.698    4.4307039    4.4307039    4.4307039   -26712.698    -29552.99   -69731.646    19146.542   -9023.5421    14904.994    2097.5127    86.979753 
   15600     2348.542   -100.19754    2.1250101   -98.072531   -19736.041    4.4311474    4.4311474    4.4311474   -19736.041     -5795.35    -40519.12   -12893.653   -3831.8484    32867.879   -21956.717    87.005879 
   15700    1193.8693   -99.135859     1.080238   -98.055621    2975.4958    4.4175744    4.4175744    4.4175744    2975.4958   -17025.768   -44160.853    70113.108   -11337.482    5803.8769    32768.767    86.208803 
   15800    1787.3031   -99.673722    1.6171894   -98.056532    11697.493    4.4095145    4.4095145    4.4095145    11697.493    -3307.525   -39221.196    77621.202   -6552.3308   -98.568418   -15874.338    85.737798 
   15900    1997.8869   -99.887001      1.80773   -98.079271   -24070.308     4.410804     4.410804     4.410804   -24070.308   -21390.983   -49217.667   -1602.2741   -7330.1204    11968.541    31836.875    85.813039 
   16000    1470.5038   -99.418206    1.3305427   -98.087664    4458.3101    4.4155046    4.4155046    4.4155046    4458.3101   -3485.0612   -50281.013    67141.005    10124.559   -18711.858   -34657.086    86.087684 
   16100         1964   -99.861769    1.7770684     -98.0847   -9720.6791    4.4193454    4.4193454    4.4193454   -9720.6791    2430.1345    -30771.56   -820.61174   -27715.116   -11853.781     30431.88    86.312529 
   16200    1599.4631   -99.511547    1.4472278   -98.064319    5902.8704    4.4164116    4.4164116    4.4164116    5902.8704    27592.826   -54126.323    44242.108    4310.2497   -9115.8104   -5748.4325    86.140747 
   16300    1803.1357   -99.709526    1.6315151   -98.078011   -9959.0576    4.4123281    4.4123281    4.4123281   -9959.0576   -7167.8561   -18516.067   -4193.2495   -19056.083   -16427.725    14829.166    85.902027 
   16400     1789.168   -99.685955    1.6188768   -98.067078     19548.36    4.4033129    4.4033129    4.4033129     19548.36    40781.273    5396.0268    12467.782   -4319.6217     4589.048    402.83514    85.376556 
   16500    1717.9127   -99.631658    1.5544035   -98.077254   -4493.5546    4.3977174    4.3977174    4.3977174   -4493.5546    4795.0272   -7270.6033   -11005.088   -25018.697   -10095.351    13931.916    85.051495 
   16600    2558.3432   -100.40335    2.3148427   -98.088503   -12785.823    4.4086061    4.4086061    4.4086061   -12785.823   -2809.5742   -12838.737   -22709.157     8237.883    1218.0655    10034.362    85.684823 
   16700    1212.4771   -99.193412    1.0970748   -98.096337    9443.6192    4.4092789    4.4092789    4.4092789    9443.6192    23206.941    22746.723   -17622.806    -19390.36   -7538.0082   -1052.0157    85.724056 
   16800    1811.1771   -99.728912    1.6387911   -98.090121    37044.908    4.4057751    4.4057751    4.4057751    37044.908    63270.088    36708.487    11156.149    2728.9234   -13805.733    609.54088    85.519858 
   16900    1664.1068    -99.59518    1.5057188   -98.089461   -12493.775    4.4136351    4.4136351    4.4136351   -12493.775    -25597.41   -47089.257    35205.342    1773.4939    3015.5335   -14635.818    85.978386 
   17000    2057.6509   -99.927083    1.8618058   -98.065277   -23168.547     4.405891     4.405891     4.405891   -23168.547    18886.376   -31890.051   -56501.966   -24648.493     33612.33    -1551.593    85.526608 
   17100    1603.2077   -99.528064     1.450616   -98.077448    31491.977    4.3967233    4.3967233    4.3967233    31491.977    52919.563    42245.455   -689.08569     -1308.78   -16254.717    2948.6108    84.993829 
   17200    1480.5095   -99.436307    1.3395961   -98.096711   -7295.8156    4.4141146    4.4141146    4.4141146   -7295.8156    1738.5468     3.375222   -23629.369   -12933.473      12447.6    11940.421    86.006407 
   17300    2251.4814   -100.11048    2.0371877    -98.07329   -38150.676    4.4307897    4.4307897    4.4307897   -38150.676   -9404.5968   -50561.041   -54486.392    -3685.138    10761.311   -7419.2452    86.984806 
   17400    1859.1072   -99.738161    1.6821592   -98.056001   -5970.6241    4.4140089    4.4140089    4.4140089   -5970.6241    17650.065   -13458.728   -22103.209   -20124.812    5170.3906   -17276.181    86.000229 
   17500    1804.7825   -99.694855    1.6330052    -98.06185   -4823.3099    4.3972541    4.3972541    4.3972541   -4823.3099   -16887.145     7894.471   -5477.2552    8818.7736    8784.5613    6818.8196    85.024616 
   17600     1979.835   -99.886804    1.7913963   -98.095408    23316.346    4.3952481    4.3952481    4.3952481    23316.346    39993.644      28438.2    1517.1949   -1736.9861    10208.768   -2515.9643     84.90831 
   17700    1598.1959   -99.551945    1.4460813   -98.105864   -23742.045    4.4180955    4.4180955    4.4180955   -23742.045   -35509.827   -13578.547    -22137.76   -13867.598    22780.907   -740.03211    86.239313 
   17800    1996.3713   -99.888917    1.8063587   -98.082558   -28679.443    4.4160774    4.4160774    4.4160774   -28679.443    15120.503   -50191.456   -50967.375    13663.771   -3455.3243   -7458.2584    86.121191 
   17900    1892.8973   -99.799493    1.7127332    -98.08676     14671.45    4.3937516    4.3937516    4.3937516     14671.45    24218.064     8294.839    11501.448   -10372.561    25786.935    16440.243    84.821606 
   18000    1778.4735   -99.709916    1.6092002   -98.100716   -9500.1283    4.4020558    4.4020558    4.4020558   -9500.1283    16526.267   -1782.4996   -43244.152    6676.0269    -4382.593    4084.9898    85.303456 
   18100    1629.9825   -99.591284    1.4748424   -98.116442   -3991.7077    4.4037393    4.4037393    4.4037393   -3991.7077   -11209.142   -7825.9624    7059.9813   -14847.321    32873.412     3379.419    85.401362 
   18200    2174.5574   -100.06801    1.9675852   -98.100421    14160.882    4.4115601    4.4115601    4.4115601    14160.882    10114.716    -1207.763    33575.692    994.55677   -7805.2975    9529.4438    85.857176 
   18300    1209.6859   -99.184208    1.0945492   -98.089658   -42426.961    4.4159322    4.4159322    4.4159322   -42426.961   -34037.859   -13876.829   -79366.196   -16095.001    38039.571   -7789.6121    86.112695 
   18400      2258.63    -100.1084    2.0436559    -98.06474    22653.001    4.4026916    4.4026916    4.4026916    22653.001    19944.432   -14914.705    62929.276   -16517.505   -16811.314    8035.3419    85.340422 
   18500    1871.9387   -99.778729    1.6937694   -98.084959    -3726.193    4.4033831    4.4033831    4.4033831    -3726.193   -17274.946     31101.33   -25004.963   -6519.5257    30906.985   -4575.5786    85.380643 
   18600    1522.4878   -99.480943     1.377579   -98.103365    11998.524    4.4136213    4.4136213    4.4136213    11998.524    15436.686   -3413.0913    23971.976   -14021.855   -4728.0982     8738.048    85.977577 
   18700    2008.7526   -99.902251    1.8175616   -98.084689   -2412.9707    4.4280435    4.4280435    4.4280435   -2412.9707    -24693.75    49855.645   -32400.808    5622.9804    23630.185    12226.458    86.823168 
   18800     918.7812   -98.886903   0.83133254    -98.05557   -12018.629    4.4184748    4.4184748    4.4184748   -12018.629   -25543.473    17250.262   -27762.676    592.25564   -4848.6601    21049.335    86.261526 
   18900    2499.0366   -100.30365    2.2611809   -98.042473    15994.924    4.3936882    4.3936882    4.3936882    15994.924   -4389.7916   -22263.178    74637.743    8774.9244    -3398.871   -1027.1677    84.817938 
   19000    1391.4681   -99.344958    1.2590296   -98.085929    12322.489     4.392832     4.392832     4.392832    12322.489   -3225.9176    40498.793   -305.40969    -34387.31    15161.531    29767.675    84.768363 
   19100    1577.2961   -99.522912    1.4271707   -98.095741    10285.114    4.4022188    4.4022188    4.4022188    10285.114   -19353.176    587.48008    49621.038    11479.411   -20566.517    5498.4254    85.312935 
   19200    1604.9012   -99.562629    1.4521483    -98.11048    16166.908    4.4113481    4.4113481    4.4113481    16166.908    20477.992   -12232.016    40254.747   -24289.765    24587.466    -1910.866    85.844798 
   19300    2237.2773   -100.10726    2.0243355   -98.082923   -6158.8068    4.4150387    4.4150387    4.4150387   -6158.8068   -11934.311   -3010.9076   -3531.2017    5252.6412    368.65317    15251.504    86.060436 
   19400    1350.3726   -99.302968    1.2218455   -98.081123    4297.9746    4.3964754    4.3964754    4.3964754    4297.9746   -39396.837   -7909.8665    60200.627   -17540.133    10587.362   -11879.768    84.979457 
   19500    2215.4269   -100.10404    2.0045648   -98.099479     12808.36    4.3891299    4.3891299    4.3891299     12808.36    39193.046   -21309.414    20541.447   -26657.185     -6286.19    19880.405    84.554221 
   19600    1879.4623   -99.820042     1.700577   -98.119465    1009.2195    4.4097383    4.4097383    4.4097383    1009.2195   -22299.959    18576.627    6750.9906     4422.456    15978.548   -2207.2327    85.750853 
   19700    1246.7545   -99.235546    1.1280897   -98.107456   -5694.0055    4.4299112    4.4299112    4.4299112   -5694.0055    1346.3211    8057.7424    -26486.08   -14711.869    14749.359    7235.0774     86.93308 
   19800    2534.1637   -100.36347    2.2929646   -98.070509   -22711.586      4.43355      4.43355      4.43355   -22711.586   -64763.209    2025.1132   -5396.6612   -10993.302   -4550.8207   -13356.118    87.147478 
   19900    1350.3104    -99.27703    1.2217893    -98.05524   -13459.624    4.4034976    4.4034976    4.4034976   -13459.624   -19332.778   -26259.884    5213.7914   -34892.455    10459.573   -6491.4079    85.387303 
   20000    2135.4415   -100.00126    1.9321924    -98.06907    34809.489    4.3830599    4.3830599    4.3830599    34809.489     45835.95    40365.588     18226.93   -11283.067    9248.7957    14356.113    84.203905 
   20100    2002.2996   -99.958403    1.8117228    -98.14668    11797.369    4.4226661    4.4226661    4.4226661    11797.369   -5199.7753    52237.998   -11646.117   -9211.5839   -2295.8335    11915.712    86.507238 
   20200     1433.061   -99.383244    1.2966637   -98.086581   -52781.114    4.4649663    4.4649663    4.4649663   -52781.114   -38197.136   -48965.076   -71181.131   -20731.151   -8243.1922     8135.432    89.013232 
   20300    2541.9601   -100.31304     2.300019   -98.013021   -26686.759    4.4402227    4.4402227    4.4402227   -26686.759   -40351.479   -1264.5794   -38444.219   -13214.869    7645.7713     11882.37    87.541553 
   20400     1389.467   -99.262264     1.257219   -98.005045   -8331.9929    4.3985779    4.3985779    4.3985779   -8331.9929   -13155.463   -38608.845     26768.33   -4578.3075   -445.75329   -12354.484     85.10143 
   20500    1872.5465   -99.752218    1.6943194   -98.057899    33243.185    4.3837542    4.3837542    4.3837542    33243.185    261.13566       110769   -11300.579   -3485.1571   -6409.8755    7068.7586    84.243926 
   20600    2236.1913   -100.18782    2.0233528   -98.164471   -14622.593    4.4188158    4.4188158    4.4188158   -14622.593   -43953.292    6192.4006   -6106.8877    3972.8862    -265.2036    2783.1442      86.2815 
   20700    2000.2987   -99.928014    1.8099123   -98.118102   -29462.988    4.4533789    4.4533789    4.4533789   -29462.988   -49767.758    26633.583   -65254.789   -10750.694    10523.634    3546.5704    88.322008 
   20800    2243.9644   -100.08893    2.0303861   -98.058548    -50064.99    4.4482566    4.4482566    4.4482566    -50064.99   -74266.808   -42124.807   -33803.354      25113.3     9032.138    11060.712    88.017596 
   20900    2266.3007    -100.0561    2.0505965   -98.005504   -10616.605    4.4128459    4.4128459    4.4128459   -10616.605   -43826.087    4010.5283    7965.7425    8338.8917   -9967.1596    12865.667    85.932273 
   21000    2321.3164   -100.15621    2.1003758   -98.055834    1858.4502    4.4054457    4.4054457    4.4054457    1858.4502   -26563.946    28860.941    3278.3561    8511.9976    12931.176   -4175.3153    85.500679 
   21100    1730.6046   -99.670937    1.5658874    -98.10505    13974.856    4.4322552    4.4322552    4.4322552    13974.856   -45125.224    62515.673     24534.12   -10215.055    4736.0451    12304.945    87.071146 
   21200    2142.0377   -100.03867    1.9381607   -98.100512   -50130.464    4.4459803    4.4459803    4.4459803   -50130.464    -90162.69   -26231.565   -33997.137     18245.58    16422.351    -4012.039     87.88254 
   21300    1959.4146   -99.854278    1.7729195   -98.081358    11316.356    4.4252008    4.4252008    4.4252008    11316.356   -45539.298    49460.663    30027.704   -13707.631    -8923.694    14311.203    86.656064 
   21400    1528.9989   -99.481081    1.3834704   -98.097611    4341.0563    4.4097172    4.4097172    4.4097172    4341.0563   -36111.386     40896.88    8237.6755    28497.776    10667.191   -5973.5533    85.749624 
   21500    2368.1618   -100.24632    2.1427625   -98.103562    14523.806    4.4050941    4.4050941    4.4050941    14523.806    39495.645   -26908.948    30984.721   -10520.073   -2776.0086     19752.48    85.480206 
   21600    1317.4928    -99.32477    1.1920952   -98.132675    4843.7322    4.4351426    4.4351426    4.4351426    4843.7322    15032.912    8608.6385    -9110.354    13830.629    239.25946   -18798.214    87.241429 
   21700    2403.8815   -100.26667    2.1750825   -98.091583   -48524.253    4.4470758    4.4470758    4.4470758   -48524.253   -80529.133    -6968.426   -58075.199   -6143.9111   -15294.804    3386.3098    87.947517 
   21800    1442.3876    -99.36239    1.3051027   -98.057288    14780.938    4.4419917    4.4419917    4.4419917    14780.938    26423.398    44433.737    -26514.32    -18640.07    2113.0452    -1044.752    87.646225 
   21900    1652.5273   -99.546334    1.4952414   -98.051093   -42367.991    4.4367218    4.4367218    4.4367218   -42367.991   -57347.257    -30042.75   -39713.965    -49238.49   -17982.566   -4686.3057    87.334654 
   22000    1422.5356   -99.328616    1.2871401   -98.041476    56679.344    4.4026348    4.4026348    4.4026348    56679.344    54270.516    134129.63   -18362.116   -15324.323    8777.6305    2319.1507    85.337118 
   22100    2014.9331   -99.929127    1.8231538   -98.105973    14181.791    4.4093005    4.4093005    4.4093005    14181.791   -20484.692    66955.039   -3924.9726    787.76851   -4816.0293   -3251.8248    85.725315 
   22200    1394.3038   -99.388037    1.2615954   -98.126441    14124.446    4.4459737    4.4459737    4.4459737    14124.446    24258.554    69805.959   -51691.176    7182.4392   -6568.5997    -11970.01    87.882148 
   22300     2103.412   -99.975749    1.9032114   -98.072538   -34953.003    4.4619389    4.4619389    4.4619389   -34953.003   -47864.015   -34947.162   -22047.832    546.45092    5903.0144    2365.2313     88.83229 
   22400    1144.9336   -99.060213      1.03596   -98.024253    36162.174    4.4377465    4.4377465    4.4377465    36162.174    20998.528    41479.429    46008.565   -9790.4581   -22554.868    4933.4802    87.395178 
   22500    2089.7332   -99.914419    1.8908345   -98.023585    8368.8629    4.4237873    4.4237873    4.4237873    8368.8629   -14167.429   -2039.1536    41313.172    715.58396   -20486.799    -11442.91    86.573051 
   22600    1817.3706   -99.728705    1.6443951    -98.08431   -1468.2806    4.4329542    4.4329542    4.4329542   -1468.2806   -25256.028   -28466.971    49318.158    13154.308   -17255.347   -13340.778    87.112352 
   22700     1577.209   -99.527479    1.4270919   -98.100387   -6405.4575    4.4503298    4.4503298    4.4503298   -6405.4575   -43845.248    35063.333   -10434.458   -5835.8177   -46.146647   -3943.2166    88.140721 
   22800    2030.9177   -99.908838     1.837617   -98.071221   -27658.037    4.4506192    4.4506192    4.4506192   -27658.037   -10532.562   -7480.7362   -64960.813    4777.3378    8789.8691   -5344.4208    88.157916 
   22900    2358.4208   -100.19601    2.1339487   -98.062057   -27194.235    4.4401853    4.4401853    4.4401853   -27194.235   -52367.706    -39836.11    10621.112   -1198.4673    4192.4778   -6018.7076    87.539346 
   23000    1841.0106   -99.741779    1.6657851   -98.075994    12447.744    4.4272278    4.4272278    4.4272278    12447.744   -41120.631    56920.195    21543.668    13944.381   -18098.976    5586.0518    86.775195 
   23100    1508.4739   -99.469209    1.3648989    -98.10431    37405.022    4.4378355    4.4378355    4.4378355    37405.022    1487.5303   -8592.5612     119320.1    5397.6342    8548.2829    671.57976    87.400436 
   23200    1392.8211   -99.358556    1.2602538   -98.098302   -9394.6389    4.4613114    4.4613114    4.4613114   -9394.6389   -43646.833    -40677.29    56140.207    2604.3959   -1864.3301   -8344.0984    88.794817 
   23300    2102.8497   -99.947793    1.9027026    -98.04509   -19027.408    4.4547925    4.4547925    4.4547925   -19027.408   -56473.075   -15404.225    14795.076   -11191.438    126.21178    16552.628    88.406139 
   23400    1225.1607   -99.167001    1.1085511    -98.05845    897.36971    4.4309958    4.4309958    4.4309958    897.36971    10154.453   -7336.3015   -126.04261   -5960.3139     23336.79    1597.4352    86.996947 
   23500     1959.656   -99.823108    1.7731379   -98.049971    14947.981    4.4130335    4.4130335    4.4130335    14947.981    -49189.18    49875.821    44157.302   -9934.5848    18876.171   -9932.8661    85.943229 
   23600    1820.4078   -99.730171    1.6471432   -98.083027   -26102.777    4.4179662    4.4179662    4.4179662   -26102.777   -59932.138   -59496.609    41120.417    17187.305    -22015.42     1801.092    86.231746 
   23700    1641.6505   -99.577206    1.4853999   -98.091806    2400.0654    4.4369501    4.4369501    4.4369501    2400.0654   -35610.587    46758.545   -3947.7619   -8050.5187    11448.854   -13033.447    87.348131 
   23800    1852.7997   -99.767152    1.6764521     -98.0907   -35751.683     4.448892     4.448892     4.448892   -35751.683   -76649.664   -32936.623    2331.2403   -346.15455     5779.466    8155.6154    88.055319 
   23900    1711.2615     -99.6125    1.5483854   -98.064115     8410.378    4.4400937    4.4400937    4.4400937     8410.378   -7361.8726    71755.487    -39162.48   -8631.4956    2110.1729    25563.853    87.533928 
   24000    1914.6957   -99.794345    1.7324569   -98.061888   -4774.7889    4.4313448    4.4313448    4.4313448   -4774.7889   -56050.791    44720.414   -2993.9896   -13114.698    9213.0798   -12958.909    87.017508 
   24100    2670.9331   -100.49829    2.4167164   -98.081572   -47926.029     4.435513     4.435513     4.435513   -47926.029   -42811.747   -43114.686   -57851.655    9050.8031    5179.4084    1473.1265    87.263286 
   24200    1738.9666   -99.679333    1.5734535   -98.105879    1142.9054    4.4346302    4.4346302    4.4346302    1142.9054   -5949.8184    22520.901   -13142.366    -2855.732   -10868.644   -20057.414    87.211195 
   24300    1326.8681   -99.309391    1.2005782   -98.108813      32257.6    4.4380416    4.4380416    4.4380416      32257.6   -20834.462    40675.582    76931.681    1393.7416   -8000.8977   -830.92333    87.412616 
   24400    1890.4124   -99.806007    1.7104849   -98.095522   -15283.098    4.4453599    4.4453599    4.4453599   -15283.098   -7233.2261    -29047.94   -9568.1292   -12786.922   -20117.098   -2963.6583    87.845757 
   24500    2522.0722   -100.35202    2.2820239   -98.069994   -29928.636    4.4491251    4.4491251    4.4491251   -29928.636   -58272.408   -18786.784   -12726.718   -3229.5005   -5323.2838   -7376.5743    88.069162 
   24600     1211.625   -99.166248    1.0963038   -98.069944    157.70377      4.45635      4.45635      4.45635    157.70377    -48521.83    52084.874   -3089.9327   -12386.412   -14725.946   -2076.6159    88.498904 
   24700    2079.0723   -99.926776    1.8811884   -98.045587   -33658.162    4.4550315    4.4550315    4.4550315   -33658.162   -34992.094   -25983.677   -39998.716    -26273.51   -8161.2048    7505.5819    88.420371 
   24800    1202.2049   -99.128297    1.0877802   -98.040517    27149.926    4.4437683    4.4437683    4.4437683    27149.926     54407.78    45890.636   -18848.637    5418.4351    9593.7669   -32623.842    87.751432 
   24900      1400.92   -99.308356    1.2675819   -98.040774    44950.785    4.4442873    4.4442873    4.4442873    44950.785    66674.758    65345.704    2831.8952    12934.573    8680.2103   -13060.748    87.782182 
   25000     1915.973   -99.780355    1.7336126   -98.046742    -19346.72    4.4619886    4.4619886    4.4619886    -19346.72   -22132.888   -33848.339   -2058.9332    2351.1301   -14538.192     8293.794    88.835257 
   25100    1888.0333   -99.734671    1.7083322   -98.026339   -38614.693    4.4515486    4.4515486    4.4515486   -38614.693    -70079.53   -23199.697   -22564.854   -2066.2701     1823.615    522.15514    88.213154 
   25200    1915.7988   -99.759787     1.733455   -98.026332    98.347637     4.423597     4.423597     4.423597    98.347637   -37654.998    -31482.91     69432.95    11172.712    9805.5507    9300.1255    86.561876 
   25300    1512.4031   -99.444279    1.3684542   -98.075825    104.04511    4.4221373    4.4221373    4.4221373    104.04511   -23682.143   -15318.587    39312.865   -1945.8165    9447.5765   -20906.881    86.476216 
   25400     2180.693     -100.077    1.9731368   -98.103866   -27882.753    4.4265727    4.4265727    4.4265727   -27882.753    3893.2138   -54255.501   -33285.972   -5881.1645     12130.37    5617.2291    86.736681 
   25500    1174.9812    -99.17454    1.0631477   -98.111392    26649.806    4.4383471    4.4383471    4.4383471    26649.806    3262.9077   -35473.101    112159.61    10560.945    13380.822    12005.473    87.430669 
   25600    2090.8155   -99.983929    1.8918138   -98.092115   -59130.293     4.453399     4.453399     4.453399   -59130.293   -107981.26   -65789.259   -3620.3576    13635.827    19751.536   -17440.036    88.323205 
   25700    2157.3647   -100.03327    1.9520289   -98.081245    6353.9471    4.4237655    4.4237655    4.4237655    6353.9471   -25795.826   -12165.534    57023.201   -2202.5017   -457.97163    -8209.015    86.571767 
   25800    1558.9187   -99.533274    1.4105424   -98.122732    28577.867    4.4120198    4.4120198    4.4120198    28577.867    13946.182    24706.932    47080.485    9650.5374    21252.644   -8844.4306    85.884017 
   25900    2314.0206   -100.23411    2.0937744   -98.140339   -30233.422    4.4383944    4.4383944    4.4383944   -30233.422   -33739.107   -43478.346   -13482.814   -168.48851    13157.269   -11246.245    87.433464 
   26000    1091.4468   -99.102637   0.98756399   -98.115073    7438.2402    4.4415219    4.4415219    4.4415219    7438.2402   -63406.078    42245.082    43475.716    2938.8704    18174.283   -4786.0448    87.618421 
   26100    2028.7753   -99.908925    1.8356785   -98.073247    2324.4703    4.4426358    4.4426358    4.4426358    2324.4703   -8195.6969    18997.356   -3828.2479    13566.226    14215.223   -25712.449    87.684358 
   26200     1376.849   -99.305799    1.2458019   -98.059997    1253.7525    4.4444318    4.4444318    4.4444318    1253.7525    42453.002   -46284.355      7592.61    -2397.336    42222.123   -9796.9905    87.790746 
   26300    1941.4665   -99.798123    1.7566797   -98.041444   -2589.6674    4.4424837    4.4424837    4.4424837   -2589.6674    24622.027   -51267.171    18876.142    -15577.68    3152.1449   -2617.3744    87.675357 
   26400      2184.42   -100.03461    1.9765091   -98.058099   -41469.758    4.4607671    4.4607671    4.4607671   -41469.758   -15996.077    -49290.19   -59123.008   -11340.502    25534.559   -8582.1026    88.762322 
   26500    1599.9145    -99.49073    1.4476363   -98.043094   -27036.265      4.44982      4.44982      4.44982   -27036.265   -59864.041   -52640.038    31395.285   -1277.8196    2123.5385    4395.1095    88.110431 
   26600    1920.7455   -99.763895    1.7379309   -98.025964    34834.949    4.4124689    4.4124689    4.4124689    34834.949     91768.68    5859.4317    6876.7357    15756.389    9614.7543   -10138.486    85.910247 
   26700    1612.6517     -99.5567    1.4591612   -98.097539    17318.198    4.4173884    4.4173884    4.4173884    17318.198    95705.465   -37521.157   -6229.7149    9295.8677   -28997.777   -8293.7143    86.197914 
   26800    1788.2383   -99.735587    1.6180356   -98.117552    13631.517     4.441405     4.441405     4.441405    13631.517    48955.274   -585.18098   -7475.5417   -7767.1838    359.04568   -4786.0981    87.611503 
   26900    1675.0781   -99.604894    1.5156459   -98.089248   -10136.817    4.4532811    4.4532811    4.4532811   -10136.817   -14889.844   -10257.711   -5262.8944    18013.731   -1955.3474    -12641.78     88.31619 
   27000    1658.8113   -99.540193    1.5009273   -98.039265     20516.52    4.4461839    4.4461839    4.4461839     20516.52    24918.609   -7021.8228    43652.775   -6794.2923   -322.22836    8855.6718    87.894613 
   27100    1947.3766    -99.79955    1.7620273   -98.037522   -38142.936    4.4343986    4.4343986    4.4343986   -38142.936   -29090.398   -80328.682    -5009.726   -10577.855    1185.8043   -4415.7962    87.197528 
   27200    2032.1412   -99.884297    1.8387241   -98.045573    18000.479    4.4273473    4.4273473    4.4273473    18000.479     34028.97   -20462.532        40435   -4219.0712   -17004.876   -11680.027    86.782223 
   27300    1385.5744   -99.329516    1.2536969   -98.075819   -11973.205    4.4429178    4.4429178    4.4429178   -11973.205    21389.429   -28506.455    -28802.59   -11329.026    6377.6939   -20112.242    87.701061 
   27400    2199.3127   -100.04676    1.9899843   -98.056777   -14679.793      4.44846      4.44846      4.44846   -14679.793    37869.585   -28494.229   -53414.735   -15656.951    1359.2356     11097.28    88.029671 
   27500    1180.7688   -99.129499    1.0683844   -98.061115    12715.026    4.4427279    4.4427279    4.4427279    12715.026    7344.1838   -31394.958    62195.851   -8830.4546     22319.41    19904.996    87.689813 
   27600    1942.8945   -99.792299    1.7579718   -98.034327    29632.809    4.4338288    4.4338288    4.4338288    29632.809    12725.167    57567.665    18605.596   -10116.786   -9621.2162    7121.1296    87.163923 
   27700    1803.7669   -99.675261    1.6320862   -98.043174    4396.7617    4.4328549    4.4328549    4.4328549    4396.7617    24901.388   -8270.7977   -3440.3052   -5745.6517    21163.252   -17931.999    87.106496 
   27800    1747.5761   -99.635899    1.5812436   -98.054656    17377.217    4.4381476    4.4381476    4.4381476    17377.217    205.91331    39308.416    12617.322    14469.852   -62.589495   -10096.385    87.418876 
   27900    1868.8091   -99.746767    1.6909378   -98.055829   -7459.2454    4.4383499    4.4383499    4.4383499   -7459.2454   -31133.614   -14108.909    22864.787    366.11372    16183.155   -19972.886    87.430834 
   28000    1836.1859   -99.713787    1.6614196   -98.052367    9775.1439    4.4313488    4.4313488    4.4313488    9775.1439   -15198.627    110306.65   -65782.587    16851.033   -4068.4291    3471.3733    87.017742 
   28100    1738.9141   -99.637393     1.573406   -98.063987   -567.62523    4.4229175    4.4229175    4.4229175   -567.62523   -33195.752    299.55603    31193.321    -5646.388   -6232.9236    2619.1033    86.521994 
   28200    1859.2274   -99.756384     1.682268   -98.074115    36696.721    4.4204528    4.4204528    4.4204528    36696.721    42347.838    84810.061   -17067.735    14640.086   -9183.6827   -21801.951    86.377429 
   28300    1979.3372   -99.891324    1.7909459   -98.100378    -22778.11    4.4453014    4.4453014    4.4453014    -22778.11    18934.604   -3750.5331   -83518.401   -1973.5172   -8734.1673   -3707.5849    87.842286 
   28400    2194.7824   -100.04769    1.9858853   -98.061805   -4426.1584    4.4546662    4.4546662    4.4546662   -4426.1584    15764.588   -5179.0953   -23863.967   -17271.969   -4780.4009   -157.64721    88.398622 
   28500    1865.1667   -99.743737     1.687642   -98.056095   -40543.929    4.4401428    4.4401428    4.4401428   -40543.929   -49673.698   -8305.2281   -63652.862   -8545.0125   -13752.783    10393.128    87.536827 
   28600    1696.2088   -99.574128    1.5347654   -98.039363    59702.763    4.4087403    4.4087403    4.4087403    59702.763    56475.481     25194.07    97438.739    18212.361   -3690.4727   -3287.3452    85.692647 
   28700    1650.4269   -99.584518     1.493341   -98.091177   -17294.263    4.4175131    4.4175131    4.4175131   -17294.263    -24759.84   -7052.7338   -20070.215   -17484.152   -3383.7328    16773.301    86.205212 
   28800     2514.124   -100.35556    2.2748322   -98.080726   -12833.141    4.4324569    4.4324569    4.4324569   -12833.141   -43059.675   -18954.869     23515.12    20690.358   -401.17812   -10375.149    87.083035 
   28900    1454.4545   -99.387024     1.316021   -98.071003   -11446.623    4.4292535    4.4292535    4.4292535   -11446.623   -22908.736    10746.871   -22178.004   -6602.2695   -13991.555    13575.281    86.894363 
   29000    1928.2479   -99.802388    1.7447192   -98.057668    20214.501    4.4178485    4.4178485    4.4178485    20214.501    9522.9689   -1932.1703    53052.705    14989.713    19329.419   -21440.831    86.224852 
   29100    1455.4319   -99.397064    1.3169054   -98.080158    41135.879    4.4140202    4.4140202    4.4140202    41135.879    8384.4016    57801.203    57222.033   -6952.8464   -3002.9186    26133.387     86.00089 
   29200    2078.1281    -99.95456     1.880334   -98.074226   -10850.875    4.4363452    4.4363452    4.4363452   -10850.875   -20502.176   -32358.729    20308.281    25434.752    6760.0516   -9789.6509    87.312414 
   29300    1761.8103   -99.636537     1.594123   -98.042414    10456.282    4.4265115    4.4265115    4.4265115    10456.282   -15664.143    47546.885   -513.89751   -5275.4936   -5639.0103    33224.077    86.733084 
   29400    1996.1005    -99.85379    1.8061137   -98.047676   -1709.3838     4.416682     4.416682     4.416682   -1709.3838    7173.5286   -4355.9601   -7945.7199    24253.576    9907.4366   -22540.798    86.156569 
   29500    1298.7221   -99.236019    1.1751111   -98.060908    37361.309    4.4193068    4.4193068    4.4193068    37361.309    3662.0927    110745.86   -2324.0215   -3960.4701    9170.8312   -4195.0255    86.310266 
   29600    2192.3388    -100.0527    1.9836742   -98.069026    -52419.67    4.4251646    4.4251646    4.4251646    -52419.67   -74561.936   -44041.583   -38655.492    29385.697    10410.239    8622.1726    86.653933 
   29700     1544.654   -99.472094    1.3976354   -98.074459     27849.31    4.4166417    4.4166417    4.4166417     27849.31    15884.731     60541.43    7121.7704    7502.6692    422.17902   -25730.437    86.154208 
   29800    1691.4764   -99.616895    1.5304834   -98.086412   -4593.6912    4.4117133    4.4117133    4.4117133   -4593.6912   -35407.822   -14669.708    36296.456   -9731.9793   -6576.7795    19695.379    85.866124 
   29900    1747.2362   -99.666396     1.580936    -98.08546    8646.0131    4.4093508    4.4093508    4.4093508    8646.0131    25032.937    27982.189   -27077.087    25948.536    1685.5293   -4670.9934    85.728249 
   30000    2094.0038   -99.979527    1.8946987   -98.084828   -16097.111    4.4130436    4.4130436    4.4130436   -16097.111   -27876.995   -132.82985   -20281.506   -6360.7984   -519.43191    1902.3804     85.94382 
   30100    1714.2433    -99.64326    1.5510834   -98.092177   -17748.719    4.4231972    4.4231972    4.4231972   -17748.719    22107.722   -28796.981   -46556.898    14695.885    2791.6601   -19163.068     86.53841 
   30200    1422.2959   -99.361351    1.2869232   -98.074428     10725.98    4.4121851    4.4121851    4.4121851     10725.98    3946.5994   -10980.369    39211.711    10266.368   -10896.585    7122.8778    85.893671 
   30300    2022.1414   -99.912369     1.829676   -98.082693    7614.4884    4.4072658    4.4072658    4.4072658    7614.4884    26107.642    7532.0904   -10796.268    18997.706    820.08538   -12777.568    85.606694 
   30400    1563.6061   -99.508344    1.4147837    -98.09356   -14449.636      4.42393      4.42393      4.42393   -14449.636    2176.2858   -66850.847    21325.654    17476.327   -24863.289    7803.9204    86.581424 
   30500    1411.2062   -99.381759    1.2768891    -98.10487    10681.215    4.4294297    4.4294297    4.4294297    10681.215    72097.926   -9926.0872   -30128.193    13119.645    13704.786   -243.71361    86.904737 
   30600    1996.7981   -99.906257    1.8067449   -98.099512   -13159.736    4.4206777    4.4206777    4.4206777   -13159.736   -16331.932   -45667.089    22519.813    19747.091     15125.05    4738.5877    86.390615 
   30700    1457.7969   -99.423845    1.3190453     -98.1048    16831.449    4.4054767    4.4054767    4.4054767    16831.449      43249.7    3275.0061    3969.6401    25542.084   -9526.2539   -11051.873    85.502482 
   30800    1999.7434   -99.913727    1.8094099   -98.104317    14783.147    4.4105197    4.4105197    4.4105197    14783.147    33434.523   -861.85525    11776.773    3432.8499    12868.781    10480.472    85.796447 
   30900    1582.3649   -99.533745     1.431757   -98.101988   -3098.4093    4.4078479    4.4078479    4.4078479   -3098.4093   -15530.293   -15322.536    21557.601    33420.633    1308.1967   -37130.487    85.640618 
   31000    1994.3352   -99.897737    1.8045164   -98.093221    9204.8666    4.4206638    4.4206638    4.4206638    9204.8666   -3228.8297     47800.35    -16956.92   -14717.719    12345.579    2817.4195      86.3898 
   31100    1391.5076   -99.328108    1.2590654   -98.069042    6153.6158    4.4280932    4.4280932    4.4280932    6153.6158    20035.002   -42614.237    41040.083    35009.494    18036.181   -8149.8526    86.826094 
   31200    1936.7769   -99.791876    1.7524364    -98.03944   -10222.518    4.4249641    4.4249641    4.4249641   -10222.518    -55459.16   -22337.339    47128.944   -11911.295    12581.477   -17550.163    86.642156 
   31300    1746.6217   -99.618064      1.58038   -98.037684   -5695.7174    4.4246319    4.4246319    4.4246319   -5695.7174   -23103.643   -27552.475    33568.966    2902.8864   -16018.754   -6792.7186    86.622644 
   31400    1667.4618   -99.547923    1.5087545   -98.039168   -13077.857    4.4209529    4.4209529    4.4209529   -13077.857   -10167.472   -77957.596    48891.498    3733.6196    9615.6851   -14853.987    86.406747 
   31500    2220.5226   -100.04721    2.0091755   -98.038039   -4940.1252    4.4150542    4.4150542    4.4150542   -4940.1252     -25235.9   -28290.711    38706.235    18016.361   -8760.4419    15606.226    86.061341 
   31600    1474.6816   -99.386591    1.3343229   -98.052268     12534.17    4.4182228    4.4182228    4.4182228     12534.17    17360.017   -42060.108      62302.6    1493.2925   -18523.969   -14417.516    86.246767 
   31700    2131.5356   -99.986822    1.9286582   -98.058163   -31102.469    4.4350316    4.4350316    4.4350316   -31102.469   -66755.464   -259.64398   -26292.298    28295.156   -8537.3156    1029.9048    87.234878 
   31800    2035.5374   -99.897493     1.841797   -98.055696   -5426.2093    4.4272303    4.4272303    4.4272303   -5426.2093    42787.161   -46239.594   -12826.196   -12699.104    1357.4844    15420.281    86.775344 
   31900    1353.8667   -99.286384    1.2250071   -98.061377    22187.024    4.4114856    4.4114856    4.4114856    22187.024     18600.19    29694.954    18265.928    14652.093   -11114.067   -6017.4571    85.852827 
   32000    2312.0807   -100.17507    2.0920192   -98.083047   -11032.713    4.4188564    4.4188564    4.4188564   -11032.713    -41769.53    63981.613   -55310.221   -7192.3072    1710.2755    9569.6288    86.283879 
   32100    869.64081   -98.888764   0.78686928   -98.101895    49751.917    4.4192034    4.4192034    4.4192034    49751.917    104038.17     53400.85   -8183.2733    39660.898   -1567.0755    20674.395    86.304209 
   32200    2433.5831   -100.29908    2.2019571   -98.097126   -19420.626    4.4329996    4.4329996    4.4329996   -19420.626   -4126.0283    24696.011   -78831.861   -22369.347   -2960.3208     -4187.35    87.115027 
   32300    1976.7311   -99.872499    1.7885879   -98.083911   -38561.557    4.4362858    4.4362858    4.4362858   -38561.557   -34316.498   -69556.903   -11811.271    39838.553    2293.0063     11539.21    87.308906 
   32400    1738.5544   -99.637763    1.5730806   -98.064683      42023.9    4.4198847    4.4198847    4.4198847      42023.9    103111.81    48610.178   -25650.289   -21162.722   -8804.5341   -11506.327    86.344132 
   32500    2002.5921   -99.888612    1.8119875   -98.076625   -39327.692    4.4137859    4.4137859    4.4137859   -39327.692   -50536.566   -41286.809     -26159.7    41276.407    9247.4185    12.754724    85.987197 
   32600    1966.9185   -99.859989    1.7797092    -98.08028    32108.501    4.4134927    4.4134927    4.4134927    32108.501        25016    76196.667   -4887.1651   -10188.485     9463.986    446.55506    85.970059 
   32700    1493.1908   -99.450133    1.3510704   -98.099063   -30143.399    4.4373948    4.4373948    4.4373948   -30143.399   -19905.309   -46653.265   -23871.624     38545.67    1336.3348    -2376.482    87.374403 
   32800    2122.3221   -99.974582    1.9203216    -98.05426   -16596.512    4.4368067    4.4368067    4.4368067   -16596.512   -27412.824    3732.2215   -26108.932    5447.2542    -4969.698    11344.084    87.339664 
   32900    1499.2288   -99.402152    1.3565337   -98.045619    25367.686    4.4037261    4.4037261    4.4037261    25367.686   -66505.477    90127.854    52480.681    22634.534    4549.0437   -595.73658    85.400594 
   33000    2094.4228   -99.981333    1.8950778   -98.086255    1764.4634    4.3980778    4.3980778    4.3980778    1764.4634   -16232.881    41914.747   -20388.477    16387.927    8231.2343    21770.694    85.072408 
   33100    2009.9969   -99.936964    1.8186874   -98.118277     17275.12    4.4231397    4.4231397    4.4231397     17275.12    -21753.94    94943.763   -21364.463    36855.776    8631.1217    15057.972    86.535033 
   33200     1712.633   -99.650538    1.5496264   -98.100911   -46693.703    4.4556903    4.4556903    4.4556903   -46693.703   -91198.913    25588.282   -74470.479   -2931.6305   -293.32397   -15966.364    88.459607 
   33300    2447.8032    -100.2696    2.2148238   -98.054772   -35642.877    4.4367253    4.4367253    4.4367253   -35642.877    -57188.21    13294.182   -63034.602    15598.181   -4917.2493    12202.989    87.334857 
   33400    1883.6276   -99.745268    1.7043459   -98.040922    28119.275    4.3912357    4.3912357    4.3912357    28119.275    -4012.068    51281.163    37088.731    898.42848    1411.8113   -14385.875    84.675981 
   33500    1639.2504   -99.572148    1.4832282    -98.08892    50154.806    4.3892549    4.3892549    4.3892549    50154.806    18183.987    113120.97    19159.463   -31404.209   -3671.7949   -2016.9527    84.561447 
   33600    1825.9125   -99.817403     1.652124   -98.165279   -27629.954    4.4309316    4.4309316    4.4309316   -27629.954   -32718.253   -13952.832   -36218.777    20806.819   -8838.2993    3711.2945    86.993169 
   33700    2009.8991   -99.895765    1.8185989   -98.077166    -32910.59    4.4579438    4.4579438    4.4579438    -32910.59   -15268.371    2297.4077   -85760.807    4714.4798    193.30085   -6049.3306    88.593887 
   33800    1757.4863   -99.653322    1.5902106   -98.063111    -3138.317    4.4132023    4.4132023    4.4132023    -3138.317    4232.1248   -12811.441   -835.63423   -1404.0712    8727.9228   -9716.6721    85.953092 
   33900    2237.1731   -100.06837    2.0242412   -98.044125    38337.542    4.3677775    4.3677775    4.3677775    38337.542    10325.659    68902.637     35784.33   -24218.667   -2733.8931   -12157.667     83.32619 
   34000    1613.6031   -99.597193     1.460022   -98.137171    23605.375     4.392068     4.392068     4.392068    23605.375    31139.756     34055.17    5621.1999   -2786.4972   -9362.8633    3618.8801    84.724141 
   34100    2128.2863   -100.07816    1.9257182   -98.152445   -51167.165    4.4457892    4.4457892    4.4457892   -51167.165   -74295.744    -42693.08    -36512.67    5878.2939   -3775.8739   -1949.5519    87.871211 
   34200    2145.0576   -100.00751    1.9408932   -98.066613   -32966.204    4.4476736    4.4476736    4.4476736   -32966.204   -40972.891    16609.173   -74534.892    1649.2611   -9688.5205   -17153.719    87.982989 
   34300    2007.4049    -99.85444    1.8163422   -98.038098   -13881.449    4.4095631    4.4095631    4.4095631   -13881.449   -13313.025   -11231.103    -17100.22   -17798.248    3082.4805   -3578.4145    85.740633 
   34400    1776.6913   -99.683294    1.6075876   -98.075706    47711.797    4.3951638    4.3951638    4.3951638    47711.797    61525.478    89002.338   -7392.4247    18254.294    6148.4551   -3196.5428    84.903423 
   34500    1592.2081   -99.596165    1.4406634   -98.155502   -25551.968    4.4151099    4.4151099    4.4151099   -25551.968   -62732.665   -5292.8848   -8630.3548   -30441.342    5232.0621   -5306.1191    86.064601 
   34600    2302.1781   -100.21171    2.0830591    -98.12865   -9073.8431    4.4331658    4.4331658    4.4331658   -9073.8431    59316.758   -30220.363   -56317.925    11736.091    6158.8812    5492.1043    87.124829 
   34700    1224.3591   -99.226436    1.1078258    -98.11861   -7669.2111    4.4339453    4.4339453    4.4339453   -7669.2111   -62728.975    43765.718   -4044.3759   -23987.619   -9987.1875      -1589.1    87.170791 
   34800    2478.9043   -100.32094    2.2429647   -98.077978    3672.9112    4.4258717    4.4258717    4.4258717    3672.9112    26042.013   -12315.046   -2708.2326    24225.673    4293.2869   -4883.4979    86.695479 
   34900    1235.6915   -99.205618    1.1180796   -98.087538   -18679.257    4.4306339    4.4306339    4.4306339   -18679.257   -11285.267   -44157.239   -595.26625   -34973.474    3972.1182   -1761.6389    86.975635 
   35000    2303.8781   -100.12479    2.0845973   -98.040194    9692.1616    4.4161136    4.4161136    4.4161136    9692.1616    80937.291   -27876.101   -23984.706    16832.103    5198.0726    -11263.93    86.123312 
   35100     893.4192   -98.895234   0.80838447    -98.08685    47585.987     4.405555     4.405555     4.405555    47585.987    117587.38   -279.08502    25449.663   -42196.044    15208.267   -4341.6132    85.507043 
   35200    1647.4549    -99.60878    1.4906518   -98.118128    33114.991    4.4275451    4.4275451    4.4275451    33114.991    96952.206    26678.384   -24285.618   -743.50181   -2975.8231    3565.9516    86.793857 
   35300    1523.0451   -99.489242    1.3780832   -98.111159   -61067.879    4.4326211    4.4326211    4.4326211   -61067.879   -53791.662   -113167.21   -16244.765   -65236.941    6817.4955   -2705.5438    87.092716 
   35400    2856.5437   -100.65896    2.5846608   -98.074301    1558.9042    4.4071651    4.4071651    4.4071651    1558.9042    28385.812    9865.1174   -33574.217     31918.32   -4174.1553   -7543.3098    85.600826 
   35500    1359.9383   -99.368047    1.2305008   -98.137546    1816.0516    4.4141397    4.4141397    4.4141397    1816.0516    46933.382   -37927.162   -3558.0654   -55872.286    13268.882   -3029.8138    86.007874 
   35600    2105.6615   -100.02685    1.9052468   -98.121599   -12362.114    4.4417619    4.4417619    4.4417619   -12362.114    67290.829   -40581.544   -63795.627    20594.278   -19465.588    9395.0429    87.632624 
   35700    1142.2743   -99.113223    1.0335538    -98.07967    17663.281    4.4373321    4.4373321    4.4373321    17663.281    70280.168    9168.4981   -26458.822   -58591.363    1914.9078     3775.911    87.370696 
   35800    2231.7364   -100.06973     2.019322   -98.050409   -2171.3191    4.4306656    4.4306656    4.4306656   -2171.3191    56893.279   -8628.2796   -54778.957    8270.9677   -23185.323   -19092.174    86.977499 
   35900    1218.3159       -99.18    1.1023578   -98.077642    7460.7044    4.4376468    4.4376468    4.4376468    7460.7044    5052.7374   -8285.2824    25614.658   -34775.531   -8157.8277    8595.0265    87.389287 
   36000    1603.9795   -99.506462    1.4513144   -98.055147   -3970.9754    4.4476398    4.4476398    4.4476398   -3970.9754    70338.315   -27181.284   -55069.957    4772.8716   -13860.721    234.29757    87.980987 
   36100    1753.7364   -99.624958    1.5868176    -98.03814   -29525.295     4.443619     4.443619     4.443619   -29525.295    22042.758   -50338.938   -60279.705   -25942.284   -10730.342    5107.3347    87.742587 
   36200     1983.986   -99.831785    1.7951523   -98.036633    17818.305    4.4327959    4.4327959    4.4327959    17818.305    85275.893   -8395.3528   -23425.626    37909.731    6317.3633    4826.3485    87.103017 
   36300    1538.4861   -99.462302    1.3920545   -98.070247   -10572.792    4.4278627    4.4278627    4.4278627   -10572.792    35300.931   -48532.017   -18487.291   -31586.183    4241.1842    5774.6921    86.812533 
   36400    2267.9004    -100.1414    2.0520439   -98.089352   -3550.2312    4.4291986    4.4291986    4.4291986   -3550.2312    78938.893    -58601.55   -30988.037   -12406.642    -1331.401    5958.0613    86.891136 
   36500    1305.6952   -99.289325    1.1814205   -98.107904    15973.159    4.4419153    4.4419153    4.4419153    15973.159    78398.202    1806.1845    -32284.91    9290.9152    1319.2736    7373.8323    87.641707 
   36600    2194.8403   -100.05318    1.9859376   -98.067242   -29891.321    4.4643224    4.4643224    4.4643224   -29891.321   -41687.258    9690.2074   -57676.911    6418.6553   -7007.5814   -10513.443    88.974726 
   36700    1870.3926   -99.713042    1.6923706   -98.020671   -28563.055    4.4541852    4.4541852    4.4541852   -28563.055   -66249.089    39136.321   -58576.397   -23674.659   -1217.7177    11692.547    88.369994 
   36800     1468.434   -99.344667      1.32867   -98.015997    35351.388    4.4228033    4.4228033    4.4228033    35351.388    97109.322    50309.314   -41364.471     21356.39    -7702.432   -13355.478     86.51529 
   36900    2065.2813   -99.929978    1.8687099   -98.061268    19517.597    4.4016989    4.4016989    4.4016989    19517.597    69815.676     21328.71   -32591.595    1198.1818    7692.0511    4526.9176    85.282709 
   37000       1679.1   -99.672127     1.519285   -98.152842    3036.6484     4.416561     4.416561     4.416561    3036.6484    17118.479    19998.971   -28007.505   -35905.234     -2194.24   -15999.411    86.149485 
   37100    2245.1874   -100.15995    2.0314928   -98.128455   -17997.918    4.4484998    4.4484998    4.4484998   -17997.918    30263.599   -4657.9591   -79599.395    5896.1627    6706.8633    4564.4968     88.03203 
   37200    1519.7837   -99.449964    1.3751322   -98.074832   -14686.109    4.4478984    4.4478984    4.4478984   -14686.109    45798.066   -28891.389   -60965.004   -36905.408    -5811.297    -6360.056    87.996331 
   37300    1470.8795   -99.362274    1.3308827   -98.031391    22954.744    4.4311634    4.4311634    4.4311634    22954.744    22012.553    66737.685   -19886.006    1985.7762   -3483.9455   -6514.0629    87.006817 
   37400    1855.7879   -99.727683    1.6791559   -98.048527     556.9951    4.4111752    4.4111752    4.4111752     556.9951    23623.178   -17229.159   -4723.0339   -31626.833   -6993.6862   -21177.873    85.834708 
   37500    1907.1268   -99.821258    1.7256084    -98.09565    20567.329    4.4232297    4.4232297    4.4232297    20567.329    23064.136    59701.031   -21063.181    19357.247    6695.3814    17205.185    86.540315 
   37600    1328.0838   -99.295212    1.2016782   -98.093533   -14675.477    4.4522045    4.4522045    4.4522045   -14675.477    27916.024   -37420.163   -34522.293   -33219.457     9106.163   -20401.038    88.252151 
   37700    2012.6744   -99.876494    1.8211101   -98.055383   -28770.613    4.4404391    4.4404391    4.4404391   -28770.613    -43056.57   -8357.2791   -34897.989   -3094.0711    10856.415    12593.183    87.554358 
   37800    2199.9121   -100.04772    1.9905267   -98.057189   -18347.719    4.4256953    4.4256953    4.4256953   -18347.719    -19063.01    7903.2446   -43883.391    -29521.31    9354.5784    8293.9983    86.685118 
   37900    1443.5009   -99.394534      1.30611   -98.088424   -4889.7564    4.4211439    4.4211439    4.4211439   -4889.7564    49859.784   -51144.489   -13384.564    93.780267   -9783.4386     7296.098    86.417951 
   38000    2300.5319   -100.18128    2.0815696    -98.09971   -22655.801    4.4405179    4.4405179    4.4405179   -22655.801    -19186.14   -37860.771   -10920.491    3744.5074    8687.5028    97.676467    87.559018 
   38100    1347.6988   -99.287744    1.2194262   -98.068317   -36029.919    4.4637271    4.4637271    4.4637271   -36029.919    22366.598    -87403.62   -43052.735   -10367.466    -14918.61    30121.523    88.939136 
   38200    1601.8751   -99.467916    1.4494102   -98.018506     16672.19    4.4354894    4.4354894    4.4354894     16672.19      41523.9    40516.336   -32023.666   -14545.141    -10283.28    8101.1033    87.261897 
   38300    2313.7064   -100.12051    2.0934902   -98.027022    1706.5474     4.415366     4.415366     4.415366    1706.5474   -14594.727   -41167.344    60881.713    6028.7362   -14145.839    3625.9851    86.079577 
   38400    1856.5619   -99.767208    1.6798562   -98.087352    -5574.826    4.4227345    4.4227345    4.4227345    -5574.826   -14492.102    651.92919   -2884.3052    4503.8199   -12575.583    12124.638    86.511253 
   38500    1496.6755   -99.479066    1.3542234   -98.124843    43528.756    4.4496226    4.4496226    4.4496226    43528.756    94507.268   -4729.7164    40808.716   -16896.307   -22947.585    -3364.563    88.098708 
   38600    1769.0959   -99.682363    1.6007152   -98.081648   -41210.913     4.476718     4.476718     4.476718   -41210.913   -26788.045   -60822.856   -36021.839   -9601.4011    -20185.85        12833    89.717923 
   38700    1378.3741    -99.25775    1.2471818   -98.010568    16597.306     4.448047     4.448047     4.448047    16597.306    99602.908   -13384.455   -36426.535    23876.824    2079.9686    86.162023    88.005152 
   38800    2046.2829   -99.831956    1.8515198   -97.980436    35200.356    4.4218979    4.4218979    4.4218979    35200.356    48906.378    68047.804   -11353.114    21244.646    7279.4987   -20920.968    86.462168 
   38900    1167.7194   -99.115583     1.056577   -98.059006    21411.453     4.448364     4.448364     4.448364    21411.453    27979.722    36808.149   -553.51037    10636.323    21447.761    -43835.59    88.023968 
   39000    1830.7783   -99.678931    1.6565267   -98.022404   -16982.114    4.4777118    4.4777118    4.4777118   -16982.114   -19605.689   -24568.198   -6772.4559    3656.0344   -1441.1777    -5933.807    89.777688 
   39100    1819.5512   -99.627785    1.6463681   -97.981417   -29121.013    4.4754596    4.4754596    4.4754596   -29121.013   -31908.043   -15607.478   -39847.519    13696.126    31171.729    -1952.508    89.642287 
   39200    2247.9628   -100.00138     2.034004   -97.967372   -32539.649    4.4394806    4.4394806    4.4394806   -32539.649   -33183.966   -54779.508   -9655.4739   -15795.046    5759.6321     9536.699    87.497671 
   39300    2021.0485   -99.812791    1.8286872   -97.984104     23050.26    4.3942526    4.3942526    4.3942526     23050.26    47416.101   -15601.789    37336.466   -36858.284    11441.965    -36631.74    84.850628 
   39400    2272.6479   -100.13516    2.0563396   -98.078818    4133.7258     4.413447     4.413447     4.413447    4133.7258    36214.091   -14982.612   -8830.3019    15587.116    15925.036    11336.521    85.967394 
   39500     1735.409   -99.669884    1.5702345   -98.099649   -30770.011    4.4586792    4.4586792    4.4586792   -30770.011    497.00864   -94754.747    1947.7048    -14209.21   -1573.1717   -31770.953    88.637738 
   39600    1916.6369   -99.770421    1.7342133   -98.036208    3279.3987    4.4624743    4.4624743    4.4624743    3279.3987    22220.627   -34578.372    22195.941   -15861.265    1255.3138    15180.302    88.864271 
   39700    1672.9651   -99.520041     1.513734   -98.006307    15123.574     4.427698     4.427698     4.427698    15123.574    70927.412    19576.818   -45133.506   -25827.026    5268.6421   -30209.159    86.802849 
   39800    1474.6554    -99.33933    1.3342992   -98.005031    43247.336      4.40815      4.40815      4.40815    43247.336     46934.46    18745.816    64061.734   -6444.8346    39549.518    30168.338    85.658227 
   39900      2220.36   -100.05374    2.0090284   -98.044711     -7110.61    4.4271324    4.4271324    4.4271324     -7110.61   -3133.0149   -15037.862    -3160.953    556.72977    14333.646   -15112.964    86.769585 
   40000    1764.7494   -99.664764    1.5967824   -98.067982   -14529.503    4.4589806    4.4589806    4.4589806   -14529.503   -55263.823   -23035.815     34711.13    27962.328   -5124.1569    11124.623    88.655719 
   40100    2268.0621    -100.0719    2.0521903   -98.019713   -44039.061    4.4691822    4.4691822    4.4691822   -44039.061    4397.0415   -55994.147   -80520.079    5877.8623    -4634.262   -16916.524    89.265611 
   40200    956.99506   -98.883111   0.86590925   -98.017201    4399.4695    4.4420822    4.4420822    4.4420822    4399.4695     2572.794   -59327.163    69952.777    2482.2762   -5291.2311   -2655.5676    87.651584 
   40300    2064.3291   -99.907787    1.8678483   -98.039939    18420.256    4.3864202    4.3864202    4.3864202    18420.256   -1047.5821    11979.538    44328.811   -11124.282    27776.564    5002.1336    84.397716 
   40400    1760.7935   -99.713614    1.5932029   -98.120411    4224.2584    4.3805691    4.3805691    4.3805691    4224.2584     44546.87   -14269.843   -17604.253    10233.467   -29424.692    6624.3307    84.060428 
   40500    1370.1555   -99.393154    1.2397455   -98.153408    5556.8332    4.4208783    4.4208783    4.4208783    5556.8332   -38673.394    26655.391    28688.502   -20909.793    15462.379    9780.0237    86.402372 
   40600    2267.3988   -100.15081    2.0515901   -98.099224   -53931.753     4.447165     4.447165     4.447165   -53931.753   -45885.899   -34620.108   -81289.252    1629.9012   -39634.762    8834.6772    87.952809 
   40700    1415.4959   -99.350698    1.2807704   -98.069928   -15089.913    4.4228506    4.4228506    4.4228506   -15089.913   -56599.039   -14696.205    26025.504   -5750.4191    35423.667     10521.53    86.518065 
   40800    2234.7509   -100.06361    2.0220496   -98.041563    16074.673    4.3750875    4.3750875    4.3750875    16074.673    13314.216    52551.241   -17641.439   -7604.0001   -54851.816    9824.0393     83.74526 
   40900    1923.5161   -99.820504    1.7404378   -98.080066    21011.917    4.3719254    4.3719254    4.3719254    21011.917    18900.091    4775.8863    39359.775     2027.573    36491.989    11206.657    83.563807 
   41000    1519.6379   -99.502135    1.3750003   -98.127135   -38654.797    4.4070773    4.4070773    4.4070773   -38654.797   -45720.877   -506.43512   -69737.078   -11953.289   -49426.374    1284.9238    85.595714 
   41100    2120.6322   -100.01881    1.9187926   -98.100018   -8895.5137    4.4230097    4.4230097    4.4230097   -8895.5137    2589.6315   -12246.128   -17030.044   -7681.5855    21521.672    12208.566    86.527405 
   41200    1307.1658   -99.274945    1.1827511   -98.092194   -31834.055    4.4257449    4.4257449    4.4257449   -31834.055   -59077.452    8413.6961   -44838.409    1835.9545   -21478.215   -5885.5157    86.688032 
   41300    2613.3221   -100.43572    2.3645888   -98.071136   -37067.352     4.413844     4.413844     4.413844   -37067.352    718.79515   -72491.698   -39429.152    11814.492    6539.8188    5148.4156    85.990595 
   41400    1790.7966   -99.714937    1.6203504   -98.094587    13613.034     4.387073     4.387073     4.387073    13613.034    30491.837   -1550.6703    11897.935    2479.0166   -17846.654    212.30803    84.435403 
   41500    1792.4984   -99.738323    1.6218902   -98.116433   -7341.3366    4.3857497    4.3857497    4.3857497   -7341.3366    24440.263   -49016.931    2552.6582    10506.259    3578.4988    1714.6347     84.35902 
   41600    2008.0448   -99.932199    1.8169211   -98.115278    14664.973    4.4063848    4.4063848    4.4063848    14664.973    9456.8794   -4788.6057    39326.644   -412.15196   -16907.896    3341.4072    85.555367 
   41700    1847.7406   -99.777142    1.6718745   -98.105267   -24637.539    4.4193361    4.4193361    4.4193361   -24637.539   -20795.535    -24306.02   -28811.063    10156.053   -10369.395    405.72364    86.311985 
   41800    1668.2076   -99.609174    1.5094293   -98.099745   -3540.0852    4.4109996    4.4109996    4.4109996   -3540.0852   -14794.274   -67373.593    71547.612    9646.7189   -2648.7253   -1486.0683    85.824454 
   41900    2222.7769   -100.09012    2.0112152   -98.078903       -10048    4.4003627    4.4003627    4.4003627       -10048   -2694.6454   -26386.462   -1062.8909    7365.0371   -16186.765   -3352.7919    85.205068 
   42000    1680.3093   -99.604257    1.5203792   -98.083878   -13893.322    4.3997352    4.3997352    4.3997352   -13893.322    -8618.312   -79816.069    46754.416   -8715.7835   -4136.9377    6838.1998    85.168619 
   42100    1799.7515   -99.717698     1.628453   -98.089245   -12265.567     4.399051     4.399051     4.399051   -12265.567   -5144.4176   -21924.023   -9728.2606   -16135.578   -11189.829   -1137.8328    85.128895 
   42200    2300.0762   -100.18153    2.0811573   -98.100375   -30293.383    4.4051264    4.4051264    4.4051264   -30293.383    10918.386   -77761.405   -24037.129   -14346.726    1228.3647    3875.6644     85.48209 
   42300    1432.9782   -99.413002    1.2965888   -98.116413    -16146.62    4.4216983    4.4216983    4.4216983    -16146.62    68616.548   -84465.144   -32591.262   -20914.947    4187.2725    1332.0202    86.450464 
   42400    2301.3268   -100.16578    2.0822888   -98.083496   -11704.363    4.4133731    4.4133731    4.4133731   -11704.363    34939.958   -57767.086   -12285.962   -3374.0428    1609.5761   -21.565227    85.963072 
   42500    1229.6486     -99.2099    1.1126119   -98.097288    14399.908    4.3924387    4.3924387    4.3924387    14399.908     116038.5   -65045.772   -7792.9994   -10221.445    16010.564     965.2854    84.745595 
   42600    2182.8461   -100.09235     1.975085   -98.117263   -13767.472    4.3990442    4.3990442    4.3990442   -13767.472    16906.834   -36210.168   -21999.083    19824.523     4896.714    -2769.187    85.128498 
   42700     1751.157   -99.705392    1.5844837   -98.120908   -12116.803    4.4141318    4.4141318    4.4141318   -12116.803    60070.388   -82577.086   -13843.711   -15582.101   -359.79636   -11960.033    86.007412 
   42800      1919.89   -99.830584    1.7371568   -98.093428   -41990.015    4.4210188    4.4210188    4.4210188   -41990.015   -57604.028   -46528.871   -21837.145    35662.451    23675.195     3973.611    86.410611 
   42900    1986.7453   -99.867443    1.7976489   -98.069794   -1947.1167    4.4089517    4.4089517    4.4089517   -1947.1167    12957.406   -42085.283    23286.527   -10873.718   -1326.7907   -10678.875    85.704974 
   43000    2366.8829   -100.21813    2.1416054   -98.076523    976.68695    4.3949122    4.3949122    4.3949122    976.68695   -1342.2513   -45551.307    49823.619    20149.693   -7733.5241    23935.547    84.888843 
   43100    1841.1709   -99.760272    1.6659301   -98.094341    4231.6447    4.3978697    4.3978697    4.3978697    4231.6447    30398.622   -52523.435    34819.747   -10056.608      2856.42   -18057.867    85.060334 
   43200    2404.1092   -100.26813    2.1752885   -98.092842   -15773.121    4.4251897    4.4251897    4.4251897   -15773.121   -11687.977    -63039.98    27408.595    15432.798   -2098.4458   -5826.1066    86.655409 
   43300    1502.1747   -99.425788    1.3591992   -98.066588   -24348.103    4.4436082    4.4436082    4.4436082   -24348.103   -278.99984    -69532.17   -3233.1401   -10068.267    22654.687   -18162.047    87.741952 
   43400    2366.5882   -100.16705    2.1413388   -98.025716     -5719.19    4.4294346    4.4294346    4.4294346     -5719.19   -24006.179   -9741.4728    16590.082    15980.266    9673.9496    6164.7302    86.905022 
   43500    1385.4828   -99.287651     1.253614   -98.034037    3216.2243    4.4035487    4.4035487    4.4035487    3216.2243   -48038.298    37714.502    19972.468   -7355.3556    23557.233   -19931.726    85.390273 
   43600    2743.4181   -100.53541    2.4823023   -98.053104   -15871.387    4.4064167    4.4064167    4.4064167   -15871.387   -10507.535   -6571.7693   -30534.857    13539.181    11913.011    10395.903    85.557223 
   43700    1232.1521   -99.222979    1.1148771   -98.108102   -23916.388    4.4283089    4.4283089    4.4283089   -23916.388   -58880.135   -10596.043   -2272.9858   -2058.8308    9097.2473   -26474.283    86.838779 
   43800    2434.9308   -100.27854    2.2031765   -98.075359   -10206.674    4.4237485    4.4237485    4.4237485   -10206.674   -14452.992     10760.36   -26927.389    28688.867     18509.07    4263.0467     86.57077 
   43900    693.69718   -98.713561   0.62767178   -98.085889     51714.35    4.4159294    4.4159294    4.4159294     51714.35    29844.109    45757.827    79541.115    3293.2429   -34868.703   -43361.901    86.112534 
   44000    2423.8295   -100.26883    2.1931319   -98.075695   -11054.976    4.4332063    4.4332063    4.4332063   -11054.976   -21876.164    18660.248   -29949.013    13010.807    649.37055    8201.2045    87.127216 
   44100    1407.1332   -99.339522    1.2732037   -98.066318    -43181.97    4.4358461    4.4358461    4.4358461    -43181.97    -70104.94   -13915.425   -45525.545    1772.1612   -3120.8914   -25592.993    87.282951 
   44200    1719.8939    -99.59391    1.5561962   -98.037714    25155.705    4.4098832    4.4098832    4.4098832    25155.705   -15162.587    51718.785    38910.915    6409.3184    12391.592   -1050.9429    85.759306 
   44300    1721.9631   -99.619953    1.5580684   -98.061884     -9911.23    4.3956414    4.3956414    4.3956414     -9911.23    5070.0445    29662.374   -64466.109   -4480.7109   -22097.566    3901.3606    84.931105 
   44400    2268.6152   -100.13507    2.0526907    -98.08238    -11663.24    4.4140485    4.4140485    4.4140485    -11663.24   -4324.3891   -30185.484   -479.84778    2478.2183   -13157.781    -15230.09    86.002547 
   44500    1183.7179    -99.15268    1.0710528   -98.081627   -767.06173    4.4300212    4.4300212    4.4300212   -767.06173    13064.472    22988.193    -38353.85   -2287.8732   -20388.597    14377.445    86.939554 
   44600    2379.1423   -100.19421    2.1526979   -98.041516   -20556.675    4.4456994    4.4456994    4.4456994   -20556.675   -14379.539   -28012.981   -19277.503   -321.11782   -3052.7894   -12469.016    87.865886 
   44700    1512.9542   -99.411871    1.3689528   -98.042918   -58746.359    4.4360476    4.4360476    4.4360476   -58746.359   -23905.997   -34912.716   -117420.36   -2841.9452     -8630.45    35071.211    87.294842 
   44800    2733.8747   -100.47006    2.4736673   -97.996397    4486.4605    4.3968463    4.3968463    4.3968463    4486.4605   -14903.332   -14342.684    42705.398    9081.0362   -22523.974   -1390.4403    85.000964 
   44900    1246.6846   -99.186342    1.1280264   -98.058316   -13092.472    4.3974024    4.3974024    4.3974024   -13092.472    38928.085   -44584.532    -33620.97   -6545.5703   -2851.1376    43547.363    85.033223 
   45000    2580.6179    -100.4163    2.3349973   -98.081298   -40196.123    4.4238924    4.4238924    4.4238924   -40196.123   -25721.455   -37160.173   -57706.741    8657.1959    -19320.88   -1605.1378    86.579217 
   45100    1183.6237   -99.140268    1.0709676   -98.069301   -36403.689    4.4436636    4.4436636    4.4436636   -36403.689    -30970.58    7509.6471   -85750.133    7741.5134   -21228.523    15538.622    87.745228 
   45200    1958.8027   -99.776958    1.7723658   -98.004592    24946.818     4.422562     4.422562     4.422562    24946.818    23108.847    47320.287    4411.3197    9490.4194   -34998.512   -19024.483    86.501134 
   45300     882.0121    -98.82235   0.79806309   -98.024287    27713.217    4.4077427    4.4077427    4.4077427    27713.217    72903.246    58518.164   -48281.759    -14391.67     4794.291    26080.365    85.634489 
   45400    2269.5487   -100.08026    2.0535353   -98.026722    1574.7893    4.4095805    4.4095805    4.4095805    1574.7893   -22630.077    75154.295    -47799.85    690.24018   -31404.934   -20829.327     85.74165 
   45500    1005.1666   -98.984013   0.90949589   -98.074517    17937.603    4.4243164    4.4243164    4.4243164    17937.603    17224.694    101434.86   -64846.745    15796.992    27067.548    18931.532    86.604114 
   45600    1600.1683   -99.500041    1.4478659   -98.052175   -9614.1252    4.4397992    4.4397992    4.4397992   -9614.1252    -26961.71    60611.273   -62491.939   -8386.1886   -23709.636   -27204.415    87.516506 
   45700    1803.3898   -99.661012     1.631745   -98.029267    3809.7693    4.4318619    4.4318619    4.4318619    3809.7693    -13297.36    43679.683   -18953.015   -1667.0387   -1986.8006    16449.168    87.047974 
   45800    1326.4587   -99.226237    1.2002077   -98.026029    20591.454     4.413488     4.413488     4.413488    20591.454   -9917.3455    50175.127    21516.579   -5442.6741   -30960.878   -27586.725    85.969787 
   45900    2102.9289   -99.956568    1.9027742   -98.053794    8392.2006    4.4063668    4.4063668    4.4063668    8392.2006    57320.565   -100.46181   -32043.501    14570.892    19912.017    14999.617    85.554318 
   46000    1303.1696   -99.263009    1.1791352   -98.083874    23266.525    4.4013926    4.4013926    4.4013926    23266.525   -12386.898    99786.314   -17599.841    1836.7539   -30074.605   -14210.405    85.264909 
   46100    2224.2142   -100.09729    2.0125157   -98.084779    13657.708    4.4214023    4.4214023    4.4214023    13657.708    48679.063    31628.429   -39334.369   -4758.3999    5599.2525    3867.2592      86.4331 
   46200    1563.8152   -99.506447    1.4149728   -98.091475   -54552.188     4.418484     4.418484     4.418484   -54552.188   -62784.886   -22892.791   -77978.888   -5338.5749    -36561.63   -18264.333    86.262066 
   46300    2087.0577   -99.950321    1.8884136   -98.061908    41950.983    4.3906304    4.3906304    4.3906304    41950.983    57729.636    75819.226   -7695.9119   -23006.374    2162.6482    -5066.227    84.640973 
   46400    1493.2643   -99.449602    1.3511369   -98.098465   -4852.6962    4.3950007    4.3950007    4.3950007   -4852.6962   -33338.647    67406.834   -48626.276   -10647.475   -21845.815   -1441.3825    84.893973 
   46500     2131.396   -100.01359    1.9285319   -98.085055   -605.16822    4.4033662    4.4033662    4.4033662   -605.16822    35330.704   -23880.862   -13265.346    16109.879    8223.8284   -6743.7876    85.379657 
   46600    1392.9247   -99.347933    1.2603475   -98.087586   -2358.2504    4.4202793    4.4202793    4.4202793   -2358.2504   -41132.378    65002.131   -30944.504   -30080.052   -30470.408    6664.5959     86.36726 
   46700    1709.4419   -99.602945     1.546739   -98.056206     2484.923    4.4196047    4.4196047    4.4196047     2484.923     22432.38    3297.6107   -18275.222   -33338.495    2008.9909   -1518.7558    86.327721 
   46800    1897.4099   -99.772866    1.7168164   -98.056049    -21314.96    4.3971628    4.3971628    4.3971628    -21314.96    39977.146   -24388.716   -79533.311    9971.5281   -21454.409    29248.988    85.019319 
   46900    1856.8423   -99.764942      1.68011   -98.084832    25184.547    4.3930917    4.3930917    4.3930917    25184.547    41398.797    51418.035   -17263.191   -11504.358   -7645.2938   -1603.6621    84.783398 
   47000    1328.5031   -99.321077    1.2020576    -98.11902   -3678.2959    4.4060876    4.4060876    4.4060876   -3678.2959    49047.425    19269.801   -79352.114     11918.48   -29022.761     24844.79    85.538057 
   47100    2330.1142   -100.20582    2.1083363   -98.097483   -31792.414    4.4182692    4.4182692    4.4182692   -31792.414   -22761.412   -28848.897   -43766.933   -375.81781     -9249.04   -1011.2265    86.249488 
   47200    1704.4482   -99.623415    1.5422206   -98.081195   -6173.4955    4.4101565    4.4101565    4.4101565   -6173.4955    56777.593   -36308.891   -38989.189   -2913.6064   -19349.008    30053.231    85.775254 
   47300    2083.0648   -99.958423    1.8848008   -98.073623   -769.56516    4.4065073    4.4065073    4.4065073   -769.56516    20576.581    19726.757   -42612.033    1203.2031   -2061.6266   -7246.6568    85.562502 
   47400    2065.4202   -99.959356    1.8688356   -98.090521   -24443.381    4.4095986    4.4095986    4.4095986   -24443.381    22460.401   -16196.676   -79593.867    5977.3727   -7946.4556    46640.556    85.742706 
   47500    1885.2469   -99.787297    1.7058111   -98.081486   -2442.7468    4.4032318    4.4032318    4.4032318   -2442.7468     47058.74   -23091.863   -31295.118    2804.9408     4224.185   -3661.3133     85.37184 
   47600    2131.1915   -100.03565    1.9283468   -98.107301   -15543.634     4.415914     4.415914     4.415914   -15543.634    19583.299   -30172.025   -36042.177   -14472.209   -8609.7769    13556.789    86.111632 
   47700     1560.596   -99.494182    1.4120601   -98.082122   -18646.324    4.4386355    4.4386355    4.4386355   -18646.324    59573.651   -42087.299   -73425.324    1386.2394    7455.2286    1767.0494    87.447713 
   47800    1545.4305   -99.472661     1.398338   -98.074323   -20081.722    4.4198413    4.4198413    4.4198413   -20081.722    39481.588   -47528.917   -52197.836   -54290.102   -1423.0849    20802.482    86.341585 
   47900    2123.7482    -99.98288     1.921612   -98.061268    32182.775    4.3934224    4.3934224    4.3934224    32182.775    78309.351    37978.658   -19739.684    5421.7377    6818.9411   -4788.4261    84.802542 
   48000     1774.942   -99.708518    1.6060048   -98.102513   -15126.642    4.4087381    4.4087381    4.4087381   -15126.642   -21115.731   -19774.034   -4490.1619   -19153.705   -6105.5341    26159.733    85.692517 
   48100    1856.1553   -99.770228    1.6794883    -98.09074    7126.0879    4.4299991    4.4299991    4.4299991    7126.0879   -13399.397    48280.732   -13503.072    9150.8007    12224.579    9244.0085    86.938252 
   48200    1884.4594   -99.770629    1.7050985   -98.065531   -48254.128    4.4285446    4.4285446    4.4285446   -48254.128   -34959.296   -41540.713   -68262.375    -11201.74     15237.68     28041.89    86.852648 
   48300     2329.952   -100.15789    2.1081895   -98.049699   -4341.2112    4.4099986    4.4099986    4.4099986   -4341.2112    22351.121    3423.5494   -38798.304    1439.4778   -3949.5027   -22366.014    85.766037 
   48400    1659.7291   -99.567532    1.5017578   -98.065774    15012.001    4.4028453    4.4028453    4.4028453    15012.001    18686.487    -15117.45    41466.966   -12524.369    9341.1241    30154.122    85.349364 
   48500    1912.2377   -99.818179    1.7302329   -98.087947    7150.7667    4.4129745    4.4129745    4.4129745    7150.7667    41635.376   -21653.191    1470.1151     11152.32   -16065.288   -25393.158    85.939782 
   48600    1673.4043   -99.589695    1.5141314   -98.075563   -11393.126     4.423679     4.423679     4.423679   -11393.126   -9200.0951   -49228.668    24249.384   -28479.593    5263.4446    16726.298     86.56669 
   48700    1576.4368   -99.482386    1.4263931   -98.055993    14324.617    4.4227946    4.4227946    4.4227946    14324.617    13801.874   -14266.677    43438.655   -9091.3134   -23063.547     -29129.1    86.514783 
   48800     1515.066   -99.420317    1.3708636   -98.049454    7924.5227    4.4177781    4.4177781    4.4177781    7924.5227    72257.722   -57086.588    8602.4339   -24397.867   -12445.911    13130.033    86.220732 
   48900    1813.6553   -99.702548    1.6410335   -98.061514   -1335.6519    4.4121112    4.4121112    4.4121112   -1335.6519    38089.124   -36522.211   -5573.8685   -17007.596   -17841.283   -24407.438    85.889359 
   49000    1587.8257   -99.522336     1.436698   -98.085638    14969.394    4.4179142    4.4179142    4.4179142    14969.394    24297.526   -24893.328    45503.985    7599.1813   -9060.8562    6526.5521    86.228699 
   49100    1531.7522   -99.463975    1.3859616   -98.078013    12985.667    4.4220993    4.4220993    4.4220993    12985.667    25463.044     7068.291    6425.6658    -1255.432   -19903.268   -26471.917    86.473987 
   49200    1766.9455   -99.679323    1.5987694   -98.080554   -21641.961    4.4117668    4.4117668    4.4117668   -21641.961    -24653.14   -22143.343   -18129.399   -10271.436   -17250.128    10135.311    85.869243 
   49300    1705.8485   -99.632091    1.5434876   -98.088603    10169.556    4.4019022    4.4019022    4.4019022    10169.556    39977.812   -57569.116    48099.973     4500.437    18742.744   -15189.435    85.294528 
   49400    1473.9335    -99.44197     1.333646   -98.108324    9663.6609    4.4151343    4.4151343    4.4151343    9663.6609      16670.2   -7580.8493    19901.632   -24803.181    9944.2952    11933.272    86.066029 
   49500    1357.5566    -99.33397    1.2283458   -98.105624   -717.69784    4.4308657    4.4308657    4.4308657   -717.69784    40566.804   -66621.109    23901.212   -9073.0414    11369.737   -18326.332    86.989287 
   49600    2033.2923   -99.910192    1.8397656   -98.070427   -1458.1618    4.4351155    4.4351155    4.4351155   -1458.1618    -36092.84   -38770.416    70488.771   -877.39936    5410.1667    4857.6655    87.239826 
   49700    1286.0476    -99.23159    1.1636429   -98.067947   -13969.057    4.4288946    4.4288946    4.4288946   -13969.057   -53279.034   -32481.111    43852.973    355.49566    6755.7698   -12040.251     86.87324 
   49800    1558.4791    -99.45729    1.4101447   -98.047146        44887     4.395011     4.395011     4.395011        44887    50597.953    12664.008    71399.038   -10013.922    19649.885    5208.0098    84.894566 
   49900    1848.9407   -99.760947    1.6729604   -98.087986    20521.654    4.3974247    4.3974247    4.3974247    20521.654    34140.646   -941.39409    28365.711    8883.0861   -10916.606    1630.9183    85.034513 
   50000    1501.2148   -99.451856    1.3583307   -98.093525   -14064.761     4.433867     4.433867     4.433867   -14064.761    10683.639   -33484.918   -19393.003   -22795.022   -12501.159   -7696.6081    87.166176 
   50100    2307.9956   -100.12549    2.0883229   -98.037169   -17575.332    4.4374436    4.4374436    4.4374436   -17575.332   -4351.5713   -58721.291    10346.866    22361.626    2448.5491    9582.8902    87.377285 
   50200    1389.6261   -99.282143    1.2573629    -98.02478    14322.776     4.416034     4.416034     4.416034    14322.776    81231.132   -10572.493   -27690.312   -16148.171      7502.33    -5495.168    86.118653 
   50300    2244.2365   -100.05945    2.0306323   -98.028814   -5683.5639    4.4050443    4.4050443    4.4050443   -5683.5639   -1767.6524   -30824.396    15541.357    42287.573    8021.7932   -7132.7588    85.477307 
   50400    1902.8227   -99.797333     1.721714   -98.075619   -6887.6058    4.4070158    4.4070158    4.4070158   -6887.6058    10205.516    -8861.414    -22006.92   -28289.222    29451.433   -13717.748     85.59213 
   50500    1876.1674   -99.793249    1.6975957   -98.095653   -23948.279    4.4164605    4.4164605    4.4164605   -23948.279   -23625.451   -47034.416   -1184.9701    54577.675    -1618.254   -1686.9404    86.143607 
   50600    2202.9232   -100.07727    1.9932512   -98.084024   -36542.939    4.4335873    4.4335873    4.4335873   -36542.939    3437.5286   -45172.561   -67893.786   -11356.347    30529.802   -5745.4396    87.149681 
   50700    1070.9472   -99.053612   0.96901554   -98.084596   -15241.551    4.4095078    4.4095078    4.4095078   -15241.551   -23365.199   -60752.643    38393.189    28963.754    22345.036   -19091.402    85.737408 
   50800    2286.6331   -100.10628    2.0689937   -98.037286    32131.845    4.3831816    4.3831816    4.3831816    32131.845    116788.06   -40468.526    20075.997   -7753.2423   -10964.512    5786.4628    84.210918 
   50900    1687.7837   -99.622452    1.5271421    -98.09531     -32233.6     4.402909     4.402909     4.402909     -32233.6    5398.3745   -84952.673   -17146.502    54923.252    8280.7972   -20525.053    85.353069 
   51000    2056.4483   -99.946286    1.8607176   -98.085569    3174.5058    4.4201019    4.4201019    4.4201019    3174.5058    34322.146    5529.0017   -30327.631   -27269.573   -15356.266   -3065.4507    86.356861 
   51100    1684.8387   -99.603113    1.5244775   -98.078636   -30756.766    4.4154772    4.4154772    4.4154772   -30756.766   -54570.705   -22252.816   -15446.779    42803.112    18097.364   -10841.729    86.086079 
   51200    2064.8361   -99.907061    1.8683071   -98.038754    11983.674    4.3810859    4.3810859    4.3810859    11983.674   -1447.7936    23548.689    13850.125   -17744.026   -220.20539    9809.0845    84.090182 
   51300    1814.8292   -99.709021    1.6420956   -98.066925    18652.839    4.3767888    4.3767888    4.3767888    18652.839    9566.7209    20777.121    25614.674    36581.283    7250.9261   -19771.907    83.842992 
   51400    1800.1069   -99.722586    1.6287746   -98.093812   -16763.939    4.4113212    4.4113212    4.4113212   -16763.939   -39356.919    49648.226   -60583.123   -3489.9138    1788.2333    17605.375    85.843227 
   51500    2080.5739   -99.951997     1.882547    -98.06945   -37368.875    4.4296128    4.4296128    4.4296128   -37368.875   -20875.514   -43530.596   -47700.515    15524.515   -2910.4936   -23735.727    86.915512 
   51600    1597.2458   -99.495554    1.4452215   -98.050333   -28110.977    4.4234676    4.4234676    4.4234676   -28110.977   -51351.469     28680.61   -61662.074    7570.3864   -14239.682    17065.888    86.554282 
   51700    1647.7989   -99.527015    1.4909631   -98.036052   -1423.2369    4.4028412    4.4028412    4.4028412   -1423.2369    -1462.815   -10905.312    8098.4165    1597.5472   -23389.111   -19855.352    85.349125 
   51800    1853.1861   -99.729555    1.6768017   -98.052753    3979.8607    4.3905237    4.3905237    4.3905237    3979.8607   -12408.837    16073.733    8274.6853    13742.398    20972.026    13541.523    84.634798 
   51900    1938.7774   -99.835708    1.7542465   -98.081462   -14378.498    4.4147978    4.4147978    4.4147978   -14378.498   -10730.232   -8579.3605   -23825.902   -7202.8664   -14106.375    4644.8894    86.046352 
   52000      1436.85   -99.377873    1.3000921   -98.077781   -517.71853    4.4178634    4.4178634    4.4178634   -517.71853    -15747.87     26713.91   -12519.195    21910.924    35239.685    5400.0003    86.225727 
   52100    1646.9279   -99.556889     1.490175   -98.066714    13059.361    4.3937105    4.3937105    4.3937105    13059.361    34069.078     11496.92   -6387.9138   -10582.573   -17360.042    4054.9373    84.819226 
   52200    2249.1763   -100.10748     2.035102   -98.072382   -26720.728    4.3956476    4.3956476    4.3956476   -26720.728   -11037.751   -25685.924    -43438.51   -8643.3543    17074.263    3534.8009    84.931463 
   52300    1668.5011   -99.604815    1.5096948    -98.09512    5799.3737     4.400596     4.400596     4.400596    5799.3737   -52988.502    62503.647    7882.9763   -137.02122    14707.005    21866.106    85.218622 
   52400    1576.5543   -99.531414    1.4264995   -98.104915   -5113.1298    4.4142426    4.4142426    4.4142426   -5113.1298    2111.8712    -2357.006   -15094.255   -6877.6065   -9969.5266   -23907.152    86.013891 
   52500    1897.7015   -99.795217    1.7170802   -98.078137   -11443.149    4.4187117    4.4187117    4.4187117   -11443.149   -7704.1701    22814.947   -49440.224     481.0991   -3672.9707     24778.07    86.275403 
   52600    1516.0768   -99.444537    1.3717782   -98.072758    7051.7753     4.402306     4.402306     4.402306    7051.7753   -28212.023    82580.032   -33212.683   -14924.044   -2576.9358   -19416.745    85.318005 
   52700    1893.1412   -99.799121    1.7129539   -98.086167   -11641.157    4.3891285    4.3891285    4.3891285   -11641.157    11075.945    25582.778   -71582.194    8691.2386    39408.292    22851.236     84.55414 
   52800    1653.7449   -99.606523    1.4963431    -98.11018     27975.14    4.3860057    4.3860057    4.3860057     27975.14    3095.9381    95239.514   -14410.032   -5514.2558   -10498.217   -36264.876    84.373794 
   52900    1799.8936   -99.749828    1.6285815   -98.121246   -33090.966    4.4110966    4.4110966    4.4110966   -33090.966   -38745.892    38801.687   -99328.693   -1209.9033    43109.095    4439.3755    85.830117 
   53000    1970.6625    -99.86903    1.7830968   -98.085933    16448.541    4.4081837    4.4081837    4.4081837    16448.541    8662.3005     22676.24    18007.081    503.10197    3.3727223   -18791.828    85.660191 
   53100    1998.2301   -99.890754    1.8080406   -98.082714    -17190.99    4.4067402    4.4067402    4.4067402    -17190.99    -49225.29    41184.656   -43532.337   -2367.0627    45053.397    2114.2594    85.576073 
   53200    2569.2736   -100.39042    2.3247327   -98.065691   -6044.9592    4.4011366    4.4011366    4.4011366   -6044.9592    24653.345   -10555.503    -32232.72    15669.067   -11883.564   -8060.0159    85.250031 
   53300    1144.0903   -99.120041    1.0351969   -98.084844    24567.984    4.3958227    4.3958227    4.3958227    24567.984    12500.528    25734.255     35469.17   -8884.1326    62109.266   -14695.121     84.94161 
   53400    2385.4593   -100.22013    2.1584137   -98.061721   -11530.023    4.4185258    4.4185258    4.4185258   -11530.023    51944.532   -38761.136   -47773.465    21003.471   -28175.677   -33746.149    86.264514 
   53500    800.08391   -98.796939   0.72393274   -98.073006   -3686.3283    4.4048157    4.4048157    4.4048157   -3686.3283    49769.122   -18779.183   -42048.924   -11684.519    60589.409   -7152.6634    85.464001 
   53600    2395.1621   -100.22303     2.167193   -98.055837    34371.241    4.3821348    4.3821348    4.3821348    34371.241    80782.916    137.26961    22193.537     23928.69   -9948.9981   -6735.8395    84.150595 
   53700    1711.7444   -99.646477    1.5488223   -98.097655   -15963.015    4.3838814    4.3838814    4.3838814   -15963.015   -10262.709    1882.3392   -39508.674   -13413.631    50443.627   -9400.9072    84.251259 
   53800    2171.6638   -100.07031     1.964967   -98.105339   -8040.4646    4.4005751    4.4005751    4.4005751   -8040.4646   -13867.546   -8999.5621   -1254.2856    8133.6687     8701.529   -357.16811    85.217408 
   53900    1570.9184   -99.528766    1.4213999   -98.107366   -23892.424    4.4249455    4.4249455    4.4249455   -23892.424    2939.6464    -27400.93   -47215.989   -1137.5607    35333.037    3455.6898    86.641067 
   54000    2315.1819     -100.157    2.0948253   -98.062178   -43048.471    4.4211384    4.4211384    4.4211384   -43048.471   -32849.151   -71387.629   -24908.633   -25660.093   -6458.2719    10031.005    86.417628 
   54100    1524.3387    -99.42417    1.3792537   -98.044917    50637.314    4.3754623    4.3754623    4.3754623    50637.314     92811.52    22412.572    36687.851   -3906.7264     24394.94   -6759.0931    83.766784 
   54200     1959.867   -99.844814    1.7733288   -98.071485    29717.863    4.3773059    4.3773059    4.3773059    29717.863    27382.018    4230.2688    57541.303   -31943.688    7900.7249    -14407.91    83.872715 
   54300    1796.9367   -99.716269    1.6259061   -98.090363   -22475.908    4.4092058    4.4092058    4.4092058   -22475.908   -12082.307    1640.7909   -56986.207    9557.1078    24265.615   -9492.8722     85.71979 
   54400    1866.3094   -99.762335    1.6886759   -98.073659   -25907.707    4.4222162    4.4222162    4.4222162   -25907.707   -40975.402    21177.926   -57925.645   -15633.701    10599.264   -3514.3587    86.480846 
   54500    1977.8535   -99.846802    1.7896034   -98.057198   -23480.149    4.4123635    4.4123635    4.4123635   -23480.149   -45676.952    18813.269   -43576.763   -4510.5649    12947.837    2140.4067    85.904094 
   54600     2021.514    -99.88197    1.8291083   -98.052862    632.31655    4.3916299    4.3916299    4.3916299    632.31655    55262.213   -19563.048   -33802.214   -18.717232    31398.257    6290.0796    84.698791 
   54700    1843.1608   -99.739733    1.6677306   -98.072002     16752.47    4.3887135    4.3887135    4.3887135     16752.47    54201.124    28213.925   -32157.641   -15744.375    9866.2552   -12421.822    84.530158 
   54800     1588.657   -99.536412    1.4374502   -98.098962    2359.0481    4.4076427    4.4076427    4.4076427    2359.0481    31676.799    6327.9994   -30927.654    9330.7432    26068.819    7866.3895     85.62866 
   54900    1824.0517   -99.718354    1.6504403   -98.067914    5041.1722    4.4170347    4.4170347    4.4170347    5041.1722    31184.118   -8486.1323   -7574.4696   -11850.841     13923.33    6232.3095    86.177213 
   55000    1326.4494   -99.263095    1.2001993   -98.062895    14546.161    4.4037238    4.4037238    4.4037238    14546.161    50352.454   -19842.601    13128.629    8307.8595     19389.04    140.34447    85.400464 
   55100    2271.5369   -100.10491    2.0553343   -98.049577   -8625.4162      4.39682      4.39682      4.39682   -8625.4162    1063.7207    24153.374   -51093.343    -9459.998    23050.419   -6574.2773    84.999437 
   55200    1431.4272   -99.376035    1.2951854    -98.08085   -6598.0133    4.3979515    4.3979515    4.3979515   -6598.0133       -20267    16920.986   -16448.026    1325.6535    18730.955    16552.538     85.06508 
   55300    2380.9231   -100.22916    2.1543092    -98.07485   -24403.713    4.4172395    4.4172395    4.4172395   -24403.713   -26921.085   -7494.2335   -38795.822   -9688.6645    14190.152    6155.3301    86.189197 
   55400    1604.8409   -99.516729    1.4520938   -98.064635   -45194.593    4.4309478    4.4309478    4.4309478   -45194.593   -55461.306   -20485.871   -59636.602   -7519.0172    16351.144     6436.753    86.994122 
   55500    2030.1084   -99.861018    1.8368847   -98.024133   -14167.945     4.416416     4.416416     4.416416   -14167.945    6165.4804   -34268.771   -14400.543   -10269.858    16639.859    22074.776       86.141 
   55600    1634.2612   -99.509643    1.4787139   -98.030929   -21278.927    4.4029855    4.4029855    4.4029855   -21278.927   -12065.912   -878.65944   -50892.209    142.29546    19152.504    3330.9472    85.357515 
   55700    1655.1122   -99.555261    1.4975803    -98.05768    31332.203    4.3981094    4.3981094    4.3981094    31332.203   -937.73719    18163.577    76770.769    7716.3813   -1184.9754    7161.7538    85.074239 
   55800    1710.0857   -99.648565    1.5473214   -98.101243   -5937.9937    4.4125621    4.4125621    4.4125621   -5937.9937    -60054.26    29788.148    12452.131   -1497.0717    41937.131    1016.4717    85.915691 
   55900    1870.1071   -99.787134    1.6921122   -98.095022    10904.044    4.4064279    4.4064279    4.4064279    10904.044    1994.2333    10371.612    20346.287    19273.137    27314.529    6113.8254    85.557878 
   56000     1657.298   -99.584136    1.4995581   -98.084578    33039.604    4.4050284    4.4050284    4.4050284    33039.604    10608.765   -12208.429    100718.48   -2183.8872    12988.674    11985.331    85.476386 
   56100    2078.9503   -99.956535     1.881078   -98.075457    -14156.05    4.4062268    4.4062268    4.4062268    -14156.05   -44470.225   -6215.4089    8217.4831     11065.15    38867.488   -3647.5631    85.546162 
   56200    1804.7606   -99.716095    1.6329853   -98.083109    1658.8804    4.4064952    4.4064952    4.4064952    1658.8804    2473.8838    -29563.94    32066.697   -3775.6826    19068.266    9094.1966    85.561799 
   56300    2010.9072   -99.902691    1.8195111    -98.08318   -25562.698    4.4173109    4.4173109    4.4173109   -25562.698   -57518.861   -36968.437    17799.204   -3598.9357    27015.937    6996.8026    86.193381 
   56400    1965.8563   -99.863941    1.7787481   -98.085193   -28585.917    4.4153083    4.4153083    4.4153083   -28585.917   -24755.598   -17578.462   -43423.692    11769.525    23059.442    6649.2185    86.076203 
   56500     1425.368   -99.373083    1.2897029    -98.08338    32099.346    4.3934981    4.3934981    4.3934981    32099.346    5668.4444    14763.218    75866.375   -2857.8954    15964.225    -13177.54    84.806925 
   56600    2269.8621   -100.13654    2.0538189   -98.082721   -11889.684    4.3950519    4.3950519    4.3950519   -11889.684   -2503.0063   -29484.987   -3681.0574    10856.026    28057.371    13155.129    84.896938 
   56700    1016.0874   -99.025139   0.91937722   -98.105761    8082.3829    4.4024618    4.4024618    4.4024618    8082.3829   -4327.2738   -42741.313    71315.735    3053.1845   -13534.581   -20143.054     85.32706 
   56800    2196.5566   -100.09635    1.9874906   -98.108855   -1815.8611     4.404244     4.404244     4.404244   -1815.8611   -28711.701    2197.6785    21066.439   -11980.551    45644.216   -1810.7949    85.430732 
   56900    1323.4468   -99.310069    1.1974825   -98.112587   -6247.1101    4.4033173    4.4033173    4.4033173   -6247.1101    34343.905   -41979.266   -11105.969    15272.228   -25607.976    7588.2829    85.376812 
   57000    2536.3226   -100.38912     2.294918     -98.0942   -17386.844    4.3958219    4.3958219    4.3958219   -17386.844    -13570.67   -39641.937    1052.0749   -22371.709    30827.704   -19907.737    84.941568 
   57100    1522.9167   -99.477782     1.377967   -98.099815    28188.002    4.3909033    4.3909033    4.3909033    28188.002    23612.677   -4157.4237    65108.752    4334.2709   -16048.368    18324.559    84.656755 
   57200    1702.1152   -99.639871    1.5401096   -98.099762   -2830.6849    4.4020061    4.4020061    4.4020061   -2830.6849    31135.875   -35592.403   -4035.5266   -15587.867    7091.4479   -30872.033    85.300565 
   57300    2012.0378   -99.911491    1.8205341   -98.090957    7604.2046    4.3985072    4.3985072    4.3985072    7604.2046   -15434.653   -44737.241    82984.508    -13922.13   -9711.8344    13813.068     85.09733 
   57400    1400.5383    -99.36394    1.2672365   -98.096703    7091.3548    4.3933218    4.3933218    4.3933218    7091.3548    53276.985   -20013.063   -11989.857    -7189.813    1024.3777    -28412.81    84.796716 
   57500    2032.7273   -99.927268    1.8392544   -98.088014    1031.3772    4.3879517    4.3879517    4.3879517    1031.3772   -25614.624   -18935.859    47644.615   -14773.396   -3705.4544   -11425.343     84.48615 
   57600    1779.9082   -99.715254    1.6104984   -98.104756   -4300.2661    4.3790895    4.3790895    4.3790895   -4300.2661     18144.74   -33345.734    2300.1955    -1363.575   -25505.803   -14756.929    83.975281 
   57700    1832.6583   -99.773434    1.6582277   -98.115206   -7245.8238    4.3945046    4.3945046    4.3945046   -7245.8238   -18871.782   -12309.061    9443.3718   -16624.423     20153.71    1623.7032    84.865225 
   57800    1716.5793   -99.663582     1.553197   -98.110385   -21890.183    4.4068582    4.4068582    4.4068582   -21890.183   -40954.455   -19782.129   -4933.9644    13470.154   -36782.157   -23903.813    85.582948 
   57900     2136.544   -100.01929    1.9331899   -98.086098   -14223.664    4.4102327    4.4102327    4.4102327   -14223.664   -29912.496   -190.77485   -12567.722   -230.24074    14356.409    12524.386    85.779696 
   58000    1414.5432   -99.369928    1.2799084    -98.09002   -18334.206    4.3876879    4.3876879    4.3876879   -18334.206   -41130.308    9721.6565   -23593.968    22273.578    1040.5724   -16140.757    84.470912 
   58100    2385.6629   -100.23812    2.1585979   -98.079518    36267.315     4.380448     4.380448     4.380448    36267.315    9841.6145    45426.547    53533.784    5140.6649   -3557.3037   -308.43308    84.053456 
   58200    1170.2253   -99.183666    1.0588444   -98.124822   -23224.384    4.4018947    4.4018947    4.4018947   -23224.384    -38436.41   -21734.107   -9502.6346    17156.329     9379.708   -17931.046    85.294092 
   58300    2083.2008    -99.99182    1.8849239   -98.106896    9713.6232    4.4104437    4.4104437    4.4104437    9713.6232   -35108.185   -2063.5016    66312.556   -5310.1809   -1841.7623   -20106.669    85.792013 
   58400     2050.821   -99.958742    1.8556259   -98.103116   -24405.282    4.4065345    4.4065345    4.4065345   -24405.282   -26954.999   -10122.769    -36138.08    6143.9741    7510.2842   -5394.8313    85.564088 
   58500    1380.6407    -99.34724    1.2492327   -98.098007    22290.049    4.3953362    4.3953362    4.3953362    22290.049    -583.2972   -20607.151    88060.597    4320.9127   -11063.944   -23955.139    84.913413 
   58600    2219.0471   -100.09695    2.0078404   -98.089112    -2370.058    4.4056036    4.4056036    4.4056036    -2370.058   -22937.814    -9565.861    25393.501   -11297.767   -14089.617    7984.2229    85.509871 
   58700    1441.3619   -99.409654    1.3041745    -98.10548   -47216.462    4.4038743    4.4038743    4.4038743   -47216.462   -43189.209   -49602.432   -48857.745   -3003.2612    1601.7169   -28595.541    85.409216 
   58800    2153.8463   -100.04927    1.9488454   -98.100425     16913.51    4.3948464    4.3948464    4.3948464     16913.51    6436.4647    11541.911    32762.155   -2388.9841   -7891.1438   -382.16236    84.885032 
   58900    1344.8891   -99.335107    1.2168839   -98.118223    574.13323    4.4047124    4.4047124    4.4047124    574.13323    -22963.12    323.95579    24361.564    1225.5267   -3299.8245   -37078.495    85.457988 
   59000    1831.0169   -99.754181    1.6567426   -98.097438    -11612.76    4.4148899    4.4148899    4.4148899    -11612.76   -14633.418    39926.737   -60131.601    71.664296    11382.321    -3645.362    86.051737 
   59100    2194.3269   -100.06322    1.9854731   -98.077751    -30743.24    4.4265728    4.4265728    4.4265728    -30743.24   -36682.668   -36868.597   -18678.454   -2411.1816   -6813.3787   -16112.744    86.736689 
   59200    961.00748   -98.943705   0.86953976   -98.074165   -22384.381    4.4128746    4.4128746    4.4128746   -22384.381   -49016.815   -30315.401    12179.072   -40030.075    1416.5773   -20351.998    85.933946 
   59300    2328.4025   -100.14564    2.1067875   -98.038854    47399.588     4.386262     4.386262     4.386262    47399.588    38796.361    80739.909    22662.495    6099.1795    12709.181   -17982.966    84.388585 
   59400    1433.5388   -99.401835     1.297096   -98.104739   -19950.502    4.4127017    4.4127017    4.4127017   -19950.502   -72788.134    21051.044   -8114.4175   -26754.678   -1679.1324    -91.61844    85.923846 
   59500    2300.4436   -100.14767    2.0814898   -98.066179     4596.049    4.4296548    4.4296548    4.4296548     4596.049    22472.106     23068.32   -31752.279   -351.67726    3166.0796      -6349.8    86.917987 
   59600    1385.2766   -99.325142    1.2534274   -98.071714   -32033.649      4.42163      4.42163      4.42163   -32033.649   -44193.236   -5291.2889   -46616.422   -10148.711    8646.5928   -9250.2091    86.446456 
   59700    2166.3412   -100.00989    1.9601511   -98.049742     14312.72    4.3980114    4.3980114    4.3980114     14312.72     18544.04    41022.945   -16628.823    -3049.844   -7298.9662    23019.195    85.068555 
   59800    1169.7144   -99.129527    1.0583822   -98.071145    57487.119    4.3939488    4.3939488    4.3939488    57487.119    20126.261    113848.24    38486.854   -21578.365   -5194.4112   -11202.386     84.83303 
   59900    2209.3296    -100.0719    1.9990478   -98.072851   -32328.015    4.4179205    4.4179205    4.4179205   -32328.015   -67060.242   -25295.556   -4628.2467    18015.772   -1897.1015    10337.342    86.229065 
   60000    1650.8299   -99.563072    1.4937055   -98.069366   -734.71714    4.4172633    4.4172633    4.4172633   -734.71714    8.1674049    32929.582     -35141.9    -733.5813    3123.3025   -7566.8676     86.19059 
   60100    1718.6414   -99.622628    1.5550629   -98.067566    14147.988    4.4055468    4.4055468    4.4055468    14147.988   -4116.0347    29763.981    16796.017    2257.5642   -8948.2293    203.51992    85.506566 
   60200    1915.1883   -99.805121    1.7329027   -98.072219     18957.56    4.3995009    4.3995009    4.3995009     18957.56   -10210.451    17897.224    49185.908    14796.541    5021.6233    2783.0675    85.155014 
   60300    1548.2377   -99.484136     1.400878   -98.083258    -279.8608    4.4124777    4.4124777    4.4124777    -279.8608    11519.992    3411.8683   -15771.443   -2169.7489     868.7198    3521.7209    85.910761 
   60400    1707.0024   -99.621329    1.5445317   -98.076797   -27689.053    4.4059753    4.4059753    4.4059753   -27689.053   -5069.5032   -74790.619   -3207.0371    54988.047    11623.799   -14677.813    85.531516 
   60500    2093.7316   -99.953571    1.8944524   -98.059119    9781.8902    4.4008406    4.4008406    4.4008406    9781.8902     27738.46   -14671.487    16278.697    5977.7894    4338.8615    12299.955    85.232833 
   60600    1015.4428   -99.001633   0.91879401   -98.082839    9938.0105    4.4242664    4.4242664    4.4242664    9938.0105   -42763.952   -41900.031    114478.01    18108.399    1750.0815   -2866.3642    86.601182 
   60700    1711.4007   -99.599377    1.5485113   -98.050866   -3745.6141    4.4268685    4.4268685    4.4268685   -3745.6141   -81568.918    18865.813    51466.263    34612.968     -9605.96   -3743.0501     86.75407 
   60800    2107.5553   -99.932148    1.9069603   -98.025188   -15210.095     4.426261     4.426261     4.426261   -15210.095   -37011.443   -59784.897    51166.056   -7728.6402    7834.3128   -4517.1076    86.718361 
   60900    1256.0573    -99.16851     1.136507   -98.032003    2538.0154    4.4107924    4.4107924    4.4107924    2538.0154   -76958.272    -37221.88     121794.2    58649.289     3114.568   -21157.351    85.812363 
   61000    2294.0211   -100.12053    2.0756785   -98.044847   -16326.913    4.4014384    4.4014384    4.4014384   -16326.913       -10054   -45409.205     6482.466   -31408.281    2742.4006    11283.254    85.267567 
   61100    1744.3293   -99.669327    1.5783058   -98.091021   -17983.831    4.3987294    4.3987294    4.3987294   -17983.831   -16319.892   -77877.094    40245.494     29565.28   -5002.8497   -13299.592    85.110223 
   61200    1567.0212   -99.533774    1.4178737   -98.115901    23881.414    4.4120795    4.4120795    4.4120795    23881.414    -33950.74   -43000.689    148595.67   -8619.3988    -638.2773    27976.185    85.887506 
   61300    1490.2388   -99.449733    1.3483994   -98.101334    10342.404     4.427885     4.427885     4.427885    10342.404   -71642.667    -22324.88    124994.76    20552.417    3942.0578   -4655.4703    86.813844 
   61400     1612.521   -99.537207    1.4590429   -98.078164   -21306.498    4.4245247    4.4245247    4.4245247   -21306.498   -74549.838   -28849.253    39479.597   -5864.7317   -9179.8927    2871.6605     86.61635 
   61500    2771.4194   -100.55447    2.5076385   -98.046827   -28331.942    4.4082183    4.4082183    4.4082183   -28331.942   -40261.824   -27873.372   -16860.631    19503.179   -4292.0366    18271.097    85.662213 
   61600    1622.3397   -99.529784    1.4679271   -98.061857   -98.830538    4.4006656    4.4006656    4.4006656   -98.830538   -70969.334    36967.443    33705.399    7660.0221     -16105.4    2467.4661    85.222665 
   61700    2135.6489   -100.01398      1.93238   -98.081596   -7847.3174    4.4042383    4.4042383    4.4042383   -7847.3174   -15860.987   -15756.635    8075.6691    11274.123    14365.384    55994.652    85.430399 
   61800    1582.7193   -99.538284    1.4320777   -98.106207    21847.267    4.4159516    4.4159516    4.4159516    21847.267   -38616.974    27426.618    76732.157    -8240.271   -10498.539    1130.7598    86.113829 
   61900    1861.9653   -99.762075    1.6847453   -98.077329   -27375.748    4.4204335    4.4204335    4.4204335   -27375.748   -38590.691   -5546.2245   -37990.327    18095.676    8496.7723    56819.333    86.376299 
   62000    2089.3246   -99.948141    1.8904648   -98.057676   -19406.685    4.3967404    4.3967404    4.3967404   -19406.685   -59384.671   -859.04519    2023.6601   -21257.149   -4335.0751    9295.0116    84.994825 
   62100    1677.0139   -99.581623    1.5173974   -98.064225    34836.326    4.3891248    4.3891248    4.3891248    34836.326    7521.8895    62444.678    34542.411    23159.549    14215.954    10872.539    84.553929 
   62200    1703.7425   -99.630092     1.541582    -98.08851   -8008.5669    4.4146297    4.4146297    4.4146297   -8008.5669   -46419.725    53121.801   -30727.777   -3294.8098   -5543.6067    9917.7138    86.036519 
   62300    1578.8644   -99.497159    1.4285897   -98.068569     15210.86    4.4192274    4.4192274    4.4192274     15210.86   -16084.623     81584.92   -19867.717    11797.086    1740.2486   -8027.0405    86.305614 
   62400    2001.3768   -99.868605    1.8108878   -98.057717   -3843.3089    4.4199767    4.4199767    4.4199767   -3843.3089   -38624.214    17089.453    10004.835   -19047.731    8936.2413    30256.583    86.349524 
   62500    1425.8527   -99.365487    1.2901415   -98.075345    9686.4259    4.4021212    4.4021212    4.4021212    9686.4259   -20191.156    63407.014    -14156.58    11728.313    14601.883   -6167.5345    85.307258 
   62600    2183.4029   -100.06156    1.9755888   -98.085966     9029.419     4.384778     4.384778     4.384778     9029.419   -3898.7033    39713.407   -8726.4466    -22561.08   -150.32297    30361.317    84.302962 
   62700    1783.2882   -99.741254    1.6135567   -98.127697   -16186.196    4.4023629    4.4023629    4.4023629   -16186.196   -59001.499    21847.192   -11404.281    37126.964    9215.3783   -12469.354    85.321309 
   62800    1691.1355   -99.650767    1.5301749   -98.120592   -22048.789    4.4126811    4.4126811    4.4126811   -22048.789   -34951.506    42833.704   -74028.565   -17265.387    3553.0446   -6206.2362    85.922643 
   62900    2346.7297   -100.22093    2.1233703   -98.097561   -9136.7574    4.4017644    4.4017644    4.4017644   -9136.7574   -38749.104    31081.376   -19742.544    31238.503   -8413.8203     2186.897     85.28652 
   63000    1802.9122   -99.734845    1.6313128   -98.103532   -17198.792    4.4118496    4.4118496    4.4118496   -17198.792   -39825.786    36792.414   -48563.005    -9985.561    6302.9222   -14793.419    85.874079 
   63100    1288.4145   -99.273106    1.1657845   -98.107322    24336.064    4.4069372    4.4069372    4.4069372    24336.064   -43969.792    134126.82   -17148.832    2526.3805   -17912.685   -771.63143    85.587547 
   63200    2163.3758   -100.07162    1.9574679   -98.114151    8152.1137    4.4008174    4.4008174    4.4008174    8152.1137    23787.668    8178.0187   -7509.3457    5097.7017   -3235.6181    9816.5475    85.231482 
   63300    1141.2904   -99.169168    1.0326635   -98.136504   -12896.011    4.4042009    4.4042009    4.4042009   -12896.011    5905.4158    25062.902   -69656.352    3015.5357   -28288.468    21177.373    85.428219 
   63400    1822.1039   -99.767302    1.6486779   -98.118624    23341.995    4.3966055    4.3966055    4.3966055    23341.995    21627.847    43551.437    4846.7005    18879.152    937.20094    835.79886    84.986998 
   63500    2112.6101   -100.04412     1.911534   -98.132584   -16139.269    4.3984818    4.3984818    4.3984818   -16139.269    7540.0834   -7253.4192    -48704.47   -1931.3278   -33992.282     9547.732    85.095852 
   63600    1882.2541   -99.837316    1.7031031   -98.134213    -36578.82    4.4157198    4.4157198    4.4157198    -36578.82    1667.8598   -62717.367   -48686.954    30437.461    20122.305    9286.9916    86.100274 
   63700    1831.7482   -99.760483    1.6574043   -98.103079    20008.762    4.4170127    4.4170127    4.4170127    20008.762    -36799.67    100371.21   -3545.2545    3434.9628   -17876.385     13866.57    86.175926 
   63800    1382.2549   -99.350298    1.2506933   -98.099605    487.30761    4.4147714    4.4147714    4.4147714    487.30761   -1425.0853   -25336.116    28223.124    16651.332     4270.665    6325.0349    86.044808 
   63900    2226.1618   -100.08097     2.014278    -98.06669     11622.14    4.4068881    4.4068881    4.4068881     11622.14   -13438.385   -2604.7664     50909.57   -8688.6704   -23886.959   -313.37443     85.58469 
   64000    1003.2603   -99.002824   0.90777103   -98.095053    31306.523    4.4133118    4.4133118    4.4133118    31306.523   -1197.6443    63152.182    31965.031   -12115.168    3186.5501   -11096.635    85.959489 
   64100    2326.2309   -100.17889    2.1048226   -98.074067   -28985.904    4.4394289    4.4394289    4.4394289   -28985.904   -27864.645   -75026.329    15933.261    -15177.02   -6536.8019    8903.8529    87.494611 
   64200    1410.0438   -99.325769    1.2758373   -98.049932   -10658.484    4.4344521    4.4344521    4.4344521   -10658.484    1809.8727   -31122.517   -2662.8069    1411.5776     10487.62    9985.3863    87.200686 
   64300     1155.802    -99.07193     1.045794   -98.026136    55857.483    4.3952555    4.3952555    4.3952555    55857.483     19027.46    56831.106    91713.884   -38671.752    11998.892    16041.332    84.908735 
   64400    2475.2549   -100.28664    2.2396627   -98.046975    29760.553    4.3972997    4.3972997    4.3972997    29760.553    46937.881   -29933.329    72277.107    5931.8841    1201.4032    85.524487     85.02726 
   64500    945.73485   -98.948923   0.85572077   -98.093203   -9491.9342    4.4213739    4.4213739    4.4213739   -9491.9342   -25574.657   -65153.133    62251.987   -16024.549    19556.116   -5054.3213    86.431434 
   64600    2520.6824   -100.34998    2.2807664   -98.069209   -22615.565    4.4324602    4.4324602    4.4324602   -22615.565   -236.21283   -25964.668   -41645.814    16775.286   -8910.9071   -17448.967     87.08323 
   64700     1824.061    -99.70401    1.6504488   -98.053561   -21803.194    4.4246829    4.4246829    4.4246829   -21803.194   -44331.047   -33571.739    12493.205   -18931.994   -1677.0263    11423.188    86.625639 
   64800    1610.7812    -99.51122    1.4574687   -98.053751    7448.5122    4.3994494    4.3994494    4.3994494    7448.5122   -21504.024   -58712.543     102562.1    24309.772   -11985.678   -1668.5106    85.152023 
   64900     2683.861   -100.48938    2.4284138   -98.060964    10625.981    4.4008197    4.4008197    4.4008197    10625.981    15310.523    21711.849   -5144.4295   -10279.187   -3980.6592    -3343.728    85.231615 
   65000     1184.626   -99.180167    1.0718745   -98.108292   -7453.6851    4.4188904    4.4188904    4.4188904   -7453.6851   -38585.615   -13108.098    29332.658    8885.0847   -6569.1518   -6656.1427    86.285869 
   65100    2071.7595   -99.950333    1.8745715   -98.075761   -14031.912    4.4371924    4.4371924    4.4371924   -14031.912   -3567.9236   -48075.937    9548.1239   -25446.025    14535.147    2846.6098    87.362447 
   65200    1473.2923   -99.395762    1.3330658   -98.062696   -5644.9382    4.4197913    4.4197913    4.4197913   -5644.9382    61414.956    -45670.74   -32679.031     7355.752    48.936957    2481.6828    86.338658 
   65300    1572.1146   -99.464037    1.4224823   -98.041555     6734.981    4.3956835    4.3956835    4.3956835     6734.981   -27464.408    35710.821    11958.531   -17713.859     33761.61    27710.973    84.933544 
   65400    2164.7186   -100.03742    1.9586829   -98.078735    12784.069    4.4088683    4.4088683    4.4088683    12784.069    33602.781    4677.4689    71.956313    13976.829    -7570.734    4237.1838    85.700109 
   65500    1518.7931   -99.465197    1.3742359   -98.090961   -48335.704    4.4427173    4.4427173    4.4427173   -48335.704   -74122.478   -69715.045   -1169.5903   -20749.494    22298.889    8175.7691    87.689188 
   65600    2793.2157   -100.54723    2.5273602   -98.019865   -18888.336    4.4389429    4.4389429    4.4389429   -18888.336   -14998.494   -32906.412   -8760.1024    8392.0422   -1108.8458    1189.2651    87.465883 
   65700    1123.7841    -99.02616    1.0168235   -98.009336    986.67054    4.4243353    4.4243353    4.4243353    986.67054   -8433.5237    20616.464   -9222.9285   -30104.876    20098.075     184.8916    86.605227 
   65800    2899.5002   -100.63233    2.6235287   -98.008804   -14376.531    4.4141312    4.4141312    4.4141312   -14376.531   -10484.428   -4461.8526   -28183.311    24301.052   -24017.572   -18790.025    86.007377 
   65900     1379.593   -99.306296    1.2482847   -98.058012    14970.421     4.398926     4.398926     4.398926    14970.421   -28298.995    63266.369    9943.8893   -36689.725    13521.147   -143.25078    85.121636 
   66000    2372.7852   -100.23225    2.1469459   -98.085305   -2567.8468    4.4153578    4.4153578    4.4153578   -2567.8468    5657.7183   -30207.615    16846.357    21410.981   -10113.502   -23895.351    86.079098 
   66100    1512.4486   -99.446065    1.3684953    -98.07757   -23325.732    4.4365725    4.4365725    4.4365725   -23325.732   -80915.442    25073.702   -14135.457   -29963.777     23648.82   -2889.8933    87.325836 
   66200    1693.0974   -99.573535    1.5319501   -98.041585   -23604.254    4.4339208    4.4339208    4.4339208   -23604.254   -52758.821    -12492.77   -5561.1697    29438.903    515.31141   -13378.905    87.169345 
   66300    1654.4839   -99.538029    1.4970118   -98.041017   -20803.695    4.3962532    4.3962532    4.3962532   -20803.695   -58327.705   -12964.914    8881.5346   -44837.302    33120.826   -2600.7135    84.966569 
   66400    2315.0314   -100.14306    2.0946891   -98.048368    3707.7203    4.3769624    4.3769624    4.3769624    3707.7203    -8755.741    14459.526    5419.3755    35217.796    483.78181   -7806.1796    83.852969 
   66500    1288.9367   -99.270458     1.166257   -98.104201   -25905.079    4.4096262    4.4096262    4.4096262   -25905.079   -37093.116   -28975.087   -11647.034   -66032.612    14155.981    11809.381    85.744316 
   66600    1970.9671   -99.859859    1.7833724   -98.076487   -11188.181    4.4157292    4.4157292    4.4157292   -11188.181   -49949.809   -13707.582    30092.847    1287.1883    25840.272   -9759.5186    86.100821 
   66700    1652.6571   -99.569094    1.4953589   -98.073735   -7932.0593     4.415818     4.415818     4.415818   -7932.0593    7135.0259    5096.8418   -36028.046   -27750.514    23145.251   -6492.9187    86.106015 
   66800    2217.3698   -100.05427    2.0063228   -98.047948   -15313.998    4.4186666    4.4186666    4.4186666   -15313.998   -28229.762   -10157.355   -7554.8753    12881.038    25692.222   -4081.0224    86.272765 
   66900    1376.9162   -99.296023    1.2458627    -98.05016   -1024.3302    4.4190129    4.4190129    4.4190129   -1024.3302   -8064.9854    32374.589   -27382.594   -46926.132     12410.35    1473.1456    86.293049 
   67000    2018.0958   -99.881026    1.8260155   -98.055011   -16472.561    4.4174541    4.4174541    4.4174541   -16472.561   -50676.729    42628.037   -41368.992    11265.613    18782.467   -12486.795    86.201758 
   67100    1336.5006   -99.258066    1.2092938   -98.048772    69413.316    4.3949722    4.3949722    4.3949722    69413.316    77198.947    31621.106    99419.896   -18213.145    8767.2544    11683.709    84.892319 
   67200    2001.4731   -99.900893     1.810975   -98.089918    8908.6908    4.4153414    4.4153414    4.4153414    8908.6908   -51039.441    25039.007    52726.506     5561.763    5810.4954   -14163.231    86.078137 
   67300    2070.7444   -99.931823    1.8736531    -98.05817    -36988.83    4.4309237    4.4309237    4.4309237    -36988.83   -42063.481   -34233.059    -34669.95    21658.617    17421.965   -2067.9442    86.992701 
   67400    2160.2544   -99.986617    1.9546436   -98.031973    3843.3675    4.4031509    4.4031509    4.4031509    3843.3675     6564.775    20246.179   -15280.851   -15000.169    3466.8991    155.09276    85.367135 
   67500    1293.8556   -99.229436    1.1707077   -98.058728    -883.0571    4.4058955    4.4058955    4.4058955    -883.0571   -58190.713   -23940.526    79482.068    22337.981    11589.178   -5995.6558    85.526868 
   67600    1784.8759   -99.677959    1.6149932   -98.062966    9862.3781    4.4150533    4.4150533    4.4150533    9862.3781   -28062.254     63307.47   -5658.0814   -22019.531    1590.1265   -16338.896    86.061289 
   67700    1451.1025   -99.389509     1.312988   -98.076521   -10879.521    4.4286934    4.4286934    4.4286934   -10879.521   -65014.695    32008.312    367.82064    36822.005    9928.4908   -9417.4122    86.861405 
   67800    2549.2043   -100.34122    2.3065736   -98.034645   -27009.886    4.4339002    4.4339002    4.4339002   -27009.886   -62022.469    29295.968   -48303.156    -14832.07     7699.893    -10370.32    87.168134 
   67900    1156.3891   -99.108947    1.0463251   -98.062622    17331.806    4.3885291    4.3885291    4.3885291    17331.806   -61210.007    109074.47    4130.9547    56376.498    30151.194   -23609.572    84.519505 
   68000    2370.8961   -100.20334    2.1452366   -98.058101    56739.212     4.374964     4.374964     4.374964    56739.212     10424.79    80130.207     79662.64   -13781.214    3360.5131   -14869.356    83.738169 
   68100    1177.6501    -99.18989    1.0655626   -98.124327   -39915.238      4.41348      4.41348      4.41348   -39915.238   -107127.89      1390.43   -14008.259    37386.827    41856.913    9649.7583    85.969322 
   68200    2788.8459   -100.58276    2.5234064   -98.059356   -35563.271    4.4354634    4.4354634    4.4354634   -35563.271   -30533.726   -33623.258   -42532.829    9504.5763   -6624.1042   -21013.463    87.260362 
   68300    978.24947   -98.933208   0.88514068   -98.048067   -8407.0885    4.4325369    4.4325369    4.4325369   -8407.0885   -69520.576    70507.569   -26208.258    32670.257     39670.93   -7471.2555    87.087751 
   68400    3067.0091   -100.76112    2.7750943   -97.986025   -12570.634    4.4177107    4.4177107    4.4177107   -12570.634   -38495.945   -6230.0069    7014.0484   -7241.2692   -11268.677   -11204.849    86.216783 
   68500    959.66266   -98.895106   0.86832295   -98.026783    43686.678    4.3944062    4.3944062    4.3944062    43686.678    -18795.87     69340.76    80515.145    32229.108    48320.256   -28460.041    84.859523 
   68600    2582.6492   -100.37861    2.3368352   -98.041773   -1338.7455    4.4159512    4.4159512    4.4159512   -1338.7455    13186.006    2646.8459   -19849.089   -15060.047    2304.9686   -13209.475    86.113806 
   68700    1531.9078   -99.436627    1.3861023   -98.050525   -28163.423    4.4222544    4.4222544    4.4222544   -28163.423   -72594.828    13685.867    -25581.31    22715.731    37967.114   -1259.7015    86.483086 
   68800    1681.2558   -99.556222    1.5212356   -98.034987    42471.737    4.4194594    4.4194594    4.4194594    42471.737    130109.37    19040.857   -21735.013    12060.566   -24414.049   -3454.3324    86.319211 
   68900    1968.1438   -99.822487    1.7808179   -98.041669   -36004.579    4.4252388    4.4252388    4.4252388   -36004.579   -63048.019   -24678.939   -20286.779    48966.408    16146.349    4987.1872    86.658295 
   69000    1691.3002   -99.567843     1.530324   -98.037519    11730.293    4.4000551    4.4000551    4.4000551    11730.293    115244.98   -22763.927   -57290.179   -2838.7596   -25521.214   -19615.708    85.187203 
   69100    2290.2144   -100.13395    2.0722341   -98.061713   -637.70338    4.3985215    4.3985215    4.3985215   -637.70338   -9527.5319   -9677.6914    17292.113     32316.93    8161.1844   -797.45574    85.098155 
   69200    1118.2593    -99.10817    1.0118245   -98.096345    6556.9016    4.4135638    4.4135638    4.4135638    6556.9016     64667.21    4433.3226   -49429.828    11410.791   -18858.009   -5604.9168    85.974215 
   69300     2028.123   -99.900247    1.8350883   -98.065159    20205.966    4.4243818    4.4243818    4.4243818    20205.966    47761.084    33418.941   -20562.126    11101.074    2954.6826    14556.715    86.607955 
   69400    1379.2083   -99.314265    1.2479366   -98.066328    3607.9819      4.41655      4.41655      4.41655    3607.9819    30121.007     14741.77   -34038.832    19458.634   -36113.924   -6090.0691    86.148846 
   69500    2222.2451   -100.05713     2.010734   -98.046399    6212.7798    4.4073771    4.4073771    4.4073771    6212.7798    30483.669   -1603.6085   -10241.721    2088.4087   -1888.7055    -12849.87    85.613183 
   69600    1638.5185   -99.543587     1.482566   -98.061021     17190.94     4.407863     4.407863     4.407863     17190.94    65516.089   -34781.702    20838.431    1370.6842   -32011.749   -3863.3015    85.641502 
   69700    1726.0293   -99.624688    1.5617476   -98.062941    24.530967    4.4258286    4.4258286    4.4258286    24.530967    9243.8685    -7311.754   -1858.5217    15436.009   -6457.4294   -7371.4011    86.692951 
   69800    1471.6126   -99.392853     1.331546   -98.061307   -19144.316    4.4196588    4.4196588    4.4196588   -19144.316   -34925.584   -50643.023    28135.659    20348.554   -3473.1474   -2686.1576    86.330893 
   69900     2134.004   -99.970224    1.9308916   -98.039332    20152.672    4.3959947    4.3959947    4.3959947    20152.672    3057.8717    19702.098    37698.047    1976.6636   -21419.655    11027.998    84.951584 
   70000    1131.1353   -99.099415     1.023475    -98.07594    26686.208    4.3917646    4.3917646    4.3917646    26686.208   -65830.605    525.57596    145363.65    15662.056    16829.701    8985.4847    84.706581 
   70100    2304.9452   -100.15733    2.0855628   -98.071765    14415.013    4.4022791    4.4022791    4.4022791    14415.013   -5451.0917    42219.933     6476.199    3066.9211   -14035.889    12254.597    85.316437 
   70200    1243.2892   -99.217213    1.1249542   -98.092259     14988.94    4.4045987    4.4045987    4.4045987     14988.94   -25429.121   -16997.162    87393.102    20729.739    13366.347    18275.096     85.45137 
   70300    2312.1084   -100.15697    2.0920443   -98.064924   -3144.7425    4.4081693    4.4081693    4.4081693   -3144.7425    3259.9473   -62866.777    50172.603    7486.2631   -28506.777    5264.0412    85.659354 
   70400    1222.6341   -99.170324     1.106265   -98.064059   -3404.0113    4.4012147    4.4012147    4.4012147   -3404.0113   -47169.603   -17154.416    54111.985   -6085.2303    26764.598    12929.908     85.25457 
   70500     2275.382   -100.10189    2.0588135   -98.043074   -5235.9182    4.4063356    4.4063356    4.4063356   -5235.9182   -39957.196   -31388.132    55637.574    26477.058   -6270.3139   -4097.2942    85.552505 
   70600    1010.2393   -98.984938   0.91408579   -98.070852    -36333.93    4.4076217    4.4076217    4.4076217    -36333.93   -99637.793   -29114.142    19750.147    3478.0279    46983.368    2622.3374    85.627433 
   70700     2485.901    -100.2843    2.2492955   -98.035001    13829.308    4.3859198    4.3859198    4.3859198    13829.308    7317.2885   -30311.401    64482.038    19305.814   -38977.294    -14901.14    84.368838 
   70800    1341.7778   -99.297624    1.2140687   -98.083556   -32002.566    4.3988915    4.3988915    4.3988915   -32002.566   -66507.019    -25040.91   -4459.7695    625.75246     58868.49    12277.368    85.119632 
   70900     2012.987    -99.88787    1.8213929   -98.066477    29370.953    4.3981948    4.3981948    4.3981948    29370.953    40577.554    -4082.518    51617.822    11484.068    -8057.748   -2144.7853    85.079197 
   71000    1442.5068   -99.401445    1.3052104   -98.096235   -26208.097    4.3958051    4.3958051    4.3958051   -26208.097   -35258.545   -18658.372   -24707.373    3883.4417    30078.858   -1153.2431     84.94059 
   71100    2261.2798   -100.13577    2.0460535   -98.089715    2332.1745    4.3968826    4.3968826    4.3968826    2332.1745    25376.215    -40342.26    21962.568   -10316.711    6336.1649    13401.843    85.003069 
   71200    1481.1248    -99.44121    1.3401528   -98.101057    7786.8034    4.3955942    4.3955942    4.3955942    7786.8034    34043.161   -14396.743    3713.9912    25648.657    30690.715   -1453.8415    84.928365 
   71300    1914.3338   -99.845388    1.7321294   -98.113258      3005.38    4.4087988    4.4087988    4.4087988      3005.38    19752.418   -32998.034    22261.756   -7462.6179   -13080.502    14435.083    85.696058 
   71400    1811.9221   -99.751881    1.6394652   -98.112416   -5152.9639    4.3948228    4.3948228    4.3948228   -5152.9639    17386.169   -28490.633    -4354.428    25510.786    22202.813    1915.1374    84.883662 
   71500    1888.6251   -99.827541    1.7088677   -98.118674    5246.6697    4.3922863    4.3922863    4.3922863    5246.6697    17167.452   -23056.501    21629.059   -12282.218    9376.2584    6288.9589    84.736774 
   71600    1618.2467   -99.581814    1.4642236    -98.11759    10868.416     4.399062     4.399062     4.399062    10868.416     41439.78   -30884.569    22050.038    32616.156    3623.6919    1720.4999    85.129534 
   71700    1574.2533   -99.544912    1.4244174   -98.120494   -10413.313    4.4042031    4.4042031    4.4042031   -10413.313     38660.57   -20548.484   -49352.025   -16482.626    53926.877    13188.283    85.428348 
   71800    2194.7985   -100.09891    1.9858998   -98.113008   -36599.229    4.4073951    4.4073951    4.4073951   -36599.229   -35187.199   -81870.005    7259.5157    49283.195   -15786.218   -501.88255    85.614232 
   71900    2001.4787   -99.926883      1.81098   -98.115903   -27945.081    4.3996947    4.3996947    4.3996947   -27945.081   -12698.465   -8018.7458   -63118.032   -12848.609    41408.469    9193.3192     85.16627 
   72000    1657.1204    -99.62735    1.4993973   -98.127952    6214.3686    4.3914612    4.3914612    4.3914612    6214.3686    23789.881   -21313.979    16167.204    30109.786   -20400.477    8970.3278    84.689029 
   72100     1560.229   -99.536259     1.411728   -98.124531    10024.866    4.3943672    4.3943672    4.3943672    10024.866    38959.606    -7870.413   -1014.5937   -12920.605    28761.114   -6180.6635    84.857266 
   72200    2119.8339   -100.03916    1.9180702   -98.121087   -19349.847     4.409951     4.409951     4.409951   -19349.847    20925.976   -82300.895    3325.3765     16623.85   -25293.081    18030.871     85.76326 
   72300    1477.8539   -99.451573    1.3371933    -98.11438    478.21067    4.4042031    4.4042031    4.4042031    478.21067    23110.784   -9148.3611   -12527.791   -11863.474    23084.273   -12268.274     85.42835 
   72400    1981.9165   -99.891082    1.7932797   -98.097802    15568.661    4.3952283    4.3952283    4.3952283    15568.661    40429.107   -24655.089    30931.967    5592.4512    1924.2257    14451.571    84.907161 
   72500    2031.8975   -99.941251    1.8385036   -98.102747   -37592.012    4.4068708    4.4068708    4.4068708   -37592.012   -40704.047   -16965.303   -55106.687   -12714.618    23883.407   -8834.6155    85.583677 
   72600    1927.8661   -99.842088    1.7443738   -98.097714   -27382.055    4.4042946    4.4042946    4.4042946   -27382.055   -6445.5888   -73208.424   -2492.1517   -10711.736    3225.5391    27987.629    85.433676 
   72700    1863.5006   -99.770355    1.6861345   -98.084221    2865.9477    4.4007741    4.4007741    4.4007741    2865.9477    10884.999   -7503.9127    5216.7565   -3777.3541    8329.8329    -7606.102     85.22897 
   72800    1791.3789   -99.710753    1.6208773   -98.089876    -11774.17    4.4093641    4.4093641    4.4093641    -11774.17   -11625.932    -39755.29    16058.711   -11816.698    34440.398    16300.669    85.729024 
   72900    1562.4432   -99.498298    1.4137314   -98.084566    26924.135    4.4054277    4.4054277    4.4054277    26924.135    55987.367   -26772.304     51557.34    11347.504   -39252.293   -3181.3779    85.499629 
   73000    1835.4915    -99.74629    1.6607913   -98.085498   -29524.075    4.4085222    4.4085222    4.4085222   -29524.075   -27285.207   -34323.282   -26963.738   -27776.958    34725.961   -1328.7247    85.679929 
   73100    1744.6894   -99.650679    1.5786316   -98.072048    18649.179    4.4020097    4.4020097    4.4020097    18649.179    16006.185   -22366.688    62308.042    22144.013   -41532.579   -6127.5405    85.300777 
   73200    1173.0781   -99.138979    1.0614258   -98.077553    14756.789    4.4139644    4.4139644    4.4139644    14756.789   -1480.4624    -33678.01    79428.839   -23631.859    6719.5445   -12231.996     85.99763 
   73300    1857.7114   -99.745704    1.6808963   -98.064808    1841.7703    4.4114021    4.4114021    4.4114021    1841.7703   -10789.262   -36455.551    52770.124    19021.935    -12179.36   -6700.5681     85.84795 
   73400    1445.4229   -99.370005     1.307849   -98.062156    24287.653    4.4100543    4.4100543    4.4100543    24287.653    70164.024   -40918.097    43617.033   -22769.264   -19886.768   -342.04541    85.769292 
   73500    1246.8053   -99.209569    1.1281356   -98.081434   -17310.786    4.4188278    4.4188278    4.4188278   -17310.786   -37958.691   -43070.981    29097.313    55093.057    5407.7524   -10903.879    86.282205 
   73600    2424.6988   -100.25379    2.1939185   -98.059871    2589.2615    4.3976048    4.3976048    4.3976048    2589.2615    7605.3167   -44006.257    44168.725   -31669.463   -15579.321    -1392.589    85.044961 
   73700    1197.0902   -99.188548    1.0831523   -98.105396   -26161.915    4.3996693    4.3996693    4.3996693   -26161.915   -66950.793   -40331.466    28796.514    36545.104    40146.584   -6879.3749    85.164793 
   73800    2147.6226   -100.02608    1.9432141    -98.08287     26259.58    4.3989773    4.3989773    4.3989773     26259.58    50351.628   -12352.582    40779.693   -11995.798   -10845.053    7252.1059    85.124616 
   73900     1285.586   -99.270612    1.1632252   -98.107386    1873.5755    4.4056719    4.4056719    4.4056719    1873.5755   -14715.158   -26548.093    46883.978    24717.257    27333.873    3912.1685    85.513851 
   74000    1946.8045   -99.844703    1.7615096   -98.083194   -12331.987     4.420132     4.420132     4.420132   -12331.987   -28969.391   -11964.841    3938.2721   -3288.4868   -22262.749     4530.272    86.358624 
   74100    1941.7794   -99.847188    1.7569628   -98.090225   -14324.694    4.3876979    4.3876979    4.3876979   -14324.694   -964.65955   -34526.871   -7482.5521    15356.104    20136.171   -3460.5249    84.471488 
   74200    1223.8881   -99.217001    1.1073997   -98.109601    34049.787    4.3795737    4.3795737    4.3795737    34049.787   -6044.2683    71462.334    36731.297    -8035.348    493.18223    7492.7329    84.003141 
   74300    2367.2361   -100.25676     2.141925   -98.114838    -5802.295    4.4005116    4.4005116    4.4005116    -5802.295    11746.926   -14220.879   -14932.932    2969.7658   -11477.258   -5321.0035    85.213717 
   74400    1108.8039   -99.120959    1.0032691   -98.117689    3288.8342     4.419572     4.419572     4.419572    3288.8342    1039.4836     15588.33   -6761.3106    2771.7486    9984.6455   -1229.2112    86.325809 
   74500    2561.1498   -100.38133    2.3173822   -98.063951   -19785.377    4.4193568    4.4193568    4.4193568   -19785.377   -29606.371   -13054.173   -16695.586   -7540.5606   -29671.534   -9033.6914    86.313194 
   74600    1626.9372   -99.524385     1.472087   -98.052298    8203.8179    4.3944957    4.3944957    4.3944957    8203.8179   -9016.8046    10694.312    22933.947    1634.2006   -4615.7674   -6028.5719    84.864713 
   74700    1873.4705   -99.766826    1.6951555    -98.07167    2649.2385    4.3848801    4.3848801    4.3848801    2649.2385   -38517.979    45401.375    1064.3195   -12170.453   -36500.069   -1117.0042    84.308849 
   74800    2024.1475   -99.933541    1.8314912    -98.10205     16115.12    4.4028449    4.4028449    4.4028449     16115.12    3109.6919     33848.46    11387.207    899.23906    9139.1646   -14419.258    85.349339 
   74900    1252.5668   -99.243987    1.1333488   -98.110638   -30097.894    4.4243461    4.4243461    4.4243461   -30097.894    -36695.17   -3068.1115   -50530.401   -13951.499    -36030.22    1163.3895    86.605858 
   75000    2479.4544    -100.3128    2.2434624   -98.069339    -5584.497    4.4187557    4.4187557    4.4187557    -5584.497    10782.868   -15674.262   -11862.096   -6246.6092    -8960.427   -2643.6816    86.277983 
   75100    1592.4188   -99.510306     1.440854   -98.069452    4670.6123     4.396877     4.396877     4.396877    4670.6123   -4907.8849    24189.396   -5269.6738   -13219.411   -22181.508   -11748.133    85.002744 
   75200    1874.1315   -99.772698    1.6957535   -98.076945    3944.6559    4.3902624    4.3902624    4.3902624    3944.6559   -1127.0909   -2249.3273    15210.386   -12386.451   -3513.7646   -7710.9231    84.619689 
   75300    2267.9218   -100.13651    2.0520633   -98.084445    12438.869    4.4070308    4.4070308    4.4070308    12438.869    35063.119    19568.915   -17315.426    10293.958   -30347.197    4840.7687    85.593004 
   75400    1119.6238   -99.112097    1.0130591   -98.099038   -19336.997    4.4230954    4.4230954    4.4230954   -19336.997   -26186.333   -52481.498     20656.84   -9097.2476    13060.677   -2337.8172    86.532435 
   75500    2393.1294   -100.23085    2.1653537   -98.065498    13836.762    4.4170923    4.4170923    4.4170923    13836.762    108155.85   -14253.123   -52392.441    20158.047   -27323.469    7090.7253    86.180579 
   75600    1275.2795   -99.259352    1.1538997   -98.105452   -14063.116    4.3950469    4.3950469    4.3950469   -14063.116    27230.297   -53780.878   -15638.768   -8939.1129    20764.269    -701.8247    84.896647 
   75700    2207.2708   -100.12036     1.997185    -98.12317    7297.7606    4.3917898    4.3917898    4.3917898    7297.7606    60705.208   -9158.9925   -29652.934   -4954.4586   -17564.816    4440.5092    84.708042 
   75800    2107.2299    -100.0394    1.9066659   -98.132732   -8385.1315    4.4047462    4.4047462    4.4047462   -8385.1315    14603.522   -35216.074   -4542.8423   -4157.1082    -8073.719    1950.6596    85.459957 
   75900     1255.329   -99.257695    1.1358481   -98.121847   -21431.855    4.4191562    4.4191562    4.4191562   -21431.855     30110.55   -44212.273   -50193.841   -2225.8771   -8670.8215    3596.5005    86.301444 
   76000    2322.7481   -100.19192    2.1016713   -98.090251   -15856.959    4.4001061    4.4001061    4.4001061   -15856.959    18556.718   -9789.9562   -56337.639    8172.7249   -21002.541    11917.421    85.190161 
   76100    1705.0027   -99.642035    1.5427223   -98.099313    4991.1683    4.3822573    4.3822573    4.3822573    4991.1683   -1602.3292   -16823.008    33398.843   -15329.218   -4464.4415   -3365.0703    84.157657 
   76200    1658.8114   -99.622055    1.5009274   -98.121127    1444.2684    4.3922991    4.3922991    4.3922991    1444.2684    50961.401   -1352.2945   -45276.302    27426.032   -32853.671    14571.991    84.737514 
   76300    2162.1629   -100.06886    1.9563704   -98.112488    1878.0084    4.4043068    4.4043068    4.4043068    1878.0084    15743.776   -11037.277    927.52559   -24290.744    7810.4933   -8585.5035    85.434384 
   76400    1719.6283   -99.656325    1.5559558   -98.100369   -37278.266    4.4097907    4.4097907    4.4097907   -37278.266   -44085.744   -11912.365   -55836.689    16357.883   -27974.871    22731.354    85.753909 
   76500    2058.4067   -99.936091    1.8624896   -98.073601    25416.543    4.3949245    4.3949245    4.3949245    25416.543    34213.208    12859.084    29177.338    -9425.411     23764.69    1416.6555    84.889556 
   76600    1491.9029   -99.441417    1.3499051   -98.091512   -1902.7156    4.4031649    4.4031649    4.4031649   -1902.7156   -45375.829     51960.27   -12292.587   -1768.8485   -15728.934    16019.446    85.367952 
   76700    2241.7267   -100.09548    2.0283614   -98.067115   -23148.408    4.4163289    4.4163289    4.4163289   -23148.408   -33681.215   -29705.552   -6058.4581    7661.9343    32393.922    5324.4607    86.135907 
   76800    1450.0496   -99.375106    1.3120354   -98.063071   -1677.9237    4.4035066    4.4035066    4.4035066   -1677.9237    19011.801   -28109.504    4063.9321     10805.47   -29701.494    2391.5622    85.387824 
   76900    2326.7492   -100.16422    2.1052916   -98.058929    1356.0724    4.3959798    4.3959798    4.3959798    1356.0724   -14505.396    19086.082   -512.46798   -3882.3417    29120.495    15336.372    84.950719 
   77000    1557.4612    -99.49826    1.4092236   -98.089036   -15030.914    4.3913418    4.3913418    4.3913418   -15030.914   -25749.168   -18599.179   -744.39482    31102.974   -28348.699   -29010.969    84.682118 
   77100      1924.13    -99.83799    1.7409932   -98.096997    11160.822    4.3937912    4.3937912    4.3937912    11160.822    1992.6022   -6180.5717    37670.436    6222.3929     28026.25    26089.106    84.823903 
   77200    1455.4414   -99.412284     1.316914    -98.09537   -43314.559    4.4081145    4.4081145    4.4081145   -43314.559    -41388.81   -33660.021   -54894.846    6242.7975   -50016.997   -47062.057    85.656157 
   77300    2237.3137   -100.09251    2.0243685   -98.068137     -13159.3    4.4069274    4.4069274    4.4069274     -13159.3   -17737.654   -43408.827    21668.582    9169.4888    23576.791    220.01189    85.586978 
   77400    1458.9724   -99.392275    1.3201089   -98.072166    -18758.13    4.4019028    4.4019028    4.4019028    -18758.13   -33103.298    7954.6508   -31125.743   -5613.9244   -33228.604   -8186.1693     85.29456 
   77500    2118.4917   -99.987622    1.9168558   -98.070766    2038.8711    4.3969523    4.3969523    4.3969523    2038.8711   -20742.326    21385.383    5473.5566    23296.209    6706.0658   -24853.846    85.007112 
   77600    2053.6939   -99.945277    1.8582254   -98.087052   -33777.697    4.3971838    4.3971838    4.3971838   -33777.697   -69129.858    17272.544   -49475.777   -19527.661    -18332.85   -6510.6569    85.020538 
   77700    1370.8199     -99.3391    1.2403467   -98.098753    17487.945    4.3977178    4.3977178    4.3977178    17487.945    -13121.02    29214.254    36370.602    17914.174    2914.5173   -4991.3525    85.051516 
   77800    1924.2748   -99.838517    1.7411243   -98.097393   -3024.3297    4.3990517    4.3990517    4.3990517   -3024.3297   -43109.289    75479.771   -41443.471    -11611.27   -7602.4639    -3292.054    85.128933 
   77900     1482.447   -99.438841    1.3413492   -98.097492    8691.2657    4.4011117    4.4011117    4.4011117    8691.2657    4054.4924    3255.4417    18763.863    7621.8854    3384.5039   -1930.1028    85.248584 
   78000    1852.6272   -99.767934    1.6762961   -98.091638   -20845.698     4.405466     4.405466     4.405466   -20845.698   -34955.744    23619.872   -51201.223   -11203.776   -18138.307    4751.4498    85.501861 
   78100    2171.0751   -100.04145    1.9644343   -98.077015   -8840.6226    4.3984663    4.3984663    4.3984663   -8840.6226   -21526.128    8291.2724   -13287.012   -3668.6845   -8789.1945   -1164.0494    85.094953 
   78200    1229.3835   -99.200932     1.112372    -98.08856    25681.361    4.3935887    4.3935887    4.3935887    25681.361   -5406.4529    82842.937   -392.39935   -8411.5882   -16612.642      354.229    84.812171 
   78300    1632.3446   -99.579363    1.4769797   -98.102383    7717.8313    4.3955525    4.3955525    4.3955525    7717.8313    30460.136   -22069.926    14763.284   -27713.187   -6275.3479    24710.652    84.925952 
   78400    1754.9146   -99.681699    1.5878836   -98.093816   -9765.5317    4.4046426    4.4046426    4.4046426   -9765.5317    -38338.39    85842.219   -76800.424    16043.497   -40135.099   -6305.7087    85.453926 
   78500    1759.8494    -99.68389    1.5923487   -98.091541   -10976.941    4.3964046    4.3964046    4.3964046   -10976.941   -40095.168     13320.49   -6156.1453   -9670.8425    16247.923    15800.275    84.975348 
   78600       1823.1   -99.731049    1.6495792    -98.08147    2376.5036    4.3895413    4.3895413    4.3895413    2376.5036   -6950.9253    69771.558   -55691.122   -7833.8797   -42579.027    -715.3218    84.578003 
   78700    1499.0725   -99.441314    1.3563923   -98.084922    840.89183    4.3969817    4.3969817    4.3969817    840.89183   -49649.441    54057.036   -1884.9195   -16363.144    39323.161    -8959.214    85.008817 
   78800    2277.7371   -100.14412    2.0609444    -98.08318   -16310.279    4.3920022    4.3920022    4.3920022   -16310.279   -1355.1469   -35934.975   -11640.714   -15960.629   -23929.701    11967.819    84.720332 
   78900    1437.1388   -99.405988    1.3003534   -98.105635    11194.761    4.4005514    4.4005514    4.4005514    11194.761    -23177.56    99785.727   -43023.884     9681.636    39806.668   -2395.2996    85.216027 
   79000    1735.7459   -99.665115    1.5705394   -98.094575   -15338.791    4.4045284    4.4045284    4.4045284   -15338.791   -8616.7867   -43369.824    5970.2371   -26693.331    4136.0862   -2145.2746    85.447282 
   79100    2137.0706   -100.00931    1.9336664   -98.075647    19676.719    4.3862296    4.3862296    4.3862296    19676.719    68005.103     17986.99   -26961.937    1066.0476    28090.466    1633.8498    84.386717 
   79200    1054.1088   -99.070412   0.95377982   -98.116633   -15980.926    4.3935045    4.3935045    4.3935045   -15980.926   -33511.956   -37307.254    22876.433   -28698.759   -17048.309    11379.558    84.807299 
   79300    2417.0447   -100.30485    2.1869929   -98.117861   -1592.8546    4.3920208    4.3920208    4.3920208   -1592.8546    44482.407   -32405.745   -16855.226   -6102.6026    7735.5367   -5540.7338    84.721408 
   79400    1645.4843   -99.621988    1.4888688   -98.133119   -11330.948    4.3900156    4.3900156    4.3900156   -11330.948    31685.524   -70294.441    4616.0709     3113.777    1776.6949    11462.862    84.605422 
   79500    1189.0367   -99.219056    1.0758654   -98.143191   -1031.7467    4.3900946    4.3900946    4.3900946   -1031.7467    58138.043   -59682.758   -1550.5247    4656.6837   -22005.252    5913.9776    84.609986 
   79600    2583.2006   -100.45264    2.3373342   -98.115303    13558.641    4.3819261    4.3819261    4.3819261    13558.641     63286.99   -865.63124   -21745.435   -7073.3526    9349.1959    2029.7349    84.138575 
   79700    1278.0181   -99.290045    1.1563777   -98.133667    10699.253    4.3805116    4.3805116    4.3805116    10699.253    30280.199   -39070.975    40888.534    4430.8365   -19539.334    -184.6969    84.057119 
   79800    2153.9709   -100.06669    1.9489581   -98.117736   -10887.873    4.3888277    4.3888277    4.3888277   -10887.873    27893.881   -20420.529   -40136.972    13338.069    17164.233   -9284.9228    84.536762 
   79900    1615.3382   -99.583787    1.4615919   -98.122195   -5190.6586    4.3933402    4.3933402    4.3933402   -5190.6586    31726.823   -35574.559    -11724.24   -11007.986    16378.295    14223.918    84.797782 
   80000    1986.2004   -99.916701    1.7971559   -98.119545   -25742.681    4.3967261    4.3967261    4.3967261   -25742.681    5560.1697   -40882.156   -41906.057    21733.109   -4486.0367   -28495.734    84.993992 
   80100    1497.4331   -99.482341    1.3549089   -98.127432    4299.8972    4.3841596    4.3841596    4.3841596    4299.8972    53413.507   -24197.725    -16316.09   -3864.9277    13290.324   -16085.613    84.267301 
   80200    2044.5962   -99.968541    1.8499936   -98.118547    285.83228    4.3815957    4.3815957    4.3815957    285.83228   -8414.4273   -32097.409    41369.333   -3577.0473     2634.056   -1570.3414    84.119545 
   80300     1687.954     -99.6496    1.5272963   -98.122303   -1773.5623    4.3942005    4.3942005    4.3942005   -1773.5623    42012.397   -46008.255   -1324.8294    468.95622   -3322.1996   -35662.955    84.847607 
   80400    2110.6708    -100.0168    1.9097793   -98.107021    1654.6715    4.3960689    4.3960689    4.3960689    1654.6715   -9566.7895   -33650.801    48181.605   -5203.0924    2100.9579    9511.5324    84.955884 
   80500    1101.3347   -99.113667   0.99651074   -98.117156    26356.774    4.3923928    4.3923928    4.3923928    26356.774    37714.973   -9717.3347    51072.683    8462.2634    1566.5551   -34660.694    84.742936 
   80600    2517.0365    -100.3842    2.2774675   -98.106734   -2288.9986    4.3945169    4.3945169    4.3945169   -2288.9986     5277.658   -40832.012    28687.358   -15572.872    573.64647    18845.229    84.865938 
   80700    1452.4416   -99.440048    1.3141997   -98.125848   -12192.692    4.3892996    4.3892996    4.3892996   -12192.692    49262.119   -84419.835   -1420.3596    11061.586    12018.244   -39023.594    84.564033 
   80800    1908.1291   -99.838483    1.7265153   -98.111968   -13084.785    4.3903114    4.3903114    4.3903114   -13084.785   -16278.953   -27204.573    4229.1725   -8024.4179    11294.356    37021.206    84.622524 
   80900    2027.8979   -99.943727    1.8348847   -98.108843   -14966.778    4.3939826    4.3939826    4.3939826   -14966.778    9604.0047   -54106.822   -397.51839    25587.362   -2094.6062   -44078.593    84.834985 
   81000    1390.4311   -99.378346    1.2580913   -98.120255    3418.1141    4.3933025    4.3933025    4.3933025    3418.1141    15485.569   -46290.235    41059.008   -7874.1498   -1014.1966    58971.913    84.795602 
   81100    2313.9224   -100.19212    2.0936856   -98.098432    17395.914     4.391578     4.391578     4.391578    17395.914   -41407.957   -42655.212    136250.91    16704.069   -2511.9048   -27116.395    84.695783 
   81200    1541.0559   -99.503451    1.3943798   -98.109071   -3818.5696    4.3919328    4.3919328    4.3919328   -3818.5696      22356.9   -69379.607    35566.998    -2836.178    3209.7461    50541.094    84.716315 
   81300    2185.0579   -100.06906    1.9770863   -98.091978    29330.457    4.3885398    4.3885398    4.3885398    29330.457   -21247.419    20616.279    88622.511    16017.831   -5418.2712   -11044.023    84.520124 
   81400    1650.2093   -99.606832    1.4931441   -98.113688   -4214.1064    4.3916058    4.3916058    4.3916058   -4214.1064   -685.97928   -80917.684    68961.345   -4697.9625   -72.208234     55390.85    84.697394 
   81500    1868.3823   -99.804804    1.6905516   -98.114252    27708.185    4.3855357    4.3855357    4.3855357    27708.185   -17246.119   -10378.742    110749.42    7382.9545    1868.5698   -15350.728    84.346672 
   81600    1760.5278   -99.708585    1.5929625   -98.115622   -10374.557    4.3831387    4.3831387    4.3831387   -10374.557    25608.594   -28218.096    -28514.17    78.032357   -9891.7022    67194.998    84.208446 
   81700    2054.3322   -99.955437    1.8588029   -98.096634   -10357.101    4.3840233    4.3840233    4.3840233   -10357.101    10990.892   -59058.836    16996.642    544.38295    12410.456   -47393.987    84.259437 
   81800    1825.8254   -99.751721    1.6520452   -98.099676    2326.5395    4.3831357    4.3831357    4.3831357    2326.5395    12836.919   -23079.606    17222.306    9075.1764   -10105.068    56400.912    84.208269 
   81900    1827.3948   -99.764464    1.6534652   -98.110998   -31864.318    4.3925275    4.3925275    4.3925275   -31864.318    29921.488   -86338.604   -39175.836   -5312.6625   -10739.309   -51339.502    84.750736 
   82000    2008.8638   -99.905779    1.8176622   -98.088117    4885.1465    4.3877628    4.3877628    4.3877628    4885.1465    4453.2851    -37627.11    47829.264    19064.782    11531.475    18885.422    84.475237 
   82100    1330.9506   -99.298954    1.2042721   -98.094682    13057.419    4.3816392    4.3816392    4.3816392    13057.419    49948.252   -30163.039    19387.043   -4952.1375    -14422.35   -32979.983    84.122048 
   82200    2361.5732    -100.2247    2.1368011   -98.087898     10265.35    4.3887781    4.3887781    4.3887781     10265.35    16070.695   -15883.764    30609.118    4119.6283    21414.184    1678.2921    84.533893 
   82300     1220.804   -99.215423    1.1046091   -98.110814    4040.5243    4.3908324    4.3908324    4.3908324    4040.5243    41277.501   -59318.369    30162.441   -11291.172   -15612.708   -28174.566    84.652652 
   82400    1969.9768    -99.88035    1.7824764   -98.097873   -4479.5667    4.3967175    4.3967175    4.3967175   -4479.5667   -27784.087   -5431.5924    19776.979   -2327.9349    46525.248   -1910.5384    84.993493 
   82500    1514.5079   -99.468835    1.3703586   -98.098476    1963.7937    4.3869433    4.3869433    4.3869433    1963.7937    63682.577   -61223.234    3432.0379   -4878.9547   -440.02539   -44075.784    84.427916 
   82600    1727.9127   -99.649352    1.5634518     -98.0859    16232.305    4.3800972    4.3800972    4.3800972    16232.305    43464.476   -7566.3607    12798.798   -10446.128     634.3196    8846.8979    84.033269 
   82700    1898.7108   -99.807872    1.7179934   -98.089878   -12731.208    4.3943391    4.3943391    4.3943391   -12731.208    44349.498    -54290.41   -28252.712    4880.8963    9088.8448   -50479.099    84.855639 
   82800    1924.2469   -99.821838     1.741099   -98.080739   -25622.281    4.3978843    4.3978843    4.3978843   -25622.281    16789.431   -59305.892   -34350.382    2466.1964    5963.8587    27602.861    85.061178 
   82900      1940.38   -99.824404    1.7556966   -98.068707    18133.703    4.3896385    4.3896385    4.3896385    18133.703   -18922.869    29163.589    44160.388    6764.8809    6962.0024   -44703.709    84.583622 
   83000    1817.4334   -99.733727    1.6444519   -98.089275   -16514.083    4.3935801    4.3935801    4.3935801   -16514.083    19445.337   -54978.553   -14009.033    2214.0847   -6512.7574     33750.22    84.811675 
   83100    2028.0102   -99.938076    1.8349862    -98.10309   -5007.2168    4.3973915    4.3973915    4.3973915   -5007.2168   -20675.159    3753.7063    1899.8028   -1236.1742    4983.5408   -13143.291    85.032587 
   83200    1669.9138   -99.620504    1.5109731   -98.109531    15255.214    4.3856869    4.3856869    4.3856869    15255.214   -1345.9898   -31081.937     78193.57   -4356.6309     10392.82   -10841.142    84.355396 
   83300    1589.3725   -99.564963    1.4380977   -98.126866    2925.5326    4.3846152    4.3846152    4.3846152    2925.5326     4387.923   -23055.312    27443.987    6661.4607   -8787.3676    23993.217    84.293571 
   83400    2294.2841   -100.19446    2.0759164   -98.118546    26700.464    4.3871995    4.3871995    4.3871995    26700.464    39464.254   -25773.706    66410.843    1887.4688    9324.6161   -26470.559    84.442706 
   83500    906.35379   -98.965366   0.82008795   -98.145278   -20668.775    4.4035396    4.4035396    4.4035396   -20668.775    11737.157   -68742.921   -5000.5606   -6595.5094   -11254.056    56641.634    85.389745 
   83600    2876.6917   -100.69064    2.6028911   -98.087753   -6902.2835    4.4012535    4.4012535    4.4012535   -6902.2835   -35822.851   -2939.0279    18055.029    6201.7898   -17054.256   -13333.417    85.256822 
   83700     712.4199   -98.741656   0.64461249   -98.097044    6768.0348    4.3980727    4.3980727    4.3980727    6768.0348    33018.468   -35914.581    23200.217   -2363.9647   -7037.6556    38126.397    85.072113 
   83800    2448.7438   -100.29576    2.2156749   -98.080086   -2815.5806    4.4025556    4.4025556    4.4025556   -2815.5806   -19394.323   -18135.447    29083.028    9424.3097   -22256.253   -13336.589    85.332518 
   83900    2028.6226    -99.95062    1.8355404    -98.11508   -21516.362    4.3882063    4.3882063    4.3882063   -21516.362   -28944.772   -46825.532    11221.219   -1378.3462    1123.0435    24906.591    84.500858 
   84000     1544.674   -99.519535    1.3976535   -98.121881    28918.367    4.3765833    4.3765833    4.3765833    28918.367   -25544.638    16758.389    95541.351   -5941.7992   -13772.619   -24665.284    83.831184 
   84100    1984.5338   -99.930409    1.7956479   -98.134761   -8192.8803    4.3981019    4.3981019    4.3981019   -8192.8803   -36836.586   -33569.991    45827.937   -1212.6166     7628.555   -10473.981    85.073804 
   84200    2004.5468    -99.94246    1.8137561   -98.128704   -7122.7524    4.3965812    4.3965812    4.3965812   -7122.7524   -3844.8605   -13650.896   -3872.5003    2137.2692   -1486.0748   -12947.434    84.985592 
   84300     1277.823   -99.304151    1.1562011   -98.147949   -14558.519    4.3893089    4.3893089    4.3893089   -14558.519   -15788.095   -4608.3927    -23279.07    -10432.86    5956.7881   -43194.631     84.56457 
   84400     1920.817   -99.868795    1.7379956   -98.130799    30528.736     4.376785     4.376785     4.376785    30528.736    10129.026   -21354.074    102811.26    2929.2261    5991.7486    7733.8352    83.842776 
   84500     1500.794   -99.493589      1.35795   -98.135639    7283.4077    4.3780963    4.3780963    4.3780963    7283.4077    32270.379   -29965.385    19545.229   -4116.1795   -1790.6288   -49747.791    83.918155 
   84600    1884.3782   -99.825397     1.705025   -98.120372   -18503.257    4.4044589    4.4044589    4.4044589   -18503.257    12350.783   -51308.157   -16552.398    10436.804    3816.1539    36108.346    85.443238 
   84700    2069.4594   -99.950016    1.8724904   -98.077526   -27009.327    4.4068772    4.4068772    4.4068772   -27009.327   -31186.182   -59310.558    9468.7585   -5603.7177    7799.0233   -63557.916    85.584054 
   84800    1838.2329   -99.721892    1.6632718   -98.058621   -10965.177     4.389257     4.389257     4.389257   -10965.177     10600.34   -30519.373   -12976.496    1368.9301    2735.3363    66264.979    84.561568 
   84900    2422.1019   -100.25248    2.1915687   -98.060907   -1156.8073    4.3881603    4.3881603    4.3881603   -1156.8073    15718.461   -42559.782    23370.899   -11988.073    29643.709    -58958.11    84.498198 
   85000     1183.622   -99.154725     1.070966   -98.083759   -5089.8824    4.4050652    4.4050652    4.4050652   -5089.8824    33678.709   -29861.869   -19086.487    10541.098   -395.92271     66057.98    85.478528 
   85100    2329.2177   -100.15703    2.1075251   -98.049501    20458.095    4.4079545    4.4079545    4.4079545    20458.095    4511.8165     30920.64    25941.827    5271.5308        17566   -39004.758    85.646835 
   85200    1107.4486   -99.061913    1.0020428    -98.05987    23114.581    4.3978343    4.3978343    4.3978343    23114.581    33145.921   -2604.4968    38802.318    2394.8504   -1673.3827    59093.058     85.05828 
   85300    2191.1127   -100.03313    1.9825648   -98.050569    6820.7458    4.3931557    4.3931557    4.3931557    6820.7458   -24260.425    39208.019    5514.6438    13368.416    6891.3444   -24269.049    84.787099 
   85400      1586.23   -99.504168    1.4352542   -98.068914    16905.855    4.3935949    4.3935949    4.3935949    16905.855    34039.274   -19270.325    35948.615        10402     9231.944     43510.93    84.812535 
   85500    1645.7768   -99.558687    1.4891335   -98.069553   -10470.095    4.4112069    4.4112069    4.4112069   -10470.095   -63189.054    35462.168   -3683.3986    12421.444    3581.4802   -20969.108    85.836558 
   85600    1669.5295   -99.579395    1.5106254    -98.06877    4937.4658    4.4055806    4.4055806    4.4055806    4937.4658      31721.6   -29327.874    12418.671     6191.875    4932.3577    38789.087    85.508533 
   85700    1903.0255   -99.778704    1.7218975   -98.056806    13185.022    4.4038335    4.4038335    4.4038335    13185.022   -12185.314   -5450.6356    57191.014   -3836.0011    14656.351   -17052.078    85.406846 
   85800     1193.575   -99.161124    1.0799717   -98.081152   -33105.301    4.4065116    4.4065116    4.4065116   -33105.301   -6340.6113   -58831.982   -34143.311    -3459.165    505.04039    69887.469    85.562751 
   85900     3065.289   -100.82474    2.7735379   -98.051206   -16346.901    4.4053813    4.4053813    4.4053813   -16346.901   -27759.259   -19359.804   -1921.6407   -11522.164    9884.9925   -18011.386    85.496926 
   86000    807.68118   -98.823634    0.7308069   -98.092827   -51778.974    4.4118223    4.4118223    4.4118223   -51778.974    8183.0538   -83465.536    -80054.44   -2910.6481    8926.9212    80074.531    85.872486 
   86100    2618.4345   -100.42511    2.3692146   -98.055898    19590.912    4.3952861    4.3952861    4.3952861    19590.912    10561.812   -5143.7537    53354.679    -18098.35    1370.8443    -25797.08    84.910507 
   86200    1212.9706     -99.1865    1.0975213   -98.088979   -4599.0523     4.396623     4.396623     4.396623   -4599.0523    41106.492   -15368.518   -39535.131    12619.473   -4805.0472    63830.119    84.988012 
   86300    1944.7337   -99.833664    1.7596359   -98.074029    21596.181    4.4071067    4.4071067    4.4071067    21596.181   -5297.5022   -3186.6025    73272.646   -19808.706   -4295.9037   -31198.127    85.597426 
   86400    1414.3237    -99.36871    1.2797098      -98.089   -27911.351    4.4121945    4.4121945    4.4121945   -27911.351   -15804.738    -52338.98   -15590.335    12969.199    5109.6956    58316.325     85.89422 
   86500    1864.5329   -99.751997    1.6870685   -98.064928    42369.663    4.3897051    4.3897051    4.3897051    42369.663   -19214.742    39369.539    106954.19    -14153.88   -12936.224   -30882.896     84.58747 
   86600     1607.203   -99.540322    1.4542311   -98.086091    914.24283    4.3859584    4.3859584    4.3859584    914.24283     48592.08   -19022.281    -26827.07    1535.7754    11303.579    66907.565    84.371063 
   86700    2198.2738   -100.07275    1.9890443   -98.083705   -16303.363    4.3923077    4.3923077    4.3923077   -16303.363   -62312.469   -14077.583    27479.964     -26693.3    3092.0721   -26926.708     84.73801 
   86800    1596.5018   -99.542888    1.4445484    -98.09834   -2015.3329    4.3959261    4.3959261    4.3959261   -2015.3329    31251.331   -4443.9134   -32853.417    8076.4228   -11605.549    63132.757    84.947608 
   86900    2319.8246   -100.18422    2.0990261    -98.08519       -23972    4.4089978    4.4089978    4.4089978       -23972   -25357.876   -37365.446   -9192.6779   -25703.418    3236.2853   -12721.611     85.70766 
   87000    1836.0755   -99.727219    1.6613197   -98.065899   -40761.851    4.4097605    4.4097605    4.4097605   -40761.851   -40763.296     -36759.4   -44762.856    4087.9446   -17127.059    40524.383    85.752148 
   87100    1979.6823    -99.84158    1.7912581   -98.050322   -3830.8088     4.397964     4.397964     4.397964   -3830.8088    9083.4455   -33842.823    13266.951   -23188.468    15837.623     316.7693    85.065803 
   87200    1987.5452   -99.862436    1.7983727   -98.064063   -7822.6741    4.3918498    4.3918498    4.3918498   -7822.6741   -9650.4198    -14254.67    437.06782    11416.253   -21042.425     23204.11     84.71151 
   87300    1539.1364   -99.478432     1.392643   -98.085789    14569.259    4.3994307    4.3994307    4.3994307    14569.259    24953.078    -33567.63    52322.329   -13786.589     5648.328    3541.3316    85.150938 
   87400     1742.414   -99.664204    1.5765728   -98.087631   -17854.527    4.4022991    4.4022991    4.4022991   -17854.527   -16565.469   -8371.4326    -28626.68   -12467.583   -5338.3961   -5666.9929    85.317603 
   87500    2599.0192   -100.43142    2.3516472   -98.079778   -1190.6835    4.3929526    4.3929526    4.3929526   -1190.6835   -14440.444   -45629.432    56497.825   -5697.3731   -12080.493    7139.4274    84.775343 
   87600    1244.8107   -99.240728    1.1263309   -98.114397   -27541.208    4.3968229    4.3968229    4.3968229   -27541.208   -27671.089   -51793.952   -3158.5841   -24207.707    18059.939   -30586.385     84.99961 
   87700     2629.687   -100.46429    2.3793961   -98.084891    15709.848    4.4013312    4.4013312    4.4013312    15709.848    70074.826   -12220.041    -10725.24    -2429.841   -6373.9866    7873.4162    85.261338 
   87800    1170.8871    -99.16532    1.0594433   -98.105877   -58276.314     4.415746     4.415746     4.415746   -58276.314   -60376.673   -105327.47    -9124.795   -2230.3086    9191.9581   -37408.965    86.101805 
   87900    2516.9446   -100.33996    2.2773844   -98.062574    8111.5829    4.3990421    4.3990421    4.3990421    8111.5829    68552.897   -42932.963   -1285.1851   -13924.715   -22805.089    22971.635    85.128375 
   88000    1629.3646   -99.549474    1.4742833   -98.075191   -8164.9167    4.3824862    4.3824862    4.3824862   -8164.9167    17844.065   -47138.424    4799.6087   -7101.7396    23554.695   -30329.309    84.170845 
   88100    1756.8673   -99.683916    1.5896504   -98.094265    14461.341    4.3886326    4.3886326    4.3886326    14461.341    31976.705   -18464.243     29871.56   -15986.515   -7992.1976    41743.779    84.525486 
   88200    2357.3109   -100.23017    2.1329444   -98.097227   -23131.068    4.4122427    4.4122427    4.4122427   -23131.068   -2324.5722   -44700.598   -22368.033   -10304.968    29012.667   -12903.384    85.897036 
   88300    923.61941   -98.951293   0.83571025   -98.115583   -31287.677    4.4124561    4.4124561    4.4124561   -31287.677   -32091.485   -64835.611    3064.0659   -15852.963    9076.6867    57462.621    85.909502 
   88400    3006.2508   -100.80407    2.7201189   -98.083949    5675.5742    4.3899217    4.3899217    4.3899217    5675.5742    3509.6582   -1529.8632    15046.927    8000.5881   -8235.3585   -3261.2062     84.59999 
   88500    1178.5296   -99.188825    1.0663583   -98.122466    2024.8034    4.3812535    4.3812535    4.3812535    2024.8034    9981.3558   -50828.238    46921.292   -12946.927    12033.514    72373.732    84.099835 
   88600    2135.0592   -100.05065    1.9318464     -98.1188   -18811.827    4.3958993    4.3958993    4.3958993   -18811.827   -49949.421   -27833.002    21346.943    18865.999    4475.9826   -19140.767    84.946052 
   88700    1604.3914   -99.550513    1.4516871   -98.098826   -7007.6406    4.4093435    4.4093435    4.4093435   -7007.6406   -1327.1255   -37350.569    17654.773   -9255.5939   -7384.8321    50112.091    85.727825 
   88800    2050.0887    -99.92133    1.8549634   -98.066367   -47179.279    4.4208385    4.4208385    4.4208385   -47179.279   -33765.675   -73649.369   -34122.793    11055.485    25738.171   -18399.462    86.400041 
   88900    2231.9222   -100.06946    2.0194901   -98.049969   -20352.098    4.4072299    4.4072299    4.4072299   -20352.098    28705.164   -53064.748   -36696.711    1027.7377   -15039.673    29009.553    85.604603 
   89000    1170.4211   -99.124208    1.0590216   -98.065186    19762.473    4.3870935    4.3870935    4.3870935    19762.473    6337.8904    16605.255    36344.274   -9692.0868    16530.511   -13154.978    84.436586 
   89100    2312.6001   -100.17722    2.0924892   -98.084733    21831.219    4.3947969    4.3947969    4.3947969    21831.219    38659.853   -8475.8676     35309.67    14117.525    3451.0955    9768.3984    84.882161 
   89200    1024.1542   -99.040929   0.92667623   -98.114253   -14323.214    4.4124791    4.4124791    4.4124791   -14323.214    77626.753   -58938.181   -61658.215   -9805.4746    18718.651   -13499.877    85.910846 
   89300    1810.2861   -99.723549    1.6379849   -98.085564    15707.727    4.4035584    4.4035584    4.4035584    15707.727    95782.055   -49714.162    1055.2881   -8332.9726    20579.301    4193.5592    85.390839 
   89400    1765.9892   -99.691834    1.5979042    -98.09393   -11684.998    4.4055285    4.4055285    4.4055285   -11684.998   -1772.3381   -50614.978    17332.323   -3767.9767   -3744.8039   -27678.657    85.505501 
   89500    2115.7021   -99.988695    1.9143317   -98.074363   -491.44918    4.4176404    4.4176404    4.4176404   -491.44918    48635.918   -55237.185    5126.9193    3328.4299    17570.822    9044.3995    86.212669 
   89600     2196.665   -100.05767    1.9875887   -98.070085   -22137.538    4.4079159    4.4079159    4.4079159   -22137.538    19916.686   -39051.976   -47277.324   -1140.8798   -20959.726   -17758.934    85.644581 
   89700    1704.9449    -99.61597      1.54267     -98.0733    29894.598    4.3851453    4.3851453    4.3851453    29894.598    45961.508   -26808.546    70530.833    3741.8186    2191.0343     16125.34    84.324151 
   89800    1822.6683   -99.746946    1.6491885   -98.097757    8059.5167    4.4021165    4.4021165    4.4021165    8059.5167    19243.717    9758.0019   -4823.1692    6798.7798   -16652.981   -7895.7063    85.306988 
   89900    1704.9476   -99.633957    1.5426724   -98.091284   -54891.228     4.417273     4.417273     4.417273   -54891.228   -65124.367   -46228.859   -53320.459   -5536.7986   -2215.6888     20120.96    86.191159 
   90000    1670.3046   -99.594784    1.5113267   -98.083457    35758.512     4.393984     4.393984     4.393984    35758.512    42167.472    1378.8483    63729.216   -13107.526   -1076.6866    30507.594    84.835067 
   90100    1912.5759   -99.828898    1.7305389   -98.098359    20942.373    4.3788585    4.3788585    4.3788585    20942.373    19447.997   -11694.792    55073.913    9620.6549   -10647.515    7694.0901    83.961992 
   90200    1841.4017   -99.785184     1.666139   -98.119045    11569.497    4.3898236    4.3898236    4.3898236    11569.497    27744.098   -32454.048    39418.442   -3782.1267    8395.6968    22874.575    84.594318 
   90300    1914.7489   -99.835856     1.732505   -98.103351    13713.915    4.4093479    4.4093479    4.4093479    13713.915    43894.477   -22056.625    19303.892   -5791.2055   -16484.464   -14295.071    85.728083 
   90400     1104.437   -99.093513   0.99931779   -98.094195    3153.3244    4.4084341    4.4084341    4.4084341    3153.3244    53972.906   -60790.524    16277.592   -11699.483   -583.23778    11558.219    85.674794 
   90500     2350.206   -100.20204    2.1265158    -98.07552    -6029.881    4.3954942    4.3954942    4.3954942    -6029.881    363.40518   -30062.129    11609.081   -6222.1656    5652.1627   -23563.064    84.922568 
   90600     1577.259   -99.523236    1.4271371   -98.096099    32964.117    4.3818014    4.3818014    4.3818014    32964.117        19702   -24499.872    103690.22    21818.628   -9919.5254   -348.41972     84.13139 
   90700     1552.549   -99.531359     1.404779    -98.12658    380.68351    4.3927161    4.3927161    4.3927161    380.68351    52336.621   -23966.337   -27228.234   -15461.213   -4099.0688   -16600.314    84.761652 
   90800    1693.9478    -99.63691    1.5327196   -98.104191     14522.33     4.402314     4.402314     4.402314     14522.33   -22673.355    1396.5158    64843.829    21405.613   -7565.3798   -2979.7168    85.318468 
   90900    1905.7032   -99.815574    1.7243203   -98.091254   -35009.999    4.4044058    4.4044058    4.4044058   -35009.999   -7542.2288   -65928.815   -31558.953   -3385.1629    -3777.271   -39109.153    85.440147 
   91000     1744.087   -99.662648    1.5780866   -98.084562    10133.887    4.3966431    4.3966431    4.3966431    10133.887   -49463.303    25334.667    54530.299    14342.986   -16046.599    20182.146    84.989181 
   91100     1947.112   -99.841826    1.7617878   -98.080038    15117.004     4.390127     4.390127     4.390127    15117.004    24765.787    4137.7576    16447.468   -19128.596   -233.23111    -24014.55    84.611862 
   91200    1318.9271   -99.310869    1.1933929   -98.117476   -37534.777    4.3908187    4.3908187    4.3908187   -37534.777   -41626.081   -7824.4043   -63153.847    23904.083   -32696.064    23960.152    84.651863 
   91300     2407.304   -100.30022    2.1781792   -98.122041    26359.648    4.3904411    4.3904411    4.3904411    26359.648   -40983.351     51101.98    68960.315   -3958.1362    21785.031   -16121.934    84.630022 
   91400    1671.4214   -99.653897    1.5123372    -98.14156   -12592.094    4.3980721    4.3980721    4.3980721   -12592.094   -11524.043   -8696.5633   -17555.676    -3953.975   -34011.862    11002.227    85.072075 
   91500    1533.7707   -99.520153    1.3877879   -98.132365     19161.73     4.397834     4.397834     4.397834     19161.73   -18518.062    54289.705    21713.548    11267.218    29992.344   -11700.202    85.058261 
   91600    2118.9057   -100.03159    1.9172304   -98.114357   -10593.315    4.4051204    4.4051204    4.4051204   -10593.315   -67245.406    -22688.72     58154.18   -22053.406   -14756.282    12510.022    85.481739 
   91700    1308.9938   -99.299823    1.1844051   -98.115418   -4929.3529    4.3975987    4.3975987    4.3975987   -4929.3529   -34192.972    43652.863    -24247.95    7423.8564    35861.782   -3898.0739    85.044607 
   91800    1787.4419   -99.724746     1.617315   -98.107431    12383.979     4.387727     4.387727     4.387727    12383.979   -2168.6787    13922.985    25397.629   -12725.006   -15597.044    -36715.91     84.47317 
   91900    1988.0357    -99.90452    1.7988165   -98.105704   -6604.9961    4.3868686    4.3868686    4.3868686   -6604.9961   -44068.771    18463.052    5790.7307    9640.1229     38237.04    28752.513    84.423604 
   92000     1060.724   -99.090029   0.95976536   -98.130264     3507.621    4.3993165    4.3993165    4.3993165     3507.621   -28125.682    22489.642    16158.903   -22223.146   -280.54618   -40412.556    85.144311 
   92100     2605.992   -100.45688    2.3579563   -98.098921   -8568.5762    4.4073708    4.4073708    4.4073708   -8568.5762   -37904.574    4733.8004     7465.045    10922.287    3692.3607    24960.688    85.612814 
   92200    904.40514   -98.931981   0.81832478   -98.113656   -6646.4517    4.4044201    4.4044201    4.4044201   -6646.4517   -14046.742   -19996.793     14104.18   -24808.564    14081.502   -32651.737     85.44098 
   92300    2272.5609   -100.14909    2.0562609   -98.092825   -2237.1194    4.3968366    4.3968366    4.3968366   -2237.1194   -20525.897    25614.701   -11800.162    3909.9052   -39079.783    8469.8908    85.000404 
   92400    1864.1434   -99.786451    1.6867161   -98.099735    4986.9944    4.3879986    4.3879986    4.3879986    4986.9944   -23820.241   -2194.1731    40975.397   -14060.189    11990.743   -19964.447    84.488861 
   92500    1613.4731   -99.572921    1.4599043   -98.113016    17152.693     4.398539     4.398539     4.398539    17152.693    4200.1805    54358.334   -7100.4347   -673.61839   -18788.131    539.60861    85.099175 
   92600    1847.6043   -99.754814    1.6717512   -98.083062    6110.9185    4.4112054    4.4112054    4.4112054    6110.9185   -41068.199    -15888.17    75289.125   -24666.964    21825.868   -3571.8178     85.83647 
   92700    1299.1717   -99.266389    1.1755178   -98.090871   -2084.1793    4.3967134    4.3967134    4.3967134   -2084.1793   -55107.087    38043.385    10811.164    -7302.006   -41115.674   -23507.952    84.993257 
   92800    2343.2686   -100.19722    2.1202387   -98.076978   -14323.767    4.3923318    4.3923318    4.3923318   -14323.767   -40343.733   -23393.935    20766.367   -19101.802    34338.735    7486.5232    84.739409 
   92900    1164.9991   -99.157177    1.0541157   -98.103062   -16135.744    4.3993904    4.3993904    4.3993904   -16135.744    -64032.58    15086.509    538.83753   -31071.892   -43002.077   -24713.351    85.148601 
   93000    2019.4625   -99.910845    1.8272521   -98.083593    26475.126    4.3953846    4.3953846    4.3953846    26475.126    37383.704    33964.752    8076.9212   -4277.4944    21933.968    8494.7259    84.916217 
   93100    1612.5394   -99.552558    1.4590596   -98.093499   -34889.114    4.4095529    4.4095529    4.4095529   -34889.114   -11701.097   -39861.362   -53104.883   -8378.9396   -37332.054   -31715.904     85.74004 
   93200    1972.6824   -99.856055    1.7849245   -98.071131   -2997.6435    4.4008289    4.4008289    4.4008289   -2997.6435   -8383.3501    32300.256   -32909.836    7890.5571    19863.502    13485.656    85.232154 
   93300    1586.7498   -99.515282    1.4357246   -98.079557    664.93946    4.3911629    4.3911629    4.3911629    664.93946    13054.494   -5964.9544   -5094.7212   -21296.972   -40423.369   -10838.624    84.671771 
   93400    2253.9562   -100.11611    2.0394269   -98.076686    10506.641     4.388573     4.388573     4.388573    10506.641     43234.79    9811.2465   -21526.114    9042.9643   -10343.175    1605.9826    84.522041 
   93500    1681.2736   -99.632915    1.5212516   -98.111663     15170.81    4.3760024    4.3760024    4.3760024     15170.81    31032.753    15722.837   -1243.1592   -16393.831   -6988.7161    -15315.55    83.797805 
   93600    1334.3358   -99.349741    1.2073351   -98.142406    13591.937    4.3875431    4.3875431    4.3875431    13591.937    665.95767     38465.88    1643.9744    9277.1582   -14692.091    9960.8811    84.462551 
   93700    2149.1905   -100.06182    1.9446328    -98.11719   -3145.3791    4.4050645    4.4050645    4.4050645   -3145.3791    31905.941   -19802.728    -21539.35   -9969.2331   -3842.9507    -16625.86    85.478484 
   93800    1536.5604   -99.473275    1.3903121   -98.082963   -46372.794    4.4172761    4.4172761    4.4172761   -46372.794   -68477.954   -9818.8255   -60821.603    7165.5739   -42551.244    2826.0422    86.191342 
   93900    2067.1029   -99.912869    1.8703582   -98.042511    7134.4548    4.3984557    4.3984557    4.3984557    7134.4548     14996.48   -21346.611    27753.496   -4945.0833    14836.627   -11269.505     85.09434 
   94000    1356.0246   -99.294194    1.2269595   -98.067235     13131.44    4.3813294    4.3813294    4.3813294     13131.44    23657.499    46598.127   -30861.307   -10677.278   -27866.531   -23762.718    84.104206 
   94100    2363.8727   -100.21561    2.1388817   -98.076732    6648.2282    4.3823517    4.3823517    4.3823517    6648.2282     -3098.36    11096.392    11946.652    9202.7655    30385.006   -4683.2397    84.163091 
   94200    1441.6565   -99.416233    1.3044411   -98.111792    3964.7488    4.3907482    4.3907482    4.3907482    3964.7488   -30689.655      67736.3   -25152.399   -1017.3146   -48232.835   -29516.777    84.647785 
   94300    1763.5326   -99.685452    1.5956813    -98.08977    14019.674    4.4054433    4.4054433    4.4054433    14019.674   -37429.926    67399.242    12089.705    18251.197    22451.962   -3938.9425    85.500538 
   94400    1382.0821   -99.329555     1.250537   -98.079018   -1292.2294    4.4069751    4.4069751    4.4069751   -1292.2294    -61650.11    57838.214   -64.792758    -7537.129    -35534.04   -23066.653    85.589755 
   94500    2079.7724   -99.932771    1.8818217   -98.050949    32887.292    4.3867364    4.3867364    4.3867364    32887.292   -4215.9325    87471.959    15405.849   -1390.8217    2870.8987    -11839.97    84.415971 
   94600    812.91836   -98.809226   0.73554562    -98.07368    56753.735    4.3720787    4.3720787    4.3720787    56753.735   -4340.7458     108114.4    66487.551   -3595.0392   -16847.456   -31542.501    83.572601 
   94700    1957.4127   -99.845318    1.7711081    -98.07421    12403.628    4.3916983    4.3916983    4.3916983    12403.628    -58635.53     93291.09    2555.3244   -5685.3208   -22549.739   -35761.562    84.702745 
   94800    1491.8985   -99.434164    1.3499011   -98.084263    4260.6023    4.4086359    4.4086359    4.4086359    4260.6023   -63936.255    34467.983    42250.079    520.18735   -19196.741    -9225.357    85.686558 
   94900    1432.5063   -99.358732    1.2961618   -98.062571    19679.031    4.4099335    4.4099335    4.4099335    19679.031   -27998.243    40571.208    46464.128   -11826.354   -10364.681   -33074.276    85.762243 
   95000    1615.0459   -99.505191    1.4613274   -98.043863    20764.517    4.3971064    4.3971064    4.3971064    20764.517   -24856.394    27540.691    59609.255    3153.7962   -11648.922   -13772.911    85.016051 
   95100    1871.4691   -99.739085    1.6933446    -98.04574   -2127.1168    4.3919488    4.3919488    4.3919488   -2127.1168   -38594.841    16655.727    15557.764   -6155.0598    8234.4552   -8259.6373    84.717239 
   95200    1311.5993   -99.244196    1.1867626   -98.057434      35928.7    4.3774651    4.3774651    4.3774651      35928.7   -28234.804    64637.147    71383.756    11861.423   -10424.608   -9683.1573    83.881864 
   95300    1948.0716   -99.833646    1.7626561    -98.07099    17447.227    4.3896685    4.3896685    4.3896685    17447.227   -36213.355    59523.432    29031.604   -1178.9976    16097.577   -14165.981    84.585353 
   95400    1412.8842   -99.354104    1.2784073   -98.075697   -19040.388    4.4054326    4.4054326    4.4054326   -19040.388   -62842.043   -37611.489    43332.368    9763.4058   -6550.6375    -6299.839    85.499917 
   95500    2065.2852   -99.921358    1.8687135   -98.052645   -11844.901    4.3999829    4.3999829    4.3999829   -11844.901   -11131.275   -21382.157   -3021.2711   -8845.8556    14442.967   -4240.1122    85.183005 
   95600    1478.7892   -99.401382    1.3380396   -98.063343   -7896.8685    4.4008924    4.4008924    4.4008924   -7896.8685    -17024.04   -25600.892    18934.327    36002.645   -9306.0755   -9992.9919    85.235842 
   95700    1813.3408   -99.689271    1.6407488   -98.048522    7564.5863    4.3873433    4.3873433    4.3873433    7564.5863    12907.691     7861.638    1924.4302   -7984.1696     12950.94   -13412.404    84.451013 
   95800    1875.0714   -99.758321     1.696604   -98.061717    21421.374    4.3765324    4.3765324    4.3765324    21421.374   -151.22853    75229.469   -10814.119    19180.797   -2504.7329   -1868.2742    83.828259 
   95900    1789.5503   -99.690752    1.6192227   -98.071529   -36235.526    4.3917473    4.3917473    4.3917473   -36235.526    -10981.98   -61199.914   -36524.685   -26847.478    16356.221   -15689.322    84.705582 
   96000    2093.3723   -99.951616    1.8941272   -98.057488   -27863.322    4.3930575    4.3930575    4.3930575   -27863.322   -20221.306   -20819.162   -42549.499   -448.70897     7184.709     9932.772    84.781414 
   96100    1719.1408   -99.623845    1.5555147    -98.06833   -37987.808    4.3955591    4.3955591    4.3955591   -37987.808   -9663.0371   -60357.729   -43942.659   -13249.936    11962.721   -15906.297    84.926334 
   96200     2040.424   -99.890266    1.8462185   -98.044048   -2477.4632    4.3877176    4.3877176    4.3877176   -2477.4632   -23137.916    9275.7275    6429.7991   -2720.7306    12438.428    827.94185    84.472629 
   96300      1628.37   -99.530433    1.4733834   -98.057049    15946.991    4.3769112    4.3769112    4.3769112    15946.991    45355.765    7833.6848   -5348.4773   -17576.743    3868.8549   -5700.5397    83.850028 
   96400     2293.684   -100.13678    2.0753735   -98.061402    11750.228    4.3943884    4.3943884    4.3943884    11750.228   -7199.3215    953.16125    41496.844    9285.6464    35210.533    4644.8576    84.858491 
   96500    1545.5787   -99.455708    1.3984721   -98.057236   -23111.358    4.4058752    4.4058752    4.4058752   -23111.358   -19390.596    -95949.39    46005.913    11298.712    262.99712   -6587.6861    85.525688 
   96600    1945.2911   -99.809233    1.7601403   -98.049093    20271.861    4.3930994    4.3930994    4.3930994    20271.861   -39990.219    36011.818    64793.983   -1739.7987    35450.607    8603.7911    84.783841 
   96700    1335.5789   -99.279342    1.2084599   -98.070882    -19226.83    4.3812211    4.3812211    4.3812211    -19226.83     13502.99   -90203.953    19020.472    8306.3838   -7564.6405   -27915.765    84.097969 
   96800    2066.1912   -99.951061    1.8695332   -98.081528    28785.587     4.369766     4.369766     4.369766    28785.587   -17946.879    31312.474    72991.165    6241.8581    14563.116    5815.6991    83.440048 
   96900    1406.1645   -99.386344    1.2723271   -98.114017     4473.652    4.3799596    4.3799596    4.3799596     4473.652   -34381.157   -2210.5031    50012.617    18985.236   -6812.1856   -6638.3335    84.025346 
   97000    1869.5558   -99.792866    1.6916134   -98.101253   -7514.2506    4.4003529    4.4003529    4.4003529   -7514.2506   -20504.646   -4286.0178    2247.9115   -697.18216    1601.9374   -10875.165      85.2045 
   97100    1630.4479    -99.56378    1.4752636   -98.088517    2892.0579    4.4002769    4.4002769    4.4002769    2892.0579   -70203.834    39969.779    38910.228     33262.36   -16182.022     15466.08    85.200084 
   97200    1787.7315   -99.685581     1.617577   -98.068004    1422.1047    4.3862494    4.3862494    4.3862494    1422.1047    3697.5753   -23550.427    24119.166   -3449.2708   -1283.6657   -23709.476     84.38786 
   97300    1489.4885   -99.441185    1.3477205   -98.093464    -8071.566    4.3886287    4.3886287    4.3886287    -8071.566   -50023.612   -29219.882    55028.795    43752.376    1900.4604    8101.5295    84.525262 
   97400    1916.2777   -99.819005    1.7338883   -98.085117    10768.179    4.3815785    4.3815785    4.3815785    10768.179    26641.861   -12121.592    17784.269   -16390.786   -7146.4826    -37100.88    84.118555 
   97500    1533.4702   -99.488736    1.3875161    -98.10122   -14530.107    4.3924142    4.3924142    4.3924142   -14530.107   -52284.964   -40642.246     49336.89    64628.749    8481.5952    9428.0122    84.744176 
   97600    2078.5344   -99.952269    1.8807016   -98.071567   -3648.2478    4.4012129    4.4012129    4.4012129   -3648.2478    16988.727   -570.45324   -27363.017    -24449.08   -13549.067   -29923.509    85.254467 
   97700    1694.7217   -99.596119    1.5334198   -98.062699   -228.79053     4.395335     4.395335     4.395335   -228.79053    11585.227   -20831.083    8559.4844    57121.763    20301.549    4950.4805    84.913347 
   97800    1970.2888   -99.847962    1.7827587   -98.065203   -2177.9451    4.3927316    4.3927316    4.3927316   -2177.9451    53585.202   -11174.157    -48944.88   -26278.159    6095.3881   -36764.894    84.762547 
   97900    1574.3242   -99.499734    1.4244816   -98.075253     14177.85    4.3909807    4.3909807    4.3909807     14177.85   -14586.689    21140.939    35979.301     37588.73    6588.5745    819.73529     84.66123 
   98000    1504.0454   -99.450432    1.3608919    -98.08954    16252.853    4.3948649    4.3948649    4.3948649    16252.853    75679.165   -11073.542   -15847.063   -16010.134    12847.217   -17683.608    84.886099 
   98100     2343.402    -100.1916    2.1203594   -98.071239   -32395.751    4.4012716    4.4012716    4.4012716   -32395.751     -37549.4   -60759.455    1121.6028    22410.642    7909.2987    10539.867    85.257879 
   98200    1216.2992   -99.177019    1.1005331   -98.076486     11317.95    4.3901859    4.3901859    4.3901859     11317.95    45070.104    20028.905   -31145.159   -4373.5214     34639.99   -24542.048    84.615269 
   98300    2378.2422   -100.22955    2.1518835   -98.077665   -14942.242       4.3908       4.3908       4.3908   -14942.242   -26488.671   -22182.278    3844.2243    9254.6697   -4510.1054    10013.411    84.650781 
   98400    1403.7292   -99.380154    1.2701237    -98.11003    7804.9238    4.3962614    4.3962614    4.3962614    7804.9238    52209.095    8033.6234   -36827.947   -9688.2614    32971.537    11873.146    84.967046 
   98500    1990.3185   -99.897921     1.800882   -98.097039   -33088.464    4.4151612    4.4151612    4.4151612   -33088.464   -63594.883    -12124.69   -23545.818    6290.1981   -10835.679   -10798.146    86.067603 
   98600    1735.3397   -99.659552    1.5701718    -98.08938   -38294.081    4.4036404    4.4036404    4.4036404   -38294.081   -35752.657   -41100.657    -38028.93    4210.4184    10996.258    19501.801     85.39561 
   98700    2007.9082   -99.890455    1.8167975   -98.073658    23321.921    4.3921815    4.3921815    4.3921815    23321.921    21617.062    27448.848    20899.852   -12444.004   -4106.2823   -24505.268    84.730711 
   98800    1778.3208   -99.696097    1.6090621   -98.087035   -21439.275     4.411146     4.411146     4.411146   -21439.275    29933.856   -56830.075   -37421.604    2125.8848    16432.548    8871.9598    85.833003 
   98900    1621.8848   -99.537533    1.4675155   -98.070017    12763.837    4.4380286    4.4380286    4.4380286    12763.837     35629.45   -21938.835    24600.895    6514.4096   -30357.187   -3095.8709    87.411844 
   99000    1232.7396   -99.107626    1.1154087   -97.992218    8590.7286    4.4664617    4.4664617    4.4664617    8590.7286    21365.362    828.50404    3578.3201    19665.709   -13908.339    31797.955    89.102698 
   99100    2005.0449   -99.717292    1.8142068   -97.903085   -55206.759     4.456609     4.456609     4.456609   -55206.759   -74916.984   -69549.882   -21153.409    12593.467    13751.281   -32784.711    88.514332 
   99200    2267.4141   -99.921265    2.0516039   -97.869661    17676.872    4.4249721    4.4249721    4.4249721    17676.872    5861.5823    22020.787    25148.246   -9750.3832    1345.9963    528.68871    86.642629 
   99300    974.46875    -98.82674    0.8817198    -97.94502    1165.1658    4.4051762    4.4051762    4.4051762    1165.1658    20206.926   -54089.025    37377.597    60772.827    -17594.45   -20448.139    85.484989 
   99400    2365.6357    -100.1181    2.1404769   -97.977625    35773.006    4.4077349    4.4077349    4.4077349    35773.006    67512.132   -16647.295     56454.18   -9763.8158   -34740.932    26960.488    85.634031 
   99500     845.6297   -98.817924   0.76514352    -98.05278   -22269.094    4.4354737    4.4354737    4.4354737   -22269.094   -3727.6126   -118146.52    55066.849    46662.163   -19278.884   -15902.518     87.26097 
   99600     2700.284   -100.42633    2.4432737   -97.983059   -19898.976    4.4384983    4.4384983    4.4384983   -19898.976   -63921.805   -2272.7805    6497.6572    1564.5319    12364.221    24745.687    87.439605 
   99700    1452.1846   -99.289179    1.3139671   -97.975212    -11616.17    4.4352224    4.4352224    4.4352224    -11616.17   -40406.711    -57064.96     62623.16    29421.931    10402.565   -12411.469    87.246136 
   99800    2158.5786   -99.900365    1.9531273   -97.947238    1201.1148    4.4313812    4.4313812    4.4313812    1201.1148    15122.074    4704.3825   -16223.112   -12869.606    2141.9754    7545.7412    87.019651 
   99900    1166.5338    -99.02404    1.0555043   -97.968536    30054.011    4.4172081    4.4172081    4.4172081    30054.011    48516.235    16573.506    25072.293   -2186.7741   -20466.931   -29770.994    86.187358 
  100000    1786.1963    -99.58816    1.6161879   -97.971972   -3727.7633    4.4210063    4.4210063    4.4210063   -3727.7633    20214.776   -5443.0599   -25955.005   -19541.118   -16608.181    7484.1993    86.409881 
Loop time of 21.7894 on 1 procs for 100000 steps with 8 atoms

Pair  time (%) = 6.62419 (30.401)
Kspce time (%) = 5.31612 (24.3977)
Neigh time (%) = 0.229413 (1.05287)
Comm  time (%) = 0.902783 (4.14322)
Outpt time (%) = 0.0238757 (0.109575)
Other time (%) = 8.69303 (39.8957)

Nlocal:    8 ave 8 max 8 min
Histogram: 1 0 0 0 0 0 0 0 0 0
Nghost:    1576 ave 1576 max 1576 min
Histogram: 1 0 0 0 0 0 0 0 0 0
Neighs:    2036 ave 2036 max 2036 min
Histogram: 1 0 0 0 0 0 0 0 0 0

Total # of neighbors = 2036
Ave neighs/atom = 254.5
Neighbor list builds = 3061
Dangerous builds = 0
unfix 20
unfix 21
print "seeds:447043"
seeds:447043
