LAMMPS (16 Mar 2018)
include init.mod
# ---- init.mod file
variable up equal 1.0e-6
units metal
dimension 3
boundary p p p
atom_style charge
atom_modify map array
variable cfac equal 1.0e-4
variable cunits string GPa
# ---- define minimization parameters
variable etol equal 0.0
variable ftol equal 1.0e-10
variable maxiter equal 100
variable maxeval equal 1000
variable dmax equal 1.0e-2
# --- read data structure
read_data lammps.structure
  triclinic box = (0 0 0) to (4.2565 4.2565 4.2565) with tilt (0 0 0)
  1 by 1 by 1 MPI processor grid
  reading atoms ...
  8 atoms
include potential.mod
mass 1 24.305
mass 2 15.999

group Mg type 1
4 atoms in group Mg
group O type 2
4 atoms in group O

set group Mg charge 1.6421645765040513
  4 settings made for charge
set group O charge -1.6421645765040513
  4 settings made for charge

variable R_cut equal 10.0

pair_style buck/coul/long ${R_cut}
pair_style buck/coul/long 10
pair_coeff 1 1 0.0 0.5 0.0 ${R_cut}
pair_coeff 1 1 0.0 0.5 0.0 10
pair_coeff 1 2 976.3962522474803 0.3291762116597489 0.0 ${R_cut}
pair_coeff 1 2 976.3962522474803 0.3291762116597489 0.0 10
pair_coeff 2 2 3230.583724315258 0.1848642364786558 56.128495319422115 ${R_cut}
pair_coeff 2 2 3230.583724315258 0.1848642364786558 56.128495319422115 10

kspace_style pppm 1.0e-5

neighbor 1.0 bin
neigh_modify every 1 delay 0 check yes
thermo	1
thermo_style custom step temp pe press pxx pyy pzz pxy pxz pyz lx ly lz vol
thermo_modify norm no
# ---- Compute initial state
fix 3 all box/relax aniso 0.0
minimize ${etol} ${ftol} ${maxiter} ${maxeval}
minimize 0 ${ftol} ${maxiter} ${maxeval}
minimize 0 1e-10 ${maxiter} ${maxeval}
minimize 0 1e-10 100 ${maxeval}
minimize 0 1e-10 100 1000
PPPM initialization ...
  using 12-bit tables for long-range coulomb (../kspace.cpp:321)
  G vector (1/distance) = 0.352705
  grid = 8 8 8
  stencil order = 5
  estimated absolute RMS force accuracy = 3.89686e-05
  estimated relative force accuracy = 2.70622e-06
  using double precision FFTs
  3d grid and FFT values/proc = 3375 512
Neighbor list info ...
  update every 1 steps, delay 0 steps, check yes
  max neighbors/atom: 2000, page size: 100000
  master list distance cutoff = 11
  ghost atom cutoff = 11
  binsize = 5.5, bins = 1 1 1
  1 neighbor lists, perpetual/occasional/extra = 1 0 0
  (1) pair buck/coul/long, perpetual
      attributes: half, newton on
      pair build: half/bin/newton/tri
      stencil: half/bin/3d/newton/tri
      bin: standard
Per MPI rank memory allocation (min/avg/max) = 4.629 | 4.629 | 4.629 Mbytes
Step Temp PotEng Press Pxx Pyy Pzz Pxy Pxz Pyz Lx Ly Lz Volume 
       0            0   -92.745715    698943.36    698943.36    698943.36    698943.36 -1.1608672e-10 2.1406776e-10 2.489361e-10       4.2565       4.2565       4.2565    77.118383 
       1            0   -92.755809    697941.54    697941.54    697941.54    697941.54 -2.4737379e-11 -1.7923149e-10 -7.8393593e-11    4.2569257    4.2569257    4.2569257    77.141521 
       2            0   -92.765897    696940.63    696940.63    696940.63    696940.63 -3.796387e-10 -1.1418731e-10 -5.8741686e-11    4.2573513    4.2573513    4.2573513    77.164663 
       3            0   -92.775945    695942.08    695942.08    695942.08    695942.08 5.2330583e-11 -2.9284912e-10 -1.8008347e-10     4.257777     4.257777     4.257777     77.18781 
       4            0   -92.785999    694944.34    694944.34    694944.34    694944.34 -1.3765427e-10 -8.8956439e-11 -8.8917823e-11    4.2582026    4.2582026    4.2582026    77.210962 
       5            0   -92.796017    693947.86    693947.86    693947.86    693947.86 4.3580798e-11 -1.8343604e-10 -8.6577951e-11    4.2586283    4.2586283    4.2586283    77.234118 
       6            0   -92.806034    692951.91    692951.91    692951.91    692951.91 -3.8479233e-12 3.6300214e-11 -9.2647796e-11    4.2590539    4.2590539    4.2590539    77.257279 
       7            0   -92.816044    691956.47    691956.47    691956.47    691956.47 1.3322085e-10 1.179102e-10 -1.3224476e-10    4.2594796    4.2594796    4.2594796    77.280445 
       8            0   -92.826041    690962.19    690962.19    690962.19    690962.19 2.9673701e-12 1.6750562e-10 1.2203414e-12    4.2599052    4.2599052    4.2599052    77.303615 
       9            0   -92.836036    689969.07    689969.07    689969.07    689969.07 -5.7505476e-11 -1.2414205e-10 -1.2134377e-10    4.2603309    4.2603309    4.2603309     77.32679 
      10            0    -92.84605    688975.98    688975.98    688975.98    688975.98 3.7169664e-11 3.222892e-10 2.5690264e-10    4.2607565    4.2607565    4.2607565    77.349969 
      11            0   -92.856036    687984.38    687984.38    687984.38    687984.38 -1.0032257e-10 1.0547069e-11 7.9038613e-11    4.2611822    4.2611822    4.2611822    77.373153 
      12            0   -92.865964    686994.95    686994.95    686994.95    686994.95 -2.1375679e-10 -2.5730623e-10 -2.0744437e-10    4.2616078    4.2616078    4.2616078    77.396342 
      13            0    -92.87588    686006.44    686006.44    686006.44    686006.44 9.530788e-11 -1.1294722e-10 -8.1279536e-11    4.2620335    4.2620335    4.2620335    77.419536 
      14            0   -92.885788    685018.82    685018.82    685018.82    685018.82 -2.7885382e-11 3.7917446e-11 1.206374e-10    4.2624591    4.2624591    4.2624591    77.442734 
      15            0    -92.89569    684032.29    684032.29    684032.29    684032.29 2.3212367e-10 1.423905e-10 1.5615705e-10    4.2628848    4.2628848    4.2628848    77.465936 
      16            0   -92.905584    683046.37    683046.37    683046.37    683046.37 -1.7102411e-10 -2.7334508e-10 -1.1172992e-10    4.2633104    4.2633104    4.2633104    77.489144 
      17            0   -92.915503    682060.42    682060.42    682060.42    682060.42 7.1677113e-11 2.4007406e-10 9.1751636e-11    4.2637361    4.2637361    4.2637361    77.512355 
      18            0   -92.922938     681144.9     681144.9     681144.9     681144.9 -5.4297765e-11 1.7947957e-11 3.5976224e-10    4.2641617    4.2641617    4.2641617    77.535572 
      19            0    -92.93283    680160.89    680160.89    680160.89    680160.89 -1.5174536e-10 -2.9376211e-10 -2.3791326e-10    4.2645874    4.2645874    4.2645874    77.558793 
      20            0    -92.94266    679179.68    679179.68    679179.68    679179.68 -2.1830378e-10 -4.7096214e-11 -1.2194938e-10     4.265013     4.265013     4.265013    77.582019 
      21            0   -92.952473    678199.82    678199.82    678199.82    678199.82 8.654373e-11 1.8781877e-10 9.4288287e-11    4.2654387    4.2654387    4.2654387     77.60525 
      22            0   -92.962261     677220.8     677220.8     677220.8     677220.8 1.1097776e-10 1.6767361e-10 6.030914e-11    4.2658643    4.2658643    4.2658643    77.628485 
      23            0   -92.972064    676242.03    676242.03    676242.03    676242.03 1.4450824e-10 5.0727678e-11 -7.3329105e-11      4.26629      4.26629      4.26629    77.651724 
      24            0   -92.981895    675263.16    675263.16    675263.16    675263.16 7.7011121e-11 -3.325524e-10 -1.8430142e-10    4.2667156    4.2667156    4.2667156    77.674969 
      25            0   -92.991694    674285.39    674285.39    674285.39    674285.39 1.1537448e-10 -9.7216439e-11 -8.073801e-11    4.2671413    4.2671413    4.2671413    77.698218 
      26            0   -93.001503    673308.86    673308.86    673308.86    673308.86 -3.8901006e-12 1.3150391e-10 7.3143936e-11    4.2675669    4.2675669    4.2675669    77.721471 
      27            0   -93.011286    672333.39    672333.39    672333.39    672333.39 -3.1681923e-11 2.7839557e-11 -5.6736716e-11    4.2679926    4.2679926    4.2679926     77.74473 
      28            0   -93.021047     671359.3     671359.3     671359.3     671359.3 -6.6085608e-11 -1.5941227e-10 -1.7085091e-10    4.2684182    4.2684182    4.2684182    77.767993 
      29            0   -93.030746    670387.61    670387.61    670387.61    670387.61 -5.8048379e-11 -1.0413623e-11 3.864494e-12    4.2688439    4.2688439    4.2688439     77.79126 
      30            0   -93.040453    669415.91    669415.91    669415.91    669415.91 2.7811609e-10 -4.8140365e-12 2.0805389e-12    4.2692695    4.2692695    4.2692695    77.814532 
      31            0   -93.050195    668444.19    668444.19    668444.19    668444.19 -4.4711249e-11 -2.4974274e-10 -1.087449e-10    4.2696952    4.2696952    4.2696952    77.837809 
      32            0   -93.059913    667473.96    667473.96    667473.96    667473.96 4.4176234e-11 -1.6724114e-10 2.6236672e-11    4.2701208    4.2701208    4.2701208    77.861091 
      33            0   -93.069615     666504.8     666504.8     666504.8     666504.8 1.2399538e-10 -2.0422852e-10 -4.9057034e-12    4.2705465    4.2705465    4.2705465    77.884377 
      34            0   -93.079304    665536.57    665536.57    665536.57    665536.57 1.2311874e-12 1.1099947e-10 -9.7047547e-11    4.2709721    4.2709721    4.2709721    77.907668 
      35            0   -93.088968    664569.51    664569.51    664569.51    664569.51 8.161262e-12 -2.1326038e-10 -1.3280098e-10    4.2713978    4.2713978    4.2713978    77.930963 
      36            0   -93.098631    663603.17    663603.17    663603.17    663603.17 -2.5385058e-10 4.7389334e-11 2.1964622e-10    4.2718234    4.2718234    4.2718234    77.954263 
      37            0   -93.108273    662638.15    662638.15    662638.15    662638.15 -3.8221008e-12 1.2388994e-10 1.6067698e-10    4.2722491    4.2722491    4.2722491    77.977568 
      38            0    -93.11791    661674.04    661674.04    661674.04    661674.04 -3.6853281e-10 -2.9060437e-10 -2.2358837e-10    4.2726747    4.2726747    4.2726747    78.000877 
      39            0   -93.127531    660710.95    660710.95    660710.95    660710.95 -5.6373555e-11 3.4269902e-11 7.7683658e-11    4.2731004    4.2731004    4.2731004    78.024191 
      40            0   -93.137145     659748.6     659748.6     659748.6     659748.6 -5.2211655e-11 2.0126059e-11 2.5109734e-10     4.273526     4.273526     4.273526     78.04751 
      41            0    -93.14673    658787.58    658787.58    658787.58    658787.58 -1.02013e-10 -2.7381224e-10 -2.097753e-10    4.2739517    4.2739517    4.2739517    78.070833 
      42            0   -93.156303    657827.44    657827.44    657827.44    657827.44 -1.1037269e-10 -2.5994152e-10 -2.042511e-10    4.2743773    4.2743773    4.2743773    78.094161 
      43            0   -93.165873     656868.6     656868.6     656868.6     656868.6 1.6122732e-10 6.9341079e-11 -1.4285966e-10     4.274803     4.274803     4.274803    78.117494 
      44            0    -93.17546    655909.84    655909.84    655909.84    655909.84 -6.9831129e-11 8.4293956e-11 -5.3319274e-11    4.2752286    4.2752286    4.2752286    78.140831 
      45            0   -93.185055    654951.11    654951.11    654951.11    654951.11 -2.57873e-10 -3.1828612e-10 -3.3288559e-10    4.2756543    4.2756543    4.2756543    78.164173 
      46            0   -93.194568     653995.2     653995.2     653995.2     653995.2 3.8443981e-11 -6.208709e-11 -7.5740256e-11    4.2760799    4.2760799    4.2760799    78.187519 
      47            0   -93.204076    653040.21    653040.21    653040.21    653040.21 6.5554812e-11 -2.1118149e-11 -9.2306036e-11    4.2765056    4.2765056    4.2765056    78.210871 
      48            0   -93.213576    652086.16    652086.16    652086.16    652086.16 -1.9160802e-10 -3.4405437e-10 -3.235281e-10    4.2769312    4.2769312    4.2769312    78.234226 
      49            0   -93.223056    651133.73    651133.73    651133.73    651133.73 1.2747354e-10 -7.3333023e-12 -7.582704e-11    4.2773569    4.2773569    4.2773569    78.257587 
      50            0   -93.232528    650181.98    650181.98    650181.98    650181.98 -1.1643925e-10 1.532952e-10 5.8526205e-11    4.2777825    4.2777825    4.2777825    78.280952 
      51            0   -93.242009    649230.34    649230.34    649230.34    649230.34 5.9888042e-11 -1.2186984e-10 3.291918e-13    4.2782082    4.2782082    4.2782082    78.304322 
      52            0   -93.251502    648279.01    648279.01    648279.01    648279.01 1.0006527e-10 4.6158778e-11 1.1600023e-10    4.2786338    4.2786338    4.2786338    78.327696 
      53            0   -93.260992    647328.12    647328.12    647328.12    647328.12 -9.9772937e-11 9.5394056e-11 4.3660503e-12    4.2790595    4.2790595    4.2790595    78.351075 
      54            0   -93.270441    646379.12    646379.12    646379.12    646379.12 8.8399207e-11 -2.2895802e-10 -2.2379481e-10    4.2794851    4.2794851    4.2794851    78.374459 
      55            0   -93.279845    645432.56    645432.56    645432.56    645432.56 2.1941659e-10 7.5961107e-11 4.9738468e-11    4.2799108    4.2799108    4.2799108    78.397847 
      56            0   -93.289229    644486.86    644486.86    644486.86    644486.86 6.9550067e-11 2.6239355e-10 9.3694024e-11    4.2803364    4.2803364    4.2803364     78.42124 
      57            0   -93.298609    643542.03    643542.03    643542.03    643542.03 -7.9829358e-11 -3.0102117e-10 -2.5508026e-10    4.2807621    4.2807621    4.2807621    78.444638 
      58            0   -93.308009    642597.17    642597.17    642597.17    642597.17 -7.8967403e-11 -2.0018533e-10 -1.7668019e-10    4.2811877    4.2811877    4.2811877     78.46804 
      59            0   -93.317401    641652.99    641652.99    641652.99    641652.99 1.6689597e-10 -1.4893267e-10 -5.1367386e-11    4.2816134    4.2816134    4.2816134    78.491447 
      60            0   -93.326786    640709.84    640709.84    640709.84    640709.84 -9.7397542e-11 2.8139387e-10 2.4705231e-10     4.282039     4.282039     4.282039    78.514859 
      61            0   -93.336163     639767.4     639767.4     639767.4     639767.4 2.9783762e-12 1.0728464e-10 1.072128e-10    4.2824647    4.2824647    4.2824647    78.538275 
      62            0   -93.345529    638826.01    638826.01    638826.01    638826.01 7.2362349e-11 8.7279217e-11 -2.4542128e-10    4.2828903    4.2828903    4.2828903    78.561696 
      63            0   -93.354829    637886.88    637886.88    637886.88    637886.88 -8.2755536e-11 -7.7921463e-11 -9.0614176e-11     4.283316     4.283316     4.283316    78.585122 
      64            0    -93.36412    636948.74    636948.74    636948.74    636948.74 6.173834e-11 -1.430443e-10 -1.8506013e-10    4.2837416    4.2837416    4.2837416    78.608552 
      65            0    -93.37343    636010.58    636010.58    636010.58    636010.58 2.2131802e-10 3.3818047e-10 3.2273188e-10    4.2841673    4.2841673    4.2841673    78.631987 
      66            0   -93.382723    635073.95    635073.95    635073.95    635073.95 -1.1840483e-10 -1.243109e-10 6.1352462e-11    4.2845929    4.2845929    4.2845929    78.655427 
      67            0   -93.392001    634138.44    634138.44    634138.44    634138.44 6.9145953e-11 8.1992008e-11 1.868481e-10    4.2850186    4.2850186    4.2850186    78.678871 
      68            0   -93.401289    633202.95    633202.95    633202.95    633202.95 -3.3484264e-11 -1.6041849e-10 1.0921458e-10    4.2854442    4.2854442    4.2854442     78.70232 
      69            0   -93.410561    632268.34    632268.34    632268.34    632268.34 -5.5738604e-11 -4.2988172e-11 -1.352293e-10    4.2858699    4.2858699    4.2858699    78.725773 
      70            0   -93.419814    631334.68    631334.68    631334.68    631334.68 -7.4456784e-11 -2.6087757e-10 5.8054603e-12    4.2862955    4.2862955    4.2862955    78.749232 
      71            0   -93.429052    630402.34    630402.34    630402.34    630402.34 -1.6687512e-10 -2.8702625e-10 -2.4871434e-10    4.2867212    4.2867212    4.2867212    78.772694 
      72            0   -93.438264     629471.7     629471.7     629471.7     629471.7 8.9460338e-11 2.3936921e-10 3.8847479e-10    4.2871468    4.2871468    4.2871468    78.796162 
      73            0   -93.447484    628541.69    628541.69    628541.69    628541.69 8.4567718e-11 5.7165463e-11 -2.2517981e-11    4.2875725    4.2875725    4.2875725    78.819634 
      74            0   -93.456675    627612.76    627612.76    627612.76    627612.76 7.8955783e-11 -1.8439987e-10 -2.8243252e-11    4.2879981    4.2879981    4.2879981    78.843111 
      75            0    -93.46585    626684.57    626684.57    626684.57    626684.57 -1.248035e-10 2.7891107e-11 2.6585658e-10    4.2884238    4.2884238    4.2884238    78.866593 
      76            0   -93.475034    625756.62    625756.62    625756.62    625756.62 6.061014e-11 -3.2208891e-11 -3.641937e-10    4.2888494    4.2888494    4.2888494    78.890079 
      77            0   -93.484195    624830.17    624830.17    624830.17    624830.17 4.7239612e-11 -3.165144e-10 -2.2459924e-10    4.2892751    4.2892751    4.2892751     78.91357 
      78            0   -93.493359    623904.54    623904.54    623904.54    623904.54 -2.7167202e-10 -1.0725922e-10 1.6136616e-10    4.2897007    4.2897007    4.2897007    78.937065 
      79            0   -93.502552    622978.74    622978.74    622978.74    622978.74 5.4869811e-11 -1.9157543e-11 4.0125521e-11    4.2901264    4.2901264    4.2901264    78.960565 
      80            0   -93.511682    622055.26    622055.26    622055.26    622055.26 -2.5446678e-11 8.8118249e-11 4.6955952e-12     4.290552     4.290552     4.290552     78.98407 
      81            0   -93.520787    621132.98    621132.98    621132.98    621132.98 1.1254853e-10 2.2263029e-10 1.9149934e-11    4.2909777    4.2909777    4.2909777     79.00758 
      82            0   -93.529868    620211.81    620211.81    620211.81    620211.81 -1.2315877e-10 -8.9887324e-11 5.3866799e-11    4.2914033    4.2914033    4.2914033    79.031094 
      83            0   -93.538965    619291.14    619291.14    619291.14    619291.14 1.2728529e-10 -3.763914e-11 4.9705588e-11     4.291829     4.291829     4.291829    79.054613 
      84            0    -93.54805    618371.34    618371.34    618371.34    618371.34 7.8664369e-11 -9.8545143e-11 1.7877049e-10    4.2922546    4.2922546    4.2922546    79.078136 
      85            0   -93.557134    617452.11    617452.11    617452.11    617452.11 -1.8041316e-10 1.197692e-10 -1.0312834e-10    4.2926803    4.2926803    4.2926803    79.101664 
      86            0   -93.566227     616533.2     616533.2     616533.2     616533.2 4.7933335e-11 -3.6629698e-11 1.2628262e-10    4.2931059    4.2931059    4.2931059    79.125197 
      87            0   -93.575302    615615.16    615615.16    615615.16    615615.16 1.8258973e-10 1.0861073e-10 -4.4113073e-11    4.2935316    4.2935316    4.2935316    79.148735 
      88            0   -93.584361    614698.44    614698.44    614698.44    614698.44 -1.1959821e-10 1.1361091e-12 6.8536242e-11    4.2939572    4.2939572    4.2939572    79.172277 
      89            0   -93.593363    613784.42    613784.42    613784.42    613784.42 8.5290136e-11 -2.1335479e-10 -1.7315134e-10    4.2943829    4.2943829    4.2943829    79.195824 
      90            0   -93.602338    612871.46    612871.46    612871.46    612871.46 5.7713467e-11 -9.2197621e-11 -1.4635294e-10    4.2948085    4.2948085    4.2948085    79.219375 
      91            0   -93.611319    611958.64    611958.64    611958.64    611958.64 1.106526e-11 -6.2680321e-12 6.9003681e-11    4.2952342    4.2952342    4.2952342    79.242931 
      92            0   -93.620328    611045.72    611045.72    611045.72    611045.72 1.0992771e-10 -2.0632655e-10 -1.2848215e-10    4.2956598    4.2956598    4.2956598    79.266492 
      93            0   -93.629318    610133.63    610133.63    610133.63    610133.63 1.8162281e-10 2.8862458e-11 5.9813315e-11    4.2960855    4.2960855    4.2960855    79.290058 
      94            0   -93.638303     609222.5     609222.5     609222.5     609222.5 -2.9086067e-12 -4.4100986e-11 -3.3662777e-11    4.2965111    4.2965111    4.2965111    79.313628 
      95            0   -93.647282    608312.38    608312.38    608312.38    608312.38 3.8787952e-11 -2.4127128e-11 -1.9631525e-10    4.2969368    4.2969368    4.2969368    79.337203 
      96            0   -93.656242    607403.41    607403.41    607403.41    607403.41 -4.2336139e-11 -1.5429384e-10 -2.1543275e-10    4.2973624    4.2973624    4.2973624    79.360782 
      97            0   -93.665156    606496.43    606496.43    606496.43    606496.43 -1.044188e-10 2.4596795e-11 -5.3115843e-12    4.2977881    4.2977881    4.2977881    79.384366 
      98            0    -93.67405     605590.4     605590.4     605590.4     605590.4 9.6161897e-11 4.5143197e-11 -4.1792501e-11    4.2982137    4.2982137    4.2982137    79.407955 
      99            0   -93.682961    604684.22    604684.22    604684.22    604684.22 1.317613e-10 -8.8736768e-11 -1.8946588e-10    4.2986394    4.2986394    4.2986394    79.431549 
     100            0   -93.691877    603778.89    603778.89    603778.89    603778.89 1.3276651e-10 6.644024e-11 -2.2084052e-11     4.299065     4.299065     4.299065    79.455147 
Loop time of 0.180151 on 1 procs for 100 steps with 8 atoms

34.4% CPU use with 1 MPI tasks x no OpenMP threads

Minimization stats:
  Stopping criterion = max iterations
  Energy initial, next-to-last, final = 
        -92.7457150926     -93.6829614372     -93.6918768789
  Force two-norm initial, final = 58.2707 51.3486
  Force max component initial, final = 33.6426 29.6461
  Final line search alpha, max atom move = 3.36874e-06 9.98701e-05
  Iterations, force evaluations = 100 100

MPI task timing breakdown:
Section |  min time  |  avg time  |  max time  |%varavg| %total
---------------------------------------------------------------
Pair    | 0.038989   | 0.038989   | 0.038989   |   0.0 | 21.64
Kspace  | 0.042141   | 0.042141   | 0.042141   |   0.0 | 23.39
Neigh   | 0          | 0          | 0          |   0.0 |  0.00
Comm    | 0.0012295  | 0.0012295  | 0.0012295  |   0.0 |  0.68
Output  | 0.00097537 | 0.00097537 | 0.00097537 |   0.0 |  0.54
Modify  | 0          | 0          | 0          |   0.0 |  0.00
Other   |            | 0.09682    |            |       | 53.74

Nlocal:    8 ave 8 max 8 min
Histogram: 1 0 0 0 0 0 0 0 0 0
Nghost:    2189 ave 2189 max 2189 min
Histogram: 1 0 0 0 0 0 0 0 0 0
Neighs:    2344 ave 2344 max 2344 min
Histogram: 1 0 0 0 0 0 0 0 0 0

Total # of neighbors = 2344
Ave neighs/atom = 293
Neighbor list builds = 0
Dangerous builds = 0

variable tmp equal pxx
variable pxx0 equal ${tmp}
variable pxx0 equal 603778.893252855
variable tmp equal pyy
variable pyy0 equal ${tmp}
variable pyy0 equal 603778.893252855
variable tmp equal pzz
variable pzz0 equal ${tmp}
variable pzz0 equal 603778.893252855
variable tmp equal pyz
variable pyz0 equal ${tmp}
variable pyz0 equal -2.20840519175032e-11
variable tmp equal pxz
variable pxz0 equal ${tmp}
variable pxz0 equal 6.64402399664187e-11
variable tmp equal pxy
variable pxy0 equal ${tmp}
variable pxy0 equal 1.32766505162186e-10

variable tmp equal lx
variable lx0 equal ${tmp}
variable lx0 equal 4.29906500000002
variable tmp equal ly
variable ly0 equal ${tmp}
variable ly0 equal 4.29906500000002
variable tmp equal lz
variable lz0 equal ${tmp}
variable lz0 equal 4.29906500000002

 # ---- define the derivatives w.r.t. strain components
variable d1 equal -(v_pxx1-${pxx0})/(v_delta/v_len0)*${cfac}
variable d1 equal -(v_pxx1-603778.893252855)/(v_delta/v_len0)*${cfac}
variable d1 equal -(v_pxx1-603778.893252855)/(v_delta/v_len0)*0.0001
variable d2 equal -(v_pyy1-${pyy0})/(v_delta/v_len0)*${cfac}
variable d2 equal -(v_pyy1-603778.893252855)/(v_delta/v_len0)*${cfac}
variable d2 equal -(v_pyy1-603778.893252855)/(v_delta/v_len0)*0.0001
variable d3 equal -(v_pzz1-${pzz0})/(v_delta/v_len0)*${cfac}
variable d3 equal -(v_pzz1-603778.893252855)/(v_delta/v_len0)*${cfac}
variable d3 equal -(v_pzz1-603778.893252855)/(v_delta/v_len0)*0.0001
variable d4 equal -(v_pyz1-${pyz0})/(v_delta/v_len0)*${cfac}
variable d4 equal -(v_pyz1--2.20840519175032e-11)/(v_delta/v_len0)*${cfac}
variable d4 equal -(v_pyz1--2.20840519175032e-11)/(v_delta/v_len0)*0.0001
variable d5 equal -(v_pxz1-${pxz0})/(v_delta/v_len0)*${cfac}
variable d5 equal -(v_pxz1-6.64402399664187e-11)/(v_delta/v_len0)*${cfac}
variable d5 equal -(v_pxz1-6.64402399664187e-11)/(v_delta/v_len0)*0.0001
variable d6 equal -(v_pxy1-${pxy0})/(v_delta/v_len0)*${cfac}
variable d6 equal -(v_pxy1-1.32766505162186e-10)/(v_delta/v_len0)*${cfac}
variable d6 equal -(v_pxy1-1.32766505162186e-10)/(v_delta/v_len0)*0.0001

# ---- write restart files
unfix 3
write_restart restart.equil
PPPM initialization ...
  using 12-bit tables for long-range coulomb (../kspace.cpp:321)
  G vector (1/distance) = 0.352279
  grid = 8 8 8
  stencil order = 5
  estimated absolute RMS force accuracy = 3.97384e-05
  estimated relative force accuracy = 2.75968e-06
  using double precision FFTs
  3d grid and FFT values/proc = 3375 512
# ---- uxx Perturbation
variable dir equal 1
include displace.mod
# NOTE: This script should not need to be
# modified. See in.elastic for more info.
# Find which reference length to use

if "${dir} == 1" then    "variable len0 equal ${lx0}"
variable len0 equal ${lx0}
variable len0 equal 4.29906500000002
if "${dir} == 2" then    "variable len0 equal ${ly0}"
if "${dir} == 3" then    "variable len0 equal ${lz0}"
if "${dir} == 4" then    "variable len0 equal ${lz0}"
if "${dir} == 5" then    "variable len0 equal ${lz0}"
if "${dir} == 6" then    "variable len0 equal ${ly0}"

# Reset box and simulation parameters

clear
read_restart restart.equil remap
  triclinic box = (-0.0212825 -0.0212825 -0.0212825) to (4.27778 4.27778 4.27778) with tilt (0 0 0)
  1 by 1 by 1 MPI processor grid
  8 atoms
include potential.mod
mass 1 24.305
mass 2 15.999

group Mg type 1
4 atoms in group Mg
group O type 2
4 atoms in group O

set group Mg charge 1.6421645765040513
  4 settings made for charge
set group O charge -1.6421645765040513
  4 settings made for charge

variable R_cut equal 10.0

pair_style buck/coul/long ${R_cut}
pair_style buck/coul/long 10
pair_coeff 1 1 0.0 0.5 0.0 ${R_cut}
pair_coeff 1 1 0.0 0.5 0.0 10
pair_coeff 1 2 976.3962522474803 0.3291762116597489 0.0 ${R_cut}
pair_coeff 1 2 976.3962522474803 0.3291762116597489 0.0 10
pair_coeff 2 2 3230.583724315258 0.1848642364786558 56.128495319422115 ${R_cut}
pair_coeff 2 2 3230.583724315258 0.1848642364786558 56.128495319422115 10

kspace_style pppm 1.0e-5

neighbor 1.0 bin
neigh_modify every 1 delay 0 check yes
thermo	1
thermo_style custom step temp pe press pxx pyy pzz pxy pxz pyz lx ly lz vol
thermo_modify norm no

# Negative deformation

variable delta equal -${up}*${len0}
variable delta equal -1e-06*${len0}
variable delta equal -1e-06*4.29906500000002
if "${dir} == 1" then    "change_box all x delta 0 ${delta} remap units box"
change_box all x delta 0 ${delta} remap units box
change_box all x delta 0 -4.29906500000002e-06 remap units box
  triclinic box = (-0.0212825 -0.0212825 -0.0212825) to (4.27778 4.27778 4.27778) with tilt (0 0 0)
if "${dir} == 2" then    "change_box all y delta 0 ${delta} remap units box"
if "${dir} == 3" then    "change_box all z delta 0 ${delta} remap units box"
if "${dir} == 4" then    "change_box all yz delta ${delta} remap units box"
if "${dir} == 5" then    "change_box all xz delta ${delta} remap units box"
if "${dir} == 6" then    "change_box all xy delta ${delta} remap units box"

# Relax atoms positions

minimize ${etol} ${ftol} ${maxiter} ${maxeval}
minimize 0 ${ftol} ${maxiter} ${maxeval}
minimize 0 1e-10 ${maxiter} ${maxeval}
minimize 0 1e-10 100 ${maxeval}
minimize 0 1e-10 100 1000
PPPM initialization ...
  using 12-bit tables for long-range coulomb (../kspace.cpp:321)
  G vector (1/distance) = 0.352279
  grid = 8 8 8
  stencil order = 5
  estimated absolute RMS force accuracy = 3.97384e-05
  estimated relative force accuracy = 2.75968e-06
  using double precision FFTs
  3d grid and FFT values/proc = 3375 512
Neighbor list info ...
  update every 1 steps, delay 0 steps, check yes
  max neighbors/atom: 2000, page size: 100000
  master list distance cutoff = 11
  ghost atom cutoff = 11
  binsize = 5.5, bins = 1 1 1
  1 neighbor lists, perpetual/occasional/extra = 1 0 0
  (1) pair buck/coul/long, perpetual
      attributes: half, newton on
      pair build: half/bin/newton/tri
      stencil: half/bin/3d/newton/tri
      bin: standard
Per MPI rank memory allocation (min/avg/max) = 4.629 | 4.629 | 4.629 Mbytes
Step Temp PotEng Press Pxx Pyy Pzz Pxy Pxz Pyz Lx Ly Lz Volume 
     100            0   -93.691851     603780.7    603783.68    603779.21    603779.21 2.6635406e-10 8.6997949e-10 6.7926008e-10    4.2990607     4.299065     4.299065    79.455067 
     101            0   -93.691851    603780.68    603783.71    603779.17    603779.17 -1.7305344e-10 -6.0885147e-10 -4.947789e-10    4.2990607     4.299065     4.299065    79.455067 
     102            0   -93.691851    603780.68    603783.71    603779.17    603779.17 -1.7305344e-10 -6.0885147e-10 -4.947789e-10    4.2990607     4.299065     4.299065    79.455067 
Loop time of 0.00261402 on 1 procs for 2 steps with 8 atoms

114.8% CPU use with 1 MPI tasks x no OpenMP threads

Minimization stats:
  Stopping criterion = linesearch alpha is zero
  Energy initial, next-to-last, final = 
        -93.6918506869     -93.6918513783     -93.6918513783
  Force two-norm initial, final = 0.0038068 8.8726e-05
  Force max component initial, final = 0.000803668 1.87774e-05
  Final line search alpha, max atom move = 0.5 9.38872e-06
  Iterations, force evaluations = 2 7

MPI task timing breakdown:
Section |  min time  |  avg time  |  max time  |%varavg| %total
---------------------------------------------------------------
Pair    | 0.0012784  | 0.0012784  | 0.0012784  |   0.0 | 48.91
Kspace  | 0.0011981  | 0.0011981  | 0.0011981  |   0.0 | 45.83
Neigh   | 0          | 0          | 0          |   0.0 |  0.00
Comm    | 9.7036e-05 | 9.7036e-05 | 9.7036e-05 |   0.0 |  3.71
Output  | 1.0967e-05 | 1.0967e-05 | 1.0967e-05 |   0.0 |  0.42
Modify  | 0          | 0          | 0          |   0.0 |  0.00
Other   |            | 2.956e-05  |            |       |  1.13

Nlocal:    8 ave 8 max 8 min
Histogram: 1 0 0 0 0 0 0 0 0 0
Nghost:    2189 ave 2189 max 2189 min
Histogram: 1 0 0 0 0 0 0 0 0 0
Neighs:    2344 ave 2344 max 2344 min
Histogram: 1 0 0 0 0 0 0 0 0 0

Total # of neighbors = 2344
Ave neighs/atom = 293
Neighbor list builds = 0
Dangerous builds = 0

# Obtain new stress tensor

variable tmp equal pxx
variable pxx1 equal ${tmp}
variable pxx1 equal 603783.710954675
variable tmp equal pyy
variable pyy1 equal ${tmp}
variable pyy1 equal 603779.166893957
variable tmp equal pzz
variable pzz1 equal ${tmp}
variable pzz1 equal 603779.166893958
variable tmp equal pxy
variable pxy1 equal ${tmp}
variable pxy1 equal -1.7305344026508e-10
variable tmp equal pxz
variable pxz1 equal ${tmp}
variable pxz1 equal -6.08851467495935e-10
variable tmp equal pyz
variable pyz1 equal ${tmp}
variable pyz1 equal -4.94778899876942e-10

# Compute elastic constant from pressure tensor

variable C1neg equal ${d1}
variable C1neg equal 481.770181993488
variable C2neg equal ${d2}
variable C2neg equal 27.3641101899557
variable C3neg equal ${d3}
variable C3neg equal 27.3641102947295
variable C4neg equal ${d4}
variable C4neg equal -4.72694847959439e-08
variable C5neg equal ${d5}
variable C5neg equal -6.75291707462354e-08
variable C6neg equal ${d6}
variable C6neg equal -3.05819945427266e-08

# Reset box and simulation parameters

clear
read_restart restart.equil remap
  triclinic box = (-0.0212825 -0.0212825 -0.0212825) to (4.27778 4.27778 4.27778) with tilt (0 0 0)
  1 by 1 by 1 MPI processor grid
  8 atoms
include potential.mod
mass 1 24.305
mass 2 15.999

group Mg type 1
4 atoms in group Mg
group O type 2
4 atoms in group O

set group Mg charge 1.6421645765040513
  4 settings made for charge
set group O charge -1.6421645765040513
  4 settings made for charge

variable R_cut equal 10.0

pair_style buck/coul/long ${R_cut}
pair_style buck/coul/long 10
pair_coeff 1 1 0.0 0.5 0.0 ${R_cut}
pair_coeff 1 1 0.0 0.5 0.0 10
pair_coeff 1 2 976.3962522474803 0.3291762116597489 0.0 ${R_cut}
pair_coeff 1 2 976.3962522474803 0.3291762116597489 0.0 10
pair_coeff 2 2 3230.583724315258 0.1848642364786558 56.128495319422115 ${R_cut}
pair_coeff 2 2 3230.583724315258 0.1848642364786558 56.128495319422115 10

kspace_style pppm 1.0e-5

neighbor 1.0 bin
neigh_modify every 1 delay 0 check yes
thermo	1
thermo_style custom step temp pe press pxx pyy pzz pxy pxz pyz lx ly lz vol
thermo_modify norm no

# Positive deformation

variable delta equal ${up}*${len0}
variable delta equal 1e-06*${len0}
variable delta equal 1e-06*4.29906500000002
if "${dir} == 1" then    "change_box all x delta 0 ${delta} remap units box"
change_box all x delta 0 ${delta} remap units box
change_box all x delta 0 4.29906500000002e-06 remap units box
  triclinic box = (-0.0212825 -0.0212825 -0.0212825) to (4.27779 4.27778 4.27778) with tilt (0 0 0)
if "${dir} == 2" then    "change_box all y delta 0 ${delta} remap units box"
if "${dir} == 3" then    "change_box all z delta 0 ${delta} remap units box"
if "${dir} == 4" then    "change_box all yz delta ${delta} remap units box"
if "${dir} == 5" then    "change_box all xz delta ${delta} remap units box"
if "${dir} == 6" then    "change_box all xy delta ${delta} remap units box"

# Relax atoms positions

minimize ${etol} ${ftol} ${maxiter} ${maxeval}
minimize 0 ${ftol} ${maxiter} ${maxeval}
minimize 0 1e-10 ${maxiter} ${maxeval}
minimize 0 1e-10 100 ${maxeval}
minimize 0 1e-10 100 1000
PPPM initialization ...
  using 12-bit tables for long-range coulomb (../kspace.cpp:321)
  G vector (1/distance) = 0.352279
  grid = 8 8 8
  stencil order = 5
  estimated absolute RMS force accuracy = 3.97384e-05
  estimated relative force accuracy = 2.75968e-06
  using double precision FFTs
  3d grid and FFT values/proc = 3375 512
Neighbor list info ...
  update every 1 steps, delay 0 steps, check yes
  max neighbors/atom: 2000, page size: 100000
  master list distance cutoff = 11
  ghost atom cutoff = 11
  binsize = 5.5, bins = 1 1 1
  1 neighbor lists, perpetual/occasional/extra = 1 0 0
  (1) pair buck/coul/long, perpetual
      attributes: half, newton on
      pair build: half/bin/newton/tri
      stencil: half/bin/3d/newton/tri
      bin: standard
Per MPI rank memory allocation (min/avg/max) = 4.629 | 4.629 | 4.629 Mbytes
Step Temp PotEng Press Pxx Pyy Pzz Pxy Pxz Pyz Lx Ly Lz Volume 
     100            0   -93.691907    603774.66     603771.9    603776.04    603776.04 -6.2812774e-10 2.8475007e-10 2.6294936e-10    4.2990693     4.299065     4.299065    79.455226 
     101            0   -93.691908    603774.66    603771.87    603776.06    603776.06 5.5478908e-10 3.7954999e-10 1.7784883e-10    4.2990693     4.299065     4.299065    79.455226 
     102            0   -93.691911     603774.6    603771.77    603776.01    603776.01 7.6479776e-11 8.2795199e-10 8.227395e-10    4.2990693     4.299065     4.299065    79.455226 
     103            0   -93.691911     603774.6    603771.77    603776.01    603776.01 7.6479776e-11 8.2795199e-10 8.227395e-10    4.2990693     4.299065     4.299065    79.455226 
Loop time of 0.00401878 on 1 procs for 3 steps with 8 atoms

99.5% CPU use with 1 MPI tasks x no OpenMP threads

Minimization stats:
  Stopping criterion = linesearch alpha is zero
  Energy initial, next-to-last, final = 
        -93.6919069995     -93.6919113202     -93.6919113202
  Force two-norm initial, final = 0.0038057 3.18685e-06
  Force max component initial, final = 0.000803537 9.03761e-07
  Final line search alpha, max atom move = 0.5 4.5188e-07
  Iterations, force evaluations = 3 11

MPI task timing breakdown:
Section |  min time  |  avg time  |  max time  |%varavg| %total
---------------------------------------------------------------
Pair    | 0.0019536  | 0.0019536  | 0.0019536  |   0.0 | 48.61
Kspace  | 0.0018582  | 0.0018582  | 0.0018582  |   0.0 | 46.24
Neigh   | 0          | 0          | 0          |   0.0 |  0.00
Comm    | 0.00014305 | 0.00014305 | 0.00014305 |   0.0 |  3.56
Output  | 1.8835e-05 | 1.8835e-05 | 1.8835e-05 |   0.0 |  0.47
Modify  | 0          | 0          | 0          |   0.0 |  0.00
Other   |            | 4.506e-05  |            |       |  1.12

Nlocal:    8 ave 8 max 8 min
Histogram: 1 0 0 0 0 0 0 0 0 0
Nghost:    2189 ave 2189 max 2189 min
Histogram: 1 0 0 0 0 0 0 0 0 0
Neighs:    2344 ave 2344 max 2344 min
Histogram: 1 0 0 0 0 0 0 0 0 0

Total # of neighbors = 2344
Ave neighs/atom = 293
Neighbor list builds = 0
Dangerous builds = 0

# Obtain new stress tensor

variable tmp equal pe
variable e1 equal ${tmp}
variable e1 equal -93.6919113201646
variable tmp equal press
variable p1 equal ${tmp}
variable p1 equal 603774.595667211
variable tmp equal pxx
variable pxx1 equal ${tmp}
variable pxx1 equal 603771.770821195
variable tmp equal pyy
variable pyy1 equal ${tmp}
variable pyy1 equal 603776.008090219
variable tmp equal pzz
variable pzz1 equal ${tmp}
variable pzz1 equal 603776.008090219
variable tmp equal pxy
variable pxy1 equal ${tmp}
variable pxy1 equal 7.64797764854823e-11
variable tmp equal pxz
variable pxz1 equal ${tmp}
variable pxz1 equal 8.27951993105429e-10
variable tmp equal pyz
variable pyz1 equal ${tmp}
variable pyz1 equal 8.22739504120676e-10

# Compute elastic constant from pressure tensor

variable C1pos equal ${d1}
variable C1pos equal 712.243166007102
variable C2pos equal ${d2}
variable C2pos equal 288.516263605561
variable C3pos equal ${d3}
variable C3pos equal 288.516263605561
variable C4pos equal ${d4}
variable C4pos equal -8.44823556038179e-08
variable C5pos equal ${d5}
variable C5pos equal -7.6151175313901e-08
variable C6pos equal ${d6}
variable C6pos equal 5.62867286767037e-09

# Combine positive and negative

variable C1${dir} equal 0.5*(${C1neg}+${C1pos})
variable C11 equal 0.5*(${C1neg}+${C1pos})
variable C11 equal 0.5*(481.770181993488+${C1pos})
variable C11 equal 0.5*(481.770181993488+712.243166007102)
variable C2${dir} equal 0.5*(${C2neg}+${C2pos})
variable C21 equal 0.5*(${C2neg}+${C2pos})
variable C21 equal 0.5*(27.3641101899557+${C2pos})
variable C21 equal 0.5*(27.3641101899557+288.516263605561)
variable C3${dir} equal 0.5*(${C3neg}+${C3pos})
variable C31 equal 0.5*(${C3neg}+${C3pos})
variable C31 equal 0.5*(27.3641102947295+${C3pos})
variable C31 equal 0.5*(27.3641102947295+288.516263605561)
variable C4${dir} equal 0.5*(${C4neg}+${C4pos})
variable C41 equal 0.5*(${C4neg}+${C4pos})
variable C41 equal 0.5*(-4.72694847959439e-08+${C4pos})
variable C41 equal 0.5*(-4.72694847959439e-08+-8.44823556038179e-08)
variable C5${dir} equal 0.5*(${C5neg}+${C5pos})
variable C51 equal 0.5*(${C5neg}+${C5pos})
variable C51 equal 0.5*(-6.75291707462354e-08+${C5pos})
variable C51 equal 0.5*(-6.75291707462354e-08+-7.6151175313901e-08)
variable C6${dir} equal 0.5*(${C6neg}+${C6pos})
variable C61 equal 0.5*(${C6neg}+${C6pos})
variable C61 equal 0.5*(-3.05819945427266e-08+${C6pos})
variable C61 equal 0.5*(-3.05819945427266e-08+5.62867286767037e-09)

# Delete dir to make sure it is not reused

variable dir delete
# ---- uyy Perturbation
variable dir equal 2
include displace.mod
# NOTE: This script should not need to be
# modified. See in.elastic for more info.
# Find which reference length to use

if "${dir} == 1" then    "variable len0 equal ${lx0}"
if "${dir} == 2" then    "variable len0 equal ${ly0}"
variable len0 equal ${ly0}
variable len0 equal 4.29906500000002
if "${dir} == 3" then    "variable len0 equal ${lz0}"
if "${dir} == 4" then    "variable len0 equal ${lz0}"
if "${dir} == 5" then    "variable len0 equal ${lz0}"
if "${dir} == 6" then    "variable len0 equal ${ly0}"

# Reset box and simulation parameters

clear
read_restart restart.equil remap
  triclinic box = (-0.0212825 -0.0212825 -0.0212825) to (4.27778 4.27778 4.27778) with tilt (0 0 0)
  1 by 1 by 1 MPI processor grid
  8 atoms
include potential.mod
mass 1 24.305
mass 2 15.999

group Mg type 1
4 atoms in group Mg
group O type 2
4 atoms in group O

set group Mg charge 1.6421645765040513
  4 settings made for charge
set group O charge -1.6421645765040513
  4 settings made for charge

variable R_cut equal 10.0

pair_style buck/coul/long ${R_cut}
pair_style buck/coul/long 10
pair_coeff 1 1 0.0 0.5 0.0 ${R_cut}
pair_coeff 1 1 0.0 0.5 0.0 10
pair_coeff 1 2 976.3962522474803 0.3291762116597489 0.0 ${R_cut}
pair_coeff 1 2 976.3962522474803 0.3291762116597489 0.0 10
pair_coeff 2 2 3230.583724315258 0.1848642364786558 56.128495319422115 ${R_cut}
pair_coeff 2 2 3230.583724315258 0.1848642364786558 56.128495319422115 10

kspace_style pppm 1.0e-5

neighbor 1.0 bin
neigh_modify every 1 delay 0 check yes
thermo	1
thermo_style custom step temp pe press pxx pyy pzz pxy pxz pyz lx ly lz vol
thermo_modify norm no

# Negative deformation

variable delta equal -${up}*${len0}
variable delta equal -1e-06*${len0}
variable delta equal -1e-06*4.29906500000002
if "${dir} == 1" then    "change_box all x delta 0 ${delta} remap units box"
if "${dir} == 2" then    "change_box all y delta 0 ${delta} remap units box"
change_box all y delta 0 ${delta} remap units box
change_box all y delta 0 -4.29906500000002e-06 remap units box
  triclinic box = (-0.0212825 -0.0212825 -0.0212825) to (4.27778 4.27778 4.27778) with tilt (0 0 0)
if "${dir} == 3" then    "change_box all z delta 0 ${delta} remap units box"
if "${dir} == 4" then    "change_box all yz delta ${delta} remap units box"
if "${dir} == 5" then    "change_box all xz delta ${delta} remap units box"
if "${dir} == 6" then    "change_box all xy delta ${delta} remap units box"

# Relax atoms positions

minimize ${etol} ${ftol} ${maxiter} ${maxeval}
minimize 0 ${ftol} ${maxiter} ${maxeval}
minimize 0 1e-10 ${maxiter} ${maxeval}
minimize 0 1e-10 100 ${maxeval}
minimize 0 1e-10 100 1000
PPPM initialization ...
  using 12-bit tables for long-range coulomb (../kspace.cpp:321)
  G vector (1/distance) = 0.352279
  grid = 8 8 8
  stencil order = 5
  estimated absolute RMS force accuracy = 3.97384e-05
  estimated relative force accuracy = 2.75968e-06
  using double precision FFTs
  3d grid and FFT values/proc = 3375 512
Neighbor list info ...
  update every 1 steps, delay 0 steps, check yes
  max neighbors/atom: 2000, page size: 100000
  master list distance cutoff = 11
  ghost atom cutoff = 11
  binsize = 5.5, bins = 1 1 1
  1 neighbor lists, perpetual/occasional/extra = 1 0 0
  (1) pair buck/coul/long, perpetual
      attributes: half, newton on
      pair build: half/bin/newton/tri
      stencil: half/bin/3d/newton/tri
      bin: standard
Per MPI rank memory allocation (min/avg/max) = 4.629 | 4.629 | 4.629 Mbytes
Step Temp PotEng Press Pxx Pyy Pzz Pxy Pxz Pyz Lx Ly Lz Volume 
     100            0   -93.691851     603780.7    603779.21    603783.68    603779.21 3.7879097e-10 6.3337757e-10 1.6860165e-10     4.299065    4.2990607     4.299065    79.455067 
     101            0   -93.691851    603780.68    603779.17    603783.71    603779.17 5.4050155e-11 3.8292712e-11 -3.8382008e-10     4.299065    4.2990607     4.299065    79.455067 
     102            0   -93.691851    603780.68    603779.17    603783.71    603779.17 5.4050155e-11 3.8292712e-11 -3.8382008e-10     4.299065    4.2990607     4.299065    79.455067 
Loop time of 0.00263309 on 1 procs for 2 steps with 8 atoms

113.9% CPU use with 1 MPI tasks x no OpenMP threads

Minimization stats:
  Stopping criterion = linesearch alpha is zero
  Energy initial, next-to-last, final = 
        -93.6918506869     -93.6918513783     -93.6918513783
  Force two-norm initial, final = 0.0038068 8.8726e-05
  Force max component initial, final = 0.000803668 1.87774e-05
  Final line search alpha, max atom move = 0.5 9.38872e-06
  Iterations, force evaluations = 2 7

MPI task timing breakdown:
Section |  min time  |  avg time  |  max time  |%varavg| %total
---------------------------------------------------------------
Pair    | 0.0012901  | 0.0012901  | 0.0012901  |   0.0 | 48.99
Kspace  | 0.0012019  | 0.0012019  | 0.0012019  |   0.0 | 45.64
Neigh   | 0          | 0          | 0          |   0.0 |  0.00
Comm    | 9.7036e-05 | 9.7036e-05 | 9.7036e-05 |   0.0 |  3.69
Output  | 1.0967e-05 | 1.0967e-05 | 1.0967e-05 |   0.0 |  0.42
Modify  | 0          | 0          | 0          |   0.0 |  0.00
Other   |            | 3.314e-05  |            |       |  1.26

Nlocal:    8 ave 8 max 8 min
Histogram: 1 0 0 0 0 0 0 0 0 0
Nghost:    2189 ave 2189 max 2189 min
Histogram: 1 0 0 0 0 0 0 0 0 0
Neighs:    2344 ave 2344 max 2344 min
Histogram: 1 0 0 0 0 0 0 0 0 0

Total # of neighbors = 2344
Ave neighs/atom = 293
Neighbor list builds = 0
Dangerous builds = 0

# Obtain new stress tensor

variable tmp equal pxx
variable pxx1 equal ${tmp}
variable pxx1 equal 603779.166893956
variable tmp equal pyy
variable pyy1 equal ${tmp}
variable pyy1 equal 603783.710954675
variable tmp equal pzz
variable pzz1 equal ${tmp}
variable pzz1 equal 603779.166893958
variable tmp equal pxy
variable pxy1 equal ${tmp}
variable pxy1 equal 5.40501545117448e-11
variable tmp equal pxz
variable pxz1 equal ${tmp}
variable pxz1 equal 3.82927116526633e-11
variable tmp equal pyz
variable pyz1 equal ${tmp}
variable pyz1 equal -3.83820082732353e-10

# Compute elastic constant from pressure tensor

variable C1neg equal ${d1}
variable C1neg equal 27.3641100968234
variable C2neg equal ${d2}
variable C2neg equal 481.770181993488
variable C3neg equal ${d3}
variable C3neg equal 27.3641102947295
variable C4neg equal ${d4}
variable C4neg equal -3.6173603081485e-08
variable C5neg equal ${d5}
variable C5neg equal -2.81475283137554e-09
variable C6neg equal ${d6}
variable C6neg equal -7.87163506504412e-09

# Reset box and simulation parameters

clear
read_restart restart.equil remap
  triclinic box = (-0.0212825 -0.0212825 -0.0212825) to (4.27778 4.27778 4.27778) with tilt (0 0 0)
  1 by 1 by 1 MPI processor grid
  8 atoms
include potential.mod
mass 1 24.305
mass 2 15.999

group Mg type 1
4 atoms in group Mg
group O type 2
4 atoms in group O

set group Mg charge 1.6421645765040513
  4 settings made for charge
set group O charge -1.6421645765040513
  4 settings made for charge

variable R_cut equal 10.0

pair_style buck/coul/long ${R_cut}
pair_style buck/coul/long 10
pair_coeff 1 1 0.0 0.5 0.0 ${R_cut}
pair_coeff 1 1 0.0 0.5 0.0 10
pair_coeff 1 2 976.3962522474803 0.3291762116597489 0.0 ${R_cut}
pair_coeff 1 2 976.3962522474803 0.3291762116597489 0.0 10
pair_coeff 2 2 3230.583724315258 0.1848642364786558 56.128495319422115 ${R_cut}
pair_coeff 2 2 3230.583724315258 0.1848642364786558 56.128495319422115 10

kspace_style pppm 1.0e-5

neighbor 1.0 bin
neigh_modify every 1 delay 0 check yes
thermo	1
thermo_style custom step temp pe press pxx pyy pzz pxy pxz pyz lx ly lz vol
thermo_modify norm no

# Positive deformation

variable delta equal ${up}*${len0}
variable delta equal 1e-06*${len0}
variable delta equal 1e-06*4.29906500000002
if "${dir} == 1" then    "change_box all x delta 0 ${delta} remap units box"
if "${dir} == 2" then    "change_box all y delta 0 ${delta} remap units box"
change_box all y delta 0 ${delta} remap units box
change_box all y delta 0 4.29906500000002e-06 remap units box
  triclinic box = (-0.0212825 -0.0212825 -0.0212825) to (4.27778 4.27779 4.27778) with tilt (0 0 0)
if "${dir} == 3" then    "change_box all z delta 0 ${delta} remap units box"
if "${dir} == 4" then    "change_box all yz delta ${delta} remap units box"
if "${dir} == 5" then    "change_box all xz delta ${delta} remap units box"
if "${dir} == 6" then    "change_box all xy delta ${delta} remap units box"

# Relax atoms positions

minimize ${etol} ${ftol} ${maxiter} ${maxeval}
minimize 0 ${ftol} ${maxiter} ${maxeval}
minimize 0 1e-10 ${maxiter} ${maxeval}
minimize 0 1e-10 100 ${maxeval}
minimize 0 1e-10 100 1000
PPPM initialization ...
  using 12-bit tables for long-range coulomb (../kspace.cpp:321)
  G vector (1/distance) = 0.352279
  grid = 8 8 8
  stencil order = 5
  estimated absolute RMS force accuracy = 3.97384e-05
  estimated relative force accuracy = 2.75968e-06
  using double precision FFTs
  3d grid and FFT values/proc = 3375 512
Neighbor list info ...
  update every 1 steps, delay 0 steps, check yes
  max neighbors/atom: 2000, page size: 100000
  master list distance cutoff = 11
  ghost atom cutoff = 11
  binsize = 5.5, bins = 1 1 1
  1 neighbor lists, perpetual/occasional/extra = 1 0 0
  (1) pair buck/coul/long, perpetual
      attributes: half, newton on
      pair build: half/bin/newton/tri
      stencil: half/bin/3d/newton/tri
      bin: standard
Per MPI rank memory allocation (min/avg/max) = 4.629 | 4.629 | 4.629 Mbytes
Step Temp PotEng Press Pxx Pyy Pzz Pxy Pxz Pyz Lx Ly Lz Volume 
     100            0   -93.691907    603774.66    603776.04     603771.9    603776.04 9.012535e-10 8.6967458e-10 8.813275e-10     4.299065    4.2990693     4.299065    79.455226 
     101            0   -93.691908    603774.66    603776.06    603771.87    603776.06 2.6536194e-10 -1.5212638e-10 4.9063056e-10     4.299065    4.2990693     4.299065    79.455226 
     102            0   -93.691911     603774.6    603776.01    603771.77    603776.01 4.1755062e-10 2.9052627e-10 1.2561178e-10     4.299065    4.2990693     4.299065    79.455226 
     103            0   -93.691911     603774.6    603776.01    603771.77    603776.01 4.1755062e-10 2.9052627e-10 1.2561178e-10     4.299065    4.2990693     4.299065    79.455226 
Loop time of 0.00395513 on 1 procs for 3 steps with 8 atoms

101.1% CPU use with 1 MPI tasks x no OpenMP threads

Minimization stats:
  Stopping criterion = linesearch alpha is zero
  Energy initial, next-to-last, final = 
        -93.6919069995     -93.6919113202     -93.6919113202
  Force two-norm initial, final = 0.0038057 3.18685e-06
  Force max component initial, final = 0.000803537 9.03761e-07
  Final line search alpha, max atom move = 0.5 4.5188e-07
  Iterations, force evaluations = 3 11

MPI task timing breakdown:
Section |  min time  |  avg time  |  max time  |%varavg| %total
---------------------------------------------------------------
Pair    | 0.0019431  | 0.0019431  | 0.0019431  |   0.0 | 49.13
Kspace  | 0.0017998  | 0.0017998  | 0.0017998  |   0.0 | 45.51
Neigh   | 0          | 0          | 0          |   0.0 |  0.00
Comm    | 0.0001471  | 0.0001471  | 0.0001471  |   0.0 |  3.72
Output  | 2.0027e-05 | 2.0027e-05 | 2.0027e-05 |   0.0 |  0.51
Modify  | 0          | 0          | 0          |   0.0 |  0.00
Other   |            | 4.506e-05  |            |       |  1.14

Nlocal:    8 ave 8 max 8 min
Histogram: 1 0 0 0 0 0 0 0 0 0
Nghost:    2189 ave 2189 max 2189 min
Histogram: 1 0 0 0 0 0 0 0 0 0
Neighs:    2344 ave 2344 max 2344 min
Histogram: 1 0 0 0 0 0 0 0 0 0

Total # of neighbors = 2344
Ave neighs/atom = 293
Neighbor list builds = 0
Dangerous builds = 0

# Obtain new stress tensor

variable tmp equal pe
variable e1 equal ${tmp}
variable e1 equal -93.6919113201641
variable tmp equal press
variable p1 equal ${tmp}
variable p1 equal 603774.595667211
variable tmp equal pxx
variable pxx1 equal ${tmp}
variable pxx1 equal 603776.008090219
variable tmp equal pyy
variable pyy1 equal ${tmp}
variable pyy1 equal 603771.770821196
variable tmp equal pzz
variable pzz1 equal ${tmp}
variable pzz1 equal 603776.008090219
variable tmp equal pxy
variable pxy1 equal ${tmp}
variable pxy1 equal 4.17550621193948e-10
variable tmp equal pxz
variable pxz1 equal ${tmp}
variable pxz1 equal 2.90526271828776e-10
variable tmp equal pyz
variable pyz1 equal ${tmp}
variable pyz1 equal 1.25611778965685e-10

# Compute elastic constant from pressure tensor

variable C1pos equal ${d1}
variable C1pos equal 288.516263605561
variable C2pos equal ${d2}
variable C2pos equal 712.243165902328
variable C3pos equal ${d3}
variable C3pos equal 288.516263605561
variable C4pos equal ${d4}
variable C4pos equal -1.47695830883188e-08
variable C5pos equal ${d5}
variable C5pos equal -2.24086031862357e-08
variable C6pos equal ${d6}
variable C6pos equal -2.84784116031762e-08

# Combine positive and negative

variable C1${dir} equal 0.5*(${C1neg}+${C1pos})
variable C12 equal 0.5*(${C1neg}+${C1pos})
variable C12 equal 0.5*(27.3641100968234+${C1pos})
variable C12 equal 0.5*(27.3641100968234+288.516263605561)
variable C2${dir} equal 0.5*(${C2neg}+${C2pos})
variable C22 equal 0.5*(${C2neg}+${C2pos})
variable C22 equal 0.5*(481.770181993488+${C2pos})
variable C22 equal 0.5*(481.770181993488+712.243165902328)
variable C3${dir} equal 0.5*(${C3neg}+${C3pos})
variable C32 equal 0.5*(${C3neg}+${C3pos})
variable C32 equal 0.5*(27.3641102947295+${C3pos})
variable C32 equal 0.5*(27.3641102947295+288.516263605561)
variable C4${dir} equal 0.5*(${C4neg}+${C4pos})
variable C42 equal 0.5*(${C4neg}+${C4pos})
variable C42 equal 0.5*(-3.6173603081485e-08+${C4pos})
variable C42 equal 0.5*(-3.6173603081485e-08+-1.47695830883188e-08)
variable C5${dir} equal 0.5*(${C5neg}+${C5pos})
variable C52 equal 0.5*(${C5neg}+${C5pos})
variable C52 equal 0.5*(-2.81475283137554e-09+${C5pos})
variable C52 equal 0.5*(-2.81475283137554e-09+-2.24086031862357e-08)
variable C6${dir} equal 0.5*(${C6neg}+${C6pos})
variable C62 equal 0.5*(${C6neg}+${C6pos})
variable C62 equal 0.5*(-7.87163506504412e-09+${C6pos})
variable C62 equal 0.5*(-7.87163506504412e-09+-2.84784116031762e-08)

# Delete dir to make sure it is not reused

variable dir delete
# ---- uzz Perturbation
variable dir equal 3
include displace.mod
# NOTE: This script should not need to be
# modified. See in.elastic for more info.
# Find which reference length to use

if "${dir} == 1" then    "variable len0 equal ${lx0}"
if "${dir} == 2" then    "variable len0 equal ${ly0}"
if "${dir} == 3" then    "variable len0 equal ${lz0}"
variable len0 equal ${lz0}
variable len0 equal 4.29906500000002
if "${dir} == 4" then    "variable len0 equal ${lz0}"
if "${dir} == 5" then    "variable len0 equal ${lz0}"
if "${dir} == 6" then    "variable len0 equal ${ly0}"

# Reset box and simulation parameters

clear
read_restart restart.equil remap
  triclinic box = (-0.0212825 -0.0212825 -0.0212825) to (4.27778 4.27778 4.27778) with tilt (0 0 0)
  1 by 1 by 1 MPI processor grid
  8 atoms
include potential.mod
mass 1 24.305
mass 2 15.999

group Mg type 1
4 atoms in group Mg
group O type 2
4 atoms in group O

set group Mg charge 1.6421645765040513
  4 settings made for charge
set group O charge -1.6421645765040513
  4 settings made for charge

variable R_cut equal 10.0

pair_style buck/coul/long ${R_cut}
pair_style buck/coul/long 10
pair_coeff 1 1 0.0 0.5 0.0 ${R_cut}
pair_coeff 1 1 0.0 0.5 0.0 10
pair_coeff 1 2 976.3962522474803 0.3291762116597489 0.0 ${R_cut}
pair_coeff 1 2 976.3962522474803 0.3291762116597489 0.0 10
pair_coeff 2 2 3230.583724315258 0.1848642364786558 56.128495319422115 ${R_cut}
pair_coeff 2 2 3230.583724315258 0.1848642364786558 56.128495319422115 10

kspace_style pppm 1.0e-5

neighbor 1.0 bin
neigh_modify every 1 delay 0 check yes
thermo	1
thermo_style custom step temp pe press pxx pyy pzz pxy pxz pyz lx ly lz vol
thermo_modify norm no

# Negative deformation

variable delta equal -${up}*${len0}
variable delta equal -1e-06*${len0}
variable delta equal -1e-06*4.29906500000002
if "${dir} == 1" then    "change_box all x delta 0 ${delta} remap units box"
if "${dir} == 2" then    "change_box all y delta 0 ${delta} remap units box"
if "${dir} == 3" then    "change_box all z delta 0 ${delta} remap units box"
change_box all z delta 0 ${delta} remap units box
change_box all z delta 0 -4.29906500000002e-06 remap units box
  triclinic box = (-0.0212825 -0.0212825 -0.0212825) to (4.27778 4.27778 4.27778) with tilt (0 0 0)
if "${dir} == 4" then    "change_box all yz delta ${delta} remap units box"
if "${dir} == 5" then    "change_box all xz delta ${delta} remap units box"
if "${dir} == 6" then    "change_box all xy delta ${delta} remap units box"

# Relax atoms positions

minimize ${etol} ${ftol} ${maxiter} ${maxeval}
minimize 0 ${ftol} ${maxiter} ${maxeval}
minimize 0 1e-10 ${maxiter} ${maxeval}
minimize 0 1e-10 100 ${maxeval}
minimize 0 1e-10 100 1000
PPPM initialization ...
  using 12-bit tables for long-range coulomb (../kspace.cpp:321)
  G vector (1/distance) = 0.352279
  grid = 8 8 8
  stencil order = 5
  estimated absolute RMS force accuracy = 3.97384e-05
  estimated relative force accuracy = 2.75968e-06
  using double precision FFTs
  3d grid and FFT values/proc = 3375 512
Neighbor list info ...
  update every 1 steps, delay 0 steps, check yes
  max neighbors/atom: 2000, page size: 100000
  master list distance cutoff = 11
  ghost atom cutoff = 11
  binsize = 5.5, bins = 1 1 1
  1 neighbor lists, perpetual/occasional/extra = 1 0 0
  (1) pair buck/coul/long, perpetual
      attributes: half, newton on
      pair build: half/bin/newton/tri
      stencil: half/bin/3d/newton/tri
      bin: standard
Per MPI rank memory allocation (min/avg/max) = 4.629 | 4.629 | 4.629 Mbytes
Step Temp PotEng Press Pxx Pyy Pzz Pxy Pxz Pyz Lx Ly Lz Volume 
     100            0   -93.691851     603780.7    603779.21    603779.21    603783.68 1.7175391e-11 2.0143593e-10 5.2828804e-10     4.299065     4.299065    4.2990607    79.455067 
     101            0   -93.691851    603780.68    603779.17    603779.17    603783.71 4.397802e-10 -4.090313e-11 -9.5567065e-11     4.299065     4.299065    4.2990607    79.455067 
     102            0   -93.691851    603780.68    603779.17    603779.17    603783.71 4.397802e-10 -4.090313e-11 -9.5567065e-11     4.299065     4.299065    4.2990607    79.455067 
Loop time of 0.00262213 on 1 procs for 2 steps with 8 atoms

114.4% CPU use with 1 MPI tasks x no OpenMP threads

Minimization stats:
  Stopping criterion = linesearch alpha is zero
  Energy initial, next-to-last, final = 
        -93.6918506869     -93.6918513783     -93.6918513783
  Force two-norm initial, final = 0.0038068 8.8726e-05
  Force max component initial, final = 0.000803668 1.87774e-05
  Final line search alpha, max atom move = 0.5 9.38872e-06
  Iterations, force evaluations = 2 7

MPI task timing breakdown:
Section |  min time  |  avg time  |  max time  |%varavg| %total
---------------------------------------------------------------
Pair    | 0.0012856  | 0.0012856  | 0.0012856  |   0.0 | 49.03
Kspace  | 0.001195   | 0.001195   | 0.001195   |   0.0 | 45.57
Neigh   | 0          | 0          | 0          |   0.0 |  0.00
Comm    | 0.00010037 | 0.00010037 | 0.00010037 |   0.0 |  3.83
Output  | 1.0967e-05 | 1.0967e-05 | 1.0967e-05 |   0.0 |  0.42
Modify  | 0          | 0          | 0          |   0.0 |  0.00
Other   |            | 3.028e-05  |            |       |  1.15

Nlocal:    8 ave 8 max 8 min
Histogram: 1 0 0 0 0 0 0 0 0 0
Nghost:    2189 ave 2189 max 2189 min
Histogram: 1 0 0 0 0 0 0 0 0 0
Neighs:    2344 ave 2344 max 2344 min
Histogram: 1 0 0 0 0 0 0 0 0 0

Total # of neighbors = 2344
Ave neighs/atom = 293
Neighbor list builds = 0
Dangerous builds = 0

# Obtain new stress tensor

variable tmp equal pxx
variable pxx1 equal ${tmp}
variable pxx1 equal 603779.166893955
variable tmp equal pyy
variable pyy1 equal ${tmp}
variable pyy1 equal 603779.166893957
variable tmp equal pzz
variable pzz1 equal ${tmp}
variable pzz1 equal 603783.710954676
variable tmp equal pxy
variable pxy1 equal ${tmp}
variable pxy1 equal 4.39780195347099e-10
variable tmp equal pxz
variable pxz1 equal ${tmp}
variable pxz1 equal -4.09031304892402e-11
variable tmp equal pyz
variable pyz1 equal ${tmp}
variable pyz1 equal -9.55670650289234e-11

# Compute elastic constant from pressure tensor

variable C1neg equal ${d1}
variable C1neg equal 27.3641099920496
variable C2neg equal ${d2}
variable C2neg equal 27.3641101899557
variable C3neg equal ${d3}
variable C3neg equal 481.770182098262
variable C4neg equal ${d4}
variable C4neg equal -7.34830131114202e-09
variable C5neg equal ${d5}
variable C5neg equal -1.07343370455659e-08
variable C6neg equal ${d6}
variable C6neg equal 3.07013690184913e-08

# Reset box and simulation parameters

clear
read_restart restart.equil remap
  triclinic box = (-0.0212825 -0.0212825 -0.0212825) to (4.27778 4.27778 4.27778) with tilt (0 0 0)
  1 by 1 by 1 MPI processor grid
  8 atoms
include potential.mod
mass 1 24.305
mass 2 15.999

group Mg type 1
4 atoms in group Mg
group O type 2
4 atoms in group O

set group Mg charge 1.6421645765040513
  4 settings made for charge
set group O charge -1.6421645765040513
  4 settings made for charge

variable R_cut equal 10.0

pair_style buck/coul/long ${R_cut}
pair_style buck/coul/long 10
pair_coeff 1 1 0.0 0.5 0.0 ${R_cut}
pair_coeff 1 1 0.0 0.5 0.0 10
pair_coeff 1 2 976.3962522474803 0.3291762116597489 0.0 ${R_cut}
pair_coeff 1 2 976.3962522474803 0.3291762116597489 0.0 10
pair_coeff 2 2 3230.583724315258 0.1848642364786558 56.128495319422115 ${R_cut}
pair_coeff 2 2 3230.583724315258 0.1848642364786558 56.128495319422115 10

kspace_style pppm 1.0e-5

neighbor 1.0 bin
neigh_modify every 1 delay 0 check yes
thermo	1
thermo_style custom step temp pe press pxx pyy pzz pxy pxz pyz lx ly lz vol
thermo_modify norm no

# Positive deformation

variable delta equal ${up}*${len0}
variable delta equal 1e-06*${len0}
variable delta equal 1e-06*4.29906500000002
if "${dir} == 1" then    "change_box all x delta 0 ${delta} remap units box"
if "${dir} == 2" then    "change_box all y delta 0 ${delta} remap units box"
if "${dir} == 3" then    "change_box all z delta 0 ${delta} remap units box"
change_box all z delta 0 ${delta} remap units box
change_box all z delta 0 4.29906500000002e-06 remap units box
  triclinic box = (-0.0212825 -0.0212825 -0.0212825) to (4.27778 4.27778 4.27779) with tilt (0 0 0)
if "${dir} == 4" then    "change_box all yz delta ${delta} remap units box"
if "${dir} == 5" then    "change_box all xz delta ${delta} remap units box"
if "${dir} == 6" then    "change_box all xy delta ${delta} remap units box"

# Relax atoms positions

minimize ${etol} ${ftol} ${maxiter} ${maxeval}
minimize 0 ${ftol} ${maxiter} ${maxeval}
minimize 0 1e-10 ${maxiter} ${maxeval}
minimize 0 1e-10 100 ${maxeval}
minimize 0 1e-10 100 1000
PPPM initialization ...
  using 12-bit tables for long-range coulomb (../kspace.cpp:321)
  G vector (1/distance) = 0.352279
  grid = 8 8 8
  stencil order = 5
  estimated absolute RMS force accuracy = 3.97384e-05
  estimated relative force accuracy = 2.75968e-06
  using double precision FFTs
  3d grid and FFT values/proc = 3375 512
Neighbor list info ...
  update every 1 steps, delay 0 steps, check yes
  max neighbors/atom: 2000, page size: 100000
  master list distance cutoff = 11
  ghost atom cutoff = 11
  binsize = 5.5, bins = 1 1 1
  1 neighbor lists, perpetual/occasional/extra = 1 0 0
  (1) pair buck/coul/long, perpetual
      attributes: half, newton on
      pair build: half/bin/newton/tri
      stencil: half/bin/3d/newton/tri
      bin: standard
Per MPI rank memory allocation (min/avg/max) = 4.629 | 4.629 | 4.629 Mbytes
Step Temp PotEng Press Pxx Pyy Pzz Pxy Pxz Pyz Lx Ly Lz Volume 
     100            0   -93.691907    603774.66    603776.04    603776.04     603771.9 4.6746248e-10 5.4200668e-10 7.4392744e-10     4.299065     4.299065    4.2990693    79.455226 
     101            0   -93.691908    603774.66    603776.06    603776.06    603771.87 3.0960618e-10 -1.1506827e-10 -3.5612597e-10     4.299065     4.299065    4.2990693    79.455226 
     102            0   -93.691911     603774.6    603776.01    603776.01    603771.77 9.0416778e-11 3.7209577e-10 4.5032098e-10     4.299065     4.299065    4.2990693    79.455226 
     103            0   -93.691911     603774.6    603776.01    603776.01    603771.77 9.0416778e-11 3.7209577e-10 4.5032098e-10     4.299065     4.299065    4.2990693    79.455226 
Loop time of 0.00396919 on 1 procs for 3 steps with 8 atoms

100.8% CPU use with 1 MPI tasks x no OpenMP threads

Minimization stats:
  Stopping criterion = linesearch alpha is zero
  Energy initial, next-to-last, final = 
        -93.6919069995     -93.6919113202     -93.6919113202
  Force two-norm initial, final = 0.0038057 3.18685e-06
  Force max component initial, final = 0.000803537 9.03761e-07
  Final line search alpha, max atom move = 0.5 4.5188e-07
  Iterations, force evaluations = 3 11

MPI task timing breakdown:
Section |  min time  |  avg time  |  max time  |%varavg| %total
---------------------------------------------------------------
Pair    | 0.0019228  | 0.0019228  | 0.0019228  |   0.0 | 48.44
Kspace  | 0.0018213  | 0.0018213  | 0.0018213  |   0.0 | 45.89
Neigh   | 0          | 0          | 0          |   0.0 |  0.00
Comm    | 0.00015497 | 0.00015497 | 0.00015497 |   0.0 |  3.90
Output  | 2.2888e-05 | 2.2888e-05 | 2.2888e-05 |   0.0 |  0.58
Modify  | 0          | 0          | 0          |   0.0 |  0.00
Other   |            | 4.721e-05  |            |       |  1.19

Nlocal:    8 ave 8 max 8 min
Histogram: 1 0 0 0 0 0 0 0 0 0
Nghost:    2189 ave 2189 max 2189 min
Histogram: 1 0 0 0 0 0 0 0 0 0
Neighs:    2344 ave 2344 max 2344 min
Histogram: 1 0 0 0 0 0 0 0 0 0

Total # of neighbors = 2344
Ave neighs/atom = 293
Neighbor list builds = 0
Dangerous builds = 0

# Obtain new stress tensor

variable tmp equal pe
variable e1 equal ${tmp}
variable e1 equal -93.6919113201642
variable tmp equal press
variable p1 equal ${tmp}
variable p1 equal 603774.595667211
variable tmp equal pxx
variable pxx1 equal ${tmp}
variable pxx1 equal 603776.008090219
variable tmp equal pyy
variable pyy1 equal ${tmp}
variable pyy1 equal 603776.008090219
variable tmp equal pzz
variable pzz1 equal ${tmp}
variable pzz1 equal 603771.770821196
variable tmp equal pxy
variable pxy1 equal ${tmp}
variable pxy1 equal 9.04167777168583e-11
variable tmp equal pxz
variable pxz1 equal ${tmp}
variable pxz1 equal 3.7209577363943e-10
variable tmp equal pyz
variable pyz1 equal ${tmp}
variable pyz1 equal 4.50320976662878e-10

# Compute elastic constant from pressure tensor

variable C1pos equal ${d1}
variable C1pos equal 288.516263605561
variable C2pos equal ${d2}
variable C2pos equal 288.516263605561
variable C3pos equal ${d3}
variable C3pos equal 712.243165902328
variable C4pos equal ${d4}
variable C4pos equal -4.72405028580381e-08
variable C5pos equal ${d5}
variable C5pos equal -3.05655533673011e-08
variable C6pos equal ${d6}
variable C6pos equal 4.23497274453277e-09

# Combine positive and negative

variable C1${dir} equal 0.5*(${C1neg}+${C1pos})
variable C13 equal 0.5*(${C1neg}+${C1pos})
variable C13 equal 0.5*(27.3641099920496+${C1pos})
variable C13 equal 0.5*(27.3641099920496+288.516263605561)
variable C2${dir} equal 0.5*(${C2neg}+${C2pos})
variable C23 equal 0.5*(${C2neg}+${C2pos})
variable C23 equal 0.5*(27.3641101899557+${C2pos})
variable C23 equal 0.5*(27.3641101899557+288.516263605561)
variable C3${dir} equal 0.5*(${C3neg}+${C3pos})
variable C33 equal 0.5*(${C3neg}+${C3pos})
variable C33 equal 0.5*(481.770182098262+${C3pos})
variable C33 equal 0.5*(481.770182098262+712.243165902328)
variable C4${dir} equal 0.5*(${C4neg}+${C4pos})
variable C43 equal 0.5*(${C4neg}+${C4pos})
variable C43 equal 0.5*(-7.34830131114202e-09+${C4pos})
variable C43 equal 0.5*(-7.34830131114202e-09+-4.72405028580381e-08)
variable C5${dir} equal 0.5*(${C5neg}+${C5pos})
variable C53 equal 0.5*(${C5neg}+${C5pos})
variable C53 equal 0.5*(-1.07343370455659e-08+${C5pos})
variable C53 equal 0.5*(-1.07343370455659e-08+-3.05655533673011e-08)
variable C6${dir} equal 0.5*(${C6neg}+${C6pos})
variable C63 equal 0.5*(${C6neg}+${C6pos})
variable C63 equal 0.5*(3.07013690184913e-08+${C6pos})
variable C63 equal 0.5*(3.07013690184913e-08+4.23497274453277e-09)

# Delete dir to make sure it is not reused

variable dir delete
# ---- uyz Perturbation
variable dir equal 4
include displace.mod
# NOTE: This script should not need to be
# modified. See in.elastic for more info.
# Find which reference length to use

if "${dir} == 1" then    "variable len0 equal ${lx0}"
if "${dir} == 2" then    "variable len0 equal ${ly0}"
if "${dir} == 3" then    "variable len0 equal ${lz0}"
if "${dir} == 4" then    "variable len0 equal ${lz0}"
variable len0 equal ${lz0}
variable len0 equal 4.29906500000002
if "${dir} == 5" then    "variable len0 equal ${lz0}"
if "${dir} == 6" then    "variable len0 equal ${ly0}"

# Reset box and simulation parameters

clear
read_restart restart.equil remap
  triclinic box = (-0.0212825 -0.0212825 -0.0212825) to (4.27778 4.27778 4.27778) with tilt (0 0 0)
  1 by 1 by 1 MPI processor grid
  8 atoms
include potential.mod
mass 1 24.305
mass 2 15.999

group Mg type 1
4 atoms in group Mg
group O type 2
4 atoms in group O

set group Mg charge 1.6421645765040513
  4 settings made for charge
set group O charge -1.6421645765040513
  4 settings made for charge

variable R_cut equal 10.0

pair_style buck/coul/long ${R_cut}
pair_style buck/coul/long 10
pair_coeff 1 1 0.0 0.5 0.0 ${R_cut}
pair_coeff 1 1 0.0 0.5 0.0 10
pair_coeff 1 2 976.3962522474803 0.3291762116597489 0.0 ${R_cut}
pair_coeff 1 2 976.3962522474803 0.3291762116597489 0.0 10
pair_coeff 2 2 3230.583724315258 0.1848642364786558 56.128495319422115 ${R_cut}
pair_coeff 2 2 3230.583724315258 0.1848642364786558 56.128495319422115 10

kspace_style pppm 1.0e-5

neighbor 1.0 bin
neigh_modify every 1 delay 0 check yes
thermo	1
thermo_style custom step temp pe press pxx pyy pzz pxy pxz pyz lx ly lz vol
thermo_modify norm no

# Negative deformation

variable delta equal -${up}*${len0}
variable delta equal -1e-06*${len0}
variable delta equal -1e-06*4.29906500000002
if "${dir} == 1" then    "change_box all x delta 0 ${delta} remap units box"
if "${dir} == 2" then    "change_box all y delta 0 ${delta} remap units box"
if "${dir} == 3" then    "change_box all z delta 0 ${delta} remap units box"
if "${dir} == 4" then    "change_box all yz delta ${delta} remap units box"
change_box all yz delta ${delta} remap units box
change_box all yz delta -4.29906500000002e-06 remap units box
  triclinic box = (-0.0212825 -0.0212825 -0.0212825) to (4.27778 4.27778 4.27778) with tilt (0 0 -4.29907e-06)
if "${dir} == 5" then    "change_box all xz delta ${delta} remap units box"
if "${dir} == 6" then    "change_box all xy delta ${delta} remap units box"

# Relax atoms positions

minimize ${etol} ${ftol} ${maxiter} ${maxeval}
minimize 0 ${ftol} ${maxiter} ${maxeval}
minimize 0 1e-10 ${maxiter} ${maxeval}
minimize 0 1e-10 100 ${maxeval}
minimize 0 1e-10 100 1000
PPPM initialization ...
  using 12-bit tables for long-range coulomb (../kspace.cpp:321)
  G vector (1/distance) = 0.352279
  grid = 8 8 8
  stencil order = 5
  estimated absolute RMS force accuracy = 3.97384e-05
  estimated relative force accuracy = 2.75968e-06
  using double precision FFTs
  3d grid and FFT values/proc = 3375 512
Neighbor list info ...
  update every 1 steps, delay 0 steps, check yes
  max neighbors/atom: 2000, page size: 100000
  master list distance cutoff = 11
  ghost atom cutoff = 11
  binsize = 5.5, bins = 1 1 1
  1 neighbor lists, perpetual/occasional/extra = 1 0 0
  (1) pair buck/coul/long, perpetual
      attributes: half, newton on
      pair build: half/bin/newton/tri
      stencil: half/bin/3d/newton/tri
      bin: standard
Per MPI rank memory allocation (min/avg/max) = 4.629 | 4.629 | 4.629 Mbytes
Step Temp PotEng Press Pxx Pyy Pzz Pxy Pxz Pyz Lx Ly Lz Volume 
     100            0   -93.691883    603777.62     603777.6    603777.63    603777.63 -3.6605423e-11 6.5386992e-10   0.36531283     4.299065     4.299065     4.299065    79.455147 
     101            0   -93.691884     603777.6    603777.55    603777.62    603777.62 -3.1363736e-10 2.769564e-11   0.36358509     4.299065     4.299065     4.299065    79.455147 
     102            0   -93.691884     603777.6    603777.55    603777.62    603777.62 -3.3616981e-10 -4.3385886e-10   0.36358509     4.299065     4.299065     4.299065    79.455147 
Loop time of 0.00253916 on 1 procs for 2 steps with 8 atoms

118.1% CPU use with 1 MPI tasks x no OpenMP threads

Minimization stats:
  Stopping criterion = linesearch alpha is zero
  Energy initial, next-to-last, final = 
        -93.6918830591     -93.6918837739     -93.6918837739
  Force two-norm initial, final = 0.00380639 8.89457e-05
  Force max component initial, final = 0.00080369 1.87897e-05
  Final line search alpha, max atom move = 0.5 9.39483e-06
  Iterations, force evaluations = 2 7

MPI task timing breakdown:
Section |  min time  |  avg time  |  max time  |%varavg| %total
---------------------------------------------------------------
Pair    | 0.0012789  | 0.0012789  | 0.0012789  |   0.0 | 50.37
Kspace  | 0.0011199  | 0.0011199  | 0.0011199  |   0.0 | 44.10
Neigh   | 0          | 0          | 0          |   0.0 |  0.00
Comm    | 9.6083e-05 | 9.6083e-05 | 9.6083e-05 |   0.0 |  3.78
Output  | 1.0967e-05 | 1.0967e-05 | 1.0967e-05 |   0.0 |  0.43
Modify  | 0          | 0          | 0          |   0.0 |  0.00
Other   |            | 3.338e-05  |            |       |  1.31

Nlocal:    8 ave 8 max 8 min
Histogram: 1 0 0 0 0 0 0 0 0 0
Nghost:    2189 ave 2189 max 2189 min
Histogram: 1 0 0 0 0 0 0 0 0 0
Neighs:    2344 ave 2344 max 2344 min
Histogram: 1 0 0 0 0 0 0 0 0 0

Total # of neighbors = 2344
Ave neighs/atom = 293
Neighbor list builds = 0
Dangerous builds = 0

# Obtain new stress tensor

variable tmp equal pxx
variable pxx1 equal ${tmp}
variable pxx1 equal 603777.546236931
variable tmp equal pyy
variable pyy1 equal ${tmp}
variable pyy1 equal 603777.620491714
variable tmp equal pzz
variable pzz1 equal ${tmp}
variable pzz1 equal 603777.620489122
variable tmp equal pxy
variable pxy1 equal ${tmp}
variable pxy1 equal -3.36169808305324e-10
variable tmp equal pxz
variable pxz1 equal ${tmp}
variable pxz1 equal -4.33858864198247e-10
variable tmp equal pyz
variable pyz1 equal ${tmp}
variable pyz1 equal 0.363585092125028

# Compute elastic constant from pressure tensor

variable C1neg equal ${d1}
variable C1neg equal -134.701592405327
variable C2neg equal ${d2}
variable C2neg equal -127.276114106644
variable C3neg equal ${d3}
variable C3neg equal -127.276373305358
variable C4neg equal ${d4}
variable C4neg equal 36.3585092147112
variable C5neg equal ${d5}
variable C5neg equal -5.00299104164666e-08
variable C6neg equal ${d6}
variable C6neg equal -4.6893631346751e-08

# Reset box and simulation parameters

clear
read_restart restart.equil remap
  triclinic box = (-0.0212825 -0.0212825 -0.0212825) to (4.27778 4.27778 4.27778) with tilt (0 0 0)
  1 by 1 by 1 MPI processor grid
  8 atoms
include potential.mod
mass 1 24.305
mass 2 15.999

group Mg type 1
4 atoms in group Mg
group O type 2
4 atoms in group O

set group Mg charge 1.6421645765040513
  4 settings made for charge
set group O charge -1.6421645765040513
  4 settings made for charge

variable R_cut equal 10.0

pair_style buck/coul/long ${R_cut}
pair_style buck/coul/long 10
pair_coeff 1 1 0.0 0.5 0.0 ${R_cut}
pair_coeff 1 1 0.0 0.5 0.0 10
pair_coeff 1 2 976.3962522474803 0.3291762116597489 0.0 ${R_cut}
pair_coeff 1 2 976.3962522474803 0.3291762116597489 0.0 10
pair_coeff 2 2 3230.583724315258 0.1848642364786558 56.128495319422115 ${R_cut}
pair_coeff 2 2 3230.583724315258 0.1848642364786558 56.128495319422115 10

kspace_style pppm 1.0e-5

neighbor 1.0 bin
neigh_modify every 1 delay 0 check yes
thermo	1
thermo_style custom step temp pe press pxx pyy pzz pxy pxz pyz lx ly lz vol
thermo_modify norm no

# Positive deformation

variable delta equal ${up}*${len0}
variable delta equal 1e-06*${len0}
variable delta equal 1e-06*4.29906500000002
if "${dir} == 1" then    "change_box all x delta 0 ${delta} remap units box"
if "${dir} == 2" then    "change_box all y delta 0 ${delta} remap units box"
if "${dir} == 3" then    "change_box all z delta 0 ${delta} remap units box"
if "${dir} == 4" then    "change_box all yz delta ${delta} remap units box"
change_box all yz delta ${delta} remap units box
change_box all yz delta 4.29906500000002e-06 remap units box
  triclinic box = (-0.0212825 -0.0212825 -0.0212825) to (4.27778 4.27778 4.27778) with tilt (0 0 4.29907e-06)
if "${dir} == 5" then    "change_box all xz delta ${delta} remap units box"
if "${dir} == 6" then    "change_box all xy delta ${delta} remap units box"

# Relax atoms positions

minimize ${etol} ${ftol} ${maxiter} ${maxeval}
minimize 0 ${ftol} ${maxiter} ${maxeval}
minimize 0 1e-10 ${maxiter} ${maxeval}
minimize 0 1e-10 100 ${maxeval}
minimize 0 1e-10 100 1000
PPPM initialization ...
  using 12-bit tables for long-range coulomb (../kspace.cpp:321)
  G vector (1/distance) = 0.352279
  grid = 8 8 8
  stencil order = 5
  estimated absolute RMS force accuracy = 3.97384e-05
  estimated relative force accuracy = 2.75968e-06
  using double precision FFTs
  3d grid and FFT values/proc = 3375 512
Neighbor list info ...
  update every 1 steps, delay 0 steps, check yes
  max neighbors/atom: 2000, page size: 100000
  master list distance cutoff = 11
  ghost atom cutoff = 11
  binsize = 5.5, bins = 1 1 1
  1 neighbor lists, perpetual/occasional/extra = 1 0 0
  (1) pair buck/coul/long, perpetual
      attributes: half, newton on
      pair build: half/bin/newton/tri
      stencil: half/bin/3d/newton/tri
      bin: standard
Per MPI rank memory allocation (min/avg/max) = 4.629 | 4.629 | 4.629 Mbytes
Step Temp PotEng Press Pxx Pyy Pzz Pxy Pxz Pyz Lx Ly Lz Volume 
     100            0   -93.691883    603777.62     603777.6    603777.63    603777.63 -4.1731407e-10 -3.1938491e-10  -0.36531283     4.299065     4.299065     4.299065    79.455147 
     101            0   -93.691884     603777.6    603777.55    603777.62    603777.62 -6.538111e-10 9.4402904e-11  -0.36358509     4.299065     4.299065     4.299065    79.455147 
     102            0   -93.691884     603777.6    603777.55    603777.62    603777.62 -5.1936475e-10 1.2070779e-10  -0.36358509     4.299065     4.299065     4.299065    79.455147 
Loop time of 0.00255299 on 1 procs for 2 steps with 8 atoms

117.5% CPU use with 1 MPI tasks x no OpenMP threads

Minimization stats:
  Stopping criterion = linesearch alpha is zero
  Energy initial, next-to-last, final = 
        -93.6918830595     -93.6918837742     -93.6918837742
  Force two-norm initial, final = 0.00380639 8.89457e-05
  Force max component initial, final = 0.00080369 1.87897e-05
  Final line search alpha, max atom move = 0.5 9.39483e-06
  Iterations, force evaluations = 2 7

MPI task timing breakdown:
Section |  min time  |  avg time  |  max time  |%varavg| %total
---------------------------------------------------------------
Pair    | 0.0012968  | 0.0012968  | 0.0012968  |   0.0 | 50.79
Kspace  | 0.001116   | 0.001116   | 0.001116   |   0.0 | 43.71
Neigh   | 0          | 0          | 0          |   0.0 |  0.00
Comm    | 9.5606e-05 | 9.5606e-05 | 9.5606e-05 |   0.0 |  3.74
Output  | 1.2159e-05 | 1.2159e-05 | 1.2159e-05 |   0.0 |  0.48
Modify  | 0          | 0          | 0          |   0.0 |  0.00
Other   |            | 3.242e-05  |            |       |  1.27

Nlocal:    8 ave 8 max 8 min
Histogram: 1 0 0 0 0 0 0 0 0 0
Nghost:    2189 ave 2189 max 2189 min
Histogram: 1 0 0 0 0 0 0 0 0 0
Neighs:    2344 ave 2344 max 2344 min
Histogram: 1 0 0 0 0 0 0 0 0 0

Total # of neighbors = 2344
Ave neighs/atom = 293
Neighbor list builds = 0
Dangerous builds = 0

# Obtain new stress tensor

variable tmp equal pe
variable e1 equal ${tmp}
variable e1 equal -93.6918837742484
variable tmp equal press
variable p1 equal ${tmp}
variable p1 equal 603777.595670246
variable tmp equal pxx
variable pxx1 equal ${tmp}
variable pxx1 equal 603777.546167913
variable tmp equal pyy
variable pyy1 equal ${tmp}
variable pyy1 equal 603777.620422708
variable tmp equal pzz
variable pzz1 equal ${tmp}
variable pzz1 equal 603777.620420117
variable tmp equal pxy
variable pxy1 equal ${tmp}
variable pxy1 equal -5.19364754514621e-10
variable tmp equal pxz
variable pxz1 equal ${tmp}
variable pxz1 equal 1.20707790028688e-10
variable tmp equal pyz
variable pyz1 equal ${tmp}
variable pyz1 equal -0.363585093182389

# Compute elastic constant from pressure tensor

variable C1pos equal ${d1}
variable C1pos equal 134.708494204096
variable C2pos equal ${d2}
variable C2pos equal 127.283014706336
variable C3pos equal ${d3}
variable C3pos equal 127.283273800276
variable C4pos equal ${d4}
variable C4pos equal 36.3585093160305
variable C5pos equal ${d5}
variable C5pos equal -5.42675500622693e-09
variable C6pos equal ${d6}
variable C6pos equal 6.52131259676807e-08

# Combine positive and negative

variable C1${dir} equal 0.5*(${C1neg}+${C1pos})
variable C14 equal 0.5*(${C1neg}+${C1pos})
variable C14 equal 0.5*(-134.701592405327+${C1pos})
variable C14 equal 0.5*(-134.701592405327+134.708494204096)
variable C2${dir} equal 0.5*(${C2neg}+${C2pos})
variable C24 equal 0.5*(${C2neg}+${C2pos})
variable C24 equal 0.5*(-127.276114106644+${C2pos})
variable C24 equal 0.5*(-127.276114106644+127.283014706336)
variable C3${dir} equal 0.5*(${C3neg}+${C3pos})
variable C34 equal 0.5*(${C3neg}+${C3pos})
variable C34 equal 0.5*(-127.276373305358+${C3pos})
variable C34 equal 0.5*(-127.276373305358+127.283273800276)
variable C4${dir} equal 0.5*(${C4neg}+${C4pos})
variable C44 equal 0.5*(${C4neg}+${C4pos})
variable C44 equal 0.5*(36.3585092147112+${C4pos})
variable C44 equal 0.5*(36.3585092147112+36.3585093160305)
variable C5${dir} equal 0.5*(${C5neg}+${C5pos})
variable C54 equal 0.5*(${C5neg}+${C5pos})
variable C54 equal 0.5*(-5.00299104164666e-08+${C5pos})
variable C54 equal 0.5*(-5.00299104164666e-08+-5.42675500622693e-09)
variable C6${dir} equal 0.5*(${C6neg}+${C6pos})
variable C64 equal 0.5*(${C6neg}+${C6pos})
variable C64 equal 0.5*(-4.6893631346751e-08+${C6pos})
variable C64 equal 0.5*(-4.6893631346751e-08+6.52131259676807e-08)

# Delete dir to make sure it is not reused

variable dir delete
# ---- uxz Perturbation
variable dir equal 5
include displace.mod
# NOTE: This script should not need to be
# modified. See in.elastic for more info.
# Find which reference length to use

if "${dir} == 1" then    "variable len0 equal ${lx0}"
if "${dir} == 2" then    "variable len0 equal ${ly0}"
if "${dir} == 3" then    "variable len0 equal ${lz0}"
if "${dir} == 4" then    "variable len0 equal ${lz0}"
if "${dir} == 5" then    "variable len0 equal ${lz0}"
variable len0 equal ${lz0}
variable len0 equal 4.29906500000002
if "${dir} == 6" then    "variable len0 equal ${ly0}"

# Reset box and simulation parameters

clear
read_restart restart.equil remap
  triclinic box = (-0.0212825 -0.0212825 -0.0212825) to (4.27778 4.27778 4.27778) with tilt (0 0 0)
  1 by 1 by 1 MPI processor grid
  8 atoms
include potential.mod
mass 1 24.305
mass 2 15.999

group Mg type 1
4 atoms in group Mg
group O type 2
4 atoms in group O

set group Mg charge 1.6421645765040513
  4 settings made for charge
set group O charge -1.6421645765040513
  4 settings made for charge

variable R_cut equal 10.0

pair_style buck/coul/long ${R_cut}
pair_style buck/coul/long 10
pair_coeff 1 1 0.0 0.5 0.0 ${R_cut}
pair_coeff 1 1 0.0 0.5 0.0 10
pair_coeff 1 2 976.3962522474803 0.3291762116597489 0.0 ${R_cut}
pair_coeff 1 2 976.3962522474803 0.3291762116597489 0.0 10
pair_coeff 2 2 3230.583724315258 0.1848642364786558 56.128495319422115 ${R_cut}
pair_coeff 2 2 3230.583724315258 0.1848642364786558 56.128495319422115 10

kspace_style pppm 1.0e-5

neighbor 1.0 bin
neigh_modify every 1 delay 0 check yes
thermo	1
thermo_style custom step temp pe press pxx pyy pzz pxy pxz pyz lx ly lz vol
thermo_modify norm no

# Negative deformation

variable delta equal -${up}*${len0}
variable delta equal -1e-06*${len0}
variable delta equal -1e-06*4.29906500000002
if "${dir} == 1" then    "change_box all x delta 0 ${delta} remap units box"
if "${dir} == 2" then    "change_box all y delta 0 ${delta} remap units box"
if "${dir} == 3" then    "change_box all z delta 0 ${delta} remap units box"
if "${dir} == 4" then    "change_box all yz delta ${delta} remap units box"
if "${dir} == 5" then    "change_box all xz delta ${delta} remap units box"
change_box all xz delta ${delta} remap units box
change_box all xz delta -4.29906500000002e-06 remap units box
  triclinic box = (-0.0212825 -0.0212825 -0.0212825) to (4.27778 4.27778 4.27778) with tilt (0 -4.29907e-06 0)
if "${dir} == 6" then    "change_box all xy delta ${delta} remap units box"

# Relax atoms positions

minimize ${etol} ${ftol} ${maxiter} ${maxeval}
minimize 0 ${ftol} ${maxiter} ${maxeval}
minimize 0 1e-10 ${maxiter} ${maxeval}
minimize 0 1e-10 100 ${maxeval}
minimize 0 1e-10 100 1000
PPPM initialization ...
  using 12-bit tables for long-range coulomb (../kspace.cpp:321)
  G vector (1/distance) = 0.352279
  grid = 8 8 8
  stencil order = 5
  estimated absolute RMS force accuracy = 3.97384e-05
  estimated relative force accuracy = 2.75968e-06
  using double precision FFTs
  3d grid and FFT values/proc = 3375 512
Neighbor list info ...
  update every 1 steps, delay 0 steps, check yes
  max neighbors/atom: 2000, page size: 100000
  master list distance cutoff = 11
  ghost atom cutoff = 11
  binsize = 5.5, bins = 1 1 1
  1 neighbor lists, perpetual/occasional/extra = 1 0 0
  (1) pair buck/coul/long, perpetual
      attributes: half, newton on
      pair build: half/bin/newton/tri
      stencil: half/bin/3d/newton/tri
      bin: standard
Per MPI rank memory allocation (min/avg/max) = 4.629 | 4.629 | 4.629 Mbytes
Step Temp PotEng Press Pxx Pyy Pzz Pxy Pxz Pyz Lx Ly Lz Volume 
     100            0   -93.691883    603777.62    603777.63     603777.6    603777.63 -7.9779026e-10   0.36531283 6.9041419e-10     4.299065     4.299065     4.299065    79.455147 
     101            0   -93.691884     603777.6    603777.62    603777.55    603777.62 -2.3230832e-10   0.36358509 -2.5145241e-10     4.299065     4.299065     4.299065    79.455147 
     102            0   -93.691884     603777.6    603777.62    603777.55    603777.62 8.8539659e-11   0.36358509 1.077343e-10     4.299065     4.299065     4.299065    79.455147 
Loop time of 0.00255013 on 1 procs for 2 steps with 8 atoms

117.6% CPU use with 1 MPI tasks x no OpenMP threads

Minimization stats:
  Stopping criterion = linesearch alpha is zero
  Energy initial, next-to-last, final = 
        -93.6918830591     -93.6918837739     -93.6918837739
  Force two-norm initial, final = 0.00380639 8.89457e-05
  Force max component initial, final = 0.00080369 1.87897e-05
  Final line search alpha, max atom move = 0.5 9.39483e-06
  Iterations, force evaluations = 2 7

MPI task timing breakdown:
Section |  min time  |  avg time  |  max time  |%varavg| %total
---------------------------------------------------------------
Pair    | 0.0012927  | 0.0012927  | 0.0012927  |   0.0 | 50.69
Kspace  | 0.0011151  | 0.0011151  | 0.0011151  |   0.0 | 43.73
Neigh   | 0          | 0          | 0          |   0.0 |  0.00
Comm    | 9.656e-05  | 9.656e-05  | 9.656e-05  |   0.0 |  3.79
Output  | 1.0967e-05 | 1.0967e-05 | 1.0967e-05 |   0.0 |  0.43
Modify  | 0          | 0          | 0          |   0.0 |  0.00
Other   |            | 3.481e-05  |            |       |  1.36

Nlocal:    8 ave 8 max 8 min
Histogram: 1 0 0 0 0 0 0 0 0 0
Nghost:    2189 ave 2189 max 2189 min
Histogram: 1 0 0 0 0 0 0 0 0 0
Neighs:    2344 ave 2344 max 2344 min
Histogram: 1 0 0 0 0 0 0 0 0 0

Total # of neighbors = 2344
Ave neighs/atom = 293
Neighbor list builds = 0
Dangerous builds = 0

# Obtain new stress tensor

variable tmp equal pxx
variable pxx1 equal ${tmp}
variable pxx1 equal 603777.620491714
variable tmp equal pyy
variable pyy1 equal ${tmp}
variable pyy1 equal 603777.546236931
variable tmp equal pzz
variable pzz1 equal ${tmp}
variable pzz1 equal 603777.620489122
variable tmp equal pxy
variable pxy1 equal ${tmp}
variable pxy1 equal 8.85396593642512e-11
variable tmp equal pxz
variable pxz1 equal ${tmp}
variable pxz1 equal 0.363585092597903
variable tmp equal pyz
variable pyz1 equal ${tmp}
variable pyz1 equal 1.07734303445207e-10

# Compute elastic constant from pressure tensor

variable C1neg equal ${d1}
variable C1neg equal -127.276114106644
variable C2neg equal ${d2}
variable C2neg equal -134.701592405327
variable C3neg equal ${d3}
variable C3neg equal -127.276373305358
variable C4neg equal ${d4}
variable C4neg equal 1.2981835536271e-08
variable C5neg equal ${d5}
variable C5neg equal 36.3585092531463
variable C6neg equal ${d6}
variable C6neg equal -4.42268457979348e-09

# Reset box and simulation parameters

clear
read_restart restart.equil remap
  triclinic box = (-0.0212825 -0.0212825 -0.0212825) to (4.27778 4.27778 4.27778) with tilt (0 0 0)
  1 by 1 by 1 MPI processor grid
  8 atoms
include potential.mod
mass 1 24.305
mass 2 15.999

group Mg type 1
4 atoms in group Mg
group O type 2
4 atoms in group O

set group Mg charge 1.6421645765040513
  4 settings made for charge
set group O charge -1.6421645765040513
  4 settings made for charge

variable R_cut equal 10.0

pair_style buck/coul/long ${R_cut}
pair_style buck/coul/long 10
pair_coeff 1 1 0.0 0.5 0.0 ${R_cut}
pair_coeff 1 1 0.0 0.5 0.0 10
pair_coeff 1 2 976.3962522474803 0.3291762116597489 0.0 ${R_cut}
pair_coeff 1 2 976.3962522474803 0.3291762116597489 0.0 10
pair_coeff 2 2 3230.583724315258 0.1848642364786558 56.128495319422115 ${R_cut}
pair_coeff 2 2 3230.583724315258 0.1848642364786558 56.128495319422115 10

kspace_style pppm 1.0e-5

neighbor 1.0 bin
neigh_modify every 1 delay 0 check yes
thermo	1
thermo_style custom step temp pe press pxx pyy pzz pxy pxz pyz lx ly lz vol
thermo_modify norm no

# Positive deformation

variable delta equal ${up}*${len0}
variable delta equal 1e-06*${len0}
variable delta equal 1e-06*4.29906500000002
if "${dir} == 1" then    "change_box all x delta 0 ${delta} remap units box"
if "${dir} == 2" then    "change_box all y delta 0 ${delta} remap units box"
if "${dir} == 3" then    "change_box all z delta 0 ${delta} remap units box"
if "${dir} == 4" then    "change_box all yz delta ${delta} remap units box"
if "${dir} == 5" then    "change_box all xz delta ${delta} remap units box"
change_box all xz delta ${delta} remap units box
change_box all xz delta 4.29906500000002e-06 remap units box
  triclinic box = (-0.0212825 -0.0212825 -0.0212825) to (4.27778 4.27778 4.27778) with tilt (0 4.29907e-06 0)
if "${dir} == 6" then    "change_box all xy delta ${delta} remap units box"

# Relax atoms positions

minimize ${etol} ${ftol} ${maxiter} ${maxeval}
minimize 0 ${ftol} ${maxiter} ${maxeval}
minimize 0 1e-10 ${maxiter} ${maxeval}
minimize 0 1e-10 100 ${maxeval}
minimize 0 1e-10 100 1000
PPPM initialization ...
  using 12-bit tables for long-range coulomb (../kspace.cpp:321)
  G vector (1/distance) = 0.352279
  grid = 8 8 8
  stencil order = 5
  estimated absolute RMS force accuracy = 3.97384e-05
  estimated relative force accuracy = 2.75968e-06
  using double precision FFTs
  3d grid and FFT values/proc = 3375 512
Neighbor list info ...
  update every 1 steps, delay 0 steps, check yes
  max neighbors/atom: 2000, page size: 100000
  master list distance cutoff = 11
  ghost atom cutoff = 11
  binsize = 5.5, bins = 1 1 1
  1 neighbor lists, perpetual/occasional/extra = 1 0 0
  (1) pair buck/coul/long, perpetual
      attributes: half, newton on
      pair build: half/bin/newton/tri
      stencil: half/bin/3d/newton/tri
      bin: standard
Per MPI rank memory allocation (min/avg/max) = 4.629 | 4.629 | 4.629 Mbytes
Step Temp PotEng Press Pxx Pyy Pzz Pxy Pxz Pyz Lx Ly Lz Volume 
     100            0   -93.691883    603777.62    603777.63     603777.6    603777.63 -4.3780662e-10  -0.36531283 -1.9773288e-10     4.299065     4.299065     4.299065    79.455147 
     101            0   -93.691884     603777.6    603777.62    603777.55    603777.62 1.5080909e-10  -0.36358509 -7.9472065e-11     4.299065     4.299065     4.299065    79.455147 
     102            0   -93.691884     603777.6    603777.62    603777.55    603777.62 1.5080909e-10  -0.36358509 -7.9472065e-11     4.299065     4.299065     4.299065    79.455147 
Loop time of 0.00257111 on 1 procs for 2 steps with 8 atoms

116.6% CPU use with 1 MPI tasks x no OpenMP threads

Minimization stats:
  Stopping criterion = linesearch alpha is zero
  Energy initial, next-to-last, final = 
        -93.6918830595     -93.6918837742     -93.6918837742
  Force two-norm initial, final = 0.00380639 8.89457e-05
  Force max component initial, final = 0.00080369 1.87897e-05
  Final line search alpha, max atom move = 0.5 9.39483e-06
  Iterations, force evaluations = 2 7

MPI task timing breakdown:
Section |  min time  |  avg time  |  max time  |%varavg| %total
---------------------------------------------------------------
Pair    | 0.0012996  | 0.0012996  | 0.0012996  |   0.0 | 50.55
Kspace  | 0.0011308  | 0.0011308  | 0.0011308  |   0.0 | 43.98
Neigh   | 0          | 0          | 0          |   0.0 |  0.00
Comm    | 9.5844e-05 | 9.5844e-05 | 9.5844e-05 |   0.0 |  3.73
Output  | 1.0967e-05 | 1.0967e-05 | 1.0967e-05 |   0.0 |  0.43
Modify  | 0          | 0          | 0          |   0.0 |  0.00
Other   |            | 3.386e-05  |            |       |  1.32

Nlocal:    8 ave 8 max 8 min
Histogram: 1 0 0 0 0 0 0 0 0 0
Nghost:    2189 ave 2189 max 2189 min
Histogram: 1 0 0 0 0 0 0 0 0 0
Neighs:    2344 ave 2344 max 2344 min
Histogram: 1 0 0 0 0 0 0 0 0 0

Total # of neighbors = 2344
Ave neighs/atom = 293
Neighbor list builds = 0
Dangerous builds = 0

# Obtain new stress tensor

variable tmp equal pe
variable e1 equal ${tmp}
variable e1 equal -93.6918837742484
variable tmp equal press
variable p1 equal ${tmp}
variable p1 equal 603777.595670247
variable tmp equal pxx
variable pxx1 equal ${tmp}
variable pxx1 equal 603777.620422709
variable tmp equal pyy
variable pyy1 equal ${tmp}
variable pyy1 equal 603777.546167914
variable tmp equal pzz
variable pzz1 equal ${tmp}
variable pzz1 equal 603777.620420117
variable tmp equal pxy
variable pxy1 equal ${tmp}
variable pxy1 equal 1.50809094276585e-10
variable tmp equal pxz
variable pxz1 equal ${tmp}
variable pxz1 equal -0.363585093360349
variable tmp equal pyz
variable pyz1 equal ${tmp}
variable pyz1 equal -7.94720652659348e-11

# Compute elastic constant from pressure tensor

variable C1pos equal ${d1}
variable C1pos equal 127.283014601562
variable C2pos equal ${d2}
variable C2pos equal 134.708494099323
variable C3pos equal ${d3}
variable C3pos equal 127.283273800276
variable C4pos equal ${d4}
variable C4pos equal 5.73880133484316e-09
variable C5pos equal ${d5}
variable C5pos equal 36.3585093426789
variable C6pos equal ${d6}
variable C6pos equal -1.8042589114399e-09

# Combine positive and negative

variable C1${dir} equal 0.5*(${C1neg}+${C1pos})
variable C15 equal 0.5*(${C1neg}+${C1pos})
variable C15 equal 0.5*(-127.276114106644+${C1pos})
variable C15 equal 0.5*(-127.276114106644+127.283014601562)
variable C2${dir} equal 0.5*(${C2neg}+${C2pos})
variable C25 equal 0.5*(${C2neg}+${C2pos})
variable C25 equal 0.5*(-134.701592405327+${C2pos})
variable C25 equal 0.5*(-134.701592405327+134.708494099323)
variable C3${dir} equal 0.5*(${C3neg}+${C3pos})
variable C35 equal 0.5*(${C3neg}+${C3pos})
variable C35 equal 0.5*(-127.276373305358+${C3pos})
variable C35 equal 0.5*(-127.276373305358+127.283273800276)
variable C4${dir} equal 0.5*(${C4neg}+${C4pos})
variable C45 equal 0.5*(${C4neg}+${C4pos})
variable C45 equal 0.5*(1.2981835536271e-08+${C4pos})
variable C45 equal 0.5*(1.2981835536271e-08+5.73880133484316e-09)
variable C5${dir} equal 0.5*(${C5neg}+${C5pos})
variable C55 equal 0.5*(${C5neg}+${C5pos})
variable C55 equal 0.5*(36.3585092531463+${C5pos})
variable C55 equal 0.5*(36.3585092531463+36.3585093426789)
variable C6${dir} equal 0.5*(${C6neg}+${C6pos})
variable C65 equal 0.5*(${C6neg}+${C6pos})
variable C65 equal 0.5*(-4.42268457979348e-09+${C6pos})
variable C65 equal 0.5*(-4.42268457979348e-09+-1.8042589114399e-09)

# Delete dir to make sure it is not reused

variable dir delete
# ---- uxy Perturbation
variable dir equal 6
include displace.mod
# NOTE: This script should not need to be
# modified. See in.elastic for more info.
# Find which reference length to use

if "${dir} == 1" then    "variable len0 equal ${lx0}"
if "${dir} == 2" then    "variable len0 equal ${ly0}"
if "${dir} == 3" then    "variable len0 equal ${lz0}"
if "${dir} == 4" then    "variable len0 equal ${lz0}"
if "${dir} == 5" then    "variable len0 equal ${lz0}"
if "${dir} == 6" then    "variable len0 equal ${ly0}"
variable len0 equal ${ly0}
variable len0 equal 4.29906500000002

# Reset box and simulation parameters

clear
read_restart restart.equil remap
  triclinic box = (-0.0212825 -0.0212825 -0.0212825) to (4.27778 4.27778 4.27778) with tilt (0 0 0)
  1 by 1 by 1 MPI processor grid
  8 atoms
include potential.mod
mass 1 24.305
mass 2 15.999

group Mg type 1
4 atoms in group Mg
group O type 2
4 atoms in group O

set group Mg charge 1.6421645765040513
  4 settings made for charge
set group O charge -1.6421645765040513
  4 settings made for charge

variable R_cut equal 10.0

pair_style buck/coul/long ${R_cut}
pair_style buck/coul/long 10
pair_coeff 1 1 0.0 0.5 0.0 ${R_cut}
pair_coeff 1 1 0.0 0.5 0.0 10
pair_coeff 1 2 976.3962522474803 0.3291762116597489 0.0 ${R_cut}
pair_coeff 1 2 976.3962522474803 0.3291762116597489 0.0 10
pair_coeff 2 2 3230.583724315258 0.1848642364786558 56.128495319422115 ${R_cut}
pair_coeff 2 2 3230.583724315258 0.1848642364786558 56.128495319422115 10

kspace_style pppm 1.0e-5

neighbor 1.0 bin
neigh_modify every 1 delay 0 check yes
thermo	1
thermo_style custom step temp pe press pxx pyy pzz pxy pxz pyz lx ly lz vol
thermo_modify norm no

# Negative deformation

variable delta equal -${up}*${len0}
variable delta equal -1e-06*${len0}
variable delta equal -1e-06*4.29906500000002
if "${dir} == 1" then    "change_box all x delta 0 ${delta} remap units box"
if "${dir} == 2" then    "change_box all y delta 0 ${delta} remap units box"
if "${dir} == 3" then    "change_box all z delta 0 ${delta} remap units box"
if "${dir} == 4" then    "change_box all yz delta ${delta} remap units box"
if "${dir} == 5" then    "change_box all xz delta ${delta} remap units box"
if "${dir} == 6" then    "change_box all xy delta ${delta} remap units box"
change_box all xy delta ${delta} remap units box
change_box all xy delta -4.29906500000002e-06 remap units box
  triclinic box = (-0.0212825 -0.0212825 -0.0212825) to (4.27778 4.27778 4.27778) with tilt (-4.29907e-06 0 0)

# Relax atoms positions

minimize ${etol} ${ftol} ${maxiter} ${maxeval}
minimize 0 ${ftol} ${maxiter} ${maxeval}
minimize 0 1e-10 ${maxiter} ${maxeval}
minimize 0 1e-10 100 ${maxeval}
minimize 0 1e-10 100 1000
PPPM initialization ...
  using 12-bit tables for long-range coulomb (../kspace.cpp:321)
  G vector (1/distance) = 0.352279
  grid = 8 8 8
  stencil order = 5
  estimated absolute RMS force accuracy = 3.97384e-05
  estimated relative force accuracy = 2.75968e-06
  using double precision FFTs
  3d grid and FFT values/proc = 3375 512
Neighbor list info ...
  update every 1 steps, delay 0 steps, check yes
  max neighbors/atom: 2000, page size: 100000
  master list distance cutoff = 11
  ghost atom cutoff = 11
  binsize = 5.5, bins = 1 1 1
  1 neighbor lists, perpetual/occasional/extra = 1 0 0
  (1) pair buck/coul/long, perpetual
      attributes: half, newton on
      pair build: half/bin/newton/tri
      stencil: half/bin/3d/newton/tri
      bin: standard
Per MPI rank memory allocation (min/avg/max) = 4.629 | 4.629 | 4.629 Mbytes
Step Temp PotEng Press Pxx Pyy Pzz Pxy Pxz Pyz Lx Ly Lz Volume 
     100            0   -93.691883    603777.62    603777.63    603777.63     603777.6   0.36531283 3.9006801e-10 5.4475428e-10     4.299065     4.299065     4.299065    79.455147 
     101            0   -93.691884     603777.6    603777.62    603777.62    603777.55   0.36358509 1.1573389e-10 -6.2592964e-11     4.299065     4.299065     4.299065    79.455147 
     102            0   -93.691884     603777.6    603777.62    603777.62    603777.55   0.36358509 5.4315515e-12 4.0755907e-11     4.299065     4.299065     4.299065    79.455147 
Loop time of 0.00266695 on 1 procs for 2 steps with 8 atoms

75.0% CPU use with 1 MPI tasks x no OpenMP threads

Minimization stats:
  Stopping criterion = linesearch alpha is zero
  Energy initial, next-to-last, final = 
        -93.6918830591     -93.6918837739     -93.6918837739
  Force two-norm initial, final = 0.00380639 8.89457e-05
  Force max component initial, final = 0.00080369 1.87897e-05
  Final line search alpha, max atom move = 0.5 9.39483e-06
  Iterations, force evaluations = 2 7

MPI task timing breakdown:
Section |  min time  |  avg time  |  max time  |%varavg| %total
---------------------------------------------------------------
Pair    | 0.0013232  | 0.0013232  | 0.0013232  |   0.0 | 49.62
Kspace  | 0.0012019  | 0.0012019  | 0.0012019  |   0.0 | 45.07
Neigh   | 0          | 0          | 0          |   0.0 |  0.00
Comm    | 9.6798e-05 | 9.6798e-05 | 9.6798e-05 |   0.0 |  3.63
Output  | 1.1921e-05 | 1.1921e-05 | 1.1921e-05 |   0.0 |  0.45
Modify  | 0          | 0          | 0          |   0.0 |  0.00
Other   |            | 3.314e-05  |            |       |  1.24

Nlocal:    8 ave 8 max 8 min
Histogram: 1 0 0 0 0 0 0 0 0 0
Nghost:    2189 ave 2189 max 2189 min
Histogram: 1 0 0 0 0 0 0 0 0 0
Neighs:    2344 ave 2344 max 2344 min
Histogram: 1 0 0 0 0 0 0 0 0 0

Total # of neighbors = 2344
Ave neighs/atom = 293
Neighbor list builds = 0
Dangerous builds = 0

# Obtain new stress tensor

variable tmp equal pxx
variable pxx1 equal ${tmp}
variable pxx1 equal 603777.620491715
variable tmp equal pyy
variable pyy1 equal ${tmp}
variable pyy1 equal 603777.620489122
variable tmp equal pzz
variable pzz1 equal ${tmp}
variable pzz1 equal 603777.54623693
variable tmp equal pxy
variable pxy1 equal ${tmp}
variable pxy1 equal 0.363585092082996
variable tmp equal pxz
variable pxz1 equal ${tmp}
variable pxz1 equal 5.43155145573441e-12
variable tmp equal pyz
variable pyz1 equal ${tmp}
variable pyz1 equal 4.07559069722279e-11

# Compute elastic constant from pressure tensor

variable C1neg equal ${d1}
variable C1neg equal -127.27611400187
variable C2neg equal ${d2}
variable C2neg equal -127.276373305358
variable C3neg equal ${d3}
variable C3neg equal -134.7015925101
variable C4neg equal ${d4}
variable C4neg equal 6.28399588897311e-09
variable C5neg equal ${d5}
variable C5neg equal -6.10086885106843e-09
variable C6neg equal ${d6}
variable C6neg equal 36.3585091950229

# Reset box and simulation parameters

clear
read_restart restart.equil remap
  triclinic box = (-0.0212825 -0.0212825 -0.0212825) to (4.27778 4.27778 4.27778) with tilt (0 0 0)
  1 by 1 by 1 MPI processor grid
  8 atoms
include potential.mod
mass 1 24.305
mass 2 15.999

group Mg type 1
4 atoms in group Mg
group O type 2
4 atoms in group O

set group Mg charge 1.6421645765040513
  4 settings made for charge
set group O charge -1.6421645765040513
  4 settings made for charge

variable R_cut equal 10.0

pair_style buck/coul/long ${R_cut}
pair_style buck/coul/long 10
pair_coeff 1 1 0.0 0.5 0.0 ${R_cut}
pair_coeff 1 1 0.0 0.5 0.0 10
pair_coeff 1 2 976.3962522474803 0.3291762116597489 0.0 ${R_cut}
pair_coeff 1 2 976.3962522474803 0.3291762116597489 0.0 10
pair_coeff 2 2 3230.583724315258 0.1848642364786558 56.128495319422115 ${R_cut}
pair_coeff 2 2 3230.583724315258 0.1848642364786558 56.128495319422115 10

kspace_style pppm 1.0e-5

neighbor 1.0 bin
neigh_modify every 1 delay 0 check yes
thermo	1
thermo_style custom step temp pe press pxx pyy pzz pxy pxz pyz lx ly lz vol
thermo_modify norm no

# Positive deformation

variable delta equal ${up}*${len0}
variable delta equal 1e-06*${len0}
variable delta equal 1e-06*4.29906500000002
if "${dir} == 1" then    "change_box all x delta 0 ${delta} remap units box"
if "${dir} == 2" then    "change_box all y delta 0 ${delta} remap units box"
if "${dir} == 3" then    "change_box all z delta 0 ${delta} remap units box"
if "${dir} == 4" then    "change_box all yz delta ${delta} remap units box"
if "${dir} == 5" then    "change_box all xz delta ${delta} remap units box"
if "${dir} == 6" then    "change_box all xy delta ${delta} remap units box"
change_box all xy delta ${delta} remap units box
change_box all xy delta 4.29906500000002e-06 remap units box
  triclinic box = (-0.0212825 -0.0212825 -0.0212825) to (4.27778 4.27778 4.27778) with tilt (4.29907e-06 0 0)

# Relax atoms positions

minimize ${etol} ${ftol} ${maxiter} ${maxeval}
minimize 0 ${ftol} ${maxiter} ${maxeval}
minimize 0 1e-10 ${maxiter} ${maxeval}
minimize 0 1e-10 100 ${maxeval}
minimize 0 1e-10 100 1000
PPPM initialization ...
  using 12-bit tables for long-range coulomb (../kspace.cpp:321)
  G vector (1/distance) = 0.352279
  grid = 8 8 8
  stencil order = 5
  estimated absolute RMS force accuracy = 3.97384e-05
  estimated relative force accuracy = 2.75968e-06
  using double precision FFTs
  3d grid and FFT values/proc = 3375 512
Neighbor list info ...
  update every 1 steps, delay 0 steps, check yes
  max neighbors/atom: 2000, page size: 100000
  master list distance cutoff = 11
  ghost atom cutoff = 11
  binsize = 5.5, bins = 1 1 1
  1 neighbor lists, perpetual/occasional/extra = 1 0 0
  (1) pair buck/coul/long, perpetual
      attributes: half, newton on
      pair build: half/bin/newton/tri
      stencil: half/bin/3d/newton/tri
      bin: standard
Per MPI rank memory allocation (min/avg/max) = 4.629 | 4.629 | 4.629 Mbytes
Step Temp PotEng Press Pxx Pyy Pzz Pxy Pxz Pyz Lx Ly Lz Volume 
     100            0   -93.691883    603777.62    603777.63    603777.63     603777.6  -0.36531283 -1.5566504e-09 -9.5069107e-10     4.299065     4.299065     4.299065    79.455147 
     101            0   -93.691884     603777.6    603777.62    603777.62    603777.55  -0.36358509 -3.8183295e-10 -4.5609444e-10     4.299065     4.299065     4.299065    79.455147 
     102            0   -93.691884     603777.6    603777.62    603777.62    603777.55  -0.36358509 -3.8183295e-10 -4.5609444e-10     4.299065     4.299065     4.299065    79.455147 
Loop time of 0.00264192 on 1 procs for 2 steps with 8 atoms

113.5% CPU use with 1 MPI tasks x no OpenMP threads

Minimization stats:
  Stopping criterion = linesearch alpha is zero
  Energy initial, next-to-last, final = 
        -93.6918830595     -93.6918837742     -93.6918837742
  Force two-norm initial, final = 0.00380639 8.89457e-05
  Force max component initial, final = 0.00080369 1.87897e-05
  Final line search alpha, max atom move = 0.5 9.39483e-06
  Iterations, force evaluations = 2 7

MPI task timing breakdown:
Section |  min time  |  avg time  |  max time  |%varavg| %total
---------------------------------------------------------------
Pair    | 0.0013027  | 0.0013027  | 0.0013027  |   0.0 | 49.31
Kspace  | 0.001194   | 0.001194   | 0.001194   |   0.0 | 45.19
Neigh   | 0          | 0          | 0          |   0.0 |  0.00
Comm    | 9.6798e-05 | 9.6798e-05 | 9.6798e-05 |   0.0 |  3.66
Output  | 1.2875e-05 | 1.2875e-05 | 1.2875e-05 |   0.0 |  0.49
Modify  | 0          | 0          | 0          |   0.0 |  0.00
Other   |            | 3.552e-05  |            |       |  1.34

Nlocal:    8 ave 8 max 8 min
Histogram: 1 0 0 0 0 0 0 0 0 0
Nghost:    2189 ave 2189 max 2189 min
Histogram: 1 0 0 0 0 0 0 0 0 0
Neighs:    2344 ave 2344 max 2344 min
Histogram: 1 0 0 0 0 0 0 0 0 0

Total # of neighbors = 2344
Ave neighs/atom = 293
Neighbor list builds = 0
Dangerous builds = 0

# Obtain new stress tensor

variable tmp equal pe
variable e1 equal ${tmp}
variable e1 equal -93.6918837742486
variable tmp equal press
variable p1 equal ${tmp}
variable p1 equal 603777.595670246
variable tmp equal pxx
variable pxx1 equal ${tmp}
variable pxx1 equal 603777.620422707
variable tmp equal pyy
variable pyy1 equal ${tmp}
variable pyy1 equal 603777.620420116
variable tmp equal pzz
variable pzz1 equal ${tmp}
variable pzz1 equal 603777.546167913
variable tmp equal pxy
variable pxy1 equal ${tmp}
variable pxy1 equal -0.363585092993051
variable tmp equal pxz
variable pxz1 equal ${tmp}
variable pxz1 equal -3.81832953037821e-10
variable tmp equal pyz
variable pyz1 equal ${tmp}
variable pyz1 equal -4.56094443467121e-10

# Compute elastic constant from pressure tensor

variable C1pos equal ${d1}
variable C1pos equal 127.283014799468
variable C2pos equal ${d2}
variable C2pos equal 127.28327390505
variable C3pos equal ${d3}
variable C3pos equal 134.708494204096
variable C4pos equal ${d4}
variable C4pos equal 4.34010391549618e-08
variable C5pos equal ${d5}
variable C5pos equal 4.4827319300424e-08
variable C6pos equal ${d6}
variable C6pos equal 36.3585093125818

# Combine positive and negative

variable C1${dir} equal 0.5*(${C1neg}+${C1pos})
variable C16 equal 0.5*(${C1neg}+${C1pos})
variable C16 equal 0.5*(-127.27611400187+${C1pos})
variable C16 equal 0.5*(-127.27611400187+127.283014799468)
variable C2${dir} equal 0.5*(${C2neg}+${C2pos})
variable C26 equal 0.5*(${C2neg}+${C2pos})
variable C26 equal 0.5*(-127.276373305358+${C2pos})
variable C26 equal 0.5*(-127.276373305358+127.28327390505)
variable C3${dir} equal 0.5*(${C3neg}+${C3pos})
variable C36 equal 0.5*(${C3neg}+${C3pos})
variable C36 equal 0.5*(-134.7015925101+${C3pos})
variable C36 equal 0.5*(-134.7015925101+134.708494204096)
variable C4${dir} equal 0.5*(${C4neg}+${C4pos})
variable C46 equal 0.5*(${C4neg}+${C4pos})
variable C46 equal 0.5*(6.28399588897311e-09+${C4pos})
variable C46 equal 0.5*(6.28399588897311e-09+4.34010391549618e-08)
variable C5${dir} equal 0.5*(${C5neg}+${C5pos})
variable C56 equal 0.5*(${C5neg}+${C5pos})
variable C56 equal 0.5*(-6.10086885106843e-09+${C5pos})
variable C56 equal 0.5*(-6.10086885106843e-09+4.4827319300424e-08)
variable C6${dir} equal 0.5*(${C6neg}+${C6pos})
variable C66 equal 0.5*(${C6neg}+${C6pos})
variable C66 equal 0.5*(36.3585091950229+${C6pos})
variable C66 equal 0.5*(36.3585091950229+36.3585093125818)

# Delete dir to make sure it is not reused

variable dir delete

# ---- Output final values
variable C11all equal ${C11}
variable C11all equal 597.006674000295
variable C22all equal ${C22}
variable C22all equal 597.006673947908
variable C33all equal ${C33}
variable C33all equal 597.006674000295
variable C12all equal 0.5*(${C12}+${C21})
variable C12all equal 0.5*(157.940186851192+${C21})
variable C12all equal 0.5*(157.940186851192+157.940186897758)
variable C13all equal 0.5*(${C13}+${C31})
variable C13all equal 0.5*(157.940186798805+${C31})
variable C13all equal 0.5*(157.940186798805+157.940186950145)
variable C23all equal 0.5*(${C23}+${C32})
variable C23all equal 0.5*(157.940186897758+${C32})
variable C23all equal 0.5*(157.940186897758+157.940186950145)
variable C44all equal ${C44}
variable C44all equal 36.3585092653708
variable C55all equal ${C55}
variable C55all equal 36.3585092979126
variable C66all equal ${C66}
variable C66all equal 36.3585092538024
variable C14all equal 0.5*(${C14}+${C41})
variable C14all equal 0.5*(0.00345089938450371+${C41})
variable C14all equal 0.5*(0.00345089938450371+-6.58759201998809e-08)
variable C15all equal 0.5*(${C15}+${C51})
variable C15all equal 0.5*(0.00345024745899991+${C51})
variable C15all equal 0.5*(0.00345024745899991+-7.18401730300682e-08)
variable C16all equal 0.5*(${C16}+${C61})
variable C16all equal 0.5*(0.00345039879900355+${C61})
variable C16all equal 0.5*(0.00345039879900355+-1.24766608375281e-08)
variable C24all equal 0.5*(${C24}+${C42})
variable C24all equal 0.5*(0.00345029984600131+${C42})
variable C24all equal 0.5*(0.00345029984600131+-2.54715930849019e-08)
variable C25all equal 0.5*(${C25}+${C52})
variable C25all equal 0.5*(0.00345084699799258+${C52})
variable C25all equal 0.5*(0.00345084699799258+-1.26116780088056e-08)
variable C26all equal 0.5*(${C26}+${C62})
variable C26all equal 0.5*(0.00345029984599421+${C62})
variable C26all equal 0.5*(0.00345029984599421+-1.81750233341102e-08)
variable C34all equal 0.5*(${C34}+${C43})
variable C34all equal 0.5*(0.00345024745899991+${C43})
variable C34all equal 0.5*(0.00345024745899991+-2.72944020845901e-08)
variable C35all equal 0.5*(${C35}+${C53})
variable C35all equal 0.5*(0.00345024745899991+${C53})
variable C35all equal 0.5*(0.00345024745899991+-2.06499452064335e-08)
variable C36all equal 0.5*(${C36}+${C63})
variable C36all equal 0.5*(0.0034508469980068+${C63})
variable C36all equal 0.5*(0.0034508469980068+1.7468170881512e-08)
variable C45all equal 0.5*(${C45}+${C54})
variable C45all equal 0.5*(9.36031843555708e-09+${C54})
variable C45all equal 0.5*(9.36031843555708e-09+-2.77283327113468e-08)
variable C46all equal 0.5*(${C46}+${C64})
variable C46all equal 0.5*(2.48425175219675e-08+${C64})
variable C46all equal 0.5*(2.48425175219675e-08+9.15974731046485e-09)
variable C56all equal 0.5*(${C56}+${C65})
variable C56all equal 0.5*(1.93632252246778e-08+${C65})
variable C56all equal 0.5*(1.93632252246778e-08+-3.11347174561669e-09)

print "c11 = ${C11all} ${cunits}"
c11 = 597.006674000295 GPa
print "c22 = ${C22all} ${cunits}"
c22 = 597.006673947908 GPa
print "c33 = ${C33all} ${cunits}"
c33 = 597.006674000295 GPa
print "c12 = ${C12all} ${cunits}"
c12 = 157.940186874475 GPa
print "c13 = ${C13all} ${cunits}"
c13 = 157.940186874475 GPa
print "c23 = ${C23all} ${cunits}"
c23 = 157.940186923952 GPa
print "c44 = ${C44all} ${cunits}"
c44 = 36.3585092653708 GPa
print "c55 = ${C55all} ${cunits}"
c55 = 36.3585092979126 GPa
print "c66 = ${C66all} ${cunits}"
c66 = 36.3585092538024 GPa
print "c14 = ${C14all} ${cunits}"
c14 = 0.00172541675429176 GPa
print "c15 = ${C15all} ${cunits}"
c15 = 0.00172508780941344 GPa
print "c16 = ${C16all} ${cunits}"
c16 = 0.00172519316117136 GPa
print "c24 = ${C24all} ${cunits}"
c24 = 0.00172513718720411 GPa
print "c25 = ${C25all} ${cunits}"
c25 = 0.00172541719315729 GPa
print "c26 = ${C26all} ${cunits}"
c26 = 0.00172514083548544 GPa
print "c34 = ${C34all} ${cunits}"
c34 = 0.00172511008229891 GPa
print "c35 = ${C35all} ${cunits}"
c35 = 0.00172511340452735 GPa
print "c36 = ${C36all} ${cunits}"
c36 = 0.00172543223308884 GPa
print "c45 = ${C45all} ${cunits}"
c45 = -9.18400713789486e-09 GPa
print "c46 = ${C46all} ${cunits}"
c46 = 1.70011324162162e-08 GPa
print "c56 = ${C56all} ${cunits}"
c56 = 8.12487673953055e-09 GPa
print "lammps_sim_done"
lammps_sim_done
Total wall time: 0:00:00
