LAMMPS (10 Feb 2015)
# ---- initialize simulations
clear
units metal
dimension 3
boundary p p p
atom_style charge
atom_modify map array
# ---- create atoms
read_data /Users/eugeneragasa/pyflamestk_git/pypospack/tests/tests_integration/workflow/WorkflowLammpsThermalExpansion/param_2856/MgO_NaCl_unit.npt.T1900/lammps.structure
  triclinic box = (0 0 0) to (4.2565 4.2565 4.2565) with tilt (0 0 0)
  1 by 1 by 1 MPI processor grid
  reading atoms ...
  8 atoms
# ---- define interatomic potential
include potential.mod
mass 1 24.305
mass 2 15.999

group Mg type 1
4 atoms in group Mg
group O type 2
4 atoms in group O

set group Mg charge 1.71287520642
  4 settings made for charge
set group O charge -1.71287520642
  4 settings made for charge

variable R_cut equal 10.0

pair_style buck/coul/long ${R_cut}
pair_style buck/coul/long 10
pair_coeff 1 1 0.0 0.5 0.0 ${R_cut}
pair_coeff 1 1 0.0 0.5 0.0 10
pair_coeff 1 2 1268.25800143 0.292150986054 0.0 ${R_cut}
pair_coeff 1 2 1268.25800143 0.292150986054 0.0 10
pair_coeff 2 2 34972.2762623 0.190168709461 15.9037418312 ${R_cut}
pair_coeff 2 2 34972.2762623 0.190168709461 15.9037418312 10

kspace_style pppm 1.0e-5

neighbor 1.0 bin
neigh_modify every 1 delay 0 check yes
# ---- define settings
compute eng all pe/atom
compute eatoms all reduce sum c_eng
# ---- run minimization
reset_timestep 0
fix 1 all box/relax iso 0.0 vmax 0.001
thermo 10
thermo_style custom step pe lx ly lz xy xz yz press pxx pyy pzz pxy pxz pyz c_eatoms
min_style cg
minimize 1e-25 1e-25 5000 10000
PPPM initialization ...
  G vector (1/distance) = 0.353245
  grid = 8 8 8
  stencil order = 5
  estimated absolute RMS force accuracy = 4.15075e-05
  estimated relative force accuracy = 2.88254e-06
  using double precision FFTs
  3d grid and FFT values/proc = 3375 512
Neighbor list info ...
  1 neighbor list requests
  update every 1 steps, delay 0 steps, check yes
  master list distance cutoff = 11
Memory usage per processor = 4.06549 Mbytes
Step PotEng Lx Ly Lz Xy Xz Yz Press Pxx Pyy Pzz Pxy Pxz Pyz eatoms 
       0    -118.2398       4.2565       4.2565       4.2565            0            0            0    92099.563    92099.563    92099.563    92099.563 -2.6648665e-10 1.3518399e-10 2.2028947e-10    -118.2398 
      10   -118.33067     4.299065     4.299065     4.299065            0            0            0    34673.493    34673.493    34673.493    34673.493 -1.1760899e-11 -1.3745134e-10 -5.0678772e-11   -118.33067 
      18   -118.34767    4.3277342    4.3277342    4.3277342            0            0            0    -4.391814    -4.391814    -4.391814    -4.391814 -1.1240186e-10 -1.6034703e-10 -8.891662e-11   -118.34767 
Loop time of 0.0121388 on 1 procs for 18 steps with 8 atoms

Minimization stats:
  Stopping criterion = linesearch alpha is zero
  Energy initial, next-to-last, final = 
        -118.239795936     -118.347671294     -118.347671294
  Force two-norm initial, final = 13.2992 0.00175014
  Force max component initial, final = 13.2992 0.000655584
  Final line search alpha, max atom move = 0.00390625 2.56088e-06
  Iterations, force evaluations = 18 35

Pair  time (%) = 0.00330114 (27.1949)
Kspce time (%) = 0.00193238 (15.919)
Neigh time (%) = 0 (0)
Comm  time (%) = 0.000367165 (3.02471)
Outpt time (%) = 1.40667e-05 (0.115882)
Other time (%) = 0.00652409 (53.7455)

Nlocal:    8 ave 8 max 8 min
Histogram: 1 0 0 0 0 0 0 0 0 0
Nghost:    2189 ave 2189 max 2189 min
Histogram: 1 0 0 0 0 0 0 0 0 0
Neighs:    2344 ave 2344 max 2344 min
Histogram: 1 0 0 0 0 0 0 0 0 0

Total # of neighbors = 2344
Ave neighs/atom = 293
Neighbor list builds = 0
Dangerous builds = 0
unfix 1
# ---- define output variables ----
variable natoms equal "count(all)"
variable tot_energy equal "c_eatoms"
variable length_x equal "lx"
variable length_y equal "ly"
variable length_z equal "lz"
variable tilt_xy equal "xy"
variable tilt_xz equal "xz"
variable tilt_yz equal "yz"
variable tot_press equal "press"
variable press_xx equal "pxx"
variable press_yy equal "pyy"
variable press_zz equal "pzz"
variable press_xy equal "pxy"
variable press_xz equal "pxz"
variable press_yz equal "pyz"

# ---- output ----
print "pypospack:output_section:begin"
pypospack:output_section:begin
print "tot_energy = ${tot_energy}"
tot_energy = -118.347671293792
print "num_atoms = ${natoms}"
num_atoms = 8
print "xx = ${length_x}"
xx = 4.32773421076983
print "yy = ${length_y}"
yy = 4.32773421076983
print "zz = ${length_z}"
zz = 4.32773421076983
print "xy = ${tilt_xy}"
xy = 0
print "xz = ${tilt_xz}"
xz = 0
print "yz = ${tilt_yz}"
yz = 0
print "tot_press = ${tot_press}"
tot_press = -4.39181402043263
print "pxx = ${press_xx}"
pxx = -4.39181402021402
print "pyy = ${press_yy}"
pyy = -4.39181402042068
print "pzz = ${press_zz}"
pzz = -4.39181402066319
print "pxy = ${press_xy}"
pxy = -1.12401857084108e-10
print "pxz = ${press_xz}"
pxz = -1.60347032595802e-10
print "pyz = ${press_yz}"
pyz = -8.89166196817966e-11
print "pypospack:output_section:done"
pypospack:output_section:done
print "pypospack:lammps_sim:done"
pypospack:lammps_sim:done
#------------------------------------------------------------------------------
# RUN THERMOSTAT
# running using an NPT Nose-Hoover style thermostat
#------------------------------------------------------------------------------
variable tempdamp equal 0.1
variable pressdamp equal 1.0
# set initial velocities
velocity all create 1900 1372602 mom yes dist gaussian loop all
# fix for Nose-Hoover style thermostat
fix 20 all npt temp 1900 1900 0.1 aniso 0.0 0.0 1.0 drag 1.0 couple xyz
variable boxx equal lx
variable boxy equal ly
variable boxz equal lz
variable boxp equal press
variable boxt equal temp
# calculate averages every 10000 steps
reset_timestep 0
fix 21 all ave/time 10 10 100 v_boxx v_boxy v_boxz v_boxp v_boxt file lattice.out
thermo_style custom step temp pe ke etotal press lx ly lz press pxx pyy pzz pxy pxz pyz vol
thermo_modify flush yes
thermo 100
run 100000
PPPM initialization ...
  G vector (1/distance) = 0.352508
  grid = 8 8 8
  stencil order = 5
  estimated absolute RMS force accuracy = 4.29555e-05
  estimated relative force accuracy = 2.9831e-06
  using double precision FFTs
  3d grid and FFT values/proc = 3375 512
Memory usage per processor = 3.06549 Mbytes
Step Temp PotEng KinEng TotEng Press Lx Ly Lz Press Pxx Pyy Pzz Pxy Pxz Pyz Volume 
       0         1900   -118.34768    1.7191599   -116.62852    22648.066    4.3277342    4.3277342    4.3277342    22648.066    13235.095     43924.72    10784.383   -3425.7032    2294.7021    16005.393    81.055361 
     100    1060.0401   -117.36073    0.9591466   -116.40158    23331.939    4.3427977    4.3427977    4.3427977    23331.939    18519.674    65661.614   -14185.472    999.58193   -1924.4875   -21550.501    81.904695 
     200    1053.7842   -116.89334    0.9534861   -115.93986   -30291.144    4.3743452    4.3743452    4.3743452   -30291.144   -18161.612   -18272.801   -54439.018    6224.3378   -16577.687   -37689.014    83.702643 
     300    2157.4816   -117.46452    1.9521347   -115.51238   -23203.192    4.3766679    4.3766679    4.3766679   -23203.192   -37563.122    9569.6845   -41616.139    5927.0247    7393.3852     20473.21    83.836044 
     400    1963.0659   -116.97011    1.7762233   -115.19389    13967.968    4.3547739    4.3547739    4.3547739    13967.968    14304.498    11817.758    15781.647   -2074.1743    20917.123   -28996.225    82.584174 
     500    1816.0889   -116.63273    1.6432354   -114.98949     1168.659    4.3607501    4.3607501    4.3607501     1168.659    37858.225   -50129.559     15777.31   -4935.1949   -21745.743   -34486.402    82.924643 
     600    1941.0038   -116.63778     1.756261   -114.88152   -12685.722    4.3765869    4.3765869    4.3765869   -12685.722   -8529.9649   -7984.9753   -21542.225    14971.081   -8254.8895    22680.824    83.831392 
     700    1285.9833     -116.015    1.1635848   -114.85141    14351.497    4.3882491    4.3882491    4.3882491    14351.497    83432.953   -18618.321   -21760.141    4020.8507    22640.663   -15783.204    84.503327 
     800    2433.1902   -117.02783    2.2016017   -114.82623    -2631.296    4.3898778    4.3898778    4.3898778    -2631.296    53050.496   -58559.585   -2384.7991    59.198228   -3239.8122   -15205.605    84.597455 
     900    1532.8092   -116.23072     1.386918    -114.8438    26974.514    4.3620516    4.3620516    4.3620516    26974.514    85845.123    8564.9736   -13486.554    4041.1965   -4722.1457    29614.074    82.998913 
    1000    1348.8579   -116.08778     1.220475    -114.8673    18647.398    4.3626785    4.3626785    4.3626785    18647.398    34546.493    64451.273   -43055.572   -2341.7301    45628.187    13449.436    83.034699 
    1100    2997.3274   -117.54701    2.7120448   -114.83497   -16942.709    4.3929887    4.3929887    4.3929887   -16942.709    24013.922   -34077.883   -40764.165    23761.313   -7247.3136   -5115.8701    84.777434 
    1200    1437.7004   -116.13035    1.3008615   -114.82949   -15643.218    4.4039125    4.4039125    4.4039125   -15643.218     23396.43   -21872.921   -48453.163    8120.5034    27805.409    21798.799    85.411442 
    1300    1387.1552    -116.0697    1.2551272   -114.81457   -9045.9965    4.3992335    4.3992335    4.3992335   -9045.9965   -28264.801    41575.691   -40448.879    472.26613   -9721.2894    14030.213    85.139488 
    1400    2151.5827   -116.74423    1.9467972   -114.79744    27286.173    4.3729361    4.3729361    4.3729361    27286.173    55703.883    8797.4485    17357.188   -3799.7852   -25429.277   -12857.609    83.621774 
    1500    1194.4726   -115.91009    1.0807839   -114.82931    8628.0025    4.3604434    4.3604434    4.3604434    8628.0025    24068.444    6412.5004   -4596.9369    2913.6252    38264.226    5255.6107    82.907147 
    1600    1481.5034   -116.19855    1.3404954   -114.85805   -4882.3225    4.3792854    4.3792854    4.3792854   -4882.3225   -32604.754    10127.848    7829.9383    6331.3335    15950.789    18453.036    83.986551 
    1700    1501.2006   -116.20277    1.3583179   -114.84445    20062.239    4.3934953    4.3934953    4.3934953    20062.239    21930.832    35289.446    2966.4392   -16509.812   -29157.294   -31840.619    84.806766 
    1800    1259.2281   -115.97146    1.1393761   -114.83208    6071.8816    4.3976271    4.3976271    4.3976271    6071.8816   -17550.977    54274.504   -18507.883   -616.85339    40422.384   -17740.798    85.046256 
    1900    2227.8804   -116.82956     2.015833   -114.81372   -23894.983    4.3863711    4.3863711    4.3863711   -23894.983   -47133.197    4343.2175   -28894.968    1397.2571    23756.186    13386.297    84.394882 
    2000    1901.1716   -116.54418      1.72022   -114.82396     34054.15    4.3508351    4.3508351    4.3508351     34054.15    34902.551    55010.676    12249.225   -16775.301   -27523.936   -32523.114    82.360293 
    2100    1497.2248   -116.21919    1.3547205   -114.86447    22966.195    4.3569588    4.3569588    4.3569588    22966.195    17274.771    35315.616    16308.198   -8058.1322    23174.452    -16309.09    82.708544 
    2200    2089.2158   -116.74859    1.8903664   -114.85822   -32378.132     4.389844     4.389844     4.389844   -32378.132   -62307.296    3042.4681   -37869.567    4852.7606    30692.118    17918.681      84.5955 
    2300    2139.1911   -116.77845    1.9355851   -114.84286    12237.635    4.3777252    4.3777252    4.3777252    12237.635    38349.841    40447.838   -42084.775    11575.363    710.53188   -38841.087    83.896821 
    2400    2019.9904   -116.67428    1.8277297   -114.84655    29194.769    4.3693792    4.3693792    4.3693792    29194.769    12947.365    51595.982    23040.959   -10780.632    26553.492   -25049.446    83.417892 
    2500    2180.1994   -116.82239    1.9726902    -114.8497   -11942.232    4.3845973    4.3845973    4.3845973   -11942.232   -40139.297    5347.5926   -1034.9921    1452.1504    32883.201     15325.84    84.292539 
    2600    1744.1215   -116.43182    1.5781178   -114.85371    13712.546    4.3721805    4.3721805    4.3721805    13712.546    58245.892    8763.1346    -25871.39    8643.5774   -9366.6677   -37224.676    83.578438 
    2700    1928.9192   -116.60539    1.7453266   -114.86007    17937.703     4.373131     4.373131     4.373131    17937.703    21834.762    47704.963   -15726.617    -512.9482     20869.53   -9576.1345    83.632958 
    2800    2528.1706   -117.13582    2.2875419   -114.84828   -12793.248    4.3845407    4.3845407    4.3845407   -12793.248   -31294.348    17750.174   -24835.572   -173.34844    39022.405    3852.2177    84.289274 
    2900      2145.84   -116.79421    1.9416011   -114.85261    21759.551    4.3674923    4.3674923    4.3674923    21759.551    29380.003    22186.824    13711.827   -388.35913   -1586.5067   -45566.191    83.309868 
    3000    1616.1415   -116.33091    1.4623188   -114.86859   -2219.9902    4.3655803    4.3655803    4.3655803   -2219.9902    26313.847   -27314.696    -5659.121    2808.7953    14893.382   -5601.8925    83.200501 
    3100    1583.8244   -116.31351    1.4330776   -114.88043   -28492.437    4.3774774    4.3774774    4.3774774   -28492.437   -51421.144   -19818.479   -14237.687    4537.6288    30738.625     31784.36    83.882572 
    3200    2442.1156   -117.06961    2.2096775   -114.85993    3467.7423    4.3771002    4.3771002    4.3771002    3467.7423   -21116.968   -9425.8912    40946.086   -7680.1574    -15667.92   -19730.898    83.860891 
    3300    2090.4109   -116.75342    1.8914477   -114.86197    1548.1822    4.3788579    4.3788579    4.3788579    1548.1822    1746.8878   -20756.285    23653.943   -5302.3094    25825.266   -18297.099    83.961959 
    3400     1331.954    -116.0737      1.20518   -114.86852   -19240.738    4.3891981    4.3891981    4.3891981   -19240.738   -27984.787   -29573.194   -164.23272    4634.6775    48010.551    39625.703    84.558166 
    3500    2751.2949   -117.32409    2.4894294   -114.83466   -18598.312    4.3984295    4.3984295    4.3984295   -18598.312   -18958.274   -15151.826   -21684.835    12778.007   -14539.569    7876.7071     85.09282 
    3600    2538.7004   -117.11809    2.2970694   -114.82102   -30675.241     4.391559     4.391559     4.391559   -30675.241   -46516.714   -1278.1649   -44230.845   -11113.189    22618.244    7618.0602    84.694689 
    3700    1362.1717   -116.06967    1.2325216   -114.83715   -160.15904     4.365559     4.365559     4.365559   -160.15904    18735.319     28037.61   -47253.407   -7524.8439     38665.29    26471.083    83.199286 
    3800    2098.0371   -116.75097     1.898348   -114.85263    21728.739    4.3566848    4.3566848    4.3566848    21728.739    29348.674    33921.494    1916.0482    17336.252   -4357.6065    -10224.97    82.692937 
    3900     2554.623   -117.18178    2.3114766   -114.87031      -1228.5    4.3665613    4.3665613    4.3665613      -1228.5    3040.3995    9814.9122   -16540.812   -8295.5459    7434.8116   -15600.612    83.256605 
    4000    1845.5457   -116.55455    1.6698885   -114.88466   -509.08962      4.37689      4.37689      4.37689   -509.08962    3831.5574    12695.707   -18054.534    -6474.967    31958.071    21327.947     83.84881 
    4100    1095.6032   -115.87276   0.99132482   -114.88144   -30009.451    4.3876141    4.3876141    4.3876141   -30009.451     6206.855   -61982.302   -34252.906    19756.104    1161.8035    6797.5504     84.46665 
    4200    1019.0192   -115.78962   0.92202999   -114.86759   -18408.661     4.375662     4.375662     4.375662   -18408.661    16468.665   -49406.161   -22288.487    7850.4556   -16633.247    -33800.59    83.778252 
    4300    2208.5188    -116.8446    1.9983143   -114.84629    23491.776    4.3524382    4.3524382    4.3524382    23491.776    1166.4198    49180.252    20128.656   -4430.0881     14356.58   -4127.5564    82.451363 
    4400    1700.1322   -116.41366    1.5383153   -114.87534   -1629.7089    4.3647315    4.3647315    4.3647315   -1629.7089    8446.9053   -12010.272   -1325.7604    204.64988    4860.4869     3709.523    83.151981 
    4500    1059.3688   -115.84275   0.95853911   -114.88421   -20547.434    4.3854623    4.3854623    4.3854623   -20547.434     38288.31   -36516.748   -63413.863    6660.1997   -27697.016   -26270.936     84.34244 
    4600    2315.4043   -116.94202    2.0950264   -114.84699    11124.289    4.3878305    4.3878305    4.3878305    11124.289    6047.7627      37863.9   -10538.795   -2518.6668   -10022.905   -1927.9195    84.479149 
    4700    2817.2251   -117.37082    2.5490845   -114.82174   -2703.2908    4.3869761    4.3869761    4.3869761   -2703.2908   -15388.592    12168.359   -4889.6395   -15750.791    2550.9257   -20224.505    84.429808 
    4800    1811.2772    -116.4744    1.6388816   -114.83552    -12023.09    4.3778817    4.3778817    4.3778817    -12023.09    6967.4843    24198.692   -67235.445    14336.423   -12278.317   -24107.257    83.905816 
    4900    1555.8192   -116.25549    1.4077379   -114.84776   -5144.6553    4.3648903    4.3648903    4.3648903   -5144.6553   -5930.3496    1349.2156   -10852.832   -8090.3699   -6087.3689    22973.211    83.161055 
    5000    1963.4992    -116.6425    1.7766154   -114.86588   -6114.8724    4.3591543    4.3591543    4.3591543   -6114.8724   -11028.202   -31426.468    24110.053   -34821.441    7099.7912    19118.607    82.833635 
    5100    2375.5761   -117.03283    2.1494711   -114.88336   -2646.3707    4.3670505    4.3670505    4.3670505   -2646.3707    -30360.73    19090.051    3331.5663    16829.021   -16696.153   -4214.7799    83.284586 
    5200    1389.8833   -116.15626    1.2575957   -114.89866   -5972.7365    4.3718323    4.3718323    4.3718323   -5972.7365   -37984.915    22424.222   -2357.5162   -16841.887   -21946.673   -11342.583    83.558473 
    5300    1191.2023   -115.97164    1.0778249   -114.89381   -825.23884    4.3661988    4.3661988    4.3661988   -825.23884    2229.2422    -24743.37    20038.411   -20836.939    12590.491    33746.962    83.235871 
    5400    1508.9381    -116.2519    1.3653189   -114.88658   -5315.0403    4.3764342    4.3764342    4.3764342   -5315.0403    20612.986   -25861.742   -10696.364    14952.092   -11122.989   -436.57431    83.822613 
    5500    1913.4179   -116.60498    1.7313008   -114.87368   -18864.043     4.374435     4.374435     4.374435   -18864.043    -5107.586   -11754.474   -39730.069    1294.3569    -26311.31    -27720.01    83.707795 
    5600    1607.9442   -116.33144    1.4549017   -114.87654    37719.816    4.3581561    4.3581561    4.3581561    37719.816    21608.361    54125.928    37425.157   -30566.864    5845.8691    14498.458    82.776747 
    5700    2272.6036   -116.93717    2.0562995   -114.88087    475.62599    4.3714163    4.3714163    4.3714163    475.62599      35367.4   -9920.2289   -24020.293   -21597.328    6073.1254   -14889.606     83.53462 
    5800    2433.7699   -117.07063    2.2021262    -114.8685   -6889.8375    4.3825171    4.3825171    4.3825171   -6889.8375    38525.307   -30597.471   -28597.348   -3922.3087   -8029.9665   -27865.853     84.17262 
    5900     2060.819   -116.73539    1.8646723   -114.87072   -675.28791    4.3744215    4.3744215    4.3744215   -675.28791   -3310.1421    18627.409    -17343.13   -13303.085    17565.943      9993.62    83.707018 
    6000    1762.2179   -116.47068    1.5944918   -114.87619   -1431.8617    4.3683534    4.3683534    4.3683534   -1431.8617    6127.3467    9068.6704   -19491.602   -10910.356    5651.7826     -20727.5    83.359156 
    6100    2530.3631   -117.16549    2.2895257   -114.87596   -4905.7305     4.363451     4.363451     4.363451   -4905.7305    36395.466   -9138.6837   -41973.974    27230.747   -4062.9188    -38853.24    83.078819 
    6200    2897.1256   -117.49098    2.6213801    -114.8696    14143.914    4.3647044    4.3647044    4.3647044    14143.914    7433.0291    21876.403    13122.311     -13209.5   -2637.7163    247.60098    83.150431 
    6300    1757.2172   -116.47534    1.5899671   -114.88537   -15805.849    4.3844801    4.3844801    4.3844801   -15805.849   -40437.676   -1053.7005   -5926.1706   -25927.823    5189.2048    1612.3822     84.28578 
    6400    923.44378   -115.70712   0.83555134   -114.87157   -31564.712    4.3856282    4.3856282    4.3856282   -31564.712   -24084.251   -44991.628   -25618.257    32906.828     1753.511   -20108.307    84.352011 
    6500    1826.2005   -116.50541    1.6523846   -114.85303   -639.33093    4.3682039    4.3682039    4.3682039   -639.33093    786.03298   -7074.8805    4370.8547    16004.322   -24030.758   -303.87308    83.350593 
    6600    2384.7144   -117.00575    2.1577397   -114.84801   -3179.2941    4.3648019    4.3648019    4.3648019   -3179.2941    29793.328   -25607.735   -13723.475   -16895.354    2551.1968   -5849.4646    83.156005 
    6700    1140.7728   -115.91197    1.0321952   -114.87978   -6071.5831    4.3695267    4.3695267    4.3695267   -6071.5831    22092.393   -30097.979   -10209.163    29297.599    3938.1266   -25585.084    83.426343 
    6800    1059.9688   -115.84617   0.95908201   -114.88708   -8995.6037    4.3795212    4.3795212    4.3795212   -8995.6037    -23020.72    5811.2669   -9777.3581    29183.134   -14514.835    8014.3017    84.000121 
    6900    2402.7996   -117.03897    2.1741036   -114.86486   -15923.596    4.3798725    4.3798725    4.3798725   -15923.596    709.21732    -35946.68   -12533.326   -29510.495    4367.1904   -1810.4933    84.020336 
    7000    2346.5937    -116.9931    2.1232473   -114.86985    20487.311    4.3624194    4.3624194    4.3624194    20487.311    67809.516   -11429.074    5081.4907   -12179.046    8649.8297   -30534.522    83.019911 
    7100    2395.3376    -117.0476    2.1673518   -114.88025    16743.398    4.3556092    4.3556092    4.3556092    16743.398     33146.12    11942.982    5141.0921    36385.795   -7559.8371   -5103.6759    82.631708 
    7200    1993.6017   -116.70035    1.8038527    -114.8965    6369.5865    4.3648966    4.3648966    4.3648966    6369.5865   -3071.4061   -21800.547    43980.713   -20453.315   -15706.035    2470.1111    83.161416 
    7300    1704.0369   -116.44528    1.5418484   -114.90344    9231.6106    4.3773481    4.3773481    4.3773481    9231.6106    19551.003   -29415.952    37559.782   -34197.708    28144.627   -15687.778    83.875141 
    7400    2660.9351   -117.27808      2.40767   -114.87041   -8898.8306    4.3902878    4.3902878    4.3902878   -8898.8306    5093.3476   -24097.945   -7691.8944    15639.789    -6954.462   -10981.042    84.621162 
    7500    2192.6559   -116.84004    1.9839611   -114.85607   -10977.636    4.3892773    4.3892773    4.3892773   -10977.636   -26335.322    -25757.46    19159.873   -27804.163   -19968.038    14982.847    84.562742 
    7600    1900.6117   -116.58019    1.7197134   -114.86048    1538.7382    4.3657457    4.3657457    4.3657457    1538.7382   -31308.336   -25293.544    61218.095   -16269.291    15250.199   -16608.728    83.209959 
    7700    1827.0495   -116.52694    1.6531528   -114.87379    14559.532    4.3508554    4.3508554    4.3508554    14559.532    15317.973   -25511.409    53872.034    34858.203    7335.9013   -30135.799    82.361445 
    7800    2074.3032   -116.77227    1.8768731    -114.8954   -4115.0278    4.3639748    4.3639748    4.3639748   -4115.0278   -22304.621   -10647.956    20607.494    852.62815   -11161.422    9955.0944    83.108741 
    7900    2220.6283   -116.90405    2.0092711   -114.89478   -14504.152    4.3827233    4.3827233    4.3827233   -14504.152   -51151.455   -17430.414    25069.413   -14396.819   -42393.576    21690.657    84.184504 
    8000    2508.6483   -117.14553    2.2698777   -114.87566   -8767.1042    4.3821473    4.3821473    4.3821473   -8767.1042   -20860.357   -43161.088    37720.132    27235.367    9273.2171   -1626.3094    84.151318 
    8100    2271.0675   -116.92428    2.0549096   -114.86937    2018.2152    4.3678518    4.3678518    4.3678518    2018.2152   -14536.031   -10550.774    31141.451    13877.743    4433.0422    3813.1168    83.330441 
    8200    1472.8986   -116.22048    1.3327096   -114.88777   -4926.4465    4.3561796    4.3561796    4.3561796   -4926.4465   -34886.613    32594.016   -12486.743   -6524.2852   -45834.628    10918.841    82.664176 
    8300    2302.2108   -116.98248    2.0830887    -114.8994   -12868.441    4.3656604    4.3656604    4.3656604   -12868.441   -50021.055   -3229.6599    14645.392   -3410.0387    3846.6365   -15421.623    83.205082 
    8400    2689.6326   -117.31353    2.4336361   -114.87989   -12760.537    4.3831774    4.3831774    4.3831774   -12760.537   -42673.316   -35939.993    40331.698    4242.2719    7320.2465   -22167.276    84.210671 
    8500    2141.1971   -116.80947    1.9374001   -114.87207   -14670.315    4.3762682    4.3762682    4.3762682   -14670.315   -45935.518    6367.5866   -4443.0128    3873.0849   -52589.958    12056.877    83.813075 
    8600    1767.8574   -116.47291    1.5995946   -114.87332   -9606.3049    4.3600984    4.3600984    4.3600984   -9606.3049   -12185.767   -3853.0019   -12780.146   -16688.395   -24914.471    8916.2181     82.88747 
    8700    1771.9887   -116.49174    1.6033326   -114.88841   -12053.412    4.3597932    4.3597932    4.3597932   -12053.412    21702.975   -53047.564   -4815.6473   -11904.239    31341.599   -34208.798    82.870061 
    8800    1993.5773   -116.69852    1.8038306   -114.89469    1280.1305    4.3728372    4.3728372    4.3728372    1280.1305    15406.326   -21728.418    10162.483    4378.6287   -24951.463   -8694.0478    83.616104 
    8900    2298.4839   -116.95568    2.0797165   -114.87596   -16702.893    4.3846353    4.3846353    4.3846353   -16702.893   -5129.0899    -41399.68   -3579.9089    4004.3867   -33845.499    7298.9889     84.29473 
    9000    1436.5479    -116.1825    1.2998188   -114.88268   -13192.583    4.3711178    4.3711178    4.3711178   -13192.583    41313.845   -70122.262   -10769.331   -15031.827    16373.587   -26288.734    83.517508 
    9100    1624.0823   -116.33814    1.4695038   -114.86864    38420.694    4.3590643    4.3590643    4.3590643    38420.694    98277.709   -26252.343    43236.716   -19341.132     2273.661    1391.3747    82.828506 
    9200    2031.1585   -116.70934    1.8378349   -114.87151   -8933.7101    4.3822819    4.3822819    4.3822819   -8933.7101   -9745.6753   -66439.214    49383.759    39394.731   -70.563881    10617.439     84.15907 
    9300    1957.0836   -116.61936    1.7708104   -114.84855   -16850.429     4.387609     4.387609     4.387609   -16850.429    7754.6426   -74911.529      16605.6    16933.579    2816.5329   -23451.551    84.466356 
    9400    1836.6253   -116.50319    1.6618172   -114.84137   -3751.6613    4.3690658    4.3690658    4.3690658   -3751.6613    31060.145   -53075.397    10760.268   -15065.979   -1410.2604    8744.1167    83.399944 
    9500    1063.9828   -115.83384   0.96271398   -114.87113   -17900.424    4.3630868    4.3630868    4.3630868   -17900.424   -3993.8271   -92550.153    42842.707    49867.894    8188.1211    28001.916    83.058018 
    9600    2314.8159   -116.96755    2.0944941   -114.87306    9709.1677    4.3594757    4.3594757    4.3594757    9709.1677    10316.039   -845.30435    19656.768    14801.246   -5184.0484   -7692.1748     82.85196 
    9700     2477.638   -117.12441     2.241819   -114.88259   -4941.9893    4.3679146    4.3679146    4.3679146   -4941.9893   -12631.548    8924.1308   -11118.551    843.28544     4598.271   -14462.729    83.334034 
    9800    1716.8722   -116.43956    1.5534621    -114.8861   -32481.801    4.3769675    4.3769675    4.3769675   -32481.801   -64024.516   -50713.603    17292.717    68965.586     11585.75     19995.82    83.853264 
    9900    2171.6578    -116.8341    1.9649617   -114.86913    1024.6178    4.3677986    4.3677986    4.3677986    1024.6178    26926.494   -34176.058    10323.417    2997.2092   -5169.9451   -5245.3424    83.327396 
   10000    2229.4504   -116.88588    2.0172536   -114.86862    8589.9326    4.3634785    4.3634785    4.3634785    8589.9326    9865.2122    18255.532   -2350.9467   -16035.763   -16991.543   -25078.241    83.080387 
   10100     1790.166   -116.49646    1.6197798   -114.87668   -18583.571    4.3659224    4.3659224    4.3659224   -18583.571   -70299.686   -10763.884    25312.858    61586.829    5046.3076    2692.4219    83.220065 
   10200    2291.1745   -116.94635    2.0731028   -114.87325   -5418.3423    4.3658165    4.3658165    4.3658165   -5418.3423   -30648.774    4944.7176    9449.0299    15389.281    17859.617    -4165.708    83.214006 
   10300    2409.4168   -117.04488     2.180091   -114.86479   -20592.952    4.3792657    4.3792657    4.3792657   -20592.952    5990.3729   -39033.568    -28735.66    5244.4413    6062.6748   -36820.022    83.985416 
   10400    1845.6481   -116.53069    1.6699812   -114.86071   -26142.167    4.3796522    4.3796522    4.3796522   -26142.167   -38525.333   -63396.615    23495.446    73078.947   -4905.2124   -4074.2911    84.007654 
   10500    2505.0206   -117.11142    2.2665953   -114.84482    9039.3556    4.3634508    4.3634508    4.3634508    9039.3556    -24272.86    13155.437    38235.489    66.842356    12377.141    21299.641    83.078807 
   10600    2024.7407   -116.69142    1.8320279   -114.85939   -3765.0058    4.3704548    4.3704548    4.3704548   -3765.0058   -4143.9314   -31141.788    23990.702    6206.3052    13521.487   -8610.1861    83.479514 
   10700    1538.6532   -116.26375    1.3922057   -114.87155   -11820.235    4.3778651    4.3778651    4.3778651   -11820.235    2725.7975   -84706.792    46520.289    53566.257   -9440.2563   -18720.048     83.90486 
   10800     2129.798    -116.7857     1.927086   -114.85861    15649.992    4.3744895    4.3744895    4.3744895    15649.992    8566.1048   -15146.082    53529.953   -5900.9691    16682.741    -8393.841    83.710922 
   10900    1927.9399    -116.6033    1.7444406   -114.85886   -14670.583    4.3774275    4.3774275    4.3774275   -14670.583   -38799.026   -28944.946    23732.222   -2157.0084    19419.289    -458.4571    83.879703 
   11000    1488.8913   -116.21336    1.3471801   -114.86618   -30704.023    4.3709145    4.3709145    4.3709145   -30704.023   -33292.437   -94049.326    35229.694    65084.265   -3797.9112   -19111.385    83.505859 
   11100    2089.3415   -116.74715    1.8904801   -114.85667     11638.07    4.3598089    4.3598089    4.3598089     11638.07    21663.809   -26868.934    40119.336    1574.6138    6687.0115   -6679.4904    82.870956 
   11200    1843.1565   -116.53793    1.6677267    -114.8702   -1088.6972    4.3695349    4.3695349    4.3695349   -1088.6972   -596.50451   -23452.169    20782.582   -12721.524    15672.217     17528.54     83.42681 
   11300    1161.1236    -115.9306    1.0506091   -114.87999   -2095.6282    4.3747606    4.3747606    4.3747606   -2095.6282   -8137.2005   -19361.558    21211.874    47508.167    7919.6171   -16469.998    83.726487 
   11400    1793.7247   -116.49613    1.6229998   -114.87313    13051.269    4.3703412    4.3703412    4.3703412    13051.269    21936.129   -1480.2421    18697.919    -8533.459   -24561.195   -28070.936    83.472999 
   11500    2438.8517   -117.07026    2.2067243   -114.86353    15054.516    4.3651342    4.3651342    4.3651342    15054.516    19441.783   -14291.829    40013.593    8403.0457    470.64703   -483.34799    83.174996 
   11600    2098.2537   -116.76958    1.8985441   -114.87104      31385.4    4.3572769    4.3572769    4.3572769      31385.4    7415.0524    13883.844    72857.305     60245.12    3194.4604    2659.7529     82.72666 
   11700    1582.2401   -116.31691    1.4316441   -114.88527    7893.5774    4.3692146    4.3692146    4.3692146    7893.5774    7203.2482    10093.975    6383.5093   -1977.9089   -27416.342   -25542.679    83.408466 
   11800    1945.8243   -116.63367    1.7606227   -114.87304   -17506.692    4.3813391    4.3813391    4.3813391   -17506.692    9772.4522   -24302.687    -37989.84   -17233.075    6711.3402   -34870.293    84.104763 
   11900    2074.8405   -116.73369    1.8773593   -114.85633    1646.0512    4.3738251    4.3738251    4.3738251    1646.0512   -8165.6677   -19046.549    32150.371    22596.042   -4773.4896    26913.511    83.672788 
   12000    1705.1921   -116.40372    1.5428937   -114.86083   -14758.113    4.3657602    4.3657602    4.3657602   -14758.113   -13593.515   -14590.814   -16090.011    9592.5578   -16101.242     23448.35     83.21079 
   12100    1651.0352   -116.37102    1.4938914   -114.87712   -4320.7867    4.3608117    4.3608117    4.3608117   -4320.7867   -16646.875   -5286.9955    8971.5107   -34124.325   -403.09078   -20105.751    82.928155 
   12200    1830.2786   -116.54597    1.6560745   -114.88989    7996.2619    4.3627066    4.3627066    4.3627066    7996.2619   -11861.435   -7109.5523    42959.773   -17622.468     8924.266    8770.7909    83.036308 
   12300    1521.0947   -116.26692    1.3763184    -114.8906   -11371.685    4.3778118    4.3778118    4.3778118   -11371.685   -30934.588   -19693.725    16513.258    24045.798   -5145.0628    34176.109    83.901799 
   12400    1320.6611   -116.06684    1.1949619   -114.87188   -10223.135    4.3807789    4.3807789    4.3807789   -10223.135   -65110.505    21702.714    12738.387   -17003.397   -3763.0849     225.1514    84.072508 
   12500    1261.7116    -116.0005    1.1416231   -114.85888    2256.0416    4.3766071    4.3766071    4.3766071    2256.0416   -48609.898    42650.823      12727.2   -35653.921    17174.098    2582.7557    83.832551 
   12600    1612.7331    -116.3172    1.4592348   -114.85797    -6757.904    4.3728533    4.3728533    4.3728533    -6757.904   -2867.4568    2407.0407   -19813.296    7482.7784   -2573.9565    42357.877    83.617026 
   12700    2088.0717    -116.7484    1.8893312   -114.85907    20143.897    4.3558828    4.3558828    4.3558828    20143.897   -26401.124    48965.951    37866.864   -7236.5475   -4276.9554    5002.2706    82.647278 
   12800    1809.3848    -116.5213    1.6371694   -114.88413    8441.8841    4.3579929    4.3579929    4.3579929    8441.8841    -77108.57    57168.865    45265.357   -24151.387     15384.96   -1956.3486    82.767448 
   12900    1429.5645   -116.18886       1.2935   -114.89536   -40033.674      4.38184      4.38184      4.38184   -40033.674   -52709.672   -4177.8715   -63213.478    7609.4224    9070.7644    37436.945    84.133612 
   13000    2041.8816   -116.71385    1.8475374   -114.86631    4503.1784    4.3758444    4.3758444    4.3758444    4503.1784   -5296.9934    39636.428     -20829.9    865.53131   -12022.412    8740.4499    83.788728 
   13100    2337.4238    -116.9741    2.1149502   -114.85915    13725.047    4.3712236    4.3712236    4.3712236    13725.047   -16211.621   -5851.3713    63238.133   -36508.625   -8629.8078   -24424.371    83.523576 
   13200    2031.7256   -116.70748     1.838348   -114.86913    -10164.92    4.3725527    4.3725527    4.3725527    -10164.92   -9687.8231   -28753.418     7946.481    1692.9831    8110.3799    32831.026    83.599782 
   13300    2248.3356   -116.90126    2.0343413   -114.86692    16840.653     4.360378     4.360378     4.360378    16840.653   -4708.3464    32329.633    22900.672    8485.7034     -5607.95    43472.983    82.903415 
   13400    2675.7027   -117.29547    2.4210321   -114.87444     13665.65    4.3710049    4.3710049    4.3710049     13665.65   -22838.609    29011.141    34824.417   -25920.652     -12851.3   -13987.479    83.511039 
   13500     1900.805   -116.60845    1.7198883   -114.88857   -20255.273    4.3784271    4.3784271    4.3784271   -20255.273   -2312.6006   -62299.842    3846.6227    6325.4259     1797.733    30911.645     83.93718 
   13600    1517.5075   -116.25688    1.3730727   -114.88381    28620.914    4.3636968    4.3636968    4.3636968    28620.914    36188.564    37928.996    11745.181    18857.202   -14198.986    34741.014    83.092859 
   13700    2840.9206   -117.42939    2.5705247   -114.85886    4053.1043    4.3836315    4.3836315    4.3836315    4053.1043    -9207.081    33742.808   -12376.414   -9980.5715   -7898.9962   -37793.021    84.236847 
   13800    2092.6349   -116.73175    1.8934601   -114.83829   -23593.353    4.3951411    4.3951411    4.3951411   -23593.353    31384.991   -35687.184   -66477.865    4795.9143    13104.679    31851.009    84.902109 
   13900    1693.3211   -116.36093    1.5321526   -114.82878    1998.8859    4.3754872    4.3754872    4.3754872    1998.8859      74024.7   -32980.353   -35047.689    8259.0503    9397.7425    33233.268    83.768213 
   14000    1950.4722   -116.60055    1.7648283   -114.83572    -143.5055    4.3710592    4.3710592    4.3710592    -143.5055    48202.884    6784.2793   -55417.679   -13206.829    9901.3499   -58754.003    83.514148 
   14100    1810.9513   -116.48315    1.6385868   -114.84456    530.28754    4.3809267    4.3809267    4.3809267    530.28754    82178.608   -7058.7845   -73528.961   -3430.2139   -10642.286    18401.206    84.081018 
   14200     1962.029   -116.61959     1.775285   -114.84431    2351.8242    4.3819591    4.3819591    4.3819591    2351.8242    40302.914    4148.7122   -37396.154    33257.849    8181.2057    27964.688    84.140477 
   14300    1164.3406   -115.90978    1.0535198   -114.85626   -7992.4674    4.3806764    4.3806764    4.3806764   -7992.4674    24562.834    5019.8418   -53560.078    6252.5392    7669.6927   -62775.247    84.066608 
   14400    1860.2702   -116.53351    1.6832115    -114.8503    -4658.815    4.3717399    4.3717399    4.3717399    -4658.815    15786.623    9208.1467   -38971.215   -10786.088    -7519.069   -21245.179    83.553171 
   14500    2471.9814   -117.08213    2.2367007   -114.84543     18533.67     4.364604     4.364604     4.364604     18533.67    9685.6335      27269.8    18645.577    24566.051   -4047.3012    8001.8033    83.144695 
   14600    1217.6089   -115.97987    1.1017181   -114.87815   -8860.8517    4.3849131    4.3849131    4.3849131   -8860.8517   -26153.996    14430.716   -14859.275    11125.186    5961.6008   -49203.675    84.310756 
   14700    1984.8611   -116.63883     1.795944   -114.84289   -30642.136    4.4000209    4.4000209    4.4000209   -30642.136   -61911.332     2012.797   -32027.872   -11473.263   -2856.0276   -6542.2419    85.185215 
   14800    2239.5133   -116.84252    2.0263587   -114.81616    7861.8903    4.3831462    4.3831462    4.3831462    7861.8903   -7181.3815    28030.295    2736.7575   -1560.5656   -9784.7789   -116.53941    84.208874 
   14900    1350.8694   -116.05439     1.222295   -114.83209    25358.716    4.3703478    4.3703478    4.3703478    25358.716    55339.353   -3297.2914    24034.086    15708.366   -13541.577   -47533.062    83.473378 
   15000    2230.7959   -116.84834     2.018471   -114.82987    7522.4025    4.3759103    4.3759103    4.3759103    7522.4025    257.73816    52457.205   -30147.736   -4082.2374   -25270.015    6813.0107    83.792515 
   15100    1608.1164   -116.30056    1.4550575    -114.8455    6739.4531    4.3966264    4.3966264    4.3966264    6739.4531    74073.933   -9700.5748   -44154.999    -13947.75    6259.1737   -1774.0386    84.988214 
   15200    1679.4642   -116.34067    1.5196145   -114.82106    -27825.63    4.4122301    4.4122301    4.4122301    -27825.63    9674.4772   -81221.921   -11929.447     15258.61    -5412.215   -23106.883    85.896299 
   15300    1993.6417   -116.59816    1.8038889   -114.79427   -8650.1329    4.3904269    4.3904269    4.3904269   -8650.1329    -8111.128   -11206.755   -6632.5161    6317.1611   -1890.7298    9211.3667    84.629201 
   15400    1629.8651   -116.27682    1.4747362   -114.80208   -9454.4079    4.3686055    4.3686055    4.3686055   -9454.4079    62206.998   -65761.619   -24808.603   -12753.753    4070.2927    5773.4507    83.373587 
   15500    1878.3155   -116.52195    1.6995393   -114.82241    25111.374    4.3648426    4.3648426    4.3648426    25111.374    39081.751   -25976.348    62228.718    7400.8648   -14243.067   -10302.206     83.15833 
   15600    2024.7181   -116.68098    1.8320075   -114.84897   -22785.515    4.3770694    4.3770694    4.3770694   -22785.515   -27428.841   -6126.9334   -34800.769    11201.464    1962.4711   -2903.3127     83.85912 
   15700    1510.7008   -116.22387    1.3669138   -114.85696   -41691.741    4.3847008    4.3847008    4.3847008   -41691.741   -17556.918    -81496.98   -26021.324    -18470.16    14051.065    2952.2165    84.298508 
   15800    2069.5778   -116.71269    1.8725975   -114.84009   -18180.095    4.3829018    4.3829018    4.3829018   -18180.095   -849.39527    -65834.15    12143.261   -15567.688   -8323.6381   -1966.9283    84.194793 
   15900    1768.1255   -116.43899    1.5998371   -114.83915   -25594.824    4.3805699    4.3805699    4.3805699   -25594.824   -39931.284    5442.8157   -42296.004    10811.107   -21736.635    7252.1939    84.060477 
   16000    1758.4619   -116.43339    1.5910933    -114.8423   -4034.4764      4.37456      4.37456      4.37456   -4034.4764    30967.943   -5347.5152   -37723.857   -5448.7447    14937.785    16748.503     83.71497 
   16100    2567.5544   -117.15887    2.3231772    -114.8357    17784.296    4.3762533    4.3762533    4.3762533    17784.296    70818.386   -7780.7632   -9684.7355   -5913.2456    711.89855     1696.426    83.812224 
   16200    1838.1545   -116.51404    1.6632008   -114.85084   -5378.8706    4.3884013    4.3884013    4.3884013   -5378.8706   -26474.003    46548.749   -36211.358     6924.691   -50630.213   -2966.8893    84.512119 
   16300    2116.2553   -116.74416    1.9148323   -114.82933    2887.1196      4.40065      4.40065      4.40065    2887.1196    43594.566    7156.8663   -42090.073   -2822.1328    27172.392    5297.7618    85.221757 
   16400    2629.8954   -117.16824    2.3795846   -114.78866   -22542.179     4.401495     4.401495     4.401495   -22542.179   -13355.798   -1078.2879    -53192.45   -18667.714    -8373.625   -17896.355     85.27086 
   16500    1305.6419   -115.97688    1.1813722   -114.79551   -6288.7325    4.3830282    4.3830282    4.3830282   -6288.7325   -20275.835    69898.985   -68489.348    12700.988   -58509.934    4145.7201    84.202077 
   16600    2369.0418   -116.93153    2.1435588   -114.78797    21521.277    4.3708077    4.3708077    4.3708077    21521.277    21887.271    73626.481   -30949.922    14039.624    31434.629    2227.6319    83.499735 
   16700    1643.3478   -116.32141    1.4869356   -114.83448    7817.7949    4.3855385    4.3855385    4.3855385    7817.7949   -45620.529    72561.386   -3487.4722    6387.1675   -26604.796    5524.9948    84.346832 
   16800    1041.7408   -115.77918   0.94258898   -114.83659   -7838.1787    4.4081742    4.4081742    4.4081742   -7838.1787   -77431.894    75808.083   -21890.725   -1447.2345   -22930.381    14101.439    85.659638 
   16900    2361.2945   -116.93337    2.1365489   -114.79682   -536.92989    4.4002438    4.4002438    4.4002438   -536.92989   -17447.765    16997.684   -1160.7091   -11159.522     18736.13    19647.007    85.198161 
   17000    1588.5417   -116.23147    1.4373459   -114.79413    47593.735    4.3725374    4.3725374    4.3725374    47593.735    6299.0646    93512.724    42969.418    6937.8881   -54462.521    11786.514    83.598907 
   17100    2405.0958   -116.98791    2.1761812   -114.81173    9099.1863      4.38019      4.38019      4.38019    9099.1863   -33837.764    17499.031    43636.293    17005.706   -2685.6764   -6336.6706    84.038607 
   17200     2253.684   -116.85694    2.0391806   -114.81776   -34801.963    4.3999124    4.3999124    4.3999124   -34801.963   -79298.979     -6252.83    -18854.08    -12792.97   -27044.569    14715.893    85.178913 
   17300    1757.0857   -116.41133    1.5898481   -114.82148   -15986.872    4.3937313    4.3937313    4.3937313   -15986.872   -36604.743     13037.32   -24393.193    6686.0014   -40313.842   -4889.5229     84.82043 
   17400    2215.3523   -116.81704    2.0044973   -114.81255   -10178.529    4.3768051    4.3768051    4.3768051   -10178.529   -18114.169   -19007.696    6586.2779    2299.3712    14369.963   -27452.077     83.84393 
   17500    1548.7191   -116.24232    1.4013136   -114.84101   -5496.6154    4.3669224    4.3669224    4.3669224   -5496.6154   -41889.598    47525.948   -22126.197   -1489.0468   -38367.635    7486.4157    83.277257 
   17600    1388.6948   -116.12702    1.2565202    -114.8705   -15615.242     4.372403     4.372403     4.372403   -15615.242   -49254.563    45168.753   -42759.915   -6577.4645   -43378.206    441.25834    83.591198 
   17700    2265.7791   -116.91324    2.0501245   -114.86311   -19829.151    4.3871977    4.3871977    4.3871977   -19829.151   -3611.7301   -4213.2436   -51662.478    116.62117    16809.855   -14383.341    84.442603 
   17800      1802.71   -116.48548    1.6311299   -114.85435   -18000.403    4.3963129    4.3963129    4.3963129   -18000.403   -77456.774    39200.672   -15745.108    -20679.54   -39207.994   -4738.9784    84.970033 
   17900      1924.31   -116.57313    1.7411561   -114.83197   -49270.324    4.3992438    4.3992438    4.3992438   -49270.324   -79943.823    894.14267   -68761.292    -6190.934   -38403.512   -5202.1831    85.140085 
   18000    2572.4199   -117.13657    2.3275796   -114.80899     22642.78    4.3739716    4.3739716    4.3739716     22642.78    37699.197    31192.348   -963.20516    10345.026    28890.162   -8357.0445    83.681193 
   18100    2302.7053   -116.90723    2.0835362    -114.8237    14136.987    4.3632544    4.3632544    4.3632544    14136.987    658.55023    41952.837   -200.42494   -505.15074   -36761.522   -4829.4079    83.067592 
   18200    1463.8449   -116.18962    1.3245176    -114.8651   -11575.772    4.3805311    4.3805311    4.3805311   -11575.772   -17068.265    5195.5499     -22854.6   -11541.645   -47063.368    8409.3134     84.05824 
   18300    2231.4616   -116.87087    2.0190733   -114.85179   -19191.992    4.3821006    4.3821006    4.3821006   -19191.992    31719.882   -57843.986   -31451.871   -12428.114     19889.29   -26879.046    84.148628 
   18400    1639.8973   -116.34059    1.4838135   -114.85678   -10372.766    4.3850387    4.3850387    4.3850387   -10372.766   -6017.0255   -7679.8929    -17421.38    17380.619   -19990.203    683.24587    84.317999 
   18500    1191.8475    -115.9223    1.0784087   -114.84389   -28842.837    4.3969996    4.3969996    4.3969996   -28842.837   -20766.243   -26913.037    -38849.23   -30097.811   -44365.553    5590.8876    85.009855 
   18600    1997.1618   -116.62829    1.8070739   -114.82122    10746.176    4.3827921    4.3827921    4.3827921    10746.176     53011.54   -60350.045    39577.032   -18965.803   -1265.3715   -6292.8697    84.188469 
   18700    1829.4133   -116.48411    1.6552916   -114.82881    19777.619    4.3732605    4.3732605    4.3732605    19777.619   -3196.9195   -8879.9298    71409.706    16220.565   -11216.649    19783.135    83.640389 
   18800    1074.3665    -115.8289   0.97210942   -114.85679    -15055.81    4.3845778    4.3845778    4.3845778    -15055.81   -66539.334   -44333.851    65705.755   -43513.512   -36533.409    5505.5214    84.291417 
   18900    2259.6628   -116.89251    2.0445904   -114.84792   -532.64802    4.3901375    4.3901375    4.3901375   -532.64802   -5840.4623   -43963.845    48206.363    -7147.356    22844.517    9409.4221    84.612469 
   19000    2181.8211   -116.82464    1.9741576   -114.85048   -37365.256     4.394136     4.394136     4.394136   -37365.256   -74342.203   -4434.1646     -33319.4   -3281.0206   -17893.034    13179.454    84.843875 
   19100    1163.9306   -115.91102    1.0531489   -114.85787   -17151.193    4.3763506    4.3763506    4.3763506   -17151.193   -48287.094   -13062.246    9895.7623    -43353.91   -42384.248    7531.4623    83.817812 
   19200    2557.4599   -117.15538    2.3140434   -114.84134    21815.364    4.3626488    4.3626488    4.3626488    21815.364     15184.47    23499.225    26762.397    10083.465     16510.75    5302.4853    83.033004 
   19300    1844.6429   -116.54019    1.6690717   -114.87112   -31205.202    4.3893398    4.3893398    4.3893398   -31205.202   -48937.956    8204.3947   -52882.044   -14539.013    18724.606   -3127.2926    84.566356 
   19400    1301.5817    -116.0358    1.1776985    -114.8581    -25468.95    4.3998437    4.3998437    4.3998437    -25468.95   -76162.383    45161.208   -45405.674    -39915.97   -35591.901    10412.777    85.174921 
   19500    2488.1753   -117.08192    2.2513533   -114.83056    3140.4845    4.3917076    4.3917076    4.3917076    3140.4845   -27879.708    11353.412    25947.749     13560.13    85.688353    23830.533    84.703286 
   19600    1961.6808   -116.61127      1.77497    -114.8363    13122.757    4.3793723    4.3793723    4.3793723    13122.757   -25883.502   -10232.262    75484.034   -7143.3573    25131.005    1868.4383     83.99155 
   19700    1473.2703   -116.18032    1.3330459   -114.84728     17559.63     4.366849     4.366849     4.366849     17559.63   -37109.403    59374.181    30414.112   -30860.326   -27745.103   -7564.0704    83.273063 
   19800    1644.7541   -116.34929    1.4882081   -114.86108    13369.455    4.3780025    4.3780025    4.3780025    13369.455    6558.3719    39347.596   -5797.6034    37630.761   -5997.8535    23704.204     83.91276 
   19900    2032.8004   -116.68929    1.8393205   -114.84997   -2332.5603     4.390358     4.390358     4.390358   -2332.5603   -3061.3528    -25236.31    21299.982   -170.59434    3595.7619    11371.236    84.625221 
   20000    2102.9773   -116.73794    1.9028181   -114.83512    10652.141    4.3911405    4.3911405    4.3911405    10652.141   -35403.741    73544.046    -6183.883   -31493.027   -9958.8954   -16136.914    84.670473 
   20100    1537.3257   -116.24629    1.3910046   -114.85529   -36815.469    4.3855375    4.3855375    4.3855375   -36815.469   -69107.047   -39905.152    -1434.207    62289.241   -3877.7292     41.99498    84.346775 
   20200    2234.0771    -116.8847    2.0214399   -114.86326    14406.599    4.3679252    4.3679252    4.3679252    14406.599   -10202.354    42809.083    10613.069    20993.128   -1484.5654    39300.656    83.334645 
   20300    2096.0429   -116.78752    1.8965437   -114.89098    20862.186    4.3824394    4.3824394    4.3824394    20862.186   -24188.499    72578.903    14196.154    7924.5023   -4073.7705   -8380.3237    84.168145 
   20400    1472.8048   -116.20814    1.3326247   -114.87551   -14960.135    4.3974899    4.3974899    4.3974899   -14960.135   -60489.576   -25978.752    41587.922     76392.95   -14601.015   -8914.4214    85.038295 
   20500    2348.6702   -116.95043    2.1251262    -114.8253    12956.261     4.402199     4.402199     4.402199    12956.261   -32403.588    68766.979    2505.3908   -11423.486    8860.4486   -1457.4763    85.311784 
   20600     1877.266    -116.5199    1.6985897   -114.82131    -41033.34    4.4123786    4.4123786    4.4123786    -41033.34   -43099.846   -30946.615   -49053.558    32041.148    5204.1216    4157.9049    85.904974 
   20700    1442.2176   -116.12673    1.3049488   -114.82178    -22591.52    4.3959494    4.3959494    4.3959494    -22591.52   -33213.088   -14813.093   -19748.378    60833.624   -10856.164    7700.0277    84.948955 
   20800    2600.0104   -117.16713     2.352544   -114.81458    18898.722     4.383409     4.383409     4.383409    18898.722    13682.419     78652.09   -35638.344   -21698.377    3032.2896   -6506.4221    84.224022 
   20900    1877.2391   -116.53889    1.6985654   -114.84033    11668.686    4.3826592    4.3826592    4.3826592    11668.686    17149.791    5274.2382    12582.029    31970.005    1064.4709     2608.487    84.180813 
   21000    1347.0154   -116.09487    1.2188078   -114.87606    904.36088    4.3938521    4.3938521    4.3938521    904.36088    23565.575     -9761.36   -11091.133    41214.421   -18095.655   -6742.9285    84.827431 
   21100    2516.2882   -117.12861    2.2767905   -114.85182   -4409.6517     4.408602     4.408602     4.408602   -4409.6517     39917.46    24019.745    -77166.16   -23815.339    610.97749    -26566.31    85.684581 
   21200    1980.7985    -116.6303    1.7922682   -114.83803   -4615.0555     4.400268     4.400268     4.400268   -4615.0555    8811.0251   -29327.284    6671.0922    32012.673   -7227.9513   -735.22807    85.199565 
   21300    1488.7794   -116.18713    1.3470789   -114.84005   -3331.9998    4.3969464    4.3969464    4.3969464   -3331.9998     -49374.8    15176.525    24202.276    43999.588    -9516.502    11099.203    85.006772 
   21400    2297.0814   -116.90962    2.0784476   -114.83117    17606.841    4.3827308    4.3827308    4.3827308    17606.841   -9674.7667    58931.037    3564.2538   -22173.999    12918.607   -16479.729    84.184935 
   21500    1722.2298   -116.40402    1.5583097   -114.84571    23077.848    4.3705696    4.3705696    4.3705696    23077.848    17538.653    20572.364    31122.528     32411.55    4874.6514   -3606.0567    83.486093 
   21600    1177.2773   -115.94824    1.0652253   -114.88302   -30697.686    4.3960351    4.3960351    4.3960351   -30697.686   -50142.872   -26439.309   -15510.877    39824.112   -21567.257    15404.079    84.953925 
   21700    2510.1429   -117.11323    2.2712301     -114.842    -12553.32    4.3946879    4.3946879    4.3946879    -12553.32   -50520.167    36566.151   -23705.944   -15400.867   -10050.994   -8217.7674    84.875845 
   21800    1791.9747   -116.45836    1.6214164   -114.83694    29713.836    4.3811117    4.3811117    4.3811117    29713.836   -6562.0593    54866.989    40836.579    45557.694    5303.0361    8267.7383    84.091671 
   21900    1385.1215    -116.1108    1.2532871   -114.85751   -40191.695    4.4021169    4.4021169    4.4021169   -40191.695   -86790.114   -14125.813   -19659.158    33927.074   -35069.044    8389.8572    85.307008 
   22000    2317.6472   -116.91204    2.0970559   -114.81499   -1645.7514     4.396584     4.396584     4.396584   -1645.7514   -30804.278    49632.141   -23765.118   -12916.737   -22664.018   -4871.8809    84.985752 
   22100    2398.0162   -116.98031    2.1697755   -114.81053    6072.3897    4.3880537    4.3880537    4.3880537    6072.3897    28942.035   -16282.595    5557.7297    29036.196    14825.772    3214.8921    84.492043 
   22200    1471.8789   -116.16148     1.331787    -114.8297   -32764.546    4.4087776    4.4087776    4.4087776   -32764.546   -48098.542   -46212.933   -3982.1642    680.53798   -38060.443    8372.7948    85.694818 
   22300    1973.6566   -116.60176    1.7858059   -114.81596   -8732.1558    4.3887488    4.3887488    4.3887488   -8732.1558   -16087.819   -39998.292    29889.643   -23824.812   -21872.766    13170.812    84.532198 
   22400    2321.4831   -116.91336    2.1005267   -114.81284    16255.278    4.3622726    4.3622726    4.3622726    16255.278    12720.068    5615.4144    30430.353     30843.92    3532.5659   -16345.216    83.011527 
   22500    1531.4077   -116.24855    1.3856499    -114.8629   -7827.1381    4.3821345    4.3821345    4.3821345   -7827.1381    15604.273   -11841.921   -27243.767    14664.032   -62536.047    17344.933    84.150577 
   22600    1971.8663    -116.6383    1.7841861   -114.85411    -18018.31     4.394021     4.394021     4.394021    -18018.31   -16471.523   -50997.732    13414.325   -21647.253    6197.8105    15463.556    84.837211 
   22700    1982.0886   -116.63136    1.7934354   -114.83793   -507.02247    4.3986701    4.3986701    4.3986701   -507.02247    36574.342   -49059.449     10964.04    8853.6234    2081.1415   -10978.278    85.106782 
   22800    1770.4859   -116.43646    1.6019729   -114.83449   -37981.613    4.3927218    4.3927218    4.3927218   -37981.613   -33006.945   -10095.361   -70842.531    15214.225   -59226.965    13361.327    84.761979 
   22900    2136.8893   -116.75093    1.9335024   -114.81743   -6845.5368    4.3704493    4.3704493    4.3704493   -6845.5368     1282.487   -21060.925   -758.17279   -12601.248    6220.2683    27406.306    83.479196 
   23000    2218.2968   -116.84787    2.0071616   -114.84071   -5334.2675    4.3822094    4.3822094    4.3822094   -5334.2675    -47499.92   -7161.9765    38659.094    12940.314   -5835.7554   -3961.8855    84.154893 
   23100    1276.1972   -116.01564    1.1547301   -114.86091   -25018.039    4.3945797    4.3945797    4.3945797   -25018.039    -71953.26   -1402.2002   -1698.6557    13283.388   -60131.956    13405.634    84.869577 
   23200    2180.7258   -116.81644    1.9731665   -114.84328    -13946.53    4.3884392    4.3884392    4.3884392    -13946.53   -7395.4047   -30823.018   -3621.1665   -1992.0593    6520.6524     30408.16    84.514312 
   23300    2168.6482    -116.8137    1.9622384   -114.85146   -24005.545    4.3966328    4.3966328    4.3966328   -24005.545   -27449.041   -38398.012   -6169.5823   -615.74449    10857.686   -15118.791    84.988583 
   23400    1414.8293   -116.13074    1.2801673   -114.85057   -20127.739    4.3839791    4.3839791    4.3839791   -20127.739   -43732.982     3672.492   -20322.729    6980.0507   -74657.715    16994.099     84.25689 
   23500    1738.5077    -116.4179    1.5730383   -114.84486    21183.914    4.3793299    4.3793299    4.3793299    21183.914    37347.582    30399.371   -4195.2098   -2047.7268    886.09113    27781.755    83.989112 
   23600    1691.1999   -116.38077    1.5302332   -114.85054    -5031.719    4.4009462    4.4009462    4.4009462    -5031.719   -41710.154    22862.517      3752.48   -8528.8251    33885.926    -3220.415    85.238969 
   23700      1379.12   -116.07514    1.2478567   -114.82729    5407.9264    4.4005255    4.4005255    4.4005255    5407.9264   -18207.671    57066.704   -22635.253    19304.958    -27191.93    21855.722    85.214524 
   23800     2206.704   -116.80684    1.9966721   -114.81016   -18088.757    4.4066854    4.4066854    4.4066854   -18088.757   -16138.994   -21071.679   -17055.597    3009.2165    388.15013    26286.412    85.572877 
   23900     1648.707   -116.30546    1.4917847   -114.81368   -48891.056    4.4016129    4.4016129    4.4016129   -48891.056   -70528.662   -25483.398   -50661.109   -11717.737   -15753.217   -10929.963    85.277709 
   24000    1576.9493   -116.23327    1.4268569   -114.80641     10012.08    4.3635787    4.3635787    4.3635787     10012.08   -21335.748    53614.122   -2242.1332    13824.112   -34397.632    6752.7601    83.086111 
   24100    2201.0237   -116.82812    1.9915325   -114.83659    13472.204    4.3667368    4.3667368    4.3667368    13472.204    25574.576   -4336.7289    19178.765   -11442.197     27909.71    33918.676    83.266639 
   24200    1557.6445    -116.2673    1.4093895   -114.85792   -46248.479    4.3950698    4.3950698    4.3950698   -46248.479   -84978.437   -34127.815   -19639.186   -36791.595    1818.7156    20270.379    84.897976 
   24300    2046.5446    -116.6851    1.8517565   -114.83335    2853.7678    4.3902648    4.3902648    4.3902648    2853.7678   -52221.296    38425.314    22357.286    14646.984   -29055.171   -17093.655    84.619832 
   24400    2176.2113   -116.80018    1.9690818    -114.8311   -71.715363    4.3909452    4.3909452    4.3909452   -71.715363    3294.8591   -41176.879    37666.874     -12872.1    7058.5168    17182.101    84.659177 
   24500    1473.5274   -116.17302    1.3332786   -114.83974   -43497.782     4.392902     4.392902     4.392902   -43497.782   -75271.915   -24494.758   -30726.674   -18952.146   -44973.144    26924.178    84.772412 
   24600    2170.5588   -116.79325    1.9639673   -114.82929    9826.9364    4.3759157    4.3759157    4.3759157    9826.9364   -9095.7533    35580.752    2995.8103     6885.681   -33344.804   -20941.235    83.792824 
   24700    2399.5233   -117.01073    2.1711391   -114.83959    8071.0085    4.3779897    4.3779897    4.3779897    8071.0085    4077.3448   -28076.955    48212.636   -24463.462    26028.407    9282.9645    83.912023 
   24800    1348.3637    -116.0735    1.2200278   -114.85347   -38065.137    4.3961887    4.3961887    4.3961887   -38065.137   -78354.127   -36955.418    1114.1333   -38277.074   -44051.812    10970.035    84.962834 
   24900    2252.0817   -116.86296    2.0377309   -114.82523     798.1244    4.3908164    4.3908164    4.3908164     798.1244    12510.169   -14608.007    4492.2112    2329.4005   -34298.103    -17078.01    84.651729 
   25000    2054.3905   -116.68508    1.8588557   -114.82622    12963.242    4.3863212    4.3863212    4.3863212    12963.242    44656.663   -9345.5422    3578.6035   -10681.546     8849.362   -4855.4176    84.392003 
   25100     1652.782   -116.33137    1.4954719    -114.8359   -32599.707    4.3932024    4.3932024    4.3932024   -32599.707    -67226.54   -29355.073   -1217.5065   -15888.743   -39124.365    4876.4681    84.789805 
   25200     2082.683   -116.71034    1.8844554   -114.82588    31410.609    4.3967688    4.3967688    4.3967688    31410.609    56119.893    12765.502    25346.434     282.6031   -17908.657    183.13442    84.996468 
   25300    1838.3587   -116.49099    1.6633856    -114.8276   -19140.096     4.414911     4.414911     4.414911   -19140.096   -24326.608   -36155.705    3062.0256    -27381.78   -2995.0789    1473.6601     86.05297 
   25400    1773.7511   -116.41946    1.6049273   -114.81453   -34508.332    4.4014651    4.4014651    4.4014651   -34508.332   -67174.536   -14655.659   -21694.801   -982.36483   -25082.369     16839.71    85.269124 
   25500    1955.0945    -116.5552    1.7690106   -114.78619    28973.372    4.3649982    4.3649982    4.3649982    28973.372    28916.241    16708.154     41295.72   -7440.2173   -1740.8895    31411.583    83.167222 
   25600    1217.7502   -115.94506     1.101846   -114.84322    15568.086    4.3756694    4.3756694    4.3756694    15568.086    5511.8637   -25135.814    66328.209   -47036.512    9696.0687     17660.07    83.778679 
   25700    2497.3193   -117.08801     2.259627   -114.82838   -1960.0763    4.3956896    4.3956896    4.3956896   -1960.0763   -29729.233    11746.675    12102.329    10043.883   -4264.7227   -636.47382    84.933898 
   25800     1992.325   -116.62817    1.8026975   -114.82547    14431.239    4.4000137    4.4000137    4.4000137    14431.239    62866.481   -10726.189   -8846.5758    -22615.07   -7642.7552    5080.6011    85.184798 
   25900    1728.8694   -116.39112    1.5643174    -114.8268   -14089.104    4.4045415    4.4045415    4.4045415   -14089.104   -2903.5411   -47585.539    8221.7672   -43796.778    25287.744    10105.293    85.448041 
   26000    2510.2206   -117.08581    2.2713003   -114.81451    33527.027    4.3899834    4.3899834    4.3899834    33527.027    85496.786    370.49847    14713.797    24339.242   -8584.4013   -4643.6596    84.603561 
   26100    1608.0957   -116.28173    1.4550388   -114.82669    32577.313     4.369613     4.369613     4.369613    32577.313    20303.955    5255.2301    72172.753   -49242.918    -4974.392    10114.582    83.431281 
   26200    1570.5984   -116.27365    1.4211104   -114.85254    7541.7082    4.3893977    4.3893977    4.3893977    7541.7082    22153.255   -24740.156    25212.026    -20343.83    23543.368    11036.643      84.5697 
   26300    2260.8365   -116.86684    2.0456524   -114.82119   -13836.824    4.4150411    4.4150411    4.4150411   -13836.824    10182.203   -23015.707   -28676.969    12390.575   -19121.808    -17892.72    86.060576 
   26400    896.04427   -115.62883   0.81075968   -114.81807   -6964.0447    4.4081442    4.4081442    4.4081442   -6964.0447   -39507.505    14830.171    3785.2001   -64235.243    7931.3979    16981.543    85.657894 
   26500     1592.696   -116.26579    1.4411048   -114.82468    9528.0841    4.3831144    4.3831144    4.3831144    9528.0841    68403.171    21051.447   -60870.365    11225.703    1937.1545   -1926.1074    84.207042 
   26600    2397.5137    -117.0006    2.1693207   -114.83128    12912.094    4.3593923    4.3593923    4.3593923    12912.094    13796.134     31475.75   -6535.6012   -3713.3533    -4951.462   -7958.6799    82.847204 
   26700    1493.8853   -116.24406    1.3516988   -114.89236    13576.493     4.362582     4.362582     4.362582    13576.493      14872.2    18267.059    7590.2203   -31463.845    2763.3192    21533.957    83.029193 
   26800    1634.7894   -116.38616    1.4791918   -114.90697   -14043.265    4.4059185    4.4059185    4.4059185   -14043.265    29756.858   -29314.372   -42572.283   -6843.2757    21156.384   -668.27433    85.528207 
   26900    2447.3748   -117.06374    2.2144362   -114.84931   -36466.754    4.4058137    4.4058137    4.4058137   -36466.754   -49395.009   -57854.834   -2150.4189    56725.751   -518.25056   -9758.8186    85.522104 
   27000    1256.8942   -115.95603    1.1372643   -114.81877    37488.775    4.3661358    4.3661358    4.3661358    37488.775    119881.95   -56885.123    49469.495   -7934.6729    861.75409    26256.815    83.232268 
   27100    2546.8741   -117.13284    2.3044652   -114.82837   -8887.0087    4.3664351    4.3664351    4.3664351   -8887.0087    22415.724   -34820.678   -14256.072   -12366.618    3645.2547    23907.393    83.249386 
   27200    1595.3826   -116.29131    1.4435357   -114.84778    29590.644    4.3692118    4.3692118    4.3692118    29590.644    72550.382   -27737.928     43959.48    26501.941   -5629.3375   -8753.5124    83.408306 
   27300     1684.072   -116.40128    1.5237837    -114.8775    3306.0795    4.3818872    4.3818872    4.3818872    3306.0795    1013.6987   -41891.102    50795.642   -3114.9801      2400.81    6704.4338    84.136333 
   27400    2183.8041   -116.82409    1.9759519   -114.84814   -20948.168    4.4042049    4.4042049    4.4042049   -20948.168    6465.7702   -61021.851   -8288.4234    -17143.66    1701.2639   -4054.2787    85.428456 
   27500    1893.4707   -116.54711    1.7132521   -114.83386   -8438.9446    4.3822669    4.3822669    4.3822669   -8438.9446    48682.649   -38720.699   -35278.784    25953.362    8035.3991    -38237.37    84.158209 
   27600    1766.3781   -116.43355     1.598256   -114.83529   -9861.7186    4.3644536    4.3644536    4.3644536   -9861.7186   -50878.669   -53847.546     75141.06   -33159.657    8273.6713    4350.8634    83.136098 
   27700    2555.5041   -117.15994    2.3122738   -114.84767   -5435.9337    4.3758529    4.3758529    4.3758529   -5435.9337     208.3108   -46624.984    30108.872   -15921.007    12422.158   -5585.7395    83.789219 
   27800     2228.007   -116.86269    2.0159476   -114.84674   -7996.1717    4.3961863    4.3961863    4.3961863   -7996.1717    55714.804   -47100.318   -32603.001    7728.3736     14865.91   -25883.221    84.962695 
   27900     1787.502    -116.4472    1.6173694   -114.82983   -40176.384    4.4118785    4.4118785    4.4118785   -40176.384   -24034.605   -97570.547     1075.999   -33304.759    -1891.805    4569.7064    85.875766 
   28000    2130.0519   -116.72997    1.9273157   -114.80265   -31143.044    4.4026926    4.4026926    4.4026926   -31143.044     20556.86    -72280.95   -41705.042   -1860.4858    14426.716   -13002.006     85.34048 
   28100    2143.1367    -116.7389    1.9391551   -114.79975    3146.8123    4.3696415    4.3696415    4.3696415    3146.8123    60917.049   -22506.791   -28969.821   -951.41581     4401.922    -23167.64    83.432919 
   28200    1274.5822   -115.97566    1.1532687   -114.82239    18096.883    4.3468932    4.3468932    4.3468932    18096.883    35888.767   -43396.368     61798.25    3498.2457    12327.791    28246.886    82.136638 
   28300    1154.0903   -115.93739    1.0442452   -114.89314    7806.2953    4.3766141    4.3766141    4.3766141    7806.2953    111270.55   -76231.759   -11619.906   -8438.5104   -3358.0847    16619.604    83.832956 
   28400    2288.1265   -116.92914    2.0703449    -114.8588   -17819.126    4.4121696    4.4121696    4.4121696   -17819.126    19237.775   -46409.049   -26286.103   -332.91801    2287.5459    -1924.263    85.892768 
   28500     961.2219   -115.71196   0.86973378   -114.84223   -15587.884    4.4122793    4.4122793    4.4122793   -15587.884   -2104.9008   -90016.241    45357.488    10361.551    13184.208    31421.804    85.899175 
   28600    1511.2291   -116.17592    1.3673919   -114.80853    15743.995    4.3791259    4.3791259    4.3791259    15743.995   -13055.655   -53169.819    113457.46    24864.564     12541.69    12609.712    83.977375 
   28700    2137.2862   -116.72457    1.9338615   -114.79071    34149.005    4.3632366    4.3632366    4.3632366    34149.005     61799.94   -2843.9664     43491.04   -14053.751    980.89578   -18759.705     83.06657 
   28800    2009.5447   -116.65496    1.8182783   -114.83669   -22764.334    4.3902061    4.3902061    4.3902061   -22764.334   -35475.174   -63121.892    30304.064    17947.862   -2677.0397    21712.287    84.616435 
   28900    2289.5116   -116.88469    2.0715982   -114.81309   -10917.419     4.407439     4.407439     4.407439   -10917.419   -29009.698   -57002.826    53260.266    17563.276    9845.8549   -4602.2372    85.616785 
   29000    2067.3391   -116.68147    1.8705719    -114.8109   -25429.785    4.3937105    4.3937105    4.3937105   -25429.785   -19519.092   -37306.105   -19464.156   -1894.7494   -7491.7966   -28625.322    84.819229 
   29100    2150.3096   -116.76139    1.9456454   -114.81574    10180.751    4.3748344    4.3748344    4.3748344    10180.751    4663.7058   -12033.592    37912.139    21350.107    5357.1804    9571.5344    83.730728 
   29200    1910.0597   -116.56549    1.7282622   -114.83723     18292.33     4.380347     4.380347     4.380347     18292.33    48860.458   -42772.843    48789.373    7911.0084    20788.662   -18733.335    84.047642 
   29300    1501.8537   -116.20491    1.3589088     -114.846   -25788.713    4.4011519    4.4011519    4.4011519   -25788.713    45969.203   -59438.864   -63896.478   -1791.1559    11796.066   -30612.455    85.250919 
   29400     1916.005   -116.54876    1.7336416   -114.81512    836.51785    4.4016869    4.4016869    4.4016869    836.51785     40687.05   -32792.106   -5385.3898    15811.629    2492.8546    7496.5504    85.282013 
   29500    1281.0734   -115.97354    1.1591422    -114.8144   -6344.8599    4.4029817    4.4029817    4.4029817   -6344.8599    40150.333   -46913.899   -12271.014    4031.9704    25593.555    -36696.68    85.357293 
   29600    2047.6068   -116.64367    1.8527177   -114.79095   -3069.1495     4.408434     4.408434     4.408434   -3069.1495    40439.782   -17181.339   -32465.891   -17032.431     9326.716   -10035.208    85.674786 
   29700    2114.1726   -116.69484    1.9129478   -114.78189   -47003.423    4.4166875    4.4166875    4.4166875   -47003.423   -16277.193   -84651.612   -40081.463    31132.052   -3659.5781      7056.16    86.156893 
   29800    1813.2682   -116.43168    1.6406831     -114.791   -31959.115    4.4010226    4.4010226    4.4010226   -31959.115   -42070.637    -12203.65   -41603.059   -13255.425    31310.451   -8972.4554    85.243409 
   29900    2724.0466   -117.25154    2.4647746   -114.78677    16493.567     4.369634     4.369634     4.369634    16493.567    3328.0434    7589.2947    38563.362   -8777.5225    12132.947   -1990.7596    83.432484 
   30000    2205.3742   -116.82713     1.995469   -114.83166    12328.166    4.3686854    4.3686854    4.3686854    12328.166   -17146.043    17640.692    36489.849      38758.5   -6742.4742    26914.945    83.378159 
   30100    2113.2306   -116.76952    1.9120955   -114.85742    -10069.88    4.3917352    4.3917352    4.3917352    -10069.88   -18643.455   -1594.0385    -9972.148   -12927.011    40732.794   -16071.503     84.70488 
   30200    1988.8022   -116.64216      1.79951   -114.84265   -9819.9533    4.4045735    4.4045735    4.4045735   -9819.9533   -55041.374   -4181.6969    29763.211     27435.84   -10154.301   -6495.0544    85.449903 
   30300    2431.1329   -117.02383    2.1997402   -114.82409   -44988.908    4.3989492    4.3989492    4.3989492   -44988.908   -76872.353   -52005.741   -6088.6314    47095.315   -10644.946   -6849.4789    85.122983 
   30400    2498.0353   -117.06967    2.2602748   -114.80939    10284.603    4.3765957    4.3765957    4.3765957    10284.603   -10443.897    5801.9203    35495.786   -30316.005    24002.111   -131.11618    83.831897 
   30500    1442.8919   -116.14169    1.3055589   -114.83613   -4940.3618    4.3715739    4.3715739    4.3715739   -4940.3618   -54915.445   -16208.019    56302.379    69763.829    1597.4315   -13045.806    83.543655 
   30600    2585.6472   -117.18785     2.339548    -114.8483   -4398.0053    4.3809901    4.3809901    4.3809901   -4398.0053   -17407.823   -6745.8835    10959.691    330.68311    -12104.73     14224.89    84.084669 
   30700    1833.7956    -116.5115    1.6592568   -114.85225    19664.277    4.3994739    4.3994739    4.3994739    19664.277   -17739.243     32881.32    43850.753    335.11228   -4441.5585     4497.559    85.153449 
   30800    1273.5972   -115.99869    1.1523775   -114.84631   -20699.372    4.4098777    4.4098777    4.4098777   -20699.372    -67012.71   -12619.625    17534.218    51558.286    26116.093   -8332.2202    85.758983 
   30900     2234.141   -116.83595    2.0214978   -114.81446   -17694.838    4.3957495    4.3957495    4.3957495   -17694.838   -4521.3929   -8860.6577   -39702.463   -9063.9478    8141.0229    17289.578    84.937367 
   31000      2223.08   -116.82719    2.0114895   -114.81571    -42.12973    4.3740964    4.3740964    4.3740964    -42.12973    3738.7592   -27316.764    23451.615    21548.796    1500.7798   -2330.4278    83.688357 
   31100    1415.6736   -116.12779    1.2809313   -114.84686    27067.923    4.3744056    4.3744056    4.3744056    27067.923    1406.8409   -1778.7029     81575.63    26326.356    23466.734   -17847.831    83.706109 
   31200    1906.9018    -116.5737    1.7254048   -114.84829   -12236.805    4.3943902    4.3943902    4.3943902   -12236.805   -21815.318    16351.064   -31246.162   -9671.0935    28900.185    12007.751      84.8586 
   31300    1710.2391   -116.38623    1.5474603   -114.83877     -7152.35    4.4039817    4.4039817    4.4039817     -7152.35   -45778.005   -15105.457    39426.412    28213.388   -12579.062    10014.193    85.415466 
   31400    1313.4245   -116.01026    1.1884141   -114.82185    15702.404    4.3863445    4.3863445    4.3863445    15702.404   -32042.453    26347.539    52802.127    24149.784    16043.677   -39534.771    84.393349 
   31500    1640.3355   -116.30664      1.48421   -114.82243    37810.681    4.3659205    4.3659205    4.3659205    37810.681    8791.6769    83238.753    21401.612   -324.59994    27571.947    23460.554    83.219951 
   31600      1834.04   -116.50851     1.659478   -114.84903    22246.701    4.3809127    4.3809127    4.3809127    22246.701   -4261.4019    19867.289    51134.215    21141.759   -3569.7814    254.78315    84.080214 
   31700    1449.3854   -116.16198    1.3114344   -114.85055   -26788.483    4.4075472    4.4075472    4.4075472   -26788.483   -56620.315    16145.015   -39890.151     24205.21    345.52795   -29419.863    85.623092 
   31800    2060.2222   -116.68355    1.8641324   -114.81942   -4552.7043     4.407837     4.407837     4.407837   -4552.7043   -39758.266    35304.096   -9203.9428   -5073.6795      14606.4    18972.458    85.639982 
   31900    2105.7594   -116.71534    1.9053354      -114.81    17145.236    4.3804145    4.3804145    4.3804145    17145.236    -36274.45    4058.5395    83651.618    7225.7414   -2549.1858   -7410.4072    84.051528 
   32000    1192.8125    -115.9093    1.0792818   -114.83002    2264.4859    4.3609791    4.3609791    4.3609791    2264.4859   -32504.488    36036.862    3261.0843    22054.312   -877.33884   -49613.015    82.937703 
   32100    2040.7542    -116.7039    1.8465173   -114.85738    23452.189    4.3775316    4.3775316    4.3775316    23452.189    51227.108     36963.25   -17833.792   -17013.401    10154.206    13234.289    83.885688 
   32200    1974.9772   -116.64093    1.7870008   -114.85393   -8824.4823    4.3939011    4.3939011    4.3939011   -8824.4823   -18273.466   -4251.3135   -3948.6677    8151.7754   -7560.1744     14602.28    84.830269 
   32300    1225.9395   -115.96379    1.1092558   -114.85454    19652.569    4.3857219    4.3857219    4.3857219    19652.569     26635.36    34635.158   -2312.8105    41636.396   -20429.911   -26286.149    84.357416 
   32400    2713.8451   -117.28538     2.455544   -114.82984    11376.532    4.3904596    4.3904596    4.3904596    11376.532    38127.752    11872.264    -15870.42   -3081.9553    1380.7604     16587.55    84.631095 
   32500    1849.8225   -116.50205    1.6737583   -114.82829    16680.571    4.3932151    4.3932151    4.3932151    16680.571    26362.104    36063.235   -12383.627    4706.3219   -8893.2728    9638.5486    84.790541 
   32600    1597.3056   -116.27677    1.4452757   -114.83149    4933.8187    4.3934861    4.3934861    4.3934861    4933.8187    91512.131    -43013.16   -33697.515    31552.232   -20067.925   -35277.633     84.80623 
   32700    2954.2141   -117.48699     2.673035   -114.81395    6841.6251    4.3929526    4.3929526    4.3929526    6841.6251    73403.412   -26519.338   -26359.198   -6810.3456    3172.2883      14054.7    84.775341 
   32800    2022.7912   -116.66301     1.830264   -114.83274    23095.598    4.3822169    4.3822169    4.3822169    23095.598    71512.667   -10705.943     8480.071   -3894.5645    7691.9917      335.796    84.155327 
   32900    1670.3924   -116.36409    1.5114062   -114.85269   -1310.9979    4.3890177    4.3890177    4.3890177   -1310.9979    89691.176   -39472.068   -54152.102    17749.298   -13205.526   -36381.013    84.547736 
   33000    2685.2531   -117.25262    2.4296734   -114.82295    4349.5207      4.39525      4.39525      4.39525    4349.5207    38273.283   -5001.0936   -20223.627    10362.579    24120.998    15603.292    84.908418 
   33100    1542.0987   -116.22494    1.3953233   -114.82962    30811.449     4.392945     4.392945     4.392945    30811.449    113155.66   -10869.986   -9851.3278    7871.3021    11532.665   -29358.056    84.774903 
   33200    1560.9129   -116.23406    1.4123468   -114.82171   -8643.2486    4.3944832    4.3944832    4.3944832   -8643.2486    6915.6116   -21778.905   -11066.453    35627.709    12546.337   -31752.862    84.863984 
   33300     2374.316   -116.95254     2.148331    -114.8042    26786.901    4.3695918    4.3695918    4.3695918    26786.901   -7360.7961    79839.546    7881.9522   -14461.754    6341.0106    6491.9815    83.430067 
   33400    1029.8967   -115.77248   0.93187222   -114.84061    19259.592    4.3620301    4.3620301    4.3620301    19259.592    81612.667     4033.837   -27867.729   -4639.4797   -8415.3948    -53284.31    82.997684 
   33500    1837.8432   -116.50567    1.6629192   -114.84275   -9223.1932    4.3880986    4.3880986    4.3880986   -9223.1932    -2628.844    4633.9711   -29674.707    19479.318    -467.1073   -3342.6997    84.494633 
   33600    2212.4456   -116.82354    2.0018673   -114.82167    9927.2053    4.3870567    4.3870567    4.3870567    9927.2053    -5164.874    42182.964   -7236.4739   -3609.0159    12941.306   -7245.9181    84.434461 
   33700    966.53407   -115.71046   0.87454034   -114.83592    12437.023    4.3766298    4.3766298    4.3766298    12437.023    44569.649    21624.492   -28883.071   -7889.2149   -3883.7031   -40498.562    83.833854 
   33800    2103.4462   -116.72907    1.9032423   -114.82583   -11913.029    4.3848362    4.3848362    4.3848362   -11913.029    2869.2336     5170.687   -43779.007    5337.0183   -9671.4555     28388.35    84.306321 
   33900    1986.2538   -116.62627    1.7972042   -114.82906    9378.4499    4.3755939    4.3755939    4.3755939    9378.4499    22402.765    28768.962   -23036.377   -19573.269    46.584448   -19425.333    83.774339 
   34000    897.73329   -115.67002   0.81228794   -114.85774    29887.285    4.3747886    4.3747886    4.3747886    29887.285    109761.64   -3063.3462   -17036.439   -9992.2015    2241.9276   -25751.967    83.728098 
   34100    2110.8908   -116.74718    1.9099783    -114.8372   -3105.2233    4.3927746    4.3927746    4.3927746   -3105.2233   -7761.0202    33028.179   -34582.829    5699.2502   -8653.5874     22563.84    84.765039 
   34200    1714.3408   -116.38842    1.5511715   -114.83725   -3863.6158    4.3810896    4.3810896    4.3810896   -3863.6158    16233.558   -1690.9942   -26133.411   -4773.3544   -4444.2296   -21979.902    84.090396 
   34300    830.29562   -115.60982   0.75126893   -114.85856   -3902.2984    4.3750874    4.3750874    4.3750874   -3902.2984    40238.098   -3088.5579   -48856.436   -17730.344   -4228.6555   -25957.004    83.745255 
   34400    2466.1049   -117.07755    2.2313836   -114.84617   -13588.598     4.384494     4.384494     4.384494   -13588.598   -20167.005    5781.3782   -26380.168   -4666.4186    13742.727    9046.0419    84.286582 
   34500    1692.5202   -116.38103    1.5314279    -114.8496    8723.9044    4.3822712    4.3822712    4.3822712    8723.9044    41487.223    5704.8499   -21020.359    13105.711    8476.5751    -14632.89    84.158455 
   34600    1551.5453   -116.26142    1.4038708   -114.85755    2365.7286    4.3920823    4.3920823    4.3920823    2365.7286    36833.227   -29404.467   -331.57401   -12430.916   -11428.156    -28192.93    84.724965 
   34700    2262.9294   -116.87913    2.0475461   -114.83158   -4041.3626     4.390938     4.390938     4.390938   -4041.3626    -23094.99   -18349.176    29320.078    2140.0567    21897.471    3968.8275     84.65876 
   34800      1358.62   -116.07409    1.2293079   -114.84478    31814.605    4.3731419    4.3731419    4.3731419    31814.605   -2464.3357    5870.4542    92037.698    15521.117    12800.333   -9418.0778    83.633585 
   34900    2622.3718   -117.22676    2.3727771   -114.85398    1222.0869    4.3789795    4.3789795    4.3789795    1222.0869    12816.488    1330.9693   -10481.197   -10839.093    9745.1366   -19508.094    83.968955 
   35000    2177.5064   -116.82772    1.9702535   -114.85747    1359.2415    4.3950068    4.3950068    4.3950068    1359.2415   -24092.134    12331.182    15838.677    11358.027    9277.8636    10983.247    84.894326 
   35100    1682.8918   -116.36329    1.5227159   -114.84057    -8490.513    4.4119473    4.4119473    4.4119473    -8490.513   -25382.022    -12775.93    12686.413    16948.637   -455.82237   -8989.4881    85.879786 
   35200    2815.9236   -117.35367    2.5479069   -114.80576   -15992.937    4.4012613    4.4012613    4.4012613   -15992.937   -35665.499   -38245.744    25932.432   -11336.338   -15858.808   -4480.9308    85.257276 
   35300    1507.5556     -116.198     1.364068   -114.83394     12195.55    4.3828241    4.3828241    4.3828241     12195.55   -58917.431   -5979.2717    101483.35    3822.2277    27770.997    15355.459    84.190311 
   35400    1418.6343   -116.14227    1.2836101   -114.85866    5791.9129    4.3900013    4.3900013    4.3900013    5791.9129   -47847.992    18279.265    46944.466    6118.8124    24342.971    39359.651    84.604591 
   35500    2274.0337   -116.90339    2.0575935    -114.8458   -15983.276    4.4056022    4.4056022    4.4056022   -15983.276   -47242.371   -36056.252    35348.793   -8768.2917   -1592.8871    11286.229    85.509792 
   35600    1455.1746   -116.14545    1.3166726   -114.82878   -19776.116    4.4174839    4.4174839    4.4174839   -19776.116    -29819.94   -55602.087    26093.677    13680.857    9502.9087    -3745.767    86.203506 
   35700    2065.9045   -116.67555    1.8692738   -114.80627   -5089.7114    4.3945793    4.3945793    4.3945793   -5089.7114    56979.531   -49215.892   -23032.774   -4449.7974    12928.953    50440.597    84.869551 
   35800     2110.931   -116.72448    1.9100147   -114.81447    28762.117    4.3795053    4.3795053    4.3795053    28762.117    17341.802   -7186.6698    76131.218    7600.0684   -28049.497    5761.1687    83.999204 
   35900    2218.8658   -116.83831    2.0076764   -114.83064   -1844.1339    4.3874123    4.3874123    4.3874123   -1844.1339    17964.784   -27308.997    3811.8104    3583.9202    20981.666   -9404.1769    84.454994 
   36000    1547.3697   -116.25067    1.4000927   -114.85058   -1219.7459    4.3934431    4.3934431    4.3934431   -1219.7459    75864.751   -75393.101   -4130.8877   -4033.8823   -937.28116    58820.576     84.80374 
   36100    2117.6799   -116.76689    1.9161213   -114.85076   -12854.371    4.3938729    4.3938729    4.3938729   -12854.371   -5356.6984   -34679.801    1473.3857   -8904.8896   -3725.3471    11461.037    84.828632 
   36200    2205.9128    -116.8332    1.9959562   -114.83724    8199.9359    4.3853602    4.3853602    4.3853602    8199.9359   -12166.474    3491.3254    33274.956   -12869.371    12145.146   -3886.8344    84.336545 
   36300    1459.6099   -116.17301    1.3206857   -114.85233    11374.454    4.3962122    4.3962122    4.3962122    11374.454    53180.075   -40131.069    21074.357    1060.3366     276.7237    58858.208    84.964194 
   36400    2400.8704   -116.99453     2.172358   -114.82217   -17727.533    4.4139355    4.4139355    4.4139355   -17727.533   -4688.3395   -41149.778   -7344.4801    2352.5445    8809.4816   -6716.2844    85.995942 
   36500     1969.758   -116.58946    1.7822784   -114.80718    15181.241    4.3971294    4.3971294    4.3971294    15181.241   -44364.472    27092.321    62815.875    15146.632   -2614.2203    1863.2528    85.017387 
   36600    1258.7209    -115.9684    1.1389171   -114.82949    8373.9654    4.3800682    4.3800682    4.3800682    8373.9654   -25012.809      47664.8    2469.9047   -746.00667    31471.612    45362.241    84.031597 
   36700    2478.5477   -117.08041    2.2426421   -114.83777    -11155.74    4.3905653    4.3905653    4.3905653    -11155.74   -26551.349    694.28864   -7610.1593   -12703.783    14315.179    380.59859    84.637205 
   36800    2314.4204   -116.93551    2.0941362   -114.84137   -3807.9143    4.4007032    4.4007032    4.4007032   -3807.9143    5370.9721   -3468.1365   -13326.579   -2193.5982    -16951.38    29741.897    85.224846 
   36900    953.87475   -115.71733   0.86308592   -114.85425   -18460.606    4.4203378    4.4203378    4.4203378   -18460.606   -24349.312   -7371.5131   -23660.994   -10837.924    35380.785     43000.79    86.370689 
   37000    2148.2236   -116.74041    1.9437578   -114.79665   -14348.254      4.41155      4.41155      4.41155   -14348.254   -24512.276    -8359.732   -10172.756   -9760.9173    9565.8044    -20695.41    85.856588 
   37100    1588.8783   -116.22026    1.4376505   -114.78261     -9134.12    4.3810886    4.3810886    4.3810886     -9134.12    15960.751   -50804.091    7440.9804    20449.085   -13175.607    30517.353    84.090343 
   37200    1340.0606   -116.02706     1.212515   -114.81454   -13409.498    4.3860375    4.3860375    4.3860375   -13409.498   -9549.9183    -35733.82    5055.2444    7794.7287    23445.887    32337.876    84.375631 
   37300    2184.0424   -116.79376    1.9761675   -114.81759   -4541.9473    4.4070745    4.4070745    4.4070745   -4541.9473   -4534.4247   -22690.855    13599.438   -12958.978     11848.14   -8033.9017    85.595549 
   37400    1684.8372    -116.3464    1.5244761   -114.82192   -12459.495    4.4002657    4.4002657    4.4002657   -12459.495    53142.047   -62429.264   -28091.266     3233.008    4896.5787    46122.827     85.19943 
   37500    1812.9825   -116.46204    1.6404247   -114.82162    20764.501    4.3876487    4.3876487    4.3876487    20764.501    41677.067   -1531.6289    22148.063    26057.893    7024.8288    6506.3261    84.468649 
   37600      2671.19   -117.24389    2.4169488   -114.82694    -13600.95    4.4008289    4.4008289    4.4008289    -13600.95   -4131.8588   -16010.229   -20660.764   -1811.5321    7426.9608    6922.2292    85.232149 
   37700     1994.041    -116.6157    1.8042502   -114.81145   -26556.752    4.4133462    4.4133462    4.4133462   -26556.752    4800.8368   -57436.268   -27034.824   -5237.3105    10087.631    71374.209    85.961502 
   37800    2308.0775   -116.87438    2.0883971   -114.78598    25010.699    4.3955998    4.3955998    4.3955998    25010.699    40207.814    15551.888    19272.394    11532.229   -3480.4277   -25663.326    84.928693 
   37900    1577.0349   -116.22249    1.4269344   -114.79556     5708.591    4.3788779    4.3788779    4.3788779     5708.591    51493.393   -21153.657   -13213.963   -8722.2673    14614.246    52207.398    83.963108 
   38000    1817.2384   -116.46033    1.6442755   -114.81605   -3209.8216    4.3902113    4.3902113    4.3902113   -3209.8216    24964.532   -60005.323    25411.327   -10210.938     9835.923    26566.802    84.616738 
   38100    1835.9424   -116.48695    1.6611993   -114.82575    18920.216    4.4040209    4.4040209    4.4040209    18920.216    31276.601    -13788.85    39272.897    17467.852    3862.8956   -22725.973    85.417745 
   38200    1277.1373   -116.00602    1.1555806   -114.85044    -32723.93     4.415943     4.415943     4.415943    -32723.93   -3088.7767    -38949.97   -56133.043   -16035.387    10262.927    68200.333     86.11333 
   38300    2284.4545   -116.88359    2.0670224   -114.81656   -5913.8122    4.4060894    4.4060894    4.4060894   -5913.8122   -29532.019   -5062.2613    16852.844    -13086.97   -15303.887   -22191.023    85.538165 
   38400    2131.8701   -116.72464    1.9289609   -114.79568    33600.118    4.3727782    4.3727782    4.3727782    33600.118    36606.577    4029.1781    60164.597     11601.26   -9032.8661     25411.86    83.612721 
   38500     1975.073   -116.63706    1.7870876   -114.84997   -1483.1707    4.3819384    4.3819384    4.3819384   -1483.1707    58072.315   -13663.275   -48858.552   -1481.3225    31619.267    61994.088    84.139282 
   38600    2691.0746   -117.27345    2.4349408   -114.83851   -27294.282    4.4183628    4.4183628    4.4183628   -27294.282   -36168.047   -12110.329   -33604.471    6336.5032   -7988.2446   -19340.638     86.25497 
   38700    1490.6761   -116.15801     1.348795   -114.80921    5620.3866     4.419112     4.419112     4.419112    5620.3866   -3565.4337    31637.354   -11210.761   -3583.2752   -6443.8122    50090.351    86.298853 
   38800    2188.3252    -116.7674    1.9800426   -114.78736    16743.244    4.4195766    4.4195766    4.4195766    16743.244   -44874.881    29364.033     65740.58     3628.036    4632.2498   -1533.2404    86.326075 
   38900    1234.6351   -115.89838    1.1171238   -114.78125    11949.344    4.4290505    4.4290505    4.4290505    11949.344    -15890.98    27903.208    23835.805    20907.368   -9823.0302    25645.801     86.88242 
   39000    1344.8518   -115.96971    1.2168502   -114.75286    21347.328     4.416127     4.416127     4.416127    21347.328   -1234.7488    30022.876    35253.857   -1006.7606   -24384.902    46589.454    86.124091 
   39100    2142.0955   -116.69038     1.938213   -114.75217     18229.81    4.4092109    4.4092109    4.4092109     18229.81   -49171.031    44604.931     59255.53   -6575.7159     9135.514   -6529.7482    85.720092 
   39200    1468.7473   -116.13101    1.3289535   -114.80206   -15632.389    4.4173847    4.4173847    4.4173847   -15632.389   -27885.922    13774.692   -32785.938   -7232.9033    -13572.25    25058.281    86.197701 
   39300    2389.0614   -116.94679    2.1616729   -114.78512    29997.241    4.4022518    4.4022518    4.4022518    29997.241    1509.4265    112547.11    -24064.81    2871.7271    10251.976     15707.07    85.314851 
   39400      2173.59   -116.78081    1.9667099    -114.8141   -19424.817    4.3992809    4.3992809    4.3992809   -19424.817   -1292.1824    -28259.93   -28722.339    17129.316     11144.12   -2706.5194    85.142241 
   39500    1824.1551   -116.47256    1.6505338   -114.82203   -12994.648    4.4133004    4.4133004    4.4133004   -12994.648    -17609.28     15952.58   -37327.245   -5100.6686   -4809.4712   -9924.8703    85.958825 
   39600    2014.4142   -116.62191    1.8226843   -114.79923    32440.692    4.4094764    4.4094764    4.4094764    32440.692    69743.301   -9367.3369    36946.112     10377.39   -32577.571    6171.6478    85.735577 
   39700    888.86625   -115.62104   0.80426486   -114.81677    10402.462    4.4192882    4.4192882    4.4192882    10402.462    34712.216   -55202.847    51698.016    2924.0603   -18210.582   -28444.041    86.309175 
   39800    2248.0431   -116.80308    2.0340766     -114.769    -20107.07    4.4281966    4.4281966    4.4281966    -20107.07   -5131.7101   -22646.035   -32543.466   -933.57576    11046.921   -18292.811    86.832174 
   39900     1862.706   -116.45435    1.6854156   -114.76893    -8473.864     4.411128     4.411128     4.411128    -8473.864   -6047.7749    4534.9889   -23908.806    8087.8144   -5963.7941    14580.873    85.831949 
   40000    1428.8409   -116.08202    1.2928453   -114.78917    954.16851    4.3924551    4.3924551    4.3924551    954.16851    51956.344   -22979.383   -26114.456    24658.874    7248.5573   -26836.039    84.746545 
   40100    2065.3777   -116.67076    1.8687972   -114.80196    28398.859    4.3992623    4.3992623    4.3992623    28398.859    14384.936    43742.149    27069.492    1887.6596   -15538.433    13930.524    85.141162 
   40200    1593.7896   -116.27412    1.4420943   -114.83202   -36834.409    4.4182139    4.4182139    4.4182139   -36834.409    -52465.99    8000.2104   -66037.446   -1586.2836   -3412.6717    17615.847    86.246246 
   40300    2456.9705   -117.03571    2.2231185   -114.81259    -13811.13    4.4270377    4.4270377    4.4270377    -13811.13   -30334.457    20172.607    -31271.54    1101.4605    22861.338     2159.477    86.764021 
   40400     1532.976   -116.17855    1.3870689   -114.79148   -42788.028    4.4361823    4.4361823    4.4361823   -42788.028   -98368.013   -3044.3525   -26951.717   -14902.679   -41695.687    -10602.58    87.302799 
   40500    1726.5652   -116.34716    1.5622325   -114.78493   -12064.284    4.3989361    4.3989361    4.3989361   -12064.284   -45678.885    16484.464   -6998.4324    1572.2258   -33404.099    19080.871    85.122226 
   40600    2614.0722    -117.1206    2.3652674   -114.75534    66077.317    4.3617126    4.3617126    4.3617126    66077.317    68294.051    16655.358    113282.54   -7418.9069    15116.967   -5305.1421    82.979562 
   40700    1130.3458   -115.87805    1.0227607   -114.85529    13639.839    4.3880331    4.3880331    4.3880331    13639.839   -23725.796    799.82025    63845.494    12819.804   -17411.674   -147.86669    84.490849 
   40800    2247.0263   -116.86327    2.0331566   -114.83011   -27274.869    4.4286028    4.4286028    4.4286028   -27274.869   -54434.773   -62177.309    34787.475   -7775.8891   -8186.6652   -8689.9431    86.856075 
   40900    1417.5984   -116.08745    1.2826728   -114.80478   -26011.478    4.4345066    4.4345066    4.4345066   -26011.478   -62673.409   -65423.661    50062.638    5752.4906    37176.641    2745.6381      87.2039 
   41000    1713.3805   -116.32111    1.5503027    -114.7708    24872.196    4.4037839    4.4037839    4.4037839    24872.196    30811.575   -2527.2323    46332.247    5249.5242    28379.587   -13014.549    85.403959 
   41100    2318.8962   -116.87498     2.098186   -114.77679    11676.253    4.3864046    4.3864046    4.3864046    11676.253    57336.142    -33069.66    10762.277   -3701.9669   -5043.8486    15839.281    84.396814 
   41200    1149.4101   -115.87944    1.0400104   -114.83943   -26015.734    4.3939801    4.3939801    4.3939801   -26015.734    -55737.82   -24499.672    2190.2888   -2896.8961    35475.228   -7950.3419    84.834844 
   41300    2344.6881   -116.96026    2.1215231   -114.83874   -8108.9618    4.4053065    4.4053065    4.4053065   -8108.9618   -4849.8001   -18311.451   -1165.6348   -6271.0255    15072.704    24551.258    85.492573 
   41400    1913.5681   -116.55827    1.7314367   -114.82683   -15639.868    4.4150374    4.4150374    4.4150374   -15639.868    15869.822   -50286.444   -12502.983   -10343.013   -21182.419   -4644.3308     86.06036 
   41500    1988.9685   -116.61025    1.7996605   -114.81059   -36601.681    4.4076324    4.4076324    4.4076324   -36601.681   -55857.003     -34630.2   -19317.839   -14284.076    8000.6457    12556.041    85.628058 
   41600    2061.0371   -116.66643    1.8648697   -114.80156    15250.943    4.3927564    4.3927564    4.3927564    15250.943    39557.792    57881.173   -51686.136    10199.294    5728.6688    700.71846    84.763982 
   41700    1750.2905   -116.42306    1.5836996   -114.83936   -21175.148    4.4042948    4.4042948    4.4042948   -21175.148    20650.542   -42460.621   -41715.364   -7580.9733   -21404.273   -3391.5615    85.433686 
   41800    2171.1917   -116.79009    1.9645399   -114.82555    -42532.56    4.4125788    4.4125788    4.4125788    -42532.56    -76572.86   -42563.842   -8460.9764   -27678.871   -1407.2634    7159.2254    85.916665 
   41900    2089.4434   -116.70281    1.8905723   -114.81224    -1240.027    4.3962144    4.3962144    4.3962144    -1240.027    31939.377   -16322.522   -19336.936    8232.3526     18769.66   -18503.686     84.96432 
   42000    1751.8958   -116.42578    1.5851522   -114.84062   -54437.927    4.3937913    4.3937913    4.3937913   -54437.927   -54177.072   -61600.325   -47536.385    -2612.997   -45421.288   -2102.8123    84.823908 
   42100    2176.1981   -116.80378    1.9690698   -114.83471   -638.06309    4.3958726    4.3958726    4.3958726   -638.06309   -29572.948   -13110.754    40769.512   -30866.818    -25829.94    11331.551    84.944506 
   42200    2196.0288   -116.82696     1.987013   -114.83995   -21758.017    4.4146295    4.4146295    4.4146295   -21758.017   -2086.2499   -52775.995   -10411.807    13203.565    15138.615   -9316.6985    86.036508 
   42300      1855.38   -116.49331    1.6787868   -114.81452   -49081.872    4.4288946    4.4288946    4.4288946   -49081.872    -46559.13   -33078.469   -67608.018    10051.527   -38386.457    13068.945    86.873243 
   42400    2264.2038   -116.82705    2.0486992   -114.77835    13372.082    4.4131267    4.4131267    4.4131267    13372.082   -24230.722    44184.983    20161.983   -129.59426   -7847.0519   -1869.0706    85.948678 
   42500    1583.7714   -116.22667    1.4330297   -114.79364    47139.121    4.3944715    4.3944715    4.3944715    47139.121    78415.614   -1155.5445    64157.294    21506.881   -504.22235   -10928.732    84.863305 
   42600    1764.5757   -116.41718    1.5966252   -114.82056   -2517.5593    4.4015216    4.4015216    4.4015216   -2517.5593   -15222.812   -14043.568    21713.702     29372.25    -45530.54    27470.071    85.272403 
   42700    2199.3043   -116.80823    1.9899768   -114.81825    16070.834    4.3957654    4.3957654    4.3957654    16070.834    5960.0194   -17755.095    60007.577    17447.265    10489.844   -8132.7423    84.938289 
   42800    2011.6667   -116.65197    1.8201983   -114.83177    8822.9802     4.386044     4.386044     4.386044    8822.9802    95935.479   -39327.885   -30138.654    1490.2471     9550.239   -32487.808    84.376002 
   42900    1576.1011   -116.27406    1.4260894   -114.84797   -1550.2196    4.3926527    4.3926527    4.3926527   -1550.2196   -16848.639   -40614.817    52812.797     38302.44   -13300.718    -17036.99    84.757979 
   43000    2160.4418   -116.80231    1.9548132    -114.8475    8424.8667    4.3939112    4.3939112    4.3939112    8424.8667   -13818.128   -10996.299    50089.027    2228.1237   -14087.336    22596.291    84.830851 
   43100    1678.5269   -116.38023    1.5187664   -114.86146   -31486.141    4.3994383    4.3994383    4.3994383   -31486.141   -3461.5076   -62675.646   -28321.269   -12927.586    20924.335    -853.2474     85.15138 
   43200    1519.1939   -116.22282    1.3745986   -114.84822   -24875.649    4.4012337    4.4012337    4.4012337   -24875.649    -36728.86   -85434.985    47536.897    33128.862   -9336.3265   -5620.4539    85.255672 
   43300    2217.1727   -116.83664    2.0061445    -114.8305   -9267.3323    4.3898998    4.3898998    4.3898998   -9267.3323   -41375.398    6533.9487    7039.4521   -17732.289    16598.763   -11583.225    84.598726 
   43400    1856.5593   -116.51923    1.6798539   -114.83938    21539.892    4.3825391    4.3825391    4.3825391    21539.892   -11332.166   -11961.884    87913.727   -6246.1141    10339.786   -8540.6247     84.17389 
   43500    2069.2998   -116.72924    1.8723459   -114.85689   -12292.906    4.3985744    4.3985744    4.3985744   -12292.906    12173.336   -47521.653   -1530.4007    16979.269   -19590.556   -12421.869     85.10123 
   43600    1559.6741   -116.26428    1.4112259   -114.85306   -15315.864    4.4093737    4.4093737    4.4093737   -15315.864   -25965.618    4817.1527   -24799.128   -35589.624    20319.034   -3896.9662    85.729585 
   43700    2044.8469   -116.68609    1.8502205   -114.83587   -1964.2411    4.4037462    4.4037462    4.4037462   -1964.2411   -42625.202   -4637.4105    41369.889   -13198.509    -8374.282    7617.0326    85.401767 
   43800    2499.5405   -117.09009    2.2616368   -114.82846   -18157.481    4.3863259    4.3863259    4.3863259   -18157.481    6456.4811   -23091.358   -37837.566     14262.62    -20799.77   -10893.482    84.392272 
   43900    1175.2547   -115.92276    1.0633951   -114.85936    1769.0585     4.379448     4.379448     4.379448    1769.0585    20087.187   -28662.274    13882.263   -39293.184    19471.644   -47669.827    83.995909 
   44000     2099.791   -116.76481     1.899935   -114.86487    -8712.497      4.39122      4.39122      4.39122    -8712.497   -28385.202   -8739.4018    10987.113   -12355.928     17084.21    13774.839    84.675075 
   44100    2491.6145    -117.1005    2.2544652   -114.84604   -23098.851    4.4108505    4.4108505    4.4108505   -23098.851   -29584.008    -44703.13    4990.5857    7096.8011   -15171.108   -10607.618     85.81575 
   44200     1597.686   -116.29353    1.4456199   -114.84791    -58999.06    4.4048204    4.4048204    4.4048204    -58999.06   -34827.372   -86803.973   -55365.836   -34093.609    27974.642   -44645.161    85.464277 
   44300    921.67537   -115.67538   0.83395125   -114.84143    35721.167    4.3619457    4.3619457    4.3619457    35721.167    49040.673    24171.739     33951.09   -12132.786    41813.516    6254.3004    82.992868 
   44400    2701.5251   -117.29584    2.4443967   -114.85144    19249.668    4.3571295    4.3571295    4.3571295    19249.668    7263.4602   -2903.1141    53388.657    19838.788   -932.28656    4356.7121    82.718265 
   44500    1664.2474   -116.39223    1.5058461   -114.88639   -7175.6173    4.3928796    4.3928796    4.3928796   -7175.6173   -27348.081    -72185.95    78007.179    9827.0382   -9838.1102    -9324.949    84.771114 
   44600     1328.553    -116.0549    1.2021026   -114.85279   -35260.512    4.4141346    4.4141346    4.4141346   -35260.512   -54904.326   -47170.861   -3706.3509   -17457.682    47310.813   -21710.969    86.007576 
   44700    2575.2393   -117.13179    2.3301306   -114.80165   -7207.9044    4.4057551    4.4057551    4.4057551   -7207.9044   -39118.778   -7928.9072    25423.972    2589.3155    1771.6739   -10744.049    85.518694 
   44800    2099.5962   -116.70376    1.8997587     -114.804   -29313.098    4.3942768    4.3942768    4.3942768   -29313.098   -39659.895   -30813.445   -17465.955    371.90397   -11213.974   -16091.184    84.852027 
   44900    1427.9537   -116.12976    1.2920425   -114.83772   -18679.326    4.3750087    4.3750087    4.3750087   -18679.326   -21180.855    24755.009   -59612.133   -24071.716    41372.149   -34345.477    83.740731 
   45000    1899.7094   -116.57702     1.718897   -114.85812    6210.0978    4.3703288    4.3703288    4.3703288    6210.0978    -8316.062    39883.859   -12937.504    22755.191   -6179.7509    8670.1892    83.472289 
   45100    2458.0557    -117.0989    2.2241004    -114.8748   -6604.7481    4.3907648    4.3907648    4.3907648   -6604.7481   -45632.182    8026.6356    17791.302    23833.815   -5549.3753   -16545.549    84.648745 
   45200    1937.9301   -116.62714    1.7534799   -114.87366   -16326.876    4.4014603    4.4014603    4.4014603   -16326.876       -20249    22637.617   -51369.244    4274.3962    28684.165    -20172.26    85.268845 
   45300    2127.1762   -116.77601    1.9247137    -114.8513   -5821.3892    4.3980625    4.3980625    4.3980625   -5821.3892     18416.15   -36378.041    497.72345    23764.615    968.11471    -24549.77     85.07152 
   45400    2387.6763   -116.99355    2.1604197   -114.83313   -4199.4512    4.4020567    4.4020567    4.4020567   -4199.4512   -24662.016    14786.456   -2722.7928   -9283.3563   -6031.7783    11056.384    85.303508 
   45500    1454.7621   -116.15089    1.3162993   -114.83459   -40756.358    4.3929983    4.3929983    4.3929983   -40756.358   -62119.511    4500.9337   -64650.496   -36566.954    42392.309   -7748.8643    84.777988 
   45600    1792.3656   -116.46302      1.62177   -114.84125   -1019.4657    4.3680908    4.3680908    4.3680908   -1019.4657   -3269.9441    4504.5113   -4292.9642    39957.486    6248.1037   -43281.566    83.344123 
   45700    2245.0586   -116.89413    2.0313762   -114.86275    20646.844    4.3795187    4.3795187    4.3795187    20646.844   -11937.349    48615.172    25262.707    4613.3815   -7969.6825    9023.1904    83.999974 
   45800    1389.3702    -116.1195    1.2571314   -114.86237   -55285.225    4.4108828    4.4108828    4.4108828   -55285.225   -72257.414   -26695.277   -66902.983   -30417.995    38068.856   -7671.8654    85.817637 
   45900    1473.1573   -116.17306    1.3329437   -114.84012   -11770.215    4.3980149    4.3980149    4.3980149   -11770.215   -30224.086    39635.703   -44722.263   -5281.8087    8341.6023   -23549.568     85.06876 
   46000    2458.2921   -117.04784    2.2243143   -114.82353    12689.681    4.3789454    4.3789454    4.3789454    12689.681   -20794.634    61124.312   -2260.6349    4658.9166   -15726.231     12790.31    83.966989 
   46100    1486.1177   -116.20047    1.3446705    -114.8558    10436.923    4.3743675    4.3743675    4.3743675    10436.923   -51250.982    76749.077    5812.6733    5361.3147     23041.07    -8275.877    83.703921 
   46200    1584.4068    -116.3018    1.4336046   -114.86819   -7006.2863    4.3742528    4.3742528    4.3742528   -7006.2863    20520.443   -28478.416   -13060.886   -16800.392    21383.311   -20188.005    83.697338 
   46300    1684.8148   -116.39668    1.5244559   -114.87223   -10292.186    4.3922795    4.3922795    4.3922795   -10292.186     4545.038   -14023.513   -21398.082    18178.926    -36794.12   -9628.0131     84.73638 
   46400    1825.7132   -116.50129    1.6519437   -114.84935   -16919.321    4.4049133    4.4049133    4.4049133   -16919.321   -51464.161   -2883.0835     3589.281    11393.798   -1796.1047    9551.6666    85.469681 
   46500    1791.1339   -116.44239    1.6206556   -114.82174      2618.86    4.3977665    4.3977665    4.3977665      2618.86    48116.668   -16400.703   -23859.385   -15142.062    26761.367   -37839.677    85.054342 
   46600    1251.2993   -115.97402    1.1322019   -114.84182   -17285.889    4.3819366    4.3819366    4.3819366   -17285.889   -7993.2841   -32855.251   -11009.133    19048.224   -41494.088   -21911.001    84.139179 
   46700    1863.7684   -116.53158    1.6863768    -114.8452    8045.2384    4.3607964    4.3607964    4.3607964    8045.2384   -10506.056    18337.738    16304.032    13037.596   -30591.898    44522.757    82.927282 
   46800    2071.7848   -116.75695    1.8745944   -114.88236    6191.2157    4.3781282    4.3781282    4.3781282    6191.2157    53342.157   -28849.837   -5918.6725   -4051.6254    18757.904   -29095.091    83.919992 
   46900    1418.0357   -116.14892    1.2830685   -114.86585   -48265.712    4.4075351    4.4075351    4.4075351   -48265.712   -33167.977   -23983.711   -87645.448    5595.0182    -41096.32    -35795.45    85.622387 
   47000    1795.4709   -116.45592    1.6245798   -114.83134   -4778.1734     4.388383     4.388383     4.388383   -4778.1734    15840.496   -30282.914    107.89782     1641.115   -20014.339    38588.663    84.511062 
   47100    1972.3193   -116.61034     1.784596   -114.82575   -393.26937     4.371649     4.371649     4.371649   -393.26937    22180.147   -12932.965   -10426.991    185.94793    2472.2909    12333.271     83.54796 
   47200    1600.3923    -116.3014    1.4480686   -114.85333   -19217.932    4.3682498    4.3682498    4.3682498   -19217.932   -24198.335    800.67571   -34256.138   -11150.247   -40711.274   -39975.269    83.353222 
   47300    2221.9107    -116.8782    2.0104315   -114.86777    7553.0777    4.3752385    4.3752385    4.3752385    7553.0777    19428.799    12997.353   -9766.9188   -1237.4839    -18291.56     2953.956    83.753933 
   47400    2223.6945   -116.87677    2.0120455   -114.86473   -10982.998     4.399259     4.399259     4.399259   -10982.998   -8058.1661   -38555.268     13664.44    11303.089    19231.526    31480.177    85.140971 
   47500    869.95903   -115.65192   0.78715721   -114.86477   -19045.124    4.3909864    4.3909864    4.3909864   -19045.124     -20372.7    -12820.52   -23942.152   -17466.378   -46960.422   -26157.331    84.661563 
   47600    1837.6626   -116.50101    1.6627557   -114.83825    43288.284    4.3667205    4.3667205    4.3667205    43288.284    90756.638    16751.138    22357.076     9547.219   -27575.817   -10955.347    83.265707 
   47700    2743.2303   -117.33337    2.4821324   -114.85124    11209.494    4.3854722    4.3854722    4.3854722    11209.494   -3078.8295   -5595.1127    42302.425   -12418.904    9060.9394    7469.4934     84.34301 
   47800    1524.8243   -116.24977     1.379693   -114.87007   -22473.787    4.3964587    4.3964587    4.3964587   -22473.787   -24756.152   -29974.174   -12691.034   -22257.838   -31823.439   -31723.767    84.978486 
   47900    1165.7394   -115.92599    1.0547855    -114.8712    8728.3616     4.381163     4.381163     4.381163    8728.3616    62479.426   -20725.699   -15568.642    10019.693   -17240.085    -13611.51    84.094625 
   48000    2220.5749   -116.87024    2.0092228   -114.86102    21546.085    4.3835577    4.3835577    4.3835577    21546.085     61466.98   -17039.467    20210.743    10253.024   -2103.2472    40271.206    84.232594 
   48100    2319.2487   -116.96322     2.098505   -114.86471   -2372.2085     4.399218     4.399218     4.399218   -2372.2085    57342.146   -28406.595   -36052.176   -5856.8774   -5898.9052   -7786.8515    85.138587 
   48200    1524.4223   -116.23221    1.3793293   -114.85288   -14124.735    4.4099562    4.4099562    4.4099562   -14124.735    21928.381   -67868.649    3566.0626    11176.821   -20407.753   -15125.432    85.763568 
   48300    1879.1807   -116.52312    1.7003222    -114.8228   -8612.5522    4.3940805    4.3940805    4.3940805   -8612.5522      60767.8   -68636.983   -17968.474    12407.153    8400.0272     44763.34    84.840659 
   48400    2353.5031    -116.9454     2.129499    -114.8159     6945.053    4.3776735    4.3776735    4.3776735     6945.053    49328.711    45.294652   -28538.846   -5181.7173    -37257.52   -2312.9913    83.893845 
   48500    1970.6255   -116.62241    1.7830634   -114.83935    13417.376     4.373993     4.373993     4.373993    13417.376     19986.65     24781.58   -4516.1008    3648.8963   -38200.282    21731.035    83.682425 
   48600     2036.434    -116.7019    1.8426083   -114.85929   -33184.131    4.3927596    4.3927596    4.3927596   -33184.131    11255.051   -68320.634   -42486.811   -11068.445    11016.856    47162.187    84.764167 
   48700    2196.2585   -116.82468    1.9872208   -114.83746   -30763.893     4.403801     4.403801     4.403801   -30763.893   -40810.679    -15243.69    -36237.31    5439.7003   -29334.434   -13999.227    85.404954 
   48800    1625.6576   -116.30641    1.4709292   -114.83548    4229.6757    4.3832274    4.3832274    4.3832274    4229.6757     64104.25    25196.767    -76611.99    9143.7407   -17804.564    35364.494    84.213556 
   48900    2301.8274   -116.91693    2.0827418   -114.83419    23349.499    4.3741977    4.3741977    4.3741977    23349.499    74472.301    9626.6917   -14050.496   -8419.5382     10678.26    27107.768    83.694175 
   49000    2544.8813   -117.14203     2.302662   -114.83936    42704.165     4.376454     4.376454     4.376454    42704.165    89574.914    6995.2359    31542.346    1211.2573    -31081.94   -12293.869    83.823754 
   49100    1476.8402    -116.2081    1.3362761   -114.87183     -26280.6    4.3940085    4.3940085    4.3940085     -26280.6   -22181.727   -25708.405   -30951.669    12642.971   -28310.562    46968.233    84.836488 
   49200    1849.3107   -116.52147    1.6732952   -114.84818   -44896.305    4.4081953    4.4081953    4.4081953   -44896.305   -62708.248   -12241.474   -59739.192    6109.1446    9040.6445    2884.6321     85.66087 
   49300    2475.6359   -117.04812    2.2400074   -114.80812   -23015.508    4.4046065    4.4046065    4.4046065   -23015.508   -12645.573   -36197.446   -20203.503    3310.6356    977.43234    11759.413    85.451826 
   49400    1789.1126   -116.42561    1.6188267   -114.80678   -37568.241     4.407653     4.407653     4.407653   -37568.241   -18455.055   -44365.244   -49884.425    14505.594   -24638.476    65245.691     85.62926 
   49500    2426.2947   -116.97688    2.1953624   -114.78151    17156.526    4.3926366    4.3926366    4.3926366    17156.526    -30738.79      64572.4    17635.968    3075.4917   -12132.726    1232.0034    84.757048 
   49600    1996.2004   -116.61782    1.8062041   -114.81162    29026.319    4.3988398    4.3988398    4.3988398    29026.319    53147.182    29191.311    4740.4645    4182.3744    178.81065    44507.208    85.116635 
   49700    1982.2136   -116.60196    1.7935486   -114.80841   -7027.7832    4.4125175    4.4125175    4.4125175   -7027.7832   -30623.509    19677.229    -10137.07   -22855.499   -29249.457     22908.01    85.913088 
   49800    1872.8068   -116.48684    1.6945549   -114.79229    748.97774    4.3959528    4.3959528    4.3959528    748.97774    12295.779    22584.174    -32633.02   -13134.779   -13833.271   -7048.8363    84.949155 
   49900    1559.8441   -116.21593    1.4113797   -114.80455     26399.88    4.3973369    4.3973369    4.3973369     26399.88    57321.401    39726.708   -17848.468    7123.0472     23324.24     12908.72    85.029423 
   50000    1757.7511   -116.39722    1.5904501   -114.80677   -40869.842    4.4171655    4.4171655    4.4171655   -40869.842   -58670.464   -8720.2093   -55218.854   -7517.3671   -47639.856   -1835.1438    86.184867 
   50100    2282.3905   -116.86107    2.0651549   -114.79591   -3566.1918    4.3913728    4.3913728    4.3913728   -3566.1918   -21045.429    6728.0167    3618.8372    960.39741   -11895.436   -8684.6804    84.683912 
   50200    1824.2914   -116.46325    1.6506572   -114.81259    31456.875    4.3856286    4.3856286    4.3856286    31456.875    40993.506    16076.723    37300.396   -8927.3244    25156.905    1455.1815    84.352034 
   50300     1409.785   -116.10921    1.2756031   -114.83361   -60635.127      4.41933      4.41933      4.41933   -60635.127    -67850.14    -30053.05    -84002.19    3376.2284   -84521.737   -1667.0244    86.311627 
   50400    2256.1649    -116.8352    2.0414254   -114.79377     9970.987    4.4023721    4.4023721    4.4023721     9970.987    -4220.698    38810.679   -4677.0197     21017.26    11272.429   -7441.0655    85.321845 
   50500    1347.4641   -116.02015    1.2192138   -114.80094    59241.584    4.3834434    4.3834434    4.3834434    59241.584    85493.558     99459.55   -7228.3564    35415.386   -15240.821    18065.658    84.226005 
   50600    1516.2872   -116.20816    1.3719685   -114.83619    739.81934    4.4145862    4.4145862    4.4145862    739.81934    46567.825    18779.876   -63128.243    9341.1675   -34502.388   -11137.037    86.033977 
   50700    2287.7103   -116.84372    2.0699684   -114.77375   -23572.646    4.4418829    4.4418829    4.4418829   -23572.646    17728.441   -37222.901   -51223.478    4163.9163     10229.19   -16393.457    87.639785 
   50800    1432.2644   -116.05553    1.2959429   -114.75959   -25013.931    4.4248263    4.4248263    4.4248263   -25013.931   -55920.943    14064.592   -33185.442    171.67095   -70141.354    23912.938    86.634063 
   50900    2024.7963   -116.58183    1.8320782   -114.74976    26188.799    4.3775653    4.3775653    4.3775653    26188.799   -6243.4771    30631.099    54178.774   -17251.258   -6246.8728   -25887.413    83.887625 
   51000    2257.6944   -116.83086    2.0428094   -114.78805    38985.894    4.3588939    4.3588939    4.3588939    38985.894    29658.267    71436.649    15862.767   -5184.9952   -6952.2271   -27443.629    82.818793 
   51100    1643.3077   -116.36393    1.4868993   -114.87703    7466.7361    4.3999614    4.3999614    4.3999614    7466.7361   -40869.091     77005.44    -13736.14   -2046.5389   -55285.559    20187.258    85.181756 
   51200    2535.5242    -117.1011    2.2941956   -114.80691   -30717.335     4.433144     4.433144     4.433144   -30717.335   -48144.936   -43893.454    -113.6153   -5669.1217    24878.654    1212.7974    87.123541 
   51300    1292.9928   -115.98759    1.1699271   -114.81766   -13170.412    4.4028696    4.4028696    4.4028696   -13170.412    11036.119    24798.969   -75346.325   -4530.9646   -49783.626   -19321.832    85.350778 
   51400    1556.0817   -116.19395    1.4079754   -114.78597    35809.809    4.3561503    4.3561503    4.3561503    35809.809    54251.759    51300.836     1876.833    17120.037   -42777.393    5394.5619    82.662505 
   51500    2397.6738   -116.98564    2.1694657   -114.81617    28585.871    4.3688028    4.3688028    4.3688028    28585.871    24412.931    6847.7394    54496.944    8956.6564    25301.304   -2955.4636    83.384881 
   51600    1342.5822   -116.06212    1.2147966   -114.84732   -44628.658    4.4148218    4.4148218    4.4148218   -44628.658   -32149.921   -2865.9494   -98870.103   -6249.2068   -42941.628    -21687.58    86.047755 
   51700    2319.6012   -116.88887    2.0988239   -114.79004   -50852.647    4.4250455    4.4250455    4.4250455   -50852.647   -51360.508   -45960.733   -55236.699   -4402.2472   -30675.708   -760.71964    86.646937 
   51800    1699.7152   -116.32624     1.537938   -114.78831   -23663.921    4.3986332    4.3986332    4.3986332   -23663.921   -72879.698   -32646.468    34534.404   -45309.671    18298.797    25207.381    85.104639 
   51900    2013.6294   -116.62213    1.8219742   -114.80015    10748.324    4.3587159    4.3587159    4.3587159    10748.324    2626.1581    37688.852   -8070.0386   -11868.698   -26440.976    -30847.93    82.808648 
   52000    2192.6776   -116.82252    1.9839808   -114.83854    19280.026    4.3604675    4.3604675    4.3604675    19280.026    17189.175   -26875.532    67526.435    4573.5995    1942.5883   -6357.8731     82.90852 
   52100    846.56854   -115.65707   0.76599301   -114.89108   -22061.819    4.3904261    4.3904261    4.3904261   -22061.819   -73499.056   -62668.645    69982.244   -11676.695    2956.3517    29531.403    84.629155 
   52200    1915.1456   -116.59487     1.732864   -114.86201   -15587.827    4.4000215    4.4000215    4.4000215   -15587.827   -31919.957    -28147.83    13304.306    5683.9154   -10656.777   -798.86069    85.185251 
   52300    2718.2324   -117.28769    2.4595138   -114.82817   -10987.791     4.399042     4.399042     4.399042   -10987.791    45473.454   -42857.068    -35579.76    -4658.431    2175.1349     339.8743    85.128374 
   52400    1285.3398   -115.99198    1.1630025   -114.82898   -12746.992      4.39198      4.39198      4.39198   -12746.992   -6050.9396   -75148.903    42958.866   -40443.919    4638.7385    12224.912    84.719048 
   52500    1203.4296   -115.92911    1.0888884   -114.84022    23347.642    4.3902845    4.3902845    4.3902845    23347.642    16722.398    855.57047    52464.958   -2940.6511     1378.819   -12741.824    84.620967 
   52600    2380.4456   -116.99559    2.1538772   -114.84172    4321.3068     4.395894     4.395894     4.395894    4321.3068   -9628.3993    43186.981   -20594.661    4561.7324   -30553.248   -34922.471    84.945745 
   52700     1994.614   -116.65133    1.8047687   -114.84656    24056.291    4.4013208    4.4013208    4.4013208    24056.291   -33193.804    88905.443    16457.234    -18335.17   -5720.5687   -5133.5768    85.260733 
   52800     1608.539   -116.30541    1.4554399   -114.84997    30648.221    4.3956989    4.3956989    4.3956989    30648.221    -21068.64    51390.416    61622.888    7879.5222    10890.901   -24464.823    84.934436 
   52900    1597.4193   -116.28813    1.4453785   -114.84275    23987.169    4.4034365    4.4034365    4.4034365    23987.169    34986.302    76455.942   -39480.735    16229.067   -23327.451   -21761.079    85.383747 
   53000    1882.3308   -116.52714    1.7031724   -114.82397   -9603.4299    4.4191435    4.4191435    4.4191435   -9603.4299   -45692.389    41857.641   -24975.542    -27144.45    33425.335    6850.6583    86.300698 
   53100     2018.087   -116.61848    1.8260075   -114.79248    9159.9559    4.4181937    4.4181937    4.4181937    9159.9559     -41891.2    54542.825    14828.243   -4882.8421   -9659.1278    16406.255    86.245067 
   53200    1490.8262   -116.14346    1.3489309   -114.79453     1805.712    4.4157599    4.4157599    4.4157599     1805.712   -43655.856    50583.364   -1510.3717    7774.5588   -11630.761    8931.9785    86.102618 
   53300    1634.1803   -116.26865    1.4786407   -114.79001   -16758.023    4.4077565    4.4077565    4.4077565   -16758.023   -67852.651    51048.074   -33469.491   -21950.622    45456.119    -11932.75    85.635292 
   53400    2429.6099    -116.9901    2.1983621   -114.79174    18049.978     4.387095     4.387095     4.387095    18049.978   -6794.6238    46995.965    13948.594   -5769.2704   -347.95476    10004.126    84.436673 
   53500    2035.9754   -116.67847    1.8421933   -114.83628    26504.202    4.3813142    4.3813142    4.3813142    26504.202    21789.029     46239.86    11483.718    23150.641   -19821.049   -24615.142    84.103329 
   53600    1190.2123   -115.95811    1.0769291   -114.88118   -800.39144    4.3959201    4.3959201    4.3959201   -800.39144   -23931.215    8920.3147    12609.726   -13385.008    30457.777    1302.0696    84.947259 
   53700    1766.7794   -116.47212    1.5986191    -114.8735   -7180.4389    4.4087433    4.4087433    4.4087433   -7180.4389   -93.265957   -23974.626    2526.5754   -30120.786    4078.9318    12447.199    85.692819 
   53800    2606.6433   -117.19292    2.3585457   -114.83438   -2079.3522     4.402401     4.402401     4.402401   -2079.3522   -6658.4699    23600.011   -23179.598    19152.657   -440.27253   -18339.339    85.323529 
   53900     1424.075   -116.11686     1.288533   -114.82833   -15172.425    4.3897626    4.3897626    4.3897626   -15172.425    -81962.02    10014.936    26429.809   -48359.471      21700.2   -7276.6036    84.590792 
   54000    1960.8165   -116.60091     1.774188   -114.82672    -10435.49    4.3932973    4.3932973    4.3932973    -10435.49   -43055.514    15533.131   -3784.0866   -16679.186   -16185.218    10144.619      84.7953 
   54100    2253.9964   -116.86114    2.0394633   -114.82168   -10209.839    4.4100273    4.4100273    4.4100273   -10209.839   -25760.263    13242.147     -18111.4    8870.8549   -2174.9238    16478.535    85.767711 
   54200    1573.2506   -116.24769    1.4235102   -114.82418   -22464.913    4.4092017    4.4092017    4.4092017   -22464.913   -65707.731   -17242.678     15555.67   -56192.814    11285.739   -23325.024    85.719552 
   54300    1585.5118   -116.24921    1.4346044   -114.81461   -13542.161    4.3792854    4.3792854    4.3792854   -13542.161   -10663.427   -22102.885   -7860.1698   -18410.796     11173.91    30123.846    83.986553 
   54400    1866.8747    -116.5253    1.6891875   -114.83611    13928.619    4.3697723    4.3697723    4.3697723    13928.619    3413.4643    19418.897    18953.495    6277.0646   -2377.6399    37347.538    83.440411 
   54500    1998.5335   -116.67233    1.8083151   -114.86401   -38764.237    4.3983948    4.3983948    4.3983948   -38764.237   -97167.807   -47982.317    28857.411   -48966.685   -8470.7042   -24448.795    85.090802 
   54600    1670.5585   -116.35607    1.5115565   -114.84451   -40457.875    4.4157751    4.4157751    4.4157751   -40457.875   -37432.606    -19209.01   -64732.008   -1267.1205    25799.009    32736.546    86.103507 
   54700    2093.0823   -116.71609    1.8938648   -114.82223   -30219.658    4.4077923    4.4077923    4.4077923   -30219.658   -11221.551   -61101.626   -18335.795    2777.1966   -937.43906    24494.292    85.637377 
   54800    1853.6912    -116.4973    1.6772588   -114.82004    6781.7483     4.383038     4.383038     4.383038    6781.7483   -51232.703    2723.0214    68854.927   -57102.018    4056.6577   -18389.442    84.202638 
   54900    1811.7643   -116.46243    1.6393224   -114.82311    34772.201    4.3626373    4.3626373    4.3626373    34772.201    10438.335    65881.995    27996.274   -1297.5681    12546.298    23597.452    83.032352 
   55000    2073.7936   -116.74676     1.876412   -114.87035    15007.926    4.3854331    4.3854331    4.3854331    15007.926     40002.14   -45529.427    50551.065   -1404.9918    13092.964    9861.6575    84.340751 
   55100    2404.8774   -117.01828    2.1759836   -114.84229   -37101.077    4.4129163    4.4129163    4.4129163   -37101.077    -80824.03   -60931.814    30452.611   -19960.529   -14252.592   -15830.626     85.93638 
   55200    2064.5112   -116.71077    1.8680132   -114.84275   -1585.1777    4.3784173    4.3784173    4.3784173   -1585.1777   -14371.496    25371.817   -15755.854   -10761.012   -17679.405    24501.693    83.936615 
   55300    2155.7863    -116.8058    1.9506008    -114.8552    23092.973    4.3688178    4.3688178    4.3688178    23092.973    55652.015    6801.0859    6825.8176    17360.476    23122.278    43681.542    83.385745 
   55400    1773.0995   -116.49308    1.6043377   -114.88874   -16011.346    4.4077152    4.4077152    4.4077152   -16011.346   -68466.049   -67708.411     88140.42    7524.5171   -2849.1156   -4077.5307    85.632886 
   55500    1694.1618   -116.38951    1.5329132    -114.8566    253.74856    4.4093721    4.4093721    4.4093721    253.74856   -64597.827   -4111.8896    69470.963   -16050.193   -25989.605    9080.8405    85.729492 
   55600    1352.2383   -116.05421    1.2235336   -114.83068    47541.173    4.3941558    4.3941558    4.3941558    47541.173    47407.747    29623.377    65592.396     15529.32    24456.422    24124.836    84.845021 
   55700    1811.0176   -116.45893    1.6386468   -114.82028   -6768.1799    4.4105287    4.4105287    4.4105287   -6768.1799   -51750.352     -41375.9    72821.712    5613.9995    20882.989   -12173.439    85.796972 
   55800    2103.3815   -116.70922    1.9031837   -114.80603   -27747.791    4.4021286    4.4021286    4.4021286   -27747.791   -70168.648   -25787.322    12712.596   -20777.793   -26435.946    10260.887    85.307689 
   55900    1110.8653   -115.81901    1.0051343   -114.81387    30638.862    4.3674698    4.3674698    4.3674698    30638.862    -13438.94      72609.3    32746.227   -3505.9602   -4968.2801    45573.676    83.308581 
   56000    1677.8834   -116.38916    1.5181842   -114.87098   -13907.132    4.3773276    4.3773276    4.3773276   -13907.132   -52255.448   -24009.255    34543.308    41453.929    20786.809    -79.22003    83.873961 
   56100    2129.9586   -116.79714    1.9272313   -114.86991   -7835.8942    4.3988209    4.3988209    4.3988209   -7835.8942   -38696.294      8398.62    6789.9911    12574.278   -9983.6818   -12985.413    85.115536 
   56200    2047.6841    -116.7191    1.8527876   -114.86631   -25968.789    4.3944241    4.3944241    4.3944241   -25968.789   -1338.6697   -12097.548    -64470.15   -9826.0175   -3804.3636    64323.227    84.860561 
   56300    1648.3019   -116.35174    1.4914182   -114.86032   -16325.089    4.3904899    4.3904899    4.3904899   -16325.089   -50250.165   -9497.2164    10772.115    26366.432    27468.472    20126.357    84.632848 
   56400    1688.6571    -116.3771    1.5279324   -114.84917    5672.2758    4.3927943    4.3927943    4.3927943    5672.2758   -26009.326   -16120.025    59146.179    25230.046   -8393.2682   -15308.491    84.766178 
   56500    2051.8547   -116.69109    1.8565612   -114.83453   -15109.292    4.3848315    4.3848315    4.3848315   -15109.292     47110.28   -41350.116   -51088.041   -11670.533   -17291.795     55876.33    84.306048 
   56600    2118.7851   -116.75334    1.9171213   -114.83622   -11794.583    4.3887639    4.3887639    4.3887639   -11794.583     -22199.2   -9390.0845   -3794.4635     26387.82    30394.667   -12930.056    84.533071 
   56700     1808.491   -116.47202    1.6363607   -114.83566   -28906.349    4.4132324    4.4132324    4.4132324   -28906.349   -51375.977   -26253.832   -9089.2395    35491.685    5141.5265    5644.6794    85.954851 
   56800    1794.8908   -116.43732    1.6240549   -114.81326   -35762.762    4.4049125    4.4049125    4.4049125   -35762.762   -4305.9124   -36243.089   -66739.286    6306.9114    -961.7482    60897.307    85.469639 
   56900    1795.3062   -116.42226    1.6244308   -114.79783    2851.5643    4.3646159    4.3646159    4.3646159    2851.5643    15759.401    27267.366   -34472.073   -15289.394    49344.315    12384.095    83.145374 
   57000    2330.5315   -116.94448    2.1087139   -114.83577    11685.796     4.372505     4.372505     4.372505    11685.796   -9950.2965    11424.729    33582.955     19854.98   -7198.6776    15776.782     83.59705 
   57100       1314.8   -116.04481    1.1896587   -114.85515   -61653.435    4.4149807    4.4149807    4.4149807   -61653.435   -24375.833    -87728.29   -72856.184    18201.211    6997.7164    64691.104    86.057045 
   57200    1857.9247   -116.49687    1.6810893   -114.81578   -65019.478    4.4094043    4.4094043    4.4094043   -65019.478   -89351.956   -18971.402   -86735.075   -16628.605    58521.645   -4017.7021    85.731367 
   57300    2142.2588   -116.73533    1.9383608   -114.79697   -5007.6487    4.3697005    4.3697005    4.3697005   -5007.6487   -10947.006   -9418.5915    5342.6516    10387.172   -9929.5455    13632.309    83.436293 
   57400    1375.6068   -116.07253    1.2446779   -114.82785    2884.7637    4.3675208    4.3675208    4.3675208    2884.7637    39996.686   -34239.786    2897.3916    19063.871      23429.2    57253.165    83.311496 
   57500    1754.4479   -116.44262    1.5874613   -114.85516   -36213.429     4.394432     4.394432     4.394432   -36213.429   -68300.528    4722.1221    -45061.88   -8978.5686    71451.085   -8791.5654    84.861022 
   57600    2374.4786   -116.97925    2.1484781   -114.83077   -22489.324    4.4052588    4.4052588    4.4052588   -22489.324   -41639.734   -72603.681    46775.444    6138.2913   -14121.618    14632.491    85.489797 
   57700    1539.5561     -116.221    1.3930227   -114.82798   -40666.989     4.405271     4.405271     4.405271   -40666.989   -12843.328   -69734.265   -39423.375    24725.556    22958.084    43032.358    85.490507 
   57800    1449.2872   -116.14823    1.3113455   -114.83688     -16815.3    4.3898374    4.3898374    4.3898374     -16815.3   -56854.966    23890.308   -17481.242    11832.016    39677.095   -20938.487    84.595121 
   57900    2353.4062   -116.96305    2.1294114   -114.83364    5111.0588    4.3663709    4.3663709    4.3663709    5111.0588    20245.295   -13493.458    8581.3396   -21797.963   -32721.721    23622.801    83.245709 
   58000    1559.5479   -116.28478    1.4111117   -114.87367     26140.92    4.3833456    4.3833456    4.3833456     26140.92   -143.58625    71920.408    6645.9377   -3996.9796    6677.2948    25844.564    84.220368 
   58100    2338.3196    -116.9686    2.1157607   -114.85284    -25619.85    4.4072782    4.4072782    4.4072782    -25619.85   -26599.085   -69.625208   -50190.841    16498.384    29716.348   -23109.619    85.607418 
   58200    1664.3787   -116.35141    1.5059649   -114.84545    1992.4407    4.3968407    4.3968407    4.3968407    1992.4407   -44741.358    3170.4535    47548.226   -15890.712   -24557.375    5693.4983    85.000638 
   58300    1319.6773   -116.05153    1.1940718   -114.85746    10039.385    4.3845543    4.3845543    4.3845543    10039.385   -39771.409    64237.264    5652.2988   -31540.239   -4287.2569     15226.55    84.290062 
   58400    2899.1065   -117.46689    2.6231724   -114.84372    2649.1872    4.3804229    4.3804229    4.3804229    2649.1872   -10845.221    4810.6802    13982.102    28.571847    23875.922    968.40998    84.052013 
   58500    2080.0181   -116.74952    1.8820441   -114.86748    8851.8126    4.3916072    4.3916072    4.3916072    8851.8126   -70516.203    49464.742    47606.898   -19214.418   -22909.507   -13961.121    84.697473 
   58600    1642.8706   -116.34854    1.4865038   -114.86204   -41451.459    4.4186635    4.4186635    4.4186635   -41451.459   -66669.933   -33221.296   -24463.147   -30038.249    -8534.312    16206.254    86.272581 
   58700    2320.3229   -116.92123    2.0994769   -114.82175   -39512.155    4.4048864    4.4048864    4.4048864   -39512.155    1575.8348   -72824.497   -47287.802    1264.2314    4720.1506   -20507.732    85.468117 
   58800    1089.0702   -115.80393   0.98541363   -114.81852    -2887.446    4.3675524    4.3675524    4.3675524    -2887.446   -9170.5601    9910.7886   -9402.5664   -16057.003   -41919.811    -39606.87    83.313306 
   58900    1879.9399   -116.54618    1.7010091   -114.84517    12007.287    4.3647957    4.3647957    4.3647957    12007.287   -34458.439    52174.408    18305.893   -23476.612   -21942.324    2169.7945    83.155647 
   59000    2714.8466   -117.31639    2.4564502   -114.85994    11575.932    4.3940138    4.3940138    4.3940138    11575.932     9282.357    28452.892   -3007.4513    11897.826    8858.2935    1139.6058    84.836793 
   59100    1180.8626   -115.93245    1.0684693   -114.86398    3153.8887    4.4017905    4.4017905    4.4017905    3153.8887   -2137.3376    56214.075   -44615.072   -33962.742   -28492.876   -14325.586    85.288037 
   59200    2124.3465   -116.74909    1.9221534   -114.82694   -21734.429    4.4046512    4.4046512    4.4046512   -21734.429   -45669.791    12486.507   -32020.003   -19025.725    -6777.505   -2015.7731    85.454427 
   59300    2718.8362   -117.26484    2.4600602   -114.80478     831.6857    4.3954444    4.3954444    4.3954444     831.6857    9030.0262    31799.903   -38334.872    22352.094   -10315.813    1100.2215    84.919687 
   59400    1330.2935   -116.03103    1.2036775   -114.82735    11990.923    4.3866087    4.3866087    4.3866087    11990.923    32833.571    20006.558   -16867.358   -31372.578    -28370.59   -3777.6928      84.4086 
   59500    2623.3587   -117.19374    2.3736701   -114.82007   -1522.5071    4.3967164    4.3967164    4.3967164   -1522.5071   -22116.214    16195.505    1353.1873   -28944.929    9985.9867   -1476.2977     84.99343 
   59600    2211.3512    -116.8281     2.000877   -114.82722    31280.686    4.3854474    4.3854474    4.3854474    31280.686    12616.758    76210.555    5014.7465    14439.916   -8663.6949    14419.479     84.34158 
   59700    1394.6463   -116.10698    1.2619053   -114.84508    21919.588     4.374276     4.374276     4.374276    21919.588    27832.289    54328.089   -16401.612   -44390.649   -18436.181   -18681.362    83.698668 
   59800    2322.1873   -116.95498    2.1011638   -114.85381     -5753.53    4.4021286    4.4021286    4.4021286     -5753.53   -35494.371    8231.7241    10002.057    -3417.356    13111.531     4758.228     85.30769 
   59900    1536.3052   -116.21033    1.3900812   -114.82024   -10.948161    4.4180825    4.4180825    4.4180825   -10.948161    21551.862    15982.272   -37566.979   -2955.7362   -4797.4975    31362.119    86.238556 
   60000    1076.2402   -115.76518   0.97380474   -114.79137    19213.389    4.4033658    4.4033658    4.4033658    19213.389    16684.246    62242.116   -21286.197   -54766.574   -27179.899   -684.38285    85.379636 
   60100    2750.8076   -117.25956    2.4889886   -114.77057    3272.9548    4.3957896    4.3957896    4.3957896    3272.9548   -520.17329   -6808.9233    17147.961    14314.518    27315.195    5843.9205    84.939693 
   60200    1988.4351   -116.59941    1.7991779   -114.80024    8846.1409    4.3813073    4.3813073    4.3813073    8846.1409   -4913.7874   -35905.442    67357.652    -23208.95   -1715.2342    6.1582797    84.102936 
   60300    1288.6043   -115.99842    1.1659563   -114.83247    47657.081    4.3886441    4.3886441    4.3886441    47657.081     3732.456    75740.346    63498.443   -18655.432     -14402.4    -11447.06    84.526148 
   60400     2221.654   -116.82325    2.0101992   -114.81305   -34394.543    4.4190614    4.4190614    4.4190614   -34394.543   -73660.984   -3481.8034   -26040.843    10811.447    38983.449   -4672.6777    86.295888 
   60500    1812.7529   -116.44073     1.640217   -114.80051   -9902.8374    4.3949702    4.3949702    4.3949702   -9902.8374    -77793.44   -43244.077    91329.005   -57137.326    13670.081    8987.7474    84.892201 
   60600    2328.9494   -116.88773    2.1072823   -114.78045    32455.662    4.3678527    4.3678527    4.3678527    32455.662   -18530.787    44113.544    71784.229    12674.134   -30795.198   -35228.634    83.330493 
   60700    1375.5488   -116.07585    1.2446255   -114.83123    -18399.52    4.3887705    4.3887705    4.3887705    -18399.52   -94951.456   -25751.188    65504.083   -50776.558     32790.16    2670.9776    84.533454 
   60800    1915.4515   -116.56248    1.7331408   -114.82934   -38997.677     4.407846     4.407846     4.407846   -38997.677   -106567.53    -68992.47    58566.971   -35830.331    4474.1817    2561.6639     85.64051 
   60900    2428.7517   -116.98628    2.1975856    -114.7887   -39582.029     4.420037     4.420037     4.420037   -39582.029   -55911.791   -47552.434   -15281.863    18464.649   -17630.417    -18530.11    86.353059 
   61000    1299.5571   -115.96916    1.1758665    -114.7933   -50212.422    4.4042287    4.4042287    4.4042287   -50212.422   -81490.107   -63075.766   -6071.3919   -75659.888    22438.843    5802.7864    85.429837 
   61100    1730.8718   -116.35403    1.5661292    -114.7879   -5245.5096    4.3633924    4.3633924    4.3633924   -5245.5096   -56214.857   -8031.4025    48509.731    16387.121     2709.569   -1425.0792    83.075469 
   61200     2371.569   -116.97299    2.1458455   -114.82714    11581.418    4.3599537    4.3599537    4.3599537    11581.418   -11772.592    31448.556     15068.29     41795.79   -8436.0438     5628.677    82.879215 
   61300    2388.3677   -117.02255    2.1610452    -114.8615   -10820.518    4.3895961    4.3895961    4.3895961   -10820.518   -16907.741   -11242.126   -4311.6873   -38142.507   -11957.853    6172.3335    84.581169 
   61400    832.45956   -115.62146    0.7532269   -114.86824    14942.006    4.4025951    4.4025951    4.4025951    14942.006   -10931.749   -15257.134    71014.902    26379.751    13077.727   -12122.386    85.334815 
   61500    2165.8697      -116.79    1.9597244   -114.83027   -14936.929    4.4073335    4.4073335    4.4073335   -14936.929   -32226.557   -10876.345   -1707.8853    19121.495   -7685.2666    8163.0488    85.610641 
   61600    1852.4081   -116.48354    1.6760977   -114.80745   -36511.413    4.4128129    4.4128129    4.4128129   -36511.413    -26506.08   -35617.556   -47410.604   -5044.4032   -24232.336   -10998.001    85.930341 
   61700    1452.9777   -116.12264    1.3146848   -114.80795   -17780.082    4.3975751    4.3975751    4.3975751   -17780.082   -44619.385   -75756.032     67035.17    47334.224    16422.651    925.20524    85.043237 
   61800     2861.659   -117.38079    2.5892892    -114.7915    5356.5531    4.3715405    4.3715405    4.3715405    5356.5531    -28382.25    46739.302   -2287.3928   -5221.2073   -9875.0894   -17998.908    83.541741 
   61900    1748.8578   -116.41958    1.5824033   -114.83718    12607.435    4.3799112    4.3799112    4.3799112    12607.435   -50641.809     30944.81    57519.304     5323.021   -28867.145   -12030.921    84.022559 
   62000    1700.7307    -116.3943    1.5388569   -114.85545   -19339.742    4.4118481    4.4118481    4.4118481   -19339.742   -94502.789   -56018.739      92502.3    8170.3494    7637.6299     13032.26    85.873993 
   62100    2514.2195   -117.08587    2.2749186   -114.81095   -31225.446    4.4062425    4.4062425    4.4062425   -31225.446   -77780.458    25345.398   -41241.277   -5402.9263    41319.873   -5102.2061    85.547078 
   62200    1838.1554   -116.46188    1.6632016   -114.79868    31057.518    4.3735306    4.3735306    4.3735306    31057.518   -20497.964    40097.448    73573.069    31242.244   -7998.2295   -4514.9004    83.655889 
   62300     1618.884   -116.29628    1.4648003   -114.83148   -3881.6967    4.3829442    4.3829442    4.3829442   -3881.6967   -65372.355    28353.274    25373.992    21325.327    24922.701   -7456.7893    84.197231 
   62400    2237.0199   -116.85493    2.0241026   -114.83083   -23081.821    4.4021145    4.4021145    4.4021145   -23081.821   -38777.161    21037.974   -51506.276   -13217.508    50169.122     27576.17    85.306869 
   62500    1920.6714    -116.5456    1.7378638   -114.80774   -934.60976     4.418487     4.418487     4.418487   -934.60976   -14457.443   -45201.979    56855.592     29817.75   -19168.561    2828.8123    86.262243 
   62600    1248.7497   -115.91479     1.129895    -114.7849    22573.714     4.415654     4.415654     4.415654    22573.714    8175.0594    33980.683    25565.399   -215.21627    39079.431   -13211.745    86.096423 
   62700     2416.418   -116.94387    2.1864258   -114.75744   -2985.6808    4.4020611    4.4020611    4.4020611   -2985.6808   -22051.653    13716.602   -621.99212   -3964.1635    1623.8997   -15072.799    85.303764 
   62800    1756.1827   -116.38476     1.589031   -114.79573    18527.096    4.3751663    4.3751663    4.3751663    18527.096    4307.3812    26714.072    24559.835    17695.475   -7013.5214    10109.053    83.749787 
   62900    1204.1827   -115.94253    1.0895698   -114.85296     41413.34    4.3730657    4.3730657    4.3730657     41413.34    16150.459    48787.894    59301.666    15440.238    54970.959    22354.368    83.629211 
   63000    2285.7325   -116.93427    2.0681788    -114.8661   -19269.184    4.4067084    4.4067084    4.4067084   -19269.184   -45790.132     5317.643   -17335.062   -22157.505    -2981.862   -14691.323    85.574218 
   63100    1873.2995   -116.53606    1.6950008   -114.84106    17524.977    4.4061736    4.4061736    4.4061736    17524.977    60469.717   -40507.906     32613.12     8881.984   -23358.212   -14763.217    85.543063 
   63200    1577.7644   -116.26668    1.4275944   -114.83908   -26209.045    4.4006078    4.4006078    4.4006078   -26209.045    2215.7365   -33353.824   -47489.046    19785.206    37363.028    24670.167    85.219304 
   63300    2186.5144    -116.8159    1.9784042    -114.8375   -30524.836    4.3839506    4.3839506    4.3839506   -30524.836   -26427.598    -6717.815   -58429.097   -14825.555    671.87492    17023.758    84.255248 
   63400    2022.2896   -116.66865    1.8298101   -114.83884    51462.986    4.3619527    4.3619527    4.3619527    51462.986    74206.937  -0.30018105     80182.32    21307.306   -27925.536   -29069.148    82.993264 
   63500    1753.6044    -116.4776    1.5866981   -114.89091   -23189.172    4.3876881    4.3876881    4.3876881   -23189.172   -36553.686   -9021.9447   -23991.884    26051.226    25323.688   -8578.1125    84.470924 
   63600    2130.9051   -116.79021    1.9280877   -114.86212   -27571.801    4.4042226    4.4042226    4.4042226   -27571.801   -52810.145    1448.7919   -31354.048     1855.664    47394.625     17571.93    85.429485 
   63700    1716.0608   -116.39927    1.5527279   -114.84654     39309.08     4.394997     4.394997     4.394997     39309.08    23856.162   -18653.421     112724.5   -1089.9797   -28395.476   -41852.776    84.893755 
   63800    1882.5974   -116.54775    1.7034136   -114.84433    1668.6742    4.3906264    4.3906264    4.3906264    1668.6742    32158.682   -39187.997    12035.338    694.72384   -6057.2775   -32642.211    84.640742 
   63900    1566.4492   -116.27702    1.4173562   -114.85967   -8573.8902    4.3919539    4.3919539    4.3919539   -8573.8902   -14119.546    340.98215   -11943.107    2834.6142    40694.275    46053.738    84.717539 
   64000    2434.9903   -117.05264    2.2032304   -114.84941   -26542.047    4.3907655    4.3907655    4.3907655   -26542.047    2959.3268    -27620.84   -54964.628   -726.39935    3663.5648    9931.2138    84.648785 
   64100    2232.6966   -116.86731    2.0201908   -114.84712    8608.2693    4.3852189    4.3852189    4.3852189    8608.2693   -3600.5485   -15533.807    44959.163    4732.5814    5582.4162   -39703.642    84.328394 
   64200    1055.8849   -115.82386   0.95538689   -114.86848    -1558.448    4.3925686    4.3925686    4.3925686    -1558.448    23551.131   -3102.0281   -25124.447   -225.38728    41937.185    28272.777    84.753113 
   64300    1685.3701   -116.39252    1.5249583   -114.86756   -6015.1877    4.3866314    4.3866314    4.3866314   -6015.1877    20683.021   -4572.2966   -34156.288   -7446.4977    7402.7128    47198.867    84.409907 
   64400    2757.4913   -117.35234     2.495036    -114.8573    23884.306    4.3728012    4.3728012    4.3728012    23884.306     -9930.32   -2903.8785    84487.116    21251.619   -10547.258   -20946.357    83.614039 
   64500    1740.3736   -116.47276    1.5747266   -114.89804   -1245.4771    4.3814767    4.3814767    4.3814767   -1245.4771    23116.473    18715.079   -45567.983    3342.8247    43633.328     29894.05     84.11269 
   64600    1022.9717   -115.81683   0.92560631   -114.89122    5267.0191    4.3945866    4.3945866    4.3945866    5267.0191    64202.838   -4033.5984   -44368.183    6720.9462    26431.561    51254.285    84.869976 
   64700    2661.7139   -117.24744    2.4083746   -114.83907   -17285.313    4.4052857    4.4052857    4.4052857   -17285.313    9741.0062   -45339.914   -16257.031   -1322.5068   -14420.344   -22891.663    85.491363 
   64800    1969.5827   -116.60657    1.7821199   -114.82445   -36429.511    4.4118423    4.4118423    4.4118423   -36429.511    -13907.06    -73296.14   -22085.332   -6995.2874    17714.504    34226.301    85.873653 
   64900    1685.3441   -116.34641    1.5249348   -114.82147    3674.2345    4.3929066    4.3929066    4.3929066    3674.2345    66988.506    -59972.91     4007.107    -712.0679    20813.128    44185.613     84.77268 
   65000    2494.6942   -117.07691    2.2572517   -114.81966    31736.359    4.3727708    4.3727708    4.3727708    31736.359   -16692.513   -13167.379    125068.97   -5880.2689   -4443.7889   -15459.515    83.612294 
   65100    1462.1805   -116.19463    1.3230116   -114.87162   -18250.031     4.384676     4.384676     4.384676   -18250.031    7307.1029   -71971.071    9913.8761   -25449.217   -14039.507    61761.116     84.29708 
   65200    1547.8581   -116.26689    1.4005345   -114.86635   -28206.067    4.3973681    4.3973681    4.3973681   -28206.067    28792.482   -68619.464    -44791.22    926.45295    20715.221   -6405.7535    85.031233 
   65300    2374.3829   -116.99316    2.1483915   -114.84477   -13841.706    4.4003733    4.4003733    4.4003733   -13841.706   -14216.466   -10874.654   -16433.999    21009.542   -503.39966   -22647.375     85.20568 
   65400    2493.4177   -117.08808    2.2560968   -114.83199   -29062.397    4.4083456    4.4083456    4.4083456   -29062.397   -12189.309   -36493.288   -38504.594   -4088.1676   -5675.9078    45820.938    85.669633 
   65500    1565.2309   -116.25767    1.4162538   -114.84142   -19208.881    4.3905975    4.3905975    4.3905975   -19208.881    -30154.27   -2748.4424   -24723.932    1475.5742    38880.054   -33219.212    84.639071 
   65600    1515.2273   -116.21488    1.3710095   -114.84387   -8216.5222    4.3669493    4.3669493    4.3669493   -8216.5222   -16962.387    1002.4707   -8689.6497    1654.1418   -13304.899   -28501.415    83.278796 
   65700    2633.5012   -117.23598    2.3828472   -114.85313    22248.508    4.3731479    4.3731479    4.3731479    22248.508   -5302.0109    34251.865    37795.668    9558.3412   -15652.982     13213.05     83.63393 
   65800    1688.8213   -116.40264     1.528081   -114.87456   -28007.904    4.4011297    4.4011297    4.4011297   -28007.904    755.19719    -72090.78   -12688.129   -21419.428    27245.573   -27456.166     85.24963 
   65900    1376.9719   -116.08462    1.2459131   -114.83871   -28348.475    4.4140503    4.4140503    4.4140503   -28348.475    1922.2308   -23321.599   -63646.057    480.72594    3180.3328   -16097.665    86.002653 
   66000    2369.2292   -116.93882    2.1437284   -114.79509    15989.037    4.3979375    4.3979375    4.3979375    15989.037    25686.894    20099.046    2181.1724    23665.002   -15225.297    9105.5608    85.064268 
   66100    1515.8756   -116.18769    1.3715961   -114.81609   -11760.539    4.3782926    4.3782926    4.3782926   -11760.539    33838.909    -35154.57   -33965.957   -37231.492    20651.463   -25891.414    83.929445 
   66200    1983.6953   -116.62408    1.7948891   -114.82919    15558.751    4.3697643    4.3697643    4.3697643    15558.751   -1671.1902    58970.282    -10622.84    626.10198    28343.023   -19304.249    83.439948 
   66300    2423.7843   -117.04538    2.1930909   -114.85229    16128.773    4.3956699    4.3956699    4.3956699    16128.773    33216.702    35409.372   -20239.757    17122.642   -23487.262    17464.263    84.932754 
   66400    1273.7273   -115.98561    1.1524953   -114.83311     -44607.7    4.4293988    4.4293988    4.4293988     -44607.7    3504.1181   -65840.421   -71486.796   -7577.4872    18873.548   -36700.099    86.902917 
   66500    2124.5056   -116.72237    1.9222974   -114.80007   -21686.424    4.3982942    4.3982942    4.3982942   -21686.424   -6807.4929   -592.55352   -57659.225    4712.0435    25198.606   -23495.086    85.084966 
   66600    1898.8766    -116.4922    1.7181435   -114.77405    58499.896     4.349013     4.349013     4.349013    58499.896    38061.822     109127.1    28310.765    28345.359   -29702.419    9985.1258    82.256857 
   66700    2046.8162   -116.68403    1.8520023   -114.83202    43802.435    4.3569231    4.3569231    4.3569231    43802.435    61634.379    69370.954    401.97153   -1019.7404    10148.268   -7868.5382     82.70651 
   66800    2127.0941   -116.78698    1.9246394   -114.86234    6546.7407    4.3961979    4.3961979    4.3961979    6546.7407    38042.557    24115.196   -42517.531    12250.082    14986.878    3396.4189    84.963366 
   66900    1491.8133   -116.20347     1.349824   -114.85365   -11332.893    4.4133619    4.4133619    4.4133619   -11332.893   -27905.314     44607.04   -50700.406    34139.362   -49112.373    1115.4723    85.962416 
   67000    2000.9847    -116.6153     1.810533   -114.80477    10646.429    4.4052445    4.4052445    4.4052445    10646.429    82795.573   -2938.3422   -47917.945   -2689.4612    419.90222   -14590.583    85.488964 
   67100    2316.2147     -116.896    2.0957597   -114.80024    592.16384    4.3817914    4.3817914    4.3817914    592.16384    5655.7733    -15995.85    12116.568    27281.016    11311.973   -7561.8123    84.130814 
   67200     1099.973   -115.83429   0.99527867   -114.83901    22392.426    4.3699794    4.3699794    4.3699794    22392.426    36147.228    50010.101   -18980.051    29306.994   -76425.476    953.89278    83.452272 
   67300    2424.1515    -117.0559    2.1934232   -114.86247   -4891.9387    4.3826446    4.3826446    4.3826446   -4891.9387   -1688.6039     21149.33   -34136.542   -28444.501   -9544.8383   -11992.948    84.179967 
   67400    2127.9184   -116.80081    1.9253853   -114.87542   -3113.8044    4.3917644    4.3917644    4.3917644   -3113.8044   -2299.5434   -967.31569   -6074.5541   -14138.547    6727.4815   -13273.222    84.706571 
   67500    1581.9586    -116.2987    1.4313894   -114.86731    12674.432     4.388866     4.388866     4.388866    12674.432     2935.287    14517.094    20570.915    22752.771   -59148.259    2490.1059    84.538974 
   67600    2202.3394   -116.83593    1.9927229   -114.84321   -2208.2731    4.3905582    4.3905582    4.3905582   -2208.2731    5074.9484   -16094.912    4395.1439   -954.09747   -1809.7175    -8487.048    84.636799 
   67700    1648.0232   -116.32939     1.491166   -114.83823   -10668.307    4.4005741    4.4005741    4.4005741   -10668.307    15003.455   -26877.092   -20131.286   -27783.373   -13025.102   -15821.994    85.217346 
   67800    1680.5058   -116.34542     1.520557   -114.82486    18279.356    4.3910567    4.3910567    4.3910567    18279.356    19233.175    10426.022     25178.87     7643.259   -53083.218    13403.418    84.665629 
   67900    1931.2817   -116.57168    1.7474643   -114.82422    14111.935    4.3785789    4.3785789    4.3785789    14111.935     65428.96   -55259.319    32166.162    18496.601    15003.964   -29261.364    83.945908 
   68000    1676.2394   -116.35718    1.5166966   -114.84048    1088.0488    4.3908579    4.3908579    4.3908579    1088.0488    56017.563   -35259.506   -17493.911   -13374.556   -4860.1518   -15550.684    84.654131 
   68100    2116.8369   -116.74671    1.9153585   -114.83135    4249.9918    4.3972078    4.3972078    4.3972078    4249.9918    15767.536     16584.91    -19602.47   -3627.7208   -16034.857    12995.955     85.02193 
   68200     1914.317   -116.55772    1.7321142    -114.8256   -2021.3633    4.3953914    4.3953914    4.3953914   -2021.3633    22770.367   -44435.941    15601.484    7394.2032    7466.9115   -44460.775    84.916615 
   68300    1370.2899   -116.07573    1.2398671   -114.83586    5535.3903    4.3803558    4.3803558    4.3803558    5535.3903   -378.67704   -31031.168    48016.015   -9067.9588    4344.6259    29753.431    84.048149 
   68400     2086.893   -116.72712    1.8882646   -114.83885    19299.052    4.3648526    4.3648526    4.3648526    19299.052     41814.71   -17623.503    33705.949   -13010.626   -17249.821    31442.809      83.1589 
   68500    2388.4262   -117.01105    2.1610982   -114.84995    34535.215     4.373877     4.373877     4.373877    34535.215    17181.557    1186.0574    85238.031    14495.129    5995.4678   -23951.996    83.675767 
   68600    1408.7647   -116.15853    1.2746799   -114.88385   -26913.106    4.3888022    4.3888022    4.3888022   -26913.106     54413.84   -52676.711   -82476.447    -4755.121    24613.234    46815.346    84.535285 
   68700    1662.3369     -116.374    1.5041174   -114.86988    3487.6517    4.3766121    4.3766121    4.3766121    3487.6517    74431.693   -61275.094   -2693.6436    813.00363   -13324.261    18962.799    83.832839 
   68800    2110.9518   -116.75936    1.9100336   -114.84933    6056.1507    4.3819913    4.3819913    4.3819913    6056.1507    19406.286   -23454.245    22216.412    21989.013    10468.675   -3775.3743    84.142333 
   68900    1290.0791   -116.01927    1.1672907   -114.85198   -26637.064    4.3940367    4.3940367    4.3940367   -26637.064     30850.16   -58205.507   -52555.845    -1464.576    19582.584    66914.765    84.838118 
   69000    2797.2475   -117.35451    2.5310084    -114.8235   -3123.3328    4.3782307    4.3782307    4.3782307   -3123.3328    30289.637   -11250.416    -28409.22    4037.3195   -3084.2626    -2173.969    83.925883 
   69100    1676.9093   -116.35895    1.5173027   -114.84165    40690.595    4.3822787    4.3822787    4.3822787    40690.595    76461.532    2863.0428     42747.21    20816.019    1895.8789    7507.3974    84.158889 
   69200    1454.7649   -116.15963    1.3163019   -114.84333   -43050.009    4.4031661    4.4031661    4.4031661   -43050.009   -4710.1952   -38556.679   -85883.154   -5418.1948    1625.5552    63858.552     85.36802 
   69300    2479.0483   -117.05405     2.243095   -114.81095   -8639.2646    4.3918161    4.3918161    4.3918161   -8639.2646   -2082.3722    7745.3251   -31580.747    7182.0626   -19181.013   -12263.769    84.709565 
   69400    2359.1548   -116.94548    2.1346128   -114.81087     9195.223    4.3816062    4.3816062    4.3816062     9195.223    62983.546   -29439.745   -5958.1316    16165.052    12066.816    10177.283    84.120151 
   69500    1068.3752   -115.82413   0.96668836   -114.85744   -42371.929    4.3867721    4.3867721    4.3867721   -42371.929   -22582.545   -20137.379   -84395.865    5323.9292     17953.21    63111.597    84.418033 
   69600    1259.1157   -116.01163    1.1392743   -114.87235    4970.4681    4.3802777    4.3802777    4.3802777    4970.4681   -19389.497    53831.273   -19530.371    2331.6486   -4731.1928   -1195.5919    84.043658 
   69700     2778.904   -117.37113    2.5144108   -114.85672    -2513.995    4.3816086    4.3816086    4.3816086    -2513.995    25798.595   -17585.301   -15755.279    11372.585     983.6164    16703.637    84.120288 
   69800    1389.1638   -116.11986    1.2569446   -114.86292    -43534.61    4.3935219    4.3935219    4.3935219    -43534.61    32325.492   -69745.024   -93184.299    1302.9541    17020.596    56381.554    84.808307 
   69900    2536.0901   -117.11129    2.2947076   -114.81659   -11281.289    4.3944282    4.3944282    4.3944282   -11281.289   -15531.371    9143.1162   -27455.613   -2413.2258   -12970.554   -8687.9348      84.8608 
   70000    2081.8509   -116.69088    1.8837024   -114.80718    -45029.22    4.4076338    4.4076338    4.4076338    -45029.22    213.08437   -109051.14   -26249.609    18370.066   -5005.4823    47756.205     85.62814 
   70100    1496.4292   -116.16056    1.3540006   -114.80656   -40827.437    4.3961078    4.3961078    4.3961078   -40827.437   -4695.6506   -63051.042   -54735.619    4803.9174    22967.392    40937.066    84.958141 
   70200    2646.3949    -117.1748    2.3945137   -114.78028    11740.487    4.3743361    4.3743361    4.3743361    11740.487     23435.69    1609.0591    10176.713   -2638.4929    27736.849   -998.27053     83.70212 
   70300    1593.6698   -116.27337    1.4419859   -114.83138   -15915.631     4.394624     4.394624     4.394624   -15915.631    55262.009   -94008.833   -9000.0674    17923.982   -16936.788    52959.081    84.872143 
   70400    2493.9601   -117.06536    2.2565875   -114.80877   -12825.267    4.4004195    4.4004195    4.4004195   -12825.267    19969.429   -20619.688   -37825.541    11505.791    25662.452   -18547.603    85.208368 
   70500    1466.7046   -116.13817    1.3271052   -114.81106    17673.021    4.3888285    4.3888285    4.3888285    17673.021    63498.692    5868.1846   -16347.814   -4146.2339    33924.451    39636.207    84.536808 
   70600    2253.2523   -116.84391      2.03879   -114.80512   -20646.203    4.4001433    4.4001433    4.4001433   -20646.203    3265.0978    -7522.891   -57680.816    12771.261   -13381.545    29289.144    85.192324 
   70700    2458.3792   -117.01163    2.2243932   -114.78723     500.7478    4.4005685    4.4005685    4.4005685     500.7478    11209.878    26617.698   -36325.333     9002.768    9505.2027    -10520.88    85.217023 
   70800    1231.4976   -115.91644    1.1142849   -114.80215    20642.932    4.3963689    4.3963689    4.3963689    20642.932    35497.826    40994.058    -14563.09   -24518.146    32035.431    36862.529    84.973279 
   70900    2179.7801   -116.76627    1.9723109   -114.79395   -6761.5664    4.4116586    4.4116586    4.4116586   -6761.5664   -41683.419    31645.761   -10247.042    8676.6966   -45760.159    4958.7256    85.862929 
   71000    1915.1694   -116.52605    1.7328855   -114.79317   -21984.591    4.3968359    4.3968359    4.3968359   -21984.591   -64338.779    42146.095   -43761.089    8961.9877     28084.38    3681.4465    85.000362 
   71100    1306.7955   -115.97808    1.1824161   -114.79566    37417.911    4.3586624    4.3586624    4.3586624    37417.911    90874.107   -15273.723    36653.351    3881.4303    35878.143    58674.905    82.805599 
   71200    2658.6271   -117.21954    2.4055817   -114.81395    21304.892    4.3668408    4.3668408    4.3668408    21304.892    40651.496   -8730.0691     31993.25    4762.0072   -31961.178    1899.1129    83.272591 
   71300    1665.6561   -116.35939    1.5071206   -114.85227    17995.141    4.3846802    4.3846802    4.3846802    17995.141   -10452.223    53553.461    10884.185    3439.0172    31143.115    8158.1886    84.297318 
   71400    1362.3495   -116.09041    1.2326824   -114.85772   -9466.1093     4.401129     4.401129     4.401129   -9466.1093    54336.355   -47059.762   -35674.921   -421.49323    20776.584    49290.723    85.249591 
   71500    2028.5866   -116.65329    1.8355078   -114.81779    23369.435    4.3966731    4.3966731    4.3966731    23369.435    48273.267   -12216.741    34051.779   -10132.202   -18403.806   -19288.126    84.990918 
   71600    1801.8775   -116.43032    1.6303766   -114.79995    41756.676    4.3798002    4.3798002    4.3798002    41756.676    60311.196     64444.53    514.30327   -230.46135    15210.927    16124.716    84.016172 
   71700    1437.5286   -116.12794    1.3007061   -114.82723    9721.9424    4.3875425    4.3875425    4.3875425    9721.9424    104464.97   -44167.987   -31131.158   -437.35773    16574.471    26731.918    84.462516 
   71800    2652.8521   -117.21592    2.4003564   -114.81556    24806.451    4.3891834    4.3891834    4.3891834    24806.451    84717.071   -14057.029    3759.3106   -9361.8079   -25443.694   -26463.202    84.557314 
   71900    1482.1135   -116.18555    1.3410474    -114.8445   -9109.5989    4.3846378    4.3846378    4.3846378   -9109.5989   -4410.0327     30369.81   -53288.574    204.59978    3693.4335    40292.385    84.294876 
   72000    1094.9214    -115.8549   0.99070788   -114.86419   -36456.109    4.3837064    4.3837064    4.3837064   -36456.109   -35819.865   -15619.558   -57928.903    18497.469    35954.963    32003.337    84.241171 
   72100    2928.6443   -117.48896    2.6498989   -114.83906    21103.202     4.371612     4.371612     4.371612    21103.202    70683.256   -17193.777    9820.1274   -9172.2192   -8567.2509   -19308.557     83.54584 
   72200    1477.5157   -116.20274    1.3368873   -114.86585    5336.7736    4.3730411    4.3730411    4.3730411    5336.7736    15455.423    15876.972   -15322.074   -14212.984    4431.9062    28850.885    83.627799 
   72300    1585.2997   -116.30047    1.4344125   -114.86606   -23586.214    4.3820079    4.3820079    4.3820079   -23586.214   -2831.5332   -480.95312   -67446.157    7573.7301    64590.261    36970.239    84.143288 
   72400    2415.3688   -117.02333    2.1854764   -114.83786    351.83207    4.3893057    4.3893057    4.3893057    351.83207    26840.388   -36393.596    10608.705   -8479.0153   -17737.588    -27022.98    84.564386 
   72500    1176.2592   -115.90936    1.0643041   -114.84506   -36356.547     4.396468     4.396468     4.396468   -36356.547    17587.117   -40234.703   -86422.056   -11659.904   -19488.886    27068.648    84.979026 
   72600    2590.3141   -117.15073    2.3437706   -114.80695   -22990.719    4.3895579    4.3895579    4.3895579   -22990.719   -19272.771   -29579.062   -20120.325   -1479.3816    31593.707    24774.379    84.578964 
   72700    2215.3399   -116.80668    2.0044861    -114.8022   -16324.877    4.3860467    4.3860467    4.3860467   -16324.877    15568.078   -53905.775   -10636.935    9283.1936   -28368.098    -29200.77    84.376159 
   72800    1302.2731   -116.00628    1.1783241   -114.82795   -3532.7682    4.3741031    4.3741031    4.3741031   -3532.7682    47384.928   -27588.426   -30394.807    1418.7899   -18052.354    38359.153    83.688742 
   72900    2824.3758   -117.38622    2.5555546   -114.83067    18987.245    4.3914995    4.3914995    4.3914995    18987.245   -16780.679   -711.51743    74453.933   -3002.6989    15149.391    3697.2639    84.691246 
   73000     1578.652   -116.26305    1.4283975   -114.83465   -24585.068    4.4021241    4.4021241    4.4021241   -24585.068   -4162.3923   -64098.455   -5494.3561     6102.831    300.13311    20055.258    85.307428 
   73100    1301.0226   -115.99527    1.1771926   -114.81808     29383.88    4.3794773    4.3794773    4.3794773     29383.88     59253.05   -19688.387    48586.978    -13822.36   -12644.332     41300.44    83.997591 
   73200    2546.9506   -117.11406    2.3045344   -114.80952    32320.853    4.3824882    4.3824882    4.3824882    32320.853    14527.911    31339.949    51094.698   -3173.8116    12020.562   -9174.8753    84.170956 
   73300    1585.6987   -116.25618    1.4347735   -114.82141   -11270.932    4.3899018    4.3899018    4.3899018   -11270.932     9109.053   -45054.482    2132.6344    54.583465    11536.108    30843.611    84.598844 
   73400      2010.57   -116.63027     1.819206   -114.81107    -12188.76     4.389208     4.389208     4.389208    -12188.76    14992.759   -58965.447    7406.4068    8789.0105   -10550.083    17230.052    84.558739 
   73500    2091.0818   -116.69489    1.8920547   -114.80283   -6306.0384    4.3913028    4.3913028    4.3913028   -6306.0384   -32225.214    18234.429   -4927.3309   -3073.6383    44710.103   -9830.1675    84.679864 
   73600    1864.9803   -116.49522    1.6874733   -114.80774   -13811.705    4.3910394    4.3910394    4.3910394   -13811.705    50050.293   -33555.985   -57929.423    1293.8336    6553.0343    41532.483    84.664625 
   73700    2554.8331   -117.11439    2.3116667   -114.80273   -1149.3579    4.3799829    4.3799829    4.3799829   -1149.3579    30702.418   -47212.786    13062.294    10649.455   -18980.025   -1157.0054    84.026687 
   73800    2251.7316   -116.86023    2.0374141   -114.82282   -14189.932    4.3752741    4.3752741    4.3752741   -14189.932    1492.9963    8852.4184   -52915.211    2861.1671    52083.266   -9798.9145    83.755977 
   73900    1409.8467   -116.12219    1.2756589   -114.84653    8223.3651     4.388829     4.388829     4.388829    8223.3651        91301   -41100.062   -25530.843    5493.0296    153.84486    57674.152    84.536836 
   74000    2215.0544   -116.83681    2.0042278   -114.83258   -26677.322    4.3950833    4.3950833    4.3950833   -26677.322   -12536.652   -66258.651    -1236.664   -31287.451   -6745.0128    23159.832    84.898758 
   74100      2316.18   -116.93943    2.0957284    -114.8437     7925.717    4.3646037    4.3646037    4.3646037     7925.717   -1568.5592    38376.973   -13031.263   -22932.977    38622.897   -16844.774    83.144679 
   74200    1668.1888   -116.36965    1.5094123   -114.86024    18645.427    4.3542786    4.3542786    4.3542786    18645.427    77209.565    6061.0841   -27334.368    9155.8108    10286.651    58538.646       82.556 
   74300    1592.7324   -116.32598    1.4411377   -114.88484   -25452.143     4.379435     4.379435     4.379435   -25452.143   -13521.614   -44807.646   -18027.169   -30641.918    -25714.29    30173.086    83.995159 
   74400     2231.233   -116.88085    2.0188665   -114.86199   -8300.8208    4.3919768    4.3919768    4.3919768   -8300.8208   -50837.124    16147.643    9787.0185   -30400.932    1125.4774   -10404.075    84.718865 
   74500    2090.9502   -116.73676    1.8919357   -114.84482   -13606.572    4.3923248    4.3923248    4.3923248   -13606.572    15095.479   -7973.2685   -47941.926    6343.9726    11074.163    29679.233    84.739002 
   74600    1586.8926   -116.27839    1.4358538   -114.84254   -16033.735    4.3830027    4.3830027    4.3830027   -16033.735    4129.4285   -35686.092    -16544.54   -58.646561   -34256.147    4823.4604    84.200605 
   74700    2490.8355   -117.08459    2.2537603   -114.83083   -1317.0477    4.3702387    4.3702387    4.3702387   -1317.0477   -19050.425    38760.828   -23661.546   -19748.877    -25266.69   -11109.867    83.467129 
   74800    2091.9941   -116.74429    1.8928803    -114.8514     8961.886    4.3810372    4.3810372    4.3810372     8961.886    35421.625   -7372.7464    -1163.221    -7243.845    5594.5615    47724.941    84.087379 
   74900    2039.5553   -116.69858    1.8454325   -114.85315   -33523.241     4.401015     4.401015     4.401015   -33523.241    -1749.588   -50564.266    -48255.87    10263.249   -31147.023   -18144.932    85.242962 
   75000    2013.3444    -116.6722    1.8217163   -114.85048   -109.07052    4.3749002    4.3749002    4.3749002   -109.07052    1147.7467    13858.267   -15333.225    1414.8009    -24531.58   -20563.919    83.734504 
   75100     1308.673   -116.02883    1.1841148   -114.84471    37045.371    4.3523764    4.3523764    4.3523764    37045.371    50787.383    2741.4754    57607.253   -12967.147    34380.788    48514.196     82.44785 
   75200    1992.4725   -116.67996     1.802831   -114.87713   -19042.147    4.3828641    4.3828641    4.3828641   -19042.147    37950.349   -59852.002   -35224.788    32.161617    3378.1104    -4799.752    84.192619 
   75300    2394.5953   -117.00657    2.1666802   -114.83989    8938.3397    4.3965086    4.3965086    4.3965086    8938.3397    14385.771       -26521    38950.248    9177.6065   -18951.899   -15344.167    84.981379 
   75400    710.74278    -115.4905     0.643095   -114.84741    28947.683    4.3953552    4.3953552    4.3953552    28947.683    9068.3977    24957.628    52817.023   -12449.504    28254.554    24872.318    84.914513 
   75500    2435.9243   -117.00053    2.2040755   -114.79645   -9307.2388    4.3990496    4.3990496    4.3990496   -9307.2388    18104.472   -18032.105   -27994.083    10203.181   -5233.6574   -10438.902    85.128811 
   75600    2013.0968   -116.61208    1.8214923   -114.79058    28717.251    4.3821833    4.3821833    4.3821833    28717.251    19795.466    16404.931    49951.357    3062.6649   -22653.073    14009.754    84.153393 
   75700    861.10565   -115.60895   0.77914649    -114.8298    17784.173    4.3859179    4.3859179    4.3859179    17784.173    22359.978     38494.02   -7501.4784    2404.9243    27621.998    43891.354    84.368726 
   75800    2607.4352   -117.17651    2.3592621   -114.81725   -12409.255    4.3993999    4.3993999    4.3993999   -12409.255   -33132.637    -26460.48    22365.354    29400.991   -14020.997   -16042.286     85.14915 
   75900    2145.8285   -116.77407    1.9415907   -114.83248    9568.4265    4.3845562    4.3845562    4.3845562    9568.4265   -39099.241    -7642.302    75446.822   -10984.814   -11192.193    10292.703    84.290166 
   76000    1188.7414   -115.93577    1.0755982   -114.86017    956.50724    4.3644474    4.3644474    4.3644474    956.50724   -13579.826   -1131.9199    17581.268   -30168.298    43164.229    57954.447    83.135747 
   76100    2072.0452    -116.7429      1.87483   -114.86807    4386.7049    4.3659853    4.3659853    4.3659853    4386.7049    -2215.751   -31947.644     47323.51      20164.6   -687.78514    11919.459    83.223659 
   76200    1895.9805     -116.592     1.715523   -114.87648    9810.1259    4.3820693    4.3820693    4.3820693    9810.1259   -8340.6714    29654.147    8116.9023    23946.912     9861.191   -23191.189    84.146825 
   76300    950.86371   -115.71978   0.86036147   -114.85942   -21382.469    4.4075831    4.4075831    4.4075831   -21382.469   -66330.623    43981.901   -41798.686   -19712.909    60841.753     36973.76    85.625186 
   76400    2630.8099   -117.17748    2.3804121   -114.79707    1259.6017    4.3957724    4.3957724    4.3957724    1259.6017   -11309.433    1349.4236    13738.815    -474.9731   -15190.938    25892.374    84.938696 
   76500    2243.5012   -116.83348    2.0299671   -114.80351    -1155.922    4.3687935    4.3687935    4.3687935    -1155.922   -17079.809    39932.587   -26320.543    14666.388    35298.745   -8955.4108    83.384349 
   76600    1028.5006   -115.77962   0.93060894   -114.84901   -14196.394    4.3672242    4.3672242    4.3672242   -14196.394    8021.7911   -5177.9981   -45432.976   -20364.016    50593.172    17758.721    83.294525 
   76700    2303.6198   -116.93044    2.0843636   -114.84608    13440.056      4.36393      4.36393      4.36393    13440.056    18071.154   -10828.478    33077.491   -7675.9029   -21059.722    7117.2272    83.106181 
   76800    1346.4904   -116.09888    1.2183328   -114.88055    16362.223    4.3780608    4.3780608    4.3780608    16362.223   -51110.281    71215.117    28981.833    15228.922    47545.917   -10751.002    83.916116 
   76900    1747.5161    -116.4525    1.5811893   -114.87131   -38320.351    4.3878576    4.3878576    4.3878576   -38320.351   -48610.326   -10180.226   -56170.501   -12681.449    41408.259    41754.941    84.480713 
   77000    2687.0338   -117.27891    2.4312846   -114.84763    29379.828    4.3571107    4.3571107    4.3571107    29379.828    19148.356    38473.882    30517.247   -1343.7395   -20631.267    27715.062    82.717193 
   77100    2117.7946   -116.77464     1.916225   -114.85841     24496.77    4.3551187    4.3551187    4.3551187     24496.77   -26352.916    59757.467     40085.76    20489.967    51586.327   -22479.714    82.603794 
   77200    1253.9464   -116.01331    1.1345971   -114.87871   -23575.563    4.3839987    4.3839987    4.3839987   -23575.563   -14151.171   -14944.373   -41631.146    12303.206    24732.314    40527.162    84.258019 
   77300    2179.9882   -116.82395    1.9724992   -114.85145   -12558.567    4.3832523    4.3832523    4.3832523   -12558.567     9045.898   -26553.682   -20167.917   -35002.984   -12788.715    14908.968    84.214993 
   77400    2046.8981   -116.68248    1.8520764    -114.8304    1055.5214    4.3821816    4.3821816    4.3821816    1055.5214   -24942.521   -28861.499    56970.584   -9848.1974    31157.565    -16392.68    84.153295 
   77500    1870.7726   -116.52152    1.6927143   -114.82881   -33439.389    4.3887665    4.3887665    4.3887665   -33439.389   -30136.773   -48122.288   -22059.106    35411.448    30808.986    27833.759    84.533221 
   77600    2305.5195   -116.90921    2.0860825   -114.82313    2408.0813    4.3701841    4.3701841    4.3701841    2408.0813     -3848.83    1170.6378    9902.4361   -56860.033   -1365.2421    11880.105       83.464 
   77700    2138.8121    -116.7675    1.9352422   -114.83226    11407.563    4.3696844    4.3696844    4.3696844    11407.563   -10947.664     2522.922    42647.431   -15509.146   -618.55101   -322.17917    83.435374 
   77800    1578.6986   -116.27728    1.4284396   -114.84884   -13544.198    4.3907962    4.3907962    4.3907962   -13544.198   -21045.159   -11407.307   -8180.1293     52725.08    28373.698    11876.814    84.650562 
   77900    2299.6142   -116.91631    2.0807393   -114.83557   -14591.663    4.3829692    4.3829692    4.3829692   -14591.663   -1141.7384   -14114.433   -28518.816   -36918.248   -9439.8347    19511.044    84.198674 
   78000    2041.5947   -116.68183    1.8472778   -114.83455    29432.462    4.3659395    4.3659395    4.3659395    29432.462     66938.86     27385.56    -6027.034   -28085.308    8291.4257    4440.8829    83.221041 
   78100    1709.8437   -116.39994    1.5471025   -114.85284    10358.122    4.3734538    4.3734538    4.3734538    10358.122    13493.211     41681.72   -24100.565    34587.315    23340.663   -12978.414     83.65148 
   78200    1613.2042   -116.31751    1.4596611   -114.85785   -10899.413    4.3810047    4.3810047    4.3810047   -10899.413    17959.057      25543.5   -76200.794   -3394.1041   -36211.707    23114.395    84.085508 
   78300    1434.6465   -116.15585    1.2980983   -114.85775    15497.317    4.3741095    4.3741095    4.3741095    15497.317    114687.55   -19585.419   -48610.182    -22862.39   -9692.8983    9665.0854    83.689111 
   78400    2451.6511   -117.05966    2.2183054   -114.84136    1403.5696     4.384852     4.384852     4.384852    1403.5696   -35259.891    75031.687   -35561.087    17093.596    -2543.124   -4912.7977    84.307231 
   78500    2045.7609   -116.69905    1.8510474     -114.848   -13317.996     4.388013     4.388013     4.388013   -13317.996   -58385.641    74792.747   -56361.092    11636.406   -42332.014     11495.11    84.489688 
   78600    739.07182   -115.54168   0.66872772   -114.87295   -8658.5759    4.3682616    4.3682616    4.3682616   -8658.5759    72569.252   -19069.702   -79475.278     -22252.3   -6015.7942   -24843.629      83.3539 
   78700    1895.6077   -116.58811    1.7151856   -114.87292   -4971.5659    4.3556814    4.3556814    4.3556814   -4971.5659    21834.335        22324   -59073.033    3208.4598    13363.018   -2431.0859    82.635817 
   78800    2868.8658   -117.47089    2.5958101   -114.87508    10473.812     4.373381     4.373381     4.373381    10473.812    7139.1842    54170.433    -29888.18    945.41041   -2974.3902    4293.5654    83.647301 
   78900    1664.8135   -116.38395    1.5063582   -114.87759   -9998.3252    4.3900584    4.3900584    4.3900584   -9998.3252    51573.168    81.194666   -81649.338   -3917.0293   -6697.0314   -32099.102    84.607895 
   79000    1612.6266   -116.31803    1.4591384   -114.85889    12279.267    4.3802597    4.3802597    4.3802597    12279.267    49919.039    64586.285   -77667.522   -12572.829    16373.897    16050.223    84.042622 
   79100    2238.4615   -116.86662     2.025407   -114.84121    28716.569    4.3652483    4.3652483    4.3652483    28716.569    29504.071    30733.997     25911.64    22131.659    7987.4951    6374.2266    83.181521 
   79200     1865.419   -116.54726    1.6878703   -114.85939    4642.5855    4.3596851    4.3596851    4.3596851    4642.5855   -14185.346    56002.562    -27889.46    24294.324    -17470.06    -18792.47    82.863898 
   79300    1747.8926   -116.46131    1.5815299   -114.87978   -9558.5501    4.3692534    4.3692534    4.3692534   -9558.5501    37336.493    14000.754   -80012.896   -17844.785   -17340.523   -8332.0796    83.410685 
   79400    1601.1222   -116.32999     1.448729   -114.88126    21504.806    4.3748167    4.3748167    4.3748167    21504.806    9454.0365      52002.4    3057.9803    29128.112    1546.7246    13551.481     83.72971 
   79500    2397.4664   -117.03339     2.169278   -114.86412   -4467.0045     4.387415     4.387415     4.387415   -4467.0045   -31066.683    42011.083   -24345.414    17564.017   -9144.6528   -11148.555    84.455152 
   79600    1259.9626   -115.99692    1.1400406   -114.85688   -15167.344    4.3900757    4.3900757    4.3900757   -15167.344    90612.786   -25325.579   -110789.24   -13837.228   -3600.6566   -7947.8827    84.608898 
   79700    1500.9031   -116.19048    1.3580487   -114.83243    11091.975    4.3702812    4.3702812    4.3702812    11091.975    60023.103    21890.756   -48637.935    11169.851    12703.212    36492.702    83.469564 
   79800    2872.3672   -117.41045    2.5989782   -114.81147    18901.309    4.3691701    4.3691701    4.3691701    18901.309   -13061.338    68826.613    938.65255   -1794.8265    6315.0733   -4053.6466    83.405916 
   79900    1146.3195   -115.89409     1.037214   -114.85688   -2555.7591    4.3829935    4.3829935    4.3829935   -2555.7591    48989.892   -2072.9861   -54584.183   -21564.201   -1872.5167    14687.275    84.200076 
   80000    1266.2087   -116.00994    1.1456923   -114.86425   -462.99621    4.3875385    4.3875385    4.3875385   -462.99621    43106.803    34462.652   -78958.443   -9615.4204    3455.6243   -2548.1518    84.462287 
   80100     3010.165   -117.55211    2.7236605   -114.82845   -14944.078    4.3809875    4.3809875    4.3809875   -14944.078   -37667.818    25053.662   -32218.078    27406.459   -5141.3596   -2355.2572    84.084518 
   80200    1502.4432   -116.20837    1.3594422   -114.84893    6885.4687    4.3596956    4.3596956    4.3596956    6885.4687    22047.616    16300.238   -17691.448    9789.9838    2860.9601     18866.45    82.864495 
   80300    1714.7879   -116.41303    1.5515761   -114.86145   -1513.9944    4.3609055    4.3609055    4.3609055   -1513.9944    69088.438    1607.7777   -75238.199    -16890.23   -12503.542    19141.752    82.933504 
   80400    1872.7987   -116.55447    1.6945476   -114.85992   -18150.547    4.3879735    4.3879735    4.3879735   -18150.547   -18513.284   -35054.575    -883.7816    61941.928    11481.815   -6132.0995     84.48741 
   80500    2050.8576   -116.69155     1.855659   -114.83589   -24340.092    4.4026413    4.4026413    4.4026413   -24340.092    -52457.65   -11652.083    -8910.542    14582.679    10154.443    13713.131      85.3375 
   80600    2118.6455   -116.74686    1.9169949   -114.82987    14955.254    4.3797111    4.3797111    4.3797111    14955.254     18649.91    80895.637   -54679.784    -30944.54   -13529.622    16454.641    84.011045 
   80700    531.50739    -115.3433   0.48091906   -114.86238    4964.4853    4.3608979    4.3608979    4.3608979    4964.4853   -3705.9077   -15237.576     33836.94    82696.396    2960.1382   -10682.128    82.933074 
   80800    2626.7788   -117.24501    2.3767646   -114.86824   -6976.7913    4.3711299    4.3711299    4.3711299   -6976.7913    -13276.51    12523.399   -20177.263   -2382.6811    4319.3142   -20162.657    83.518202 
   80900    2167.8583   -116.83053    1.9615237   -114.86901    19921.599    4.3851161    4.3851161    4.3851161    19921.599   -2329.3079    31489.705    30604.401    7159.4268   -1744.2134   -6087.2638    84.322466 
   81000    1621.1917   -116.32657    1.4668883   -114.85968    22537.596    4.3866452    4.3866452    4.3866452    22537.596   -13248.983    40249.306    40612.465    68623.393    2539.5042   -8687.8279    84.410703 
   81100    1989.8824   -116.62489    1.8004874   -114.82441   -16292.135    4.4052962    4.4052962    4.4052962   -16292.135   -22510.939    30365.344    -56730.81   -37864.263   -7452.2727   -1123.2566    85.491971 
   81200    1350.5267   -116.03903    1.2219849   -114.81705   -36062.119    4.3967316    4.3967316    4.3967316   -36062.119   -44757.815   -55027.512   -8401.0286    36541.011   -592.84526    20222.376    84.994311 
   81300    2839.3621    -117.3407    2.5691145   -114.77159    35997.924    4.3573029    4.3573029    4.3573029    35997.924    26744.547    47480.062    33769.163    24621.089    8873.1883   -12205.304    82.728136 
   81400    971.84679   -115.71179    0.8793474   -114.83244   -13199.082    4.3697893    4.3697893    4.3697893   -13199.082    50346.064   -76376.154   -13567.155   -28958.382    6648.9886   -21843.554    83.441382 
   81500    1981.5531   -116.62954    1.7929508   -114.83658   -15608.137    4.3899681    4.3899681    4.3899681   -15608.137   -28808.285   -2055.0956    -15961.03    2575.8978   -5284.9396     10867.94    84.602677 
   81600    2386.9406   -116.97292     2.159754   -114.81317     1237.399    4.3982083    4.3982083    4.3982083     1237.399    25697.635    38410.259   -60395.697    582.07564   -5639.4894   -17232.873    85.079981 
   81700    594.11024   -115.35771   0.53756343   -114.82015     2212.663    4.3901275    4.3901275    4.3901275     2212.663    54272.103    11111.385   -58745.499   -25221.631   -7113.4128   -18404.416    84.611888 
   81800    2858.7707   -117.37675    2.5866758   -114.79008   -9283.3767     4.382449     4.382449     4.382449   -9283.3767   -15687.919    27554.243   -39716.453    371.56352    7316.9192    26425.715      84.1687 
   81900    1764.8354   -116.42508    1.5968602   -114.82822     7520.464    4.3735099    4.3735099    4.3735099     7520.464    37623.158   -11387.247   -3674.5186    27916.531    4387.3868   -15026.721    83.654702 
   82000    1444.5981   -116.16731    1.3071027   -114.86021    3419.6587    4.3815395    4.3815395    4.3815395    3419.6587    24447.318    15445.976   -29634.319   -28356.968    -10888.52   -24966.335    84.116307 
   82100    2516.3623   -117.11042    2.2768575   -114.83357    89.427935    4.3912591    4.3912591    4.3912591    89.427935   -32502.849    43917.917   -11146.785    11300.736    25657.619    16184.976    84.677337 
   82200    1303.2665   -116.01096    1.1792229   -114.83173    37761.688    4.3840895    4.3840895    4.3840895    37761.688    7583.2225    62736.732    42965.109    43007.109     7964.941    19742.697    84.263258 
   82300    1915.9976   -116.55755    1.7336349   -114.82392    4947.5723    4.3922011    4.3922011    4.3922011    4947.5723    23461.303   -37304.077    28685.491     -31769.5     3140.161   -36674.686    84.731841 
   82400    1419.5895   -116.10354    1.2844744   -114.81907   -32810.735     4.393131     4.393131     4.393131   -32810.735   -88984.308   -27182.789    17734.892    77249.329    13661.522    7614.8231    84.785669 
   82500    1838.0719   -116.47502    1.6631261   -114.81189   -2052.6566    4.3701461    4.3701461    4.3701461   -2052.6566   -29961.601    2019.1285    21784.502    46189.412    3701.9803    4353.9467    83.461825 
   82600    2428.0755   -117.01562    2.1969737   -114.81865    9874.7033    4.3728739    4.3728739    4.3728739    9874.7033    15213.642    3891.3915    10519.077   -9871.9106    2869.9441   -10714.548    83.618209 
   82700    1033.7912   -115.77872   0.93539599   -114.84332   -30801.873    4.3899255    4.3899255    4.3899255   -30801.873   -80168.159   -48702.199    36464.738    116525.36    2685.1644    4901.1642    84.600213 
   82800    2370.0716   -116.96041    2.1444906   -114.81592    2311.4899    4.3886066    4.3886066    4.3886066    2311.4899    1657.3963    30961.616   -25684.543   -15616.491   -502.51248    2292.5868    84.523984 
   82900    1665.0766   -116.32555    1.5065963   -114.81895    2649.2424    4.3802062    4.3802062    4.3802062    2649.2424    15338.154   -41077.802    33687.375    29435.952   -7470.6373   -14334.602    84.039542 
   83000    1542.7445   -116.22094    1.3959077   -114.82503   -8467.8678    4.3818533    4.3818533    4.3818533   -8467.8678   -51803.201    9000.2828    17399.315    80602.597    16385.415   -7590.8905    84.134381 
   83100     2518.768   -117.09704    2.2790342   -114.81801   -27148.058    4.3848068    4.3848068    4.3848068   -27148.058   -12252.314   -4550.1396   -64641.719   -28572.585    2000.1345    8706.3304     84.30462 
   83200    1421.8008   -116.12658    1.2864752   -114.84011    16477.109    4.3624216    4.3624216    4.3624216    16477.109    12714.431    4321.1119    32395.784    28637.732    -23146.74   -15469.527    83.020032 
   83300    1748.2044   -116.43314    1.5818121   -114.85133    22933.646    4.3628073    4.3628073    4.3628073    22933.646    43373.643   -31541.786    56969.082    34157.249    10305.369   -6699.7495    83.042058 
   83400    1622.4388     -116.327    1.4680168   -114.85898   -1167.5046    4.3923361    4.3923361    4.3923361   -1167.5046    63777.189    3295.5109   -70575.214    -17685.31    41682.351    21869.626    84.739656 
   83500    2313.9572   -116.91854    2.0937171   -114.82482   -32313.141    4.3996795    4.3996795    4.3996795   -32313.141   -29478.472   -61358.862   -6102.0884    29533.153   -16938.397    -12758.04    85.165388 
   83600    1290.7594   -115.99348    1.1679062   -114.82558   -24438.466    4.3796666    4.3796666    4.3796666   -24438.466   -58114.482   -51657.736    36456.821    13536.644    21122.072    2913.9165    84.008484 
   83700    2071.5028   -116.68442    1.8743393   -114.81008   -3732.9731    4.3581394    4.3581394    4.3581394   -3732.9731    42649.783   -8878.5642   -44970.139   -17348.938    49340.174    34566.713    82.775794 
   83800    2000.1416   -116.63438    1.8097702   -114.82461    8538.9988    4.3665221    4.3665221    4.3665221    8538.9988    12031.709   -12753.498    26338.786    46862.211   -9502.7655    5403.0538     83.25436 
   83900    1541.4281    -116.2443    1.3947165   -114.84959   -14287.118    4.3863152    4.3863152    4.3863152   -14287.118   -27612.138   -61276.191    46026.973    2047.7789    14346.155   -5810.3107    84.391654 
   84000    2509.8344   -117.09859     2.270951   -114.82764   -8413.4979     4.406302     4.406302     4.406302   -8413.4979    32048.397   -23368.702   -33920.188   -9518.1175    19578.329   -2898.0051    85.550544 
   84100     1399.649   -116.08639    1.2664319   -114.81996   -15977.529    4.4005601    4.4005601    4.4005601   -15977.529    -41765.55   -11740.402    5573.3647    25843.336   -22917.134    2096.0428    85.216535 
   84200    1819.8564    -116.4364    1.6466443   -114.78975    10466.606    4.3648058    4.3648058    4.3648058    10466.606    18875.038   -50666.152    63190.933   -43779.995    13737.065   -14472.102    83.156229 
   84300    2360.2627   -116.93718    2.1356153   -114.80156    35672.181    4.3535941    4.3535941    4.3535941    35672.181    62256.944    12292.146    32467.452   -13915.192   -22016.531    735.98893    82.517069 
   84400    1720.1791    -116.4053    1.5564542   -114.84884    9048.6716    4.3641289    4.3641289    4.3641289    9048.6716    17573.521    12543.511   -2971.0178    6951.4863   -35116.907     17603.25    83.117547 
   84500    1533.1606   -116.24963    1.3872359   -114.86239   -15786.025    4.3836444    4.3836444    4.3836444   -15786.025   -29692.409   -95582.753    77917.085   -39962.429   -9478.0723   -17796.915    84.237593 
   84600    2245.1756   -116.87037    2.0314821   -114.83889   -12372.508     4.394351     4.394351     4.394351   -12372.508   -11628.445   -36588.424    11099.346   -13208.923    20933.311    9312.3247    84.856324 
   84700    2207.8926   -116.82163    1.9977476   -114.82389   -3856.9361    4.3796209    4.3796209    4.3796209   -3856.9361   -8510.3867   -10800.673    7740.2518    -9323.296   -14227.204    20722.335    84.005853 
   84800    1472.0277   -116.16639    1.3319216   -114.83447   -19134.071    4.3605712    4.3605712    4.3605712   -19134.071   -28845.842   -94805.806    66249.435   -40488.321   -22016.293   -2751.2166    82.914436 
   84900     1384.023   -116.11614    1.2522931   -114.86384   -10655.347    4.3605296    4.3605296    4.3605296   -10655.347    1696.3715     -36757.7    3095.2878     12402.74    53441.373    -13316.22    82.912059 
   85000    2488.7636   -117.12494    2.2518856   -114.87305   -12513.681    4.3694226    4.3694226    4.3694226   -12513.681    15262.441   -21519.009   -31284.474    2329.1158    18023.898   -18794.859    83.420378 
   85100    2288.8769   -116.94656    2.0710239   -114.87554   -683.32417    4.3739223    4.3739223    4.3739223   -683.32417    2984.0456   -43018.312    37984.294   -27752.353   -26432.244    12193.072    83.678365 
   85200    1289.2003   -116.04548    1.1664955   -114.87899   -1693.0623     4.376093     4.376093     4.376093   -1693.0623    25931.462   -64369.955    33359.305    24874.684    37010.765   -9136.2257    83.803012 
   85300     1784.394   -116.48793    1.6145572   -114.87338   -19673.257    4.3751184    4.3751184    4.3751184   -19673.257    19345.875   -35692.226   -42673.421    12022.305   -2946.7984   -4743.4206    83.747035 
   85400    2428.9707   -117.05961    2.1977837   -114.86182   -7385.1045    4.3680005    4.3680005    4.3680005   -7385.1045    13120.178   -14874.519   -20400.973    548.26772   -36573.163    29301.108    83.338954 
   85500    2223.6091   -116.87343    2.0119682   -114.86146    9727.8832    4.3690824    4.3690824    4.3690824    9727.8832    19632.713     -32873.3    42424.236    31484.578    42213.901    -14878.04    83.400897 
   85600    1457.3628   -116.18383    1.3186525   -114.86518   -28625.917    4.3852541    4.3852541    4.3852541   -28625.917   -27406.474   -28110.463   -30360.814     22749.42   -866.38623   -11553.271    84.330426 
   85700      2046.16   -116.69614    1.8514086   -114.84473   -33832.771    4.3826872    4.3826872    4.3826872   -33832.771   -7379.8303    -24969.22   -69149.262   -24321.639   -38999.525    39741.828    84.182423 
   85800     2045.967   -116.68696     1.851234   -114.83573    1883.8664    4.3641101    4.3641101    4.3641101    1883.8664   -3421.6368   -17836.206    26909.442   -18312.061      36956.1   -4930.4107    83.116469 
   85900    2148.5282   -116.79837    1.9440334   -114.85434   -2418.1499    4.3582749    4.3582749    4.3582749   -2418.1499   -16802.486    794.18273    8753.8534    39592.389    17646.042   -22371.467    82.783513 
   86000    1741.4555   -116.45079    1.5757055   -114.87509   -1833.6651     4.363136     4.363136     4.363136   -1833.6651    36307.035   -34435.176   -7372.8547    743.24063   -24474.722    22219.537    83.060829 
   86100    1458.3826   -116.20872    1.3195752   -114.88914    4867.3899    4.3720442    4.3720442    4.3720442    4867.3899    30425.525   -37252.125     21428.77   -74274.419    1457.3735    16289.882     83.57062 
   86200     3040.537   -117.59864    2.7511418   -114.84749   -9246.0399    4.3818542    4.3818542    4.3818542   -9246.0399    12909.138   -38275.237   -2372.0207    28816.233    2234.2136    -9596.327    84.134433 
   86300    1489.4908   -116.20326    1.3477226   -114.85554   -6000.0194      4.37871      4.37871      4.37871   -6000.0194   -7029.4903   -61363.482    50392.914   -15172.898    1007.9882   -411.57965    83.953451 
   86400    1216.7853   -115.94909     1.100973   -114.84812    9369.3599    4.3729818    4.3729818    4.3729818    9369.3599    -9960.968   -15630.946    53699.994   -46635.055   -15033.433    9610.7982      83.6244 
   86500    2912.9088   -117.44071    2.6356611   -114.80505   -6073.1612    4.3893678    4.3893678    4.3893678   -6073.1612    18567.542   -37579.459    792.43315     5865.669    21969.639    6985.1536    84.567975 
   86600    1278.2587    -115.9504    1.1565954   -114.79381   -34161.777    4.4038722    4.4038722    4.4038722   -34161.777   -35261.139    -94219.75    26995.558   -75804.056    4258.3247   -3729.9975    85.409092 
   86700    2255.2593   -116.81253     2.040606   -114.77192   -5356.2711    4.3838066    4.3838066    4.3838066   -5356.2711    3953.0651   -9730.8842   -10290.994    29564.945   -37110.006    -3642.829    84.246942 
   86800    2190.2705   -116.77337    1.9818028   -114.79156    5084.4997    4.3590881    4.3590881    4.3590881    5084.4997   -15239.453   -4455.1232    34948.075   -25911.941     41853.78    -8410.531     82.82986 
   86900    1432.3001   -116.12997    1.2959752   -114.83399    10628.736    4.3556726    4.3556726    4.3556726    10628.736   -30802.809   -7309.7509    69998.767   -62133.436    9822.5354   -15447.596    82.635313 
   87000    2430.0346    -117.0529    2.1987464   -114.85415   -875.69833    4.3768658    4.3768658    4.3768658   -875.69833   -2871.7669   -19192.738    19437.409     55248.17   -23391.325    12296.774    83.847416 
   87100    1807.9387   -116.48126    1.6358609    -114.8454   -39984.717    4.3960397    4.3960397    4.3960397   -39984.717   -64377.745   -43246.932   -12329.474   -27659.234    51313.862   -1965.6044    84.954195 
   87200    1682.8454    -116.3572    1.5226739   -114.83452   -4679.4493    4.3728957    4.3728957    4.3728957   -4679.4493   -16377.922   -22607.827    24947.401   -49667.222      14595.2   -327.74393    83.619458 
   87300     2597.971    -117.1674    2.3506988    -114.8167    25532.934     4.348917     4.348917     4.348917    25532.934     37812.37    8776.2405     30010.19    25609.651    -19151.37   -18794.899    82.251409 
   87400    1384.5574   -116.11424    1.2527766   -114.86147   -5847.0217     4.367776     4.367776     4.367776   -5847.0217    15138.091    14354.575   -47033.731   -16749.146    72587.498    27067.244    83.326106 
   87500    1939.8885   -116.60351    1.7552519   -114.84825    -30855.92    4.3960201    4.3960201    4.3960201    -30855.92    -66257.16   -25287.776   -1022.8253   -31948.686   -9162.1992   -20773.313    84.953056 
   87600    2105.7699   -116.71299    1.9053449   -114.80764   -14135.774    4.4014243    4.4014243    4.4014243   -14135.774    23095.149   -43978.726   -21523.745    5397.0023   -2858.0819    2871.7199    85.266751 
   87700    1261.6202   -115.95425    1.1415405   -114.81271   -25538.154    4.3782808    4.3782808    4.3782808   -25538.154   -5405.2161    13378.693   -84587.938   -11637.291     79985.46    51009.019    83.928764 
   87800    2117.6806   -116.71649    1.9161219   -114.80037    20431.397    4.3498549    4.3498549    4.3498549    20431.397    3875.4649    41216.332    16202.395   -17088.658   -17282.981   -34644.578    82.304638 
   87900     1952.993    -116.5953    1.7671091   -114.82819    2271.5244    4.3616929    4.3616929    4.3616929    2271.5244    44636.959   -10609.092   -27213.294    3784.1908    12296.721    5472.2444    82.978438 
   88000     1302.931   -116.02032    1.1789194    -114.8414   -9285.3389    4.3826962    4.3826962    4.3826962   -9285.3389   -17725.004    54675.552   -64806.565    -39.07188    54105.876    34599.439    84.182945 
   88100    2210.0774   -116.81889    1.9997245   -114.81916   -914.33147    4.3908946    4.3908946    4.3908946   -914.33147    -6087.428    12526.519   -9182.0855   -13910.482   -29397.938   -28810.136     84.65625 
   88200      2093.43   -116.69305    1.8941795   -114.79887   -8818.0389    4.3923867    4.3923867    4.3923867   -8818.0389    24648.369   -28922.632   -22179.854    19460.133     29843.73    26927.549    84.742584 
   88300    1717.5095   -116.36126    1.5540387   -114.80722   -1989.7436    4.3715549    4.3715549    4.3715549   -1989.7436   -26241.007    9825.2269     10446.55    3556.7996    16080.444    22139.933    83.542564 
   88400    2313.4961   -116.89667    2.0932999   -114.80337    32810.954    4.3484308    4.3484308    4.3484308    32810.954    11253.027    49664.392    37515.441    -55471.36   -9476.0572   -15244.446    82.223825 
   88500    1897.6447   -116.56288    1.7170288   -114.84585   -1511.0207    4.3706715    4.3706715    4.3706715   -1511.0207   -7709.7912   -11438.623    14615.352    48340.552     22401.81     21276.04    83.491931 
   88600    1532.0068   -116.22718     1.386192   -114.84099   -33163.815    4.3955034    4.3955034    4.3955034   -33163.815   -36849.963   -26938.728   -35702.754    14531.169    13332.751    17866.996    84.923107 
   88700      3104.44   -117.60582    2.8089626   -114.79686   -6274.9225    4.3926179    4.3926179    4.3926179   -6274.9225   -5427.3775   -6420.0691   -6977.3208   -31609.242   -10970.606    4418.3109    84.755969 
   88800    1066.8269   -115.80326   0.96528739   -114.83797    -19823.43    4.3745703    4.3745703    4.3745703    -19823.43   -33926.841   -31627.873    6084.4258    46200.915     30899.63    -2645.841    83.715563 
   88900    1226.2006   -115.95317    1.1094921   -114.84368     23759.09    4.3559744    4.3559744    4.3559744     23759.09    43777.207   -5401.8118    32901.874    27318.738     27492.27    19216.114    82.652491 
   89000    2884.1685   -117.44204    2.6096563   -114.83239   -13171.815    4.3782974    4.3782974    4.3782974   -13171.815   -19947.053      6540.07   -26108.461   -26606.349   -30349.086    1599.9709    83.929722 
   89100    1223.2601   -115.94786    1.1068314   -114.84103   -22365.082    4.3895631    4.3895631    4.3895631   -22365.082   -16580.829   -27279.602   -23234.816    25458.814    8050.2581   -8311.6794    84.579261 
   89200    2183.4951   -116.78706    1.9756723   -114.81139    38690.629    4.3653278    4.3653278    4.3653278    38690.629    24729.769    25505.262    65836.856    27381.218    20069.318    28239.265    83.186067 
   89300    1742.3502   -116.39868    1.5765151   -114.82216     7467.949    4.3727051    4.3727051    4.3727051     7467.949   -42946.552    37843.725    27506.674   -60540.962   -17076.885   -12176.058    83.608526 
   89400    2211.9735   -116.81826    2.0014401   -114.81682   -14227.138    4.3794936    4.3794936    4.3794936   -14227.138   -44268.372    18153.687   -16566.729    28289.724    13226.277   -22843.462    83.998529 
   89500    1734.3836   -116.38365    1.5693067   -114.81435    41047.422    4.3593008    4.3593008    4.3593008    41047.422   -19400.486    56018.057    86524.696   -45755.848    14299.888    12812.055    82.841987 
   89600    1797.6678   -116.46463    1.6265676   -114.83806    14863.941    4.3714588    4.3714588    4.3714588    14863.941   -20225.444    23325.906    41491.361   -68402.998   -9533.2648   -13720.688    83.537057 
   89700    2905.7197   -117.44945    2.6291563   -114.82029   -6601.8166    4.3774436    4.3774436    4.3774436   -6601.8166   -36603.136    25921.592   -9123.9064    29893.701    19293.756   -3077.0525    83.880628 
   89800    927.78756   -115.69022   0.83948168   -114.85074    42087.259    4.3544741    4.3544741    4.3544741    42087.259    1376.8298    30494.177    94390.771   -114672.62    14791.812    7124.1231    82.567119 
   89900     2285.721   -116.90689    2.0681684   -114.83872   -7731.1249    4.3728756    4.3728756    4.3728756   -7731.1249   -39416.813   -21979.275    38202.714    24667.832    -3313.569   -17686.049    83.618305 
   90000    1848.8099   -116.49287    1.6728421   -114.82003    5530.1418    4.3828727    4.3828727    4.3828727    5530.1418    3643.3016   -27322.235    40269.359    7914.9711    1620.0376    4022.0696    84.193114 
   90100    1270.5522   -115.97131    1.1496224   -114.82169    26780.404    4.3811237    4.3811237    4.3811237    26780.404    1486.2116    22102.754    56752.246   -78824.996    15094.851     11867.43     84.09236 
   90200    2908.6188   -117.42086    2.6317794   -114.78908   -6970.1576    4.3906264    4.3906264    4.3906264   -6970.1576    16049.992   -20765.262   -16195.202    40217.682     29000.93    14107.241    84.640738 
   90300     1638.575   -116.29024    1.4826171   -114.80762    8700.4794    4.3722819    4.3722819    4.3722819    8700.4794    14726.084    -75957.91    87333.263   -68145.875   -10700.868   -8581.3184    83.584251 
   90400    1923.7725   -116.54108    1.7406698   -114.80041    26823.144    4.3612225    4.3612225    4.3612225    26823.144    21488.762    19112.832    39867.837    258.98624    33196.834    4872.4151    82.951592 
   90500    1914.5795   -116.55794    1.7323518   -114.82559    9034.5987    4.3756532    4.3756532    4.3756532    9034.5987   -892.33911    12251.373    15744.762   -4117.7802     24185.24   -4356.5451     83.77775 
   90600    1901.2166   -116.55361    1.7202607   -114.83335   -4372.9011    4.3821196    4.3821196    4.3821196   -4372.9011   -1290.1124   -35575.049    23746.459   -58893.658   -22787.376   -3992.1487    84.149723 
   90700    1600.6992   -116.27683    1.4483462   -114.82849   -1051.8294    4.3799841    4.3799841    4.3799841   -1051.8294    295.08215   -10995.282    7544.7121    41538.943    38036.132    -5832.014    84.026756 
   90800    1471.1426   -116.17732    1.3311208    -114.8462   -8495.1734     4.371211     4.371211     4.371211   -8495.1734    42.234457    22950.384   -48478.139    16306.427    10262.155    16785.628    83.522851 
   90900    2628.6304   -117.20768      2.37844   -114.82924    10628.924    4.3644785    4.3644785    4.3644785    10628.924    23628.692   -1151.1567     9409.237    -14464.34   -27053.409    12035.133    83.137522 
   91000    1831.4897    -116.5076    1.6571704   -114.85043   -3951.4917    4.3651926    4.3651926    4.3651926   -3951.4917   -26889.272   -26686.744    41721.541    56708.875    28318.621   -6193.8893    83.178336 
   91100    1167.3839   -115.92088    1.0562735    -114.8646    1808.0819    4.3700953    4.3700953    4.3700953    1808.0819   -5562.9764    29565.831   -18578.609     8013.547    16005.909    23725.747     83.45891 
   91200    2652.2538   -117.22837     2.399815   -114.82855   -13161.906    4.3915611    4.3915611    4.3915611   -13161.906   -1921.0187    1490.5684   -39055.268   -16479.204   -6456.9463    5828.7931     84.69481 
   91300    982.11332   -115.70884   0.88863677    -114.8202    83.487128    4.3977548    4.3977548    4.3977548    83.487128   -47473.711    15154.129    32570.044     30215.59    17870.401   -27140.605    85.053667 
   91400    2541.0755   -117.06103    2.2992185   -114.76181    12818.848    4.3833686    4.3833686    4.3833686    12818.848   -28627.646     103020.6   -35936.412     5317.722    23701.199   -6526.5181    84.221695 
   91500    2138.4667   -116.70898    1.9349296   -114.77405   -35148.519    4.3882418    4.3882418    4.3882418   -35148.519   -47694.321   -38489.894   -19261.343    12333.966   -11895.836   -7005.6855    84.502908 
   91600    762.27892   -115.50816   0.68972599   -114.81843   -31877.067    4.3822727    4.3822727    4.3822727   -31877.067   -65120.915   -14579.501   -15930.784    44045.228    37072.551   -23414.911     84.15854 
   91700    2380.6222   -116.96479     2.154037   -114.81076    35576.293    4.3516608    4.3516608    4.3516608    35576.293    423.75753    85071.512    21233.611   -7318.5199     7727.644    23120.314    82.407193 
   91800    1724.7206   -116.40933    1.5605635   -114.84877   -11856.789    4.3613025    4.3613025    4.3613025   -11856.789   -4451.5746   -9264.1264   -21854.665    19132.802   -32232.874    10939.482    82.956156 
   91900    1765.7451   -116.43733    1.5976832   -114.83965   -31077.244    4.3822178    4.3822178    4.3822178   -31077.244   -37858.776   -35719.982   -19652.975    34018.915     18850.31   -46745.932    84.155376 
   92000    2181.4693   -116.79911    1.9738393   -114.82527    16570.317    4.3722677    4.3722677    4.3722677    16570.317   -1515.5174    46998.328    4228.1387   -3023.3675   -9110.1137    40322.743    83.583436 
   92100    1800.8213   -116.46493    1.6294209   -114.83551   -11274.181    4.3709963    4.3709963    4.3709963   -11274.181    4382.7793   -1246.2526    -36959.07    8049.7282   -30920.591    25948.969    83.510545 
   92200    1796.8025   -116.46753    1.6257847   -114.84175   -9279.5701    4.3630906    4.3630906    4.3630906   -9279.5701     4650.469   -36769.268    4280.0882     28688.16    12070.495   -68510.314    83.058233 
   92300    2480.9617   -117.08092    2.2448263   -114.83609     23615.85    4.3606048    4.3606048    4.3606048     23615.85    38712.431    35252.147   -3117.0274   -18674.856   -5557.3869     11455.04    82.916355 
   92400    1980.4554   -116.63805    1.7919576    -114.8461   -15743.829    4.3820555    4.3820555    4.3820555   -15743.829   -16331.318     17393.62    -48293.79    7330.4145   -39095.235    10276.204    84.146026 
   92500     1866.896   -116.52337    1.6892067   -114.83417   -1818.3802    4.3763711    4.3763711    4.3763711   -1818.3802    10813.858   -32125.425    15856.426    31882.561    5891.4592   -25938.068     83.81899 
   92600     1898.666   -116.54874    1.7179529   -114.83079    9493.1369    4.3607405    4.3607405    4.3607405    9493.1369    20676.334   -23262.216    31065.292   -56904.248   -5581.0285    2071.7815    82.924096 
   92700    2070.5502   -116.72079    1.8734773   -114.84731   -16317.031    4.3654771    4.3654771    4.3654771   -16317.031   -18661.781      39247.2   -69536.513    831.68586   -28307.895    11677.156    83.194599 
   92800    2015.5217   -116.67792    1.8236864   -114.85423    261.54787    4.3632378    4.3632378    4.3632378    261.54787    25298.802    14196.304   -38710.462   -3246.6794    7495.5174    478.51877    83.066639 
   92900    1364.9431   -116.11079    1.2350292   -114.87576    5340.5483    4.3707751    4.3707751    4.3707751    5340.5483     13432.06   -48957.611    51547.195   -66813.674   -5057.7622    -3004.959    83.497868 
   93000    2069.6769   -116.72215    1.8726872   -114.84947   -2865.7508    4.3828728    4.3828728    4.3828728   -2865.7508   -932.72124    13502.088   -21166.619    26846.874     448.9924    14253.301    84.193122 
   93100    1764.0449   -116.43392    1.5961449   -114.83778    1807.5897    4.3739029    4.3739029    4.3739029    1807.5897    20475.233    37587.718   -52640.182   -20111.682    38720.939   -6643.8069    83.677253 
   93200    1120.9172    -115.8573    1.0142294   -114.84307   -11609.458    4.3679458    4.3679458    4.3679458   -11609.458   -17500.142   -29129.738    11801.506   -58100.934    1765.1782   -10340.727    83.335824 
   93300    2234.0698   -116.85711    2.0214333   -114.83568   -3460.2832    4.3667246    4.3667246    4.3667246   -3460.2832   -7312.7738    -2491.517   -576.55871    58801.955    -1753.538     13125.08    83.265942 
   93400    2277.9864   -116.90786    2.0611699   -114.84669   -17682.457    4.3678785    4.3678785    4.3678785   -17682.457   -2494.1011   -34452.426   -16100.846    -25164.11    18050.464   -23116.951    83.331972 
   93500     955.7247   -115.74671    0.8647598   -114.88195    -33202.47    4.3628411    4.3628411    4.3628411    -33202.47   -19332.476    -71965.32   -8309.6147   -66224.356    12971.804    -16461.49    83.043988 
   93600    2388.1865   -117.02649    2.1608813   -114.86561    16943.233    4.3528609    4.3528609    4.3528609    16943.233    22090.177    39430.306   -10690.783    26734.415     4542.145    22494.383    82.475386 
   93700    1966.6055   -116.65372    1.7794259   -114.87429   -900.87835    4.3745483    4.3745483    4.3745483   -900.87835   -4944.4776    23122.233    -20880.39   -7816.1444   -35733.854   -24420.966      83.7143 
   93800    1332.2337   -116.06134     1.205433    -114.8559    -14498.93    4.3882484    4.3882484    4.3882484    -14498.93   -11728.322   -31860.143    91.674769   -58981.165    26056.277   -13576.027    84.503288 
   93900    2405.0335   -116.99307    2.1761249   -114.81695    4760.6219    4.3765079    4.3765079    4.3765079    4760.6219    28003.473    22998.732   -36720.339    14616.817   -19512.889   -2483.1343    83.826852 
   94000    1480.1617   -116.17174    1.3392814   -114.83246   -3614.5111    4.3603584    4.3603584    4.3603584   -3614.5111   -49140.345    23885.837    14410.975    -22993.38   -63607.629   -6184.3959    82.902296 
   94100      1995.97   -116.64535    1.8059956   -114.83936   -2930.9015    4.3547582    4.3547582    4.3547582   -2930.9015   -9377.7931   -53702.685    54287.774   -74499.753    28720.504   -13179.472    82.583279 
   94200    2602.1514   -117.20522    2.3544813   -114.85074     10836.96    4.3613504    4.3613504    4.3613504     10836.96    36876.523    19297.148   -23662.792    21030.044    -22919.97    1185.0621     82.95889 
   94300    1943.5475   -116.62651    1.7585626   -114.86795   -1274.2649    4.3646615    4.3646615    4.3646615   -1274.2649   -2759.8334    1910.9992   -2973.9606   -37756.317   -33576.645    6691.9356    83.147978 
   94400    1364.0375    -116.1019    1.2342098   -114.86769    3618.7979    4.3705988    4.3705988    4.3705988    3618.7979    59653.161   -61559.636    12762.869   -58497.452   -6803.6861   -19988.672    83.487762 
   94500    2555.6377   -117.15615    2.3123947   -114.84375   -22166.069    4.3779625    4.3779625    4.3779625   -22166.069   -10487.633   -451.69912   -55558.874      35910.6    43009.334   -942.34874    83.910461 
   94600    1287.1822   -116.02058    1.1646695   -114.85591    18005.729     4.352203     4.352203     4.352203    18005.729    8628.3944    8917.4639    36471.329   -66901.244    23607.037      1073.72    82.437998 
   94700    2009.3693   -116.66628    1.8181196   -114.84816     36520.77    4.3490898    4.3490898    4.3490898     36520.77    19195.794    54123.454    36243.064   -45213.953   -32506.239   -5081.7895    82.261215 
   94800    2392.9813   -117.00573    2.1652198   -114.84051    -3027.099    4.3757897    4.3757897    4.3757897    -3027.099   -27719.231    52049.139   -33411.205      18096.4    13664.806   -6232.5318    83.785589 
   94900    1046.4525   -115.79209   0.94685218   -114.84524   -4773.9442    4.3806949    4.3806949    4.3806949   -4773.9442   -29568.364   -12175.272    27421.804   -98602.862    30148.543    3021.7742    84.067669 
   95000    3068.8524     -117.588    2.7767622   -114.81124    11299.025    4.3862803    4.3862803    4.3862803    11299.025    36467.317    23354.051   -25924.294    17754.208   -3346.9608    5188.9556    84.389641 
   95100    1669.3418   -116.34439    1.5104555   -114.83393   -31357.773    4.3830239    4.3830239    4.3830239   -31357.773   -27745.447   -80114.628    13786.756   -77082.353    844.54169   -6517.6006     84.20183 
   95200     1081.277   -115.81387   0.97836212    -114.8355    1822.3929    4.3511574    4.3511574    4.3511574    1822.3929    -37896.08   -22743.593    66106.851   -79090.803    23629.368    261.79662    82.378596 
   95300     2730.931   -117.28454    2.4710038   -114.81353     10381.69    4.3555104    4.3555104    4.3555104     10381.69   -1399.5072    16385.523    16159.055    32983.929   -13127.979   -6776.4938    82.626085 
   95400    1331.9944   -116.02551    1.2052166   -114.82029   -51840.651    4.3864431    4.3864431    4.3864431   -51840.651   -102826.92   -90823.099    38128.066   -114493.92   -19065.099   -4713.2774    84.399037 
   95500    2157.6437   -116.74709    1.9522813   -114.79481   -7971.2648    4.3719707    4.3719707    4.3719707   -7971.2648   -35657.567    11368.139    375.63412   -221.22628    60546.961    2893.0416    83.566408 
   95600    1426.3981   -116.09469    1.2906349   -114.80406     22825.84    4.3637896    4.3637896    4.3637896     22825.84   -39684.402    36268.115    71893.808   -36360.137    18381.548   -5277.5138    83.098157 
   95700    1940.7071   -116.56647    1.7559926   -114.81048   -25150.002     4.379795     4.379795     4.379795   -25150.002   -46616.086   -70942.126    42108.205   -71594.791   -13473.846    1999.5715    84.015875 
   95800    2101.3708   -116.70047    1.9013645    -114.7991    22940.343    4.3684146    4.3684146    4.3684146    22940.343    4986.5005    67212.833   -3378.3041    27123.834    43111.316   -11325.781    83.362656 
   95900    1025.5695   -115.75239   0.92795681   -114.82443    2315.8644    4.3671588    4.3671588    4.3671588    2315.8644   -19329.663   -24471.434     50748.69   -100289.27    13344.535    9438.3768    83.290783 
   96000    2623.1598   -117.18481    2.3734901   -114.81132   -4024.8019    4.3769291    4.3769291    4.3769291   -4024.8019    2493.1629   -21197.465    6629.8962   -9499.6765   -16743.676   -9079.5848    83.851053 
   96100    1744.4671   -116.40654    1.5784305   -114.82811    30808.573    4.3580227    4.3580227    4.3580227    30808.573    14293.174    51792.903    26339.641   -26015.174    30173.561   -5723.2152    82.769145 
   96200    1020.3676   -115.77871   0.92325008   -114.85546   -18914.526    4.3658872    4.3658872    4.3658872   -18914.526    -48307.68    -35845.75    27409.853   -96973.046    23413.579    4880.5961    83.218052 
   96300    3280.5309   -117.78367    2.9682933   -114.81538    7049.5745    4.3746236    4.3746236    4.3746236    7049.5745    29530.327    33839.905   -42221.508    39605.482   -12553.317   -4538.0916     83.71862 
   96400    1304.8449   -116.03276    1.1806511   -114.85211    235.85305    4.3645595    4.3645595    4.3645595    235.85305   -62419.616    19878.739    43248.437   -94475.613    7510.1596      5907.31    83.142151 
   96500    1480.3549   -116.19466    1.3394562    -114.8552   -11443.993    4.3700659    4.3700659    4.3700659   -11443.993   -69819.399    34439.181    1048.2399   -39607.668    43026.337    5483.5632     83.45723 
   96600     2631.078   -117.19995    2.3806546   -114.81929    3413.8619    4.3733364    4.3733364    4.3733364    3413.8619   -14507.222     43704.76   -18955.952    1742.0158    2487.1153    12711.695    83.644743 
   96700    888.76824    -115.6432   0.80417618   -114.83902    14487.009    4.3721115    4.3721115    4.3721115    14487.009   -74311.132    54913.195    62858.964   -86419.155   -12166.854    1397.7297    83.574478 
   96800    2409.0465    -116.9896    2.1797559   -114.80984   -11526.047    4.3745355    4.3745355    4.3745355   -11526.047   -10906.644    34951.812   -58623.308    21740.156    63335.818    9054.8029    83.713567 
   96900    1750.3604   -116.40524    1.5837629   -114.82148    9439.1905    4.3631428    4.3631428    4.3631428    9439.1905   -36966.655    68066.733   -2782.5071    -39242.35   -9106.6217   -4472.8504    83.061217 
   97000    1339.1797   -116.04954    1.2117179   -114.83783   -2205.4657    4.3550842    4.3550842    4.3550842   -2205.4657   -31838.294      10114.5    15107.396   -64364.024   -19175.159    9137.4171    82.601832 
   97100    2655.6079   -117.22908    2.4028499   -114.82623    8348.2759    4.3716323    4.3716323    4.3716323    8348.2759   -3600.2094    38228.293   -9583.2562    32986.614    33358.955    19371.091    83.547002 
   97200    1509.4275   -116.19407    1.3657618   -114.82831   -21081.669    4.3849988    4.3849988    4.3849988   -21081.669   -79128.454   -33980.066    49863.512   -82972.921   -14204.989   -10900.326    84.315696 
   97300    1626.8937   -116.28884    1.4720476    -114.8168   -12967.556     4.382384     4.382384     4.382384   -12967.556   -50133.777   -3240.1852    14471.295   -6368.4984   -18928.388    17049.733    84.164954 
   97400    2588.9125   -117.13522    2.3425025   -114.79272    3601.6356    4.3777323    4.3777323    4.3777323    3601.6356    9670.3345   -17013.603    18148.176    11434.793    935.21522   -2566.3187    83.897224 
   97500    1239.7878   -115.94129     1.121786    -114.8195   -2592.7673    4.3622414    4.3622414    4.3622414   -2592.7673    -33424.86   -38929.481    64576.039   -101125.42     95.14513   -10910.315    83.009747 
   97600     2277.127    -116.8701    2.0603923   -114.80971    44336.553    4.3582829    4.3582829    4.3582829    44336.553    36104.393    36837.675    60067.591     35552.05   -34166.082    315.46174    82.783969 
   97700     1574.824   -116.25175    1.4249339   -114.82682   -4873.0917    4.3828968    4.3828968    4.3828968   -4873.0917   -22626.388   -76522.457     84529.57   -72022.968    3679.0499      1989.04    84.194501 
   97800    2114.7106   -116.69941    1.9134346   -114.78598   -22461.413    4.3935323    4.3935323    4.3935323   -22461.413   -39849.909   -52140.071     24605.74   -26440.347   -6935.4458    -6115.971     84.80891 
   97900     1790.981   -116.37817    1.6205173   -114.75765   -20213.113    4.3905945    4.3905945    4.3905945   -20213.113    9079.0437   -66810.217   -2908.1659   -37056.329   -25032.976   -6771.3168    84.638897 
   98000    1699.1329   -116.30688    1.5374111   -114.76947   -32881.827    4.3798205    4.3798205    4.3798205   -32881.827   -52057.117   -98268.045    51679.681   -92764.502    19123.392    3148.2338    84.017339 
   98100    2690.2825   -117.19541    2.4342241   -114.76119    18451.146    4.3571428    4.3571428    4.3571428    18451.146    41207.956     13020.64    1124.8426    58068.653   -16132.691   -17259.581    82.719017 
   98200    1085.2638   -115.80611   0.98196953   -114.82414   -4651.6068    4.3612997    4.3612997    4.3612997   -4651.6068   -14165.144   -49862.568    50072.891   -94678.531    -24275.28   -15.051476       82.956 
   98300    2659.9101   -117.22007    2.4067426   -114.81333   -19452.121    4.3787103    4.3787103    4.3787103   -19452.121   -44916.751   -22209.228    8769.6144   -27064.973    7571.9158    5378.7539    83.953467 
   98400    1988.4196   -116.62458    1.7991638   -114.82542   -1294.2357    4.3740882    4.3740882    4.3740882   -1294.2357    31903.526   -16125.815   -19660.418    27645.227    7586.0946   -1531.7987    83.687888 
   98500    1693.9922   -116.36201    1.5327598   -114.82925   -19733.395    4.3742322    4.3742322    4.3742322   -19733.395   -38064.121   -55730.716    34594.653   -68733.606    -34536.27   -3360.7786    83.696155 
   98600    2169.2843   -116.78274     1.962814   -114.81993   -19928.145    4.3661063    4.3661063    4.3661063   -19928.145   -30638.772   -6195.9252   -22949.737   -5567.2207    35143.699    13668.592    83.230577 
   98700    1132.8671   -115.87353     1.025042   -114.84849    12912.905    4.3525094    4.3525094    4.3525094    12912.905    55272.099   -10860.963   -5672.4207    16752.038    22439.455    6777.9963    82.455409 
   98800    2789.3753   -117.35305    2.5238854   -114.82916    9622.0961    4.3670716    4.3670716    4.3670716    9622.0961    15296.645   -22448.877     36018.52    -2237.839   -11280.628   -9880.2202    83.285797 
   98900    1331.6856   -116.04491    1.2049371   -114.83998   -10203.134    4.3815352    4.3815352    4.3815352   -10203.134    46512.197   -6356.5969       -70765   -3406.8766    35822.985    20653.751     84.11606 
   99000    1410.8457   -116.10886    1.2765628    -114.8323    2012.9238    4.3810353    4.3810353    4.3810353    2012.9238    68496.101   -22957.246   -39500.084    8239.8692    16178.404    12784.972    84.087269 
   99100    2564.4614   -117.12358    2.3203785    -114.8032    12013.721    4.3741521    4.3741521    4.3741521    12013.721    29358.754    6630.8941    51.514624    8174.7881   -31130.553    -11417.25    83.691557 
   99200     826.6231     -115.574   0.74794595   -114.82605    5389.8389     4.367282     4.367282     4.367282    5389.8389     54825.52    22266.808   -60922.812   -12832.478     3729.284     39071.05    83.297834 
   99300    2580.8067   -117.12888    2.3351681   -114.79371    16304.809    4.3724062    4.3724062    4.3724062    16304.809     29431.01    36164.599   -16681.183   -24801.813    25918.095    8544.0689    83.591384 
   99400    1519.8992   -116.19047    1.3752367   -114.81523    -7438.936    4.3853794    4.3853794    4.3853794    -7438.936     18791.16    11778.702    -52886.67    5720.3031   -42951.697    -39632.12    84.337652 
   99500    2134.0004   -116.72713    1.9308884   -114.79624     -15764.8      4.38688      4.38688      4.38688     -15764.8   -43356.738    46225.944   -50163.605    9514.9188    24861.639     26109.54    84.424259 
   99600    1875.4425   -116.48302    1.6969398   -114.78609    -11361.04    4.3798474    4.3798474    4.3798474    -11361.04    -14709.86   -8323.4469   -11049.812   -57149.726   -10001.828   -17803.064    84.018891 
   99700    1184.4644   -115.89383    1.0717282    -114.8221   -17397.384    4.3768208    4.3768208    4.3768208   -17397.384   -12020.608    5190.7076   -45362.252   -6471.8913   -35580.997   -45005.245    83.844829 
   99800    2955.7178   -117.48889    2.6743956   -114.81449    15819.858    4.3660797    4.3660797    4.3660797    15819.858   -14064.182    61052.034    471.72325    18656.629    4128.9897    9983.3901    83.229055 
   99900    1187.5929   -115.92766     1.074559    -114.8531    34786.508    4.3605301    4.3605301    4.3605301    34786.508    25570.908    10713.561    68075.056   -63154.036   -8449.7411   -27478.618    82.912091 
  100000    1934.8518   -116.60897    1.7506946   -114.85827    4006.3694    4.3878175    4.3878175    4.3878175    4006.3694    11495.994    26081.087   -25557.973    759.68084   -14383.202   -34828.153    84.478397 
Loop time of 22.0662 on 1 procs for 100000 steps with 8 atoms

Pair  time (%) = 6.68544 (30.2972)
Kspce time (%) = 5.3819 (24.3898)
Neigh time (%) = 0.242226 (1.09772)
Comm  time (%) = 0.998591 (4.52543)
Outpt time (%) = 0.0252638 (0.114491)
Other time (%) = 8.73279 (39.5754)

Nlocal:    8 ave 8 max 8 min
Histogram: 1 0 0 0 0 0 0 0 0 0
Nghost:    1756 ave 1756 max 1756 min
Histogram: 1 0 0 0 0 0 0 0 0 0
Neighs:    2058 ave 2058 max 2058 min
Histogram: 1 0 0 0 0 0 0 0 0 0

Total # of neighbors = 2058
Ave neighs/atom = 257.25
Neighbor list builds = 3050
Dangerous builds = 0
unfix 20
unfix 21
print "seeds:1372602"
seeds:1372602
