LAMMPS (10 Feb 2015)
# ---- initialize simulations
clear
units metal
dimension 3
boundary p p p
atom_style charge
atom_modify map array
# ---- create atoms
read_data /Users/eugeneragasa/pyflamestk_git/pypospack/tests/tests_integration/workflow/WorkflowLammpsThermalExpansion/param_9215/MgO_NaCl_unit.npt.T500/lammps.structure
  triclinic box = (0 0 0) to (4.2565 4.2565 4.2565) with tilt (0 0 0)
  1 by 1 by 1 MPI processor grid
  reading atoms ...
  8 atoms
# ---- define interatomic potential
include potential.mod
mass 1 24.305
mass 2 15.999

group Mg type 1
4 atoms in group Mg
group O type 2
4 atoms in group O

set group Mg charge 1.57990545172
  4 settings made for charge
set group O charge -1.57990545172
  4 settings made for charge

variable R_cut equal 10.0

pair_style buck/coul/long ${R_cut}
pair_style buck/coul/long 10
pair_coeff 1 1 0.0 0.5 0.0 ${R_cut}
pair_coeff 1 1 0.0 0.5 0.0 10
pair_coeff 1 2 1322.20855758 0.285006791586 0.0 ${R_cut}
pair_coeff 1 2 1322.20855758 0.285006791586 0.0 10
pair_coeff 2 2 14469.0891926 0.219096223147 48.5612274161 ${R_cut}
pair_coeff 2 2 14469.0891926 0.219096223147 48.5612274161 10

kspace_style pppm 1.0e-5

neighbor 1.0 bin
neigh_modify every 1 delay 0 check yes
# ---- define settings
compute eng all pe/atom
compute eatoms all reduce sum c_eng
# ---- run minimization
reset_timestep 0
fix 1 all box/relax iso 0.0 vmax 0.001
thermo 10
thermo_style custom step pe lx ly lz xy xz yz press pxx pyy pzz pxy pxz pyz c_eatoms
min_style cg
minimize 1e-25 1e-25 5000 10000
PPPM initialization ...
  G vector (1/distance) = 0.352172
  grid = 8 8 8
  stencil order = 5
  estimated absolute RMS force accuracy = 3.68665e-05
  estimated relative force accuracy = 2.56024e-06
  using double precision FFTs
  3d grid and FFT values/proc = 3375 512
Neighbor list info ...
  1 neighbor list requests
  update every 1 steps, delay 0 steps, check yes
  master list distance cutoff = 11
Memory usage per processor = 4.06549 Mbytes
Step PotEng Lx Ly Lz Xy Xz Yz Press Pxx Pyy Pzz Pxy Pxz Pyz eatoms 
       0   -101.30442       4.2565       4.2565       4.2565            0            0            0    88329.967    88329.967    88329.967    88329.967 -1.1961844e-11 -2.4099438e-10 5.9240466e-12   -101.30442 
      10    -101.3918     4.299065     4.299065     4.299065            0            0            0    35693.934    35693.934    35693.934    35693.934 1.4632835e-11 -2.3788485e-11 -3.8066587e-11    -101.3918 
      20   -101.41159    4.3315082    4.3315082    4.3315082            0            0            0   -5.9294003   -5.9294003   -5.9294003   -5.9294003 1.7198652e-10 1.1926792e-10 -5.3176444e-11   -101.41159 
Loop time of 0.0118172 on 1 procs for 20 steps with 8 atoms

Minimization stats:
  Stopping criterion = linesearch alpha is zero
  Energy initial, next-to-last, final = 
        -101.304424021     -101.411593199     -101.411593199
  Force two-norm initial, final = 12.7549 0.00088671
  Force max component initial, final = 12.7549 0.000886651
  Final line search alpha, max atom move = 0.015625 1.38539e-05
  Iterations, force evaluations = 20 34

Pair  time (%) = 0.00315833 (26.7265)
Kspce time (%) = 0.00200486 (16.9656)
Neigh time (%) = 0 (0)
Comm  time (%) = 0.000344992 (2.9194)
Outpt time (%) = 1.19209e-05 (0.100878)
Other time (%) = 0.00629711 (53.2876)

Nlocal:    8 ave 8 max 8 min
Histogram: 1 0 0 0 0 0 0 0 0 0
Nghost:    2189 ave 2189 max 2189 min
Histogram: 1 0 0 0 0 0 0 0 0 0
Neighs:    2344 ave 2344 max 2344 min
Histogram: 1 0 0 0 0 0 0 0 0 0

Total # of neighbors = 2344
Ave neighs/atom = 293
Neighbor list builds = 0
Dangerous builds = 0
unfix 1
# ---- define output variables ----
variable natoms equal "count(all)"
variable tot_energy equal "c_eatoms"
variable length_x equal "lx"
variable length_y equal "ly"
variable length_z equal "lz"
variable tilt_xy equal "xy"
variable tilt_xz equal "xz"
variable tilt_yz equal "yz"
variable tot_press equal "press"
variable press_xx equal "pxx"
variable press_yy equal "pyy"
variable press_zz equal "pzz"
variable press_xy equal "pxy"
variable press_xz equal "pxz"
variable press_yz equal "pyz"

# ---- output ----
print "pypospack:output_section:begin"
pypospack:output_section:begin
print "tot_energy = ${tot_energy}"
tot_energy = -101.411593198701
print "num_atoms = ${natoms}"
num_atoms = 8
print "xx = ${length_x}"
xx = 4.33150823558717
print "yy = ${length_y}"
yy = 4.33150823558717
print "zz = ${length_z}"
zz = 4.33150823558717
print "xy = ${tilt_xy}"
xy = 0
print "xz = ${tilt_xz}"
xz = 0
print "yz = ${tilt_yz}"
yz = 0
print "tot_press = ${tot_press}"
tot_press = -5.92940031006952
print "pxx = ${press_xx}"
pxx = -5.92940030994687
print "pyy = ${press_yy}"
pyy = -5.92940031012476
print "pzz = ${press_zz}"
pzz = -5.92940031013695
print "pxy = ${press_xy}"
pxy = 1.71986520125442e-10
print "pxz = ${press_xz}"
pxz = 1.19267916823708e-10
print "pyz = ${press_yz}"
pyz = -5.31764436793611e-11
print "pypospack:output_section:done"
pypospack:output_section:done
print "pypospack:lammps_sim:done"
pypospack:lammps_sim:done
#------------------------------------------------------------------------------
# RUN THERMOSTAT
# running using an NPT Nose-Hoover style thermostat
#------------------------------------------------------------------------------
variable tempdamp equal 0.1
variable pressdamp equal 1.0
# set initial velocities
velocity all create 500 4966199 mom yes dist gaussian loop all
# fix for Nose-Hoover style thermostat
fix 20 all npt temp 500 500 0.1 aniso 0.0 0.0 1.0 drag 1.0 couple xyz
variable boxx equal lx
variable boxy equal ly
variable boxz equal lz
variable boxp equal press
variable boxt equal temp
# calculate averages every 10000 steps
reset_timestep 0
fix 21 all ave/time 10 10 100 v_boxx v_boxy v_boxz v_boxp v_boxt file lattice.out
thermo_style custom step temp pe ke etotal press lx ly lz press pxx pyy pzz pxy pxz pyz vol
thermo_modify flush yes
thermo 100
run 100000
PPPM initialization ...
  G vector (1/distance) = 0.351443
  grid = 8 8 8
  stencil order = 5
  estimated absolute RMS force accuracy = 3.81088e-05
  estimated relative force accuracy = 2.64651e-06
  using double precision FFTs
  3d grid and FFT values/proc = 3375 512
Memory usage per processor = 3.06549 Mbytes
Step Temp PotEng KinEng TotEng Press Lx Ly Lz Press Pxx Pyy Pzz Pxy Pxz Pyz Volume 
       0          500    -101.4116   0.45241051   -100.95919    5938.4332    4.3315082    4.3315082    4.3315082    5938.4332    5976.2671    6335.2949    5503.7374   -3553.7429     3067.181   -3835.2838      81.2676 
     100    119.07496   -101.00199   0.10774152   -100.89425   -4423.3595    4.3553295    4.3553295    4.3553295   -4423.3595   -9738.3626   -1683.9083   -1847.8075    1309.3638   -2082.3344    8396.8687    82.615788 
     200    437.53556   -101.16888   0.39589137   -100.77299    -2671.829    4.3455443    4.3455443    4.3455443    -2671.829   -20.402981   -5562.0645   -2433.0194    734.18353    2680.5614   -2391.5786    82.060196 
     300    324.08184   -100.96471   0.29323606   -100.67148    5255.3542    4.3548919    4.3548919    4.3548919    5255.3542    6460.6014     6676.328    2629.1332    955.42895    3215.6747    4279.2582     82.59089 
     400    419.39904   -100.96382   0.37948107   -100.58433   -6757.9793    4.3575496    4.3575496    4.3575496   -6757.9793    4516.7774   -14773.821   -10016.895    5578.3567    2824.8451    6169.3917     82.74219 
     500     378.9512   -100.87178   0.34288301    -100.5289   -525.85448    4.3558127    4.3558127    4.3558127   -525.85448    2224.7652    2410.5333    -6212.862   -487.80028    -493.2552   -275.37417     82.64329 
     600    518.97346   -100.97302   0.46957809   -100.50344   -5461.4692    4.3609777    4.3609777    4.3609777   -5461.4692    8057.0706   -13781.583   -10659.896    921.26671   -1235.8188    13226.339    82.937623 
     700    598.54807   -101.03497   0.54157887   -100.49339   -434.64756    4.3549786    4.3549786    4.3549786   -434.64756   -4845.0425    2447.8912    1093.2087   -1099.4746   -6365.6425   -4681.9796    82.595821 
     800    366.64566   -100.82931   0.33174869   -100.49756   -8213.3131    4.3642724    4.3642724    4.3642724   -8213.3131   -15228.382   -878.78976    -8532.767   -853.04277    463.20875    8501.5216    83.125742 
     900    637.04785   -101.07251   0.57641428   -100.49609    8070.2306    4.3516621    4.3516621    4.3516621    8070.2306    710.07147    8396.5791    15104.041    3643.5189   -2486.3782    385.02819    82.407263 
    1000    561.83453   -101.00919   0.50835969   -100.50083   -10207.393    4.3659081    4.3659081    4.3659081   -10207.393   -19980.402   -2507.6199   -8134.1566    3193.7137   -2335.4351    3050.9303    83.219244 
    1100    440.44752   -100.89877   0.39852617   -100.50025    360.86282    4.3542812    4.3542812    4.3542812    360.86282   -2580.5281   -4384.2513    8047.3678    3724.0435    2384.8991    5123.4872    82.556146 
    1200    525.30797   -100.97899   0.47530969   -100.50368    4867.5792    4.3560559    4.3560559    4.3560559    4867.5792    6297.0689    12151.458   -3845.7892    11.442759   -4703.8545   -2698.4272    82.657131 
    1300    542.84829   -100.99422   0.49118054   -100.50304   -12576.557    4.3640982    4.3640982    4.3640982   -12576.557   -529.94321   -23943.855   -13255.873   -5134.9609   -831.78709    4342.1121    83.115788 
    1400     237.2806   -100.71491   0.21469648   -100.50021    14245.008    4.3507618    4.3507618    4.3507618    14245.008    14616.649    21166.144    6952.2315    2226.8252   -871.60731   -8057.6457    82.356128 
    1500    627.70292   -101.07043   0.56795879   -100.50247   -15026.462    4.3649033    4.3649033    4.3649033   -15026.462   -3404.9615   -19294.534   -22379.891   -5367.5753   -4845.8298    4320.0988    83.161798 
    1600    423.69101   -100.88532   0.38336453   -100.50196    5202.5827    4.3548234    4.3548234    4.3548234    5202.5827    2215.9331    12413.698    978.11688   -2507.3142   -3381.7698   -6480.9354    82.586992 
    1700    530.79272   -100.98514   0.48027241   -100.50487   -5627.7272    4.3578635    4.3578635    4.3578635   -5627.7272   -11149.001   -7242.4402    1508.2598    1664.7761    98.892611    1560.7806    82.760073 
    1800    551.07016   -101.00206   0.49861986   -100.50344   -5059.2887    4.3638065    4.3638065    4.3638065   -5059.2887   -10161.075    4115.9227   -9132.7143    2842.7953   -2818.8032    2697.1038    83.099128 
    1900    652.89017   -101.08895   0.59074875    -100.4982     7574.891    4.3511279    4.3511279    4.3511279     7574.891    2794.6317    4728.2875    15201.754    1865.9052    3576.1484    261.62598     82.37692 
    2000    361.90172   -100.82808   0.32745628   -100.50063    -1014.756    4.3640121    4.3640121    4.3640121    -1014.756   -10516.175    9971.5671   -2499.6601   -2325.6722   -598.42823    6143.2937    83.110873 
    2100    595.21137   -101.03707   0.53855976   -100.49851    1683.1154    4.3575389    4.3575389    4.3575389    1683.1154      7716.28     3294.076   -5961.0097   -1529.2362   -385.05254   -4167.9359    82.741581 
    2200    493.27917   -100.94779   0.44632936   -100.50146    11417.636    4.3527007    4.3527007    4.3527007    11417.636    14805.751    2158.4306    17288.725   -1208.2424    -3865.481    5310.4601    82.466284 
    2300    330.41133   -100.80067   0.29896311   -100.50171   -6982.3479    4.3680619    4.3680619    4.3680619   -6982.3479   -9799.6487   -94.790956   -11052.604    2533.2517   -1148.3588   -1125.4043    83.342467 
    2400    587.23407   -101.02838   0.53134173   -100.49704    7708.5707    4.3466714    4.3466714    4.3466714    7708.5707    16480.358    -2847.111    9492.4648    4934.0911   -5920.1478    2578.6478    82.124063 
    2500    420.42826   -100.88395   0.38041232   -100.50353   -1671.4788    4.3664505    4.3664505    4.3664505   -1671.4788   -16949.333    14123.838   -2188.9418   -325.36737   -592.95312    6957.8512    83.250267 
    2600    603.50201   -101.04608    0.5460613   -100.50002   -12893.513    4.3563896    4.3563896    4.3563896   -12893.513   -15356.931   -7745.9563   -15577.651    4588.6637   -1321.4958   -5104.7072     82.67613 
    2700    353.20509   -100.82521   0.31958739   -100.50562    15529.411    4.3489294    4.3489294    4.3489294    15529.411    290.33159    46312.862   -14.960205   -3688.9078    380.14421     9286.768    82.252117 
    2800    734.24091   -101.16888    0.6643566   -100.50452   -22408.588    4.3730798    4.3730798    4.3730798   -22408.588   -30603.503   -18715.535   -17906.727   -2139.2941    2431.7603   -8802.5979    83.630021 
    2900    422.12838   -100.88225   0.38195063    -100.5003    20319.972    4.3384365    4.3384365    4.3384365    20319.972      23355.6    38305.056   -700.73924   -3961.9173    258.75833     5469.266     81.65819 
    3000    468.91775   -100.92888   0.42428664    -100.5046   -13339.501    4.3741816    4.3741816    4.3741816   -13339.501   -10450.409    -18109.66   -11458.434    3569.8283   -1869.1594   -3671.6359    83.693251 
    3100    550.69323   -100.99713   0.49827881   -100.49885    14187.275    4.3508534    4.3508534    4.3508534    14187.275    21258.615     23451.56   -2148.3502   -179.64069    -2255.247   -1722.9273    82.361331 
    3200    354.64993   -100.82113   0.32089471   -100.50023    4248.2713    4.3536847    4.3536847    4.3536847    4248.2713    12418.301   -2694.9314    3021.4441    6572.5619   -2109.1847    7406.3347    82.522226 
    3300    453.44482   -100.90775    0.4102864   -100.49747   -4162.5726    4.3698454    4.3698454    4.3698454   -4162.5726    -8049.092   -3484.6422   -953.98374    530.18631   -5859.7039   -4898.1167    83.444596 
    3400     597.2546   -101.03608   0.54040851   -100.49567    12582.915    4.3426619    4.3426619    4.3426619    12582.915    16684.258    13708.581    7355.9045    641.69793    -510.6275    7223.1014     81.89701 
    3500      438.445   -100.89716   0.39671425   -100.50045   -15962.878    4.3715342    4.3715342    4.3715342   -15962.878    -31527.69    -12303.68   -4057.2641    2562.4744   -828.84487   -4848.6293    83.541382 
    3600    480.36552   -100.93207   0.43464481   -100.49743    5636.2504     4.353544     4.353544     4.353544    5636.2504   -6943.8574    29212.262   -5359.6535   -2318.5293   -205.98868    -953.5216    82.514224 
    3700    673.39534   -101.10749   0.60930226   -100.49819   -4811.6469    4.3539728    4.3539728    4.3539728   -4811.6469   -11522.115   -1814.6761   -1098.1496    10680.006    4799.4342     2907.141    82.538606 
    3800    412.22346   -100.87126   0.37298845   -100.49827   -8893.5351    4.3670227    4.3670227    4.3670227   -8893.5351   -20002.822    16304.669   -22982.452    3249.7036    702.85406   -1877.9116    83.282999 
    3900    468.26841   -100.92785    0.4236991   -100.50415    4282.3406    4.3460331    4.3460331    4.3460331    4282.3406    16891.686    5230.8404   -9275.5048    7867.7272    1697.1848    9700.2522    82.087887 
    4000    691.01368     -101.134    0.6252437   -100.50876    -9392.859    4.3633543    4.3633543    4.3633543    -9392.859   -4225.1275   -6258.4785   -17694.971   -5725.3486    1871.4133    -6593.629    83.073294 
    4100    303.72868   -100.78342   0.27482009    -100.5086   -7823.4292    4.3623457    4.3623457    4.3623457   -7823.4292     3732.388   -3392.0404   -23810.635    1110.1196   -4211.6317    6054.1714    83.015701 
    4200    428.57385   -100.88959   0.38778262    -100.5018    16419.652    4.3416119    4.3416119    4.3416119    16419.652    18149.971    28107.562    3001.4237   -1454.2739   -566.26699   -4591.7378    81.837623 
    4300    641.66672   -101.07848   0.58059353   -100.49789    -22854.57    4.3780785    4.3780785    4.3780785    -22854.57   -18356.104   -20351.663   -29855.945   -4350.4557   -313.82767   -1736.4102    83.917134 
    4400    383.70909   -100.84447   0.34718805   -100.49728    10806.725    4.3401984    4.3401984    4.3401984    10806.725    15697.306    13170.809    3552.0605    7939.9706   -2916.0031    1677.5049    81.757713 
    4500    536.31129   -100.99271   0.48526573   -100.50745   -5432.6242    4.3606683    4.3606683    4.3606683   -5432.6242   -14765.766    10180.457   -11712.564    1089.3244    2282.4337    2298.0786    82.919976 
    4600    631.24285   -101.07636    0.5711618    -100.5052   -15442.325    4.3655987    4.3655987    4.3655987   -15442.325   -14152.916   -11215.966   -20958.092    3554.0403    2541.3133    5965.4021    83.201555 
    4700    369.80511   -100.83181   0.33460744   -100.49721    22968.538    4.3357856    4.3357856    4.3357856    22968.538    13981.239    43596.408    11327.965   -2651.5576    396.67178     474.3061    81.508594 
    4800    479.02756   -100.92999    0.4334342   -100.49655   -23796.917    4.3807684    4.3807684    4.3807684   -23796.917    -19271.64   -18088.505   -34030.605   -5095.3834    1834.2525    862.52972    84.071905 
    4900    654.33916   -101.08616   0.59205983    -100.4941    14336.849    4.3375655    4.3375655    4.3375655    14336.849    25005.378    12955.735    5049.4352    4333.5054    65.197655   -1461.3891    81.609018 
    5000    360.20169   -100.83094   0.32591806   -100.50502   -6330.5947    4.3645638    4.3645638    4.3645638   -6330.5947   -7374.9928   -76.555838   -11540.236    2091.8889   -3618.8488    633.96727    83.142398 
    5100    573.13559   -101.02119   0.51858513   -100.50261   -10113.919    4.3593962    4.3593962    4.3593962   -10113.919   -10982.905   -1661.0553   -17697.798    8168.9095    997.45492    3098.0655    82.847425 
    5200    496.44155   -100.94801   0.44919075   -100.49882    21978.527    4.3412816    4.3412816    4.3412816    21978.527    12630.624    38925.754    14379.203    295.09368    -5349.986    1634.3278    81.818942 
    5300    527.29056    -100.9743   0.47710358    -100.4972   -27343.194    4.3752738    4.3752738    4.3752738   -27343.194   -25886.564   -26941.394   -29201.624    -484.5877    2734.3211    3255.0158    83.755957 
    5400    432.74762   -100.88758   0.39155914   -100.49602    22633.599     4.338724     4.338724     4.338724    22633.599     16805.18    41007.868    10087.749    1363.0158   -2051.7492    905.01349    81.674423 
    5500     685.1662   -101.12293   0.61995278   -100.50297   -9939.3375    4.3651063    4.3651063    4.3651063   -9939.3375   -6374.0643   -7198.9034   -16245.045    -3047.619    3591.8634   -1935.0395    83.173406 
    5600    305.28544   -100.78317   0.27622868   -100.50694     4695.604    4.3553897    4.3553897    4.3553897     4695.604    4737.7943     23244.18   -13895.163    13235.461    1556.8475   -5388.5937    82.619215 
    5700    406.63502   -100.87436   0.36793191   -100.50642    13453.227    4.3460952    4.3460952    4.3460952    13453.227    8926.3847    33245.192   -1811.8948   -16.649614    1890.2799   -974.66507    82.091406 
    5800    589.63183   -101.03757   0.53351127   -100.50406   -14538.706    4.3700479    4.3700479    4.3700479   -14538.706   -8370.3811   -10280.821   -24964.917    9012.1488    1914.0081    1451.3491    83.456197 
    5900    459.15817   -100.91533   0.41545597   -100.49987    4789.9308    4.3429118    4.3429118    4.3429118    4789.9308    8614.8599    12859.295   -7104.3629    881.67921   -1057.4562    1734.6094     81.91115 
    6000    541.50286   -100.99641   0.48996317   -100.50645   -9541.8066    4.3634555    4.3634555    4.3634555   -9541.8066   -17672.276     9073.274   -20026.417   -3042.1129    921.62337    3308.6654    83.079075 
    6100    499.63296   -100.95946    0.4520784   -100.50738   -1353.0573    4.3568457    4.3568457    4.3568457   -1353.0573   -16788.695    25739.962   -13010.439    7433.3257   -3367.7125    2578.1249    82.702101 
    6200    542.86924   -100.99515    0.4911995   -100.50395    3332.2727    4.3473899    4.3473899    4.3473899    3332.2727   -810.30844    21777.991   -10970.864   -1502.8126    509.80663   -2452.4845    82.164794 
    6300    542.72843   -100.99277   0.49107208    -100.5017   -13992.004     4.366066     4.366066     4.366066   -13992.004   -24956.669   -7741.3765   -9277.9665    12621.361   -3697.0995   -1267.0248    83.228277 
    6400    592.31854   -101.03505   0.53594226   -100.49911    9270.9315    4.3435228    4.3435228    4.3435228    9270.9315    14375.029    15897.179   -2459.4143   -4026.7584    3055.5671   -2218.0994    81.945728 
    6500    421.86891   -100.88601   0.38171585   -100.50429   -3556.5256    4.3618348    4.3618348    4.3618348   -3556.5256   -10516.401    9934.8005   -10087.976    126.66409    -2695.366    4152.8778    82.986534 
    6600    372.39706   -100.84214   0.33695268   -100.50518    6069.3396    4.3539299    4.3539299    4.3539299    6069.3396    8662.2059    14009.097   -4463.2842   -5303.4594       4741.8    1850.9839    82.536168 
    6700    559.10961   -101.01031   0.50589413   -100.50441    7205.3601    4.3509927    4.3509927    4.3509927    7205.3601    11359.706    10059.311    197.06368    103.60896    558.79588    6384.9752    82.369238 
    6800    415.33746   -100.87853   0.37580606   -100.50272    -7371.038    4.3620075    4.3620075    4.3620075    -7371.038   -8111.6518   -7133.4154   -6868.0467    8312.4353    1997.7779   -632.73343    82.996396 
    6900     550.3552   -100.99762   0.49797295   -100.49964    2677.6415    4.3521007    4.3521007    4.3521007    2677.6415   -1159.9079    12260.266   -3067.4334    1412.9915    3558.1756   -976.14967    82.432185 
    7000     420.0893   -100.88204   0.38010563   -100.50193    6709.3274    4.3558136    4.3558136    4.3558136    6709.3274   -11612.768    31574.041    166.70882     10715.87   -3943.9427   -3325.3082     82.64334 
    7100    464.68082   -100.92133   0.42045297   -100.50088   -5342.3989    4.3567089    4.3567089    4.3567089   -5342.3989    -18577.45    17325.217   -14774.964   -2641.8866    1722.0432   -1589.2003    82.694313 
    7200    592.72776    -101.0381   0.53631253   -100.50178   -6347.6346    4.3552135    4.3552135    4.3552135   -6347.6346    -11559.24   -2070.0821   -5413.5821    3796.6009   -3898.5645    312.10626    82.609185 
    7300    520.23376   -100.97706   0.47071844   -100.50634   -5155.2555    4.3539096    4.3539096    4.3539096   -5155.2555   -11934.453    3709.7858   -7241.0995    195.76306    -1423.774     3265.919    82.535015 
    7400     489.7883   -100.94895   0.44317074   -100.50578   -8430.8212    4.3552331    4.3552331    4.3552331   -8430.8212   -9905.8698    6841.9055   -22228.499    1853.3872   -2984.9011    3183.1858    82.610305 
    7500    395.65816   -100.86411   0.35799982   -100.50611    1849.2355    4.3549101    4.3549101    4.3549101    1849.2355   -11569.971    24780.847   -7663.1697    9972.6189    583.78271   -1272.0277    82.591927 
    7600    625.86574   -101.06817   0.56629647   -100.50187   -3507.1589    4.3548868    4.3548868    4.3548868   -3507.1589    1209.1009    4996.1985   -16726.776   -2997.4211   -2223.8059   -1276.9236    82.590598 
    7700    435.09163   -100.89576   0.39368005   -100.50208    -5976.919    4.3569114    4.3569114    4.3569114    -5976.919   -16763.539    7273.1672   -8440.3853    4769.7274    3100.3991   -5387.6094    82.705843 
    7800    613.09744   -101.05557   0.55474345   -100.50083    2194.8771    4.3533113    4.3533113    4.3533113    2194.8771    1003.4051    3947.1741    1634.0523   -6304.4574   -473.77294   -84.509296    82.500991 
    7900    515.17237   -100.96853   0.46613878   -100.50239    25.020367     4.357866     4.357866     4.357866    25.020367   -11737.473     19843.42   -8030.8866    664.26357   -2441.1724    1702.0141    82.760214 
    8000    305.61628   -100.78072   0.27652803   -100.50419     9440.255    4.3528309    4.3528309    4.3528309     9440.255   -8605.7743    24559.605    12366.935    6674.1531     2802.081    5236.9077    82.473681 
    8100    654.40261    -101.0931   0.59211723   -100.50099   -183.06269    4.3540428    4.3540428    4.3540428   -183.06269   -5881.3214    11469.884    -6137.751    1352.5189   -8400.0858    4824.2267     82.54259 
    8200    375.66541   -100.84316   0.33990996   -100.50325   -6491.2572    4.3618362    4.3618362    4.3618362   -6491.2572   -5599.0603   -19981.949    6107.2375    9887.3248    -180.5184    197.73094    82.986615 
    8300    588.58964   -101.03259   0.53256828   -100.50002    8730.8622    4.3438612    4.3438612    4.3438612    8730.8622    1729.5479    25806.195   -1343.1566    -3750.391   -6556.9214   -24.036568    81.964882 
    8400    401.55621   -100.87118    0.3633365   -100.50784    -13525.46    4.3683527    4.3683527    4.3683527    -13525.46   -16802.622   -8257.2661   -15516.491    6802.9961   -3535.6607   -2629.7722    83.359111 
    8500     472.2464   -100.93012   0.42729847   -100.50282    17541.998    4.3431808    4.3431808    4.3431808    17541.998    5736.9677    42057.783    4831.2432   -1789.7296   -1753.5558    2380.3127    81.926372 
    8600    510.56119   -100.96565   0.46196649   -100.50368    -15702.97    4.3627224    4.3627224    4.3627224    -15702.97   -23964.698   -1354.6858   -21789.527    4999.0209   -2204.2085   -964.65967    83.037208 
    8700    596.05064   -101.03951   0.53931915   -100.50019   -5939.4773    4.3543572    4.3543572    4.3543572   -5939.4773   -15527.625    4357.9127   -6648.7198    10924.688    291.00638     7315.565    82.560467 
    8800    593.92444   -101.03527   0.53739531   -100.49788    6943.5469    4.3460966    4.3460966    4.3460966    6943.5469    615.10797    24754.807   -4539.2748    -2547.644   -87.641958    1034.3514     82.09149 
    8900     313.7141   -100.78669   0.28385511   -100.50284   -18273.669    4.3704402    4.3704402    4.3704402   -18273.669   -35455.755    8759.0777   -28124.329    9624.7126    1703.1344    1905.3838    83.478677 
    9000    620.04576   -101.05967   0.56103044   -100.49864    20716.212    4.3354489    4.3354489    4.3354489    20716.212    20507.901    29352.556    12288.178   -12494.771   -3710.5895   -3096.9798    81.489603 
    9100    450.42689   -100.91122   0.40755572   -100.50367   -25122.263    4.3727469    4.3727469    4.3727469   -25122.263   -24144.051   -26551.712   -24671.026    9029.6685    2747.9604   -2535.6648    83.610926 
    9200     511.6906   -100.96037   0.46298841   -100.49738    10498.565    4.3436627    4.3436627    4.3436627    10498.565    13860.638    10329.612    7305.4443   -147.10513   -6755.6419    2044.4721    81.953646 
    9300    553.60867   -101.00022   0.50091676    -100.4993   -2487.8003     4.357024     4.357024     4.357024   -2487.8003    -13754.01    12580.103    -6289.493    3721.5312    50.354184   -1826.3828    82.712252 
    9400    399.19331     -100.861   0.36119849    -100.4998   -2760.3866    4.3599695    4.3599695    4.3599695   -2760.3866   -11704.827     9488.724   -6065.0573    11414.979   -249.85222    6777.0857    82.880114 
    9500    440.85177   -100.89796   0.39889194   -100.49907    16439.816    4.3423083    4.3423083    4.3423083    16439.816   -2762.2277    38975.349    13106.328   -6498.1581   -3569.9838    476.25976    81.877009 
    9600    544.87402   -100.99741   0.49301347   -100.50439   -19309.861    4.3699157    4.3699157    4.3699157   -19309.861   -27480.323   -14563.495   -15885.766    9021.2607    5088.2445    2690.2916    83.448625 
    9700    638.29469   -101.07759   0.57754245   -100.50004    8787.9233    4.3410389    4.3410389    4.3410389    8787.9233    4170.1842     12774.54    9419.0461   -5360.6662   -2079.3478   -2806.1988    81.805223 
    9800    313.10394   -100.78694   0.28330303   -100.50363   -14128.998     4.365607     4.365607     4.365607   -14128.998   -25198.248   -2111.0124   -15077.734    10645.125    3215.3596   -4356.5331    83.202025 
    9900    528.47556   -100.97795   0.47817579   -100.49977    1430.5507    4.3503451    4.3503451    4.3503451    1430.5507   -11161.599    27117.772   -11664.521    6282.8196   -4.6189283   -136.20058    82.332468 
   10000    549.95067   -100.99926   0.49760692   -100.50166    2934.5466    4.3496177    4.3496177    4.3496177    2934.5466    2604.0157    12741.426    -6541.802    5312.7005    926.84119   -1677.7612    82.291175 
   10100    374.55869   -100.84183   0.33890858   -100.50292   -16936.558    4.3667143    4.3667143    4.3667143   -16936.558   -30874.545    835.58698   -20770.716    5873.2534   -2206.5061    5948.6923    83.265356 
   10200    719.13813   -101.14822   0.65069129   -100.49753    12714.951    4.3376859    4.3376859    4.3376859    12714.951    20286.548    16702.747    1155.5576   -4795.9096   -267.69291   -2595.2414    81.615809 
   10300    484.44334   -100.94076   0.43833451   -100.50243   -12347.852    4.3693311    4.3693311    4.3693311   -12347.852   -29647.486    8068.3952   -15464.466    6238.7864   -352.87861    635.32714    83.415137 
   10400    310.47042   -100.78171   0.28092016   -100.50079    16240.313    4.3456468    4.3456468    4.3456468    16240.313    7585.9912    39367.352    1767.5956   -3940.7701   -4090.2724    -275.2699    82.066002 
   10500    579.31031   -101.02483   0.52417214   -100.50066    3042.9541    4.3528967    4.3528967    4.3528967    3042.9541   -6873.1197    21354.036   -5352.0539    8552.8486    4023.1899   -4775.9657    82.477423 
   10600    538.23961   -100.98732   0.48701051   -100.50031   -10954.561    4.3612135    4.3612135    4.3612135   -10954.561   -8544.5249   -9258.7276   -15060.429    3188.3154   -2389.9149   -444.95843    82.951081 
   10700    429.79501   -100.88902   0.38888756   -100.50013    10998.197    4.3433868    4.3433868    4.3433868    10998.197     13866.12    11293.391    7835.0792   -2297.6705    3069.9434   -287.44372     81.93803 
   10800    572.10424   -101.02016   0.51765194    -100.5025   -14881.022    4.3656518    4.3656518    4.3656518   -14881.022   -18957.481   -3482.9937   -22202.592    1611.2385   -1254.0055    3670.2525    83.204591 
   10900    452.73202   -100.90988   0.40964144   -100.50024    15903.884    4.3443107    4.3443107    4.3443107    15903.884    10267.448    35097.775    2346.4303   -9222.6634    181.33957   -657.73236    81.990327 
   11000    384.71065   -100.85195   0.34809428   -100.50385   -6150.7563    4.3591593    4.3591593    4.3591593   -6150.7563   -23834.059    16292.834   -10911.044    6133.5997   -2102.4708    -882.5028     82.83392 
   11100    653.89729   -101.09354   0.59166001   -100.50188   -7506.0284    4.3558581    4.3558581    4.3558581   -7506.0284   -13094.877    11705.388   -21128.596   -69.526217   -2426.4846   -3638.3975    82.645872 
   11200    593.24596   -101.03906   0.53678142   -100.50228    7612.3522     4.345541     4.345541     4.345541    7612.3522    -5328.174    20025.557    8139.6738    3444.1155   -616.78451    -3273.661    82.060006 
   11300    374.75906   -100.84329   0.33908987    -100.5042   -18223.399    4.3638035    4.3638035    4.3638035   -18223.399   -32842.697    7615.8252   -29443.324    3642.4152   -4476.0651    369.71216    83.098953 
   11400    527.04787   -100.97681   0.47688399   -100.49993    15032.912    4.3446716    4.3446716    4.3446716    15032.912    6649.5318    38977.822     -528.618   -7462.4093    3924.8019    554.55691    82.010767 
   11500    474.51925    -100.9324   0.42935499   -100.50304   -11087.847    4.3591763    4.3591763    4.3591763   -11087.847   -22643.692    726.71165   -11346.561    5420.3749   -4926.7071    3318.4919    82.834888 
   11600     472.5644   -100.92759    0.4275862       -100.5   -4263.8022     4.351637     4.351637     4.351637   -4263.8022   -891.42501   -876.03212   -11023.949   -4926.7149    2472.9689    1997.4692    82.405839 
   11700    550.24949   -101.00126    0.4978773   -100.50339    4709.8506     4.350223     4.350223     4.350223    4709.8506    3236.2956    10641.004    252.25266    10050.352   -783.68828   -1460.1934    82.325537 
   11800    528.44866   -100.98341   0.47815145   -100.50526    -10237.92    4.3610869    4.3610869    4.3610869    -10237.92   -22108.504    6455.4726   -15060.728    3807.6864   -4212.7145   -339.77157    82.943853 
   11900    373.18363   -100.83945   0.33766439   -100.50178    17110.446     4.346825     4.346825     4.346825    17110.446    10295.037    43177.045   -2140.7449    918.40121     680.5822   -3302.0994    82.132769 
   12000    532.18252   -100.98456   0.48152992   -100.50303   -9553.5761    4.3596091    4.3596091    4.3596091   -9553.5761    -21527.45    9367.1564   -16500.435    2973.9463   -7820.1644    1817.1769    82.859565 
   12100    647.44899   -101.08421   0.58582545   -100.49839    2969.6033    4.3532484    4.3532484    4.3532484    2969.6033    6500.0351    11225.705   -8816.9302   -3923.9619    -963.4909    2662.1492    82.497417 
   12200    483.38656   -100.93929   0.43737831   -100.50192   -8490.5363    4.3523812    4.3523812    4.3523812   -8490.5363   -17108.477    5223.3545   -13586.487    4377.0789   -6426.5448    3212.3884    82.448123 
   12300    452.75937   -100.91541   0.40966619   -100.50575   -1476.9948    4.3583265    4.3583265    4.3583265   -1476.9948   -1911.8752    12583.218   -15102.327   -248.44124    547.57521    76.388717    82.786457 
   12400    538.09212   -100.99143   0.48687705   -100.50455    2535.2539    4.3489383    4.3489383    4.3489383    2535.2539   -13575.024    29246.815   -8066.0297    4527.9595   -4097.4372   -3209.7236    82.252622 
   12500    420.08096   -100.88531   0.38009808   -100.50521   -9851.6593    4.3578689    4.3578689    4.3578689   -9851.6593    -20314.72    4324.2926   -13564.551    905.97856   -28.792083   -5349.2044    82.760382 
   12600    593.87781   -101.03869   0.53735313   -100.50134    2490.9623    4.3518911    4.3518911    4.3518911    2490.9623   -5429.5305     14836.02    -1933.603   -3824.2838    505.61423   -2835.6053    82.420274 
   12700    495.28311   -100.95143   0.44814257   -100.50329   -9286.3778    4.3552448    4.3552448    4.3552448   -9286.3778   -26011.431    6928.2151   -8775.9177    3327.4135   -5950.5799    2243.1505    82.610968 
   12800    509.34404   -100.96272   0.46086519   -100.50185    6059.9311    4.3510241    4.3510241    4.3510241    6059.9311    -13181.63    33062.752   -1701.3281   -5030.2358    1726.1518    3946.5808    82.371023 
   12900      367.103   -100.83804   0.33216251   -100.50588   -1780.8503    4.3573291    4.3573291    4.3573291   -1780.8503   -12415.443    18470.836   -11397.944    6096.4272   -8106.4892    4892.0817    82.729632 
   13000    543.30676   -100.99283   0.49159538   -100.50123    252.25328    4.3534609    4.3534609    4.3534609    252.25328   -10639.391    15267.959   -3871.8074    2553.6889   -1836.6154    4627.4701    82.509498 
   13100    471.49704   -100.92848   0.42662043   -100.50186   -433.18633     4.352942     4.352942     4.352942   -433.18633    9537.5702   -1942.4126   -8894.7166    2614.1811   -6970.8252      546.072        82.48 
   13200    511.67821   -100.96506   0.46297719   -100.50208   -7777.6838    4.3580341    4.3580341    4.3580341   -7777.6838   -4824.7508   -1870.3913   -16637.909    2553.9467   -5067.0558   -574.57486    82.769796 
   13300     485.1569   -100.94034   0.43898016   -100.50136    13236.395     4.349026     4.349026     4.349026    13236.395    15794.261     22159.71    1755.2153   -4704.0114    157.32753   -2066.1736    82.257596 
   13400    505.56995   -100.96392   0.45745032   -100.50647   -12712.856    4.3596929    4.3596929    4.3596929   -12712.856   -22804.121    6663.8047    -21998.25    6107.2774   -3913.7776    2251.7509    82.864344 
   13500    558.27805   -101.00956   0.50514171   -100.50442    17976.527    4.3472253    4.3472253    4.3472253    17976.527    16068.035    37198.129    663.41641   -24.144717    3153.7361    1402.0462    82.155464 
   13600    531.32099   -100.98529    0.4807504   -100.50454   -15234.021    4.3597863    4.3597863    4.3597863   -15234.021   -25132.091   -4650.4447   -15919.526    4743.2779   -4468.2843    4833.0853    82.869667 
   13700    555.24933   -101.00377   0.50240126   -100.50137    1062.3202    4.3515843    4.3515843    4.3515843    1062.3202   -2083.3136     10448.03    -5177.756    3670.1473    712.24645    529.36841    82.402846 
   13800    553.39235   -101.00243   0.50072103    -100.5017    455.62763    4.3545212    4.3545212    4.3545212    455.62763   -5520.5393    17542.105   -10654.683   -7578.9131   -3749.8611   -1438.0798    82.569799 
   13900    337.55871   -100.80843   0.30543021     -100.503   -4525.8353    4.3567327    4.3567327    4.3567327   -4525.8353   -19053.017    10388.497   -4912.9859    991.62042   -4019.8114   -3777.8614    82.695667 
   14000    540.21803   -100.98958   0.48880063   -100.50078    9170.2592    4.3491488    4.3491488    4.3491488    9170.2592   -6015.3205    34691.904    -1165.806   -10233.658   -1657.3083   -8112.8915    82.264566 
   14100    459.56261   -100.91988   0.41582191   -100.50406   -9254.5543    4.3613743    4.3613743    4.3613743   -9254.5543   -12598.143   -11430.926   -3734.5937     6100.975   -6364.4619   -3806.0529    82.960255 
   14200    538.29796   -100.98563   0.48706331   -100.49857    7684.9574    4.3467777    4.3467777    4.3467777    7684.9574    -9644.301    25223.501    7475.6718   -1992.8279    976.28647   -3226.5395    82.130091 
   14300    445.95525   -100.90558   0.40350969   -100.50207   -3308.2915    4.3588908    4.3588908    4.3588908   -3308.2915   -12204.537    5293.6328     -3013.97    5961.2444   -4409.9081    3253.2323    82.818617 
   14400    523.19516   -100.97579   0.47339798   -100.50239    9406.7701    4.3511849    4.3511849    4.3511849    9406.7701   -7664.8943    39920.576   -4035.3714    1764.5405    3305.3306    4427.0838    82.380157 
   14500     351.0906   -100.82472   0.31767415   -100.50705     3499.312      4.35126      4.35126      4.35126     3499.312      2163.09    10533.406   -2198.5594   -2332.6943   -144.62488    2732.2401    82.384421 
   14600    464.27695   -100.92689   0.42008754    -100.5068   -3691.9616    4.3561046    4.3561046    4.3561046   -3691.9616   -8686.3322    4947.9224    -7337.475    7754.7562    2667.4077   -18.048423    82.659904 
   14700    691.54027   -101.12746   0.62572017   -100.50174   -2627.6079    4.3539455    4.3539455    4.3539455   -2627.6079    8964.1125   -4013.6077   -12833.328    1923.6249   -171.07678   -1957.9743    82.537057 
   14800    273.39256   -100.75044   0.24737133   -100.50307   -3466.2735    4.3528325    4.3528325    4.3528325   -3466.2735   -18450.932     10570.96   -2518.8483    14041.379    -2070.394   -1679.3435    82.473771 
   14900    576.99846   -101.02268   0.52208033    -100.5006   -380.52357    4.3536005    4.3536005    4.3536005   -380.52357   -13831.778    28418.846   -15728.639    3820.4804     370.1126   -3117.3154    82.517435 
   15000    531.93277   -100.98574   0.48130395   -100.50444   -6247.5212    4.3555849    4.3555849    4.3555849   -6247.5212   -17796.989    16619.139   -17564.714    6013.2137   -7029.7039    3093.5218    82.630326 
   15100     467.5168   -100.92594   0.42301903   -100.50292   -635.97343    4.3503881    4.3503881    4.3503881   -635.97343   -22774.682    27187.916   -6321.1549    2395.6227    1296.7029    1542.3392     82.33491 
   15200    638.19139    -101.0809   0.57744898   -100.50345   -14519.806    4.3569397    4.3569397    4.3569397   -14519.806   -22343.794   -2623.9712   -18591.654   -2811.5745    -6120.231    1870.9957    82.707455 
   15300    511.16651   -100.96675    0.4625142   -100.50424    5281.2193    4.3484831    4.3484831    4.3484831    5281.2193    -13058.39    34464.056   -5562.0074    9103.4086    828.49983    -662.8609    82.226796 
   15400    390.58059   -100.85655   0.35340553   -100.50314   -10441.391    4.3615848    4.3615848    4.3615848   -10441.391    -31806.03    18710.716    -18228.86    -81.07978    -3482.399   -3949.6544     82.97227 
   15500    507.22974   -100.96184   0.45895213   -100.50289    3686.3096    4.3455823    4.3455823    4.3455823    3686.3096   -4142.0204    13166.359    2034.5902    10417.775    477.22113    -4268.376    82.062347 
   15600    649.14002   -101.08919   0.58735553   -100.50183   -8899.7927    4.3606268    4.3606268    4.3606268   -8899.7927   -13339.731    1224.0071   -14583.655   -21.929297    1759.2828    -18.17967    82.917609 
   15700    350.82557   -100.82103   0.31743434    -100.5036    1254.2928    4.3498712    4.3498712    4.3498712    1254.2928   -13057.871    16808.137    12.612289    4009.9026   -2366.5361    904.98014    82.305566 
   15800    427.05552   -100.89068   0.38640881   -100.50427    13255.209     4.352337     4.352337     4.352337    13255.209   -349.38224     41743.44   -1628.4326    2082.8127     4009.261    5570.4772    82.445609 
   15900    640.85311   -101.08249   0.57985736   -100.50264   -8025.2343    4.3585402    4.3585402    4.3585402   -8025.2343   -18728.857    9888.5959   -15235.442    5961.8248   -4988.6986    3938.0666    82.798632 
   16000    360.26565   -100.82954   0.32597593   -100.50356    13345.085    4.3446358    4.3446358    4.3446358    13345.085    4162.2208     23822.85    12050.185    10248.053    786.43211    2102.5606    82.008738 
   16100    651.22973   -101.09331   0.58924635   -100.50406   -13878.942    4.3638193    4.3638193    4.3638193   -13878.942   -20747.339   -68.014973   -20821.472    1461.9478   -4740.5215   -1799.5546    83.099858 
   16200    471.00135   -100.93236   0.42617192   -100.50618    7305.0142     4.346429     4.346429     4.346429    7305.0142     3620.485    15285.931    3008.6269    6305.4288   -3019.9644    -1555.561    82.110327 
   16300    353.48951   -100.82455   0.31984473   -100.50471      813.008      4.35513      4.35513      4.35513      813.008   -21715.907    32405.988   -8251.0569   -5746.1104   -4153.9849   -1202.3893    82.604438 
   16400    562.84478   -101.01283   0.50927379   -100.50356   -9894.9986    4.3587796    4.3587796    4.3587796   -9894.9986    -11924.51   -5037.1223   -12723.363    3956.0941   -1306.0473   -118.17102    82.812277 
   16500    545.44346   -100.99543    0.4935287    -100.5019    4496.4408     4.345917     4.345917     4.345917    4496.4408   -7673.5509    17497.695    3665.1782    2966.9097   -2430.5633    3361.7536    82.081312 
   16600    508.93895   -100.96383   0.46049866   -100.50334   -12552.793    4.3606682    4.3606682    4.3606682   -12552.793   -34246.653    15964.986   -19376.712    2708.3489   -2552.8819    4552.9345    82.919969 
   16700    395.86566   -100.86307   0.35818757   -100.50488     6797.782     4.350268     4.350268     4.350268     6797.782   -13348.904    36740.251   -2998.0002    9119.8883    3096.4256    1168.5445    82.328091 
   16800    571.78494   -101.02025   0.51736303   -100.50289   -1872.9252    4.3519638    4.3519638    4.3519638   -1872.9252   -15894.759    22607.192   -12331.209   -4876.0887   -4197.1799    1767.8572    82.424403 
   16900    514.97693   -100.96929   0.46596195   -100.50332   -15548.364     4.358347     4.358347     4.358347   -15548.364   -29120.394   -8076.9171   -9447.7822    5825.5217    2980.2422   -5709.6348    82.787621 
   17000    573.30682   -101.02161   0.51874006   -100.50287    4577.4206    4.3450816    4.3450816    4.3450816    4577.4206    10101.425    8348.6585   -4717.8222   -185.96347    -2483.296   -141.91275    82.033986 
   17100    473.19066   -100.93379   0.42815285   -100.50564   -5972.4175    4.3604174    4.3604174    4.3604174   -5972.4175   -21146.799    19042.811   -15813.264    6610.2405   -391.12887    -5383.761    82.905662 
   17200    352.33438   -100.82337   0.31879955   -100.50457    11312.323    4.3478457    4.3478457    4.3478457    11312.323    5037.0005    36897.459   -7997.4911    8150.8389   -2571.1203    2753.5683     82.19064 
   17300    654.53276   -101.09651   0.59223499   -100.50428    -3624.367     4.356378     4.356378     4.356378    -3624.367   -9416.6469    14646.678   -16103.132   -888.11764   -303.32277   -2321.7034    82.675469 
   17400    499.41529   -100.95626   0.45188145   -100.50438    1312.5087      4.35246      4.35246      4.35246    1312.5087    1146.9973    7627.1581   -4836.6294    5622.1379    -2316.775    3436.4986    82.452603 
   17500    407.50116   -100.87391   0.36871562   -100.50519    4884.6674    4.3528305    4.3528305    4.3528305    4884.6674   -17175.186    46297.459   -14468.271   -6026.7315   -3273.0006   -840.84807    82.473658 
   17600    611.42128   -101.05719   0.55322682   -100.50396   -1336.4378    4.3538304    4.3538304    4.3538304   -1336.4378   -7397.9255    12718.382   -9329.7695    8067.8629    2306.2238   -1178.1486    82.530511 
   17700    380.31141   -100.84864   0.34411375   -100.50453    3103.5747    4.3507428    4.3507428    4.3507428    3103.5747    -11670.51    23247.776   -2266.5418    182.78835   -5668.2394    359.20626    82.355048 
   17800    643.30184    -101.0853   0.58207302   -100.50323   -13768.901    4.3565947    4.3565947    4.3565947   -13768.901   -27724.592   -4360.2803   -9221.8301    4687.3821    3145.3819      1988.59    82.687806 
   17900    568.78281    -101.0207   0.51464664   -100.50605   -1075.9485    4.3511911    4.3511911    4.3511911   -1075.9485   -6930.0307    9774.2863   -6072.1013    5610.1389   -363.79047    2367.8769    82.380507 
   18000    365.95919   -100.83565   0.33112756   -100.50452    5100.2233    4.3530846    4.3530846    4.3530846    5100.2233   -20519.702    33662.857    2157.5145    -7214.889    706.75484    2806.6123    82.488103 
   18100    452.53046   -100.91401   0.40945907   -100.50455   -338.16484    4.3528185    4.3528185    4.3528185   -338.16484   -24814.713    34918.996   -11118.778    5230.7385   -814.38084   -1924.9315    82.472976 
   18200    608.37947   -101.05371   0.55047453   -100.50323   -2468.2022    4.3540451    4.3540451    4.3540451   -2468.2022   -5378.9392    8261.5974   -10287.265   -4480.0882    809.02472    710.51743    82.542718 
   18300    557.93008   -101.00591   0.50482687   -100.50108   -3629.8699    4.3506758    4.3506758    4.3506758   -3629.8699   -20489.194    10773.044   -1173.4596    5624.7317    -2135.607   -7364.4554    82.351244 
   18400    386.43545   -100.85647   0.34965491   -100.50682   -3587.7912    4.3568911    4.3568911    4.3568911   -3587.7912   -18190.012    25534.603   -18107.964    2008.5084   -2518.2011   -355.35657    82.704684 
   18500    615.90317   -101.06156   0.55728213   -100.50428    6764.4445    4.3485168    4.3485168    4.3485168    6764.4445   -2373.7037     26296.59   -3629.5526   -5510.5604    2411.9226   -4744.3144    82.228706 
   18600    407.16849   -100.87456    0.3684146   -100.50614   -10074.051    4.3578966    4.3578966    4.3578966   -10074.051    -20538.74    2460.5332   -12143.947    1293.5935    -5630.755    4154.8809     82.76196 
   18700    524.73847   -100.97966    0.4747944   -100.50486    6066.6187     4.346883     4.346883     4.346883    6066.6187    7657.1274    13657.517   -3114.7883   -11990.992    3713.3427   -2835.6465    82.136059 
   18800    676.86081    -101.1173   0.61243788   -100.50486   -3505.6208     4.356153     4.356153     4.356153   -3505.6208   -5258.6763    4825.4366   -10083.623    6515.5277   -1515.9056    3892.8147    82.662659 
   18900    215.34967   -100.70158   0.19485291   -100.50673    11048.802    4.3515462    4.3515462    4.3515462    11048.802    -382.1912    37148.629   -3620.0326   -2222.8492   -178.89429   -2237.8257    82.400682 
   19000    551.92879   -101.00367   0.49939676   -100.50428    2117.5453    4.3494689    4.3494689    4.3494689    2117.5453   -10797.814    25300.317   -8149.8672    1799.3486    2454.5035   -79.158633    82.282728 
   19100    535.81919   -100.99182   0.48482046     -100.507   -2647.2359    4.3563615    4.3563615    4.3563615   -2647.2359   -6976.5501     3075.883   -4041.0408    1025.3958   -1422.9355   -5.9989504     82.67453 
   19200    560.64776   -101.01122   0.50728588   -100.50394   -6942.1637    4.3485183    4.3485183    4.3485183   -6942.1637   -18613.354    378.50118   -2591.6385   -9496.7557   -132.73332     738.2428    82.228793 
   19300    434.67463    -100.8982   0.39330274    -100.5049   -6815.5575    4.3572131    4.3572131    4.3572131   -6815.5575   -24862.307    13289.317   -8873.6823    3930.9015   -1687.4233    2500.8065    82.723022 
   19400    506.94058     -100.962   0.45869049   -100.50331    3989.3535    4.3499941    4.3499941    4.3499941    3989.3535   -12541.539    22110.698    2398.9016   -6617.3626    970.87055    2552.9725     82.31254 
   19500    526.83951   -100.97868   0.47669546   -100.50199   -5696.7022    4.3536067    4.3536067    4.3536067   -5696.7022   -20368.754    14532.254   -11253.607    6021.5119   -4846.5363   -475.92989    82.517789 
   19600    426.98969   -100.89078   0.38634924   -100.50444   -1068.8622    4.3544106    4.3544106    4.3544106   -1068.8622   -13609.112    14583.715   -4181.1896   -5640.7919    2149.6876   -1529.1272    82.563508 
   19700    688.17108   -101.12443   0.62267165   -100.50176    -2675.142    4.3515355    4.3515355    4.3515355    -2675.142    2391.1814   -1019.7191   -9396.8884    -7226.377   -2099.5428   -5479.8896    82.400074 
   19800    375.42208   -100.84413   0.33968978   -100.50445    6209.4444     4.350497     4.350497     4.350497    6209.4444   -17980.169    44552.074   -7943.5712   -5918.4653   -1358.1349    1881.1874    82.341092 
   19900    406.31829   -100.87293   0.36764533   -100.50528    157.45758    4.3571307    4.3571307    4.3571307    157.45758   -5574.3006    16621.023    -10574.35   -13049.344    2925.9135   -4071.4423    82.718331 
   20000    675.44935   -101.11193   0.61116077   -100.50077    1500.1448    4.3481294    4.3481294    4.3481294    1500.1448   -5529.7222    22653.809   -12623.652    489.20646   -3386.8005    4655.9435    82.206732 
   20100    391.26435    -100.8601   0.35402421   -100.50607   -1320.4333    4.3516707    4.3516707    4.3516707   -1320.4333   -6048.5007    3747.3005   -1660.0998   -9454.5809    2001.0339   -648.64079    82.407755 
   20200    632.92826   -101.07643   0.57268679   -100.50375   -8516.6474    4.3583428    4.3583428    4.3583428   -8516.6474     -17010.5    12645.882   -21185.324   -99.076111   -1142.3434    2227.4086    82.787382 
   20300     369.4016   -100.84002   0.33424233   -100.50578    19285.065    4.3426212    4.3426212    4.3426212    19285.065    8590.8087    46377.922    2886.4632   -9430.6306   -785.42982   -1558.5949    81.894709 
   20400    528.00739   -100.98236   0.47775218    -100.5046   -11834.262    4.3608954    4.3608954    4.3608954   -11834.262   -23404.588    6792.6212    -18890.82   -6441.7528   -1603.2474    861.07744    82.932931 
   20500    499.39493    -100.9548   0.45186303   -100.50294    6173.5758    4.3480086    4.3480086    4.3480086    6173.5758    -2409.936    24574.397   -3643.7339   -975.39459   -152.22127   -98.952753     82.19988 
   20600    534.83449   -100.99126   0.48392949   -100.50733   -1436.4673    4.3487148    4.3487148    4.3487148   -1436.4673    -8437.765    8375.3782    -4247.015   -4633.6208   -1492.3056    2956.9845     82.23994 
   20700    458.30528   -100.91899   0.41468425    -100.5043   -13123.533      4.36435      4.36435      4.36435   -13123.533   -36454.079     19715.39    -22631.91    5411.1686   -1335.6566    3893.0542    83.130182 
   20800    391.31768   -100.85755   0.35407246   -100.50347    8305.9259    4.3382728    4.3382728    4.3382728    8305.9259   -9877.4109     22334.64    12460.548    -13074.22    1250.2506    1182.6087    81.648944 
   20900     705.8796    -101.1419    0.6386947   -100.50321   -14528.254    4.3604186    4.3604186    4.3604186   -14528.254   -17014.446   -6931.9953    -19638.32   -940.90539   -1558.6054    -180.0436    82.905729 
   21000    420.53283   -100.88429   0.38050694   -100.50378    -9972.971    4.3544483    4.3544483    4.3544483    -9972.971   -26878.316    5378.3343   -8418.9315     -8706.98     2422.191    1262.2421     82.56565 
   21100    491.05521   -100.94716   0.44431708   -100.50284    14404.226    4.3395196    4.3395196    4.3395196    14404.226    14977.112    21486.409    6749.1562   -1993.2799   -278.98271   -4834.0873    81.719359 
   21200    495.38472   -100.94995   0.44823451   -100.50172   -8862.0954    4.3679715    4.3679715    4.3679715   -8862.0954   -17811.549      20203.5   -28978.238    2254.0853    1409.2371    315.27439    83.337292 
   21300    375.40692   -100.84042   0.33967607   -100.50075    14747.756    4.3371334    4.3371334    4.3371334    14747.756    11207.785    24247.321    8788.1618   -8309.2197   -1500.3567   -2092.2765    81.584629 
   21400    614.97685   -101.05951   0.55644398   -100.50306   -5621.9737    4.3589777    4.3589777    4.3589777   -5621.9737   -10489.381    9914.6756   -16291.216    124.77286    735.86269     2675.723    82.823569 
   21500    590.39381   -101.03764   0.53420073   -100.50344   -4875.3626    4.3523321    4.3523321    4.3523321   -4875.3626   -3576.8052    -1469.356   -9579.9265   -11767.266     -554.487   -965.24548    82.445334 
   21600    426.06003   -100.88973   0.38550807   -100.50422    9771.8484    4.3410366    4.3410366    4.3410366    9771.8484   -5832.1856    35134.116    13.614206    1711.6251   -2414.7894    467.76499    81.805094 
   21700    467.95903   -100.92737   0.42341917   -100.50395   -12855.356    4.3673211    4.3673211    4.3673211   -12855.356   -16782.403    1821.7065   -23605.371   -290.07793    3067.3162   -1917.9845     83.30007 
   21800    601.11711   -101.04464    0.5439034   -100.50073    7854.5292    4.3388635    4.3388635    4.3388635    7854.5292    11138.424    12018.796    406.36735   -487.46274   -2985.0967   -1138.0947    81.682299 
   21900    417.23722   -100.88058     0.377525   -100.50306   -9531.7971    4.3590131    4.3590131    4.3590131   -9531.7971   -22617.506    10056.785    -16034.67   -1468.5688    1766.6313   -669.04385    82.825587 
   22000    557.14153   -101.00648   0.50411337   -100.50237   -1552.5662    4.3511561    4.3511561    4.3511561   -1552.5662   -8866.0865    11522.318   -7313.9303   -11522.375    1819.8069    3346.7369    82.378521 
   22100    433.38765   -100.89515   0.39213826   -100.50301    10020.604    4.3479781    4.3479781    4.3479781    10020.604   -6724.2404    44285.596   -7499.5434    4206.5921   -944.73027    396.00625    82.198152 
   22200    539.68926   -100.99039   0.48832219   -100.50207    -12363.13    4.3576972    4.3576972    4.3576972    -12363.13   -25374.344    1694.0087   -13409.055   -8334.8041   -100.14254    6683.1199    82.750602 
   22300    491.45153   -100.94732   0.44467567   -100.50264     8480.923    4.3458197    4.3458197    4.3458197     8480.923     8772.102     21775.89   -5105.2226    7426.6864    331.04233   -1175.8622    82.075797 
   22400     639.9011   -101.08213   0.57899597   -100.50313    -9975.053    4.3573421    4.3573421    4.3573421    -9975.053   -8204.2375   -5352.3547   -16368.567   -4192.6049   -1064.8487    2186.0952    82.730369 
   22500    339.61944   -100.81316    0.3072948   -100.50586    5697.9801    4.3495525    4.3495525    4.3495525    5697.9801    4013.0082    20786.672     -7705.74   -6267.0258    -2790.086    -3656.952    82.287474 
   22600    461.48746   -100.92323   0.41756356   -100.50566    6705.8562    4.3490313    4.3490313    4.3490313    6705.8562   -2117.9801    32872.112   -10636.564    3469.7892    2444.4366    158.00562    82.257896 
   22700    593.52918   -101.04306   0.53703767   -100.50602     -6253.94    4.3586467    4.3586467    4.3586467     -6253.94    3283.1247   -3789.2529   -18255.692   -5020.4967   -4003.8666   -3837.8323    82.804704 
   22800    442.67266   -100.90675   0.40053952   -100.50621    1285.0269    4.3458884    4.3458884    4.3458884    1285.0269   -15677.037    22823.592   -3291.4745    11924.782    1374.4878    368.61403    82.079688 
   22900    618.04585   -101.06548   0.55922088   -100.50626   -1962.7532    4.3534433    4.3534433    4.3534433   -1962.7532   -6411.0854    16500.189   -15977.363   -36.244031   -78.271522   -1920.9657    82.508496 
   23000    399.77344   -100.86804   0.36172341   -100.50632    1492.7765    4.3550239    4.3550239    4.3550239    1492.7765    -17895.32    37148.224   -14774.575    772.70161   -581.35594    294.84562    82.598396 
   23100    451.96559   -100.91368   0.40894796   -100.50474    272.77242    4.3450991    4.3450991    4.3450991    272.77242   -11856.442    17143.848   -4469.0885    2608.6397    2363.7947    -2390.675    82.034976 
   23200    618.41091   -101.06594   0.55955119   -100.50638   -7725.8891    4.3567966    4.3567966    4.3567966   -7725.8891    -3547.996   -985.07313   -18644.598   -6832.8334   -2280.6994    1463.7942    82.699302 
   23300    446.92733   -100.91349   0.40438924    -100.5091   -1591.4894    4.3488897    4.3488897    4.3488897   -1591.4894   -5824.1604    5130.4315   -4080.7394    11336.261    3037.7262   -3081.8698    82.249861 
   23400    522.37033   -100.98016   0.47265165   -100.50751    267.32855    4.3516506    4.3516506    4.3516506    267.32855   -5396.0416    21171.388   -14973.361   -1384.2244   -3424.6555    4451.5615    82.406613 
   23500    370.00833   -100.84172   0.33479131   -100.50693    3666.8547    4.3555281    4.3555281    4.3555281    3666.8547   -4841.2567    28223.252   -12381.431    3309.3685    2839.6681   -1210.3675    82.627088 
   23600    692.51487   -101.12871   0.62660201   -100.50211     297.4492     4.349081     4.349081     4.349081     297.4492   -25.400665      8843.87   -7926.1217   -497.47125    -1424.398    6387.4045    82.260715 
   23700    439.39229   -100.90058   0.39757138   -100.50301    1999.2208    4.3520283    4.3520283    4.3520283    1999.2208      -407.32    14856.058   -8451.0754   -1927.8493    223.62511   -1567.8674    82.428069 
   23800    533.33082   -100.98748   0.48256893   -100.50491   -2718.9298    4.3532018    4.3532018    4.3532018   -2718.9298   -7801.7081    11790.746   -12145.827    7922.3612    3049.2758    4043.5029    82.494766 
   23900    500.50299   -100.95567   0.45286563    -100.5028        10364    4.3518052    4.3518052    4.3518052        10364    10088.473    33777.198   -12773.671    2591.8017   -1126.4776   -328.70164    82.415393 
   24000    315.81689   -100.79056   0.28575776    -100.5048   -3294.8421    4.3497933    4.3497933    4.3497933   -3294.8421   -22187.871    17098.631   -4795.2863    12677.707    2658.3592   -1754.5907    82.301143 
   24100    688.10293   -101.12591   0.62260999    -100.5033   -8899.5319    4.3551454    4.3551454    4.3551454   -8899.5319   -3437.2505    -2091.221   -21170.124    826.71231    1013.5469   -1597.8006    82.605311 
   24200    465.94347   -100.92898   0.42159544   -100.50738    668.16508    4.3497516    4.3497516    4.3497516    668.16508    -10659.96    19752.293    -7087.838    1772.6691    4046.1461   -1093.3822    82.298774 
   24300    513.85034   -100.97127   0.46494259   -100.50633   -9777.8159    4.3532226    4.3532226    4.3532226   -9777.8159   -26796.437    9647.3386    -12184.35    4913.4996   -1969.9106   -1399.4357    82.495948 
   24400    459.57191   -100.92088   0.41583032   -100.50505    8381.9755    4.3511779    4.3511779    4.3511779    8381.9755   -5068.0979    49427.632   -19213.608   -75.730738    4770.4276    1283.7355     82.37976 
   24500     546.5439    -101.0004    0.4945244   -100.50588   -7279.7579    4.3514512    4.3514512    4.3514512   -7279.7579   -12917.713   -712.18524    -8209.376    12550.329    -1426.639    -3497.162    82.395283 
   24600    519.31548   -100.97306   0.46988756   -100.50317    1470.5973      4.35332      4.35332      4.35332    1470.5973   -724.51575    22138.844   -17002.537   -4838.6574   -569.28725    3324.8986    82.501489 
   24700     409.6225   -100.87725   0.37063505   -100.50662    2992.7134    4.3503442    4.3503442    4.3503442    2992.7134    6003.4763     16585.81   -13611.146    4757.0883    3721.3874   -4134.3485    82.332414 
   24800    556.04197   -101.00936   0.50311846   -100.50624    4227.4219    4.3533543    4.3533543    4.3533543    4227.4219   -628.63848    27215.226   -13904.321    -6235.772   -3083.3306    3594.4577    82.503438 
   24900    359.48975   -100.83028   0.32527388   -100.50501     4317.086    4.3516378    4.3516378    4.3516378     4317.086   -2668.6386    25798.259   -10178.362    4642.6972    2947.8412    -1864.647    82.405884 
   25000    641.15892   -101.08494   0.58013406    -100.5048   -10022.294    4.3493648    4.3493648    4.3493648   -10022.294   -13886.668   -4841.8826   -11338.332    8530.7245   -727.26984    4049.5886    82.276823 
   25100    578.29284   -101.02746   0.52325151   -100.50421    2433.0094    4.3554818    4.3554818    4.3554818    2433.0094   -1853.8072     23843.14   -14690.305    1805.1692    3477.4084    2140.4565    82.624457 
   25200    378.60866   -100.84853   0.34257307   -100.50596   -2299.7337    4.3474133    4.3474133    4.3474133   -2299.7337   -26987.996    25857.145   -5768.3499    10876.538   -947.37492    1954.5846    82.166123 
   25300    548.20558   -101.00427   0.49602793   -100.50825   -1024.9766    4.3539555    4.3539555    4.3539555   -1024.9766   -2048.9742    20201.511   -21227.467   -3243.6713    1710.8837    2172.6782    82.537621 
   25400    514.49281   -100.97443    0.4655239   -100.50891    344.50529     4.350927     4.350927     4.350927    344.50529   -7499.0939    14683.846   -6151.2367    7246.6624    340.21526   -2339.8431    82.365508 
   25500    477.05614   -100.93926   0.43165042   -100.50761   -10001.024    4.3506693    4.3506693    4.3506693   -10001.024   -18639.927   -142.84496   -11220.301    6595.5196   -1450.3868    2818.2877    82.350876 
   25600    485.93083   -100.94461   0.43968042   -100.50493    2023.7199    4.3566925    4.3566925    4.3566925    2023.7199   -3290.7344    27796.787   -18434.892    7240.3802    1614.5263    317.40804    82.693379 
   25700    535.76789   -100.98883   0.48477404   -100.50406    -732.7322    4.3452555    4.3452555    4.3452555    -732.7322   -11887.103    13531.329   -3842.4226    6109.3452   -2551.9214   -517.49592    82.043835 
   25800    408.26626   -100.87428   0.36940789   -100.50487   -5473.1027    4.3580758    4.3580758    4.3580758   -5473.1027   -15046.443    16787.624   -18160.489   -3203.0565    2783.2818    5292.1273    82.772171 
   25900    648.58759   -101.09186   0.58685568   -100.50501   -2629.9119    4.3486306    4.3486306    4.3486306   -2629.9119    1294.0049   -1225.7684   -7957.9721    4003.2525   -1406.2178   -3891.3327    82.235163 
   26000    514.64514   -100.97334   0.46566174   -100.50768   -2894.7399    4.3528646    4.3528646    4.3528646   -2894.7399   -4000.9364    12430.383   -17113.666   -774.50321      2466.67    1256.1272    82.475598 
   26100    350.49093   -100.82232   0.31713156   -100.50519    11478.374    4.3508128    4.3508128    4.3508128    11478.374    4212.2526    36365.789    -6142.918    7008.6509    1550.5028   -6403.8989    82.359022 
   26200     459.4447   -100.92136   0.41571522   -100.50565   -3438.9674    4.3526694    4.3526694    4.3526694   -3438.9674   -8628.6757    18332.544   -20020.771    3846.2097    799.98519    831.91042    82.464502 
   26300    612.41192   -101.05771   0.55412317   -100.50359    2024.9135    4.3514036    4.3514036    4.3514036    2024.9135     8448.901    7551.8911   -9926.0516    326.91708    5428.9495   -2028.5083    82.392578 
   26400    438.91811   -100.90157   0.39714233   -100.50442   -7407.1578     4.352436     4.352436     4.352436   -7407.1578   -21503.867    11575.225   -12292.832    660.44861   -2247.8741    1417.5441    82.451237 
   26500    514.89659   -100.97025   0.46588926   -100.50436   -7984.6543    4.3536548    4.3536548    4.3536548   -7984.6543   -11119.905    6600.1316   -19434.189   -2277.4879    5742.2476    5129.7814    82.520523 
   26600    579.36977   -101.02776   0.52422594   -100.50353     6035.258    4.3479786    4.3479786    4.3479786     6035.258   -11526.095    34582.614   -4950.7447     4598.607   -2916.0448   -114.66128    82.198179 
   26700    357.48089   -100.82851   0.32345622   -100.50506   -15886.854    4.3606378    4.3606378    4.3606378   -15886.854   -28222.852    2775.6047   -22213.315    3086.8299     663.4704    3101.5111    82.918234 
   26800     598.9806    -101.0437   0.54197024   -100.50173     9527.266    4.3433807    4.3433807    4.3433807     9527.266    7806.1455    25319.058   -4543.4056   -119.49162    890.96889    -1038.088    81.937684 
   26900    582.39611   -101.03131   0.52696424   -100.50435   -6158.3212    4.3569407    4.3569407    4.3569407   -6158.3212   -8712.6384    5612.6301   -15374.955    1933.9582   -2706.1105   -2467.6058    82.707511 
   27000     355.9074   -100.82599    0.3220325   -100.50396    8570.6238    4.3519472    4.3519472    4.3519472    8570.6238   -2513.4809    43211.596   -14986.244   -8680.1535    3630.6068    2771.5354    82.423464 
   27100    535.00862   -100.98886   0.48408704   -100.50477    5961.7654    4.3470047    4.3470047    4.3470047    5961.7654    2818.9065    18046.917   -2980.5277    5225.9326   -4108.0604   -368.97139    82.142957 
   27200    576.10219   -101.02719   0.52126937   -100.50592   -5498.4121    4.3584486    4.3584486    4.3584486   -5498.4121    -10430.08    10926.569   -16991.726   -4380.4907    5129.2097    4228.5864    82.793413 
   27300    529.98902   -100.98207    0.4795452   -100.50253    3109.8083     4.347133     4.347133     4.347133    3109.8083    144.62879    9713.2962   -528.49995    5736.2532   -5597.2396   -2633.8378     82.15023 
   27400    473.33077   -100.93205   0.42827963   -100.50377   -4907.9602    4.3548405    4.3548405    4.3548405   -4907.9602   -16456.897    11981.374   -10248.358    688.22714     2612.642    3021.7996    82.587966 
   27500    515.36932   -100.97041   0.46631699   -100.50409    4463.7269    4.3526862    4.3526862    4.3526862    4463.7269    757.08527    22762.697   -10128.602   -7466.3895    -4283.966     -4650.03    82.465458 
   27600    443.71325   -100.90504   0.40148108   -100.50356    4505.7606    4.3463994    4.3463994    4.3463994    4505.7606   -9551.2258    23094.358    -25.85052    3867.4264   -4354.6562   -2284.0483    82.108646 
   27700    414.97183   -100.88122   0.37547524   -100.50575   -9928.4395    4.3621167    4.3621167    4.3621167   -9928.4395   -13735.735    3698.9471    -19748.53   -6896.2502   -1469.5861    1931.0547    83.002626 
   27800    683.18918   -101.12108   0.61816393   -100.50292    4794.8927    4.3435682    4.3435682    4.3435682    4794.8927    3911.5333    13303.285   -2830.1401    9779.2732   -8896.8958   -1493.4877    81.948298 
   27900    353.70251   -100.82644   0.32003747    -100.5064   -4443.5468    4.3572861    4.3572861    4.3572861   -4443.5468   -22145.004    23118.436   -14304.072   -1710.6367    1560.5119    6793.6746    82.727182 
   28000    463.12518   -100.92278   0.41904539   -100.50373   -6240.2294    4.3532159    4.3532159    4.3532159   -6240.2294   -14571.086     13315.63   -17465.233   -677.70354   -7198.2222    998.92714    82.495568 
   28100     587.1784    -101.0322   0.53129136   -100.50091    11222.375    4.3410482    4.3410482    4.3410482    11222.375    7753.4716    23848.833     2064.821   -472.64898    932.16583    1566.9158    81.805747 
   28200    519.86772   -100.97151   0.47038724   -100.50113   -28286.963    4.3685338    4.3685338    4.3685338   -28286.963   -26207.758   -24978.943   -33674.189   -8310.0765   -4538.3107    2185.2356    83.369483 
   28300    412.81549   -100.87378   0.37352413   -100.50025    22243.851    4.3317661    4.3317661    4.3317661    22243.851    34169.448    27884.069    4678.0372    5469.7878    188.32412    -4680.674    81.282117 
   28400    572.95235   -101.02476   0.51841933   -100.50635   -14816.267    4.3649061    4.3649061    4.3649061   -14816.267   -11089.403   -6037.0073   -27322.391   -1829.9865   -3988.9193    7239.8932     83.16196 
   28500    310.27318     -100.786   0.28074169   -100.50525    7807.1248    4.3490618    4.3490618    4.3490618    7807.1248    12588.656    31686.638    -20853.92    6407.9511   -3674.5396    -5843.227    82.259628 
   28600    511.76934   -100.96545   0.46305965   -100.50239    4897.0223    4.3423304    4.3423304    4.3423304    4897.0223   -4390.2096    20226.037   -1144.7603   -1198.0379   -361.80198    8802.7746     81.87826 
   28700    546.38949   -100.99537   0.49438469   -100.50099   -20523.477    4.3652375    4.3652375    4.3652375   -20523.477   -17823.519   -13740.021   -30006.891   -5479.6751   -7181.5366    516.94108    83.180901 
   28800    615.20244   -101.05282    0.5566481   -100.49617    7727.0198    4.3372676    4.3372676    4.3372676    7727.0198   -1456.2363    20525.058    4112.2378    2797.9297    1031.7276   -1816.6987    81.592202 
   28900     337.9291   -100.80822   0.30576535   -100.50246   -14510.466    4.3617665    4.3617665    4.3617665   -14510.466   -25511.367    5349.4881    -23369.52   -5260.0586   -4420.3576    2307.2764    82.982637 
   29000    553.46323   -101.00196   0.50078516   -100.50118    2541.1022    4.3462885    4.3462885    4.3462885    2541.1022   -812.92779    14268.221   -5831.9864    6063.6139   -1076.4754   -8827.6731    82.102364 
   29100    525.90796   -100.97848   0.47585257   -100.50263   -3230.1737    4.3501994    4.3501994    4.3501994   -3230.1737   -661.58289    1375.9071   -10404.845    3356.1121    635.80698    2031.8803    82.324198 
   29200     386.2859   -100.85479    0.3495196   -100.50527   -7195.0762    4.3549382    4.3549382    4.3549382   -7195.0762   -2496.5073   -2495.4589   -16593.262   -4292.6084   -1220.3228    -5473.371    82.593523 
   29300    631.74081   -101.07358   0.57161236   -100.50197    6040.2458    4.3476901    4.3476901    4.3476901    6040.2458    18137.097     5902.993   -5919.3523   -2153.4787    1104.0531    275.89675    82.181819 
   29400    379.32673   -100.84966    0.3432228   -100.50644    3859.6176    4.3507779    4.3507779    4.3507779    3859.6176    -5419.375    33498.086   -16499.858   -8925.5829   -3417.8467    104.26331    82.357045 
   29500    474.27032   -100.93384   0.42912975   -100.50471    5358.4686    4.3544292    4.3544292    4.3544292    5358.4686    6931.1537    23939.476   -14795.224   -236.67904    54.060496   -6510.7777    82.564564 
   29600    619.24934   -101.06382   0.56030982   -100.50351   -930.61763    4.3483113    4.3483113    4.3483113   -930.61763   -9287.9166    17851.076   -11355.012    2225.6114   -3825.6778    2624.9217    82.217051 
   29700    458.86013   -100.92253   0.41518629   -100.50735   -1266.5261    4.3529122    4.3529122    4.3529122   -1266.5261    6620.0698    4676.7447   -15096.393     -1430.78   -2932.1536    -10908.31    82.478305 
   29800    667.48231   -101.10748   0.60395202   -100.50353   -2738.6392    4.3515347    4.3515347    4.3515347   -2738.6392   -15483.034    21666.267    -14399.15    6457.6686    478.28609    4399.2082    82.400024 
   29900     277.2288   -100.75758   0.25084244   -100.50673    6267.2987    4.3462155    4.3462155    4.3462155    6267.2987    6627.0505    21887.133    -9712.287   -8827.9541   -5304.8363   -6408.5893    82.098226 
   30000    650.35214   -101.09054   0.58845228   -100.50208   -8379.1518    4.3580628    4.3580628    4.3580628   -8379.1518   -8474.5052    878.05202   -17541.002    4891.6631    3385.7243    1869.6593    82.771427 
   30100    413.78133   -100.87868   0.37439805   -100.50428    7220.5586    4.3422229    4.3422229    4.3422229    7220.5586    4121.2315    24102.893    -6562.449   -3484.9347   -4381.2333   -1063.8742    81.872175 
   30200     554.6214    -101.0099    0.5018331   -100.50806   -6955.3169    4.3565854    4.3565854    4.3565854   -6955.3169   -3441.7257   -2341.3203   -15082.905    7475.6167      2316.98    -6439.297     82.68728 
   30300    449.87926   -100.91162    0.4070602   -100.50456    5068.6872    4.3532508    4.3532508    4.3532508    5068.6872   -3535.1988    32771.328   -14030.067    3767.2597   -3267.8912   -729.53851    82.497552 
   30400    433.85514    -100.8974   0.39256125   -100.50484     738.3043    4.3468756    4.3468756    4.3468756     738.3043   -6293.5769    22285.276   -13776.787   -1085.3474   -77.170751   -13925.969    82.135638 
   30500     599.1622   -101.04204   0.54213455    -100.4999    2538.2295    4.3536032    4.3536032    4.3536032    2538.2295   -1223.5115     19690.59    -10852.39   -711.25338    -2223.668   -848.86778    82.517592 
   30600    452.10475   -100.91275   0.40907388   -100.50368   -19094.753     4.355794     4.355794     4.355794   -19094.753   -11756.964   -25653.235    -19874.06   -9397.8809   -4286.7211   -9592.3325    82.642223 
   30700    600.68997   -101.04642   0.54351691    -100.5029    12958.625    4.3415855    4.3415855    4.3415855    12958.625    14453.556    26125.511   -1703.1922    1027.1436   -40.191007   -2500.2313    81.836127 
   30800    460.04386   -100.92219   0.41625735   -100.50593   -13705.702     4.361511     4.361511     4.361511   -13705.702   -14911.973   -960.32268   -25244.811   -1611.3206    -6624.536   -3681.8412    82.968058 
   30900    291.51606   -100.76968   0.26376986   -100.50591    11584.037    4.3418735    4.3418735    4.3418735    11584.037    18333.408    20595.964   -4177.2597    288.61544    1346.7752   -9182.0661    81.852413 
   31000    732.35069   -101.16556   0.66264629   -100.50292   -3170.3181    4.3527927    4.3527927    4.3527927   -3170.3181   -4364.1364    12011.231   -17158.049    109.86511   -5694.7762   -504.12819    82.471513 
   31100    356.12941   -100.82811   0.32223337   -100.50587   -9206.8701    4.3569324    4.3569324    4.3569324   -9206.8701   -4667.3343   -4128.5144   -18824.762   -9363.6116    1837.9224   -13372.257    82.707036 
   31200    603.84396   -101.04613   0.54637071   -100.49976    14184.174    4.3367223    4.3367223    4.3367223    14184.174     7954.634    33951.876    646.01293   -5232.4158   -2341.5639    3317.2134    81.561429 
   31300    357.71896   -100.82994   0.32367163   -100.50626   -13674.919    4.3665121    4.3665121    4.3665121   -13674.919   -22506.046    12803.561   -31322.271   -4588.2724   -109.18147   -7560.7856    83.253786 
   31400    637.43599   -101.07721   0.57676548   -100.50045    7546.8848    4.3386149    4.3386149    4.3386149    7546.8848   -5506.3227    27936.677     210.2996    -3595.648     51.96768     2201.157     81.66826 
   31500     499.6512   -100.95479   0.45209491    -100.5027    -16176.47    4.3596366    4.3596366    4.3596366    -16176.47    -8938.398   -18321.257   -21269.755    694.37202   -2157.6698   -3436.2764    82.861134 
   31600    523.97268   -100.97728    0.4741015   -100.50318    151.02747    4.3474346    4.3474346    4.3474346    151.02747   -9277.3823    20584.007   -10853.542   -3923.9302   -128.47063   -3835.0778     82.16733 
   31700    539.53671    -100.9905   0.48818415   -100.50231    8544.0466    4.3507411    4.3507411    4.3507411    8544.0466   -2238.1095      36714.6   -8844.3503   -4495.5714   -1958.4933    -955.4039     82.35495 
   31800    353.37445   -100.82456   0.31974063   -100.50482   -1354.1831    4.3535163    4.3535163    4.3535163   -1354.1831   -1006.0182    17819.609    -20876.14   -5094.3022    101.00107   -10040.735    82.512651 
   31900    580.61227   -101.02907   0.52535018   -100.50372    6048.1307    4.3453227    4.3453227    4.3453227    6048.1307     6822.956    11321.819  -0.38262004   -8320.1953   -3783.1581    1387.6126    82.047644 
   32000    566.07615   -101.01834    0.5121976   -100.50614    -4524.545    4.3577733    4.3577733    4.3577733    -4524.545   -3797.6184     13404.49   -23180.507     6638.094    848.77519   -6987.0493    82.754937 
   32100    419.04864   -100.88458   0.37916402   -100.50541    1048.2097    4.3464044    4.3464044    4.3464044    1048.2097    1559.0625    4499.0126   -2913.4461   -3512.8139   -2895.9594   -327.00331    82.108933 
   32200    481.54621   -100.94122   0.43571313   -100.50551     4.459299    4.3512052    4.3512052    4.3512052     4.459299   -4939.4834    17429.213   -12476.352     4782.486   -70.979841   -3239.8807    82.381312 
   32300    523.81724   -100.97981   0.47396085   -100.50585   -8742.3224    4.3531984    4.3531984    4.3531984   -8742.3224   -15374.346    7165.7667   -18018.388    -2637.265    1178.6966   -7499.4082    82.494572 
   32400    587.17984   -101.03442   0.53129266   -100.50312   -88.046805    4.3454776    4.3454776    4.3454776   -88.046805   -2910.4128    1920.2361    726.03622   -3748.6563   -540.60525    460.30375    82.056417 
   32500    424.44016   -100.88901   0.38404238   -100.50497   -10983.669    4.3593375    4.3593375    4.3593375   -10983.669   -13818.621    8612.9241   -27745.311    340.59546    1344.1268    -9659.161    82.844081 
   32600    528.95163   -100.98302   0.47860655   -100.50441    6522.9968    4.3450949    4.3450949    4.3450949    6522.9968   -10620.607    34599.191   -4409.5931   -3134.4714    2169.8192   -175.49921    82.034736 
   32700    470.49134   -100.93356   0.42571045   -100.50785    3596.6393    4.3518126    4.3518126    4.3518126    3596.6393    4667.3131    21561.568   -15438.963    7523.1739   -286.78313   -5538.3063    82.415817 
   32800    465.41443   -100.92648   0.42111675   -100.50536   -17848.524    4.3585931    4.3585931    4.3585931   -17848.524   -10264.486   -20559.459   -22721.627   -2662.3469    1930.9268   -568.68404     82.80165 
   32900    659.49278   -101.09765   0.59672292   -100.50093    15044.515    4.3363392    4.3363392    4.3363392    15044.515    14553.108    23862.138     6718.301     1628.755    1350.6655    -1187.072    81.539819 
   33000    350.29755   -100.82035   0.31695658   -100.50339    -16460.41    4.3664435    4.3664435    4.3664435    -16460.41   -11436.126   -6679.8685   -31265.234   -3701.6577    455.57001   -5071.5997    83.249866 
   33100     469.6956    -100.9238   0.42499045   -100.49881     14253.52    4.3362165    4.3362165    4.3362165     14253.52    7965.9979    29176.606    5617.9568   -3752.7371    828.19706    3459.4983    81.532899 
   33200    465.86285   -100.92707   0.42152249   -100.50555   -1793.8229    4.3556626    4.3556626    4.3556626   -1793.8229    403.06768    8665.3819   -14449.918    4927.9487    1168.5325   -8569.2471    82.634745 
   33300    726.80817   -101.16069   0.65763131   -100.50306   -11231.991    4.3526857    4.3526857    4.3526857   -11231.991   -12111.649   -7114.9785   -14469.345   -3306.2064    1037.8507     3598.515    82.465428 
   33400    340.63747   -100.81268   0.30821594   -100.50446    20168.247    4.3383025    4.3383025    4.3383025    20168.247    17073.754    34730.767     8700.219    5788.0044   -150.15604   -5721.9396    81.650621 
   33500    473.14181   -100.93208   0.42810865   -100.50397   -15099.862    4.3658472    4.3658472    4.3658472   -15099.862   -21866.118    5919.4119    -29352.88   -3469.7585    2994.2152   -1439.7858    83.215761 
   33600    615.95521   -101.05543   0.55732922    -100.4981    19094.058    4.3343101    4.3343101    4.3343101    19094.058    9213.3245    44431.748    3637.1019   -4757.4841    -1778.816   -1312.6035    81.425406 
   33700      390.114    -100.8584   0.35298334   -100.50542   -18114.836    4.3598842    4.3598842    4.3598842   -18114.836   -6824.6083   -29386.287   -18133.614    2339.7478    2250.2956   -6729.8894    82.875249 
   33800    616.44917   -101.06011   0.55777616   -100.50233   -1119.5882    4.3497506    4.3497506    4.3497506   -1119.5882   -1992.5018    12477.435   -13843.698   -2529.4005    748.29001   -68.178633    82.298717 
   33900    432.04154   -100.89623   0.39092026   -100.50531    10731.612    4.3392614    4.3392614    4.3392614    10731.612     2767.671    35080.874   -5653.7095    9146.6772   -471.51589    -8235.598    81.704776 
   34000    424.63188   -100.88889   0.38421585   -100.50468   -6315.5984    4.3637272    4.3637272    4.3637272   -6315.5984   -8587.2346    14178.409    -24537.97   -2596.7313    102.81293   -268.60359    83.094596 
   34100    546.71033   -101.00008   0.49467499    -100.5054     6653.446    4.3382015    4.3382015    4.3382015     6653.446    3510.7319    20474.785   -4025.1786    4342.1979     1120.445   -4962.5479    81.644918 
   34200    558.78053   -101.01756   0.50559636   -100.51196   -2256.1892    4.3545754    4.3545754    4.3545754   -2256.1892   -3008.8562    15414.661   -19174.372   -1905.5468   -231.28813   -1792.4802    82.572881 
   34300     549.6428   -101.00291   0.49732835   -100.50558    -7691.207    4.3550018    4.3550018    4.3550018    -7691.207   -12016.403    7293.0681   -18350.286   -1779.9565   -64.287828    831.28964    82.597142 
   34400    226.88035   -100.70969   0.20528611   -100.50441    12480.604    4.3362148    4.3362148    4.3362148    12480.604     13483.16    24525.495   -566.84348    9743.7808    1607.3999   -5781.7574    81.532801 
   34500    823.06738   -101.24319   0.74472867   -100.49846   -15001.481    4.3627686    4.3627686    4.3627686   -15001.481   -15853.662   -3945.8574   -25204.923   -4284.5906   -1608.8261    6049.3471    83.039848 
   34600    347.13576   -100.81785   0.31409573   -100.50376   -935.56264    4.3407954    4.3407954    4.3407954   -935.56264    10003.364   -9777.3033   -3032.7487    13634.348    258.47891   -8503.2523    81.791456 
   34700     491.6868   -100.95205   0.44488855   -100.50716    6594.9686    4.3473088    4.3473088    4.3473088    6594.9686    6427.2822    23580.316   -10222.692   -9999.2217   -1363.1925    2563.0986    82.160194 
   34800    466.46471   -100.92841   0.42206708   -100.50635   -4872.6584    4.3614217    4.3614217    4.3614217   -4872.6584   -15397.972    23145.363   -22365.366    2409.8406    251.02599    -5507.638    82.962958 
   34900    413.69236   -100.87667   0.37431754   -100.50235    15862.099    4.3360224    4.3360224    4.3360224    15862.099    12647.432    36659.213   -1720.3466    315.00683   -2354.7706   -2548.2648    81.521947 
   35000     601.9807   -101.04466   0.54468479   -100.49998   -12497.947     4.357963     4.357963     4.357963   -12497.947   -8171.8087   -14093.886   -15228.146   -1249.5957    355.29258   -212.43715    82.765745 
   35100    467.06313   -100.92815   0.42260853   -100.50554   -7414.7177    4.3498169    4.3498169    4.3498169   -7414.7177   -11777.075    2050.3912   -12517.469    14742.745   -1516.4738   -4483.1131     82.30248 
   35200    584.58845   -101.03219   0.52894791   -100.50324    10354.257    4.3421278    4.3421278    4.3421278    10354.257    7121.2422    31683.829   -7742.2997   -5118.1923   -219.29971    3106.4188    81.866797 
   35300    327.51209   -100.80548   0.29633982   -100.50914   -17440.173    4.3609275    4.3609275    4.3609275   -17440.173    -16334.89   -13973.794   -22011.835    10365.792   -301.28353   -6120.7094    82.934763 
   35400    600.90927   -101.04933   0.54371533   -100.50561     12063.24    4.3395989    4.3395989    4.3395989     12063.24    17210.832    23777.921    -4799.034   -5396.6243   -277.29007     4708.403    81.723841 
   35500    620.61618   -101.06747   0.56154656   -100.50593   -9740.9059    4.3562676    4.3562676    4.3562676   -9740.9059    -4302.597    -2876.388   -22043.733    9808.0117    445.15781   -4230.6833    82.669181 
   35600     243.6225   -100.72875   0.22043475   -100.50832    9848.0914    4.3479457    4.3479457    4.3479457    9848.0914    7918.5291    35155.454   -13529.708    6629.7055   -1342.2763   -797.85151     82.19631 
   35700    571.23569    -101.0205   0.51686605   -100.50364    9612.6234    4.3454635    4.3454635    4.3454635    9612.6234    14137.753    25932.601   -11232.484    5209.0812    1810.3328    4293.4363    82.055617 
   35800     491.7201   -100.95114   0.44491868   -100.50622   -9274.6542    4.3570021    4.3570021    4.3570021   -9274.6542   -8002.7739    3149.8505   -22971.039    7123.0496   -2161.0647   -4536.2991    82.711005 
   35900    597.09067   -101.04139   0.54026019   -100.50113    85.631411    4.3443591    4.3443591    4.3443591    85.631411     16805.97   -6686.2784   -9862.7977   -5015.4557    2376.7037    6168.0102    81.993071 
   36000    450.60117   -100.91416   0.40771341   -100.50645   -9091.2764     4.351657     4.351657     4.351657   -9091.2764   -14760.354    1291.0616   -13804.537    7766.9736    -1592.102   -3767.9867    82.406976 
   36100    513.18415   -100.96942   0.46433981   -100.50508    3694.7012    4.3502362    4.3502362    4.3502362    3694.7012   -1823.2946    32507.259    -19599.86   -1492.5521    1373.7601    2146.0207    82.326286 
   36200    523.02341   -100.97727   0.47324258   -100.50402     902.6795    4.3467575    4.3467575    4.3467575     902.6795   -962.58276    14568.439   -10897.817    8180.0802    378.02968   -1481.4629    82.128942 
   36300    407.19929    -100.8742   0.36844247   -100.50575   -1231.0511     4.352374     4.352374     4.352374   -1231.0511   -6102.2382    14072.684     -11663.6    7660.7373   -143.08256   -2474.2254    82.447712 
   36400    710.96175   -101.14633   0.64329313   -100.50304    229.09562    4.3504711    4.3504711    4.3504711    229.09562    3222.4102    16460.903   -18996.027   -2050.1981    3049.3475    1835.7282    82.339618 
   36500    321.15927   -100.79724   0.29059166   -100.50665    8791.5845    4.3451746    4.3451746    4.3451746    8791.5845   -480.49716    33402.026   -6546.7751     8729.757   -497.35096   -5090.2376    82.039253 
   36600    467.07338   -100.92771   0.42261781   -100.50509   -3526.7354    4.3544102    4.3544102    4.3544102   -3526.7354   -2219.7364    8007.8044   -16368.274   -2655.8597    3590.0814    4535.8499    82.563486 
   36700    639.89166   -101.08342   0.57898742   -100.50443    907.32016    4.3461361    4.3461361    4.3461361    907.32016    6610.6223    4648.3763   -8537.0381    8971.7502    249.61518   -3564.3162    82.093727 
   36800    531.34988    -100.9872   0.48077654   -100.50642   -8110.4874    4.3504933    4.3504933    4.3504933   -8110.4874   -3189.8673   -8581.3799   -12560.215     7935.746    1889.6876    528.97224    82.340879 
   36900    472.11919   -100.93154   0.42718337   -100.50436     5495.876    4.3496568    4.3496568    4.3496568     5495.876    8006.2308    15576.189   -7094.7916    398.41811    1110.2006   -632.50043    82.293393 
   37000    416.21698   -100.88265   0.37660187   -100.50605     3512.341    4.3506357    4.3506357    4.3506357     3512.341   -7652.2589    31999.626   -13810.344    5374.0969    753.11366   -3588.5444     82.34897 
   37100     598.4759   -101.04477   0.54151357   -100.50326    8686.5992    4.3476422    4.3476422    4.3476422    8686.5992    16658.468    21415.708   -12014.379    -5882.391    27.393515    1390.4597    82.179104 
   37200    398.29551    -100.8651   0.36038615   -100.50471   -5549.6168    4.3515824    4.3515824    4.3515824   -5549.6168   -7077.0128   -5451.1688   -4120.6689    5475.1219     438.2063    -2022.639    82.402739 
   37300     552.3834   -101.00505    0.4998081   -100.50525   -1345.7256    4.3476088    4.3476088    4.3476088   -1345.7256    6607.4416    3520.9129   -14165.531    3546.6723    747.07522     4485.702    82.177206 
   37400    583.92003   -101.03422   0.52834311   -100.50588   -964.84655    4.3498418    4.3498418    4.3498418   -964.84655   -5613.9095    14315.807   -11596.437    4190.1294   -1053.7079    1459.1496    82.303896 
   37500    263.10497   -100.74594    0.2380629   -100.50788   -8475.6306    4.3525459    4.3525459    4.3525459   -8475.6306   -14045.725    759.20821   -12140.375     4943.581    2502.5061    3016.9389    82.457486 
   37600     639.2797   -101.08283   0.57843371    -100.5044     7053.297    4.3419769    4.3419769    4.3419769     7053.297    13515.933    17403.716   -9759.7584   -4596.9767   -720.64466    3825.3587     81.85826 
   37700    518.94485   -100.97545   0.46955221   -100.50589   -19598.445    4.3624223    4.3624223    4.3624223   -19598.445   -17396.405   -21376.242   -20022.688    10064.538    73.245635   -3087.3859    83.020074 
   37800    551.17151   -100.99878   0.49871157   -100.50007    16701.418    4.3356011    4.3356011    4.3356011    16701.418    27055.123    25320.875   -2271.7433   -3208.1385    1066.4664    3572.2064     81.49819 
   37900    299.78863   -100.77567   0.27125505   -100.50441   -3472.0778    4.3590523    4.3590523    4.3590523   -3472.0778   -1563.1033    8332.6937   -17185.824     15471.07   -1263.0762   -3900.0615    82.827823 
   38000    623.43097   -101.06575   0.56409345   -100.50166    6237.4473    4.3460194    4.3460194    4.3460194    6237.4473    3838.0333    30684.149   -15809.841     1431.019    657.98262    804.16859    82.087112 
   38100    463.01416   -100.92348   0.41894495   -100.50453    4275.4028    4.3446089    4.3446089    4.3446089    4275.4028    11198.127    7316.1093   -5688.0281    7640.9342   -3247.9199    369.78211    82.007214 
   38200    458.24188    -100.9204   0.41462689   -100.50578   -23795.058    4.3594235    4.3594235    4.3594235   -23795.058   -20171.556    -33882.78   -17330.837    3291.8688     198.2637    908.29952    82.848984 
   38300    733.81686   -101.16513   0.66397292   -100.50116    12927.722    4.3365309    4.3365309    4.3365309    12927.722    17167.985    27197.388   -5582.2062   -2243.6448   -3595.9666    1489.9124    81.550634 
   38400    339.39068   -100.81369   0.30708782    -100.5066   -17356.524    4.3621893    4.3621893    4.3621893   -17356.524   -30047.222   -4545.7067   -17476.642    10477.218   -883.38477   -405.80347    83.006773 
   38500    448.48515   -100.90663   0.40579879   -100.50083    17286.799     4.338852     4.338852     4.338852    17286.799    11166.285    44783.867    -4089.756   -446.08526   -1534.0582    741.45786     81.68165 
   38600    588.90718   -101.03692   0.53285559   -100.50406   -11616.654    4.3554212    4.3554212    4.3554212   -11616.654   -9865.7011   -10371.419   -14612.842    10877.763   -2760.3599   -2361.0965    82.621007 
   38700    522.14136   -100.97653   0.47244447   -100.50408     3724.164    4.3470003    4.3470003    4.3470003     3724.164   -2129.9282    19054.173    -5751.753   -2172.1746    604.71291    1037.9122    82.142706 
   38800    468.82568   -100.92898   0.42420333   -100.50478    1957.3249    4.3465293    4.3465293    4.3465293    1957.3249    3614.8447    9445.4326   -7188.3027    1998.0587   -3585.6011    1446.0169    82.116007 
   38900    381.40101   -100.85222   0.34509964   -100.50712   -6933.7122    4.3568588    4.3568588    4.3568588   -6933.7122   -16605.439    9154.7256   -13350.423    2917.4822    1392.8079     1648.105    82.702849 
   39000    675.33647   -101.11286   0.61105863    -100.5018     9937.273    4.3387503    4.3387503    4.3387503     9937.273    7478.8704    26720.867   -4387.9185    2769.6959   -4995.4679    3214.8658    81.675907 
   39100    396.70733   -100.86461   0.35894913   -100.50566   -19113.352    4.3609114    4.3609114    4.3609114   -19113.352   -15870.894   -30670.959   -10798.202    9085.2204    1563.9424     1207.977    82.933845 
   39200    631.71867   -101.07464   0.57159233   -100.50305    9120.2415    4.3404591    4.3404591    4.3404591    9120.2415    7389.0347    25392.506   -5420.8161   -2488.4676   -5219.8432     1426.059    81.772451 
   39300    475.22557   -100.93564   0.42999408   -100.50565    1599.5149    4.3522494    4.3522494    4.3522494    1599.5149   -4842.3883    19255.428   -9614.4953    6190.9552   -889.29922   -1313.3065    82.440636 
   39400    336.31194   -100.80958   0.30430211   -100.50528    3480.1292    4.3502742    4.3502742    4.3502742    3480.1292   -10199.348     29716.43    -9076.694   -5944.2039   -1018.6626    512.69289    82.328441 
   39500    592.46283   -101.04063   0.53607282   -100.50456    5940.9313    4.3413297    4.3413297    4.3413297    5940.9313    15015.066    8466.0402   -5658.3129    2936.2626   -5532.1676   -236.77958    81.821664 
   39600    541.99919   -100.99681   0.49041226    -100.5064   -16186.707    4.3601093    4.3601093    4.3601093   -16186.707   -25382.751    -9409.807   -13767.564    2120.9891     2299.272    886.31832    82.888088 
   39700    512.55748   -100.96766   0.46377278   -100.50388    6133.2583    4.3373669    4.3373669    4.3373669    6133.2583    7002.1991    17366.898   -5969.3223   -1647.8916    -5963.567    4835.5899    81.597809 
   39800    418.69821   -100.88831   0.37884694   -100.50946   -9693.0431     4.356544     4.356544     4.356544   -9693.0431     -17875.6    2176.3877   -13379.917    2196.9304    2677.3034    228.28594    82.684921 
   39900    522.55699   -100.97985   0.47282054   -100.50703    -613.2233    4.3483601    4.3483601    4.3483601    -613.2233   -11533.966    21674.045   -11979.749   -6974.5203   -3925.9776    3850.2918    82.219818 
   40000    636.24146   -101.07905   0.57568464   -100.50336    308.68966    4.3442597    4.3442597    4.3442597    308.68966    5505.2539    3809.1847   -8388.3696    132.73134    2230.9108    -532.3652    81.987442 
   40100    380.23608   -100.84814   0.34404559   -100.50409   -6553.5195    4.3567583    4.3567583    4.3567583   -6553.5195   -10133.642     742.0174   -10268.934    3561.3206   -2109.7813    810.19396    82.697125 
   40200    548.55552   -100.99836   0.49634456   -100.50202    13034.736    4.3401743    4.3401743    4.3401743    13034.736    7500.4092    40974.056   -9370.2579    1020.8664   -694.07197   -1633.7332    81.756354 
   40300     462.4346   -100.92408   0.41842055   -100.50565   -780.19704    4.3540866    4.3540866    4.3540866   -780.19704   -8266.9137    17187.208   -11260.886     11752.22    806.88352    1166.3109    82.545079 
   40400    438.96283   -100.90252   0.39718279   -100.50534   -1562.3324    4.3450413    4.3450413    4.3450413   -1562.3324     1522.361    485.02208   -6694.3802   -5486.5528   -4534.5285    1614.8443    82.031702 
   40500    677.67414   -101.11876   0.61317381   -100.50559   -8208.1311    4.3507773    4.3507773    4.3507773   -8208.1311   -3357.0216   -9941.3476   -11326.024    8679.0262    3064.6428     1298.887     82.35701 
   40600    445.02834   -100.91157     0.402671    -100.5089    1026.9026    4.3489195    4.3489195    4.3489195    1026.9026   -11948.708    22558.418   -7529.0027   -3773.8813   -5963.7366    2971.0149    82.251555 
   40700    473.81441   -100.93606   0.42871723   -100.50734    2935.3138    4.3497556    4.3497556    4.3497556    2935.3138     2675.552    21799.495   -15669.106    7755.0219    2851.7656   -218.76766    82.299002 
   40800    414.13351   -100.88134    0.3747167   -100.50662     6633.655    4.3481949    4.3481949    4.3481949     6633.655   -6815.4407    29586.939   -2870.5332    5362.4087   -4289.4662   -627.93765    82.210446 
   40900    607.22601   -101.05693   0.54943085    -100.5075    -2790.356    4.3492911    4.3492911    4.3492911    -2790.356    2293.0683    5141.0208   -15805.157   -1915.5196    1387.4785    1862.3169    82.272638 
   41000    534.27223    -100.9873   0.48342074   -100.50388   -211.36736    4.3518249    4.3518249    4.3518249   -211.36736   -3549.5783    12482.789   -9567.3128    1470.5908    -641.7838   -352.86081    82.416511 
   41100    250.56724   -100.73376    0.2267185   -100.50704    2523.2173    4.3443815    4.3443815    4.3443815    2523.2173   -573.34183    15824.868   -7681.8745   -9499.0835   -2395.3258    3829.7611     81.99434 
   41200    694.72358   -101.13271    0.6286005    -100.5041   -2581.1483    4.3536675    4.3536675    4.3536675   -2581.1483    -9971.729    21177.241   -18948.957    -2822.094    3844.9172    1667.9548    82.521247 
   41300    393.12159   -100.86405   0.35570468   -100.50834   -2685.9202    4.3458726    4.3458726    4.3458726   -2685.9202    582.59136    354.20801     -8994.56   -1842.1215   -5267.3891    3756.1722    82.078794 
   41400    524.62199   -100.98247     0.474689   -100.50778   -5456.1718    4.3505985    4.3505985    4.3505985   -5456.1718   -7641.7572    1591.6712   -10318.429   -2739.8942    5208.0583   -1018.5251    82.346855 
   41500     621.1314   -101.06841   0.56201274    -100.5064    3270.2198    4.3493319    4.3493319    4.3493319    3270.2198    64.095187    23004.975   -13258.411    4739.4532   -4440.2154   -656.17221    82.274955 
   41600    302.38918   -100.78404   0.27360808   -100.51043     5780.062    4.3472722    4.3472722    4.3472722     5780.062   -7821.2562    42371.589   -17210.146   -6854.2857    2428.0718   -444.82578    82.158121 
   41700    617.15408   -101.06155   0.55841398   -100.50313    2559.3199    4.3506052    4.3506052    4.3506052    2559.3199    2236.2473    13741.446   -8299.7331    3020.3523   -971.95047   -3606.4464    82.347238 
   41800    350.36159   -100.82679   0.31701453   -100.50977   -5467.5815    4.3485449    4.3485449    4.3485449   -5467.5815   -5259.4059    8078.7355   -19222.074   -4528.4476   -515.88704    2903.3592    82.230303 
   41900    746.00487   -101.17992   0.67500089   -100.50491   -1743.6812    4.3489882    4.3489882    4.3489882   -1743.6812   -722.08575    6586.1059   -11095.064    3879.6533    2844.8329    1884.4839    82.255448 
   42000    284.22796   -100.76478   0.25717543    -100.5076   -1908.2032    4.3519094    4.3519094    4.3519094   -1908.2032   -1117.0018    12886.171   -17493.778    1705.7103   -2080.4786    445.82419    82.421317 
   42100    431.10992   -100.89839   0.39007732   -100.50831    783.18615    4.3466179    4.3466179    4.3466179    783.18615   -5335.4857    23885.318   -16200.274      1421.72    5857.0622    3332.4246    82.121029 
   42200    708.26342    -101.1441   0.64085163   -100.50325    1684.1028    4.3523588    4.3523588    4.3523588    1684.1028   -2196.4902    21344.906   -14096.107   -2384.4869   -2701.2552   -1617.6403    82.446852 
   42300    352.31346    -100.8272   0.31878062   -100.50842   -6448.8263    4.3488699    4.3488699    4.3488699   -6448.8263   -10614.919    9644.5352   -18376.095   -4473.3873    6284.4161    2447.0815    82.248741 
   42400     642.9297   -101.08625    0.5817363   -100.50452    7836.6544    4.3458194    4.3458194    4.3458194    7836.6544    6642.7211    19759.098   -2891.8556   -5186.2615   -353.12681    39.464168    82.075779 
   42500    431.46012   -100.90069   0.39039419   -100.51029   -2466.5298    4.3537566    4.3537566    4.3537566   -2466.5298   -16357.611    35414.363   -26456.341   -1378.4891     2323.722    3424.4659    82.526312 
   42600    469.68691   -100.93269   0.42498258   -100.50771    6279.5494    4.3442089    4.3442089    4.3442089    6279.5494    445.12582    20096.729   -1703.2066   -6598.0603    3082.6603    2719.5533    81.984568 
   42700    551.80657   -101.00612   0.49928618   -100.50684   -12315.223    4.3541173    4.3541173    4.3541173   -12315.223   -4090.9135   -13853.991   -19000.764    2527.7932   -1098.5632   -298.35222    82.546825 
   42800    483.70533   -100.94666   0.43766675   -100.50899    2789.4081    4.3450461    4.3450461    4.3450461    2789.4081   -8496.9821    24807.407    -7942.201   -8380.8706    4489.1254    2706.5878    82.031974 
   42900     600.9946   -101.04887   0.54379255   -100.50508    418.52717    4.3529041    4.3529041    4.3529041    418.52717   -4523.3675    20492.279    -14713.33    1156.8665   -1536.9359   -5525.0526    82.477842 
   43000    243.23486   -100.72729   0.22008401    -100.5072    5933.2859    4.3484782    4.3484782    4.3484782    5933.2859   -4868.7026    36832.164   -14163.603   -3898.0147    3870.0365    283.12335    82.226518 
   43100    716.77134   -101.15258   0.64854977   -100.50403   -2635.6107    4.3472509    4.3472509    4.3472509   -2635.6107   -6566.7895    3434.5407   -4774.5833    868.52518   -554.31448   -3571.1713    82.156915 
   43200    526.42285   -100.98226   0.47631846   -100.50594    358.82735    4.3531394    4.3531394    4.3531394    358.82735   -4438.8762    25044.519   -19529.161    1393.2732    3212.0457     1450.578    82.491221 
   43300    401.34504   -100.86998   0.36314543   -100.50684   -2729.1903    4.3463725    4.3463725    4.3463725   -2729.1903   -8625.1734    4288.5994   -3850.9969   -933.61263    691.04034    1294.8851    82.107123 
   43400    503.65857     -100.964   0.45572086   -100.50828    3536.1372    4.3487712    4.3487712    4.3487712    3536.1372   -640.95418    26668.685   -15419.319    286.18413    1567.5409    335.90981    82.243139 
   43500    524.54522   -100.98306   0.47461954   -100.50844   -5319.8579    4.3522233    4.3522233    4.3522233   -5319.8579   -11043.173    7418.3008   -12334.702   -5036.3152    2411.9683     2380.382    82.439151 
   43600    543.81636   -100.99735   0.49205647   -100.50529    -2045.156    4.3444692    4.3444692    4.3444692    -2045.156   -2363.8133    2479.9953   -6251.6499   -298.59061    84.546482   -2771.4221    81.999304 
   43700    449.12002   -100.91289   0.40637323   -100.50652    661.37985    4.3534232    4.3534232    4.3534232    661.37985   -7270.5503    26226.843   -16972.153   -1600.7853    3454.2285    2992.3747    82.507356 
   43800    498.84051   -100.95854   0.45136138   -100.50718    1349.1828    4.3488561    4.3488561    4.3488561    1349.1828   -16066.262    29155.561   -9041.7505    -5876.471    137.87065   -409.52731    82.247957 
   43900    515.67096   -100.97409   0.46658992    -100.5075    5156.2225    4.3446523    4.3446523    4.3446523    5156.2225    71.124475    28605.634   -13208.091    4390.4133    3589.2216   -228.49726    82.009672 
   44000     489.1523   -100.94848   0.44259528   -100.50589   -20484.992    4.3591829    4.3591829    4.3591829   -20484.992   -21948.216   -26400.083   -13106.676   -11453.141    157.96632     5112.176    82.835267 
   44100     607.6901   -101.05239   0.54985077   -100.50254    5218.4998    4.3389333    4.3389333    4.3389333    5218.4998   -5048.1863    29039.046   -8335.3599    5567.7585    3902.1703   -2702.5547    81.686245 
   44200    416.81742   -100.88114   0.37714516   -100.50399   -7602.9834    4.3579429    4.3579429    4.3579429   -7602.9834   -16647.393     14108.78   -20270.338   -4147.8186     783.4469    3369.8288    82.764595 
   44300    397.02918   -100.86413   0.35924035   -100.50489    800.54037    4.3434876    4.3434876    4.3434876    800.54037   -9966.2311    17221.013   -4853.1608      5004.34    2794.3615   -4233.5455    81.943737 
   44400    607.73578   -101.05442    0.5498921   -100.50453   -1664.5671    4.3496153    4.3496153    4.3496153   -1664.5671   -9146.5289    19067.573   -14914.746    243.31522    1583.9761    950.13525    82.291037 
   44500    569.36695   -101.01989   0.51517519   -100.50471   -7536.7672    4.3522881    4.3522881    4.3522881   -7536.7672   -13266.295    2899.9788   -12243.985   -1404.8593    2164.2812   -1461.2425    82.442835 
   44600    376.79491   -100.84689   0.34093195   -100.50596    7193.0762     4.342136     4.342136     4.342136    7193.0762   -6798.1028    38013.516    -9636.185    4041.9507    2402.9095   -123.69399    81.867263 
   44700    497.29852   -100.95469   0.44996615   -100.50472   -5485.8235    4.3561571    4.3561571    4.3561571   -5485.8235   -10461.559    10835.687   -16831.599    -4109.163   -143.71219    4493.0913    82.662895 
   44800     515.1874   -100.97195   0.46615238   -100.50579   -400.85544    4.3420778    4.3420778    4.3420778   -400.85544   -12400.534    21852.655   -10654.687    6341.1021    4202.8147   -3294.9904    81.863972 
   44900    542.60552   -100.99588   0.49096088   -100.50492   -9967.2008    4.3528034    4.3528034    4.3528034   -9967.2008   -2267.8946   -14657.355   -12976.353   -4039.0966   -2735.8956    4214.0922    82.472121 
   45000    493.48829    -100.9521   0.44651857   -100.50559   -6418.1725    4.3509317    4.3509317    4.3509317   -6418.1725   -15042.265    9094.1556   -13306.408   -221.17849    3552.5794   -3467.1688    82.365775 
   45100    456.64811   -100.91894   0.41318481   -100.50576    10580.299    4.3435313    4.3435313    4.3435313    10580.299   -800.44354    45223.081    -12681.74    688.97941   -2588.3582   -883.17477    81.946211 
   45200    496.53211   -100.95457   0.44927268    -100.5053    -1303.958    4.3550361    4.3550361    4.3550361    -1303.958   -8455.4752    18541.554   -13997.953   -6726.2754    1326.4581   -392.54959    82.599094 
   45300    415.94018    -100.8826   0.37635141   -100.50625   -2126.8696    4.3465502    4.3465502    4.3465502   -2126.8696   -10809.934    17827.827   -13398.502    5853.4117   -1371.2685   -269.87758    82.117193 
   45400    719.85064   -101.15717   0.65133599   -100.50584    2772.3734    4.3479001    4.3479001    4.3479001    2772.3734    2609.1536    14385.828   -8677.8616    -3286.163   -972.85706    1623.4314    82.193725 
   45500    386.29961   -100.85832   0.34953201   -100.50879   -11104.992    4.3538821    4.3538821    4.3538821   -11104.992   -22587.602    10616.806    -21344.18    7964.7944   -118.05856   -372.17957    82.533449 
   45600    416.05975    -100.8807   0.37645961   -100.50424    8333.5935    4.3403241    4.3403241    4.3403241    8333.5935    5270.8697    23965.709   -4235.7987    276.70641   -4242.4691     1696.333    81.764818 
   45700    553.71727   -101.00641   0.50101503    -100.5054   -6953.1439    4.3555376    4.3555376    4.3555376   -6953.1439   -14966.148    16013.515   -21906.798    4516.2564    2593.1943   -2694.7689     82.62763 
   45800    503.19377   -100.96239    0.4553003   -100.50709   -5933.8092    4.3440633    4.3440633    4.3440633   -5933.8092   -9491.1856    7107.1405   -15417.383    2243.5714    -7881.183   -2264.9064    81.976326 
   45900    580.09962   -101.03132   0.52488633   -100.50643    5530.4534    4.3483109    4.3483109    4.3483109    5530.4534    3406.2006    20404.506   -7219.3465    1529.3749    3236.9237    2114.5543    82.217026 
   46000    334.70142   -100.81458   0.30284488   -100.51174   -9696.6599    4.3543099    4.3543099    4.3543099   -9696.6599   -18061.832    18942.533   -29970.681    2773.2094   -6582.3624   -5028.8557    82.557778 
   46100    607.63286   -101.05426   0.54979898   -100.50446     19476.83    4.3388577    4.3388577    4.3388577     19476.83    5211.7476    56104.196   -2885.4548   -588.11237   -1271.7629    4458.9954    81.681974 
   46200    386.77968   -100.85681   0.34996638   -100.50684   -13544.078     4.358677     4.358677     4.358677   -13544.078   -9234.3084   -2368.0654   -29029.859   -1102.9139   -2031.9731   -1654.9089     82.80643 
   46300    523.80264   -100.97719   0.47394763   -100.50325   -1372.1216    4.3426378    4.3426378    4.3426378   -1372.1216    493.92904    3232.8932   -7843.1871   -322.57063   -5597.6687   -312.35234    81.895648 
   46400    695.91949    -101.1329   0.62968258   -100.50321    801.15297    4.3474352    4.3474352    4.3474352    801.15297    7371.4816    10017.344   -14985.367    -4608.668    89.988132    -1992.258    82.167366 
   46500    300.58034   -100.78151   0.27197141   -100.50954   -10073.532    4.3556443    4.3556443    4.3556443   -10073.532   -17499.164    11833.487   -24554.919   -531.86892   -5349.1697   -2990.4639    82.633703 
   46600    549.23912   -100.99893    0.4969631   -100.50197    19854.432     4.339617     4.339617     4.339617    19854.432    21470.624    38617.215    -524.5434   -1914.7257    636.81976   -676.05495    81.724864 
   46700    430.85332   -100.89683   0.38984513   -100.50698   -9110.2254    4.3554513    4.3554513    4.3554513   -9110.2254   -20953.858    22811.228   -29188.046    1389.1956   -6091.3852   -2378.4192    82.622721 
   46800    585.66651   -101.03449   0.52992336   -100.50457    4347.2974    4.3468242    4.3468242    4.3468242    4347.2974    3719.5044    13753.583   -4431.1952    1278.1106    1853.2276    1234.0767    82.132723 
   46900    595.39758   -101.04351   0.53872824   -100.50478   -3128.2465     4.345476     4.345476     4.345476   -3128.2465    -1269.035    5961.8663   -14077.571    4247.4239    -6611.868   -230.33426    82.056325 
   47000    314.52228   -100.79338   0.28458637    -100.5088   -7927.9937    4.3554992    4.3554992    4.3554992   -7927.9937   -21384.411    15829.175   -18228.744    2729.4731    246.56842   -1118.0835    82.625446 
   47100    640.00408   -101.08247   0.57908914   -100.50338    10890.386    4.3398062    4.3398062    4.3398062    10890.386    1584.7796    33931.229    -2844.851    4295.1633   -1967.7952     536.3757    81.735555 
   47200      412.328   -100.88245   0.37308304   -100.50936   -12988.492    4.3544477    4.3544477    4.3544477   -12988.492   -9155.8924   -7750.2916   -22059.293    4207.7439   -4760.7479   -3192.3146    82.565618 
   47300    535.07486   -100.98985   0.48414698    -100.5057    696.58379     4.346409     4.346409     4.346409    696.58379   -9037.8956    13046.076   -1918.4286    4937.4545    2423.0193   -1026.4613    82.109189 
   47400    617.98468   -101.06417   0.55916553     -100.505    3441.0988    4.3450447    4.3450447    4.3450447    3441.0988    7745.1495    13985.189   -11407.042    -1405.507     -5472.13    1807.3269    82.031895 
   47500     371.8893   -100.84334   0.33649325   -100.50685   -421.64743    4.3549958    4.3549958    4.3549958   -421.64743   -10072.668    24120.884   -15313.158    3459.5227     2350.807     182.4966    82.596799 
   47600    469.26326   -100.92723   0.42459926   -100.50263    12683.181    4.3403417    4.3403417    4.3403417    12683.181    9584.2551    31462.124   -2996.8361   -5825.5043   -5167.3649    2815.7416    81.765813 
   47700    466.28139   -100.92823    0.4219012   -100.50633   -6171.5595    4.3529661    4.3529661    4.3529661   -6171.5595   -6270.7482    1031.2956   -13275.226    2511.7157    2920.7938   -528.73375    82.481366 
   47800    674.16266   -101.11318   0.60999654   -100.50318   -3991.5019    4.3488186    4.3488186    4.3488186   -3991.5019    4018.1845   -6086.8325   -9905.8579   -1303.0437   -4516.6101    614.63805    82.245831 
   47900    410.58533     -100.877   0.37150623    -100.5055    1816.8508    4.3442593    4.3442593    4.3442593    1816.8508    859.49929     12190.28   -7599.2264   -108.25926    663.63674   -4659.6511    81.987419 
   48000    374.70049   -100.84714   0.33903688    -100.5081   -65.952028    4.3534823    4.3534823    4.3534823   -65.952028   -13145.112    23777.668   -10830.412    1298.4935    811.23814   -2200.3683    82.510712 
   48100    693.84798     -101.131   0.62780824   -100.50319    4085.4359    4.3460291    4.3460291    4.3460291    4085.4359     6200.639    21548.194   -15492.525   -1331.2133   -3952.8129   -2996.6792    82.087661 
   48200    283.58657   -100.76398   0.25659509   -100.50739    440.38051    4.3467088    4.3467088    4.3467088    440.38051   -15406.751    17661.081   -933.18844    2763.3633    4085.1102   -1233.0548    82.126181 
   48300    693.03625   -101.13126   0.62707376   -100.50418   -11120.204    4.3554072    4.3554072    4.3554072   -11120.204   -10407.953   -5930.6522   -17022.005   -1503.6218   -3763.8824    702.85745    82.620212 
   48400    506.27275   -100.96467   0.45808622   -100.50658    11006.033    4.3369039    4.3369039    4.3369039    11006.033    4016.1757    33276.866   -4274.9436    2536.8563    2837.6489   -417.62292    81.571677 
   48500    321.08602   -100.79788   0.29052537   -100.50735   -11930.966    4.3594106    4.3594106    4.3594106   -11930.966    -27276.25    4718.4958   -13235.143    199.02809    -1933.609   -2171.6883    82.848245 
   48600    619.32425   -101.06228    0.5603776   -100.50191    2589.1144    4.3422176    4.3422176    4.3422176    2589.1144    5689.0689    10455.951   -8377.6767    44.883155    3302.3667    -1625.228     81.87188 
   48700    472.67426    -100.9346    0.4276856   -100.50692   -1270.8235    4.3451001    4.3451001    4.3451001   -1270.8235    -1292.077    772.26145   -3292.6551    1973.7475   -1330.9364   -3072.9996    82.035035 
   48800    684.04553   -101.11991   0.61893877   -100.50097   -13693.783    4.3597139    4.3597139    4.3597139   -13693.783   -13776.928    -7768.511    -19535.91   -5941.0189    1696.1087    132.06296    82.865542 
   48900    183.32335   -100.67126   0.16587482   -100.50539    23539.467    4.3331362    4.3331362    4.3331362    23539.467    22015.371    42404.861    6198.1674     5935.612    3200.8185   -1447.4942    81.359263 
   49000    696.13436   -101.13462     0.629877   -100.50475   -11340.596    4.3604728    4.3604728    4.3604728   -11340.596   -15228.451    2281.7041   -21075.041   -5590.5096   -2441.4622    3926.8656    82.908822 
   49100    412.73196   -100.87765   0.37344855    -100.5042    13130.162    4.3422424    4.3422424    4.3422424    13130.162    17532.826    25694.547   -3836.8877    5717.9997    5206.9414   -50.226353     81.87328 
   49200    464.29043   -100.92569   0.42009974   -100.50559   -13391.216    4.3482147    4.3482147    4.3482147   -13391.216    -13100.76   -22879.871   -4193.0179   -3479.4379   -2033.8037   -1368.3945    82.211572 
   49300    693.45512   -101.12978   0.62745277   -100.50233   -2232.4177     4.352395     4.352395     4.352395   -2232.4177    4091.1872    3633.9913   -14422.432    1573.2035    1613.6845   -1710.4461    82.448909 
   49400    271.57191   -100.75479   0.24572397   -100.50907   -82.430253    4.3439761    4.3439761    4.3439761   -82.430253   -15081.544    18502.169   -3667.9158    759.39489    817.57169    -7410.117    81.971389 
   49500    580.85336   -101.02978   0.52556832   -100.50421   -1282.3867    4.3503055    4.3503055    4.3503055   -1282.3867   -9972.8479    17355.074   -11229.386    262.69025    337.70704   -2288.2594    82.330219 
   49600    422.73195   -100.88975   0.38249675   -100.50725   -3075.7964    4.3489493    4.3489493    4.3489493   -3075.7964   -5763.5158    6015.6416   -9479.5149    3647.3408    1081.3605   -3998.8186    82.253241 
   49700    633.59902   -101.07773   0.57329371   -100.50443   -3217.6288    4.3451196    4.3451196    4.3451196   -3217.6288    -10343.45    6333.5814   -5643.0179   -794.30725   -200.46858    -2634.846    82.036136 
   49800    460.79769   -100.92337   0.41693943   -100.50643   -584.75467    4.3513095    4.3513095    4.3513095   -584.75467   -10004.492    20274.494   -12024.266    3073.5627    1805.4818    2188.5709    82.387234 
   49900    308.96488   -100.78959   0.27955792   -100.51003    -2179.744    4.3485401    4.3485401    4.3485401    -2179.744   -1325.7576    4624.2325    -9837.707   -2441.3213   -738.96871   -3708.7029    82.230027 
   50000    776.45017    -101.2071   0.70254843   -100.50455    545.27249    4.3446951    4.3446951    4.3446951    545.27249   -4277.4504    14537.819   -8624.5515    674.25888    648.21507    512.90781    82.012094 
   50100    296.10705   -100.77676   0.26792389   -100.50884    -15012.79    4.3561039    4.3561039    4.3561039    -15012.79    -5097.834   -23312.246    -16628.29    3073.7964   -248.79321   -5559.9327    82.659867 
   50200    717.69376   -101.14999    0.6493844   -100.50061    5413.5814    4.3400629    4.3400629    4.3400629    5413.5814    4966.1647    15571.468   -4296.8882    1196.6815   -2317.9488   -910.53165    81.750057 
   50300    330.81683   -100.80547   0.29933002   -100.50614    408.14232    4.3545021    4.3545021    4.3545021    408.14232   -5531.7531    23183.529   -16427.349    5563.1998    597.54293   -683.37179    82.568711 
   50400    534.98827   -100.98785   0.48406863   -100.50378    4425.5434    4.3455657    4.3455657    4.3455657    4425.5434   -4941.9981    27757.975    -9539.347    1139.8761   -2725.5135     26.72056    82.061405 
   50500    567.17103   -101.01618   0.51318826     -100.503    1673.2595    4.3471834    4.3471834    4.3471834    1673.2595    3070.4819    8723.2021   -6773.9054    3425.0296   -934.13531    5223.7137    82.153085 
   50600    442.30998    -100.9076   0.40021137   -100.50739   -8997.0214    4.3512214    4.3512214    4.3512214   -8997.0214   -7736.7395   -7233.4828   -12020.842     2767.704   -1047.3836   -3591.0871    82.382232 
   50700    677.30068   -101.11507   0.61283589   -100.50224    6778.4912    4.3426232    4.3426232    4.3426232    6778.4912   -5924.3706    30180.221    -3920.377    3495.7645   -2944.2742    1568.0115    81.894823 
   50800    212.11025   -100.69968   0.19192182   -100.50776   -5928.4408    4.3531999    4.3531999    4.3531999   -5928.4408   -6771.0753    217.40354   -11231.651    3845.9672    129.14429   -4663.0607    82.494658 
   50900    635.84449   -101.07761   0.57532546   -100.50228    1802.0074    4.3457973    4.3457973    4.3457973    1802.0074   -8440.8148     18060.59   -4213.7526    3942.3379    -3642.771    -2804.769     82.07453 
   51000    521.37969   -100.97647    0.4717553   -100.50471   -4257.3862    4.3482797    4.3482797    4.3482797   -4257.3862   -6725.5445    44.663044   -6091.2771    2072.1476    667.65383   -457.04819    82.215258 
   51100    446.07531   -100.90919   0.40361831   -100.50557   -1800.2935    4.3511741    4.3511741    4.3511741   -1800.2935   -9165.9104    12037.452   -8272.4218     934.0346   -5148.5896   -377.46965    82.379542 
   51200    512.29196    -100.9678   0.46353253   -100.50427    11381.112    4.3436569    4.3436569    4.3436569    11381.112    685.78151    36032.401   -2574.8467   -877.60351   -461.40855    3725.7116     81.95332 
   51300    397.21379   -100.87003   0.35940739   -100.51063   -2276.6396    4.3534986    4.3534986    4.3534986   -2276.6396   -13336.998    21459.245   -14952.166    2820.9509   -3336.1227   -2180.6114     82.51164 
   51400    658.26197    -101.0975   0.59560926   -100.50189    3810.3862    4.3452039    4.3452039    4.3452039    3810.3862    3481.8228    14853.534   -6904.1984   -2068.8414   -3674.2316   -106.35074    82.040915 
   51500    385.74382    -100.8546   0.34902911   -100.50557   -9257.2506    4.3480614    4.3480614    4.3480614   -9257.2506   -4197.7683   -16459.545   -7114.4385    5189.4748   -489.79274   -4220.5833    82.202875 
   51600    678.23721   -101.11635   0.61368328   -100.50267   -3823.0707      4.35137      4.35137      4.35137   -3823.0707   -7032.9509    16393.256   -20829.517   -378.33121   -5749.8693   -2660.4154     82.39067 
   51700    419.80929   -100.88371   0.37985227   -100.50386    3745.2066     4.343869     4.343869     4.343869    3745.2066     -721.901    16596.573    -4639.052    2336.5631    1840.2759    2119.1001    81.965325 
   51800    326.35043   -100.80387   0.29528873   -100.50858   -356.98591    4.3492041    4.3492041    4.3492041   -356.98591   -2599.4522    16320.416   -14791.922    3322.5323   -5882.8936   -2380.6496    82.267704 
   51900    706.28945   -101.14219   0.63906554   -100.50313    1335.2839    4.3495565    4.3495565    4.3495565    1335.2839   -7382.7082    19009.069   -7620.5089   -679.28015     2218.779    6235.2328    82.287704 
   52000      431.394   -100.89631   0.39033435   -100.50597   -2286.9206    4.3491621    4.3491621    4.3491621   -2286.9206   -4218.9475    8819.9375   -11461.752    5548.5951   -4732.0385   -6902.1624    82.265318 
   52100    463.97149   -100.92253   0.41981115   -100.50272    7353.1624    4.3458146    4.3458146    4.3458146    7353.1624   -1502.5411    28236.052   -4674.0233    -828.1907    234.44474   -653.03002    82.075511 
   52200    430.66518   -100.89513   0.38967491   -100.50546   -2004.8703    4.3522881    4.3522881    4.3522881   -2004.8703   -10527.269    15955.985   -11443.327    3717.4665   -1328.7705     -5469.64    82.442833 
   52300    557.08975   -101.00858   0.50406651   -100.50451    262.43098    4.3454523    4.3454523    4.3454523    262.43098   -2444.0502    17541.382   -14310.039   -51.006442   -2367.5406   -2720.7825    82.054981 
   52400     509.4252   -100.96411   0.46093862   -100.50317   -10578.934    4.3505269    4.3505269    4.3505269   -10578.934   -6688.5564   -22072.299   -2975.9453   -1469.1547    3008.3956    1021.0371    82.342791 
   52500    498.98693   -100.95697   0.45149386   -100.50547   -3491.5846    4.3467519    4.3467519    4.3467519   -3491.5846    -2851.009    8603.1013   -16226.846      636.387   -5365.7368    -465.4056    82.128627 
   52600    632.29894   -101.07508   0.57211737   -100.50296    610.11057    4.3502896    4.3502896    4.3502896    610.11057   -10627.521    24390.409   -11932.555   -4671.2978    5550.8669    1502.9684    82.329317 
   52700    302.10419   -100.77785   0.27335022   -100.50449    4101.1562    4.3479186    4.3479186    4.3479186    4101.1562   -4842.0109     28701.47   -11555.991    2939.5031   -4819.4663   -4269.1785    82.194774 
   52800    545.16697   -100.99783   0.49327853   -100.50455   -62.842584    4.3475456    4.3475456    4.3475456   -62.842584   -7236.4348    20141.949   -13094.042   -3209.6857    5213.7821   -5256.4684    82.173625 
   52900    631.22957   -101.07483   0.57114978   -100.50368   -2442.0153      4.35116      4.35116      4.35116   -2442.0153   -8116.1681    9664.8909   -8874.7687    4052.1292   -1063.9334   -3113.4925    82.378743 
   53000    417.91138    -100.8836     0.378135   -100.50546   -4064.6132     4.343979     4.343979     4.343979   -4064.6132   -3594.8217    804.20212   -9403.2201    2508.5268    2611.6145   -3799.7543    81.971548 
   53100    494.94679   -100.95244   0.44783826    -100.5046      -2140.2    4.3536665    4.3536665    4.3536665      -2140.2   -5848.7162    8493.8559   -9065.7398    2594.1399     4297.825    3772.5659    82.521191 
   53200    460.83602   -100.92266   0.41697412   -100.50568    4556.8254    4.3426659    4.3426659    4.3426659    4556.8254   -4160.0923    27622.825   -9792.2563    6716.0248    -703.0793    -2069.459    81.897238 
   53300    467.58728   -100.92886    0.4230828   -100.50578   -4846.3967    4.3522677    4.3522677    4.3522677   -4846.3967   -3334.9697    6067.5025   -17271.723    943.26608    7517.5253    1423.1372    82.441674 
   53400    580.71753   -101.02925   0.52544543    -100.5038    5925.0542    4.3453928    4.3453928    4.3453928    5925.0542     1554.765    15403.452    816.94542    7084.5137   -1969.4908   -2635.6231     82.05161 
   53500    497.72282   -100.95716   0.45035006   -100.50681   -5723.7329    4.3489307    4.3489307    4.3489307   -5723.7329    -4323.307     13147.05   -25994.941   -865.26021    8202.2747   -5238.4642    82.252189 
   53600     585.7857   -101.03288   0.53003121   -100.50285    7583.3315    4.3503659    4.3503659    4.3503659    7583.3315   -3969.7562    29722.714   -3002.9631    5085.6159   -2067.0681   -390.74407    82.333649 
   53700    411.82186   -100.87859   0.37262507   -100.50596    2291.5953    4.3428971    4.3428971    4.3428971    2291.5953   -1729.0481    25994.907   -17391.073   -1095.4883    6803.2416   -2565.9279    81.910317 
   53800    474.74132   -100.93497   0.42955592   -100.50541   -2605.1345     4.355009     4.355009     4.355009   -2605.1345   -9258.4496     12574.04   -11130.994   -1451.4353     332.0849     5032.346    82.597553 
   53900    642.10863   -101.08539   0.58099338    -100.5044    286.30078    4.3419625    4.3419625    4.3419625    286.30078   -6289.9296    11205.203   -4056.3708   -837.42795    3926.7725    1959.3612    81.857447 
   54000     423.5937   -100.89083   0.38327648   -100.50755   -9688.5839    4.3543507    4.3543507    4.3543507   -9688.5839   -6148.7686   -7823.7348   -15093.248   -1458.7055    4897.4484   -1036.4661    82.560098 
   54100    561.94673   -101.01176   0.50846121    -100.5033    4842.2431    4.3441426    4.3441426    4.3441426    4842.2431   -7343.7314    22604.392   -733.93132   -1991.7533   -367.06067    789.63853    81.980811 
   54200    373.45925   -100.84621   0.33791378    -100.5083    265.67634    4.3488947    4.3488947    4.3488947    265.67634   -19372.898    36997.599   -16827.672    540.61058    7887.9939   -4772.4283    82.250147 
   54300    577.16237    -101.0243   0.52222864   -100.50207    4247.6044    4.3503193    4.3503193    4.3503193    4247.6044   -1163.6993    26101.005   -12194.493   -358.22003   -1694.2718    4103.0495    82.331004 
   54400    438.37709   -100.90017    0.3966528   -100.50351   -3639.5959    4.3431377    4.3431377    4.3431377   -3639.5959    -19885.37    19608.481   -10641.899    4667.3739    8071.1289   -320.59897    81.923935 
   54500    584.35803   -101.03449   0.52873942   -100.50575   -8592.3096    4.3541291    4.3541291    4.3541291   -8592.3096   -10076.108    6053.9392    -21754.76   -1876.4003   -2008.6815    5272.5902    82.547494 
   54600     590.9303   -101.04004   0.53468615   -100.50536   -272.79392    4.3437173    4.3437173    4.3437173   -272.79392   -3761.8697    16421.973   -13478.485    5952.3736    6488.7495    3847.7582    81.956734 
   54700    357.06852   -100.82986    0.3230831   -100.50677   -5549.8995    4.3514853    4.3514853    4.3514853   -5549.8995   -20991.431    23095.858   -18754.125    -30.66201   -765.25286   -3318.5411    82.397221 
   54800    512.40255   -100.96825    0.4636326   -100.50462    7719.3425    4.3465554    4.3465554    4.3465554    7719.3425    2793.2603    30143.038   -9778.2706    5928.5566    1976.5766    3417.4524     82.11749 
   54900    624.36097     -101.069   0.56493493   -100.50406   -8990.8144     4.352003     4.352003     4.352003   -8990.8144   -16955.629    4953.5377   -14970.352    478.32571    3512.5052   -4035.6889    82.426633 
   55000    440.54952   -100.90201   0.39861846   -100.50339    8833.5398    4.3450187    4.3450187    4.3450187    8833.5398    5435.0295     24984.61   -3919.0205    3601.9614   -2767.6112    8069.7863    82.030425 
   55100    459.64487   -100.92098   0.41589633   -100.50509   -1411.3537    4.3518415    4.3518415    4.3518415   -1411.3537   -14576.359    25162.363   -14820.065   -799.50188    6754.2773    2958.2967    82.417457 
   55200    553.04065    -101.0028    0.5004028   -100.50239    9436.9611    4.3478154    4.3478154    4.3478154    9436.9611   -2211.0154    44332.291   -13810.392    -2285.488    -3839.528    5225.3856     82.18892 
   55300    348.24816   -100.82205   0.31510225   -100.50695   -752.21433    4.3444156    4.3444156    4.3444156   -752.21433   -2393.1422    10147.047   -10010.548   -1794.6517    6082.8589     6034.675     81.99627 
   55400    636.20353    -101.0794   0.57565033   -100.50375   -13181.364    4.3552452    4.3552452    4.3552452   -13181.364   -19619.324   -77.969692   -19846.798   -2412.0642     -2415.86   -1819.0118    82.610991 
   55500    595.44524   -101.04242   0.53877137   -100.50365    2534.3425    4.3435676    4.3435676    4.3435676    2534.3425    7417.0606    11210.623   -11024.656   -2634.4463    4573.8008    6547.9767    81.948262 
   55600    383.41226    -100.8531   0.34691947   -100.50618   -7845.5199    4.3511484    4.3511484    4.3511484   -7845.5199   -24393.967    22067.445   -21210.038    1163.1877    -754.3346    908.12121    82.378082 
   55700    486.05511    -100.9431   0.43979288   -100.50331    7732.0953    4.3490786    4.3490786    4.3490786    7732.0953    -6179.769    40526.882   -11150.827   -2595.4112    394.53373    7422.3565    82.260582 
   55800    507.36304   -100.96634   0.45907274   -100.50727   -6823.9291    4.3460107    4.3460107    4.3460107   -6823.9291   -11140.119    9113.3493   -18445.018    3003.9088    3229.1051    8782.2912    82.086623 
   55900    504.91743   -100.96142    0.4568599   -100.50456   -1003.9456    4.3504265    4.3504265    4.3504265   -1003.9456   -18611.236    19582.619   -3983.2199    566.50318   -4240.9075   -1371.5327    82.337091 
   56000    551.14391   -101.00468   0.49868659   -100.50599   -11378.189    4.3509703    4.3509703    4.3509703   -11378.189   -12032.972   -2774.5962       -19327    2709.5168    6223.5061    6364.3289    82.367971 
   56100    440.55548   -100.90535   0.39862386   -100.50672    8748.9297    4.3428288    4.3428288    4.3428288    8748.9297   -6690.8435    36647.046   -3709.4139    5134.0156   -6818.6731   -7436.0728    81.906452 
   56200    442.53136   -100.90483   0.40041167   -100.50442   -6593.8602     4.354947     4.354947     4.354947   -6593.8602   -19440.038    18511.232   -18852.775    3430.0598    6265.7545    1936.8908    82.594021 
   56300    444.55072   -100.90893   0.40223884   -100.50669    1169.8212    4.3438949    4.3438949    4.3438949    1169.8212    1416.9326    11607.516    -9514.985    5141.7297   -3178.2319   -18.336406     81.96679 
   56400    723.15487   -101.15706   0.65432572   -100.50273   -4234.0253    4.3519216    4.3519216    4.3519216   -4234.0253   -7982.4216    7136.6957    -11856.35    1746.3572    341.88144   -927.59809    82.422005 
   56500    370.12375   -100.84076   0.33489575   -100.50586   -2165.9253    4.3471577    4.3471577    4.3471577   -2165.9253   -4912.5264    9795.0135   -11380.263   -1284.4041     1347.985    6094.5514     82.15163 
   56600    524.15758   -100.97941    0.4742688   -100.50515    10680.296    4.3473126    4.3473126    4.3473126    10680.296   -335.09154    41865.523   -9489.5443    619.04971   -4175.6168   -7368.8896    82.160414 
   56700    541.62469   -100.99466    0.4900734   -100.50459   -2179.0846    4.3540196    4.3540196    4.3540196   -2179.0846   -12045.616     22143.15   -16634.788   -5800.3361    3138.0624    1292.2436    82.541266 
   56800    346.92875   -100.81918   0.31390843   -100.50528    10304.758    4.3405004    4.3405004    4.3405004    10304.758   -30.260396     28597.14    2347.3956    514.32389   -6831.8627   -6518.1444    81.774784 
   56900    689.68445   -101.12749   0.62404099   -100.50345   -12150.101    4.3583666    4.3583666    4.3583666   -12150.101   -13285.551   -7708.8247   -15455.927   -2464.3635    2926.4446   -3927.4314    82.788743 
   57000    475.07089   -100.93433   0.42985412   -100.50447    8163.0693    4.3408178    4.3408178    4.3408178    8163.0693    1617.3355        25344   -2472.1277    14.596912   -7560.7549    7669.8412    81.792724 
   57100    331.33526   -100.80496   0.29979911   -100.50516   -1139.0303    4.3531078    4.3531078    4.3531078   -1139.0303   -18364.489    25875.074   -10927.676    711.14008    2109.3599   -6365.6353    82.489422 
   57200    572.48619   -101.02239   0.51799753    -100.5044   -38.610977    4.3476596    4.3476596    4.3476596   -38.610977   -7211.9919    23014.629    -15918.47   -846.29985   -4763.9045    8899.9117    82.180085 
   57300     515.8616    -100.9715   0.46676242   -100.50474    1547.2221    4.3451557    4.3451557    4.3451557    1547.2221    -298.3368    11170.817   -6230.8136    3065.1883    -2392.427   -11159.796    82.038181 
   57400    553.34907   -101.00435   0.50068187   -100.50367   -11649.801     4.352913     4.352913     4.352913   -11649.801   -23841.211    6421.9851   -17530.178   -671.82678    22.608048   -1330.4023    82.478352 
   57500    509.99624   -100.96671   0.46145532   -100.50526    6854.0527    4.3448184    4.3448184    4.3448184    6854.0527     2443.508    27788.772   -9670.1222     6012.565   -5913.3432   -2558.8988    82.019081 
   57600    424.19511   -100.88953   0.38382065   -100.50571   -653.53464    4.3517229    4.3517229    4.3517229   -653.53464   -11481.683    23957.426   -14436.347    1769.1403    1075.2154   -6864.6062    82.410718 
   57700    520.18468   -100.97374   0.47067403   -100.50307    817.82638    4.3471245    4.3471245    4.3471245    817.82638   -17303.228    25229.668   -5472.9608     1980.269   -6008.0781    7429.1089    82.149746 
   57800    472.69269   -100.93241   0.42770228   -100.50471   -4898.1156    4.3519784    4.3519784    4.3519784   -4898.1156    1321.8101   -7398.5671   -8617.5899    5195.5751    876.05944   -11739.413    82.425236 
   57900    657.49989   -101.09743   0.59491972   -100.50251   -2109.1461    4.3456988    4.3456988    4.3456988   -2109.1461   -14427.732    17127.706   -9027.4124   -3865.3127   -6969.4516    844.21172    82.068946 
   58000    294.37626   -100.77279   0.26635783   -100.50643    5037.9516    4.3508952    4.3508952    4.3508952    5037.9516   -7295.2525    27451.854    -5042.747    1480.0616    1661.9431   -12664.302    82.363701 
   58100    471.26231    -100.9334   0.42640804   -100.50699    740.08574    4.3476957    4.3476957    4.3476957    740.08574   -8386.0282     33407.98   -22801.695   -3679.2136   -5767.7193   -6845.5926    82.182138 
   58200    635.86834   -101.07866   0.57534704   -100.50331   -1119.1194    4.3498448    4.3498448    4.3498448   -1119.1194   -7225.4864    13166.411   -9298.2826   -1817.5795    -1580.562   -1648.8722    82.304063 
   58300     398.1618    -100.8668   0.36026516   -100.50653   -4465.8999    4.3475881    4.3475881    4.3475881   -4465.8999   -7197.3551    11858.327   -18058.672    1553.8986    -1499.816   -9774.9708    82.176036 
   58400    638.66314   -101.08129   0.57787583   -100.50342   -4322.4591    4.3496569    4.3496569    4.3496569   -4322.4591   -12293.538    20269.126   -20942.966   -3348.9755   -6102.6856    4733.1208    82.293401 
   58500    390.53499   -100.85865   0.35336426   -100.50529    3146.3808    4.3473772    4.3473772    4.3473772    3146.3808    160.53758    24589.926   -15311.321    5214.4848    1511.9022   -12858.114    82.164075 
   58600     466.0944    -100.9277   0.42173201   -100.50597    -3662.278    4.3484212    4.3484212    4.3484212    -3662.278    -21300.41    27777.367   -17463.791   -3944.4397   -7526.2971   -2358.9798    82.223282 
   58700    590.37748   -101.03757   0.53418595   -100.50339   -6922.7504    4.3514249    4.3514249    4.3514249   -6922.7504     -3360.26   -2429.8529   -14978.138    5413.7173    2299.6991   -7162.3539     82.39379 
   58800    437.54268   -100.90255   0.39589781   -100.50665    1097.3728    4.3446408    4.3446408    4.3446408    1097.3728   -8215.1435     14698.83   -3191.5679     101.0092      -7130.6   -5977.1698    82.009019 
   58900    622.31154     -101.066   0.56308056   -100.50292   -5155.1002    4.3554519    4.3554519    4.3554519   -5155.1002   -19657.255    17154.121   -12962.166    2060.0871    1516.9251    5740.8376    82.622756 
   59000    269.82988   -100.75026   0.24414775   -100.50611    15250.502    4.3425438    4.3425438    4.3425438    15250.502    3526.4599    44653.768    -2428.721    5759.4258   -4958.1944   -5381.3381    81.890328 
   59100    594.13994   -101.04212    0.5375903   -100.50453   -6761.7286    4.3533742    4.3533742    4.3533742   -6761.7286   -16724.984    14542.896   -18103.099    2713.4745   -862.01159    4345.0337    82.504566 
   59200     542.4783   -100.99589   0.49084576   -100.50504    3731.7402    4.3462617    4.3462617    4.3462617    3731.7402   -1094.6746    14468.103    -2178.208     3073.859   -1799.3127   -5720.1558    82.100842 
   59300    534.23519    -100.9897   0.48338723   -100.50631   -9438.4711    4.3487226    4.3487226    4.3487226   -9438.4711   -7587.1806    899.80932   -21628.042    863.71098   -4566.2941      -5153.3    82.240379 
   59400    518.12222   -100.97314   0.46880787   -100.50433   -4463.9226    4.3524198    4.3524198    4.3524198   -4463.9226   -6874.8934    3525.7715   -10042.646   -1308.3118    1989.4787    4749.7735     82.45032 
   59500    383.37465   -100.85364   0.34688544   -100.50676    8027.0678    4.3428373    4.3428373    4.3428373    8027.0678   -4914.4097    39380.198   -10384.585   -843.50296   -6204.7386   -4809.5686    81.906936 
   59600     550.0951   -101.00147   0.49773761   -100.50373   -8284.2737    4.3558185    4.3558185    4.3558185   -8284.2737   -9186.4629    4470.1039   -20136.462   -4457.6473    3177.1824    9414.2019    82.643619 
   59700    450.94818   -100.91265   0.40802739   -100.50463    7557.5567    4.3421137    4.3421137    4.3421137    7557.5567    1366.4308    24323.595   -3017.3556    1549.7743   -5720.9545   -4637.0733    81.866002 
   59800    573.82406   -101.02277   0.51920807   -100.50357   -10226.389    4.3547653    4.3547653    4.3547653   -10226.389   -11393.623   -3678.3297   -15607.215   -3375.2954     2381.659   -2000.8594    82.583683 
   59900    494.17149   -100.94907   0.44713675   -100.50193    5390.5104    4.3465878    4.3465878    4.3465878    5390.5104   -3040.6739     36339.53   -17127.325    2221.0071   -2917.5662    132.98231    82.119322 
   60000    404.29107   -100.87039   0.36581106   -100.50458    2855.1358    4.3464713    4.3464713    4.3464713    2855.1358   -4312.1365    19394.556   -6517.0125    -861.1173   -2558.6708   -7228.7948    82.112723 
   60100    537.40967    -100.9886   0.48625956   -100.50234   -7543.2048    4.3555272    4.3555272    4.3555272   -7543.2048   -12119.736    6438.6167   -16948.495    1416.8954    1680.1162    12669.229     82.62704 
   60200     546.3233   -100.99721    0.4943248   -100.50289    3112.8275    4.3409695    4.3409695    4.3409695    3112.8275   -3440.1882    13390.969   -612.29833    1376.0549   -6781.2967   -7089.1551      81.8013 
   60300    532.44691   -100.98575   0.48176916   -100.50398   -10349.705    4.3548224    4.3548224    4.3548224   -10349.705   -8432.6889   -14930.721   -7685.7046    1639.0381    2613.1731    10938.843    82.586933 
   60400    412.03404   -100.87798   0.37281706   -100.50516    7222.8448    4.3475191    4.3475191    4.3475191    7222.8448   -13957.389    38187.255   -2561.3313    3095.5932   -6521.8672    -5361.393    82.172118 
   60500    530.16817    -100.9847    0.4797073   -100.50499    6435.6604    4.3442121    4.3442121    4.3442121    6435.6604    -3629.881    28411.188   -5474.3258    3246.9416    1468.1311    2090.3479    81.984749 
   60600     422.8131   -100.88941   0.38257018   -100.50684   -4342.8671    4.3568179    4.3568179    4.3568179   -4342.8671   -17311.698    22262.083   -17978.986    124.34096   -4351.3564    9357.0245    82.700515 
   60700    682.30377   -101.12108   0.61736279   -100.50372   -2842.2462    4.3425239    4.3425239    4.3425239   -2842.2462   -7562.5214    2363.2149   -3327.4322    3458.9078   -774.20547   -1637.2409    81.889205 
   60800    418.05426   -100.88603   0.37826428   -100.50777   -3507.5007    4.3503968    4.3503968    4.3503968   -3507.5007   -4665.4351     18928.05   -24785.117    -3010.093   -1219.3013    14215.966    82.335404 
   60900    509.13497   -100.96557   0.46067602   -100.50489   -6586.7411    4.3536205    4.3536205    4.3536205   -6586.7411   -24299.021    21846.434   -17307.637    2417.3419   -4488.1864   -4765.5382    82.518574 
   61000    497.78936   -100.95267   0.45041027   -100.50226    7329.9207     4.338841     4.338841     4.338841    7329.9207     4212.035    16549.596    1228.1305   -3931.6053    2691.5242    4342.4526    81.681029 
   61100    432.02441   -100.89525   0.39090477   -100.50435   -14145.334    4.3599242    4.3599242    4.3599242   -14145.334   -23477.214    8576.4789   -27535.266    1194.7365   -6762.7756    3214.9721    82.877535 
   61200    706.97158   -101.14062   0.63968274   -100.50094    4178.7493    4.3403596    4.3403596    4.3403596    4178.7493   -2833.3923    5491.2052     9878.435   -2848.4075    2466.5335    1737.1158    81.766824 
   61300    279.84693   -100.76205   0.25321138   -100.50884    4508.1544    4.3499794    4.3499794    4.3499794    4508.1544   -10580.361    43581.354    -19476.53   -192.61546   -5986.8193    15285.895    82.311707 
   61400    581.97293   -101.03137   0.52658134   -100.50479   -1684.4221    4.3528229    4.3528229    4.3528229   -1684.4221   -18110.641    27093.584   -14036.209   -2594.5102   -702.62896   -4447.1272    82.473227 
   61500     487.3501   -100.94752   0.44096461   -100.50656    8125.9606    4.3406025    4.3406025    4.3406025    8125.9606    1126.1037    26523.211   -3271.4332    1499.4779   -2872.8681    11656.699    81.780552 
   61600     595.2189   -101.04354   0.53856657   -100.50497   -18618.488    4.3588221    4.3588221    4.3588221   -18618.488       -26127    -10498.51   -19229.953    -201.2876   -4187.3986    -3533.507    82.814702 
   61700    520.60879     -100.974   0.47105778   -100.50294    9354.0118    4.3396538    4.3396538    4.3396538    9354.0118    3917.3505    21444.362    2700.3227    4575.7975    189.92469    8532.1708    81.726943 
   61800    354.39641   -100.82864   0.32066532   -100.50798   -4546.3841     4.356164     4.356164     4.356164   -4546.3841   -25223.961    36112.846   -24528.038   -317.30203   -5967.2567    8412.3072    82.663287 
   61900    660.40671   -101.09987   0.59754987   -100.50232    6625.4959    4.3446774    4.3446774    4.3446774    6625.4959   -6769.9308    17309.325     9337.093    7041.7565    2058.0492    5397.2838    82.011094 
   62000    288.45661   -100.76894    0.2610016   -100.50794   -2196.2781    4.3477204    4.3477204    4.3477204   -2196.2781   -5407.3429    18554.311   -19735.803   -2308.9236   -7473.6801    12618.097    82.183535 
   62100    744.43721   -101.17686   0.67358243   -100.50327   -7010.9305     4.354208     4.354208     4.354208   -7010.9305   -20193.094    3855.8125   -4695.5102    6177.2406    1495.2633    -5409.849    82.551983 
   62200     416.5299   -100.88315   0.37688501   -100.50626    9086.5766    4.3403221    4.3403221    4.3403221    9086.5766   -165.90281    35269.408   -7843.7759    -2559.889   -4675.6057    6015.3523    81.764704 
   62300    334.79273   -100.80867    0.3029275   -100.50574   -11042.637    4.3579438    4.3579438    4.3579438   -11042.637   -19053.428    13507.685   -27582.167    2770.2865   -2980.6662    611.56633    82.764648 
   62400    698.30333   -101.13373   0.63183952   -100.50189    2434.9044    4.3418406    4.3418406    4.3418406    2434.9044   -734.16267    11012.863   -2973.9872   -4040.6197   -799.20666    3818.3164    81.850556 
   62500    438.29525    -100.9032   0.39657875   -100.50663   -9916.2325    4.3519333    4.3519333    4.3519333   -9916.2325   -12038.179   -145.04782   -17565.471    548.92717   -5758.9765    13002.057    82.422673 
   62600    634.24231   -101.07592   0.57387577   -100.50205   -2184.2161    4.3498444    4.3498444    4.3498444   -2184.2161   -8847.0491    2953.2239   -658.82303   -2285.4718    1530.7179   -7415.4001    82.304042 
   62700    262.48983   -100.74575   0.23750631   -100.50825    13978.926    4.3442137    4.3442137    4.3442137    13978.926   -2264.8422    40711.702     3489.917   -1237.6402   -6963.1991     8100.751     81.98484 
   62800    652.27717   -101.09457   0.59019409   -100.50438   -1110.5369    4.3551261    4.3551261    4.3551261   -1110.5369   -20272.361    21670.734   -4729.9832   -163.39382    2618.2875   -7587.7125    82.604211 
   62900    362.23327   -100.83324   0.32775628   -100.50549    9481.7542    4.3420218    4.3420218    4.3420218    9481.7542   -751.21641      24206.6     4989.879     2940.541   -5422.8608    6788.0265    81.860805 
   63000    561.67205   -101.01371   0.50821268    -100.5055   -14029.815    4.3541484    4.3541484    4.3541484   -14029.815   -12673.578    -14341.57   -15074.296   -905.49457   -641.42096    7308.5065    82.548597 
   63100    676.06005   -101.11463   0.61171334   -100.50292   -361.76951     4.347002     4.347002     4.347002   -361.76951   -12531.955    11473.708   -27.061621    6589.0018   -1823.7492    379.87655    82.142802 
   63200    304.73208   -100.78252   0.27572799   -100.50679   -674.85127    4.3469504    4.3469504    4.3469504   -674.85127   -6485.2974    25343.004   -20882.261   -537.32659   -3910.5153    10763.006    82.139878 
   63300    513.15394   -100.97048   0.46431247   -100.50617   -1374.1279    4.3513588    4.3513588    4.3513588   -1374.1279   -15386.419    13162.338   -1898.3022    6719.2076     347.5402   -8427.3652    82.390036 
   63400    542.94033   -100.99779   0.49126382   -100.50653     211.8384    4.3467904    4.3467904    4.3467904     211.8384   -11259.929    18500.449   -6605.0046   -432.62852   -5391.9854    6561.0848    82.130811 
   63500    526.48211   -100.98138   0.47637207   -100.50501   -236.16294    4.3500931    4.3500931    4.3500931   -236.16294   -11254.414    15864.795   -5318.8697    4682.6113    1537.8197    575.04742    82.318159 
   63600    403.31999   -100.87135    0.3649324   -100.50642    1824.4202    4.3483669    4.3483669    4.3483669    1824.4202   -14163.061    26374.562   -6738.2409    177.70195   -5064.8508    5023.1654    82.220201 
   63700    500.92322   -100.95722   0.45324586   -100.50398    4866.1103    4.3494886    4.3494886    4.3494886    4866.1103   -12090.741    32839.684   -6150.6125    1500.0753    1156.7532    6492.7739    82.283848 
   63800    515.89032   -100.97225    0.4667884   -100.50546   -8183.1318    4.3481557    4.3481557    4.3481557   -8183.1318   -15779.327    6501.1196   -15271.188    1373.7637   -3287.2667   -8546.9734    82.208222 
   63900    540.18982   -100.99343    0.4887751   -100.50465   -4599.4584    4.3496324    4.3496324    4.3496324   -4599.4584    -8106.024   -5651.5867    -40.76462   -2003.1858   -747.51627     4067.199     82.29201 
   64000    591.89581   -101.04054   0.53555977   -100.50498   -4307.5624    4.3492725    4.3492725    4.3492725   -4307.5624   -16862.192    13336.761   -9397.2558   -1023.9726   -456.62465   -8609.5257    82.271584 
   64100    374.60568   -100.84638   0.33895109   -100.50743    5725.6433     4.348824     4.348824     4.348824    5725.6433    -12052.31    33236.429   -4007.1895   -2124.2967   -3489.7565    4828.7272    82.246132 
   64200      502.985   -100.96017    0.4551114   -100.50506    8810.5144    4.3467599    4.3467599    4.3467599    8810.5144   -8112.5936    34623.444   -79.307358   -2331.3874    2313.0879    1666.4166    82.129079 
   64300    490.74274   -100.95157   0.44403434   -100.50754   -7310.3322    4.3519103    4.3519103    4.3519103   -7310.3322   -17348.758   -5430.0583    847.81984    1676.9312   -4604.0998   -5379.0992    82.421364 
   64400    608.29545   -101.05432    0.5503985   -100.50393    7980.7069    4.3455071    4.3455071    4.3455071    7980.7069   -4773.0269    31186.621   -2471.4737     -89.2121    2421.5653   -518.00815    82.058089 
   64500     323.5702   -100.80222   0.29277312   -100.50945   -4164.3303     4.349477     4.349477     4.349477   -4164.3303   -16784.727    16211.232   -11919.496    2930.7088   -3537.3106   -10263.392     82.28319 
   64600    616.41349   -101.06178   0.55774388   -100.50403   -1846.2623    4.3523541    4.3523541    4.3523541   -1846.2623    -13536.02    17994.651   -9997.4175    2649.2595    1024.0238   -1363.0945    82.446586 
   64700    420.92506   -100.88806   0.38086184    -100.5072   -756.65823    4.3427668    4.3427668    4.3427668   -756.65823   -6025.1877    20653.809   -16898.596    329.45053   -1703.7157   -988.10037    81.902947 
   64800    653.46674   -101.09775   0.59127044   -100.50648   -15442.359    4.3566432    4.3566432    4.3566432   -15442.359   -17328.112    -10327.13   -18671.836     5168.268   -1209.7493     -5787.04    82.690569 
   64900    479.97502   -100.94039   0.43429149    -100.5061    13955.399    4.3432987    4.3432987    4.3432987    13955.399   -5936.8077    49462.447    -1659.441   -723.83747    1392.8474    716.06759    81.933047 
   65000    356.72805   -100.83298   0.32277503   -100.51021   -4924.2795    4.3507871    4.3507871    4.3507871   -4924.2795   -11842.224    19794.558   -22725.172    6393.3371   -4228.7343   -15052.722    82.357567 
   65100    610.49931   -101.05421   0.55239261   -100.50182    9348.7267    4.3517166    4.3517166    4.3517166    9348.7267   -10973.222    34400.261    4619.1411   -2091.7525    3261.3853   -3082.3993     82.41036 
   65200    438.55729   -100.90274   0.39681585   -100.50592   -5597.8474    4.3428386    4.3428386    4.3428386   -5597.8474   -9130.2231   -7027.3962   -635.92298    2699.6227   -3854.1644   -8976.6258    81.907009 
   65300    546.93903   -100.99983   0.49488193   -100.50495   -2418.1164    4.3562251    4.3562251    4.3562251   -2418.1164    -11597.15    5981.3491   -1638.5479   -4003.9323    2239.6777   -1003.1604    82.666767 
   65400    444.56587   -100.90988   0.40225254   -100.50763    5937.4808    4.3442209    4.3442209    4.3442209    5937.4808    -10875.52    31350.734    -2662.772   -1769.1479   -3332.4022     2907.388    81.985246 
   65500    503.45803   -100.96473   0.45553941   -100.50919   -1898.2901    4.3489591    4.3489591    4.3489591   -1898.2901   -9854.6646    5812.1029   -1652.3087   -2373.8677    714.00463    -11343.94    82.253802 
   65600    513.23771   -100.96832   0.46438826   -100.50393    1443.6663    4.3517951    4.3517951    4.3517951    1443.6663   -12098.718    29400.578   -12970.862   -1031.3525   -399.83725    3344.5713    82.414822 
   65700      563.281   -101.01437   0.50966849    -100.5047   -6621.4941    4.3457157    4.3457157    4.3457157   -6621.4941   -7672.6098   -614.49241    -11577.38    490.01656   -3391.5156   -12462.784    82.069906 
   65800    554.13884   -101.00534   0.50139647   -100.50394     5618.858    4.3501082    4.3501082    4.3501082     5618.858   -13737.306    35110.244   -4516.3641    1563.2618     3840.819    5388.3062    82.319017 
   65900    296.97128    -100.7751   0.26870585    -100.5064   -3513.3836    4.3503103    4.3503103    4.3503103   -3513.3836   -12987.629    20166.765   -17719.287   -1321.8434   -4508.7992    518.01548     82.33049 
   66000    530.35111   -100.98528   0.47987283   -100.50541    80.390289    4.3467363    4.3467363    4.3467363    80.390289    -9056.386      14474.7   -5177.1432    5073.6705    3901.6397    781.76174    82.127743 
   66100    555.62842   -101.00695   0.50274427   -100.50421   -3925.0863    4.3505945    4.3505945    4.3505945   -3925.0863   -15685.282    5138.0994    -1228.076   -2991.5647   -2372.7501    4304.9928    82.346627 
   66200     521.9033    -100.9758   0.47222907   -100.50357   -14191.838    4.3507575    4.3507575    4.3507575   -14191.838   -9388.5961   -13221.215   -19965.702    7500.3373    2419.6028   -11612.819    82.355885 
   66300    414.91368   -100.88091   0.37542262   -100.50549    13892.089    4.3443349    4.3443349    4.3443349    13892.089    -6555.968    42904.774    5327.4593   -1019.7288    649.65785    3347.6584    81.991703 
   66400    640.72782   -101.08486     0.579744   -100.50511   -8665.5448    4.3554532    4.3554532    4.3554532   -8665.5448   -19040.463    9819.6507   -16775.822    8094.3415   -1551.0273   -6060.2156    82.622829 
   66500    295.82901   -100.77302   0.26767231   -100.50535    12913.419    4.3449508    4.3449508    4.3449508    12913.419   -6119.9407    38831.579     6028.619    370.62207    5231.6838    5057.8795    82.026578 
   66600    623.12889    -101.0682   0.56382011   -100.50438   -6569.2825    4.3495004    4.3495004    4.3495004   -6569.2825   -9968.4513   -3548.6534   -6190.7428    3613.0891   -5375.6544    536.82916    82.284519 
   66700    524.09261   -100.98055   0.47421001   -100.50634   -1706.7252    4.3514281    4.3514281    4.3514281   -1706.7252   -14740.956    6038.3553    3582.4249    -1179.706    6102.1213   -7705.9687     82.39397 
   66800    412.44449    -100.8792   0.37318844   -100.50601    3320.2115    4.3466786    4.3466786    4.3466786    3320.2115   -9458.3042    29689.658    -10270.72   -738.66621   -3011.1871   -1970.0024    82.124469 
   66900    492.84335   -100.95178   0.44593502   -100.50584   -4775.5131    4.3523422    4.3523422    4.3523422   -4775.5131   -12971.733    16997.814    -18352.62   -4161.4604    2305.7661   -7184.9488    82.445905 
   67000    460.05001   -100.92199   0.41626292   -100.50572     4062.278    4.3474108    4.3474108    4.3474108     4062.278   -11634.858    34783.408   -10961.716    543.59402    2689.7433    2733.2184    82.165979 
   67100    676.49029   -101.11481   0.61210263   -100.50271   -11184.624     4.351256     4.351256     4.351256   -11184.624   -9168.6989   -2618.4895   -21766.682   -4810.6467   -2697.0461    4619.9222    82.384198 
   67200    422.13121   -100.88782   0.38195319   -100.50587     1799.538    4.3479136    4.3479136    4.3479136     1799.538   -8310.6299    29608.701   -15899.457    3629.7697    6957.3301    -2400.322    82.194492 
   67300    543.97863   -100.99804    0.4922033   -100.50584    341.93762    4.3493637    4.3493637    4.3493637    341.93762   -12572.211    18960.708   -5362.6835   -4517.5395   -5055.2701     6873.198    82.276762 
   67400    446.02278   -100.91006   0.40357079   -100.50649    3078.1976    4.3477599    4.3477599    4.3477599    3078.1976   -11650.789    33497.426   -12612.044    5136.4429    7462.4826   -6798.5041    82.185773 
   67500     417.2395   -100.88344   0.37752707   -100.50592    1564.5901    4.3505524    4.3505524    4.3505524    1564.5901   -7339.7733    13594.042   -1560.4981   -4046.9647   -5079.1237    4771.2874    82.344238 
   67600    699.05607   -101.13521   0.63252062   -100.50269   -7290.6044    4.3485452    4.3485452    4.3485452   -7290.6044   -15731.015   -3186.3247   -2954.4731    6437.7307    5605.6678     4621.964    82.230319 
   67700     358.9429   -100.83075   0.32477908   -100.50597    8467.7233    4.3482806    4.3482806    4.3482806    8467.7233   -6027.6494    34770.185   -3339.3661   -234.17559   -859.11311     3759.542    82.215309 
   67800     548.9569   -101.00064   0.49670774   -100.50393   -2932.1152    4.3520081    4.3520081    4.3520081   -2932.1152   -11155.303    20103.708   -17744.751    5481.3275   -593.13101    11258.037    82.426921 
   67900    454.44737   -100.91534   0.41119353   -100.50415     11073.16    4.3456556    4.3456556    4.3456556     11073.16   -13730.057    46990.426   -40.887456    2138.0576    6191.4454   -6617.4549    82.066499 
   68000    536.99822   -100.99077   0.48588727   -100.50488   -9555.5562    4.3516185    4.3516185    4.3516185   -9555.5562   -6508.7481   -3880.6309    -18277.29    2882.1157   -4539.5964    8266.5132    82.404786 
   68100    552.87261   -101.00472   0.50025076   -100.50446   -1781.1701    4.3467572    4.3467572    4.3467572   -1781.1701   -11904.051    16091.573   -9531.0327   -46.106074    8244.2612    -1807.626    82.128927 
   68200    469.27204   -100.92982    0.4246072   -100.50521   -769.92905    4.3499205    4.3499205    4.3499205   -769.92905   -12510.884    19900.296   -9699.1996    968.29209   -4341.4625    8072.8361    82.308365 
   68300    417.36088   -100.88354   0.37763689    -100.5059   -2559.3866    4.3480697    4.3480697    4.3480697   -2559.3866   -12765.954    24546.952   -19459.158   -2667.8975     6973.108    7840.0108    82.203344 
   68400      474.279   -100.93322    0.4291376   -100.50408     1909.191    4.3486173    4.3486173    4.3486173     1909.191   -10580.346    29342.764   -13034.846    1997.3537   -3076.6013    2953.8007    82.234406 
   68500    606.04757    -101.0534   0.54836458   -100.50503   -9266.9388    4.3483842    4.3483842    4.3483842   -9266.9388   -10122.078   -4555.6642   -13123.075   -4966.2118    4734.9853    9278.4237    82.221186 
   68600    473.78774   -100.93281    0.4286931   -100.50412    71.564393    4.3488946    4.3488946    4.3488946    71.564393   -15882.112     32808.94   -16712.135      2994.57     537.1874   -4054.9531    82.250138 
   68700    447.68618   -100.91034   0.40507586   -100.50527    452.79357    4.3488218    4.3488218    4.3488218    452.79357   -5617.7901    24311.063   -17334.892   -4950.7465   -1314.4088    12671.592    82.246012 
   68800    567.07776   -101.01753   0.51310387   -100.50443    1362.2796    4.3473978    4.3473978    4.3473978    1362.2796   -18327.171    30905.024   -8491.0141    1261.7711     6098.788    4104.2806    82.165245 
   68900    475.61651   -100.93526   0.43034781   -100.50491   -5352.6323    4.3515863    4.3515863    4.3515863   -5352.6323   -11567.024    3285.4544   -7776.3271    -1497.516   -4332.0737    10411.247    82.402958 
   69000    543.42717    -100.9969   0.49170432   -100.50519   -2273.8759    4.3459358    4.3459358    4.3459358   -2273.8759   -7579.4306    5104.5806   -4346.7778    1723.9242     8057.978    7098.6288    82.082376 
   69100    487.96265   -100.94641   0.44151886   -100.50489    2434.6976    4.3524542    4.3524542    4.3524542    2434.6976   -22408.197    28715.558    996.73157    1411.4793     -5103.21   -5636.7023    82.452272 
   69200    372.29032   -100.84331    0.3368561   -100.50645    6496.5742    4.3439963    4.3439963    4.3439963    6496.5742   -4442.6499     29743.49    -5811.117    3481.1225    7011.9466     8315.398    81.972531 
   69300    555.98703   -101.00748   0.50306875   -100.50441   -3761.2787    4.3531013    4.3531013    4.3531013   -3761.2787   -18771.996    24284.451   -16796.291    2279.5921    -2796.331   -5216.4579    82.489052 
   69400    591.74122   -101.04061   0.53541989   -100.50519    -585.2958    4.3456273    4.3456273    4.3456273    -585.2958   -10170.509     13603.36   -5188.7387    2792.6328    2115.3586    10556.227    82.064899 
   69500    477.51481   -100.93912   0.43206544   -100.50706   -5495.0923    4.3482762    4.3482762    4.3482762   -5495.0923   -9733.3627    18908.123   -25660.037    681.04231     3626.238    1426.6951    82.215058 
   69600    465.79782   -100.92725   0.42146366   -100.50578    1643.0841    4.3512853    4.3512853    4.3512853    1643.0841   -15133.658    35451.885   -15388.974    2246.1805   -3670.4254   -3374.1526     82.38586 
   69700    481.09962   -100.94238   0.43530905   -100.50707    1566.6103    4.3445481    4.3445481    4.3445481    1566.6103   -10598.197    20677.297   -5379.2686   -1824.9894    8628.8448    1050.0352    82.003773 
   69800    477.63806   -100.93627   0.43217695    -100.5041   -5383.4768    4.3540199    4.3540199    4.3540199   -5383.4768   -14055.106     8384.955    -10480.28    1698.1076   -6441.2129   -6582.8678    82.541286 
   69900    553.14517   -101.00431   0.50049737   -100.50381   -123.29649    4.3447262    4.3447262    4.3447262   -123.29649   -5243.9893     992.9432    3881.1566   -4940.3858    8889.6818    7204.4526    82.013856 
   70000    505.03914   -100.96147   0.45697003    -100.5045   -1127.6472    4.3519071    4.3519071    4.3519071   -1127.6472   -14948.141     15847.43   -4282.2303    1159.8655   -3765.0365    6859.3617    82.421182 
   70100    492.98027   -100.94985   0.44605891   -100.50379    2979.3306    4.3483603    4.3483603    4.3483603    2979.3306   -10659.801    25068.742   -5470.9492   -5461.2234    3593.7829    1925.7292    82.219826 
   70200    433.74622   -100.89892   0.39246269   -100.50646    4754.0052    4.3452181    4.3452181    4.3452181    4754.0052   -3603.3835    25640.134   -7774.7352   -468.39988    1834.4067    10611.181    82.041718 
   70300    551.79368   -101.00411   0.49927452   -100.50483   -4672.7363    4.3540643    4.3540643    4.3540643   -4672.7363    -21366.07    8240.6945     -892.834   -1391.0542     -2225.08   -8066.6205     82.54381 
   70400    518.48207   -100.97406   0.46913348   -100.50492   -3851.9196    4.3445337    4.3445337    4.3445337   -3851.9196   -7348.6688   -20.203367   -4186.8865   -61.139034    8724.7066    12685.142    82.002955 
   70500    492.64651   -100.95085   0.44575691    -100.5051   -1397.1281    4.3503907    4.3503907    4.3503907   -1397.1281   -9609.6485    15014.835   -9596.5707    1823.8665   -6432.3393    535.60426    82.335055 
   70600    474.30141   -100.93464   0.42915788   -100.50548   -3224.5246    4.3502617    4.3502617    4.3502617   -3224.5246   -22974.171    22242.117   -8941.5197    3377.6295    9102.3968    8980.1524    82.327731 
   70700    403.76712   -100.86985   0.36533698   -100.50451    5296.2343    4.3462982    4.3462982    4.3462982    5296.2343    -7666.526    40000.376   -16445.147    1489.1992   -3060.2765    5687.4744    82.102912 
   70800    571.29824   -101.02186   0.51692266   -100.50493   -10905.731     4.353089     4.353089     4.353089   -10905.731   -18160.699    7178.1488   -21734.642    3873.9998    4363.1782   -5877.6424    82.488356 
   70900    575.92841   -101.02477   0.52111212   -100.50365   -3722.6363    4.3460364    4.3460364    4.3460364   -3722.6363   -12906.431    7121.7998   -5383.2771   -1390.4841    2227.1573     7686.806    82.088078 
   71000     487.5906   -100.94503   0.44118222   -100.50384   -7232.1898    4.3521194    4.3521194    4.3521194   -7232.1898   -15389.992    13667.565   -19974.142    2501.7566   -522.81295   -8995.7326    82.433249 
   71100    458.83347   -100.92115   0.41516217   -100.50599    3006.7676     4.345928     4.345928     4.345928    3006.7676   -11789.942    26850.187   -6039.9428   -1663.4535    5963.1543    8512.3972    82.081935 
   71200    474.75795   -100.93409   0.42957097   -100.50452    2976.6891    4.3501166    4.3501166    4.3501166    2976.6891   -16148.621    26663.149   -1584.4606   -292.29785   -2523.5429    2733.2583    82.319493 
   71300    489.37708   -100.94924   0.44279867   -100.50644   -4803.9358    4.3490136    4.3490136    4.3490136   -4803.9358   -12343.888    3047.9767   -5115.8962   -1334.3485    6748.4544   -3779.1756    82.256891 
   71400    600.16029   -101.04751   0.54303765   -100.50448    5338.3337    4.3464879    4.3464879    4.3464879    5338.3337   -4705.1892    17409.737     3310.453    -2382.409   -1996.7229    7737.0632     82.11366 
   71500    432.83036   -100.89831     0.391634   -100.50668   -761.97178    4.3527631    4.3527631    4.3527631   -761.97178   -21498.056    30841.888   -11629.747   -1625.4733    5832.7711   -11384.633    82.469828 
   71600    474.81562    -100.9341   0.42962315   -100.50448    9243.5641    4.3451522    4.3451522    4.3451522    9243.5641   -4194.1115     31367.02    557.78358   -3283.1946    38.672606     13119.51    82.037984 
   71700    502.47015   -100.95922   0.45464555   -100.50457   -6317.2917    4.3518669    4.3518669    4.3518669   -6317.2917    -13067.48    11363.955   -17248.351   -103.10816     3313.096   -4606.8692    82.418897 
   71800    603.70305   -101.05098   0.54624321   -100.50474   -4180.1845    4.3466107    4.3466107    4.3466107   -4180.1845   -12355.187   -1644.4916    1459.1252   -2101.3507    3310.7458    4282.6255    82.120624 
   71900    471.69953   -100.93166   0.42680365   -100.50486    -2096.363    4.3511486    4.3511486    4.3511486    -2096.363   -11064.077    19344.701   -14569.713    1546.3359    1198.6943   -2065.4455    82.378094 
   72000    358.75006   -100.83204   0.32460459   -100.50743    256.44983    4.3476671    4.3476671    4.3476671    256.44983   -12869.004    29083.147   -15444.793   -1120.0086    5780.0698    -10272.55    82.180516 
   72100    621.24994   -101.06559      0.56212   -100.50347    2968.9045    4.3470241    4.3470241    4.3470241    2968.9045   -12402.771    22229.981   -920.49696    2588.9755    -1328.314    3099.8683    82.144055 
   72200    389.95056   -100.86034   0.35283546    -100.5075   -9144.6885    4.3528379    4.3528379    4.3528379   -9144.6885    -15536.35    10797.298   -22695.014    183.87757    8279.9406   -7980.0061    82.474082 
   72300    689.61757   -101.12746   0.62398047   -100.50348   -136.66317    4.3448642    4.3448642    4.3448642   -136.66317   -5087.4465    6718.2189   -2040.7619    2529.3225   -1420.7671    3564.4207    82.021674 
   72400    370.78071   -100.84234   0.33549018   -100.50685    2516.9515    4.3510457    4.3510457    4.3510457    2516.9515   -19873.677    36200.731   -8776.1988    2233.3095     6969.015   -2886.6072    82.372253 
   72500    457.80473   -100.92108   0.41423134   -100.50685   -1722.4897    4.3484613    4.3484613    4.3484613   -1722.4897   -12118.123    14435.829   -7485.1747    2185.4061    1347.8232   -11113.962    82.225558 
   72600    569.22147   -101.01887   0.51504355   -100.50382    4473.5783    4.3481382    4.3481382    4.3481382    4473.5783   -7971.7226    13442.927     7949.531   -1906.7363    3515.5049    2607.0531     82.20723 
   72700    468.16223   -100.93025   0.42360302   -100.50664   -9496.9438    4.3506697    4.3506697    4.3506697   -9496.9438   -19830.693    -5342.798     -3317.34    2354.9254     6410.676   -12368.062    82.350899 
   72800    575.96125   -101.02392   0.52114184   -100.50277    7437.9314    4.3474415    4.3474415    4.3474415    7437.9314   -6824.0597    16448.193    12689.661   -4780.9497    200.92306    11340.239    82.167723 
   72900    336.30409   -100.81026   0.30429501   -100.50596   -1676.3489    4.3514555    4.3514555    4.3514555   -1676.3489   -13590.283    29024.709   -20463.473    1128.0664    6736.3842   -5229.9149    82.395528 
   73000    558.55743   -101.00957    0.5053945   -100.50418    3897.1491    4.3452482    4.3452482    4.3452482    3897.1491   -10952.165    16574.663    6068.9494   -5612.7316     92.23374    27.070912    82.043423 
   73100    506.51669   -100.96247   0.45830694   -100.50416   -5182.6107    4.3522683    4.3522683    4.3522683   -5182.6107   -11793.143    18878.049   -22632.738    1322.9774    7041.7206    -1612.507    82.441709 
   73200    549.72511   -101.00228   0.49740283   -100.50487   -8343.5467    4.3473147    4.3473147    4.3473147   -8343.5467   -6534.8883   -6471.3027   -12024.449   -3921.9622   -1457.9355   -10621.752     82.16053 
   73300    534.57434   -100.98771   0.48369409   -100.50401    7143.5289     4.347005     4.347005     4.347005    7143.5289   -14434.777     37445.04    -1579.676    1369.5039    5656.9021    8162.1041    82.142976 
   73400    294.34572   -100.77416   0.26633019   -100.50783   -4929.7825    4.3530162    4.3530162    4.3530162   -4929.7825   -12030.143    18615.601   -21374.806   -2605.0119    875.54031   -8234.0245    82.484218 
   73500    629.91704   -101.07354   0.56996217   -100.50358    6085.5572    4.3431995    4.3431995    4.3431995    6085.5572   -7769.1362    21223.397    4802.4106     1343.548    1937.9878    5526.3945    81.927431 
   73600    447.80992   -100.91137   0.40518783   -100.50618   -4845.3613    4.3534582    4.3534582    4.3534582   -4845.3613   -16259.528    6324.4148   -4600.9713   -1757.4326    3998.4177   -7580.1494    82.509345 
   73700    588.79367   -101.03725   0.53275288   -100.50449    -6164.579    4.3476947    4.3476947    4.3476947    -6164.579   -10084.042    616.42225   -9026.1166    2115.9747   -472.21683   -11454.091    82.182079 
   73800    421.55282   -100.88577   0.38142985   -100.50434    13661.739     4.347467     4.347467     4.347467    13661.739   -9551.6631     47805.57    2731.3094     839.4394    5914.7659   -703.21686    82.169167 
   73900    465.94697   -100.92778   0.42159861   -100.50618   -8111.0563    4.3519666    4.3519666    4.3519666   -8111.0563   -18530.935    7496.5063    -13298.74    2846.7499   -2308.5156   -15142.586    82.424564 
   74000     554.1884   -101.00488   0.50144131   -100.50344    7299.3622    4.3454865    4.3454865    4.3454865    7299.3622   -10247.965    21622.525    10523.527   -1511.4748    6300.4293    7218.5271    82.056921 
   74100    565.25184   -101.01739   0.51145175   -100.50594    -7336.563    4.3504794    4.3504794    4.3504794    -7336.563   -7968.2855    557.72217   -14599.126    1469.3682   -2528.4932   -16029.964    82.340093 
   74200    438.93744   -100.90439   0.39715982   -100.50723    1101.7584    4.3484686    4.3484686    4.3484686    1101.7584   -23885.996     21164.85    6026.4211   -5386.5199    4494.0256   -2896.8638     82.22597 
   74300    433.19116   -100.89647   0.39196047   -100.50451    7514.5536    4.3487473    4.3487473    4.3487473    7514.5536   -9996.7724    46286.072   -13745.639   -477.04377    1112.1171    -10348.81    82.241782 
   74400    475.10478    -100.9365   0.42988479   -100.50662    -6123.037    4.3493153    4.3493153    4.3493153    -6123.037   -14277.538    5351.7422   -9443.3154   -5227.4824     1063.242   -8783.9034    82.274015 
   74500    605.88567   -101.05084   0.54821809   -100.50263   -3059.2417    4.3491976    4.3491976    4.3491976   -3059.2417   -21462.357    16516.919    -4232.288   -1217.2984    4826.0909    2415.2185    82.267333 
   74600    481.75612   -100.94142   0.43590306   -100.50552   -5156.2011    4.3476129    4.3476129    4.3476129   -5156.2011   -4043.7251    6249.6268   -17674.505    -3306.451   -758.99399    -8496.512    82.177442 
   74700    490.43696   -100.95097   0.44375766   -100.50721   -1789.0406    4.3502132    4.3502132    4.3502132   -1789.0406   -23062.293    31197.982   -13502.811   -3260.6436    6005.9252    1878.7299     82.32498 
   74800    447.79599   -100.91065   0.40517522   -100.50547    3006.3957    4.3491523    4.3491523    4.3491523    3006.3957   -10588.429     24618.98   -5011.3632   -1205.6931   -896.92374   -8382.8497    82.264761 
   74900    566.10621   -101.01843    0.5122248    -100.5062   -8796.5476     4.346914     4.346914     4.346914   -8796.5476   -14389.077   -1212.5494   -10788.017   -2788.6347    7095.3601   -6981.9606    82.137813 
   75000    541.55482   -100.99394   0.49001018   -100.50393    3135.6191    4.3520925    4.3520925    4.3520925    3135.6191   -10238.804     15107.28    4538.3811   -464.76296   -1184.9254    1370.2108    82.431718 
   75100     419.7392   -100.88568   0.37978885   -100.50589   -2014.3772    4.3459425    4.3459425    4.3459425   -2014.3772   -17654.036    16202.637   -4591.7326    1313.6797    6088.5611   -7324.8753    82.082754 
   75200    466.01348   -100.92767   0.42165879   -100.50601    9217.6543    4.3495284    4.3495284    4.3495284    9217.6543   -12721.371     35920.93    4453.4037    952.59567    535.59355    5725.2241    82.286104 
   75300     515.6374   -100.97315   0.46655956   -100.50659   -2068.1174    4.3495245    4.3495245    4.3495245   -2068.1174   -8523.1592    10280.072   -7961.2649    2868.0156    2194.9943   -5982.3439    82.285882 
   75400    552.21921   -101.00513   0.49965955   -100.50547   -2828.7828     4.347307     4.347307     4.347307   -2828.7828   -19903.186    6181.4635    5235.3742   -438.00225    5462.3553   -3253.9247    82.160094 
   75500    567.35574   -101.01701    0.5133554   -100.50365   -1716.1923    4.3524916    4.3524916    4.3524916   -1716.1923   -8066.7995    15392.543   -12474.321     1988.589   -1782.7686    8.6233319    82.454398 
   75600    413.24167   -100.87957   0.37390975   -100.50566    2526.1655    4.3452848    4.3452848    4.3452848    2526.1655   -11638.229    26457.705     -7240.98   -154.04821    6420.1421   -4359.7014    82.045496 
   75700    476.14048   -100.93411   0.43082192   -100.50329    438.14851    4.3530326    4.3530326    4.3530326    438.14851   -19967.641    22003.902   -721.81589   -83.895347   -2364.2155    12519.591    82.485146 
   75800    544.20312   -100.99666   0.49240642   -100.50426   -4166.7184    4.3458721    4.3458721    4.3458721   -4166.7184   -8128.1271    4578.2583   -8950.2864   -22.352499    6283.8965   -2600.5672    82.078765 
   75900    545.05904   -100.99796   0.49318088   -100.50478   -3947.4858    4.3497372    4.3497372    4.3497372   -3947.4858   -14356.814    2137.0776    377.27884   -3460.5171   -1912.7129    3137.5603    82.297959 
   76000    435.97461   -100.90016   0.39447899   -100.50568   -22.292841     4.349845     4.349845     4.349845   -22.292841   -17560.478    19187.375   -1693.7758    384.37218    2897.8911   -456.32628    82.304075 
   76100    549.87171   -101.00218   0.49753547   -100.50464    1674.7252    4.3475629    4.3475629    4.3475629    1674.7252   -13030.823    26340.018   -8285.0199   -5725.7484    1542.9357   -4452.0871    82.174603 
   76200    394.41467    -100.8623   0.35687468   -100.50543    4629.5572    4.3493228    4.3493228    4.3493228    4629.5572   -11740.411    25946.456   -317.37397     684.0132   -2672.0348    10589.951    82.274438 
   76300    653.03984   -101.09455   0.59088417   -100.50367   -7230.1644    4.3476446    4.3476446    4.3476446   -7230.1644    -18283.22   -3336.8972   -70.375941   -4675.2813    3896.5145   -7531.3099    82.179237 
   76400    467.58054   -100.93017    0.4230767    -100.5071   -60.185877    4.3502389    4.3502389    4.3502389   -60.185877   -10882.247    5594.7557     5106.934   -28.878311   -4545.0394    7907.5605    82.326438 
   76500     516.6003    -100.9723   0.46743081   -100.50487    764.93953    4.3489462    4.3489462    4.3489462    764.93953    -15053.81    20786.261   -3437.6319    -2109.189    2913.1319   -10168.444    82.253065 
   76600    357.36776   -100.82882   0.32335386   -100.50547    2248.6773    4.3500649    4.3500649    4.3500649    2248.6773   -22433.983     22411.27    6768.7449   -2237.0976   -3939.0248   -2801.9953    82.316557 
   76700    503.60987   -100.96033    0.4556768   -100.50465    4647.4167    4.3473197    4.3473197    4.3473197    4647.4167   -5107.2805    20584.783   -1535.2525    24.059465    1771.3824   -570.97341    82.160815 
   76800    658.34828   -101.09807   0.59568736   -100.50238   -10647.747     4.353312     4.353312     4.353312   -10647.747   -21681.119   -5626.8199   -4635.3033   -618.59744   -2610.6726   -2971.1188    82.501033 
   76900    339.74933    -100.8141   0.30741233   -100.50669    8055.6808    4.3437913    4.3437913    4.3437913    8055.6808   -7854.6775    31717.614    304.10617    313.33753   -957.56163    10530.144    81.960926 
   77000    632.25156    -101.0766    0.5720745   -100.50453   -3514.1504    4.3526601    4.3526601    4.3526601   -3514.1504   -14432.835    17651.842   -13761.458    4105.4409    1196.8601   -2164.9828    82.463972 
   77100    354.59115   -100.82827   0.32084153   -100.50743    1779.3891    4.3478682    4.3478682    4.3478682    1779.3891   -15372.713    28996.763   -8285.8821   -2349.9862   -4687.0288    2872.1308    82.191918 
   77200    620.18076   -101.06537   0.56115259   -100.50421   -3015.7884    4.3467207    4.3467207    4.3467207   -3015.7884   -10572.272    1281.0324    243.87402    4216.6224    4181.4991    1994.8921    82.126859 
   77300    520.03771   -100.97545   0.47054105   -100.50491     -12417.8    4.3545485    4.3545485    4.3545485     -12417.8    -21312.01   -8227.9094   -7713.4817   -5945.9271   -6515.9544    798.81632    82.571351 
   77400    405.91724   -100.87322   0.36728245   -100.50594    11952.167    4.3419956    4.3419956    4.3419956    11952.167   -4547.6402    40509.563   -105.42166    2227.8774     3872.032    12806.874    81.859323 
   77500    534.14893   -100.98819   0.48330918   -100.50488   -1946.7274    4.3539843    4.3539843    4.3539843   -1946.7274   -28342.831    24267.891   -1765.2416   -5292.6623   -5084.9791    2321.0238    82.539259 
   77600    401.96985   -100.86966   0.36371077   -100.50595     8010.853    4.3467387    4.3467387    4.3467387     8010.853   -6575.5004    33013.312   -2405.2528    678.73947    543.73051    6211.8665    82.127875 
   77700    657.31349   -101.09694   0.59475106   -100.50219   -4591.3112     4.349856     4.349856     4.349856   -4591.3112   -14715.385   -2215.8916     3157.343   -2358.8244   -3182.2783      1605.87    82.304703 
   77800    480.37006   -100.93968   0.43464893   -100.50503   -1280.8058    4.3500646    4.3500646    4.3500646   -1280.8058   -23380.436    26386.064   -6848.0456   -2686.3854   -3113.4082   -2171.6888    82.316541 
   77900    448.29347   -100.90975   0.40562535   -100.50413    4988.9317    4.3476599    4.3476599    4.3476599    4988.9317   -4964.4694    20786.989   -855.72387   -1724.5228    978.00344    5864.8082    82.180106 
   78000    530.83077   -100.98407   0.48030684   -100.50377   -4903.0464    4.3499233    4.3499233    4.3499233   -4903.0464   -22409.955    19647.023   -11946.207    -4018.982     -8276.52   -771.53562     82.30852 
   78100    462.36834   -100.92398   0.41836059   -100.50562    863.49908    4.3477583    4.3477583    4.3477583    863.49908   -10467.537     11541.58     1516.454    214.22659    4700.3685    11217.296    82.185684 
   78200    655.94232   -101.09737    0.5935104   -100.50386   -7393.7182    4.3492948    4.3492948    4.3492948   -7393.7182   -13783.472    3616.9591   -12014.641    98.007366    -9462.462   -522.44409    82.272851 
   78300    319.99133   -100.79527   0.28953488   -100.50574    7102.2676    4.3497541    4.3497541    4.3497541    7102.2676   -14438.164    37978.754   -2233.7877    1154.5529    3640.1106     2357.615    82.298916 
   78400    503.36424   -100.96079   0.45545454   -100.50534    2978.9407    4.3470429    4.3470429    4.3470429    2978.9407   -15031.879     36129.51   -12160.809    5750.7248   -7103.9759     4283.939    82.145123 
   78500    576.51058   -101.02517   0.52163889   -100.50353    -1152.241    4.3514371    4.3514371    4.3514371    -1152.241   -14137.938    18746.047   -8064.8323   -1442.2578    738.45782    358.13472    82.394484 
   78600    466.79129   -100.92845   0.42236257   -100.50609    -11146.36    4.3477669    4.3477669    4.3477669    -11146.36   -11576.304    -8505.977   -13356.798    5382.6767   -4262.3555    13478.968     82.18617 
   78700    605.62379   -101.05378   0.54798113   -100.50579   -471.96047    4.3485236    4.3485236    4.3485236   -471.96047   -16495.222    19325.689    -4246.348   -1984.4961   -5160.7489    1457.5304     82.22909 
   78800    463.18089   -100.92569    0.4190958   -100.50659   -2884.7445    4.3523559    4.3523559    4.3523559   -2884.7445   -14894.302    23941.807   -17701.739    1733.8666    1568.2399    7416.9155    82.446684 
   78900    395.23802   -100.86439   0.35761967   -100.50677    8083.9833    4.3434864    4.3434864    4.3434864    8083.9833   -8804.4006    28136.564    4919.7868     972.1157   -11716.606    1929.2404    81.943668 
   79000    587.57441   -101.03444   0.53164968   -100.50279   -4267.3624    4.3544225    4.3544225    4.3544225   -4267.3624   -21195.049    14530.328   -6137.3661   -3192.2829    6932.4135   -4545.1078    82.564184 
   79100    479.07574   -100.93958   0.43347779    -100.5061   -161.53702    4.3446798    4.3446798    4.3446798   -161.53702   -8873.0691    8989.4464   -600.98837    1542.4205   -14065.478    10325.306    82.011231 
   79200    657.11805   -101.09829   0.59457422   -100.50372    1321.5917    4.3486493    4.3486493    4.3486493    1321.5917     -13782.9    20602.585   -2854.9102   -5991.2393    5049.4715   -5745.1213    82.236222 
   79300    185.71873   -100.67735   0.16804221   -100.50931    -884.5888    4.3507686    4.3507686    4.3507686    -884.5888   -24472.117    28627.365   -6809.0141   -511.35292   -8976.6664    8293.2024    82.356514 
   79400    677.02948   -101.11872    0.6125905   -100.50613    364.01965    4.3472911    4.3472911    4.3472911    364.01965   -12067.074    22410.795   -9251.6629   -5289.6784   -2751.0039   -7329.8178    82.159195 
   79500    487.68624   -100.94725   0.44126875   -100.50598   -3283.4986    4.3499118    4.3499118    4.3499118   -3283.4986   -17205.311    11747.256   -4392.4409   -1034.9792   -943.85998   -913.89631    82.307868 
   79600    465.28159   -100.92902   0.42099656   -100.50803    -9947.951     4.349948     4.349948     4.349948    -9947.951     -20861.5    297.89195    -9280.245    518.22625   -11053.096    228.41893    82.309924 
   79700    684.09367   -101.12148   0.61898232    -100.5025    4383.1965    4.3498862    4.3498862    4.3498862    4383.1965   -8244.7471    19606.849    1787.4875    17.723583    3583.4353   -1502.8641    82.306418 
   79800    291.40625   -100.77143   0.26367049   -100.50776    2804.7976    4.3483784    4.3483784    4.3483784    2804.7976   -22540.036    42272.966   -11318.538    4233.5198   -13099.282    9076.9001    82.220854 
   79900    542.48323   -100.99323   0.49085023   -100.50238    6773.5968    4.3498703    4.3498703    4.3498703    6773.5968   -13195.126    30408.265    3107.6522    2583.6763    4789.6293    6312.3509    82.305513 
   80000    397.31297    -100.8665   0.35949713   -100.50701   -4440.8786    4.3493102    4.3493102    4.3493102   -4440.8786   -15220.672    9057.7499   -7159.7137     2751.291   -13117.559    3827.9625    82.273724 
   80100    708.79204   -101.14549   0.64132994   -100.50416   -5753.1583    4.3489676    4.3489676    4.3489676   -5753.1583   -10821.987   -4533.2592   -1904.2287    3656.0277    1737.4941    8121.6976    82.254281 
   80200    432.07595   -100.89758    0.3909514   -100.50663    1733.5328    4.3474289    4.3474289    4.3474289    1733.5328   -15658.025    23636.016   -2777.3925   -1417.0458   -9452.1473   -5010.5822    82.167005 
   80300    387.51228    -100.8599   0.35062926   -100.50927    2398.1358    4.3492329    4.3492329    4.3492329    2398.1358   -11931.514    29904.342    -10778.42    4111.2271   -3473.4266    11178.743    82.269338 
   80400    607.24246   -101.05405   0.54944574    -100.5046    4939.9038    4.3494315    4.3494315    4.3494315    4939.9038   -13739.213    34396.832    -5837.907    -4181.472   -3259.7192   -1255.6011    82.280605 
   80500    413.32443   -100.88183   0.37398463   -100.50785   -675.66115    4.3465526    4.3465526    4.3465526   -675.66115   -18790.158    21555.851   -4792.6768    5425.6736   -10028.773    8719.1238    82.117328 
   80600    646.60243   -101.08804   0.58505946   -100.50299   -6241.2217    4.3524632    4.3524632    4.3524632   -6241.2217   -10912.786   -4394.4688   -3416.4098   -1767.9816     2164.755   -429.97929    82.452786 
   80700    381.55811   -100.85135    0.3452418    -100.5061     4327.889    4.3460193    4.3460193    4.3460193     4327.889   -19550.633        36622   -4087.7001    2130.7743   -13264.395   -3506.7121    82.087105 
   80800    451.05212   -100.91401   0.40812143   -100.50589    1638.8474    4.3490724    4.3490724    4.3490724    1638.8474    -17778.28    23930.798   -1235.9763    738.08532    3184.8287    1054.5104    82.260231 
   80900    542.70432   -100.99565   0.49105027    -100.5046   -8487.0305     4.352628     4.352628     4.352628   -8487.0305    -19503.15    5178.8707   -11136.812   -77.022816   -13062.298   -1306.5871    82.462149 
   81000    510.87885   -100.96597   0.46225392   -100.50371    4678.8783    4.3434741    4.3434741    4.3434741    4678.8783   -8526.3561    13598.106    8964.8855    1763.2142    2028.6447    5579.1105    81.942972 
   81100    605.91072   -101.05169   0.54824075   -100.50345   -12511.564    4.3552795    4.3552795    4.3552795   -12511.564   -28513.507    10496.528   -19517.712    1429.8989   -10355.916    8010.2832    82.612945 
   81200    416.14464   -100.87983   0.37653641    -100.5033    16451.188    4.3439298    4.3439298    4.3439298    16451.188   -7017.1225    50249.717    6120.9692    3514.4775   -2243.3445   -1357.9013    81.968764 
   81300    464.98024   -100.92548   0.42072389   -100.50475   -6749.7012    4.3509573    4.3509573    4.3509573   -6749.7012   -19703.273    13465.266   -14011.097    5540.1067   -3499.0226    10453.442    82.367232 
   81400    522.42204   -100.97635   0.47269844   -100.50366    -526.4811     4.349781     4.349781     4.349781    -526.4811   -18311.356    16972.436    -240.5238    2016.2883   -7802.3522   -7469.1201    82.300445 
   81500    634.28175   -101.07816   0.57391145   -100.50425   -5429.1485    4.3462484    4.3462484    4.3462484   -5429.1485   -5577.4624   -4696.1703   -6013.8128    6452.5373    2679.9354    12041.357    82.100091 
   81600    410.36035   -100.87746   0.37130267   -100.50616   -6250.8138    4.3547897    4.3547897    4.3547897   -6250.8138   -22942.208    14685.106   -10495.339   -351.08283   -10717.926    1210.3764    82.585075 
   81700     405.5398   -100.87067   0.36694093   -100.50373    14265.046    4.3432305    4.3432305    4.3432305    14265.046   -5210.8931    49032.017   -1025.9872    3714.9341    5167.3379     6066.261    81.929184 
   81800    538.81336   -100.99379   0.48752965   -100.50626   -11018.819     4.355355     4.355355     4.355355   -11018.819   -20617.594    7751.0056   -20189.869   -149.54943   -10709.577    6000.6411    82.617237 
   81900    608.93714   -101.05328   0.55097912    -100.5023    7769.5226    4.3435272    4.3435272    4.3435272    7769.5226   -742.06952    24328.281   -277.64334     834.5087    3449.1534   -8016.2184    81.945978 
   82000    403.06805   -100.87119   0.36470444   -100.50648   -12979.191     4.353319     4.353319     4.353319   -12979.191   -23151.653   -3330.1004   -12455.818    1381.3776   -7368.2282    6364.7705    82.501431 
   82100    630.86049   -101.07509   0.57081583   -100.50428    5689.3121    4.3456356    4.3456356    4.3456356    5689.3121   -8519.6796    35770.482   -10182.866   -1453.0592   -1583.9691   -7163.0083    82.065366 
   82200    333.93396    -100.8089   0.30215046   -100.50675    1693.5722    4.3488082    4.3488082    4.3488082    1693.5722   -13133.725    19927.709   -1713.2667    2298.4501   -1795.9168    5547.5212    82.245237 
   82300    507.81003    -100.9647   0.45947718   -100.50522   -11473.098    4.3501246    4.3501246    4.3501246   -11473.098   -23068.101    547.25133   -11898.445   -3225.7645   -7105.8497    2343.3221    82.319947 
   82400    601.20438    -101.0484   0.54398236   -100.50442    8732.8679    4.3439171    4.3439171    4.3439171    8732.8679   -188.95793    15621.718    10765.843    2173.6126    2152.3746   -5005.2259    81.968048 
   82500    465.63661    -100.9281   0.42131779   -100.50678    -13051.38     4.355872     4.355872     4.355872    -13051.38   -25624.037    5743.4605   -19273.564   -927.73305   -9236.0935     6941.886    82.646661 
   82600    442.16023   -100.90295   0.40007587   -100.50288    19035.417    4.3401119    4.3401119    4.3401119    19035.417   -6875.1095     54822.21    9159.1495   -15.368447    4158.5706    -8888.077    81.752825 
   82700    427.76601   -100.89448   0.38705167   -100.50743   -11056.127    4.3575796    4.3575796    4.3575796   -11056.127   -22440.403    10995.325   -21723.304    2568.1711   -9106.2612    9373.7868    82.743902 
   82800    698.09658   -101.13297   0.63165246   -100.50132    268.77288     4.343409     4.343409     4.343409    268.77288   -8625.7533    14949.525    -5517.453    1086.3678    3346.3636    586.28888    81.939284 
   82900    458.29371   -100.92026   0.41467378   -100.50559   -8145.3492    4.3511699    4.3511699    4.3511699   -8145.3492   -20435.616    3349.3895   -7349.8213    3008.4022   -6615.8081    2582.4492    82.379303 
   83000    525.26881   -100.98114   0.47527425   -100.50586   -4361.7843    4.3498224    4.3498224    4.3498224   -4361.7843   -14759.562    19280.616   -17606.407    3431.6457   -629.62161    5137.5876    82.302795 
   83100    429.71765   -100.89275   0.38881756   -100.50393    9459.4498    4.3459318    4.3459318    4.3459318    9459.4498   -11914.936    46099.204   -5805.9187    669.17235   -1911.1025   -10609.022     82.08215 
   83200    451.97196   -100.91567   0.40895373   -100.50671   -8860.2923    4.3509977    4.3509977    4.3509977   -8860.2923   -26165.747    10589.967   -11005.097    5450.3818   -6664.6445    6398.0469    82.369524 
   83300     629.7001   -101.07289   0.56976588   -100.50312    3381.6194    4.3462962    4.3462962    4.3462962    3381.6194   -3790.6444    19558.153     -5622.65     -2495.55    3492.8441   -4852.5599    82.102801 
   83400    444.27273   -100.90922   0.40198731   -100.50724   -7969.8111    4.3510696    4.3510696    4.3510696   -7969.8111   -23848.832    14513.406   -14574.008    4935.1133   -10548.752    3237.0547    82.373607 
   83500    509.90408   -100.96754   0.46137193   -100.50617    7421.2002    4.3441486    4.3441486    4.3441486    7421.2002   -11424.914     35240.82   -1552.3051   -1548.2611    5626.7435    1117.6347    81.981155 
   83600    445.96669   -100.90997   0.40352004   -100.50645   -6013.0385    4.3539856    4.3539856    4.3539856   -6013.0385   -16688.623    17877.892   -19228.384    3110.3893   -9230.9367   -5999.3068    82.539338 
   83700    531.93036   -100.98605   0.48130176   -100.50475    3369.2093    4.3430787    4.3430787    4.3430787    3369.2093   -9692.2808    11227.808     8572.101   -928.79104    3053.2706    1733.7069    81.920596 
   83800    624.55026   -101.06839    0.5651062   -100.50329   -7648.0729    4.3540347    4.3540347    4.3540347   -7648.0729   -17420.786    3011.1646   -8534.5977    931.91073   -4703.0864   -2523.0903    82.542125 
   83900    402.14715   -100.86931    0.3638712   -100.50544    7108.7962    4.3458645    4.3458645    4.3458645    7108.7962   -10601.344    25215.766    6711.9658   -1791.2731    -2432.204    5274.5392    82.078337 
   84000    471.08329   -100.92988   0.42624606   -100.50363    5246.5507    4.3496992    4.3496992    4.3496992    5246.5507   -12869.149    36592.073   -7983.2716    -419.8703    2112.0199    9274.1884    82.295799 
   84100    384.00418   -100.85239   0.34745505   -100.50493    3128.2721     4.350461     4.350461     4.350461    3128.2721    -18781.25    28660.655    -494.5891   -1833.9698   -7026.5683   -263.12943    82.339046 
   84200    643.02304   -101.08464   0.58182076   -100.50282   -3653.3539    4.3453908    4.3453908    4.3453908   -3653.3539   -5400.9617    4238.1357   -9797.2358    2804.4143    4914.0859    10325.641    82.051497 
   84300    470.46553   -100.92993    0.4256871   -100.50424   -9568.6952    4.3536466    4.3536466    4.3536466   -9568.6952   -16107.564    483.05726   -13081.579   -390.06047   -7421.4737   -7167.8588    82.520056 
   84400    559.23751   -101.01058   0.50600985   -100.50457   -3460.7103    4.3445419    4.3445419    4.3445419   -3460.7103   -13864.644    11675.095   -8192.5819    6452.3107    5407.3483    5127.2466    82.003421 
   84500    427.51843   -100.89247   0.38682766   -100.50564    2101.5117    4.3510824    4.3510824    4.3510824    2101.5117   -11820.345    35248.311   -17123.431    146.70144   -4584.0015    1289.6528    82.374333 
   84600     442.0235    -100.9062   0.39995215   -100.50625   -165.20201    4.3480198    4.3480198    4.3480198   -165.20201   -16185.535    24254.829   -8564.9009    5147.9618    2082.4959    500.18906    82.200518 
   84700    540.33907   -100.99369   0.48891014   -100.50478   -2765.3741    4.3483711    4.3483711    4.3483711   -2765.3741   -14069.556     5798.871   -25.437553   -1243.7878    1291.8869    6329.3576    82.220441 
   84800    592.00711   -101.03976   0.53566048    -100.5041   -4599.9721    4.3496929    4.3496929    4.3496929   -4599.9721   -12504.011    7820.8896   -9116.7954    2061.6616   -2796.7067   -7713.7218    82.295444 
   84900    405.78957   -100.87251   0.36716693   -100.50534    942.43496    4.3482904    4.3482904    4.3482904    942.43496   -13043.054    14988.341    882.01855    29.138689      5658.05    1637.9786    82.215865 
   85000    490.00333   -100.94618   0.44336531   -100.50282    1908.2911    4.3499243    4.3499243    4.3499243    1908.2911   -17224.021    30133.331   -7184.4364   -1416.1897   -3879.8272   -4682.0618    82.308578 
   85100    452.54461   -100.91519   0.40947188   -100.50572    1853.9479    4.3463848    4.3463848    4.3463848    1853.9479   -6433.0917    14250.914   -2255.9786    1202.3202    5639.5667   -567.87074    82.107818 
   85200    599.78214    -101.0464   0.54269549    -100.5037   -7435.4939     4.351706     4.351706     4.351706   -7435.4939   -14446.625    2760.1642   -10620.021   -1010.4166    -1139.023    9932.3283    82.409757 
   85300    525.49744    -100.9804   0.47548113   -100.50492    2905.5366    4.3477754    4.3477754    4.3477754    2905.5366   -9624.0628    15464.331    2876.3419    -720.2661    3052.4579   -7503.5988    82.186652 
   85400    457.11643   -100.92044   0.41360855   -100.50684    1815.1134    4.3466234    4.3466234    4.3466234    1815.1134   -6356.1972    22627.715   -10826.178   -296.29852    865.91858    10980.203    82.121343 
   85500    418.59944   -100.88474   0.37875757   -100.50598    4445.0415    4.3523208    4.3523208    4.3523208    4445.0415   -13610.827     37791.47   -10845.519     -2646.01    1221.9113   -7807.3765    82.444689 
   85600    557.56647   -101.01073   0.50449786   -100.50623   -2646.5172     4.344845     4.344845     4.344845   -2646.5172   -6715.2467    1989.1912   -3213.4961    1606.0965    1894.4418    5633.1334    82.020583 
   85700    526.26756   -100.97994   0.47617795   -100.50376   -8483.4701    4.3517799    4.3517799    4.3517799   -8483.4701   -7814.5632    930.66896   -18566.516    99.497788   -674.30371    3867.3304    82.413954 
   85800     523.9639   -100.97812   0.47409355   -100.50403    -6742.088    4.3492723    4.3492723    4.3492723    -6742.088   -11647.028    8887.9979   -17467.234    4051.2994    4633.2653   -1557.7521    82.271571 
   85900    489.27488    -100.9471   0.44270619   -100.50439    6041.6838    4.3451773    4.3451773    4.3451773    6041.6838   -7310.7152    29027.409   -3591.6421    3929.9933    -2016.806    7329.6062    82.039404 
   86000    415.16107   -100.88045   0.37564646   -100.50481   -5391.8302    4.3542068    4.3542068    4.3542068   -5391.8302   -15914.432    24824.768   -25085.827    2759.5759    5379.3431   -9052.4168    82.551916 
   86100    529.31183   -100.98326   0.47893247   -100.50433    3239.8097    4.3429642    4.3429642    4.3429642    3239.8097   -3101.9513     5172.381    7648.9995    4565.4887    -873.8137    3472.6338    81.914115 
   86200    610.01783   -101.05681   0.55195696   -100.50485   -1875.9247    4.3521726    4.3521726    4.3521726   -1875.9247   -16638.625    15961.783   -4950.9324   -701.14829    3714.1096     1033.102    82.436269 
   86300    404.43762   -100.87083   0.36594366   -100.50489   -2275.2544    4.3501843    4.3501843    4.3501843   -2275.2544   -8809.3757    6472.4874    -4488.875    2968.2773    506.36672     642.9887    82.323335 
   86400    458.15929    -100.9181   0.41455215   -100.50355    9340.1084    4.3442407    4.3442407    4.3442407    9340.1084   -8015.6306    36385.608   -349.65255   -1568.2573    1992.2406     9520.986    81.986367 
   86500    550.11179   -101.00396   0.49775271   -100.50621     -4586.52     4.352464     4.352464     4.352464     -4586.52   -15420.828    6496.8279   -4835.5597    2719.7784    2661.6056   -11339.367     82.45283 
   86600    497.74192   -100.95457   0.45036734    -100.5042   -4069.3809    4.3474958    4.3474958    4.3474958   -4069.3809   -3330.7154   -4675.5716   -4201.8558   -1093.1549   -1585.7486    10394.401    82.170801 
   86700    535.18095   -100.98906   0.48424297   -100.50482    -911.0318    4.3484218    4.3484218    4.3484218    -911.0318    -13438.82    20361.006   -9655.2813    1353.1324    7010.4719   -5521.8841    82.223315 
   86800    502.75631   -100.96044   0.45490448   -100.50554    1135.8473    4.3501202    4.3501202    4.3501202    1135.8473   -8252.0027    14276.261   -2616.7165   -1728.0125   -2522.7375    11466.649    82.319697 
   86900    330.98095    -100.8034   0.29947852   -100.50393    3263.6468     4.348922     4.348922     4.348922    3263.6468   -11762.705    41076.817   -19523.172    -1456.755    6452.0583    3925.2513    82.251696 
   87000    607.78876    -101.0534   0.54994004   -100.50346   -6567.7757    4.3480324    4.3480324    4.3480324   -6567.7757   -7312.7443   -3287.7104   -9102.8724   -1857.4246    646.30673     1462.634    82.201232 
   87100     536.8993   -100.98994   0.48579777   -100.50414   -5127.7879    4.3499221    4.3499221    4.3499221   -5127.7879   -10871.028    5285.9714   -9798.3072   -36.872464    6497.0335    5534.7617     82.30845 
   87200    529.72525   -100.98149   0.47930654   -100.50218   -8579.6622    4.3490784    4.3490784    4.3490784   -8579.6622   -9516.4433    7639.0034   -23861.547   -1428.2735     2673.545   -6084.4249    82.260571 
   87300    414.39234   -100.88146    0.3749509   -100.50651    3853.0225    4.3466377    4.3466377    4.3466377    3853.0225   -8018.1651    21329.885   -1752.6527     4068.839    3660.7434    6899.9226    82.122156 
   87400    513.92667   -100.96986   0.46501165   -100.50485    66.679693     4.352525     4.352525     4.352525    66.679693   -17949.781    28625.715   -10475.894   -138.28552    6884.0329    350.28983    82.456293 
   87500    494.54588   -100.95167   0.44747551   -100.50419   -218.23505    4.3455265    4.3455265    4.3455265   -218.23505     -3686.37   -1400.1819    4431.8468    5638.3348   -1280.1703    2180.6992    82.059185 
   87600    475.30547   -100.93637   0.43006637   -100.50631    1002.7917     4.350109     4.350109     4.350109    1002.7917   -14897.937    13897.276    4009.0367   -1071.0675    10937.169    3607.0233    82.319064 
   87700    709.89832   -101.14486   0.64233092   -100.50252   -3001.9874    4.3516009    4.3516009    4.3516009   -3001.9874   -12308.592    1285.0937    2017.5366    3831.0041   -3562.8955   -8957.9122    82.403786 
   87800    180.38297   -100.67078   0.16321431   -100.50756    9718.0041    4.3443873    4.3443873    4.3443873    9718.0041   -10411.468    41938.389   -2372.9088   -1535.9093    10630.222    5969.9361    81.994664 
   87900    685.15381   -101.12213   0.61994156   -100.50219   -4980.9602    4.3535007    4.3535007    4.3535007   -4980.9602   -15787.544    10279.356   -9434.6917    1932.8665   -67.648424   -5396.6816    82.511759 
   88000    430.25839   -100.89566   0.38930683   -100.50635   -4291.2255    4.3477459    4.3477459    4.3477459   -4291.2255    -14633.29    4273.5176   -2513.9041   -743.69111    6721.7017    9445.6778    82.184982 
   88100    532.40342    -100.9878    0.4817298   -100.50607   -4638.5545    4.3451839    4.3451839    4.3451839   -4638.5545   -9972.1509    9689.2218   -13632.734    1132.8105    5357.9736   -920.38778    82.039782 
   88200    615.41627   -101.06325   0.55684157   -100.50641   -10673.175    4.3544862    4.3544862    4.3544862   -10673.175   -18659.966   -2182.5001   -11177.058   -801.99744     1493.321    1507.1903    82.567805 
   88300     279.4775   -100.76325   0.25287711   -100.51037    8178.4025     4.342053     4.342053     4.342053    8178.4025   -13487.407    44145.045   -6122.4304    1016.5915    10156.992    2215.8834    81.862569 
   88400    643.27033    -101.0864   0.58204451   -100.50436   -6113.4402    4.3537944    4.3537944    4.3537944   -6113.4402   -15559.777    17073.674   -19854.217   -1948.1889   -4935.0893    2095.4044    82.528464 
   88500    351.43104   -100.82558   0.31798219    -100.5076   -1443.9089    4.3478823    4.3478823    4.3478823   -1443.9089   -17971.507    19551.809    -5912.029    638.10939    13283.909    6524.9936    82.192718 
   88600    761.75041   -101.19085   0.68924778    -100.5016   -4098.3866    4.3469932    4.3469932    4.3469932   -4098.3866   -9412.4324   -5609.1643     2726.437   -3049.6128   -6500.1335     5788.103    82.142305 
   88700    419.20973   -100.88491   0.37930978    -100.5056   -8075.3646    4.3542855    4.3542855    4.3542855   -8075.3646   -19789.277    5351.7726   -9788.5894   -198.63371    10322.725   -1594.2539    82.556391 
   88800    439.89556   -100.90532   0.39802675   -100.50729    10534.267    4.3427506    4.3427506    4.3427506    10534.267    -8807.594    29507.179    10903.217   -2897.6458   -1651.8961    3904.4758    81.902032 
   88900    561.70245   -101.01401   0.50824019   -100.50576   -219.87021     4.354988     4.354988     4.354988   -219.87021   -21332.942    19711.482    961.84907    390.78963    3941.1317    -6981.867    82.596356 
   89000    282.77489   -100.76276   0.25586066   -100.50689    6826.1084    4.3454521    4.3454521    4.3454521    6826.1084   -8672.3647    26519.541    2631.1486     -270.204    5644.0641    7924.9175    82.054974 
   89100    794.88248   -101.22108   0.71922637   -100.50185   -7769.4887    4.3508605    4.3508605    4.3508605   -7769.4887   -15387.707   -3719.7739   -4200.9851    1857.3651   -2072.8162   -1508.9966    82.361731 
   89200    438.49453   -100.90222   0.39675907   -100.50546    2973.9766    4.3485464    4.3485464    4.3485464    2973.9766   -13578.867    21713.818    786.97861     2017.236    10837.482    5687.7177    82.230388 
   89300    433.16856   -100.89763   0.39194002   -100.50569   -1600.7865    4.3471606    4.3471606    4.3471606   -1600.7865   -6042.6622    16614.159   -15373.856    1892.2773   -6139.4888      2042.66    82.151794 
   89400    543.51392   -100.99748   0.49178282    -100.5057    2329.7132    4.3499113    4.3499113    4.3499113    2329.7132   -20020.911    30926.824   -3916.7731    1536.5308    11945.254   -2455.8989    82.307839 
   89500    411.42899   -100.87948    0.3722696   -100.50721   -1392.8848    4.3470865    4.3470865    4.3470865   -1392.8848   -3032.9222    3824.6655   -4970.3979    656.67622    -5904.508    5010.1779    82.147595 
   89600    606.17081   -101.05159   0.54847609   -100.50312   -10768.934    4.3508032    4.3508032    4.3508032   -10768.934   -13050.814   -5588.1224   -13667.865   -455.56079    8855.9495    1114.2583    82.358481 
   89700    501.50273   -100.95827   0.45377021    -100.5045    4191.2393    4.3471495    4.3471495    4.3471495    4191.2393   -6302.9508    15002.278    3874.3911    1415.0454   -911.60575    7963.0023    82.151166 
   89800    520.19656   -100.97551   0.47068478   -100.50482   -3897.3061    4.3510637    4.3510637    4.3510637   -3897.3061   -11089.327    11692.919   -12295.511   -480.97938    2174.4245    5986.2467    82.373274 
   89900    418.51822   -100.88164   0.37868408   -100.50295    13775.111    4.3469163    4.3469163    4.3469163    13775.111    -8235.738    47764.813    1796.2566    1105.4904    4926.9335    565.85667    82.137946 
   90000    451.85413   -100.91492   0.40884711   -100.50607   -4393.5185    4.3507942    4.3507942    4.3507942   -4393.5185   -6805.8144   -786.67502   -5588.0659   -1790.6755   -3233.2769    6393.7706    82.357965 
   90100    693.39221   -101.12962   0.62739585   -100.50222    2260.2128    4.3476171    4.3476171    4.3476171    2260.2128   -11410.743    11169.512    7021.8701   -2238.7646    8897.7942   -5338.7742    82.177678 
   90200     392.3983   -100.86176   0.35505023   -100.50671   -798.03399    4.3490123    4.3490123    4.3490123   -798.03399   -1985.9892   -1580.7585    1172.6457   -2934.0807   -7601.2097    11036.338    82.256816 
   90300    522.81057   -100.97908   0.47304999   -100.50603   -554.22793    4.3495535    4.3495535    4.3495535   -554.22793   -14663.766    17667.902   -4666.8201   -6461.0629     8917.506   -1837.8001    82.287528 
   90400     425.9576   -100.88943   0.38541538   -100.50401    6754.4124     4.349871     4.349871     4.349871    6754.4124   -12541.142    31998.474    805.90477   -2132.6614   -6721.7239    7396.2862    82.305552 
   90500    471.83189   -100.93197   0.42692341   -100.50504   -5086.9105    4.3456292    4.3456292    4.3456292   -5086.9105   -3901.9718    4983.3884   -16342.148   -4313.7064    3320.8594    249.90403    82.065007 
   90600    628.06276   -101.07054   0.56828438   -100.50226   -4874.6553     4.353075     4.353075     4.353075   -4874.6553   -18998.326    7846.4713   -3472.1114    1766.3447   -2637.7597   -2067.1838    82.487558 
   90700    533.48184   -100.98681   0.48270558    -100.5041   -8716.8276    4.3488258    4.3488258    4.3488258   -8716.8276   -9608.9923    -1360.906   -15180.585   -582.22055   -1521.5455    4265.8395    82.246237 
   90800    472.46927   -100.93031   0.42750013   -100.50281    6662.3233    4.3446011    4.3446011    4.3446011    6662.3233   -7570.8554    34584.312   -7026.4866    2810.5141    958.81967   -2585.7208    82.006771 
   90900    405.91605   -100.87129   0.36728137   -100.50401   -6130.6962    4.3561813    4.3561813    4.3561813   -6130.6962   -21990.707    17860.532   -14261.913    952.27217   -6762.3638    7993.6344    82.664271 
   91000    535.31769   -100.98751   0.48436669   -100.50315      3851.93    4.3410071    4.3410071    4.3410071      3851.93    -5094.636    13382.038    3268.3879   -76.820448    5795.4775     3597.267    81.803423 
   91100    566.15685   -101.01573   0.51227061   -100.50346   -9623.2651    4.3542638    4.3542638    4.3542638   -9623.2651   -14393.857   -6445.9786   -8029.9599   -735.86645   -10391.548    1687.0102    82.555156 
   91200    476.87526   -100.93596   0.43148676   -100.50447    -895.4635    4.3461816    4.3461816    4.3461816    -895.4635   -10287.268    1995.7639    5605.1135    -437.9857    8285.4649    5530.3049    82.096302 
   91300    506.09843    -100.9635   0.45792849   -100.50557     5583.597    4.3467031    4.3467031    4.3467031     5583.597   -16067.392    36840.713   -4022.5299   -2651.0915   -9479.3177   -3981.2272    82.125858 
   91400    452.71358   -100.91502   0.40962477    -100.5054    4792.2314    4.3523562    4.3523562    4.3523562    4792.2314   -9378.2075    27680.845   -3925.9435    1982.0523    4790.1839     9666.082    82.446701 
   91500    484.75667    -100.9431   0.43861802   -100.50448   -169.76829    4.3440987    4.3440987    4.3440987   -169.76829    -14818.65    14053.023    256.32242    -3608.151   -3196.9438   -956.32764    81.978326 
   91600    600.95352   -101.04792   0.54375537   -100.50417   -2803.5854    4.3525055    4.3525055    4.3525055   -2803.5854   -11561.639    2813.1192    337.76329    508.79471   -3030.1136    6415.2318    82.455189 
   91700    542.19227   -100.99454   0.49058696   -100.50395   -4791.3203    4.3482591    4.3482591    4.3482591   -4791.3203   -10958.654    5501.7674   -8917.0746   -6329.8783    3511.4819   -1604.5077    82.214085 
   91800    314.64696    -100.7899   0.28469918    -100.5052    4460.4346    4.3478265    4.3478265    4.3478265    4460.4346   -16880.703    26435.282    3826.7246   -1100.9739   -8541.7316   -6587.5869    82.189554 
   91900    564.21071   -101.01467   0.51050971   -100.50416    3409.9041    4.3477864    4.3477864    4.3477864    3409.9041     -6949.42    23449.578   -6270.4462   -6579.7757     7224.875   -532.87916    82.187279 
   92000    407.84608    -100.8742    0.3690277   -100.50517   -3947.9007     4.352586     4.352586     4.352586   -3947.9007   -12641.083    8030.1161   -7232.7356   -577.78586   -11403.598   -5326.2695    82.459762 
   92100    646.10831    -101.0848   0.58461238   -100.50019    2017.6656     4.344461     4.344461     4.344461    2017.6656    -6792.147    12710.725     134.4186   -1730.0278    8070.4935    2272.9044    81.998837 
   92200    425.97926   -100.89114   0.38543498   -100.50571   -3281.9598    4.3502986    4.3502986    4.3502986   -3281.9598   -9841.4755    7240.3255   -7244.7294    1726.1475   -9360.5129    2148.5074    82.329827 
   92300    593.39182   -101.04016   0.53691339   -100.50325    4942.3954    4.3502095    4.3502095    4.3502095    4942.3954   -8901.3887    35976.159   -12247.584    3049.4526    3227.7743   -3008.2191     82.32477 
   92400    339.56138   -100.81352   0.30724227   -100.50628    6136.7296    4.3427078    4.3427078    4.3427078    6136.7296   -13217.368     24359.81    7267.7475    618.06303   -3357.9884    2460.4899    81.899608 
   92500    483.68839   -100.94581   0.43765142   -100.50816   -8431.2711    4.3548436    4.3548436    4.3548436   -8431.2711   -15746.092    3266.5964   -12814.317    -507.7305   -4880.2698   -6454.9357     82.58814 
   92600    722.32515   -101.15659   0.65357498   -100.50302    2449.8887    4.3450256    4.3450256    4.3450256    2449.8887   -8346.2824    2519.9121    13176.036    -188.9499    2789.5458    4129.6671    82.030815 
   92700    311.14914   -100.78887   0.28153428   -100.50733   -8601.5256    4.3492895    4.3492895    4.3492895   -8601.5256   -20829.543    212.49519   -5187.5289   -3696.2354   -10963.564    1265.1071    82.272548 
   92800    600.88153   -101.04602   0.54369024   -100.50233    3872.4406    4.3524565    4.3524565    4.3524565    3872.4406   -12104.077    23160.611    560.78823    1907.8609    4056.1919    4204.7963    82.452402 
   92900    432.45441   -100.89743   0.39129384   -100.50613    6536.7562     4.342073     4.342073     4.342073    6536.7562   -13909.744    38148.311   -4628.2977   -4059.9347   -12521.812    4467.6649    81.863696 
   93000    409.43735   -100.87646   0.37046752   -100.50599   -3318.5404    4.3552055    4.3552055    4.3552055   -3318.5404   -17856.278    16795.125   -8894.4687    2830.3589    2713.2058   -6873.4255    82.608733 
   93100    679.35474   -101.11822   0.61469444   -100.50353    -4508.721    4.3454646    4.3454646    4.3454646    -4508.721   -10443.343    2084.0774    -5166.897     -3980.88   -10562.179   -681.82126     82.05568 
   93200    450.63115   -100.91503   0.40774054   -100.50729      140.223    4.3463872    4.3463872    4.3463872      140.223   -5679.8938    7217.6517   -1117.0888   -2302.6667   -1302.3207    -4651.028    82.107957 
   93300    544.30749    -100.9949   0.49250086    -100.5024   -9139.3209    4.3550725    4.3550725    4.3550725   -9139.3209   -23559.127    10291.436   -14150.272   -4575.5876   -4990.5456   -3132.9783    82.601162 
   93400    315.30139   -100.79073   0.28529132   -100.50543    11373.191    4.3394177    4.3394177    4.3394177    11373.191   -1160.6429    29044.279     6235.936   -5912.3627   -6109.2665    1417.5226    81.713607 
   93500      592.078   -101.03986   0.53572461   -100.50414   -4523.5718      4.35469      4.35469      4.35469   -4523.5718   -11777.464    11776.909    -13570.16   -2690.7611   -248.78575   -8620.2277    82.579404 
   93600     494.5228   -100.95091   0.44745463   -100.50345   -2815.0073     4.346715     4.346715     4.346715   -2815.0073   -13605.715    5687.3665   -526.67311   -2478.6625   -10551.495    1410.8307    82.126534 
   93700    543.33199   -100.99571    0.4916182   -100.50409    1846.8447     4.346146     4.346146     4.346146    1846.8447   -1500.9713    9730.9086   -2689.4032    728.02417    3316.1337   -10851.375    82.094287 
   93800    584.93453   -101.03262   0.52926105   -100.50335   -6087.0524    4.3543059    4.3543059    4.3543059   -6087.0524   -17466.362    13812.642   -14607.437    2320.0125   -13347.453     434.5787    82.557555 
   93900    343.31305   -100.81352   0.31063686   -100.50288        13298    4.3425566    4.3425566    4.3425566        13298   -9455.8949    43294.658    6055.2364   -1261.7034    3808.8677    967.51195    81.891052 
   94000    477.41405   -100.93646   0.43197427   -100.50448   -9107.1656    4.3533302    4.3533302    4.3533302   -9107.1656   -19605.104    6974.6179   -14691.011    2018.2964   -10157.093   -136.29264    82.502065 
   94100    629.92447   -101.07184   0.56996889   -100.50187   -1629.4766    4.3471286    4.3471286    4.3471286   -1629.4766     -8279.77   -718.56762    4109.9077   -1712.1896   -485.09805    4602.2906    82.149978 
   94200    449.33995   -100.91105   0.40657223   -100.50448   -9589.5689    4.3482094    4.3482094    4.3482094   -9589.5689   -19026.416   -966.38519   -8775.9059    569.46969   -4091.8636   -8181.7827    82.211269 
   94300    548.72066   -101.00149   0.49649399   -100.50499   -3785.0978    4.3494673    4.3494673    4.3494673   -3785.0978   -16310.918    14573.838   -9618.2129     2106.766   -5702.3808    1148.2524    82.282636 
   94400    412.59769   -100.87812   0.37332707   -100.50479    8575.8188    4.3472026    4.3472026    4.3472026    8575.8188   -5508.3705    37103.462   -5867.6348    1413.8238    1085.8914   -6105.4563    82.154175 
   94500    434.80269   -100.90063   0.39341861   -100.50721   -7015.6064    4.3493243    4.3493243    4.3493243   -7015.6064   -26397.357    22239.266   -16888.727    4243.6064   -10856.638    684.49013    82.274524 
   94600    673.96487   -101.11272   0.60981757    -100.5029    5373.7543     4.347792     4.347792     4.347792    5373.7543     773.4174    13917.702    1430.1437   -1868.7156    4212.4452    178.33879    82.187597 
   94700    411.11377   -100.87982   0.37198438   -100.50784   -13264.394    4.3511998    4.3511998    4.3511998   -13264.394    -16578.56   -10387.696   -12826.927    -27.24903   -13995.641   -5659.6228    82.381005 
   94800    619.29647   -101.06435   0.56035246   -100.50399    7197.1048    4.3469925    4.3469925    4.3469925    7197.1048   -7546.8817    24268.382    4869.8141   -3530.5417    4529.1955   -2648.0836    82.142264 
   94900    289.38108   -100.76971   0.26183808   -100.50787    2827.3251    4.3508152    4.3508152    4.3508152    2827.3251   -12320.289    27878.786   -7076.5217   -3752.7164   -11661.088   -11135.765    82.359159 
   95000    552.13751   -101.00485   0.49958562   -100.50526    47.633385    4.3471438    4.3471438    4.3471438    47.633385   -11410.543    14930.912   -3377.4694   -405.23449    -233.0327   -5071.6572    82.150842 
   95100    484.61932   -100.94304   0.43849375   -100.50454    6515.5304    4.3495227    4.3495227    4.3495227    6515.5304   -6457.4809    20207.633    5796.4392   -2086.5474   -5575.6038   -2876.0444    82.285785 
   95200    551.20506   -101.00454   0.49874192    -100.5058   -15030.364    4.3520422    4.3520422    4.3520422   -15030.364   -19551.153   -5419.3043   -20120.635    296.69059   -7171.3037   -1532.3368    82.428859 
   95300    603.40813   -101.04825   0.54597636   -100.50227    14456.121    4.3425342    4.3425342    4.3425342    14456.121    1907.5768    35036.184     6424.601    167.25517    1291.8646     5726.679     81.88979 
   95400    311.82269   -100.78983   0.28214372   -100.50769   -11623.382    4.3550326    4.3550326    4.3550326   -11623.382    -25474.44    16477.312   -25873.018   -2397.0486   -12724.559   -2668.7786    82.598893 
   95500    565.40478   -101.01392   0.51159013   -100.50233    4781.6866    4.3443302    4.3443302    4.3443302    4781.6866   -6214.5297    29423.922   -8864.3321    2493.5468     5959.231    2682.3782    81.991436 
   95600    506.02393   -100.96313   0.45786109   -100.50527   -6740.5094    4.3488846    4.3488846    4.3488846   -6740.5094   -15387.171    3511.5536   -8345.9107   -4494.7862   -14469.584   -4062.8563    82.249575 
   95700    526.92181   -100.98117   0.47676992    -100.5044   -13493.748    4.3524515    4.3524515    4.3524515   -13493.748   -16793.877   -12979.837   -10707.529    5622.9847    3913.4695    -170.4717    82.452121 
   95800    535.90408    -100.9887   0.48489727    -100.5038    8415.8423    4.3424639    4.3424639    4.3424639    8415.8423   -8105.8813    32226.161     1127.247   -2505.3756   -9602.5772    4230.2875     81.88581 
   95900    391.11459   -100.86127    0.3538887   -100.50738   -2580.2173     4.354978     4.354978     4.354978   -2580.2173   -17958.308    21448.681   -11231.024    5804.2286   -1299.7932   -1277.8634    82.595788 
   96000    469.38516   -100.92818   0.42470955   -100.50347    10509.371    4.3443873    4.3443873    4.3443873    10509.371   -9795.9188    42745.448   -1421.4167    1323.3617   -2166.6292    3982.8848    81.994665 
   96100    493.08482    -100.9514   0.44615351   -100.50525   -2657.7811    4.3509921    4.3509921    4.3509921   -2657.7811   -10435.226    5479.0274   -3017.1451    1043.6654    -6409.723   -5992.5924    82.369205 
   96200    657.14566   -101.09714    0.5945992   -100.50254   -8780.0992    4.3501248    4.3501248    4.3501248   -8780.0992    -9392.285   -4643.8545   -12304.158   -700.30657    3761.9893   -4414.9792    82.319961 
   96300    483.68273   -100.93992    0.4376463   -100.50227     2291.423    4.3478081    4.3478081    4.3478081     2291.423   -9162.2525     11534.72    4501.8018   -2607.6076    -8799.568   -1611.5368    82.188508 
   96400    413.62177   -100.87848   0.37425367   -100.50422   -2597.0984    4.3495631    4.3495631    4.3495631   -2597.0984   -7090.1882    19739.956   -20441.063   -3082.1351    7718.3627   -8403.5486    82.288074 
   96500    481.22077   -100.93858   0.43541867   -100.50316    5901.4635    4.3490257    4.3490257    4.3490257    5901.4635   -12003.857    31153.277   -1445.0298    -2218.448   -7241.3438    9123.5739     82.25758 
   96600    534.59433   -100.98786   0.48371219   -100.50414   -3119.0754    4.3471049    4.3471049    4.3471049   -3119.0754   -6588.6279    2994.0944   -5762.6926   -2726.5438    6987.8258   -9333.7359    82.148636 
   96700    457.80771   -100.91986   0.41423403   -100.50563   -4147.6941    4.3491084    4.3491084    4.3491084   -4147.6941   -8221.2157    7220.1072   -11441.974    1628.0639   -1881.9623    4444.5387    82.262272 
   96800    657.95986   -101.09926   0.59533591   -100.50393   -250.66126    4.3502286    4.3502286    4.3502286   -250.66126   -13657.441    21195.123   -8289.6657   -2258.6558    1304.5199   -7191.2491    82.325855 
   96900    312.44218   -100.79054   0.28270425   -100.50784    3275.8654    4.3444761    4.3444761    4.3444761    3275.8654    -6509.392    24637.731   -8300.7429    1179.7477    4492.0827   -1874.7118    81.999692 
   97000    513.39324   -100.96854     0.464529   -100.50401   -6763.9097    4.3551165    4.3551165    4.3551165   -6763.9097    -17946.93     13141.47   -15486.269    -769.3473   -2981.5461    4628.6552    82.603669 
   97100    542.63609   -100.99686   0.49098854   -100.50587    2438.2975    4.3422634    4.3422634    4.3422634    2438.2975   -4577.8091     4739.522    7153.1796   -105.43587    8510.8758    -2184.552     81.87447 
   97200    618.56913   -101.06386   0.55969435   -100.50416    -13151.45     4.355255     4.355255     4.355255    -13151.45   -17697.133   -15711.633   -6045.5827    1962.0584   -3823.7149    4023.1791    82.611549 
   97300    382.39698   -100.84959   0.34600082   -100.50359    7827.2096     4.346202     4.346202     4.346202    7827.2096   -8712.3849    23106.126    9087.8877    977.66973    8868.3476   -8714.3988    82.097461 
   97400    472.99067   -100.93369    0.4279719   -100.50572    4601.0357    4.3469145    4.3469145    4.3469145    4601.0357   -9827.7215    31111.834   -7481.0054    4746.9157   -3278.5341   -3074.6071    82.137843 
   97500    510.49258   -100.96558   0.46190442   -100.50368    5586.5024    4.3535467    4.3535467    4.3535467    5586.5024   -17461.539     30724.18    3496.8662    2644.5031    6664.2912   -2862.0391    82.514375 
   97600    446.38865   -100.90807   0.40390183   -100.50417    -3209.899    4.3431997    4.3431997    4.3431997    -3209.899   -98.875796   -2475.1818   -7055.6394    3151.3136    461.48335   -4571.7528    81.927442 
   97700     619.8492   -101.06479   0.56085258   -100.50394   -8117.8941    4.3547052    4.3547052    4.3547052   -8117.8941    -14522.89   -3225.7259   -6605.0669    1119.3038    1976.8132    5875.9009    82.580268 
   97800    550.93394   -101.00259    0.4984966   -100.50409    152.18558    4.3449692    4.3449692    4.3449692    152.18558   -6340.6409    17206.015   -10408.817   -1369.8353    4521.9809   -8180.7436    82.027621 
   97900    318.39238   -100.79323   0.28808812   -100.50515    -1284.218    4.3502904    4.3502904    4.3502904    -1284.218   -7596.9486    17139.193   -13394.898   -1319.5873     -2620.24    2437.2845     82.32936 
   98000    491.65221   -100.94883   0.44485725   -100.50397    3331.4639    4.3488144    4.3488144    4.3488144    3331.4639    -11099.31    30559.054    -9465.352   -1931.5361    7481.5942   -8660.3421    82.245592 
   98100    610.23223   -101.05567   0.55215095   -100.50352   -4130.9888    4.3481077    4.3481077    4.3481077   -4130.9888   -4611.1797   -8234.7696    452.98304   -1106.2564    -4369.051   -1330.3948    82.205501 
   98200    484.33365   -100.94208   0.43823526   -100.50384   -788.42329    4.3505945    4.3505945    4.3505945   -788.42329   -11830.326     20716.68   -11251.623    2867.9902    7725.2382    4986.6565    82.346628 
   98300     475.4043   -100.93499    0.4301558   -100.50484    2350.4302    4.3475613    4.3475613    4.3475613    2350.4302   -4207.5785    8407.2017    2851.6675   -1460.8607   -2626.3029   -2253.4346    82.174512 
   98400     491.5108   -100.94922    0.4447293   -100.50449    2433.3642    4.3504571    4.3504571    4.3504571    2433.3642   -16865.102    36763.746   -12598.552    5086.1043    6723.0554     6049.361    82.338826 
   98500    469.38848   -100.92829   0.42471256   -100.50358    306.62832    4.3474351    4.3474351    4.3474351    306.62832    -6507.246    10297.361   -2870.2299   -2472.4975    2457.9721   -7778.9539    82.167355 
   98600    534.00685   -100.98713   0.48318062   -100.50395   -8804.7285    4.3493989    4.3493989    4.3493989   -8804.7285   -9915.6241   -13340.152   -3158.4098    4897.6104    2675.0059   -4619.5112    82.278754 
   98700    587.87403   -101.03627   0.53192078   -100.50435    1883.5547    4.3486346    4.3486346    4.3486346    1883.5547   -14792.109    17528.068    2914.7046    -1585.107    9178.2929    2650.2804    82.235388 
   98800    457.82162    -100.9193   0.41424663   -100.50506    466.14292    4.3478683    4.3478683    4.3478683    466.14292    -5147.668    10291.872   -3745.7755    4631.8004   -2267.1825   -7810.5558    82.191922 
   98900    328.61584   -100.80357   0.29733852   -100.50623     7382.765    4.3498905    4.3498905    4.3498905     7382.765   -18487.603     47673.96   -7038.0621    2831.2126    11536.797    7783.5164    82.306659 
   99000    651.70252   -101.09337   0.58967413    -100.5037   -497.58173    4.3478289    4.3478289    4.3478289   -497.58173   -4920.7504       7810.9   -4382.8949    2904.1317   -2118.9579   -12636.305    82.189688 
   99100    454.02009   -100.91635   0.41080692   -100.50554     -8120.65    4.3492089    4.3492089    4.3492089     -8120.65   -13245.524    11306.149   -22422.575    3416.8479    10707.711    751.23875    82.267977 
   99200    671.66283   -101.11035   0.60773464   -100.50261   -8503.7454    4.3507834    4.3507834    4.3507834   -8503.7454   -9670.4991   -6657.6531    -9183.084    886.06823    1384.0888   -9924.6221    82.357357 
   99300    411.77242   -100.87797   0.37258034   -100.50539    892.04359    4.3460255    4.3460255    4.3460255    892.04359   -7853.3141    20394.291   -9864.8465    645.44654    6800.3025    -2926.037    82.087459 
   99400    445.83488   -100.90676   0.40340077   -100.50336   -2153.2679    4.3544987    4.3544987    4.3544987   -2153.2679   -17752.519    31142.299   -19849.584    1756.5303    6058.0835     3735.747    82.568521 
   99500    493.95311   -100.94996   0.44693916   -100.50302     6604.121    4.3428385    4.3428385    4.3428385     6604.121    338.08054    11511.552    7962.7307   -4213.0855    1723.7529   -2659.5261    81.907004 
   99600    454.64184   -100.91746   0.41136949   -100.50609   -3090.1133     4.352205     4.352205     4.352205   -3090.1133   -18065.102    14849.129   -6054.3659    4708.9281    12336.709    2571.1017    82.438113 
   99700    677.17555   -101.11471   0.61272267   -100.50198   -1655.0105    4.3495371    4.3495371    4.3495371   -1655.0105   -3149.5033   -1967.8142     152.2861   -4636.0433   -1695.3836    -4442.193    82.286602 
   99800    303.24403   -100.78228   0.27438157    -100.5079    8176.4089     4.343504     4.343504     4.343504    8176.4089   -14320.964    40607.052   -1756.8611    6082.9786    12076.931   -3814.2136    81.944665 
   99900    586.87847   -101.03462   0.53101997    -100.5036   -3519.7207    4.3557342    4.3557342    4.3557342   -3519.7207   -16158.735    14563.871   -8964.2983   -1541.0416   -700.50669    3795.4547     82.63882 
  100000    431.27674   -100.89623   0.39022826     -100.506    3575.7136    4.3426962    4.3426962    4.3426962    3575.7136   -7482.7723    24629.825   -6419.9117    4526.5963    8544.6017   -4300.0046    81.898953 
Loop time of 22.4723 on 1 procs for 100000 steps with 8 atoms

Pair  time (%) = 6.98506 (31.0829)
Kspce time (%) = 5.5235 (24.5791)
Neigh time (%) = 0 (0)
Comm  time (%) = 1.11756 (4.97306)
Outpt time (%) = 0.02721 (0.121082)
Other time (%) = 8.81899 (39.2438)

Nlocal:    8 ave 8 max 8 min
Histogram: 1 0 0 0 0 0 0 0 0 0
Nghost:    2189 ave 2189 max 2189 min
Histogram: 1 0 0 0 0 0 0 0 0 0
Neighs:    2056 ave 2056 max 2056 min
Histogram: 1 0 0 0 0 0 0 0 0 0

Total # of neighbors = 2056
Ave neighs/atom = 257
Neighbor list builds = 0
Dangerous builds = 0
unfix 20
unfix 21
print "seeds:4966199"
seeds:4966199
