LAMMPS (10 Feb 2015)
# ---- initialize simulations
clear
units metal
dimension 3
boundary p p p
atom_style charge
atom_modify map array
# ---- create atoms
read_data /Users/eugeneragasa/pyflamestk_git/pypospack/tests/tests_integration/workflow/WorkflowLammpsThermalExpansion/param_4537/MgO_NaCl_unit.npt.T1500/lammps.structure
  triclinic box = (0 0 0) to (4.2565 4.2565 4.2565) with tilt (0 0 0)
  1 by 1 by 1 MPI processor grid
  reading atoms ...
  8 atoms
# ---- define interatomic potential
include potential.mod
mass 1 24.305
mass 2 15.999

group Mg type 1
4 atoms in group Mg
group O type 2
4 atoms in group O

set group Mg charge 1.68595133453
  4 settings made for charge
set group O charge -1.68595133453
  4 settings made for charge

variable R_cut equal 10.0

pair_style buck/coul/long ${R_cut}
pair_style buck/coul/long 10
pair_coeff 1 1 0.0 0.5 0.0 ${R_cut}
pair_coeff 1 1 0.0 0.5 0.0 10
pair_coeff 1 2 1257.74769115 0.28905643469 0.0 ${R_cut}
pair_coeff 1 2 1257.74769115 0.28905643469 0.0 10
pair_coeff 2 2 3064.42109336 0.236064465148 18.7313535189 ${R_cut}
pair_coeff 2 2 3064.42109336 0.236064465148 18.7313535189 10

kspace_style pppm 1.0e-5

neighbor 1.0 bin
neigh_modify every 1 delay 0 check yes
# ---- define settings
compute eng all pe/atom
compute eatoms all reduce sum c_eng
# ---- run minimization
reset_timestep 0
fix 1 all box/relax iso 0.0 vmax 0.001
thermo 10
thermo_style custom step pe lx ly lz xy xz yz press pxx pyy pzz pxy pxz pyz c_eatoms
min_style cg
minimize 1e-25 1e-25 5000 10000
PPPM initialization ...
  G vector (1/distance) = 0.353047
  grid = 8 8 8
  stencil order = 5
  estimated absolute RMS force accuracy = 4.05219e-05
  estimated relative force accuracy = 2.81409e-06
  using double precision FFTs
  3d grid and FFT values/proc = 3375 512
Neighbor list info ...
  1 neighbor list requests
  update every 1 steps, delay 0 steps, check yes
  master list distance cutoff = 11
Memory usage per processor = 4.06549 Mbytes
Step PotEng Lx Ly Lz Xy Xz Yz Press Pxx Pyy Pzz Pxy Pxz Pyz eatoms 
       0   -115.66496       4.2565       4.2565       4.2565            0            0            0    45758.215    45758.215    45758.215    45758.215 1.7170796e-11 2.2312869e-10 1.3064853e-10   -115.66496 
      10   -115.69248    4.2933032    4.2933032    4.2933032            0            0            0   -6.7922673   -6.7922673   -6.7922673   -6.7922673 -6.3857142e-11 -7.0573166e-11 -5.8083176e-11   -115.69248 
      13    -115.6925     4.293297     4.293297     4.293297            0            0            0   0.20218487   0.20218487   0.20218487   0.20218487 1.6450748e-10 -9.163684e-11 -3.6202501e-11    -115.6925 
Loop time of 0.006639 on 1 procs for 13 steps with 8 atoms

Minimization stats:
  Stopping criterion = linesearch alpha is zero
  Energy initial, next-to-last, final = 
        -115.664963059     -115.692495365     -115.692495365
  Force two-norm initial, final = 6.60751 4.45929e-05
  Force max component initial, final = 6.60751 2.97026e-05
  Final line search alpha, max atom move = 0.5 1.48513e-05
  Iterations, force evaluations = 13 19

Pair  time (%) = 0.0018518 (27.8927)
Kspce time (%) = 0.00107622 (16.2106)
Neigh time (%) = 0 (0)
Comm  time (%) = 0.000214815 (3.23565)
Outpt time (%) = 1.5974e-05 (0.240609)
Other time (%) = 0.0034802 (52.4205)

Nlocal:    8 ave 8 max 8 min
Histogram: 1 0 0 0 0 0 0 0 0 0
Nghost:    2189 ave 2189 max 2189 min
Histogram: 1 0 0 0 0 0 0 0 0 0
Neighs:    2344 ave 2344 max 2344 min
Histogram: 1 0 0 0 0 0 0 0 0 0

Total # of neighbors = 2344
Ave neighs/atom = 293
Neighbor list builds = 0
Dangerous builds = 0
unfix 1
# ---- define output variables ----
variable natoms equal "count(all)"
variable tot_energy equal "c_eatoms"
variable length_x equal "lx"
variable length_y equal "ly"
variable length_z equal "lz"
variable tilt_xy equal "xy"
variable tilt_xz equal "xz"
variable tilt_yz equal "yz"
variable tot_press equal "press"
variable press_xx equal "pxx"
variable press_yy equal "pyy"
variable press_zz equal "pzz"
variable press_xy equal "pxy"
variable press_xz equal "pxz"
variable press_yz equal "pyz"

# ---- output ----
print "pypospack:output_section:begin"
pypospack:output_section:begin
print "tot_energy = ${tot_energy}"
tot_energy = -115.692495364628
print "num_atoms = ${natoms}"
num_atoms = 8
print "xx = ${length_x}"
xx = 4.29329700926666
print "yy = ${length_y}"
yy = 4.29329700926666
print "zz = ${length_z}"
zz = 4.29329700926666
print "xy = ${tilt_xy}"
xy = 0
print "xz = ${tilt_xz}"
xz = 0
print "yz = ${tilt_yz}"
yz = 0
print "tot_press = ${tot_press}"
tot_press = 0.202184869803092
print "pxx = ${press_xx}"
pxx = 0.202184869911938
print "pyy = ${press_yy}"
pyy = 0.202184869729888
print "pzz = ${press_zz}"
pzz = 0.20218486976745
print "pxy = ${press_xy}"
pxy = 1.64507477572858e-10
print "pxz = ${press_xz}"
pxz = -9.16368397176372e-11
print "pyz = ${press_yz}"
pyz = -3.62025011042311e-11
print "pypospack:output_section:done"
pypospack:output_section:done
print "pypospack:lammps_sim:done"
pypospack:lammps_sim:done
#------------------------------------------------------------------------------
# RUN THERMOSTAT
# running using an NPT Nose-Hoover style thermostat
#------------------------------------------------------------------------------
variable tempdamp equal 0.1
variable pressdamp equal 1.0
# set initial velocities
velocity all create 1500 1857160 mom yes dist gaussian loop all
# fix for Nose-Hoover style thermostat
fix 20 all npt temp 1500 1500 0.1 aniso 0.0 0.0 1.0 drag 1.0 couple xyz
variable boxx equal lx
variable boxy equal ly
variable boxz equal lz
variable boxp equal press
variable boxt equal temp
# calculate averages every 10000 steps
reset_timestep 0
fix 21 all ave/time 10 10 100 v_boxx v_boxy v_boxz v_boxp v_boxt file lattice.out
thermo_style custom step temp pe ke etotal press lx ly lz press pxx pyy pzz pxy pxz pyz vol
thermo_modify flush yes
thermo 100
run 100000
PPPM initialization ...
  G vector (1/distance) = 0.352672
  grid = 8 8 8
  stencil order = 5
  estimated absolute RMS force accuracy = 4.1232e-05
  estimated relative force accuracy = 2.8634e-06
  using double precision FFTs
  3d grid and FFT values/proc = 3375 512
Memory usage per processor = 3.06549 Mbytes
Step Temp PotEng KinEng TotEng Press Lx Ly Lz Press Pxx Pyy Pzz Pxy Pxz Pyz Volume 
       0         1500    -115.6925    1.3572315   -114.33527     18317.91     4.293297     4.293297     4.293297     18317.91    24121.946    10923.571    19908.214   -1424.7881   -6555.6987    1581.3439    79.135764 
     100    847.43785   -114.92245   0.76677957   -114.15567   -4914.6047    4.3124599    4.3124599    4.3124599   -4914.6047   -8586.8001    16455.921   -22612.935   -3604.1898    7721.7589   -9752.7012    80.200155 
     200    936.76332   -114.62953   0.84760314   -113.78192   -19785.178    4.3264317    4.3264317    4.3264317   -19785.178   -18425.677   -2474.7692   -38455.087    -3713.381    16735.911   -8352.2298      80.9822 
     300    1635.9026   -114.93256    1.4801991   -113.45236    24286.223    4.3273609    4.3273609    4.3273609    24286.223    27937.427    43240.468     1680.775   -3468.7322   -1133.4176    3121.6981    81.034387 
     400    1654.4987   -114.70892    1.4970252    -113.2119    2337.9938     4.329446     4.329446     4.329446    2337.9938    7354.7994    27585.742    -27926.56    3836.8965    10201.418    5695.4849    81.151579 
     500    1188.0212     -114.115    1.0749466   -113.04006    32475.921    4.3223585    4.3223585    4.3223585    32475.921    57255.563    71392.563   -31220.363   -7758.5455    7341.6205    6299.0419    80.753684 
     600    1647.9238   -114.45293    1.4910761   -112.96186    5988.5034    4.3356597    4.3356597    4.3356597    5988.5034    32159.452   -11960.362   -2233.5799   -295.66763    -6471.843    -2065.074    81.501491 
     700    1181.3867   -113.99785    1.0689435   -112.92891   -14943.872    4.3487865    4.3487865    4.3487865   -14943.872    13797.446   -23499.729   -35129.333    14282.492    8874.2995    26304.098    82.244009 
     800    1464.9612    -114.2327    1.3255277   -112.90717    11373.669    4.3337358    4.3337358    4.3337358    11373.669    56483.542    15196.837   -37559.373   -5260.9538    794.03197    7001.9576    81.393045 
     900    1445.5734     -114.227    1.3079852   -112.91901   -5566.6109    4.3258632    4.3258632    4.3258632   -5566.6109    38527.321     -30759.1   -24468.053   -6227.7667   -6126.0144   -11285.826    80.950276 
    1000    1065.6401   -113.90782   0.96421359   -112.94361   -20883.857    4.3285162    4.3285162    4.3285162   -20883.857    796.40869   -32986.886   -30461.093    9864.3459   -1029.0903     23223.74    81.099309 
    1100    1546.0827   -114.34646    1.3989281   -112.94753   -20323.434    4.3347495    4.3347495    4.3347495   -20323.434   -787.70566    -22464.12   -37718.475    -5583.648   -3024.1572     768.1708    81.450176 
    1200    1654.4457    -114.4422    1.4969772   -112.94522   -29263.495    4.3455679    4.3455679    4.3455679   -29263.495    -12649.14   -23598.297   -51543.048   -7387.7003   -22090.399   -14939.414     82.06153 
    1300    1770.4948   -114.54038    1.6019809    -112.9384   -16149.082    4.3277701    4.3277701    4.3277701   -16149.082   -4543.3916    -50732.34    6828.4873    7216.0753   -4358.1809    28924.267    81.057377 
    1400    1686.1383   -114.46223    1.5256533   -112.93658    6630.4659    4.3195188    4.3195188    4.3195188    6630.4659    565.03361    8310.8088    11015.555    3666.7009   -1034.7597    7987.0151     80.59463 
    1500    1874.1742   -114.63964    1.6957922   -112.94384   -16986.892    4.3403112    4.3403112    4.3403112   -16986.892   -9123.0128     -9719.73   -32117.933   -11690.157   -21599.066   -34960.061    81.764093 
    1600     2053.793   -114.78693    1.8583151   -112.92861    -14031.03    4.3426825    4.3426825    4.3426825    -14031.03   -12492.434   -20930.554   -8670.1017    4522.7168   -3050.9024    19268.978    81.898175 
    1700    1489.3032   -114.27997    1.3475529   -112.93241    782.19252    4.3317361    4.3317361    4.3317361    782.19252    -2677.013    10828.369   -5804.7784    7548.5675   -330.18338    27192.062    81.280427 
    1800     1357.096   -114.17071     1.227929   -112.94278   -4567.0319    4.3225834    4.3225834    4.3225834   -4567.0319    1505.9839    23088.005   -38295.085   -15739.779   -16628.885   -35276.051    80.766291 
    1900    1425.0289   -114.24031    1.2893961   -112.95091     11317.18    4.3202177    4.3202177    4.3202177     11317.18    19039.755    39898.434    -24986.65    3590.8593   -7772.9605   -8147.3152     80.63376 
    2000    1467.1726   -114.28487    1.3275286   -112.95734    1000.1655    4.3315999    4.3315999    4.3315999    1000.1655    3052.3737   -9720.9064     9669.029    14238.402    3809.8824    22830.123    81.272759 
    2100    990.64384   -113.85398   0.89635537   -112.95763   -20723.434    4.3361406    4.3361406    4.3361406   -20723.434    1701.8128   -6292.3126   -57579.803    2347.6622   -14893.823   -17653.594    81.528615 
    2200    1078.2661   -113.92661   0.97563784   -112.95097   -7024.7093    4.3314979    4.3314979    4.3314979   -7024.7093    2527.4226    27101.826   -50703.376   -10848.433   -23800.675   -21430.051    81.267019 
    2300    1911.7933   -114.66787    1.7298308   -112.93804   -3803.7036    4.3264361    4.3264361    4.3264361   -3803.7036   -11434.154   -5002.0496    5025.0926    656.11948    8056.0779    11265.746    80.982446 
    2400    1369.8344   -114.18834     1.239455   -112.94889    27905.861    4.3184341    4.3184341    4.3184341    27905.861    31256.318    25300.577    27160.688    24054.054   -4736.6402    -7069.888    80.533928 
    2500    1289.8614   -114.12744    1.1670937   -112.96034    6706.8794    4.3274832    4.3274832    4.3274832    6706.8794   -11064.538     11384.56    19800.617   -14868.026   -28413.409   -32212.644    81.041258 
    2600    1835.3017   -114.61319    1.6606196   -112.95257   -7180.8959    4.3386271    4.3386271    4.3386271   -7180.8959   -32495.194     16962.15   -6009.6437   -11526.413   -148.22731    7714.4723    81.668949 
    2700    1942.5488   -114.70095     1.757659   -112.94329    22696.446     4.324835     4.324835     4.324835    22696.446     14773.43    19865.482    33450.425    33942.575    10007.594    1482.6726    80.892571 
    2800    1722.8603   -114.50539    1.5588802   -112.94651    14241.336    4.3235077    4.3235077    4.3235077    14241.336    2055.7771    12545.765    28122.466    3888.1174   -14030.623   -39056.856    80.818114 
    2900    1793.0229   -114.57085    1.6223648   -112.94849   -12823.279    4.3349348    4.3349348    4.3349348   -12823.279   -36013.803    28247.886    -30703.92   -12306.768   -14809.491    -2371.722    81.460622 
    3000     1644.503   -114.43618    1.4879808   -112.94819    27150.592    4.3191657    4.3191657    4.3191657    27150.592    4022.1498    48956.952    28472.675     18272.83    6812.9463    15500.563    80.574868 
    3100    1599.5036   -114.40491    1.4472644   -112.95765    5073.8435    4.3201397    4.3201397    4.3201397    5073.8435    5569.3607    3917.3713    5734.7984    10801.665    2665.7288   -21856.639     80.62939 
    3200    1562.6296   -114.36944    1.4139001   -112.95554   -29847.676    4.3376512    4.3376512    4.3376512   -29847.676   -41967.072    11361.885    -58937.84   -6308.0202   -32645.776   -15500.312    81.613854 
    3300    1507.9115   -114.31128    1.3643901   -112.94689    3495.3609    4.3252505    4.3252505    4.3252505    3495.3609   -48743.928    62919.003   -3688.9918    10452.045   -10990.442   -257.88441    80.915887 
    3400    1461.8315   -114.27297    1.3226959   -112.95028   -3376.9115    4.3260766    4.3260766    4.3260766   -3376.9115   -16628.321    4233.0085    2264.5781      25411.5    6521.2633   -15607.981    80.962261 
    3500    953.69639   -113.81699   0.86292453   -112.95406   -24524.101    4.3334303    4.3334303    4.3334303   -24524.101   -23519.078   -6230.4788   -43822.746   -1366.7332   -28138.009   -19015.743    81.375832 
    3600    1321.7769   -114.14848    1.1959715   -112.95251    4029.6284    4.3181511    4.3181511    4.3181511    4029.6284   -34080.012    78165.328   -31996.431   -8081.9435   -19645.034    5891.5262    80.518096 
    3700    2094.0726   -114.84856    1.8947609    -112.9538   -10055.702    4.3259918    4.3259918    4.3259918   -10055.702   -40697.591    28249.609   -17719.123    25963.987     9494.249    6443.0958    80.957498 
    3800    943.38213   -113.82742   0.85359198   -112.97383   -10764.776    4.3301071    4.3301071    4.3301071   -10764.776   -14784.757    36511.267   -54020.838    2268.8301    -15656.47    -19832.28     81.18876 
    3900     614.7606   -113.53072   0.55624831   -112.97447    8863.3845    4.3214928    4.3214928    4.3214928    8863.3845   -12757.871    78740.632   -39392.608   -10673.258   -33138.183    550.26561    80.705176 
    4000     1719.297   -114.52018     1.555656   -112.96452   -12101.034    4.3311643    4.3311643    4.3311643   -12101.034   -41488.321    22334.009   -17148.792    181.25661    10366.837   -3468.7979    81.248242 
    4100    1826.6465   -114.60998    1.6527882    -112.9572   -1675.5784    4.3281142    4.3281142    4.3281142   -1675.5784   -29111.182    48832.792   -24748.345   -4596.5418    5395.1956    4132.6465    81.076712 
    4200    1274.0349   -114.11342    1.1527736   -112.96064   -8426.0598    4.3328415    4.3328415    4.3328415   -8426.0598   -5564.4299    24617.554   -44331.303   -6810.8237   -36910.642    5150.4642    81.342664 
    4300    1055.7818   -113.90918   0.95529354   -112.95388   -24306.127      4.34397      4.34397      4.34397   -24306.127   -20027.523   -30547.508   -22343.349   -1571.2439    2110.7312    20.967422    81.971039 
    4400    1654.7074   -114.43359     1.497214   -112.93637   -15483.179    4.3335232    4.3335232    4.3335232   -15483.179   -41642.227    601.99513   -5409.3054    18988.773    19721.054    1883.5761    81.381067 
    4500     1616.907   -114.40228    1.4630114   -112.93927   -2694.9635    4.3254158    4.3254158    4.3254158   -2694.9635   -40248.705    36462.251   -4298.4366   -1427.6708   -38715.956    -13867.71    80.925165 
    4600    1556.2849   -114.35789    1.4081593   -112.94973    15563.623    4.3197591    4.3197591    4.3197591    15563.623   -17373.842     44154.82    19909.893   -4968.2279   -14594.218    8486.3878    80.608081 
    4700     1364.748   -114.20135    1.2348527    -112.9665    13615.878    4.3241331    4.3241331    4.3241331    13615.878   -29174.257    48224.263    21797.627    10205.872    35035.924   -7527.4913     80.85319 
    4800    1374.0485   -114.20861    1.2432679   -112.96534    -9991.269     4.342554     4.342554     4.342554    -9991.269   -63747.422    6514.9171    27258.698   -1441.7821   -16790.604   -4484.2974    81.890906 
    4900    1914.8307   -114.68058    1.7325791     -112.948   -8030.7425    4.3339333    4.3339333    4.3339333   -8030.7425   -37639.195    10718.306    2828.6612   -8581.2119   -25548.182    5599.1881    81.404171 
    5000    1797.8087   -114.56904    1.6266951   -112.94235    30907.033    4.3113944    4.3113944    4.3113944    30907.033    7601.5324    48460.975    36658.593    3226.2261    16957.744   -2104.2339    80.140726 
    5100    1565.9002   -114.37827    1.4168594   -112.96141    7603.3098    4.3184392    4.3184392    4.3184392    7603.3098   -19975.604    41797.732     987.8016    391.26369    4834.9647    2174.2106    80.534215 
    5200    1324.0029   -114.16783    1.1979856   -112.96985   -14524.751    4.3358625    4.3358625    4.3358625   -14524.751   -51034.987    23885.843    -16425.11   -15898.876   -18382.178   -1255.7672    81.512928 
    5300     1273.906   -114.11335    1.1526569   -112.96069   -1210.8656    4.3358405    4.3358405    4.3358405   -1210.8656   -11285.838   -2044.5982    9697.8398   -8988.0836    3049.5386   -4655.6847    81.511691 
    5400    1305.0268   -114.13465    1.1808157   -112.95383    1048.4697    4.3238113    4.3238113    4.3238113    1048.4697    10125.992    31846.764   -38827.347    7799.4077    2773.9395     22315.43    80.835143 
    5500    1606.0613   -114.40259     1.453198   -112.94939    11738.331    4.3153188    4.3153188    4.3153188    11738.331    1090.2639    51272.611   -17147.883     1712.808   -17209.541    725.43809    80.359767 
    5600    1349.6065   -114.18047    1.2211523   -112.95932    10363.126    4.3290716    4.3290716    4.3290716    10363.126     2194.587    29779.998   -885.20803   -10642.058     1204.208   -8460.4677    81.130531 
    5700    875.63088    -113.7568   0.79228922   -112.96451   -21761.908    4.3353892    4.3353892    4.3353892   -21761.908    3456.0841    -27915.18   -40826.629    8181.4311    4935.0323    18417.482    81.486238 
    5800    942.64289   -113.81618    0.8529231   -112.96326    6328.9993     4.319051     4.319051     4.319051    6328.9993   -111.39414    32217.636   -13119.243    15331.385   -15506.547    9409.6548    80.568448 
    5900     1735.635   -114.52804     1.570439    -112.9576     16066.52     4.321411     4.321411     4.321411     16066.52    2990.9751    35359.605    9848.9796   -4527.7446   -3924.0834   -352.89034    80.700593 
    6000    1699.8125   -114.49532    1.5380261    -112.9573   -3452.7269    4.3358558    4.3358558    4.3358558   -3452.7269    18680.657   -504.24055   -28534.597   -3332.8151    5627.7913   -5930.0984     81.51255 
    6100    1405.5274   -114.22755    1.2717507    -112.9558   -3751.7688    4.3305084    4.3305084    4.3305084   -3751.7688     21762.06   -12011.873   -21005.493    14233.755   -14168.702    2817.4397    81.211336 
    6200    1298.3343   -114.13028    1.1747601   -112.95552    20542.692    4.3281189    4.3281189    4.3281189    20542.692   -17765.582    18844.059      60549.6    -11142.34   -15428.386    6052.1508    81.076978 
    6300    2015.9621   -114.77055    1.8240849   -112.94646   -1579.3785    4.3346331    4.3346331    4.3346331   -1579.3785   -18604.185    7740.9797    6125.0698   -21087.445    9054.8141    1234.3241    81.443612 
    6400    1898.0333   -114.66468    1.7173804    -112.9473     12320.29    4.3238137    4.3238137    4.3238137     12320.29     28676.82    18406.052   -10122.002    10070.775    2474.1368    12803.336    80.835275 
    6500    985.27513   -113.85662   0.89149764   -112.96512    19848.694    4.3192411    4.3192411    4.3192411    19848.694   -13616.214   -4289.9796    77452.276   -17659.291   -25459.569   -1098.4768    80.579089 
    6600    1453.9684   -114.28558    1.3155812      -112.97   -11695.544     4.330791     4.330791     4.330791   -11695.544   -39870.892   -28255.419     33039.68   -10426.459    -15957.16   -10815.867    81.227237 
    6700    2078.5084   -114.83542    1.8806781   -112.95474    10420.517    4.3279087    4.3279087    4.3279087    10420.517     14961.43    16757.878   -457.75756    12820.742    27419.049    6409.1985    81.065163 
    6800    1301.9218   -114.13926    1.1780062   -112.96125    7876.4651    4.3332455    4.3332455    4.3332455    7876.4651   -7029.4658    -11323.62    41982.481   -20131.669    8755.8862   -3001.4073    81.365425 
    6900    1298.0145   -114.12866    1.1744708   -112.95419   -17753.639    4.3375048    4.3375048    4.3375048   -17753.639   -18519.709   -48691.609      13950.4   -8309.8493    -25460.65   -10616.407    81.605591 
    7000    1749.1615   -114.52411    1.5826781   -112.94143    5685.2776    4.3212992    4.3212992    4.3212992    5685.2776    9209.8313    8121.0072   -275.00578    13448.215    18346.953   -3534.7939    80.694329 
    7100    1766.3377   -114.55043    1.5982195   -112.95221     7704.673    4.3239186    4.3239186    4.3239186     7704.673   -26679.591    17794.474    31999.136   -7278.7288    34210.495   -4601.1125     80.84116 
    7200     1839.556   -114.62365    1.6644689   -112.95918   -2915.6255    4.3255276    4.3255276    4.3255276   -2915.6255   -22742.442   -7933.1782    21928.743   -11629.453   -14524.183    832.81529    80.931438 
    7300    1159.9616    -114.0172    1.0495576   -112.96765    22091.871    4.3210146    4.3210146    4.3210146    22091.871   -3702.1038     22174.07    47803.647    6322.7009    7045.0936    649.34902    80.678388 
    7400    1640.8381   -114.44955    1.4846648   -112.96489   -11544.208    4.3392485    4.3392485    4.3392485   -11544.208   -43586.368    29882.375   -20928.631    9300.4382    28355.738    5640.4384    81.704045 
    7500    2289.4849   -115.01839    2.0715741   -112.94681   -1762.0886    4.3301597    4.3301597    4.3301597   -1762.0886   -22744.047    13780.403    3677.3785   -7044.1156   -3621.2421    2798.8762    81.191721 
    7600     1730.886   -114.51784     1.566142   -112.95169     26663.78    4.3087619    4.3087619    4.3087619     26663.78    16244.609    45150.644    18596.086   -3993.9041   -2040.2232   -15636.762    79.994013 
    7700    1058.9896     -113.934   0.95819608   -112.97581     -3947.97    4.3257489    4.3257489    4.3257489     -3947.97   -33221.929    35541.511   -14163.492     28587.09      32588.4   -1670.2629     80.94386 
    7800    1855.7722   -114.63968    1.6791417   -112.96054   -17289.728    4.3358684    4.3358684    4.3358684   -17289.728   -57247.017     27726.46   -22348.626    13897.862    21406.542     14028.62    81.513261 
    7900    2031.6998   -114.78964    1.8383247   -112.95131    24979.941    4.3244869    4.3244869    4.3244869    24979.941    22378.572    51019.604    1541.6469   -13622.248   -15361.843   -2938.3517    80.873036 
    8000    1336.5239   -114.17333    1.2093149   -112.96402     6281.106    4.3224221    4.3224221    4.3224221     6281.106   -4983.5953    28952.893   -5125.9795    17192.066    24008.633   -8769.7447    80.757252 
    8100    1073.0079    -113.9398   0.97088014   -112.96892    2365.5225    4.3241241    4.3241241    4.3241241    2365.5225   -42651.177    56736.563   -6988.8186    7231.6275    29197.204     9864.245    80.852687 
    8200    2178.6406   -114.92572    1.9712798   -112.95444    5517.9937    4.3289749    4.3289749    4.3289749    5517.9937   -9218.7619    19912.977    5859.7662   -2158.7832   -4395.4118    3171.7654    81.125095 
    8300    1919.2546   -114.69195    1.7365819   -112.95537   -9686.4097    4.3347714    4.3347714    4.3347714   -9686.4097   -26158.733    17245.794    -20146.29    3840.4864    9194.0505   -4440.6075    81.451407 
    8400    932.16192   -113.81345    0.8434397   -112.97001   -6383.9034    4.3196365    4.3196365    4.3196365   -6383.9034   -38331.642    37766.379   -18586.448    11823.325    26937.811    11118.271    80.601216 
    8500    1470.2268   -114.30056    1.3302921   -112.97026    13896.188    4.3167421    4.3167421    4.3167421    13896.188     54410.21   -11204.287   -1517.3584    17042.652   -2921.2352    15329.567    80.439304 
    8600    2158.8732   -114.91121    1.9533938   -112.95781    -10002.72    4.3330709    4.3330709    4.3330709    -10002.72    7503.9161       -13820   -23692.077   -5975.8085    706.30841   -9004.3923    81.355587 
    8700    1394.7107   -114.22168    1.2619636   -112.95972   -6529.1271    4.3302409    4.3302409    4.3302409   -6529.1271   -860.96292    17644.267   -36370.685    1175.2666    28358.121   -221.63373    81.196288 
    8800    1337.9707   -114.16489     1.210624   -112.95427    902.05383    4.3263036    4.3263036    4.3263036    902.05383    46676.193   -20601.026   -23369.006    16899.059   -5762.8404    14542.761    80.975003 
    8900    1780.5561   -114.56145    1.6110845   -112.95037   -3932.6147    4.3218345    4.3218345    4.3218345   -3932.6147    45150.174   -26127.135   -30820.883    6314.2142   -1979.9268   -28045.474    80.724322 
    9000     1397.928   -114.22268    1.2648746    -112.9578    6906.0826    4.3221246    4.3221246    4.3221246    6906.0826     28805.23    30017.688    -38104.67   -9150.1087    22817.475   -9708.8809    80.740576 
    9100    1239.9298   -114.07943    1.1219145   -112.95752    -28438.23    4.3427721    4.3427721    4.3427721    -28438.23   -42585.102    11389.944   -54119.533    22846.642    -2100.759    13298.791    81.903245 
    9200    1244.5337    -114.0691    1.1260802   -112.94302   -17060.081     4.334071     4.334071     4.334071   -17060.081    28568.992   -33077.947   -46671.286    2762.4489   -12846.172   -20771.229    81.411931 
    9300    1415.1716   -114.21168     1.280477    -112.9312    7741.6606    4.3145044    4.3145044    4.3145044    7741.6606    53617.939    12754.642   -43147.599   -13055.712    17249.547   -9862.1347    80.314275 
    9400    1218.7459   -114.05374    1.1027469   -112.95099    1324.6183    4.3264112    4.3264112    4.3264112    1324.6183    26823.104    13783.515   -36632.764    2628.0075   -8697.0575    7383.4359    80.981045 
    9500    863.19577   -113.74075   0.78103767   -112.95971    1243.6058    4.3389683    4.3389683    4.3389683    1243.6058    69349.813   -25571.151   -40047.845    12040.321   -9634.4454   -15119.388     81.68822 
    9600    1337.5466   -114.15284    1.2102403    -112.9426   -5895.4922    4.3465456    4.3465456    4.3465456   -5895.4922    51426.124   -21057.365   -48055.235   -27085.543    8504.2288    1610.0404    82.116934 
    9700    1736.7567   -114.50477     1.571454   -112.93331     -5757.11    4.3330717    4.3330717    4.3330717     -5757.11    9836.0664    7021.3201   -34128.716   -11693.109    1407.3828    4093.7165    81.355633 
    9800    1084.1595   -113.92228   0.98097031   -112.94131    10404.402    4.3123516    4.3123516    4.3123516    10404.402    31401.964    14425.864   -14614.623    24379.769   -11617.931   -25927.762    80.194116 
    9900    920.08697   -113.79906   0.83251403   -112.96655    1912.1571    4.3303961    4.3303961    4.3303961    1912.1571    9188.8563    14001.301   -17453.686   -19852.273   -4033.2678    5150.2004    81.205021 
   10000    2193.4321   -114.92517    1.9846635   -112.94051   -13091.354    4.3457302    4.3457302    4.3457302   -13091.354   -23559.614    -4764.842   -10949.605    2317.3208     19214.49    13472.444    82.070728 
   10100    1497.5856   -114.29785    1.3550469   -112.94281    -10959.71    4.3371432    4.3371432    4.3371432    -10959.71   -19227.812   -105.74884   -13545.571    14783.233    3449.8408   -15146.819    81.585182 
   10200    1145.0711   -113.98124    1.0360844   -112.94515   -9133.0604     4.323638     4.323638     4.323638   -9133.0604   -14456.002   -8774.6331   -4168.5466   -6767.9112   -16198.678    5017.2904    80.825422 
   10300    1503.2744   -114.31012    1.3601942   -112.94993    16226.618    4.3189345    4.3189345    4.3189345    16226.618     46366.43    18568.086   -16254.661   -3472.5458    22721.615    6886.5139    80.561927 
   10400    1517.2019   -114.33422    1.3727962   -112.96143    15126.145    4.3286651    4.3286651    4.3286651    15126.145     39345.94    26123.999   -20091.505    3377.3027    13377.061    -15413.79    81.107677 
   10500    1577.5636   -114.39061    1.4274127    -112.9632     2706.518    4.3412568    4.3412568    4.3412568     2706.518    66750.693   -19832.117   -38799.022    6475.9499   -12824.322    3022.9346     81.81754 
   10600    1752.5048   -114.53133    1.5857032   -112.94563   -9643.7213     4.345442     4.345442     4.345442   -9643.7213   -7320.0634    4266.8417   -25877.942   -5260.9884    13307.452    15090.884    82.054402 
   10700     1444.663   -114.24381    1.3071615   -112.93665    7592.9563     4.329047     4.329047     4.329047    7592.9563   -3092.8229    49299.661   -23427.969    1927.7854    -1709.702   -4127.1278    81.129148 
   10800    1000.5056   -113.84896   0.90527846   -112.94368   -3401.5422    4.3238994    4.3238994    4.3238994   -3401.5422    54775.434   -1814.8964   -63165.164    824.12529   -13920.668    20581.922    80.840082 
   10900    1571.8894   -114.37227    1.4222785   -112.94999   -15809.085    4.3422555    4.3422555    4.3422555   -15809.085    33587.336   -18353.412    -62661.18    2899.8459    7202.7357    12357.163    81.874023 
   11000     2101.886   -114.84635    1.9018306   -112.94452    4160.7943    4.3330839    4.3330839    4.3330839    4160.7943    4588.4399    50910.557   -43016.614   -4876.0408   -1818.4318   -1396.9207    81.356322 
   11100    917.40173    -113.7935   0.83008436   -112.96342    16399.027    4.3140631    4.3140631    4.3140631    16399.027    61160.652    16915.346   -28878.918   -3643.8075   -15225.135    24067.824    80.289636 
   11200     658.7999   -113.57644   0.59609599   -112.98034   -16246.144    4.3247434    4.3247434    4.3247434   -16246.144    56555.618   -31914.577   -73379.473   -1917.7579    -10248.31    1136.4428    80.887429 
   11300    1552.4176   -114.37239      1.40466   -112.96773   -4161.9931    4.3332585    4.3332585    4.3332585   -4161.9931    15835.843    28121.774   -56443.596   -5929.7348    7041.2708   -5318.8865    81.366155 
   11400    1794.0297   -114.58371    1.6232758   -112.96043   -10436.961    4.3384916    4.3384916    4.3384916   -10436.961    22115.017    -9035.783   -44390.116    5268.8638    7366.2842     7061.438      81.6613 
   11500    1405.0578   -114.22542    1.2713258    -112.9541   -25428.469    4.3409155    4.3409155    4.3409155   -25428.469    17066.748   -45903.579   -47448.574   -302.58984   -18397.019   -5372.0226    81.798245 
   11600    1398.6087    -114.2142    1.2654905   -112.94871    5698.3066    4.3214311    4.3214311    4.3214311    5698.3066    12956.792    23050.603   -18912.475   -7009.5532    17452.198   -6651.5667    80.701721 
   11700    1877.4652   -114.65157    1.6987699    -112.9528    3104.0835    4.3190151    4.3190151    4.3190151    3104.0835   -8950.7516    32091.605   -13828.603   -3405.7086    29602.521    7381.3956    80.566437 
   11800    1820.4066   -114.60284    1.6471421    -112.9557   -13679.762    4.3413064    4.3413064    4.3413064   -13679.762    7897.6471   -39317.761   -9619.1728    1943.1945   -6611.5563   -1085.0562    81.820345 
   11900    1830.6637   -114.60273     1.656423   -112.94631   -8679.0957    4.3379088    4.3379088    4.3379088   -8679.0957     23750.93   -17801.599   -31986.619   -1765.1144    18596.602   -10474.063    81.628392 
   12000    1776.3826   -114.54601    1.6073083    -112.9387    27724.827    4.3231153    4.3231153    4.3231153    27724.827    65535.245    40443.901   -22804.665   -3081.3589    15743.537    3147.1627    80.796109 
   12100    1388.0874   -114.21254    1.2559706   -112.95657   -2525.4517    4.3253019    4.3253019    4.3253019   -2525.4517    22876.681    2276.9037   -32729.939   -2285.3705   -16293.778   -14465.916    80.918773 
   12200    1451.8988   -114.27555    1.3137085   -112.96184    11304.474    4.3262167    4.3262167    4.3262167    11304.474    78860.186   -13818.186   -31128.579    1967.5509    4500.2241   -12733.544    80.970127 
   12300    2078.4822   -114.83601    1.8806544   -112.95536    8898.3907    4.3371101    4.3371101    4.3371101    8898.3907    -5478.033     47122.88   -14949.675     6667.312    5629.1393     13245.09    81.583311 
   12400    1403.0943   -114.23238    1.2695492   -112.96283   -17530.262    4.3380486    4.3380486    4.3380486   -17530.262    -25504.88    23651.279   -50737.187   -10368.186   -23095.684   -1908.5748    81.636287 
   12500    763.69348   -113.64832   0.69100591   -112.95732    20657.077    4.3114723    4.3114723    4.3114723    20657.077    62482.759    50240.885   -50752.414    7001.0767    -800.3607   -2504.6716    80.145068 
   12600    1603.2998    -114.4114    1.4506994    -112.9607    8876.2222    4.3185425    4.3185425    4.3185425    8876.2222    32248.944    20278.973    -25899.25    9331.6153    18828.029    8745.9143    80.539995 
   12700    1833.1675   -114.61355    1.6586885   -112.95486   -5239.4694    4.3334057    4.3334057    4.3334057   -5239.4694   -775.93254    3728.3789   -18670.855   -11266.095    -815.1056    -3997.123    81.374448 
   12800    953.27996   -113.82445   0.86254774   -112.96191     29646.58    4.3245867    4.3245867    4.3245867     29646.58    82298.167    38038.063    -31396.49   -836.78334   -16494.092   -10860.573     80.87864 
   12900    999.02364   -113.86512   0.90393759   -112.96118   -20221.463    4.3337161    4.3337161    4.3337161   -20221.463   -5897.6487    17303.103   -72069.843    6445.5444    24128.411     8474.315    81.391934 
   13000    1558.2799   -114.35475    1.4099644   -112.94479   -8664.1887    4.3330763    4.3330763    4.3330763   -8664.1887   -550.44706    27477.769   -52919.888    9407.9125    24110.003    2108.7777    81.355892 
   13100    1732.6187   -114.50157    1.5677098   -112.93386     11329.85     4.328083     4.328083     4.328083     11329.85     56237.43    11129.315   -33377.194   -12391.071   -5922.9597   -9666.7922    81.074961 
   13200    1285.1308   -114.10654    1.1628133   -112.94373   -28638.523    4.3379832    4.3379832    4.3379832   -28638.523   -9424.2577   -4978.6392   -71512.671    6595.6938    33892.757    19203.301    81.632596 
   13300    1235.4107   -114.06703    1.1178255    -112.9492     6790.783    4.3266578    4.3266578    4.3266578     6790.783    54902.935    3868.8807   -38399.466    11853.136     13974.55    13227.519    80.994894 
   13400     2224.771   -114.95875    2.0130195   -112.94573    13544.202    4.3186782    4.3186782    4.3186782    13544.202    45893.853    11931.049   -17192.296   -12401.912   -16373.186   -14491.045    80.547584 
   13500    2004.0313   -114.76927    1.8132897   -112.95598    7161.1758    4.3233399    4.3233399    4.3233399    7161.1758    41247.953   -7505.5698   -12258.855    3254.1385    19141.977    10784.437    80.808702 
   13600    1229.6402   -114.07823    1.1126043   -112.96563   -10181.326     4.333845     4.333845     4.333845   -10181.326   -11337.222     6374.518   -25581.273    8867.7919    7389.4847    12498.288      81.3992 
   13700    1793.6337   -114.57054    1.6229175   -112.94763   -13764.306    4.3402303    4.3402303    4.3402303   -13764.306   -9684.3572   -1726.0953   -29882.466    13950.457   -36027.041   -6971.8758     81.75952 
   13800    2252.7419   -114.97141    2.0383282   -112.93308      600.262    4.3244499    4.3244499    4.3244499      600.262    31427.652   -15617.221   -14009.644   -5913.1892    11853.237    5467.5141    80.870961 
   13900    1574.7671   -114.36631    1.4248824   -112.94143    11144.407    4.3148252    4.3148252    4.3148252    11144.407    18931.258   -336.66379    14838.627    -233.9841    14869.709    19446.162    80.332192 
   14000    1525.5013   -114.33213    1.3803056   -112.95183   -8640.7715    4.3268067    4.3268067    4.3268067   -8640.7715   -15696.566    13565.469   -23791.218    16889.723    -16490.71    -2951.386    81.003257 
   14100    1425.9591   -114.24353    1.2902378    -112.9533   -9092.2638    4.3337646    4.3337646    4.3337646   -9092.2638    27576.926   -33529.208   -21324.509   -13208.733   -12666.539   -24436.986    81.394669 
   14200    1354.7531   -114.17519    1.2258091   -112.94939    134.50182    4.3310252    4.3310252    4.3310252    134.50182    31471.129   -29475.752   -1591.8718    2864.5229    9621.6628    10421.166    81.240415 
   14300    1194.7433    -114.0237    1.0810289   -112.94267   -589.22273    4.3307488    4.3307488    4.3307488   -589.22273    20460.674    11770.688    -33999.03     5998.199     -3747.95    8905.7175    81.224862 
   14400    1121.5037   -113.96383    1.0147601   -112.94907   -5083.9779    4.3263842    4.3263842    4.3263842   -5083.9779    26538.572    2197.7603   -43988.266   -6415.5157   -23370.867   -37814.665    80.979529 
   14500    1403.9198   -114.22463    1.2702961   -112.95433    5609.8623    4.3200171    4.3200171    4.3200171    5609.8623    35737.596   -26635.606     7727.597   -8012.4608    -776.7139   -15622.869    80.622527 
   14600     1723.114   -114.51459    1.5591098   -112.95548    6075.0441    4.3240106    4.3240106    4.3240106    6075.0441    29777.778    10070.483   -21623.129   -7474.5231   -5149.9837    14167.325    80.846317 
   14700    1302.9642   -114.14319    1.1789494   -112.96424   -13858.331    4.3292314    4.3292314    4.3292314   -13858.331    25334.958   -15229.486   -51680.465    8607.0411    -746.1586   -27156.649    81.139513 
   14800    1484.7291    -114.3077    1.3434141   -112.96428   -7732.3366    4.3245793    4.3245793    4.3245793   -7732.3366    18598.992   -16773.825   -25022.177   -6238.8185    3137.8701   -34859.804    80.878222 
   14900    2215.8247   -114.95768    2.0049247   -112.95276    17748.403    4.3202187    4.3202187    4.3202187    17748.403    24883.565     22014.31    6347.3354   -2384.1229   -3696.0471    8096.5421    80.633811 
   15000     1748.873   -114.54562    1.5824171   -112.96321    1309.4633    4.3267363    4.3267363    4.3267363    1309.4633    43703.754   -7824.1971   -31951.167    11515.418   -16726.757   -31403.143    80.999301 
   15100     1193.702    -114.0448    1.0800866   -112.96471   -11342.494    4.3329086    4.3329086    4.3329086   -11342.494    35445.143   -25227.118   -44245.505   -15852.598   -9793.2059    -48300.94    81.346444 
   15200    1659.0491   -114.45583    1.5011425   -112.95469    10109.214    4.3251283    4.3251283    4.3251283    10109.214    3217.9609    27285.387   -175.70662   -12516.659    8266.8323    24945.091    80.909031 
   15300    1764.5628   -114.55195    1.5966135   -112.95533    7430.6437    4.3199254    4.3199254    4.3199254    7430.6437    26356.826   -24884.972    20820.077    12737.934    6001.1899    9745.4137    80.617394 
   15400    1546.0315   -114.36166    1.3988818   -112.96278    7452.4826    4.3240854    4.3240854    4.3240854    7452.4826    36721.307   -16883.203    2519.3441    4124.3656   -8710.3165    -42419.05    80.850514 
   15500    1502.2503   -114.32103    1.3592676   -112.96176   -3271.8902    4.3305334    4.3305334    4.3305334   -3271.8902   -297.38832    28065.627   -37583.909   -4945.2577   -5325.5633    1690.2716    81.212741 
   15600    1371.3275   -114.20486     1.240806   -112.96406   -14131.605     4.328992     4.328992     4.328992   -14131.605     5898.956   -24428.447   -23865.324    1631.3571    9848.3168    29189.618    81.126055 
   15700    1633.6641   -114.43698    1.4781736   -112.95881    1623.5253    4.3186701    4.3186701    4.3186701    1623.5253    22991.036   -13711.794   -4408.6653    21424.544    5744.4278   -7953.0167    80.547131 
   15800    1630.4713   -114.43353    1.4752847   -112.95825    1968.3343    4.3221311    4.3221311    4.3221311    1968.3343    12579.925   -3007.0369   -3667.8853    10453.973   -17048.329   -9411.1415    80.740942 
   15900    948.75179   -113.82404   0.85845055   -112.96559   -23796.024    4.3336526    4.3336526    4.3336526   -23796.024   -4666.4524    -10461.42     -56260.2   -3952.0688    7270.9101    41592.204    81.388358 
   16000    1302.7022    -114.1406    1.1787123   -112.96188   -8451.5423    4.3325988    4.3325988    4.3325988   -8451.5423    12694.689    16153.062   -54202.378    7532.2063    14614.774    20383.443    81.328999 
   16100    1892.9604   -114.66317    1.7127903   -112.95038    7019.7849    4.3267722    4.3267722    4.3267722    7019.7849    6506.2953    21188.001   -6634.9419   -1510.0657   -15348.156   -15638.674    81.001318 
   16200    1184.1376   -114.03263    1.0714326   -112.96119    7714.4272    4.3209011    4.3209011    4.3209011    7714.4272    19691.943    38348.262   -34896.923    536.09589    17940.828    30771.645    80.672029 
   16300    785.01703   -113.68282    0.7102999   -112.97252      3470.87    4.3281574    4.3281574    4.3281574      3470.87    11874.457    59892.506   -61354.353    9296.9405    22399.265    30757.059    81.079142 
   16400    1650.1748   -114.45468    1.4931128   -112.96157   -15954.892    4.3308819    4.3308819    4.3308819   -15954.892   -7457.3591   -18856.159   -21551.156    4529.0231   -13112.464   -29934.875    81.232353 
   16500    1410.1589   -114.23354    1.2759414    -112.9576    12003.755    4.3189901    4.3189901    4.3189901    12003.755    12732.136    13763.678    9515.4527   -13772.139    2325.4659   -14499.346    80.565041 
   16600    1395.2089   -114.22605    1.2624144   -112.96364   -15571.818    4.3261449    4.3261449    4.3261449   -15571.818   -16117.404    3820.6394   -34418.691   -1226.0048    21535.616    52090.102    80.966092 
   16700    1420.8926   -114.24571    1.2856535   -112.96005   -2875.8727     4.330847     4.330847     4.330847   -2875.8727   -2941.4633    13283.774   -18969.928    10160.642    5147.6921   -5966.7146    81.230385 
   16800    1597.5931   -114.39895    1.4455358   -112.95341    11635.252    4.3257498    4.3257498    4.3257498    11635.252    2335.2411    9816.6056    22753.908   -2941.2025   -3623.8963   -45954.726    80.943912 
   16900     1181.729   -114.02697    1.0692533   -112.95772   -11727.273    4.3352424    4.3352424    4.3352424   -11727.273   -25745.024    10262.266   -19699.061   -5886.4554    12998.802    41044.504    81.477962 
   17000    1360.9717   -114.18215    1.2314358   -112.95071   -11749.785    4.3276682    4.3276682    4.3276682   -11749.785     -23293.7    11548.974   -23504.629   -361.31612    16567.185    19791.976    81.051654 
   17100    1949.9617   -114.70482    1.7643663   -112.94045     13966.24     4.316447     4.316447     4.316447     13966.24    16586.455    5183.3601    20128.904    1910.5686    -11344.84    -38874.82    80.422811 
   17200    951.65271   -113.82195   0.86107537   -112.96087   -19867.738    4.3405097    4.3405097    4.3405097   -19867.738   -41868.952   -220.32611   -17513.936    18738.617    7662.4904    25959.018     81.77531 
   17300    1237.5018   -114.06723    1.1197176   -112.94752   -26705.962    4.3450455    4.3450455    4.3450455   -26705.962   -45206.837   -12388.951   -22522.096   -5874.6379    16694.783    20399.551    82.031939 
   17400    2370.1516   -115.07035     2.144563   -112.92579    18710.248    4.3246817    4.3246817    4.3246817    18710.248   -16462.137    30711.021    41881.861   -7652.1523   -862.07311   -3993.2554    80.883968 
   17500    1666.1275   -114.46113    1.5075472   -112.95359    296.76123    4.3151239    4.3151239    4.3151239    296.76123    -12735.63   -6623.8457     20249.76    12965.053    11121.943    24742.252    80.348877 
   17600    915.79647   -113.80794   0.82863189   -112.97931    1079.0337    4.3162994    4.3162994    4.3162994    1079.0337   -15190.167    14732.581    3694.6868   -513.48406    11123.413    37200.816    80.414561 
   17700    1804.2376   -114.60669    1.6325121   -112.97417    2251.5606    4.3360147    4.3360147    4.3360147    2251.5606    -6348.995      7957.94    5145.7367   -1943.7933    -13043.26   -10854.008    81.521517 
   17800     1986.012   -114.75183    1.7969854   -112.95484   -663.38992    4.3374713    4.3374713    4.3374713   -663.38992    17847.699   -18966.051   -871.81775   -2038.8771   -5884.4098   -30111.277    81.603698 
   17900    1551.6887   -114.35364    1.4040006   -112.94964    11759.816    4.3256334    4.3256334    4.3256334    11759.816    8899.6646    38257.498   -11877.713     3903.784    17641.192    35728.641    80.937375 
   18000    1902.2118   -114.67179    1.7211612   -112.95063   -2259.0689    4.3211205    4.3211205    4.3211205   -2259.0689    18251.096    9062.6308   -34090.933    7776.9334    17872.532    3926.2722    80.684318 
   18100    1582.1168   -114.38986    1.4315325   -112.95832    28840.323    4.3172629    4.3172629    4.3172629    28840.323    49042.101    30005.671     7473.197   -15375.527   -8324.3155   -42241.007     80.46842 
   18200    1619.4349   -114.43218    1.4652987   -112.96688   -11219.671    4.3397845    4.3397845    4.3397845   -11219.671    16911.924   -17498.919   -33072.018   -1522.8471    1605.2747    11514.886    81.734328 
   18300    1675.2285   -114.46478     1.515782     -112.949   -26681.638    4.3417968    4.3417968    4.3417968   -26681.638   -3912.8192   -26048.659   -50083.435    5330.5903    28339.233    26730.737     81.84808 
   18400     1695.587   -114.47156    1.5342028   -112.93736    30972.102    4.3119443    4.3119443    4.3119443    30972.102    63908.923    25766.548    3240.8356   -11747.952    5304.1171   -21302.172    80.171393 
   18500     1855.481   -114.62667    1.6788782   -112.94779    1757.0388    4.3219046    4.3219046    4.3219046    1757.0388    24747.553    2081.0411   -21557.478    9246.8408   -13702.236   -8938.8712    80.728248 
   18600    1023.2452   -113.88681   0.92585377   -112.96096   -25220.836    4.3365346    4.3365346    4.3365346   -25220.836   -20667.369    6028.5078   -61023.647    2063.0902      25899.3    16160.302    81.550843 
   18700    1668.8794   -114.46638    1.5100372   -112.95635    6220.0592    4.3320271    4.3320271    4.3320271    6220.0592    39459.566   -1216.3836   -19583.005   -4505.1825    13176.478   -3292.3576    81.296807 
   18800    2420.0517   -115.13021    2.1897137    -112.9405   -4891.6295    4.3395451    4.3395451    4.3395451   -4891.6295    20486.355   -7259.2764   -27901.967   -1757.3137   -13633.582    4739.4354    81.720802 
   18900    1207.5633   -114.04968    1.0926287   -112.95705    917.15361    4.3257571    4.3257571    4.3257571    917.15361     45327.95    21419.867   -63996.356   -854.46811    15953.823    32848.071     80.94432 
   19000    1614.1981   -114.41174    1.4605604   -112.95118    7650.0508    4.3194708    4.3194708    4.3194708    7650.0508    33876.547    17031.289   -27957.683     9827.583    14614.347    1810.7238    80.591945 
   19100    2267.1922   -114.99844    2.0514031   -112.94704   -10874.472    4.3369516    4.3369516    4.3369516   -10874.472   -4830.8991   -16377.519   -11414.997   -4694.8582   -13095.538   -529.10014    81.574368 
   19200    1693.0052    -114.4856    1.5318667   -112.95373     -6064.08     4.329054     4.329054     4.329054     -6064.08    49446.848   -22417.357   -45221.731   -15447.425    20551.645    29553.757    81.129538 
   19300    1662.7701   -114.45573    1.5045094   -112.95122    14946.918    4.3272779    4.3272779    4.3272779    14946.918    46388.553    20456.169   -22003.967    12788.403    20913.587   -1319.1945    81.029724 
   19400     2113.877   -114.85372    1.9126804   -112.94104   -15193.604    4.3379328    4.3379328    4.3379328   -15193.604    1298.7536   -22942.066     -23937.5   -4158.7957   -25677.178    207.58556    81.629747 
   19500    1214.2424   -114.04735     1.098672   -112.94868    6627.5734    4.3309026    4.3309026    4.3309026    6627.5734    58953.934   -25170.471   -13900.742   -22637.099    8026.1346    28463.536    81.233513 
   19600    1303.5022   -114.13683    1.1794362   -112.95739   -14402.894    4.3289804    4.3289804    4.3289804   -14402.894   -22307.664    8462.1954   -29363.214    12468.616     35957.81    3567.1003    81.125403 
   19700    2044.8431   -114.80076     1.850217   -112.95054   -4741.9202    4.3193728    4.3193728    4.3193728   -4741.9202   -3480.7863   -8961.4914    -1783.483    6421.3033    11812.179    1371.6371    80.586459 
   19800     1610.039   -114.42061    1.4567971   -112.96382   -1175.1812    4.3260244    4.3260244    4.3260244   -1175.1812    37863.666   -40027.509   -1361.7006    5594.1377   -15189.921    23097.138    80.959328 
   19900    701.39811    -113.6028   0.63463975   -112.96817    -30699.45    4.3445456    4.3445456    4.3445456    -30699.45   -28844.059   -22786.177   -40468.113   -6231.2744    55749.876    6336.5934    82.003633 
   20000    1518.0492   -114.32098    1.3735629   -112.94742    5256.7744    4.3334858    4.3334858    4.3334858    5256.7744    17006.419   -2885.2023    1649.1064    2299.6845    17846.923   -11743.164     81.37896 
   20100    2011.7586   -114.75931    1.8202815   -112.93902    2338.2724    4.3237335    4.3237335    4.3237335    2338.2724    16127.007   -24294.043    15181.853    5128.4344   -21855.105   -476.02176    80.830778 
   20200    898.34043   -113.77077    0.8128373   -112.95794    5006.5037    4.3182546    4.3182546    4.3182546    5006.5037    2610.1619    6791.6549    5617.6944   -6035.8711    59703.106    4375.9244    80.523886 
   20300    842.33876   -113.73551   0.76216582   -112.97335    5781.8002    4.3328327    4.3328327    4.3328327    5781.8002    35430.042   -31656.658    13572.017    11619.751    12091.268   -17126.665    81.342169 
   20400    1522.4542   -114.32808    1.3775485   -112.95053    -15703.99    4.3472837    4.3472837    4.3472837    -15703.99    899.18027   -37782.816   -10228.333    1687.4648   -23772.754   -13089.173    82.158774 
   20500    1471.3823   -114.27701    1.3313377   -112.94567    21176.488    4.3227438    4.3227438    4.3227438    21176.488    22336.769    25303.448    15889.246   -1908.8338    35609.447    5208.3138    80.775284 
   20600    1292.9638    -114.1132    1.1699009    -112.9433    24788.674    4.3140359    4.3140359    4.3140359    24788.674    53615.098    12209.585    8541.3398    6166.2875    11504.712   -16922.206    80.288117 
   20700    1043.1672   -113.89899   0.94387957   -112.95511   -17346.165    4.3397742    4.3397742    4.3397742   -17346.165    5038.2767   -58896.817    1820.0468   -5099.7421   -20944.436   -18019.447    81.733746 
   20800     1218.306    -114.0535    1.1023489   -112.95115   -12370.481    4.3403847    4.3403847    4.3403847   -12370.481   -17806.781   -10827.053   -8477.6093   -9266.5675    21531.191    6172.8832    81.768245 
   20900    1521.7298   -114.31991    1.3768931   -112.94301    29870.837    4.3226757    4.3226757    4.3226757    29870.837    21478.087    33869.906    34264.518   -3827.1682    23743.747   -20001.976    80.771465 
   21000    1809.0862   -114.58527    1.6368993   -112.94837    14331.171     4.324556     4.324556     4.324556    14331.171     32776.14   -18258.657     28476.03    3037.3138   -9654.7241   -26746.416    80.876916 
   21100    1351.4911   -114.18193    1.2228575   -112.95907    2938.5468    4.3405214    4.3405214    4.3405214    2938.5468    22775.744   -14524.912     564.8084    4385.7829    11484.112    16303.457    81.775972 
   21200    1423.7025   -114.23528    1.2881959   -112.94709    2824.7318    4.3453866    4.3453866    4.3453866    2824.7318   -7531.8756    9831.5327    6174.5384   -2316.0965    17105.786   -3592.1166     82.05126 
   21300    2069.6106   -114.80477    1.8726272   -112.93215   -10476.705    4.3381391    4.3381391    4.3381391   -10476.705   -3288.5912   -11144.634    -16996.89    5344.1025    4192.4785   -47508.446    81.641393 
   21400     1819.551   -114.58225     1.646368   -112.93588    18052.739     4.317135     4.317135     4.317135    18052.739    38771.854    21596.578   -6210.2153   -6614.7006   -4310.4728    1921.3177    80.461273 
   21500    1349.0257   -114.17526    1.2206268   -112.95464    14598.613    4.3157995    4.3157995    4.3157995    14598.613    5830.0245    16453.962    21511.851    11026.841     19991.79    21086.333    80.386624 
   21600     1371.877    -114.2034    1.2413032   -112.96209    -11682.25    4.3467557    4.3467557    4.3467557    -11682.25   -18241.077   -31078.233     14272.56    16479.842    10299.268    -22540.13    82.128842 
   21700    1788.1086   -114.55171    1.6179182   -112.93379   -21517.612    4.3507536    4.3507536    4.3507536   -21517.612   -11129.615    -24426.28   -28996.942   -8305.3014   -26382.611   -4865.8316    82.355664 
   21800    1206.3732    -114.0301    1.0915519   -112.93855   -1586.1172    4.3167437    4.3167437    4.3167437   -1586.1172   -3078.3424   -8142.0831    6462.0738    9975.6231    27481.113    16684.542    80.439397 
   21900    1218.9726   -114.04297     1.102952   -112.94002    25911.555    4.3047366    4.3047366    4.3047366    25911.555    25912.426    5158.9398    46663.299    11559.092    36427.507   -5919.6516    79.770031 
   22000    1387.6601   -114.21003     1.255584   -112.95445    5482.0358    4.3352025    4.3352025    4.3352025    5482.0358    27156.388   -6705.5797   -4004.7008   -1327.7066   -37805.722   -7796.4583    81.475714 
   22100    1318.8035   -114.13563    1.1932811   -112.94235   -22173.568    4.3493339    4.3493339    4.3493339   -22173.568   -11843.245   -39563.005   -15114.455    3806.8965   -516.01087     9820.089    82.275067 
   22200    1176.0515   -113.99892    1.0641161    -112.9348    9156.1088    4.3280836    4.3280836    4.3280836    9156.1088     34738.46   -33506.379    26236.244    7239.4469    56581.146    8897.0443    81.074994 
   22300    1356.1058   -114.16324    1.2270331   -112.93621    4663.8974    4.3143593    4.3143593    4.3143593    4663.8974   -4323.3485    4923.0196    13392.021    10915.861   -28710.392   -9980.6501    80.306174 
   22400    1339.1804   -114.16127    1.2117186   -112.94955   -1859.9695    4.3192078    4.3192078    4.3192078   -1859.9695    6155.8271   -4505.4517    -7230.284    -1755.526   -37660.094    3002.2636    80.577221 
   22500    1291.9974   -114.13064    1.1690264   -112.96162   -24083.927    4.3327135    4.3327135    4.3327135   -24083.927   -2736.2251   -40558.787   -28956.768   -3545.3976    37880.519    16184.601    81.335456 
   22600    1309.5743   -114.13616    1.1849303   -112.95123   -36425.522    4.3453388    4.3453388    4.3453388   -36425.522   -48227.347   -44702.325   -16346.894    22887.972    10268.105   -3257.3768    82.048554 
   22700     1604.339   -114.38923    1.4516396   -112.93759   -9316.6017    4.3245425    4.3245425    4.3245425   -9316.6017   -20230.983   -18464.199    10745.376   -2000.8121   -28707.646    6312.2179    80.876159 
   22800     1018.283   -113.86256   0.92136387    -112.9412    8503.1117    4.3132945    4.3132945    4.3132945    8503.1117    2686.5292    17445.888    5376.9183   -31595.477    18757.243    14962.012    80.246726 
   22900     1337.567   -114.16075    1.2102587   -112.95049   -31726.804     4.332503     4.332503     4.332503   -31726.804   -37102.566   -23709.471   -34368.374    24513.909    33359.501   -8207.9173    81.323607 
   23000    1684.4742   -114.47064    1.5241477   -112.94649   -2261.8501    4.3301217    4.3301217    4.3301217   -2261.8501   -13099.299   -29630.731    35944.479    10303.237   -12745.563   -16334.354    81.189582 
   23100    1568.2044   -114.36536    1.4189443   -112.94642   -3033.0211    4.3240137    4.3240137    4.3240137   -3033.0211    2307.3097   -26846.887    15440.514   -34759.585    2502.0695    8126.1028    80.846492 
   23200    943.54732   -113.81106   0.85374144   -112.95732   -17699.333    4.3270707    4.3270707    4.3270707   -17699.333   -20935.068    4677.4152   -36840.348    10982.455    34151.701     -533.966    81.018084 
   23300    1323.8206   -114.15473    1.1978207   -112.95691   -17574.875    4.3212215    4.3212215    4.3212215   -17574.875   -22357.541    609.13654    -30976.22    2515.0507   -2754.2442    -14474.05    80.689977 
   23400    1645.7817   -114.44286    1.4891378   -112.95372    8420.4206    4.3235352    4.3235352    4.3235352    8420.4206    2958.2169   -18816.809    41119.853    -44835.45   -9077.9979    15454.168    80.819658 
   23500    1782.3922   -114.56196    1.6127459   -112.94921   -7758.2427    4.3344827    4.3344827    4.3344827   -7758.2427   -26900.921    17063.135   -13436.942    5352.7529    21842.879   -6235.9251    81.435138 
   23600    1331.6314   -114.15827    1.2048881   -112.95338   -11615.831    4.3267008    4.3267008    4.3267008   -11615.831    -23846.47    13708.048   -24709.073    15527.574    9074.0087   -19816.152    80.997311 
   23700    1307.9196    -114.1394    1.1834331   -112.95596   -2357.3095     4.319495     4.319495     4.319495   -2357.3095    -19243.58    -13108.07    25279.722   -30838.294   -31207.668    4835.2338    80.593299 
   23800    2072.2649    -114.8241    1.8750288   -112.94907   -131.87124    4.3247902    4.3247902    4.3247902   -131.87124    -12687.25    394.91164    11896.725   -13393.663    12434.387    2548.5696    80.890055 
   23900    1979.9224      -114.74    1.7914754   -112.94853    5457.3961    4.3321626    4.3321626    4.3321626    5457.3961   -18838.484     20321.12    14889.553    4113.0989    26773.262   -3657.5001    81.304434 
   24000      1257.66   -114.08762    1.1379572   -112.94966   -5885.0378    4.3344973    4.3344973    4.3344973   -5885.0378   -33461.834   -14847.509     30654.23   -19850.866   -29223.664   -5535.6851     81.43596 
   24100    1462.5665   -114.26102    1.3233609   -112.93766    4081.4374    4.3280448    4.3280448    4.3280448    4081.4374     15229.77    -18026.89    15041.432   -12486.909   -4412.9321    23322.976    81.072812 
   24200    1949.9236   -114.69713    1.7643318    -112.9328     498.7444    4.3222579    4.3222579    4.3222579     498.7444   -9441.7483    10710.496    227.48511    13132.554    14660.293    16260.528    80.748049 
   24300    1218.9384   -114.05268    1.1029211   -112.94976    1316.2171    4.3215887    4.3215887    4.3215887    1316.2171   -27769.121     7985.657    23732.115   -9990.7409   -12425.979   -24840.358    80.710545 
   24400    594.03468   -113.50383   0.53749506   -112.96634   -7713.5928    4.3263509    4.3263509    4.3263509   -7713.5928   -3323.2416   -14631.573   -5185.9635   -20012.633   -10517.706    27044.008     80.97766 
   24500    1494.7205   -114.30151    1.3524545   -112.94905     9010.753    4.3353461    4.3353461    4.3353461     9010.753    31793.367   -12804.059     8042.951    11471.771   -4345.6094    14491.568    81.483811 
   24600    1530.4861    -114.3219     1.384816   -112.93708     2208.856    4.3366272    4.3366272    4.3366272     2208.856    -28163.47   -148.33412    34938.372   -9596.1846   -8565.8076    -15063.28    81.556064 
   24700     689.1791   -113.56801   0.62358373   -112.94442    -16223.67    4.3271201    4.3271201    4.3271201    -16223.67    -19513.03    -24454.21     -4703.77   -22907.657   -14150.021    31729.487    81.020857 
   24800    1306.8151   -114.13026    1.1824337   -112.94783    9761.1357    4.3197246    4.3197246    4.3197246    9761.1357    32226.847    1119.8919   -4063.3315     5086.712    8809.8132    19126.891    80.606153 
   24900    2053.0946   -114.80066    1.8576831   -112.94298    18199.403     4.324651     4.324651     4.324651    18199.403    1041.4267    18348.646    35208.138    3921.8758    17008.156   -15646.187    80.882246 
   25000     1488.717   -114.30213    1.3470224   -112.95511   -4331.2167    4.3344947    4.3344947    4.3344947   -4331.2167    16231.068    -24448.72    -4775.998    -9619.229   -24375.507    28983.228    81.435809 
   25100     1480.682   -114.29028    1.3397522   -112.95053    3121.0059    4.3293245    4.3293245    4.3293245    3121.0059    55418.762   -31181.062   -14874.683   -1120.2774   -6088.5354     35105.48    81.144746 
   25200     2149.851   -114.88407    1.9452304   -112.93884    28814.293    4.3196129    4.3196129    4.3196129    28814.293    33200.694    26776.861    26465.325    19950.765    15971.265   -18199.082    80.599898 
   25300    1653.9576   -114.44578    1.4965356   -112.94924    7029.0706     4.329962     4.329962     4.329962    7029.0706    55056.474   -26259.801   -7709.4615   -4049.6753     5880.437    24736.274    81.180602 
   25400     1343.233   -114.15977    1.2153854   -112.94439   -7946.1852    4.3395486    4.3395486    4.3395486   -7946.1852    55908.115   -41892.457   -37854.214   -10152.191   -3282.9863    42982.504    81.720999 
   25500    1993.2318   -114.73296    1.8035181   -112.92944    4100.9985     4.326177     4.326177     4.326177    4100.9985    7802.3499    6530.1209   -2029.4754    21281.063    2375.0945   -15085.612    80.967896 
   25600    1291.4397   -114.10885    1.1685218   -112.94033    12108.703    4.3180195    4.3180195    4.3180195    12108.703    70986.113   -23817.713   -10842.292    10769.465    10171.849    13177.606    80.510737 
   25700    791.97155     -113.677    0.7165925    -112.9604    -27866.52    4.3259798    4.3259798    4.3259798    -27866.52   -1847.0351   -41914.364   -39838.161    -17991.69   -13621.038    39569.775    80.956823 
   25800    1342.8536   -114.17097    1.2150421   -112.95593   -10479.725    4.3295007    4.3295007    4.3295007   -10479.725   -34390.878    10982.622    -8030.919   -28242.663   -14836.388   -11753.554    81.154655 
   25900    1753.4706    -114.5324     1.586577   -112.94582   -6468.7886    4.3305006    4.3305006    4.3305006   -6468.7886    12779.033   -10724.535   -21460.864    5982.0498    8854.2764    20794.466    81.210895 
   26000    987.06283   -113.84658   0.89311519   -112.95347   -9.2420427    4.3275746    4.3275746    4.3275746   -9.2420427    19366.295    20922.455   -40316.476   -9448.3244   -8335.3475    36737.612    81.046394 
   26100    1080.6895   -113.93189   0.97783059   -112.95406   -5727.3332    4.3253989    4.3253989    4.3253989   -5727.3332   -46281.901    44302.071    -15202.17   -47964.631   -17480.616   -13765.197    80.924213 
   26200    1753.1201   -114.53488    1.5862599   -112.94862   -3537.2393    4.3220487    4.3220487    4.3220487   -3537.2393   -18468.193    11000.927   -3144.4513    12919.314   -5350.1057    13972.294    80.736323 
   26300    1970.0948   -114.73217    1.7825832   -112.94959   -7606.4304    4.3287427    4.3287427    4.3287427   -7606.4304   -17371.076    15685.733   -21133.948    10266.931    5991.1747    27597.319    81.112037 
   26400    1357.6538   -114.17692    1.2284337   -112.94848   -34688.817    4.3423018    4.3423018    4.3423018   -34688.817   -52390.223   -25415.169   -26261.059   -55002.019   -18077.027   -11919.903    81.876641 
   26500     1608.657   -114.39882    1.4555466   -112.94328   -9690.2347    4.3250784    4.3250784    4.3250784   -9690.2347   -24608.401   -6545.1234    2082.8201     9539.072   -8587.7315   -7927.6482     80.90623 
   26600    2300.7055   -115.01432    2.0817267    -112.9326    15096.079    4.3159958    4.3159958    4.3159958    15096.079    1126.0047    34475.283    9686.9491    16697.183    11840.971    3942.7044    80.397594 
   26700    1348.8948   -114.17657    1.2205084   -112.95606   -13287.202    4.3309613    4.3309613    4.3309613   -13287.202   -27485.528   -8827.7031   -3548.3756   -34593.725   -16039.313   -7988.9804    81.236819 
   26800     1113.188   -113.96011    1.0072359   -112.95287    2746.2023    4.3395275    4.3395275    4.3395275    2746.2023    28675.184   -8819.5347   -11617.043   -10398.406   -17587.047   -13325.288    81.719805 
   26900    2089.8399   -114.81832     1.890931   -112.92739    2116.4545    4.3384893    4.3384893    4.3384893    2116.4545    5348.2925    20307.593   -19306.522    18174.653     7530.504    1558.5216    81.661168 
   27000    973.77033   -113.82407   0.88108786   -112.94298    8859.4897     4.320114     4.320114     4.320114    8859.4897    53485.962   -26198.209   -709.28347   -26864.075    1627.5669    976.29403    80.627948 
   27100     691.8048    -113.5876   0.62595952   -112.96164   -6488.7247    4.3198407    4.3198407    4.3198407   -6488.7247   -33542.107    36716.583    -22640.65   -28164.629   -22040.176   -12235.663    80.612649 
   27200    1668.1286   -114.45944    1.5093578   -112.95008   -7025.4553    4.3330917    4.3330917    4.3330917   -7025.4553    20837.651   -16173.181   -25740.835    18311.693   -1033.1006   -8207.7958    81.356759 
   27300     1282.938   -114.11008    1.1608292   -112.94925   -25669.529      4.34149      4.34149      4.34149   -25669.529    -35948.85   -23477.154   -17582.584   -18710.291   -850.50538    1472.9874    81.830727 
   27400    863.00501   -113.72907   0.78086507   -112.94821   -25695.574    4.3373154    4.3373154    4.3373154   -25695.574   -71982.273    32892.958   -37997.407   -35858.308   -17091.859   -4439.7887      81.5949 
   27500    1883.9529   -114.63228    1.7046401   -112.92764    8612.3095    4.3188705    4.3188705    4.3188705    8612.3095    2293.9961    38983.783    -15440.85     6805.616   -1887.4376   -9668.1507    80.558346 
   27600    1412.7013   -114.22526    1.2782418   -112.94702   -4407.1704    4.3274893    4.3274893    4.3274893   -4407.1704     7039.158   -26097.805    5837.1362   -3900.6646    8947.9187    9205.6508    81.041601 
   27700    1242.5445   -114.07479    1.1242804   -112.95051   -31425.945    4.3398182    4.3398182    4.3398182   -31425.945    -65067.47   -15305.108   -13905.256   -42116.458   -16654.565     1148.639    81.736233 
   27800    2071.0012      -114.81    1.8738854   -112.93612    19619.579    4.3306301    4.3306301    4.3306301    19619.579    15347.632    32845.447    10665.657    -5829.646   -7963.6149   -9512.0745    81.218183 
   27900    1808.9023   -114.57844    1.6367328   -112.94171    1720.8155    4.3315599    4.3315599    4.3315599    1720.8155   -10422.218   -573.64232    16158.307    14612.149     5768.062    4861.1205    81.270507 
   28000    1393.5992   -114.20354    1.2609578   -112.94258   -7673.7201      4.32852      4.32852      4.32852   -7673.7201   -52020.567    11536.928    17462.479   -35858.473   -10253.549    1900.4877    81.099522 
   28100    1905.4673   -114.66209    1.7241068   -112.93798     21509.25    4.3286671    4.3286671    4.3286671     21509.25    10674.976    43707.912    10144.861   -5333.0766   -8415.5814   -5191.5291    81.107791 
   28200     1601.478    -114.3876    1.4490509   -112.93855    2254.2987    4.3376245    4.3376245    4.3376245    2254.2987   -16009.096   -3039.0006    25810.993    20003.501     16564.54   -7190.5569    81.612344 
   28300     1119.209   -113.95718    1.0126838   -112.94449   -10103.288    4.3342911    4.3342911    4.3342911   -10103.288   -49914.838    -6773.748    26378.723   -29835.498   -5495.4637   -5436.6247    81.424335 
   28400    1487.9672   -114.28488     1.346344   -112.93854    15623.844     4.323998     4.323998     4.323998    15623.844    18943.896    20185.458    7742.1787   -12404.218   -5841.2558    1415.0105    80.845614 
   28500    1429.0149   -114.23641    1.2930027   -112.94341    12543.468    4.3256458    4.3256458    4.3256458    12543.468    28571.194   -16642.158    25701.369    8538.3836    18661.769   -13985.914    80.938075 
   28600    1016.3491   -113.87541   0.91961406    -112.9558   -10677.349    4.3476902    4.3476902    4.3476902   -10677.349    -21842.75   -39191.393    29002.096   -33050.431    2038.3592    11994.021    82.181823 
   28700     1291.427   -114.10023    1.1685103   -112.93172   -6631.4121    4.3475036    4.3475036    4.3475036   -6631.4121   -16450.398    896.88695   -4340.7257   -13447.768   -987.69346   -5119.5932    82.171239 
   28800    1395.8343   -114.18429    1.2629802   -112.92131    13544.194    4.3241851    4.3241851    4.3241851    13544.194    15002.263    20800.508    4829.8113    5222.0532    10026.658   -38101.438    80.856105 
   28900    1573.1242   -114.35055    1.4233958   -112.92716   -1361.8952    4.3270639    4.3270639    4.3270639   -1361.8952   -32777.243   -12686.429    41377.986   -41415.652    3216.1556    16044.371    81.017703 
   29000    1712.6122   -114.47834    1.5496075   -112.92873    -24297.92    4.3436904    4.3436904    4.3436904    -24297.92   -52424.063   -262.40102   -20207.297    -17079.38   -4063.9716   -2535.4543    81.955213 
   29100     1687.453    -114.4565    1.5268429   -112.92966   -18922.151    4.3432321    4.3432321    4.3432321   -18922.151   -27971.807     19315.07   -48109.715    4147.2423    5597.9651   -31537.128    81.929277 
   29200    2211.5072   -114.92344    2.0010182   -112.92242   -1513.8103     4.333349     4.333349     4.333349   -1513.8103   -35537.391    38569.673   -7573.7128   -23714.636    6612.6535    4330.8891    81.371255 
   29300    1849.2276    -114.6047      1.67322   -112.93148    13031.687    4.3266624    4.3266624    4.3266624    13031.687     12945.53    36798.303   -10648.771    -14783.72   -5016.1088   -13531.012    80.995152 
   29400    951.16718   -113.81218   0.86063605   -112.95154      -8086.2    4.3339573    4.3339573    4.3339573      -8086.2    17989.117    12441.033   -54688.749    8147.2064    6918.5259   -48515.883    81.405527 
   29500    1708.1627   -114.48624    1.5455815   -112.94065   -18853.745    4.3448526    4.3448526    4.3448526   -18853.745   -24009.265    -2329.173   -30222.799    7225.5637     19448.44    21679.072    82.021017 
   29600    1779.9978   -114.53175    1.6105794   -112.92117    -8617.754    4.3432246    4.3432246    4.3432246    -8617.754    12408.977    5450.1126   -43712.352   -14398.259   -2013.9933   -21434.438    81.928853 
   29700    919.96677   -113.76158   0.83240526   -112.92918    315.04466    4.3300427    4.3300427    4.3300427    315.04466    57509.698   -27747.062   -28817.502    4784.9819    6830.5285    -48826.32    81.185139 
   29800    1227.8255   -114.03514    1.1109623   -112.92418    7039.4253    4.3265091    4.3265091    4.3265091    7039.4253    22160.569   -21867.877    20825.584    15635.258    14046.389    31574.848    80.986544 
   29900    1258.3632    -114.0754    1.1385935   -112.93681   -24203.134    4.3459497    4.3459497    4.3459497   -24203.134    35334.209   -65234.201    -42709.41    -10772.56     7390.271    -42857.19    82.083164 
   30000    1423.2896   -114.21755    1.2878223   -112.92973   -6836.0043    4.3436766    4.3436766    4.3436766   -6836.0043    47317.045   -26983.858     -40841.2   -7286.1529   -2173.5964   -26432.606    81.954432 
   30100    1521.7699   -114.29593    1.3769293   -112.91901    23753.758    4.3185942    4.3185942    4.3185942    23753.758    26523.929    20365.439    24371.905      7172.72    402.74615    31849.447    80.542885 
   30200    983.88204   -113.83648   0.89023714   -112.94625   -14925.584    4.3302288    4.3302288    4.3302288   -14925.584     32542.06   -46260.145   -31058.666   -378.49482    10524.903   -39953.964    81.195609 
   30300    1854.6919   -114.61237    1.6781642   -112.93421    -24440.09    4.3487347    4.3487347    4.3487347    -24440.09   -10773.075   -37962.772   -24584.423   -7555.9862    17007.282   -12059.254    82.241065 
   30400    1893.4329   -114.63226    1.7132179   -112.91905   -12244.993    4.3447121    4.3447121    4.3447121   -12244.993   -21237.954   -25231.706    9734.6812    1726.8159   -5275.4849    31369.384     82.01306 
   30500    1147.2602   -113.96512    1.0380652   -112.92706   -7381.0098    4.3286282    4.3286282    4.3286282   -7381.0098    9340.3705   -5510.4437   -25972.956    4239.7008   -2573.4534   -33800.481    81.105602 
   30600    1642.3446   -114.41604    1.4860279   -112.93001    9526.2315    4.3236913    4.3236913    4.3236913    9526.2315   -13173.472    8343.1414    33409.025    4930.0468      18672.5   -8000.9823    80.828412 
   30700    1941.8957   -114.69306     1.757068   -112.93599    3455.2822    4.3390329    4.3390329    4.3390329    3455.2822    2515.0082   -24226.172     32077.01    7642.7386   -699.58744    11380.022    81.691867 
   30800    1147.7852    -113.9817    1.0385402   -112.94316   -5794.0377    4.3408882    4.3408882    4.3408882   -5794.0377    41563.088   -42390.133   -16555.068    136.56427   -4679.9664   -55855.563    81.796702 
   30900    1717.5286   -114.48195     1.554056    -112.9279    20487.213    4.3306638    4.3306638    4.3306638    20487.213    16523.518   -1043.5641    45981.684   -2805.4483    8668.8452    5194.5926    81.220079 
   31000    1495.3395   -114.28497    1.3530146   -112.93196   -12572.788    4.3407099    4.3407099    4.3407099   -12572.788    20370.796    -34744.09   -23345.071   -7619.5594   -9272.0399   -11670.683    81.786627 
   31100    948.75326   -113.79687   0.85845188   -112.93841    730.33153    4.3281425    4.3281425    4.3281425    730.33153    89349.457   -74308.333   -12850.129   -1664.6391    3069.9731   -70824.273    81.078301 
   31200    1883.5335   -114.63114    1.7042607   -112.92688    46728.044    4.3260296    4.3260296    4.3260296    46728.044     61264.21   -15276.245    94196.168   -1034.4637   -13483.902    24275.981     80.95962 
   31300    1707.6048   -114.47824    1.5450767   -112.93316   -17053.128    4.3437728    4.3437728    4.3437728   -17053.128    11398.048   -49701.114   -12856.318    724.74199   -4416.2391   -47282.306     81.95988 
   31400    1032.3615   -113.86664   0.93410237   -112.93253    2570.2132    4.3309714    4.3309714    4.3309714    2570.2132    20690.307   -52802.907     39823.24     3004.691   -631.77873   -36027.692    81.237388 
   31500    1801.9292   -114.55639    1.6304234   -112.92597    3604.6126    4.3252923    4.3252923    4.3252923    3604.6126    7501.1483   -12019.451     15332.14   -542.31563   -14439.733    47011.338     80.91823 
   31600      1547.79   -114.32822    1.4004729   -112.92775      13559.1    4.3362328    4.3362328    4.3362328      13559.1    6821.9396   -10482.485    44337.847    1784.4637   -7360.1235   -35981.666    81.533818 
   31700    1572.8857    -114.3468      1.42318   -112.92362   -21643.649    4.3456761    4.3456761    4.3456761   -21643.649    3811.1531   -30941.011    -37801.09     6141.324   -1949.3034    -22692.05    82.067661 
   31800    915.80873   -113.75634   0.82864299    -112.9277   -7523.6826    4.3343841    4.3343841    4.3343841   -7523.6826    6106.2144    23410.082   -52087.344    2132.4398   -2934.2354    38979.419    81.429578 
   31900    1624.4744   -114.39027    1.4698586   -112.92041    21220.681    4.3252868    4.3252868    4.3252868    21220.681    15364.674    25328.342    22969.027    620.85244   -14666.006   -10563.516    80.917923 
   32000    1583.0345   -114.35986    1.4323629   -112.92749    22334.414      4.33711      4.33711      4.33711    22334.414    42143.068   -14137.406    38997.579   -2064.9549    -1189.708    10899.321    81.583306 
   32100    1181.8135   -113.99528    1.0693297   -112.92595   -7576.5584    4.3422152    4.3422152    4.3422152   -7576.5584    17407.407   -13454.932    -26682.15   -11440.639   -1627.0013    38244.286     81.87174 
   32200    1572.9562   -114.33661    1.4232439   -112.91337    23350.085    4.3337757    4.3337757    4.3337757    23350.085   -9754.7534    37527.978     42277.03   -5301.8301   -19408.601   -13846.995    81.395295 
   32300    1575.0633   -114.34382    1.4251503   -112.91867    10243.574    4.3299979    4.3299979    4.3299979    10243.574    41052.474   -12734.041    2412.2902    -7134.111    1348.6879    36193.955    81.182621 
   32400    1466.3467   -114.24961    1.3267813   -112.92283    19546.044    4.3313653    4.3313653    4.3313653    19546.044    23311.847   -1302.1991    36628.484    381.54403   -5009.9134    28072.996    81.259556 
   32500    1743.0291   -114.50171    1.5771293   -112.92458   -7007.9188    4.3334582    4.3334582    4.3334582   -7007.9188   -36915.641    10159.338    5732.5469   -2547.9937   -9052.4326   -18376.581    81.377405 
   32600    1052.8986   -113.88822   0.95268478   -112.93553     7836.282     4.327649     4.327649     4.327649     7836.282    7052.5231    4994.1112    11462.212   -2147.5252    3712.7281    43504.822    81.050571 
   32700     1946.131   -114.68284    1.7609002   -112.92194   -6778.9766    4.3302518    4.3302518    4.3302518   -6778.9766    10032.245    -30896.05    526.87548    2204.6551   -2665.5476    7320.4154    81.196899 
   32800    1230.6504   -114.04447    1.1135183   -112.93095   -24844.836    4.3393035    4.3393035    4.3393035   -24844.836   -36061.488   -5167.6141   -33305.407    1390.2709   -9587.8798   -28104.613    81.707155 
   32900    1223.5836    -114.0342    1.1071242   -112.92708   -9415.4006    4.3312922    4.3312922    4.3312922   -9415.4006   -23902.775    30800.962   -35144.389    6054.0616   -4744.5885    38325.174    81.255443 
   33000    1399.0238   -114.18606    1.2658662   -112.92019    17907.994     4.328048     4.328048     4.328048    17907.994    26608.927   -37726.139    64841.195    -1334.466    5648.0176   -19088.867    81.072994 
   33100    1283.7552   -114.09388    1.1615687   -112.93231   -9370.2087    4.3317574    4.3317574    4.3317574   -9370.2087    29503.277   -40304.163    -17309.74   -2368.7141   -3701.3442   -56390.025    81.281624 
   33200    1729.1871   -114.48947    1.5646048   -112.92487    12069.907    4.3294681    4.3294681    4.3294681    12069.907    1932.9906    15336.105    18940.626   -12696.851   -12313.077    37852.163    81.152824 
   33300    1043.3931   -113.88375     0.944084   -112.93966   -19994.744    4.3378386    4.3378386    4.3378386   -19994.744    49197.506   -71793.045   -37388.694   -3100.4543    4157.7641   -58255.851     81.62443 
   33400    1604.6629   -114.38555    1.4519327   -112.93362    2147.2876    4.3284526    4.3284526    4.3284526    2147.2876    39511.642   -47768.439     14698.66   -381.05856   -3108.1639   -49733.317     81.09573 
   33500    2416.0906   -115.10517    2.1861295   -112.91904    13016.833     4.325764     4.325764     4.325764    13016.833    -12663.59    2849.1909    48864.898    880.90119    1809.0782    14538.331    80.944709 
   33600    1080.2754   -113.92311   0.97745585   -112.94565   -26076.048    4.3355685    4.3355685    4.3355685   -26076.048    20418.811   -72262.855   -26384.099    3871.1391    8745.3327   -72858.213    81.496348 
   33700    1584.4329   -114.37412    1.4336282   -112.94049    11096.347    4.3266749    4.3266749    4.3266749    11096.347    4425.9228   -10290.028    39153.145   -2320.3728   -6501.3511    1056.5138    80.995853 
   33800    2072.9444   -114.81363    1.8756436   -112.93799    3927.6041    4.3220374    4.3220374    4.3220374    3927.6041   -2963.8573    5641.6082    9105.0613   -1602.6916    1970.3647    3577.1893     80.73569 
   33900    1397.0029   -114.21989    1.2640376   -112.95585    9206.6028    4.3229432    4.3229432    4.3229432    9206.6028    13865.584   -31481.591    45235.815   -5662.2504   -5043.0184   -56959.041    80.786463 
   34000    1614.1713   -114.41451    1.4605361   -112.95397   -20205.773    4.3326764    4.3326764    4.3326764   -20205.773   -1140.6721   -12685.168    -46791.48    10113.992    2698.4462    4638.7507    81.333368 
   34100    1335.6593   -114.16013    1.2085326    -112.9516   -15069.362    4.3281183    4.3281183    4.3281183   -15069.362   -27666.623    17048.742   -34590.205    4213.0271    10223.214    25503.434    81.076946 
   34200    1471.3645   -114.27996    1.3313215   -112.94864    5639.0718    4.3233061    4.3233061    4.3233061    5639.0718   -14228.344    3057.2814    28088.279   -9445.6044    -13680.66   -39364.073     80.80681 
   34300    1441.1883   -114.25283    1.3040174   -112.94881    8790.1992    4.3287761    4.3287761    4.3287761    8790.1992   -7234.7464     9114.778    24490.566    12833.782    3940.7754   -1860.7866    81.113914 
   34400    1377.9361   -114.19404    1.2467856   -112.94725    5313.8693    4.3253252    4.3253252    4.3253252    5313.8693   -24381.668    37788.024    2535.2523    3658.5321    -2726.549    35037.105    80.920081 
   34500    1339.6445   -114.16174    1.2121385   -112.94961   -13828.834    4.3358706    4.3358706    4.3358706   -13828.834   -32510.397    15965.308   -24941.413   -11364.219    -20868.69   -24271.495    81.513387 
   34600    1499.6487   -114.29667    1.3569137   -112.93975    9467.0288    4.3324141    4.3324141    4.3324141    9467.0288   -22415.484    3358.7376    47457.833    26496.687   -3002.0295    4812.0622    81.318599 
   34700    1168.6882   -114.00029    1.0574536   -112.94283    14908.342    4.3258602    4.3258602    4.3258602    14908.342    16179.197    6493.8169    22052.012    10605.049    1314.6028    22447.912    80.950107 
   34800     1300.943   -114.11851    1.1771206   -112.94139   -14764.393    4.3360819    4.3360819    4.3360819   -14764.393   -4002.4228    1050.9899   -41341.745   -7130.5751    -23028.86   -14462.059    81.525302 
   34900     1825.658   -114.58569    1.6518937    -112.9338    1726.5477    4.3244096    4.3244096    4.3244096    1726.5477   -8910.0828   -7650.7622    21740.488    17694.488   -1071.2947   -2563.2519      80.8687 
   35000    1212.1515    -114.0452    1.0967801   -112.94842    8297.4391    4.3225194    4.3225194    4.3225194    8297.4391   -3461.2417   -30727.607    59081.166    8702.8759    8785.3339    33339.221    80.762707 
   35100    1222.2437   -114.06076    1.1059118   -112.95485   -33068.371    4.3367624    4.3367624    4.3367624   -33068.371   -35406.607   -9052.5365    -54745.97   -1901.8353    -28325.49    10490.439    81.563696 
   35200    2099.5834   -114.83731    1.8997472   -112.93757    13578.688    4.3263942    4.3263942    4.3263942    13578.688   0.62455911    13556.257    27179.183   -6889.5478    -7849.865   -10256.929    80.980094 
   35300     1885.031   -114.64905    1.7056157   -112.94344   -14621.367    4.3259308    4.3259308    4.3259308   -14621.367      -9099.9   -22300.177   -12464.024    5980.7878   -859.14551    28840.536     80.95407 
   35400    988.00556   -113.85232   0.89396819   -112.95835   -9581.8356    4.3253089    4.3253089    4.3253089   -9581.8356   -26652.315    43098.794   -45191.986    3969.8708   -27385.041    15531.722    80.919161 
   35500    1796.0874    -114.5797    1.6251377   -112.95456    8700.1562    4.3224515    4.3224515    4.3224515    8700.1562   -43613.734    53388.614    16325.589   -24217.338   -7266.7159   -7628.3404    80.758896 
   35600    1622.7146   -114.42102    1.4682663   -112.95275    9523.8398    4.3279667    4.3279667    4.3279667    9523.8398    28984.521    3356.1354   -3769.1374   -3226.2463    7302.1234    33091.679    81.068424 
   35700    1340.2206   -114.16443    1.2126598   -112.95178   -4256.0936    4.3231337    4.3231337    4.3231337   -4256.0936   -2333.3366      36420.3   -46855.244    3971.1041   -19225.342    25263.795     80.79714 
   35800    1269.9323   -114.09979    1.1490614   -112.95072   -2033.8302    4.3243448    4.3243448    4.3243448   -2033.8302   -23723.502    42280.241   -24658.229   -15814.864    -22822.04    -27164.23    80.865064 
   35900    1379.3162   -114.19805    1.2480343   -112.95002   -27070.665    4.3298796    4.3298796    4.3298796   -27070.665    -21097.03   -24524.848   -35590.118    4575.7606    6565.3001    27939.442    81.175963 
   36000    900.28884   -113.76721   0.81460027   -112.95261    -4733.642     4.322586     4.322586     4.322586    -4733.642    15884.593    4172.6098   -34258.128    -2496.346   -13826.603    31771.699    80.766439 
   36100    1152.7385    -113.9975     1.043022   -112.95448   -11089.739    4.3258299    4.3258299    4.3258299   -11089.739   -3673.3259    38631.877   -68227.768    2409.5789    -40988.48    -36748.65     80.94841 
   36200    1682.0321   -114.46656     1.521938   -112.94462   -16940.396    4.3278672    4.3278672    4.3278672   -16940.396   -5772.2033    944.50525   -45993.489    3223.2816    8563.8927    349.58367    81.062834 
   36300    1278.6278   -114.10373    1.1569293    -112.9468    5640.3496    4.3175888    4.3175888    4.3175888    5640.3496    12236.042     22854.39   -18169.383   -6826.8788    -11825.49    39241.614    80.486646 
   36400    922.64019   -113.79447   0.83482423   -112.95965   -2614.9193    4.3307475    4.3307475    4.3307475   -2614.9193    9458.9821    29856.971   -47160.711    4498.4928   -46257.018   -34000.915    81.224788 
   36500    1935.8284   -114.68758    1.7515782     -112.936   -5671.2218    4.3345107    4.3345107    4.3345107   -5671.2218    3189.5279    880.16289   -21083.356     1003.166    8584.7093   -11571.934    81.436715 
   36600    1836.0298   -114.59215    1.6612784   -112.93087    14329.384    4.3180056    4.3180056    4.3180056    14329.384   -4527.4818    40537.681    6977.9532   -1376.4109    4359.4805    29006.617    80.509957 
   36700    1273.6853   -114.09933    1.1524573   -112.94687   -8409.0426    4.3273814    4.3273814    4.3273814   -8409.0426   -18317.113    29785.516    -36695.53    5232.8362   -40267.519   -32727.196     81.03554 
   36800    1960.8388   -114.70751    1.7742081    -112.9333    2070.1981    4.3301052    4.3301052    4.3301052    2070.1981    -22900.46    735.11523    28375.939   -6370.3242    6412.1536   -10105.955    81.188653 
   36900    2027.0172   -114.76807    1.8340877   -112.93398    10159.378    4.3215618    4.3215618    4.3215618    10159.378   -24774.194    26985.744    28266.583   -1355.2725    6508.3569    12984.206    80.709041 
   37000    1436.9728   -114.24637    1.3002032   -112.94616    -10137.04    4.3290346    4.3290346    4.3290346    -10137.04   -30736.417    25592.604   -25267.306    6725.8874   -50205.711   -21192.995    81.128446 
   37100    1871.2796   -114.63017    1.6931731     -112.937    1332.3944    4.3245191    4.3245191    4.3245191    1332.3944   -12097.728   -14201.339     30296.25   -6856.6706    4271.3053    -5463.566    80.874844 
   37200    1440.3474   -114.24531    1.3032566   -112.94205   -2521.6981     4.323803     4.323803     4.323803   -2521.6981   -18362.562    19138.286   -8340.8185   -1863.0307    14948.438    4974.2538    80.834678 
   37300    917.04118   -113.78047   0.82975813   -112.95072   -32927.641    4.3325771    4.3325771    4.3325771   -32927.641   -51595.037    38836.246   -86024.133    1568.5333   -55300.861    1361.6539    81.327779 
   37400    1836.6989   -114.59034    1.6618837   -112.92845    10354.155     4.325121     4.325121     4.325121    10354.155   -1781.9878    4777.9625    28066.491    920.83725   -2842.5205   -6555.4249     80.90862 
   37500    1232.9333   -114.05615     1.115584   -112.94057   -20489.873    4.3269964    4.3269964    4.3269964   -20489.873   -33362.636    17380.313   -45487.296   -2606.3942   -12505.653    1643.2812    81.013911 
   37600    421.78217   -113.33389   0.38163737   -112.95225    -25054.38    4.3277299    4.3277299    4.3277299    -25054.38   -49218.118    53958.531   -79903.554    3008.2076   -49489.101      8407.68     81.05512 
   37700    2028.0081   -114.76839    1.8349844   -112.93341    15014.656    4.3171152    4.3171152    4.3171152    15014.656   -9195.5175    18718.732    35520.755    4592.6627     12943.02   -14767.211    80.460165 
   37800    1459.9917   -114.26976    1.3210312   -112.94873    12725.119    4.3222683    4.3222683    4.3222683    12725.119    5616.0023    28560.626    3998.7285    1879.6533   -32209.908    12520.825    80.748629 
   37900    1247.4163    -114.0822    1.1286885   -112.95351   -3725.7871    4.3278693    4.3278693    4.3278693   -3725.7871    -35450.87    42539.388   -18265.879   -3446.9236    -50459.42    18876.457    81.062949 
   38000    2218.2566   -114.94331    2.0071252   -112.93618    7073.4132    4.3282854    4.3282854    4.3282854    7073.4132   -13724.263     18035.78    16908.723    2176.0314    24620.089   -19787.125    81.086333 
   38100    1500.7845   -114.30453    1.3579414   -112.94659    5962.3226    4.3239049    4.3239049    4.3239049    5962.3226    10482.622    21075.537   -13671.191    10490.183   -21204.054   -218.20237     80.84039 
   38200    1204.4136   -114.04538    1.0897787    -112.9556    2346.8467    4.3216631    4.3216631    4.3216631    2346.8467   -6770.4667    29899.881   -16088.874   -3454.6766   -58315.491    9536.2182    80.714717 
   38300    2591.2705   -115.27943     2.344636    -112.9348    14116.434    4.3295486    4.3295486    4.3295486    14116.434    6589.3358    30970.412    4789.5553   -4112.9745    14085.201      2378.12     81.15735 
   38400    1696.7905   -114.48081    1.5352917   -112.94551   -2990.8124    4.3324644    4.3324644    4.3324644   -2990.8124    -23221.82    28791.438   -14542.055    3967.6303   -32290.313    1677.8381    81.321428 
   38500    1001.9372   -113.85712   0.90657387   -112.95055   -12649.463    4.3290071    4.3290071    4.3290071   -12649.463   -5552.9595    15004.597   -47400.026    1779.5759   -48925.807   -3068.7779    81.126904 
   38600    2116.7141   -114.85356    1.9152474   -112.93832    -1857.337    4.3167901    4.3167901    4.3167901    -1857.337   -4007.8376   -2669.7694    1105.5961   -9636.2694    25817.255    9756.1201    80.441986 
   38700    1476.8231   -114.28629    1.3362606   -112.95003    17647.049    4.3139807    4.3139807    4.3139807    17647.049   -8274.8957    67303.787   -6087.7457   -12407.079   -19134.666   -3246.9955    80.285032 
   38800    1304.2474   -114.13562    1.1801105   -112.95551    -11876.86    4.3348918    4.3348918    4.3348918    -11876.86      11473.5   -882.42559   -46221.655     12299.53   -41383.431     22102.79    81.458193 
   38900    1487.0317   -114.27946    1.3454975   -112.93396   -11194.618    4.3390734    4.3390734    4.3390734   -11194.618    8338.9325   -16613.843   -25308.945   -11757.193    15377.804    4520.0352    81.694155 
   39000    1077.8769   -113.90802    0.9752857   -112.93273   -7956.4228    4.3212189    4.3212189    4.3212189   -7956.4228   -17620.832    33773.507   -40021.944   -16745.263   -10660.223    -14847.34    80.689828 
   39100    1031.5781   -113.87478   0.93339356   -112.94139   -686.07945    4.3137736    4.3137736    4.3137736   -686.07945     2311.321    53398.916   -57768.475    12269.784    -39489.19    22044.461    80.273471 
   39200    1483.9757   -114.28536    1.3427324   -112.94263    20742.888    4.3237229    4.3237229    4.3237229    20742.888    53470.332     8632.686    125.64435    5347.8281    5899.2192    6486.6819    80.830185 
   39300     1549.522   -114.34001    1.4020401   -112.93797   -10729.574    4.3394032    4.3394032    4.3394032   -10729.574   -38202.889    12176.362   -6162.1942    7124.1845   -14296.961    -4268.084    81.712788 
   39400    1128.1226    -113.9611     1.020749   -112.94035   -13285.795    4.3360162    4.3360162    4.3360162   -13285.795   -17143.834    18619.903   -41333.454   -3689.7376   -28264.435    5470.6204    81.521599 
   39500    1903.3087   -114.65228    1.7221537   -112.93013    11474.363    4.3147181    4.3147181    4.3147181    11474.363    13604.298    9825.9081    10992.883    19795.606    6314.9767     14264.02    80.326212 
   39600    1758.8226   -114.53098    1.5914196   -112.93956    24029.767     4.314792     4.314792     4.314792    24029.767    7325.2057    25090.027    39674.069    16421.102   -8191.7228    3327.3839     80.33034 
   39700    1478.4156   -114.29299    1.3377015   -112.95529   -19729.049    4.3357531    4.3357531    4.3357531   -19729.049   -72986.096    22289.979   -8491.0304   -9437.1224   -20516.652   -208.19968    81.506757 
   39800    2109.8124   -114.84832    1.9090026   -112.93932    2392.1027    4.3362147    4.3362147    4.3362147    2392.1027   -12603.476   -6015.7634    25795.548    7555.2858    1445.7084    4415.1029    81.532794 
   39900    2115.6478   -114.84951    1.9142826   -112.93523   -2823.6042    4.3248043    4.3248043    4.3248043   -2823.6042   -39271.984    7553.9917     23247.18     7815.896   -14592.495   -6095.2405    80.890849 
   40000    980.90306   -113.83812    0.8875417   -112.95058    -3485.069    4.3231784    4.3231784    4.3231784    -3485.069    -49827.37    47642.277   -8270.1144    8277.7933   -24746.061    -14356.44    80.799647 
   40100    2088.3087   -114.83274    1.8895456    -112.9432    8990.7688    4.3232868    4.3232868    4.3232868    8990.7688   -22212.926    3905.3517    45279.881   -9928.4098    17855.029    13082.234    80.805725 
   40200    1932.7167   -114.69391    1.7487627   -112.94515     4149.068    4.3327395    4.3327395    4.3327395     4149.068   -12956.504    8830.5481     16573.16   -15864.104   -22282.377   -1526.8316    81.336923 
   40300     1307.019    -114.1344    1.1826183   -112.95178   -13538.396    4.3315926    4.3315926    4.3315926   -13538.396    -44889.32    46900.492    -42626.36    10045.914   -25446.524   -14427.879    81.272347 
   40400    1483.7238   -114.28908    1.3425045   -112.94658    10491.944    4.3140658    4.3140658    4.3140658    10491.944   -17571.973    30137.958    18909.847   -17982.889    31302.842   -14854.261    80.289787 
   40500     1478.643   -114.28965    1.3379073   -112.95174    18028.675    4.3179049    4.3179049    4.3179049    18028.675   -8537.7835    35088.038     27535.77   -26725.051   -1087.3454    4121.1573    80.504326 
   40600    1728.0608   -114.51173    1.5635857   -112.94815    3591.6788    4.3304603    4.3304603    4.3304603    3591.6788   -26016.388    42660.468   -5869.0441    2320.0201   -16459.069    6203.2184    81.208631 
   40700     1251.746   -114.07965    1.1326061   -112.94705     15715.09    4.3314682    4.3314682    4.3314682     15715.09    1142.1535    52747.435   -6744.3186    -335.3294    17933.016   -21958.463    81.265347 
   40800    1252.5531   -114.07535    1.1333364   -112.94202   -9144.1561    4.3328631    4.3328631    4.3328631   -9144.1561   -42041.013      24435.8   -9827.2551   -31691.761    11869.676    15202.315    81.343884 
   40900    1749.6646   -114.52166    1.5831333   -112.93853    5952.6928    4.3219345    4.3219345    4.3219345    5952.6928   -12624.736    24520.137    5962.6775   -13610.921   -7083.6272    17606.878    80.729923 
   41000    1894.8182   -114.65901    1.7144713   -112.94454    9562.8322    4.3107363    4.3107363    4.3107363    9562.8322    3544.0917    35493.646   -10349.241    16199.706    8096.9245   -33525.567    80.104029 
   41100     939.9612   -113.81699   0.85049664   -112.96649   -23271.181    4.3273708    4.3273708    4.3273708   -23271.181    -11757.02   -38689.378   -19367.145   -40674.648    25997.807   -134.24162    81.034943 
   41200    1685.8995   -114.47395    1.5254373   -112.94851    -21559.54    4.3373109    4.3373109    4.3373109    -21559.54    -10605.61    -50651.07   -3421.9402   -12241.587   -5938.1351    19862.275    81.594644 
   41300    1909.2298   -114.65531    1.7275113    -112.9278   -14257.619    4.3374441    4.3374441    4.3374441   -14257.619   -11852.457   -20886.058   -10034.342    11426.662    6980.8538   -11779.391    81.602162 
   41400    708.48401   -113.57539   0.64105122   -112.93433   -32508.566    4.3326358    4.3326358    4.3326358   -32508.566    -18967.35   -68072.843   -10485.506   -47601.064    26120.414   -4677.7614    81.331085 
   41500    1463.6494   -114.25502    1.3243408   -112.93068   -743.76101    4.3154726    4.3154726    4.3154726   -743.76101    24112.387   -51011.222    24667.552   -13017.049   -5997.8069    22905.099    80.368357 
   41600    1748.0782   -114.51742    1.5816979   -112.93573    5442.8033    4.3233657    4.3233657    4.3233657    5442.8033    9552.1123   -30329.948    37106.245    10421.813   -3521.8239   -441.91635    80.810149 
   41700    854.10808   -113.72511   0.77281494    -112.9523   -14272.837    4.3346042    4.3346042    4.3346042   -14272.837    -39545.09   -39178.477    35905.055   -37984.246    19438.435   -21039.603    81.441981 
   41800    1256.8479   -114.08414    1.1372224   -112.94692   -3962.3415    4.3225566    4.3225566    4.3225566   -3962.3415   -6056.1104   -23514.705    17683.791   -15964.388     20480.76    17880.781    80.764787 
   41900    1653.4193   -114.43905    1.4960485     -112.943    10203.349    4.3176226    4.3176226    4.3176226    10203.349    502.53778   -11707.828    41815.338    16570.029   -22988.714    11325.214    80.488535 
   42000    1316.8733   -114.14617    1.1915346   -112.95464     -8466.66     4.321149     4.321149     4.321149     -8466.66   -37204.389   -14183.059    25987.468   -37238.808   -12491.838   -7329.8743    80.685917 
   42100    1587.5319    -114.3877    1.4364322   -112.95127    5328.7619     4.329252     4.329252     4.329252    5328.7619    -4490.544   -5519.6925    25996.522   -23154.438    24487.312   -2643.3034    81.140674 
   42200    2009.6457   -114.75934    1.8183696   -112.94097   -18116.514    4.3363199    4.3363199    4.3363199   -18116.514    -41642.83    12865.869    -25572.58    22918.896   -16135.751    3696.8289     81.53873 
   42300    857.23364   -113.72482   0.77564301   -112.94918    6123.9548    4.3240706    4.3240706    4.3240706    6123.9548   -54768.758    25491.872     47648.75   -53660.375   -22140.029   -866.83555    80.849686 
   42400    2041.3072   -114.78292    1.8470177    -112.9359    7843.4303    4.3242234    4.3242234    4.3242234    7843.4303   -24643.803     36199.14    11974.954   -21295.755    2112.1839   -18429.068    80.858258 
   42500    2005.8651   -114.74825    1.8149489    -112.9333    1653.6486    4.3331665    4.3331665    4.3331665    1653.6486   -26074.974    41915.176   -10879.256    6222.1144   -9652.8601   -4145.1322    81.360972 
   42600    998.22239   -113.85094    0.9032126   -112.94773    1054.6169    4.3290917    4.3290917    4.3290917    1054.6169   -47246.347    34640.066    15770.132   -45807.843   -31131.633    2483.8992    81.131658 
   42700    1415.6559   -114.22327    1.2809152   -112.94236    353.17139    4.3251968    4.3251968    4.3251968    353.17139   -10963.108     7222.582    4800.0403    2121.2071     -4383.77   -4837.4947    80.912873 
   42800    1446.0483   -114.25119    1.3084149   -112.94278    9621.6762    4.3197674    4.3197674    4.3197674    9621.6762     28786.97    6255.4213   -6177.3624    7585.4826    13453.477   -25133.121    80.608549 
   42900    1010.9453    -113.8724   0.91472454   -112.95768    4565.6134    4.3225017    4.3225017    4.3225017    4565.6134    -2425.775    5751.4888    10371.126   -29130.427   -21340.795   -2836.2662    80.761713 
   43000    1458.7454   -114.27177    1.3199035   -112.95187   -10193.425    4.3366915    4.3366915    4.3366915   -10193.425   -16567.538   -20357.821    6345.0858   -11930.205   -29778.223   -1248.6351    81.559695 
   43100    1987.1649   -114.73659    1.7980286   -112.93856     11629.82    4.3297671    4.3297671    4.3297671     11629.82    39963.635   -10853.158    5778.9843     5407.953    10190.679   -13579.127    81.169639 
   43200        846.1   -113.72119   0.76556906   -112.95562    25190.301    4.3187836    4.3187836    4.3187836    25190.301    17660.966     46397.58    11512.355   -31965.397   -15513.105   -1003.3971    80.553484 
   43300    1360.2107   -114.18561    1.2307472   -112.95486   -13614.386    4.3351914    4.3351914    4.3351914   -13614.386   -3286.5315   -16593.002   -20963.624   -18033.163   -26183.045    7241.5531    81.475087 
   43400    2338.7893   -115.04262    2.1161857   -112.92644   -16363.693    4.3412097    4.3412097    4.3412097   -16363.693    13655.599    -36870.32   -25876.357    19583.974     3566.329   -2486.6716     81.81488 
   43500    1392.9332   -114.19756    1.2603552    -112.9372   -4719.3168    4.3251165    4.3251165    4.3251165   -4719.3168   -10503.101   -1468.9156    -2185.934   -22032.473   -12842.393   -11574.068    80.908367 
   43600    1416.2545   -114.22667    1.2814568   -112.94521   -4874.8226    4.3144175    4.3144175    4.3144175   -4874.8226   -28776.333    33572.706   -19420.841   -25731.376   -23664.414    21653.686    80.309426 
   43700    2047.4894    -114.8009    1.8526115   -112.94829    374.39895    4.3239089    4.3239089    4.3239089    374.39895    1199.7124    10788.351   -10864.866    26455.941    8968.7819    20976.968    80.840615 
   43800    1561.7937   -114.36696    1.4131437   -112.95381   -8257.2208    4.3345202    4.3345202    4.3345202   -8257.2208   -40742.978    8725.3426    7245.9727    10338.005   -12756.806   -10499.925    81.437247 
   43900    1236.0603   -114.06955    1.1184133   -112.95114   -6928.4291    4.3294077    4.3294077    4.3294077   -6928.4291   -49508.063    49318.734   -20595.958   -25779.531   -38934.362    11687.014    81.149429 
   44000    1853.1845   -114.61903    1.6768003   -112.94223    7714.6919    4.3167108    4.3167108    4.3167108    7714.6919    -2655.828    38403.563   -12603.659   -1302.1842   -2708.7904    19096.883    80.437554 
   44100    1483.1114   -114.29444    1.3419504   -112.95249   -421.29141    4.3160984    4.3160984    4.3160984   -421.29141   -23055.915    15114.095    6677.9457    26391.959    4718.5364    1032.0443    80.403328 
   44200    805.06311   -113.69527   0.72843802   -112.96683   -24464.713    4.3285456    4.3285456    4.3285456   -24464.713   -69207.711    8466.8602   -12653.287   -28607.789   -30949.819   -6090.9125    81.100958 
   44300    1658.9994   -114.45295    1.5010975   -112.95186   -17434.411    4.3343971    4.3343971    4.3343971   -17434.411   -37841.446    27477.893   -41939.679   -13014.744     2099.329    558.73229    81.430312 
   44400    1558.7184      -114.36    1.4103612   -112.94964   -1567.4297    4.3199905    4.3199905    4.3199905   -1567.4297   -8841.1476    37274.572   -33135.713    9466.0473    27211.232    6718.7453    80.621036 
   44500    1049.5722    -113.9041     0.949675   -112.95443    5965.0564    4.3093693    4.3093693    4.3093693    5965.0564   -25672.409    34544.447    9023.1315   -24378.164   -26000.964   -9456.0858    80.027851 
   44600    1225.4354   -114.06888    1.1087997   -112.96008   -6531.2065    4.3322884    4.3322884    4.3322884   -6531.2065   -28616.125    41172.463   -32149.958     -8545.26    9793.7857    -3103.759    81.311518 
   44700    1534.3137   -114.33044    1.3882793   -112.94216   -4702.2689    4.3344387    4.3344387    4.3344387   -4702.2689   -13715.089    48405.417   -48797.134   -2192.8787    54728.899    2727.2028    81.432657 
   44800    1727.6219   -114.49356    1.5631886   -112.93037    20751.934    4.3176826    4.3176826    4.3176826    20751.934    1794.3665    66035.218   -5573.7835   -20070.045   -14401.755   -5834.4892    80.491895 
   44900    1235.6151   -114.06521    1.1180106    -112.9472   -27250.051    4.3288276    4.3288276    4.3288276   -27250.051   -51573.669    15526.436   -45702.921   -18714.073    7492.8026   -2849.4968    81.116813 
   45000    1057.8136   -113.91685   0.95713199   -112.95971   -10579.496    4.3220269    4.3220269    4.3220269   -10579.496   -48089.665    43779.867    -27428.69    8666.6603    58520.892   -13908.873    80.735099 
   45100    2306.1985    -115.0346    2.0866968    -112.9479    26450.584    4.3133082    4.3133082    4.3133082    26450.584   -3140.6624    25678.472    56813.943    8838.0925   -5118.2422    4123.1711    80.247492 
   45200    1841.0515   -114.62733    1.6658221   -112.96151   -13019.704    4.3334329    4.3334329    4.3334329   -13019.704   -45973.465    10057.948   -3143.5938   -2646.0261    28614.812   -3099.5485    81.375978 
   45300    906.72283   -113.78011   0.82042187   -112.95968   -9632.7785    4.3328898    4.3328898    4.3328898   -9632.7785   -60935.836    19585.803    12451.697    1913.5392    58010.733    2081.3943    81.345384 
   45400    1684.1606   -114.45875    1.5238639   -112.93489    16270.585    4.3289128    4.3289128    4.3289128    16270.585   -27298.184    19092.394    57017.545   -269.09261   -17759.257     4687.737    81.121603 
   45500    1528.3707   -114.31959     1.382902   -112.93669   -17849.242    4.3289989    4.3289989    4.3289989   -17849.242   -30560.719    2687.3715   -25674.377   -7794.9596    16527.422   -22522.373    81.126439 
   45600    906.32801   -113.76659   0.82006463   -112.94652    4230.6576    4.3094053    4.3094053    4.3094053    4230.6576    -11626.87    37522.032   -13203.189    7354.0873    56511.391   -7642.9379    80.029852 
   45700    1288.7624   -114.12669    1.1660993   -112.96059   -1416.6367    4.3209337    4.3209337    4.3209337   -1416.6367   -26074.464   -5843.6759     27668.23    19119.396   -5611.3465    2683.8594    80.673853 
   45800    1409.4323   -114.22379    1.2752839   -112.94851     -14342.8    4.3380724    4.3380724    4.3380724     -14342.8   -27677.043   -8006.9594   -7344.3968   -10031.006    5950.4285   -2877.9639    81.637627 
   45900    1382.0628   -114.19283    1.2505194   -112.94231    18895.578    4.3211339    4.3211339    4.3211339    18895.578    39226.567    42434.068   -24973.902   -1298.2187     43328.99    4146.4903    80.685066 
   46000    1431.4652   -114.24101    1.2952198   -112.94579    4199.7637    4.3214891    4.3214891    4.3214891    4199.7637    13627.259   -9789.2484    8761.2799    29169.506    2748.8742     6009.451    80.704965 
   46100    1471.4011   -114.27783    1.3313547   -112.94648   -7523.5699    4.3297006    4.3297006    4.3297006   -7523.5699    906.56131   -33726.985    10249.714    7907.3706    983.26606    6230.6849    81.165897 
   46200    1641.2667   -114.42664    1.4850526   -112.94159    11905.417     4.327765     4.327765     4.327765    11905.417    3912.8934    49228.337    -17424.98    -11119.07    36745.533   -7776.1309     81.05709 
   46300    1846.9964    -114.6123    1.6712011    -112.9411   -10440.143    4.3313149    4.3313149    4.3313149   -10440.143   -17751.834   -13968.429     399.8347    33110.138    854.64209    3110.1228    81.256721 
   46400    1591.7739   -114.38112    1.4402705   -112.94085   -7873.5005    4.3248171    4.3248171    4.3248171   -7873.5005   -14163.535   -28017.338    18560.372    16445.062   -6650.1368    10587.662    80.891567 
   46500     1735.541   -114.51218    1.5703539   -112.94183     7457.687    4.3134635    4.3134635    4.3134635     7457.687   -11064.166    35678.349   -2241.1219   -34625.186    43177.973   -7628.2384    80.256164 
   46600    1642.0633   -114.43981    1.4857734   -112.95404   -6812.7431    4.3277748    4.3277748    4.3277748   -6812.7431   -21537.688    7486.6928    -6387.234    29802.154    14607.519   -18423.963    81.057642 
   46700    1796.0232   -114.56982    1.6250796   -112.94474   -5658.9536    4.3349996    4.3349996    4.3349996   -5658.9536   -9271.3392   -16573.715    8868.1933    32364.579    -812.8156    4049.5617    81.464275 
   46800    1623.5522   -114.40448    1.4690242   -112.93546    16455.558    4.3319032    4.3319032    4.3319032    16455.558   -1867.9639    49901.415    1333.2243   -36675.901     27231.37    10053.821    81.289833 
   46900     1616.512   -114.39017     1.462654   -112.92752   -18780.728    4.3418289    4.3418289    4.3418289   -18780.728    -26601.19    8153.8431   -37894.837     8762.372    4389.2783   -29902.482    81.849891 
   47000    1675.0919   -114.45057    1.5156584   -112.93491   -8021.4477    4.3234991    4.3234991    4.3234991   -8021.4477   -12632.721   -2690.5347   -8741.0872     16114.22   -10921.344    4264.5324    80.817629 
   47100    1728.9234   -114.49752    1.5643662   -112.93316    35188.873    4.3009348    4.3009348    4.3009348    35188.873    3900.6023    68788.548    32877.469    -16395.82     18729.72    28484.017    79.558864 
   47200    1746.0767   -114.53461    1.5798869   -112.95472   -9081.9464    4.3247014    4.3247014    4.3247014   -9081.9464    5752.8831   -7371.9638   -25626.759    1098.5797    17475.683   -38525.693    80.885071 
   47300     1534.384   -114.33463    1.3883429   -112.94629   -27693.532    4.3388537    4.3388537    4.3388537   -27693.532   -11363.595   -57189.157   -14527.843    21477.657   -4793.1073   -16417.013    81.681745 
   47400    1613.3675   -114.39517    1.4598088   -112.93536   -17082.483    4.3316253    4.3316253    4.3316253   -17082.483   -27122.846   -32239.869     8115.265   -2835.3387    16665.629    39420.925     81.27419 
   47500    1424.7836   -114.22712    1.2891741   -112.93794   -99.578081    4.3213764    4.3213764    4.3213764   -99.578081   -8808.0034    27506.455   -18997.186   -11938.173    20946.429   -17267.681    80.698655 
   47600    1461.0199   -114.26452    1.3219615   -112.94256    16054.571    4.3101996    4.3101996    4.3101996    16054.571    34649.638     655.1061    12858.969    1549.1647   -4869.0132   -31837.456    80.074113 
   47700    1151.9256   -114.00481    1.0422865   -112.96252    11683.176    4.3248589    4.3248589    4.3248589    11683.176    9255.8091    6281.5203    19512.198   -2334.2619   -1130.4208     52892.84    80.893912 
   47800     1449.731   -114.25684    1.3117471    -112.9451   -16601.081     4.342108     4.342108     4.342108   -16601.081    -34784.32    12665.466   -27684.389   -4915.1493    17451.762   -1038.5888    81.865679 
   47900    1285.3658   -114.10129     1.163026   -112.93826    15219.538       4.3228       4.3228       4.3228    15219.538    8463.4516    10996.819    26198.342    1839.8005     5575.172   -39362.644    80.778433 
   48000    977.83496   -113.82726   0.88476562    -112.9425    2976.9305    4.3116597    4.3116597    4.3116597    2976.9305    48384.018   -63491.312    24038.085    3473.2283   -7690.0451    58843.534    80.155519 
   48100    1526.5319   -114.32639    1.3812381   -112.94515   -12548.685    4.3215859    4.3215859    4.3215859   -12548.685    381.13644   -45771.888     7744.697   -770.78598    16246.072    26836.076    80.710388 
   48200    1696.3595   -114.48028    1.5349017   -112.94538   -156.82434    4.3286026    4.3286026    4.3286026   -156.82434   -12622.639   -30610.607    42762.774   -11942.531    16133.406    -23201.04    81.104163 
   48300    779.37914   -113.66345   0.70519863   -112.95825   -26563.011    4.3339251    4.3339251    4.3339251   -26563.011    41460.297   -92918.472   -28230.856    5051.5298   -6150.9077    53494.481    81.403712 
   48400    1472.7853   -114.28052    1.3326071   -112.94791   -1584.7699    4.3159153    4.3159153    4.3159153   -1584.7699    19361.468   -40064.467     15948.69     4850.732    3409.2492    28352.899    80.393093 
   48500    1878.5522   -114.64257    1.6997535   -112.94282    4265.0504    4.3139252    4.3139252    4.3139252    4265.0504   -21629.542    -13526.19    47950.883   -9937.1498    2180.6584   -12172.255    80.281936 
   48600    866.19085   -113.74088   0.78374768   -112.95713   -38747.216    4.3337061    4.3337061    4.3337061   -38747.216    19643.187   -84396.175    -51488.66    180.48519    5246.4385    49676.259    81.391371 
   48700    1357.1663   -114.17599    1.2279926   -112.94799    8892.4109     4.317467     4.317467     4.317467    8892.4109    50449.016   -24266.821    495.03733    2266.4411    5462.3935    3577.0552    80.479833 
   48800    1913.6741   -114.67211    1.7315326   -112.94057    17512.741    4.3180749    4.3180749    4.3180749    17512.741   -12883.369    4280.5421    61141.049    -11392.35   -9542.2246   -15788.008    80.513833 
   48900    1374.0532   -114.19602    1.2432722   -112.95274   -30872.556    4.3303197    4.3303197    4.3303197   -30872.556   -19004.404   -47523.247   -26090.015   -14113.802    -676.8305    56331.957    81.200722 
   49000    1307.7738   -114.13566    1.1833012   -112.95236    19561.386    4.3116766    4.3116766    4.3116766    19561.386    20348.335   -14664.897    53000.719   -531.53696    4001.7444   -1703.8264    80.156459 
   49100    1813.8441   -114.59473    1.6412042   -112.95352    3254.1024    4.3219601    4.3219601    4.3219601    3254.1024   -11769.179    1680.6497    19850.837    480.37657   -9481.4756   -35428.687    80.731357 
   49200    1596.6799   -114.39292    1.4447096   -112.94821   -9439.0253    4.3295499    4.3295499    4.3295499   -9439.0253   -23772.034   -19941.005    15395.962   -12784.097   -1415.5043    42986.165    81.157422 
   49300    1415.8909    -114.2262    1.2811279   -112.94507    22618.987     4.316103     4.316103     4.316103    22618.987    18718.942    3703.2851    45434.734   -3027.7158    2116.3003    4914.4866    80.403583 
   49400    1605.9667   -114.39645    1.4531124   -112.94334    -2872.291    4.3256772    4.3256772    4.3256772    -2872.291    7693.0378     -1538.69   -14771.221     2964.284   -3488.0574   -51551.275    80.939837 
   49500    1472.1805   -114.27212    1.3320598   -112.94006    989.38635    4.3242024    4.3242024    4.3242024    989.38635   -18109.169    1573.2782     19504.05   -9908.1644    5420.1891    24892.692    80.857075 
   49600    1011.6701   -113.86512   0.91538035   -112.94974   -1472.6736    4.3213659    4.3213659    4.3213659   -1472.6736    4749.4086   -28643.262    19475.832   -7856.1603    1082.4193    15947.933    80.698064 
   49700    1324.7165    -114.1474    1.1986313   -112.94877   -8501.1107    4.3260831    4.3260831    4.3260831   -8501.1107    23514.142   -31357.934    -17659.54   -9490.3786   -1316.9007   -54060.439    80.962625 
   49800    1582.8663   -114.37333    1.4322107   -112.94112    5984.4391    4.3142696    4.3142696    4.3142696    5984.4391   -7704.1924   -20324.311    45981.821    6170.3261     7738.086    1089.6951    80.301162 
   49900    758.21558   -113.64483   0.68604939   -112.95878   -20915.913    4.3224617    4.3224617    4.3224617   -20915.913   -16755.712   -79701.624    33709.598   -1866.4813   -4199.7291     28358.61    80.759469 
   50000    1562.2646   -114.35381    1.4135699   -112.94024   -30233.099    4.3356025    4.3356025    4.3356025   -30233.099   -16932.521    -49228.34   -24538.435   -16496.856    10707.576   -19453.849    81.498267 
   50100    1400.5086   -114.20347    1.2672097   -112.93626    15527.223    4.3199935    4.3199935    4.3199935    15527.223   -7449.6557    9521.0976    44510.228    21882.369    5451.6481    -11247.44    80.621202 
   50200    574.21128   -113.47267   0.51955843   -112.95311    -11250.23    4.3170002    4.3170002    4.3170002    -11250.23   -23983.964   -46895.021    37128.295    133.61802   -906.98379    32167.434    80.453736 
   50300    1670.6775   -114.46483    1.5116641   -112.95317   -12282.218    4.3256392    4.3256392    4.3256392   -12282.218   -26292.168    -5725.161   -4829.3258   -27039.072    2362.9359    4081.6698    80.937704 
   50400    1957.4915   -114.71562    1.7711794   -112.94444    11000.637    4.3258039    4.3258039    4.3258039    11000.637   -16841.796    29243.369    20600.339    25420.272   -3319.5567   -17436.984    80.946951 
   50500    906.12841   -113.77626   0.81988402   -112.95638   -6027.9415    4.3315008    4.3315008    4.3315008   -6027.9415   -19817.927   -13078.632    14812.734    8918.2471    2576.4289    29083.581    81.267184 
   50600    1640.2408   -114.42083    1.4841243   -112.93671   -12567.332    4.3324261    4.3324261    4.3324261   -12567.332   -21753.111    4186.0503   -20134.934   -26718.781   -9106.3617    7523.0312    81.319274 
   50700    1798.4872    -114.5583     1.627309   -112.93099    2071.3197    4.3203088    4.3203088    4.3203088    2071.3197    8893.9051    15878.151   -18558.097    4579.9601   -7007.3727   -49225.894    80.638858 
   50800    1641.5857   -114.42191    1.4853412   -112.93657    381.58276    4.3178665    4.3178665    4.3178665    381.58276    7160.3593   -4712.2762   -1303.3348    2231.0006   -572.22564    14159.978    80.502181 
   50900    1472.2789   -114.27414    1.3321489   -112.94199    3290.9226    4.3258683    4.3258683    4.3258683    3290.9226    22501.791    3878.0423   -16507.066   -7352.1092   -8823.1556    24191.639    80.950566 
   51000    1339.7583   -114.15599    1.2122415   -112.94375   -5356.2763    4.3355784    4.3355784    4.3355784   -5356.2763    33176.432   -3204.8425   -46040.418   -2706.7742    3542.9987   -63517.218     81.49691 
   51100    2174.8113   -114.89082     1.967815     -112.923   -7549.9685    4.3292724    4.3292724    4.3292724   -7549.9685    5729.4527   -3476.2483    -24903.11   -11945.385   -3141.9811    7755.0959     81.14182 
   51200    1469.1213   -114.26311    1.3292918   -112.93382    528.57138    4.3148257    4.3148257    4.3148257    528.57138    23555.415    3777.7605   -25747.461   -5655.7496    765.25128    6681.6559    80.332218 
   51300    854.78869   -113.72796   0.77343077   -112.95453   -9277.4011    4.3171649    4.3171649    4.3171649   -9277.4011    28547.137    -28739.43    -27639.91   -20374.003   -3101.1665   -61591.018    80.462944 
   51400    1954.7776   -114.71251    1.7687239   -112.94379    4094.5249    4.3274144    4.3274144    4.3274144    4094.5249   -3305.4187    8407.8253     7181.168     7169.412    427.01952    11314.029    81.037393 
   51500    1602.7905   -114.39516    1.4502385   -112.94492   -21542.224    4.3335093    4.3335093    4.3335093   -21542.224    -12019.55   -26716.389   -25890.732    12628.093    4788.3543    -18498.13    81.380283 
   51600    1239.4532   -114.06798    1.1214833    -112.9465   -10758.365    4.3211596    4.3211596    4.3211596   -10758.365    26144.745   -28216.394   -30203.446   -16741.081   -430.06667   -51644.141    80.686508 
   51700    1727.3648   -114.50003    1.5629559   -112.93708    17816.235    4.3135493    4.3135493    4.3135493    17816.235    1766.0384    7415.4041    44267.262    6056.6694    6297.3427     14214.67     80.26095 
   51800    1351.2174   -114.16929    1.2226099   -112.94668   -19203.071    4.3315756    4.3315756    4.3315756   -19203.071    -6824.421   -53912.339    3127.5468     21482.37    13216.431   -20478.321    81.271391 
   51900    1524.2538   -114.31018    1.3791769     -112.931   -22129.589    4.3401605    4.3401605    4.3401605   -22129.589     19558.01   -32999.108   -52947.671   -2847.9744     758.6632   -34458.829    81.755571 
   52000    1864.1042   -114.60573    1.6866807   -112.91905   -4841.6751    4.3263619    4.3263619    4.3263619   -4841.6751   -4148.3076   -10720.727    344.00975    9713.3913   -10971.339    14264.828    80.978276 
   52100    1459.6604   -114.25262    1.3207314   -112.93189    3568.8218    4.3145647    4.3145647    4.3145647    3568.8218   -17883.161    22393.577     6196.049    24839.264    17126.209   -13988.767    80.317641 
   52200    1686.2891   -114.46932    1.5257898   -112.94353    486.99431    4.3181225    4.3181225    4.3181225    486.99431    9642.3225    35219.653   -43400.993    5108.0504    71.818297   -23891.796    80.516495 
   52300    1703.4232   -114.49433    1.5412931   -112.95304    2862.2736    4.3231835    4.3231835    4.3231835    2862.2736   -20805.213    55693.804    -26301.77    3110.1358    -32759.23    8767.9269    80.799936 
   52400    1615.7776    -114.4142    1.4619895   -112.95221   -7665.7005    4.3292013    4.3292013    4.3292013   -7665.7005   -39894.035     5533.182    11363.752    38989.675    8385.7327    1019.8519    81.137821 
   52500    1664.9842   -114.44736    1.5065127   -112.94085   -2308.7128     4.330039     4.330039     4.330039   -2308.7128      -9601.3     23028.42   -20353.258   -413.50157    4051.6749   -33913.069     81.18493 
   52600    1484.1703   -114.27515    1.3429084   -112.93224   -10468.829    4.3267497    4.3267497    4.3267497   -10468.829   -28591.744    39683.424   -42498.166    14.648917   -42422.861     22442.93    81.000057 
   52700    1590.4124   -114.36618    1.4390386   -112.92714   -6126.9158     4.327259     4.327259     4.327259   -6126.9158   -33024.587    13408.585    1235.2549    39167.548      10289.3    3279.8717    81.028663 
   52800    1661.6827   -114.43774    1.5035254   -112.93421   -16388.521    4.3231826    4.3231826    4.3231826   -16388.521   -14583.995   -9977.0041   -24604.563    11724.433    8189.9782   -28368.851    80.799886 
   52900    1264.0707   -114.08852    1.1437577   -112.94477   -3873.4102    4.3158397    4.3158397    4.3158397   -3873.4102   -5598.0189    12628.389   -18650.601    -5373.834   -56341.672    13738.378    80.388867 
   53000    1654.9652   -114.44747    1.4974473   -112.95002   -4319.6971    4.3231583    4.3231583    4.3231583   -4319.6971   -9242.7009   -16873.833    13157.443    15734.808   -3535.5714    5066.5751    80.798519 
   53100    1311.2917   -114.13314    1.1864843   -112.94665    448.19427    4.3328532    4.3328532    4.3328532    448.19427    2976.4149    -3674.952    2043.1199     20716.35    20370.997   -16868.401    81.343325 
   53200      1288.58   -114.10378    1.1659343   -112.93784    2551.0081    4.3282526    4.3282526    4.3282526    2551.0081    19861.524    -9723.509   -2484.9905     134.6318   -39026.892     4160.446    81.084491 
   53300    1518.2647   -114.30589    1.3737578   -112.93213   -1896.7166     4.327122     4.327122     4.327122   -1896.7166    20545.358   -44245.698     18010.19    13351.607   -9152.5084    3681.0767    81.020965 
   53400    1083.2202   -113.92184   0.98012039   -112.94172   -8465.3487    4.3226268    4.3226268    4.3226268   -8465.3487    20783.462   -57453.015    11273.507    22954.693    23321.936    -10904.43    80.768722 
   53500    966.00214   -113.82334   0.87405904   -112.94928    19318.429    4.3193245    4.3193245    4.3193245    19318.429    15820.001     22808.86    19326.427   -2966.4514   -25898.614   -12368.881    80.583756 
   53600    1835.6363   -114.59964    1.6609223   -112.93872   -6891.7453    4.3334029    4.3334029    4.3334029   -6891.7453    5805.2207   -34833.291    8352.8342   -6442.8606   -19670.328    13595.338    81.374288 
   53700    810.21694   -113.67676   0.73310131   -112.94366   -28660.605    4.3355547    4.3355547    4.3355547   -28660.605    -5090.151   -99694.421    18802.757    23601.746    19025.117   -12627.767    81.495574 
   53800    1430.5068   -114.22239    1.2943526   -112.92804   -1105.8476    4.3218779    4.3218779    4.3218779   -1105.8476    9735.3501   -31244.518    18191.626    3276.8336    6479.8051    -10862.61    80.726755 
   53900    1840.4501   -114.58939    1.6652779   -112.92411   -802.25811    4.3236154    4.3236154    4.3236154   -802.25811    19329.558   -24047.366    2311.0339    582.21697   -9662.0814    19672.125    80.824151 
   54000    1088.8855   -113.93196   0.98524646   -112.94671   -12735.707    4.3217297    4.3217297    4.3217297   -12735.707    77.071695   -51466.105    13181.914    15054.679    9958.3277    1087.0584    80.718449 
   54100    1517.0674   -114.32243    1.3726745   -112.94976    11765.111    4.3202793    4.3202793    4.3202793    11765.111    27854.588    7407.4595    33.285957    15978.088    32555.779   -5434.4162    80.637206 
   54200    1913.1475   -114.67211     1.731056   -112.94105   -7035.2641    4.3295841    4.3295841    4.3295841   -7035.2641    32121.399   -9817.7366   -43409.455   -2752.5381   -180.19352    27532.338    81.159344 
   54300    1567.8793   -114.36381    1.4186502   -112.94516    4477.5216    4.3218258    4.3218258    4.3218258    4477.5216    49285.911   -27039.205   -8814.1406    9846.7695    -8701.585    8460.2198    80.723833 
   54400    1997.2713   -114.74556     1.807173   -112.93839    543.98774    4.3210583    4.3210583    4.3210583    543.98774   -17752.375     33525.76   -14141.422    1749.7748    27529.226   -12455.877    80.680832 
   54500    1598.0878   -114.39105    1.4459834   -112.94507   -11683.441    4.3265014    4.3265014    4.3265014   -11683.441     23398.24    7183.9641   -65632.527   -6186.8745   -1706.6088    51396.992    80.986113 
   54600    1653.8424   -114.44045    1.4964313   -112.94402   -4341.3217    4.3216537    4.3216537    4.3216537   -4341.3217    20869.485    2962.5271   -36855.977    14115.161   -20844.477    15503.452    80.714191 
   54700    1958.5322   -114.71132    1.7721211    -112.9392    3588.7139    4.3234146    4.3234146    4.3234146    3588.7139    5121.9664    5289.9349    354.24052    5457.5636    5343.7145   -26554.006    80.812896 
   54800    1323.3106   -114.14411    1.1973592   -112.94675   -18661.131    4.3305324    4.3305324    4.3305324   -18661.131    34300.878   -45900.616   -44383.656     1811.095    3367.0129    68503.188    81.212685 
   54900    1663.8932   -114.43847    1.5055255   -112.93294   -5313.0272    4.3220679    4.3220679    4.3220679   -5313.0272    19856.703   -20980.404   -14815.381    542.59948   -14193.618    8741.2698    80.737401 
   55000    1383.1303    -114.1836    1.2514854   -112.93212   -986.57672    4.3264294    4.3264294    4.3264294   -986.57672    21989.155   -16829.182    -8119.703    4436.8337   -6374.4454     -18820.7    80.982067 
   55100    832.85416   -113.69125   0.75358394   -112.93767   -28229.048    4.3344509    4.3344509    4.3344509   -28229.048    29133.693   -74246.544   -39574.292    6620.1438    3866.4227    68722.865    81.433341 
   55200     1725.653   -114.48657    1.5614071   -112.92516   -11276.932    4.3215692    4.3215692    4.3215692   -11276.932   -9063.3606   -34805.414    10037.977    2818.3408    3246.8083    2760.7536    80.709455 
   55300    1397.2091   -114.19975    1.2642242   -112.93553   -1771.8469    4.3185632    4.3185632    4.3185632   -1771.8469    54097.559   -44441.685   -14971.414    894.80026    -6348.956    938.38062    80.541154 
   55400    1092.2034   -113.93656   0.98824859   -112.94831   -9628.2141    4.3283654    4.3283654    4.3283654   -9628.2141    56129.016   -68802.579   -16211.079    3477.3151   -1863.5559    51574.319    81.090833 
   55500    1754.3293   -114.52391     1.587354   -112.93655   -3610.2276    4.3271987    4.3271987    4.3271987   -3610.2276    5950.0327   -26353.954    9573.2382   -5071.8415    22104.148   -3619.1205    81.025273 
   55600    1232.7183   -114.05969    1.1153894    -112.9443    4016.6524    4.3224827    4.3224827    4.3224827    4016.6524    48713.996    -31072.41   -5591.6286    -2467.878    8812.0258    11477.617    80.760648 
   55700    1256.1875   -114.08203    1.1366248   -112.94541   -5625.4022    4.3274089    4.3274089    4.3274089   -5625.4022    52277.303   -64084.518   -5068.9914    400.01987   -11633.517    49013.063    81.037082 
   55800    1777.1354   -114.54474    1.6079895   -112.93675    1956.7867      4.32461      4.32461      4.32461    1956.7867   -11548.572    -35.23586    17454.168    19780.825    20571.088   -4772.8384    80.879943 
   55900    1611.5865   -114.39907    1.4581974   -112.94087    2544.5497    4.3192214    4.3192214    4.3192214    2544.5497    12642.294    5635.5592   -10644.204   -1243.9773    33308.196     6446.652    80.577987 
   56000    1420.0835   -114.23725    1.2849214   -112.95233   -11114.824    4.3239802    4.3239802    4.3239802   -11114.824    34334.076   -36212.003   -31466.545   -2420.4576   -14664.366      63525.1    80.844612 
   56100    1856.1208   -114.62371    1.6794571   -112.94425   -8150.4418    4.3273183    4.3273183    4.3273183   -8150.4418   -11329.105   -14650.204    1527.9834     14442.14    11014.477     2319.236    81.031992 
   56200     1866.793   -114.62939    1.6891135   -112.94028   -10589.796    4.3342603    4.3342603    4.3342603   -10589.796   -14882.744    11542.837   -28429.482   -9067.8815    40320.249    3339.8637    81.422601 
   56300    1453.0889   -114.25457    1.3147853   -112.93979   -16432.054     4.333583     4.333583     4.333583   -16432.054    30040.388   -23309.279   -56027.272   -6569.6168   -5163.7013    64709.627    81.384438 
   56400     2028.226   -114.76138    1.8351815    -112.9262    15225.382    4.3110438    4.3110438    4.3110438    15225.382   -1020.7585    29343.873    17353.032    11061.145   -12994.396   -663.34767    80.121177 
   56500    1762.4312   -114.53652    1.5946848   -112.94184    -76.13408    4.3145855    4.3145855    4.3145855    -76.13408   -22579.402    42893.832   -20542.832    6338.7754    18830.258        -7029    80.318807 
   56600    1150.4095   -113.99604    1.0409147   -112.95512   -11029.631    4.3310322    4.3310322    4.3310322   -11029.631    28637.004   -13247.245   -48478.654   -8217.6869    18819.376    52652.667    81.240811 
   56700    1792.1112   -114.56004    1.6215398    -112.9385    11135.802     4.327078     4.327078     4.327078    11135.802     11154.22    13118.021    9135.1661   -6084.3462   -18255.519    8021.7374    81.018494 
   56800    1674.0299   -114.45251    1.5146975   -112.93781    -9477.964    4.3273706    4.3273706    4.3273706    -9477.964   -34668.054    29205.316   -22971.154    1863.3408   -5685.3413   -4521.0471     81.03493 
   56900    1313.6274   -114.13673    1.1885977   -112.94813   -15050.231    4.3207505    4.3207505    4.3207505   -15050.231    16116.482   -19433.772   -41833.404   -12148.135    23515.085    38679.405    80.663596 
   57000    1331.0213   -114.15378     1.204336   -112.94944    22145.365    4.3124502    4.3124502    4.3124502    22145.365    51150.434    25664.007   -10378.346   -18491.081   -21105.847    12538.462    80.199614 
   57100    1743.0839   -114.52769     1.577179   -112.95051   -11734.623    4.3305336    4.3305336    4.3305336   -11734.623    -30612.41    31230.274   -35821.732    9955.4181   -38762.184   -3529.0231    81.212756 
   57200    1618.5176   -114.40503    1.4644687   -112.94056   -10372.984    4.3345017    4.3345017    4.3345017   -10372.984   -1845.6309   -12777.753   -16495.568    5482.6749    25543.595    32427.608    81.436205 
   57300    1483.8247   -114.27538    1.3425958   -112.93278    12093.728    4.3218638    4.3218638    4.3218638    12093.728    35624.582     6090.256   -5433.6536    -12012.49    -6902.765    23657.395     80.72596 
   57400    1884.9531   -114.63664    1.7055452   -112.93109    2846.4812    4.3206794    4.3206794    4.3206794    2846.4812    -3582.482    27618.223   -15496.297    -6942.923   -48790.926   -9202.7643    80.659613 
   57500    1852.9849   -114.61608    1.6766197   -112.93946    13865.522    4.3188244    4.3188244    4.3188244    13865.522    10176.185    20283.815    11136.566    3741.1057    12099.504    9692.8571     80.55577 
   57600     1429.583   -114.24873    1.2935168   -112.95522    13535.897    4.3252419    4.3252419    4.3252419    13535.897    32548.958    2916.9783    5141.7543    -15872.58    11235.965    34968.832    80.915402 
   57700    1998.6776   -114.75482    1.8084455   -112.94638   -10690.883    4.3335378    4.3335378    4.3335378   -10690.883   -20032.427   -11787.848   -252.37286   -14574.125    -26168.14   -503.71739    81.381892 
   57800    1845.0451   -114.61232    1.6694356   -112.94288    21316.876    4.3161246    4.3161246    4.3161246    21316.876    692.28431    27099.102    36159.241    24710.182    6046.3924     6386.859    80.404792 
   57900    1368.7638   -114.18999    1.2384863   -112.95151    19808.978    4.3171924    4.3171924    4.3171924    19808.978     30144.07     20488.16    8794.7048    -6752.856    8416.9841    20770.304    80.464479 
   58000    2060.8883   -114.79937     1.864735   -112.93463    -14886.08    4.3386823    4.3386823    4.3386823    -14886.08   -30824.573   -20381.875    6548.2066   -28650.322   -14872.002   -5226.0737    81.672069 
   58100    1640.9399   -114.41893    1.4847569   -112.93417   -1484.2664    4.3299874    4.3299874    4.3299874   -1484.2664    -19447.78      2946.38    12048.601     20173.75    8044.0631    2254.7506    81.182026 
   58200    998.08403   -113.84709    0.9030874     -112.944    1718.8773    4.3144702    4.3144702    4.3144702    1718.8773    21527.514   -15742.578   -628.30329    14693.362    7662.4195     32611.64    80.312364 
   58300    1805.5663   -114.57571    1.6337143     -112.942   -3988.9761    4.3144753    4.3144753    4.3144753   -3988.9761   -5902.0927   -11992.224    5927.3882   -28721.377    3203.5048    9534.5459    80.312652 
   58400    1616.6851   -114.41744    1.4628107   -112.95463   -15377.708     4.327098     4.327098     4.327098   -15377.708   -41252.545   -20641.468     15760.89    24100.172   -6622.3815   -11741.443    81.019617 
   58500    592.42776    -113.4922   0.53604109   -112.95615   -35699.718    4.3382815    4.3382815    4.3382815   -35699.718   -22043.503   -52597.054   -32458.595    29976.844    6775.1238    34185.774    81.649437 
   58600    1724.2835   -114.48529    1.5601679   -112.92512   -4514.0119     4.327663     4.327663     4.327663   -4514.0119   -2259.2367    8069.0385   -19351.838   -13860.376    10598.253    1097.5692    81.051361 
   58700    1397.1963   -114.19146    1.2642126   -112.92725   -11250.983    4.3252568    4.3252568    4.3252568   -11250.983   -35035.306   -15577.879    16860.237    36793.106   -24309.102   -1162.5346    80.916241 
   58800    875.02415   -113.73169   0.79174024   -112.93995    -18510.26    4.3217791    4.3217791    4.3217791    -18510.26   -13858.507   -37626.725   -4045.5465    36403.419     9184.862    31544.204    80.721217 
   58900    1911.0822   -114.66256    1.7291874   -112.93337     3631.918    4.3237944    4.3237944    4.3237944     3631.918    2501.0023    7436.1162    958.63546   -16859.644    15012.112     3069.011    80.834194 
   59000    1507.0228    -114.3014    1.3635859   -112.93782   -20710.572    4.3401312    4.3401312    4.3401312   -20710.572   -38003.338    -32109.33    7980.9526    23992.185   -32888.461    1525.4345    81.753918 
   59100    1343.9436    -114.1636    1.2160284   -112.94757   -11666.125    4.3207525    4.3207525    4.3207525   -11666.125    247.85399   -51789.595    16543.365    45490.139   -8004.9831    20249.974    80.663703 
   59200    2195.8034   -114.92152    1.9868091   -112.93471    27573.524    4.3014734    4.3014734    4.3014734    27573.524    38313.458    24928.911    19478.204   -1108.3032    14564.542    9900.3765    79.588759 
   59300    1962.9908   -114.72787    1.7761553   -112.95171    64.255595    4.3211416    4.3211416    4.3211416    64.255595   -13644.743     3021.006    10816.504    9072.2009   -20245.659   -4275.8498    80.685498 
   59400    1163.5675   -114.01068    1.0528203   -112.95786   -472.35901    4.3360492    4.3360492    4.3360492   -472.35901   -2025.6337   -33670.366    34278.922    43312.031   -21038.606     8638.324    81.523458 
   59500    2195.1624   -114.91037    1.9862291   -112.92414   -5853.9535    4.3391788    4.3391788    4.3391788   -5853.9535   -4648.2847   -8226.1043   -4687.4715   -15060.086    441.47103    19249.455    81.700112 
   59600    1623.7413   -114.39369    1.4691953   -112.92449   -8136.1357    4.3263859    4.3263859    4.3263859   -8136.1357   -34202.279     21261.78   -11467.908    6658.6953   -25529.357   -4561.8693    80.979625 
   59700    1048.1667   -113.87847   0.94840321   -112.93007    18333.719    4.3103582    4.3103582    4.3103582    18333.719    19217.051    1049.7418    34734.364    52602.354   -18657.003    6050.5165    80.082954 
   59800    1814.7519   -114.57793    1.6420257    -112.9359    8467.1306    4.3200733    4.3200733    4.3200733    8467.1306   -1581.9203    15032.602    11950.711   -6679.7572     13777.92     15214.26    80.625669 
   59900    1446.7886   -114.25537    1.3090848   -112.94629   -13926.737    4.3303556    4.3303556    4.3303556   -13926.737    -15377.05    6896.1599   -33299.321   -10839.326   -16605.205   -10342.491    81.202742 
   60000    632.98379   -113.52812   0.57273703   -112.95538   -23357.935    4.3287494    4.3287494    4.3287494   -23357.935   -57250.102   -14464.283    1640.5797    57939.158   -30728.901   -1799.7386    81.112414 
   60100    1575.5883   -114.36659    1.4256254   -112.94097    4019.3262    4.3193591    4.3193591    4.3193591    4019.3262    2401.9741   -5516.5315    15172.536    9458.6396     13616.54    11531.174    80.585694 
   60200    1633.8461   -114.41598    1.4783383   -112.93764   -3708.0107    4.3195112    4.3195112    4.3195112   -3708.0107   -10010.278    22315.928   -23429.682   -7332.7948   -23265.845    1836.8596    80.594207 
   60300    715.80273   -113.60348   0.64767336    -112.9558   -20874.157    4.3220816    4.3220816    4.3220816   -20874.157   -54487.202   -9926.8475    1791.5796    46455.104   -30789.807   -12858.294    80.738169 
   60400    1598.9177   -114.39551    1.4467343   -112.94878    810.15028    4.3286511    4.3286511    4.3286511    810.15028   -3323.1167   -16141.796    21895.363    12363.118     7595.413    375.02603    81.106891 
   60500     2075.878   -114.80623    1.8782981   -112.92793    -15442.81    4.3373764    4.3373764    4.3373764    -15442.81    -14849.19    573.05137   -32052.291   -7042.1447   -22853.052    5034.2295    81.598344 
   60600    1101.5078   -113.93986    0.9966674    -112.9432    359.47379     4.317235     4.317235     4.317235    359.47379   -21775.342    21390.856    1462.9073    51046.705   -44469.169   -2258.8709    80.466864 
   60700     1861.914   -114.62285    1.6846989   -112.93815    23522.776    4.3123267    4.3123267    4.3123267    23522.776    45181.939   -1991.0401    27377.429    22761.125    913.60333    4963.4366    80.192726 
   60800    2298.8515   -115.01749    2.0800492   -112.93744   -7294.0141    4.3302803    4.3302803    4.3302803   -7294.0141    17581.691   -17480.398   -21983.336   -25211.577    5911.6123    4265.5705    81.198504 
   60900    1067.5977   -113.91884   0.96598479   -112.95285    6659.3124    4.3235779    4.3235779    4.3235779    6659.3124   -16971.294    17783.344    19165.887    29621.689   -37739.405     7003.728    80.822052 
   61000    1548.0479   -114.34378    1.4007063   -112.94307    11212.096    4.3226916    4.3226916    4.3226916    11212.096    7251.4352    19729.902    6654.9504    26342.889    -11358.47   -14077.915    80.772357 
   61100    1876.7714   -114.62889    1.6981422   -112.93075   -19179.673      4.33261      4.33261      4.33261   -19179.673   -922.97097   -24723.392   -31892.657   -6405.4414     20314.24   -7743.5385    81.329631 
   61200    1145.1532   -113.97603    1.0361587   -112.93987   -2444.5297     4.316455     4.316455     4.316455   -2444.5297   -33444.835    4147.0162     21964.23    46167.333   -17523.659    10014.757    80.423259 
   61300    1467.7666   -114.26262     1.328066   -112.93455    18447.573    4.3147591    4.3147591    4.3147591    18447.573   -10769.421    40196.104    25916.035     13166.51   -11554.769   -8418.5352      80.3285 
   61400    1211.8968   -114.03149    1.0965497   -112.93494   -32130.022    4.3380211    4.3380211    4.3380211   -32130.022   -38349.319   -24085.453   -33955.293   -5106.0162    27051.988   -11201.914    81.634736 
   61500    977.99114   -113.81995   0.88490693   -112.93505   -20420.709    4.3295619    4.3295619    4.3295619   -20420.709   -70810.849   -5963.8702    15512.592    46872.197    1503.3428    6879.2375    81.158098 
   61600    1802.2129   -114.55266    1.6306801   -112.92198    23536.902    4.3117233    4.3117233    4.3117233    23536.902    1577.6809    28564.962    40468.061    3096.6398   -11893.962    2295.5443    80.159065 
   61700     1118.376    -113.9555    1.0119302   -112.94357    6793.8938    4.3154665    4.3154665    4.3154665    6793.8938   -16403.822   -2303.0022    39088.505   -1934.8375    26018.133   -17995.962    80.368019 
   61800    690.61668   -113.58758   0.62488448    -112.9627   -8435.0441    4.3286204    4.3286204    4.3286204   -8435.0441    -66065.37   -6643.4373    47403.675    43816.381    16121.823    269.62324    81.105163 
   61900    2024.0845   -114.75918    1.8314342   -112.92774   -13583.199    4.3383211    4.3383211    4.3383211   -13583.199   -25400.104   -7896.4684   -7453.0254   -7688.2639   -13906.845     10949.41     81.65167 
   62000    1026.7082   -113.86111   0.92898715   -112.93212    18175.923    4.3245017    4.3245017    4.3245017    18175.923    22311.179    20160.468    12056.123    9810.4445    10711.827   -11081.459    80.873869 
   62100    1175.4143   -113.99354    1.0635395      -112.93    10714.048    4.3190364    4.3190364    4.3190364    10714.048   -9044.9679     15068.35    26118.763    45674.938    19758.594   -5200.7209    80.567632 
   62200    2073.1432   -114.79664    1.8758235   -112.92082    12864.609     4.320988     4.320988     4.320988    12864.609     19629.67    30818.969   -11854.813   -8290.2203   -27421.304    12510.817    80.676898 
   62300    1209.3537   -114.03558    1.0942486   -112.94133    3511.5536       4.3241       4.3241       4.3241    3511.5536    5134.7455    28623.899   -23223.984    -5840.641    3222.5834    -3303.838    80.851335 
   62400    1384.8837   -114.19486    1.2530718   -112.94179   -2487.1509    4.3291907    4.3291907    4.3291907   -2487.1509    9538.0023   -5836.5295   -11162.926    20283.009    37985.632   -13320.948    81.137228 
   62500    1826.5119   -114.58479    1.6526663   -112.93213    19495.068    4.3205527    4.3205527    4.3205527    19495.068    54003.945    29713.601   -25232.342   -11694.539   -30296.446    10573.734    80.652514 
   62600    1252.1899    -114.0742    1.1330077   -112.94119    13630.316    4.3183161    4.3183161    4.3183161    13630.316      23680.2      49000.7   -31789.951   -3526.0542   -3348.1437    1147.2467    80.527327 
   62700    1634.4184   -114.41536    1.4788561    -112.9365   -5491.0776     4.325208     4.325208     4.325208   -5491.0776    11966.852    2314.1583   -30754.243    15381.309    33821.399   -9671.1893    80.913499 
   62800    1783.3905   -114.54608    1.6136492   -112.93243    15588.235     4.319171     4.319171     4.319171    15588.235    43026.828     20260.71   -16522.833   -2009.5007   -25988.083    19814.937    80.575165 
   62900    979.75814   -113.83626   0.88650575   -112.94975    387.96718    4.3181455    4.3181455    4.3181455    387.96718    -20627.03    60756.958   -38966.026   -1652.8258   -2996.0345    12474.787    80.517782 
   63000    1574.0487   -114.36732    1.4242324   -112.94309   -1502.9378    4.3241242    4.3241242    4.3241242   -1502.9378    4829.2907    24232.654   -33570.758   -3299.6686    48148.865   -7495.8944    80.852688 
   63100     2064.345   -114.79981    1.8678627   -112.93194   -2386.0642     4.325359     4.325359     4.325359   -2386.0642    12448.999    -12492.46   -7114.7311    854.72483   -13827.466    6140.3988    80.921974 
   63200    775.41755   -113.65081   0.70161409   -112.94919   -7279.3741    4.3206548    4.3206548    4.3206548   -7279.3741   -45321.618    50909.324   -27425.828    81.065901    5313.5798    11216.583    80.658232 
   63300    1339.4201   -114.15206    1.2119355   -112.94013    7376.8702    4.3210723    4.3210723    4.3210723    7376.8702     4173.611    44404.299   -26447.299   -7111.1859    34437.416    -3408.148    80.681616 
   63400    1719.6594   -114.48909     1.555984   -112.93311   -4171.5257    4.3262915    4.3262915    4.3262915   -4171.5257    22175.969   -37965.594    3275.0478     12621.64   -8269.7424   -18965.693    80.974327 
   63500    1342.5657   -114.15501    1.2147817   -112.94023   -7210.7915    4.3208867    4.3208867    4.3208867   -7210.7915   -24270.876    10479.276   -7840.7739    6772.6653    14100.737    6900.7145    80.671221 
   63600    1633.3783   -114.41408     1.477915   -112.93617    3946.1671    4.3255484    4.3255484    4.3255484    3946.1671   -11507.192    47704.879   -24359.185   -7640.6451    19085.058    4289.5913    80.932609 
   63700     1395.061   -114.19522    1.2622805   -112.93294   -8031.7289    4.3335898    4.3335898    4.3335898   -8031.7289     26608.87   -37894.215   -12809.842     5292.928    192.03773   -42381.639    81.384817 
   63800    1595.5214   -114.37019    1.4436613   -112.92652   -4651.3961    4.3221805    4.3221805    4.3221805   -4651.3961   -10422.646    9968.2534   -13499.796    3352.6927   -1803.6166   -11773.728    80.743709 
   63900    1515.9872   -114.29916    1.3716971   -112.92746    13208.965    4.3194159    4.3194159    4.3194159    13208.965    4773.2545    67401.661    -32548.02   -7480.4042    17047.366    2351.7306    80.588868 
   64000    1344.2765   -114.15071    1.2163297   -112.93438   -3169.4469    4.3281155    4.3281155    4.3281155   -3169.4469    24003.984   -4251.7321   -29260.593   -3522.1466    6251.3791   -37640.898    81.076784 
   64100    1461.5124   -114.25299    1.3224072   -112.93058    16977.678    4.3252971    4.3252971    4.3252971    16977.678    15884.565    51312.415   -16263.947    6900.2486   -1067.4869   -5738.4791    80.918499 
   64200     1334.745   -114.13887    1.2077054   -112.93117    1634.1855     4.327991     4.327991     4.327991    1634.1855    13010.381    61964.484   -70072.309     2602.844    6596.6137    7371.2381    81.069789 
   64300     1442.819    -114.2324    1.3054929   -112.92691    2580.0293    4.3283133    4.3283133    4.3283133    2580.0293    51990.194    4534.1771   -48784.284   -9062.0674   -5376.8405   -26905.374    81.087902 
   64400    1482.4404   -114.26961    1.3413432   -112.92827    12003.548    4.3254559    4.3254559    4.3254559    12003.548    14171.611    47515.334   -25676.301   -12267.002   -120.94861   -15068.393    80.927417 
   64500    1401.1044   -114.19562    1.2677487   -112.92788   -6058.7278    4.3334708    4.3334708    4.3334708   -6058.7278    14093.112    28496.115   -60765.411    1231.1468    325.47813    12311.736    81.378117 
   64600    1703.1374   -114.46236    1.5410345   -112.92133   -1614.1272    4.3324193    4.3324193    4.3324193   -1614.1272    36434.284   -19597.382   -21679.284   -15493.915    1353.6174    3365.3132     81.31889 
   64700    1474.0396   -114.25878     1.333742   -112.92504    7686.1241    4.3237924    4.3237924    4.3237924    7686.1241    -2093.402    38318.507   -13166.732   -13327.942   -12860.113   -14802.085     80.83408 
   64800    1239.3435   -114.05326     1.121384   -112.93188   -1525.3739    4.3213117    4.3213117    4.3213117   -1525.3739    12616.828    31470.452   -48663.402   -1384.9702   -11574.462    17901.007     80.69503 
   64900      1553.92   -114.33865    1.4060195   -112.93263    -3532.859    4.3243747    4.3243747    4.3243747    -3532.859    20302.235   -20313.169   -10587.643    6840.2499    7693.4792    29872.038    80.866744 
   65000    1425.9518   -114.22396    1.2902311   -112.93373   -16321.514    4.3307109    4.3307109    4.3307109   -16321.514   -47788.489      16262.2   -17438.253    -7932.657   -18202.005   -8338.5613    81.222732 
   65100     1103.494   -113.93666   0.99846454    -112.9382   -8364.6104    4.3275465    4.3275465    4.3275465   -8364.6104   -16809.528    37814.119   -46098.422   -6356.9422   -11749.002    16173.481    81.044815 
   65200    1821.7322   -114.57106    1.6483415   -112.92272    8215.0417    4.3200432    4.3200432    4.3200432    8215.0417    10269.871    14673.645   -298.39109    5348.1104    8312.9022    15508.872    80.623989 
   65300     856.1839   -113.71676   0.77469319   -112.94207   -16745.645    4.3227378    4.3227378    4.3227378   -16745.645   -68957.971      23595.1   -4874.0625    8733.2954   -13690.425   -10509.354    80.774944 
   65400    1276.9341   -114.09535    1.1553968   -112.93996   -11267.602    4.3299909    4.3299909    4.3299909   -11267.602   -47694.211    43758.292   -29866.886   -12895.238   -8394.4787    -18609.16    81.182224 
   65500    2228.1434   -114.93487     2.016071    -112.9188   -10076.319    4.3317907    4.3317907    4.3317907   -10076.319   -18692.588    4506.7389   -16043.107    7093.7138    6210.0905    3466.5291    81.283501 
   65600    807.64232   -113.67861   0.73077175   -112.94783   -11682.242     4.318759     4.318759     4.318759   -11682.242   -66590.349    38033.658   -6490.0358     11663.87   -12199.345    363.98586    80.552107 
   65700     1515.424   -114.31375    1.3711875   -112.94256    11054.401    4.3102402    4.3102402    4.3102402    11054.401   -8950.0608    50300.377   -8187.1125   -911.03751   -15757.568   -19476.838    80.076379 
   65800    2060.5785   -114.80249    1.8644547   -112.93804    -7801.964    4.3238522    4.3238522    4.3238522    -7801.964    3748.4094    14283.111   -41437.412    2940.7215    16567.279    12070.579    80.837435 
   65900    895.66226   -113.76623   0.81041404   -112.95582   -4267.8747     4.325422     4.325422     4.325422   -4267.8747   -50222.759    74519.591   -37100.456     4121.945   -1920.8089    11056.228    80.925512 
   66000    1994.9472   -114.74746    1.8050702   -112.94239     727.5836    4.3241255    4.3241255    4.3241255     727.5836    360.86443    17207.847   -15385.961   -476.81562   -17418.791   -7115.2263    80.852766 
   66100    2009.3167   -114.75511     1.818072   -112.93704    4801.1579    4.3214345    4.3214345    4.3214345    4801.1579    16173.876    39668.008    -41438.41   -8407.9753    18838.682    3719.3615    80.701907 
   66200    1080.7539   -113.93037   0.97788883   -112.95248   -4302.6319     4.314516     4.314516     4.314516   -4302.6319   -24583.709    42875.993    -31200.18    11069.257    7041.2928    15722.455    80.314926 
   66300    1925.1863   -114.68315     1.741949    -112.9412     2293.169    4.3237375    4.3237375    4.3237375     2293.169    44208.319   -19018.046   -18310.766    2040.4332   -14145.591   -10975.753    80.831001 
   66400    1687.9419   -114.46504    1.5272853   -112.93776   -10842.965    4.3302814    4.3302814    4.3302814   -10842.965    11211.445    7044.8044   -50785.145   -2826.0572     18481.87   -28820.292    81.198563 
   66500    1525.4175   -114.31804    1.3802298   -112.93781   -3599.0507    4.3174305    4.3174305    4.3174305   -3599.0507   -2995.0192     12394.27   -20196.403   -493.90105    17278.797    13641.238    80.477794 
   66600    1806.5375   -114.56767    1.6345931   -112.93307    5702.2809    4.3148292    4.3148292    4.3148292    5702.2809    47084.673    -19695.86    -10281.97    5645.1569   -10409.151   -20177.546    80.332414 
   66700    1488.8275   -114.28862    1.3471224    -112.9415   -21942.646    4.3238682    4.3238682    4.3238682   -21942.646    21692.618   -28260.623   -59259.934    -3315.505    6274.0984   -57836.656    80.838331 
   66800    1709.1949   -114.48287    1.5465155   -112.93635   -6462.9685    4.3256825    4.3256825    4.3256825   -6462.9685   -16649.624    22674.312   -25413.593   -14295.199    15636.763    19754.718    80.940135 
   66900    1535.4737   -114.32343    1.3893288    -112.9341   -6308.6877    4.3251267    4.3251267    4.3251267   -6308.6877    26570.141   -21542.204   -23954.001    9824.7544   -2866.1786   -27521.903    80.908938 
   67000    1241.3599   -114.06282    1.1232086   -112.93961   -7230.8696    4.3193804    4.3193804    4.3193804   -7230.8696    35255.971   -10406.608   -46541.972    5711.3739    658.46951   -73109.884    80.586883 
   67100     2149.341   -114.87496    1.9447689    -112.9302    3009.5121     4.315954     4.315954     4.315954    3009.5121   -28170.628    46470.833   -9271.6689   -8712.3221    20614.063    16648.556    80.395255 
   67200    1252.3005   -114.07989    1.1331079   -112.94679   -5198.5801    4.3213273    4.3213273    4.3213273   -5198.5801     20959.22    10054.068   -46609.028    6813.4759    834.03246   -43913.219    80.695904 
   67300    1186.5088   -114.02473    1.0735781   -112.95115   -6434.7226    4.3249444    4.3249444    4.3249444   -6434.7226     47154.58   -15796.322   -50662.425    1884.9023   -10712.565   -58599.869     80.89871 
   67400     2409.219   -115.10968     2.179912   -112.92976    118.36182    4.3247074    4.3247074    4.3247074    118.36182   -12614.697    18761.642    -5791.859   -3022.3514    7500.3389    32809.283     80.88541 
   67500    1346.6774    -114.1658     1.218502    -112.9473   -6135.1323    4.3178686    4.3178686    4.3178686   -6135.1323    28845.883   -6782.0508   -40469.229   -2892.8334    11318.816   -65390.878    80.502294 
   67600    1312.6127   -114.13939    1.1876796   -112.95171   -4769.8931     4.317441     4.317441     4.317441   -4769.8931    36379.144   -49829.022   -859.80117    5655.7402     4705.889   -54382.048    80.478383 
   67700    2140.3473   -114.87167    1.9366312   -112.93504    9690.4667     4.322487     4.322487     4.322487    9690.4667    15011.573   -13182.047    27241.874    8060.3408   -11090.563    39876.935     80.76089 
   67800    1202.2611   -114.03985    1.0878311   -112.95201   -4588.0881    4.3261501    4.3261501    4.3261501   -4588.0881    35011.113   -52634.023    3858.6458    1104.8626   -1295.2116   -66005.212    80.966388 
   67900    1514.8764   -114.31336     1.370692   -112.94267   -2339.0079    4.3264477    4.3264477    4.3264477   -2339.0079    13551.063   -47301.272    26733.185    11790.729    6590.5889   -37754.487    80.983098 
   68000    2179.7749   -114.90176    1.9723061   -112.92946    14892.995    4.3151866    4.3151866    4.3151866    14892.995    11409.414   -5806.7747    39076.347    2804.1176   -7544.0007    11884.853    80.352378 
   68100    1110.5953    -113.9557      1.00489   -112.95081   -3446.8866    4.3180482    4.3180482    4.3180482   -3446.8866    59536.691     -59416.3   -10461.051   -7307.6623    6022.1197   -77031.895    80.512341 
   68200    1557.1924   -114.35276    1.4089804   -112.94378   -8397.4724    4.3278664    4.3278664    4.3278664   -8397.4724    17850.148    -39300.41   -3742.1556    -721.3339    1074.0472   -9412.7628    81.062787 
   68300    1459.8516   -114.25531    1.3209044    -112.9344    23367.836     4.319141     4.319141     4.319141    23367.836    17028.679    28136.939    24937.891    11097.679    3522.4773     1989.917    80.573486 
   68400    960.90351    -113.8141   0.86944569   -112.94465   -1477.5186     4.322152     4.322152     4.322152   -1477.5186    44732.809   -38114.683   -11050.681   -268.76179    2813.9749   -72589.314    80.742113 
   68500    1605.6548   -114.38524    1.4528302   -112.93241   -8764.6508    4.3254845    4.3254845    4.3254845   -8764.6508    18130.651   -17153.633   -27270.971   -6396.5592   -8206.2884    12184.934    80.929021 
   68600    1083.7293   -113.91712   0.98058106   -112.93654    18049.428    4.3122591    4.3122591    4.3122591    18049.428    47917.992    10661.334   -4431.0408    13100.876    6915.5025    7627.2547    80.188951 
   68700    1206.8971   -114.03583    1.0920259    -112.9438     -6345.18    4.3254693    4.3254693    4.3254693     -6345.18     40289.52   -20719.785   -38605.276    1393.8602     7287.815   -62267.413    80.928166 
   68800     1802.302   -114.55192    1.6307607   -112.92116   -20152.214    4.3335506    4.3335506    4.3335506   -20152.214   -13909.584   -577.24245   -45969.816   -13147.777   -6438.4502    8284.2929    81.382609 
   68900     1086.319   -113.91269   0.98292424   -112.92977   -9747.4724    4.3195244    4.3195244    4.3195244   -9747.4724     17726.19    -12784.19   -34184.417     7875.085    5681.3156    13706.332    80.594944 
   69000    1747.7334   -114.51025     1.581386   -112.92886   -2192.9161     4.318134     4.318134     4.318134   -2192.9161    25736.552   -5317.4013   -26997.899    8422.6579     8090.419   -36983.712    80.517142 
   69100    1592.0099   -114.37229     1.440484   -112.93181   -3155.0845    4.3235826    4.3235826    4.3235826   -3155.0845   -22839.703    37511.521   -24137.072   -18222.167    -28885.61    7015.7924    80.822313 
   69200    1311.2554   -114.12943    1.1864514   -112.94298   -957.94326    4.3257134    4.3257134    4.3257134   -957.94326    -8311.222    11669.548   -6232.1557   -8315.5196   -827.17075     14839.88    80.941867 
   69300    2173.2136   -114.89324    1.9663694   -112.92688    991.06084    4.3285965    4.3285965    4.3285965    991.06084     8234.767    952.82704   -6214.4116    8434.7129    11000.391   -16649.671    81.103821 
   69400    1438.3118     -114.238    1.3014148   -112.93659   -6951.6952    4.3225215    4.3225215    4.3225215   -6951.6952   -62636.072    37608.671    4172.3154   -29196.372   -30877.598   -12612.743    80.762824 
   69500    1208.0457   -114.03982    1.0930652   -112.94675     6800.069     4.315456     4.315456     4.315456     6800.069   -14361.412    16278.293    18483.326   -22282.204   -4573.3796    25681.429    80.367429 
   69600    2019.1744     -114.765    1.8269914   -112.93801    15009.504    4.3220767    4.3220767    4.3220767    15009.504     21783.37    12585.263    10659.878    18224.164    6143.8597    24619.907    80.737891 
   69700    1335.1566   -114.15461    1.2080777   -112.94653    -15605.38    4.3314243    4.3314243    4.3314243    -15605.38   -65301.165    11936.556    6548.4686    -15471.05   -29586.815   -15128.621    81.262877 
   69800    1045.5156    -113.8927   0.94600447    -112.9467   -19723.699     4.324544     4.324544     4.324544   -19723.699   -22587.129   -38070.245     1486.276   -26459.263   -883.17196    14038.101    80.876243 
   69900    1781.9439   -114.54072    1.6123403   -112.92838    15234.864    4.3107662    4.3107662    4.3107662    15234.864    57678.509   -17245.808    5271.8909    4856.0746    3507.3331     18660.62    80.105699 
   70000    925.90837   -113.78581   0.83778135   -112.94803   -5441.6007    4.3234786    4.3234786    4.3234786   -5441.6007   -27613.498    13514.459   -2225.7635   -21933.308   -36193.209   -7030.5716    80.816481 
   70100    1158.8314   -113.98469     1.048535   -112.93616   -21562.793    4.3356944    4.3356944    4.3356944   -21562.793   -14791.366   -40775.014   -9122.0001   -32066.213   -5340.8389   -7106.6758    81.503448 
   70200    1892.9625   -114.63203    1.7127923   -112.91924    3530.1401    4.3247651    4.3247651    4.3247651    3530.1401    45698.812   -36829.175    1720.7839    10826.643    7610.3892    11170.814    80.888647 
   70300    762.75213      -113.63   0.69015415   -112.93985   -11901.691    4.3200771    4.3200771    4.3200771   -11901.691   -14519.955   -22005.602     820.4836   -6261.3131   -37424.676    5071.5489    80.625885 
   70400    1160.0917   -113.99312    1.0496753   -112.94344   -3489.0808    4.3221245    4.3221245    4.3221245   -3489.0808    4079.8693   -30322.739    15775.628    -27480.57   -6633.6747   -19916.908    80.740573 
   70500    1961.4499   -114.70574    1.7747611   -112.93097    11376.964    4.3219862    4.3219862    4.3219862    11376.964    42116.915   -8171.5646    185.54038    2981.1087    784.53267   -6628.3406    80.732821 
   70600    941.31844   -113.79817   0.85172471   -112.94645   -1198.7874    4.3270967    4.3270967    4.3270967   -1198.7874   -31149.298   -3168.9688    30721.905   -14832.509   -41044.636   -2099.2938    81.019544 
   70700    1381.7518   -114.18786    1.2502381   -112.93762   -8082.4338    4.3316911    4.3316911    4.3316911   -8082.4338   -18532.369   -46614.476    40899.544   -19010.969    657.31482   -10064.717    81.277891 
   70800    2017.4132   -114.74934    1.8253978   -112.92395    8111.4914    4.3192304    4.3192304    4.3192304    8111.4914    11845.027   -17918.743    30408.191    7286.8455   -3832.4412   -3726.6051     80.57849 
   70900    912.62618   -113.76967   0.82576335    -112.9439    13587.953    4.3141254    4.3141254    4.3141254    13587.953   -16314.778    40749.034    16329.603   -9144.8397   -48290.516   -661.17466    80.293115 
   71000    1866.4956   -114.62959    1.6888444   -112.94075   -8375.1971    4.3291961    4.3291961    4.3291961   -8375.1971   -33402.457   -13171.078    21447.944   -6676.6444    19179.003    7699.4641    81.137531 
   71100    2192.6319   -114.91327    1.9839394   -112.92933   -7680.9658    4.3281746    4.3281746    4.3281746   -7680.9658   -18310.167   -11503.662    6770.9323   -824.37648   -22947.849   -14226.428    81.080109 
   71200    1107.1765   -113.94605    1.0017966   -112.94426   -8619.7843    4.3198048    4.3198048    4.3198048   -8619.7843   -44771.518    15684.087    3228.0787    -8472.719    -54810.76   -9183.0297     80.61064 
   71300    1662.2148    -114.4408    1.5040069   -112.93679    6456.7578    4.3217694    4.3217694    4.3217694    6456.7578   -29934.847    17518.987    31786.134    -14196.39    27503.693    10511.896    80.720673 
   71400    1958.7991   -114.70505    1.7723626   -112.93268    36.726896    4.3204175    4.3204175    4.3204175    36.726896   -18989.654    9834.2622    9265.5728   -442.53756   -20547.317    1125.1792    80.644944 
   71500    1371.4337   -114.18652     1.240902   -112.94562   -3557.2295    4.3215886    4.3215886    4.3215886   -3557.2295   -42000.297    25334.067    5994.5421    842.39494    -48294.48    3184.2874    80.710539 
   71600     1682.758   -114.45899    1.5225948   -112.93639   -5538.7414    4.3263533    4.3263533    4.3263533   -5538.7414   -31114.863   -9126.4703    23625.109   -16807.986    31248.167    1168.6333    80.977796 
   71700     1409.396   -114.21389    1.2752511   -112.93863    6391.0225    4.3198485    4.3198485    4.3198485    6391.0225   -3144.5452     27960.22   -5642.6076   -594.75294   -20997.594    5302.6206    80.613088 
   71800    1746.3095   -114.51617    1.5800975   -112.93607    596.23651    4.3193778    4.3193778    4.3193778    596.23651   -782.62102    26760.687   -24189.357   -9713.0526   -49697.666   -770.59128    80.586739 
   71900    1751.7259   -114.51945    1.5849984   -112.93445    3827.0399    4.3242017    4.3242017    4.3242017    3827.0399   -14785.942    23148.635    3118.4274   -8452.0157    39868.508    6976.3513    80.857039 
   72000    1172.9531   -114.00674    1.0613126   -112.94543    1565.1595    4.3225564    4.3225564    4.3225564    1565.1595     8401.517    20536.185   -24242.224    4910.9387   -13615.002    14544.679    80.764779 
   72100    1884.8651   -114.63967    1.7054655   -112.93421    10255.182    4.3223048    4.3223048    4.3223048    10255.182    20598.753    32274.988   -22108.196    2121.8646   -49667.222   -7367.3353    80.750676 
   72200     1936.707   -114.68354    1.7523732   -112.93117    8687.6588     4.322387     4.322387     4.322387    8687.6588    10698.465    22793.896    -7429.385    5078.2466    42843.608    15044.757    80.755283 
   72300     1394.009   -114.20348    1.2613286   -112.94215    7433.5703    4.3205783    4.3205783    4.3205783    7433.5703    42920.377    17684.964    -38304.63    -9146.183    112.81639    13560.195    80.653948 
   72400    1847.5057   -114.60854     1.671662   -112.93688      13407.3    4.3231273    4.3231273    4.3231273      13407.3    21438.991    16078.752    2704.1581    510.89694   -38229.492    -12933.46    80.796781 
   72500    1907.1687   -114.66334    1.7256464   -112.93769   -734.49598    4.3205771    4.3205771    4.3205771   -734.49598    1957.8754   -8633.6684     4472.305    11963.527     31579.02    25756.054     80.65388 
   72600    1351.4635   -114.17044    1.2228326   -112.94761    7656.1896    4.3176308    4.3176308    4.3176308    7656.1896    51959.755    2589.1935    -31580.38      -1560.8    3237.3367    14653.776    80.488997 
   72700    2015.5365   -114.76304    1.8236998   -112.93934    4398.6122    4.3241425    4.3241425    4.3241425    4398.6122    12982.113    7464.0126   -7250.2885    3162.7121   -26846.733   -21174.899    80.853718 
   72800    1699.7077   -114.47772    1.5379313   -112.93979    11206.591    4.3240503    4.3240503    4.3240503    11206.591    11639.005     12332.44    9648.3286   -653.62937    26235.283    22234.358    80.848548 
   72900    1150.2343    -113.9885    1.0407562   -112.94774   -7743.2444    4.3239458    4.3239458    4.3239458   -7743.2444    34625.381   -26331.788   -31523.327    3548.8028    15036.311    18916.424    80.842685 
   73000    1947.6752   -114.69361    1.7622975   -112.93131    8237.5154    4.3241411    4.3241411    4.3241411    8237.5154    3285.4637     6836.633    14590.449    5197.1506   -24606.465   -17151.513    80.853638 
   73100    1667.1542   -114.44687    1.5084762    -112.9384   -1656.2315    4.3196649    4.3196649    4.3196649   -1656.2315   -6416.7699    2032.8695     -584.794   -4281.5315    20605.458    34804.436    80.602805 
   73200    973.13178   -113.83011   0.88051008    -112.9496   -8258.2279    4.3242652    4.3242652    4.3242652   -8258.2279    20673.067   -17611.064   -27836.686    7281.3584    18885.134    35451.101    80.860602 
   73300    1897.0925   -114.64838    1.7165291   -112.93185    -2591.601    4.3265022    4.3265022    4.3265022    -2591.601   -7273.7368   -11853.376     11352.31    6707.4239   -18533.096   -20356.936    80.986157 
   73400    1267.4077   -114.08762    1.1467771   -112.94084   -19303.041    4.3221629    4.3221629    4.3221629   -19303.041   -18694.019   -28342.462   -10872.642   -10451.863     31035.33    18239.312    80.742724 
   73500    973.84526   -113.82816   0.88115566     -112.947   -21195.928    4.3170726    4.3170726    4.3170726   -21195.928    9615.3564   -36602.686   -36600.455    1984.2632    29660.689    38678.004    80.457781 
   73600    1853.1806   -114.61218    1.6767967   -112.93538     911.6402    4.3215881    4.3215881    4.3215881     911.6402   -584.77569   -2132.6626    5452.3589    15345.428   -18436.605   -15921.757    80.710514 
   73700    1173.6496   -114.00508    1.0619428   -112.94314   -23460.649     4.330255     4.330255     4.330255   -23460.649   -11885.771   -32050.801   -26445.375   -19001.167    21064.556    22683.378    81.197081 
   73800    799.04662    -113.6729   0.72299418   -112.94991   -4452.1302    4.3226772    4.3226772    4.3226772   -4452.1302    36385.418   -29915.489   -19826.319   -9392.9422    24861.453    37714.602     80.77155 
   73900    2111.5931     -114.842    1.9106138   -112.93139    10200.667    4.3174653    4.3174653    4.3174653    10200.667    25134.439   -3103.1905    8570.7534    16389.561   -9296.6356   -7310.3271    80.479739 
   74000    1460.4926   -114.26884    1.3214844   -112.94736    241.60394    4.3193756    4.3193756    4.3193756    241.60394     21314.85   -18985.208   -1604.8295   -6457.2952    16740.358    13671.238    80.586612 
   74100     767.4262   -113.65935   0.69438335   -112.96496   -18474.834     4.325908     4.325908     4.325908   -18474.834    36984.471   -36747.291   -55661.681   -14427.255     25326.55    45250.822    80.952794 
   74200    2257.9574   -114.98052    2.0430473   -112.93747    10284.791    4.3287101    4.3287101    4.3287101    10284.791    22580.438   -14055.577    22329.511    6631.4474   -9379.5656   -8696.3053    81.110208 
   74300    1689.2294   -114.46886    1.5284502   -112.94041   -14556.244    4.3326184    4.3326184    4.3326184   -14556.244    4263.2621    -19370.73   -28561.263   -13533.933    25602.012    15706.816    81.330102 
   74400    926.16344   -113.78147   0.83801214   -112.94346   -22205.835    4.3304641    4.3304641    4.3304641   -22205.835    7925.1468   -15467.862   -59074.791   -21715.101    37701.238    43740.213    81.208844 
   74500    2447.9523   -115.13031    2.2149587   -112.91535    25531.557    4.3187527    4.3187527    4.3187527    25531.557    29386.016    4549.9222    42658.732    12282.777   -23467.065   -12079.259    80.551754 
   74600    1415.8654   -114.21666    1.2811047   -112.93556    -10944.26    4.3265629    4.3265629    4.3265629    -10944.26   -24195.053     3309.975   -11947.704      2815.04     21386.81    18807.226    80.989566 
   74700    767.72685   -113.64513   0.69465539   -112.95048    -18342.35    4.3252858    4.3252858    4.3252858    -18342.35    -35769.63   -11611.358   -7646.0608   -10027.482    33707.737    34580.626    80.917865 
   74800    2062.1461   -114.79809    1.8658731   -112.93222     8248.427    4.3191524    4.3191524    4.3191524     8248.427   -10643.276    6578.2654    28810.292   -3604.2642    -7515.618   -3843.0919     80.57412 
   74900    1498.7474   -114.30548    1.3560981   -112.94938   -154.59345    4.3227097    4.3227097    4.3227097   -154.59345   -31575.542    5714.3739    25397.388    2726.7673    9925.2502    2170.9643    80.773369 
   75000    646.66178   -113.54473   0.58511317   -112.95961   -8463.0413    4.3216775    4.3216775    4.3216775   -8463.0413   -13404.556    7676.5486   -19661.117   -8725.2811    46960.144    43583.201    80.715525 
   75100    1726.8325   -114.50306    1.5624743   -112.94059    11856.094     4.322279     4.322279     4.322279    11856.094   -13511.817    38103.003    10977.094   -105.02801   -3206.9166   -7315.2058    80.749229 
   75200    1700.9087   -114.47633    1.5390179   -112.93732   -21738.141    4.3343817    4.3343817    4.3343817   -21738.141   -58513.814   -1445.3615   -5255.2483     6488.485    -6421.564   -5096.9871    81.429444 
   75300    858.96075   -113.72182   0.77720574   -112.94461    -15215.19    4.3251272    4.3251272    4.3251272    -15215.19   -31632.672    29780.233   -43793.133   -5705.6189    49041.567    50025.728    80.908964 
   75400     1611.668   -114.39481     1.458271   -112.93654    30369.581    4.3072973    4.3072973    4.3072973    30369.581    13476.485    66775.956    10856.303   -435.03947   -3331.4028   -10233.752    79.912468 
   75500    1854.0336   -114.61973    1.6775685   -112.94216    9140.4911    4.3198219    4.3198219    4.3198219    9140.4911   -3379.5603     14877.94    15923.093    4251.3441   -8909.4371   -15539.215    80.611598 
   75600      1122.63   -113.96785    1.0157792   -112.95207   -10288.706    4.3281534    4.3281534    4.3281534   -10288.706   -25452.081    37840.687   -43254.724   -5730.7721    44704.714    37317.596    81.078916 
   75700    1439.9473   -114.24693    1.3028946   -112.94403    10840.017    4.3263802    4.3263802    4.3263802    10840.017   -9467.6691    38242.085    3745.6369    -7901.728   -2165.3835    305.48362    80.979304 
   75800    1909.6132   -114.66122    1.7278582   -112.93336   -9476.4403    4.3276565    4.3276565    4.3276565   -9476.4403    1082.9921   -17204.771   -12307.542    9261.6578   -5606.5039   -15356.807    81.050997 
   75900    1046.8997   -113.89137   0.94725682   -112.94412    19425.015    4.3117682    4.3117682    4.3117682    19425.015    24992.458    11671.795    21610.792    5361.7817    41670.385    30755.425    80.161568 
   76000    1589.1488   -114.38444    1.4378952   -112.94655     4776.388      4.31978      4.31978      4.31978     4776.388     11963.74    4606.5013   -2241.0768   -12364.243    6432.2027    10986.307    80.609249 
   76100    1855.7619   -114.61568    1.6791324   -112.93655    971.93612    4.3309395    4.3309395    4.3309395    971.93612    3658.9109   -13262.619    12519.517    2500.0085   -17663.229   -13611.548    81.235592 
   76200    1282.6845   -114.10474    1.1605999   -112.94414    5236.1973    4.3195387    4.3195387    4.3195387    5236.1973     28543.75   -13169.933    334.77528    16885.404    29020.434    14202.296    80.595746 
   76300    1264.2762   -114.09086    1.1439437   -112.94691   -6855.9711    4.3220535    4.3220535    4.3220535   -6855.9711    8904.0199   -39590.345    10118.412   -18413.721    12399.978    29700.536    80.736594 
   76400    1870.3764   -114.63138    1.6923559   -112.93903   -2937.9751    4.3210427    4.3210427    4.3210427   -2937.9751    7489.8732    -45217.38    28913.582   -20962.139   -19274.127   -7636.1258    80.679961 
   76500    1224.7424   -114.05519    1.1081727   -112.94702    13030.314    4.3190855    4.3190855    4.3190855    13030.314    22903.792   -3211.4522    19398.604    27645.722    28897.755    3636.1425     80.57038 
   76600    1023.9665   -113.87339   0.92650638   -112.94688   -18860.129    4.3324572    4.3324572    4.3324572   -18860.129   -28905.446   -35122.855    7447.9151   -5639.2425    24893.284    25442.736    81.321027 
   76700    1824.7315   -114.57762    1.6510554   -112.92656   -9983.3498    4.3310271    4.3310271    4.3310271   -9983.3498   -2765.9744   -51022.885     23838.81   -23770.701   -9479.2518   -5916.9378    81.240521 
   76800     1330.684   -114.13594    1.2040308   -112.93191   -11440.687     4.320628     4.320628     4.320628   -11440.687   -19064.423   -29495.135    14237.499    27308.645    28908.692    9078.0274    80.656731 
   76900    796.64808   -113.67217   0.72082392   -112.95135   -3095.1946    4.3129532    4.3129532    4.3129532   -3095.1946   -25655.666   -13620.797    29990.879    7010.7853    22070.873    27632.754    80.227682 
   77000    1789.6271   -114.56782    1.6192922   -112.94852    14409.995    4.3154455    4.3154455    4.3154455    14409.995    15899.874    4520.7224     22809.39   -33365.711   -8365.4729    4473.7154    80.366845 
   77100    1781.0062   -114.56379    1.6114919    -112.9523   -5365.8993    4.3260518    4.3260518    4.3260518   -5365.8993   -5741.9532   -6251.2406   -4104.5041    2463.7228    4340.9275    -13257.47    80.960866 
   77200     1303.399   -114.13962    1.1793428   -112.96028   -9078.1382    4.3237096    4.3237096    4.3237096   -9078.1382   -11879.873    6546.5606   -21901.102    24142.171    24833.854     21454.28    80.829434 
   77300    1962.7582   -114.72051    1.7759448   -112.94457    19586.828    4.3166886    4.3166886    4.3166886    19586.828    32886.975    15707.835    10165.673   -1885.7243    -2322.205    19788.692    80.436313 
   77400     1896.848   -114.66108     1.716308   -112.94477    14714.815    4.3197941    4.3197941    4.3197941    14714.815    2413.9444    48106.858   -6376.3574   -12736.507   -17611.828   -33529.593    80.610039 
   77500    1579.0077   -114.38126    1.4287193   -112.95254    5308.7872     4.322977     4.322977     4.322977    5308.7872   -13427.029    46383.559   -17030.169    6895.4697    18774.057    3045.0409    80.788357 
   77600    2103.4036   -114.84535    1.9032038   -112.94214    16632.219    4.3236047    4.3236047    4.3236047    16632.219    10495.113    30388.416    9013.1274    23900.946    10815.636    15893.341    80.823555 
   77700    1798.0876   -114.57383    1.6269475   -112.94688    2780.0534    4.3233284    4.3233284    4.3233284    2780.0534   -3020.8612    34749.468   -23388.446     4094.625   -23339.874   -27558.225    80.808061 
   77800    1559.1497   -114.36078    1.4107514   -112.95003    967.41741    4.3187023    4.3187023    4.3187023    967.41741   -12317.815    37745.607   -22525.539    2491.9673    354.61899   -13183.324    80.548933 
   77900    1948.1292   -114.70989    1.7627082   -112.94718    8706.9719    4.3182616    4.3182616    4.3182616    8706.9719   -1755.6012    12664.082    15212.435    29299.446    9353.6556    5155.1245    80.524278 
   78000     1721.114   -114.50904    1.5573001   -112.95174   -8851.0772    4.3261067    4.3261067    4.3261067   -8851.0772   -17351.811    5062.1916   -14263.612    12131.767   -19526.446   -14840.936    80.963947 
   78100    1381.1009   -114.20139    1.2496491   -112.95174    -13832.06    4.3239289    4.3239289    4.3239289    -13832.06    -7957.485   -5844.4857    -27694.21   -10196.576   -8025.9429   -33936.204    80.841738 
   78200    1779.7851   -114.55363     1.610387   -112.94324   -452.09926    4.3210439    4.3210439    4.3210439   -452.09926   -11278.721   -3045.4781    12967.901    29297.588    13700.825    6506.5499    80.680027 
   78300    1436.6856   -114.24395    1.2999433     -112.944   -7604.7824    4.3291364    4.3291364    4.3291364   -7604.7824   -17158.593    1931.8073    -7587.561    26325.501   -9998.6656   -10158.781    81.134172 
   78400    943.23838   -113.80433   0.85346191   -112.95087   -4835.3405    4.3217782    4.3217782    4.3217782   -4835.3405     1911.169    12971.544   -29388.734   -3614.3662   -16710.672   -36301.359    80.721168 
   78500    1669.7676   -114.45517    1.5108408   -112.94433    13279.959    4.3166917    4.3166917    4.3166917    13279.959    3609.9635     23762.85    12467.064    825.87174    7139.9742    7312.6446    80.436488 
   78600    1753.5532   -114.53421    1.5866518   -112.94756   -8158.5937     4.329206     4.329206     4.329206   -8158.5937   -5070.8049   -10908.442   -8496.5342    5284.7067   -9213.6054   -7702.4092    81.138086 
   78700     497.6837   -113.41027   0.45031467   -112.95996    -11388.97    4.3300682    4.3300682    4.3300682    -11388.97   -4720.5549    7004.7132    -36451.07    2243.1474   -25507.333   -29237.139    81.186575 
   78800    1580.6844   -114.37347    1.4302365   -112.94323    2406.5474    4.3199354    4.3199354    4.3199354    2406.5474   -12212.044   -566.03894    19997.725   -7850.7132    5801.0874    525.74856    80.617953 
   78900    1884.8161   -114.64472    1.7054212    -112.9393   -9951.3267    4.3229534    4.3229534    4.3229534   -9951.3267    2436.6765   -22394.688   -9895.9691   -2464.6757   -40.843521   -1946.0543    80.787035 
   79000    902.09619   -113.77339   0.81623559   -112.95715   -14487.215    4.3187903    4.3187903    4.3187903   -14487.215    15681.402   -13572.442   -45570.606   -5648.0578   -26865.812   -39811.672    80.553862 
   79100    1374.1126   -114.19697    1.2433259   -112.95364    14897.514    4.3165773    4.3165773    4.3165773    14897.514   -15646.489    44510.713     15828.32   -12439.213   -5746.7577    5388.6711    80.430091 
   79200    1794.6225   -114.56807    1.6238121   -112.94426   -15686.321    4.3305581    4.3305581    4.3305581   -15686.321   -50784.684   -892.74825    4618.4689   -9210.7623    3302.4447    9313.6329    81.214133 
   79300    801.04688   -113.68614   0.72480405   -112.96134   -2007.6158    4.3162527    4.3162527    4.3162527   -2007.6158   -25117.542    50028.083   -30933.389    3394.6767   -19427.413   -32235.077    80.411947 
   79400    1357.5423   -114.18759    1.2283328   -112.95926    30419.702    4.3089038    4.3089038    4.3089038    30419.702    6664.9302    69038.056     15556.12    1488.5457   -14468.437   -6792.5115    80.001916 
   79500    2136.4539   -114.87794    1.9331084   -112.94483    7183.0879    4.3251881    4.3251881    4.3251881    7183.0879   -41875.495    49981.894    13442.864   -9428.9048    12086.847    4389.3992    80.912386 
   79600    724.68118   -113.62252   0.65570676   -112.96681   -26535.599    4.3275947    4.3275947    4.3275947   -26535.599   -81755.763    29119.924   -26970.958    3569.6755   -6631.7606   -21133.197    81.047522 
   79700    747.05582   -113.64306   0.67595181    -112.9671   -22810.144    4.3215212    4.3215212    4.3215212   -22810.144    -74165.78   -4080.0821    9815.4289    895.76347   -22119.517   -22385.229    80.706768 
   79800    1954.6502   -114.71351    1.7686086   -112.94491    1371.0192    4.3151311    4.3151311    4.3151311    1371.0192   -51806.584    12685.864    43233.778   -8846.3209    4222.2483     8326.267     80.34928 
   79900    1029.0094   -113.88908   0.93106936   -112.95801   -5424.2339    4.3194879    4.3194879    4.3194879   -5424.2339   -39011.071    32467.703   -9729.3333    4002.4235    -11080.53    1886.7444    80.592901 
   80000    747.26493   -113.63829   0.67614102   -112.96215   -20346.366    4.3264728    4.3264728    4.3264728   -20346.366   -61416.334    21757.449   -21380.213   -1092.4756   -18101.711   -36364.152    80.984504 
   80100    1615.7701   -114.40737    1.4619827   -112.94539    -10369.58    4.3249263    4.3249263    4.3249263    -10369.58   -60330.715    16481.546    12740.429   -11795.345    7355.8815    9521.7077    80.897691 
   80200    1110.1703   -113.95639    1.0045054   -112.95188   -902.48774    4.3192217    4.3192217    4.3192217   -902.48774   -51840.581    57176.348   -8043.2297   -9323.7387   -7348.0036    14865.229    80.578001 
   80300    991.73002   -113.85421   0.89733816   -112.95687    1917.5765    4.3198651    4.3198651    4.3198651    1917.5765   -18917.125    60712.283   -36042.429   -4704.8493   -18639.932   -34014.137    80.614014 
   80400    1791.9125    -114.5618    1.6213601   -112.94044      5895.39    4.3285353    4.3285353    4.3285353      5895.39   -10271.952    32643.952     -4685.83   -7612.6692    2622.0501   -7160.8231    81.100383 
   80500    1508.3159   -114.30976    1.3647559   -112.94501    -22853.44    4.3339041    4.3339041    4.3339041    -22853.44   -38941.613    1332.0741   -30950.783   -9400.5862   -7384.3184    30221.353    81.402525 
   80600    1053.4736   -113.91053   0.95320504   -112.95732   -23446.538    4.3189898    4.3189898    4.3189898   -23446.538   -4534.4216   -12453.746   -53351.447   -6740.3274   -19917.816   -27801.619    80.565021 
   80700     1993.977   -114.75517    1.8041923   -112.95098     16835.64    4.3033029    4.3033029    4.3033029     16835.64    30015.308    11623.317    8868.2947    9456.3367    2515.5658   -30882.354     79.69035 
   80800    1900.0446    -114.6795    1.7192003    -112.9603   -12027.402    4.3255121    4.3255121    4.3255121   -12027.402   -4973.8811   -6156.0598   -24952.265   -1838.3147   -7602.7418    20916.401    80.930567 
   80900     1381.007   -114.21029    1.2495641   -112.96073   -17139.209    4.3309578    4.3309578    4.3309578   -17139.209   -4198.1177   -895.36738   -46324.143   -10595.878   -30069.608   -1362.7875     81.23662 
   81000    1801.8001   -114.57593    1.6303066   -112.94562    15458.699    4.3215143    4.3215143    4.3215143    15458.699    21600.293    11304.047    13471.758    20425.489   -2794.1311     -19034.7    80.706377 
   81100    1894.9281   -114.65465    1.7145708   -112.94008   -15829.468     4.327748     4.327748     4.327748   -15829.468    -26705.01   -13225.524   -7557.8685    18591.859   -567.70286    5311.2781    81.056134 
   81200    1570.5666   -114.36587    1.4210816   -112.94479    -1687.675    4.3170884    4.3170884    4.3170884    -1687.675    -15767.65    33368.787   -22664.162   -14713.568   -21469.566    7884.7328    80.458665 
   81300    1900.2663    -114.6619    1.7194009    -112.9425    7546.1778    4.3203253    4.3203253    4.3203253    7546.1778   -6849.4577   -3185.0198    32673.011    13128.771    405.90402   -7425.1597    80.639781 
   81400    1846.6902   -114.61078    1.6709241   -112.93985   -24311.492    4.3364922    4.3364922    4.3364922   -24311.492   -44380.615   -41256.374    12702.514    23882.601     -7119.99   -5035.3265     81.54845 
   81500    1150.8769   -113.98791    1.0413376   -112.94657    2312.3029    4.3190423    4.3190423    4.3190423    2312.3029   -39622.294    33679.322    12879.881   -5098.8702   -24447.572    7904.4313    80.567959 
   81600    1550.2883   -114.35066    1.4027334   -112.94792    17694.609    4.3118337    4.3118337    4.3118337    17694.609   -22699.516    34106.197    41677.148   -2659.2453    13300.056    7994.7783    80.165225 
   81700    2155.2719   -114.89085    1.9501353   -112.94072   -2081.0035    4.3259944    4.3259944    4.3259944   -2081.0035   -30366.368   -5701.1311    29824.489    5122.5573   -2024.5136   -9628.1149    80.957643 
   81800    1053.6962    -113.9116   0.95340642    -112.9582   -7026.7163    4.3260418    4.3260418    4.3260418   -7026.7163   -66427.891     46826.74   -1478.9979   -3757.3792    -36561.62     1297.124    80.960307 
   81900    1017.5304   -113.87372   0.92068292   -112.95303   -11633.532    4.3271977    4.3271977    4.3271977   -11633.532   -63253.146     37756.37   -9403.8201   -18082.025    19439.173    11108.241    81.025217 
   82000    1776.4465   -114.54445    1.6073662   -112.93708   -3472.9426    4.3202949    4.3202949    4.3202949   -3472.9426    -27919.89    8449.9264    9051.1359    330.01997    8665.0561   -19925.767    80.638078 
   82100    1230.4803    -114.0611    1.1133644   -112.94773     744.0454    4.3162366    4.3162366    4.3162366     744.0454   -44558.063    54086.604    -7296.404    14100.351   -30964.094   -18032.092    80.411051 
   82200    1332.0285   -114.15427    1.2052474   -112.94902   -14828.771    4.3264727    4.3264727    4.3264727   -14828.771   -72696.282    54671.552   -26461.582   -2340.6588    15689.286    20552.627    80.984499 
   82300     1630.726   -114.41596    1.4755152   -112.94045   -7878.4881    4.3285764    4.3285764    4.3285764   -7878.4881   -44498.707    13144.499     7718.744    1478.6891    11774.184   -5217.6039    81.102693 
   82400    1350.3628   -114.16542    1.2218367   -112.94358     934.5166    4.3232546    4.3232546    4.3232546     934.5166   -10265.718    12724.452    344.81559    3921.8478   -22225.371   -28545.191    80.803921 
   82500     1766.524   -114.53797     1.598388   -112.93958   -681.76062    4.3182217    4.3182217    4.3182217   -681.76062   -35826.362     48460.27    -14679.19   -4515.1788    19494.939     22722.21    80.522046 
   82600    1706.1923   -114.48655    1.5437987   -112.94275    7385.7781    4.3163847    4.3163847    4.3163847    7385.7781   -29175.217    20663.107    30669.444   -4246.9877    15704.304   -10847.944    80.419325 
   82700    1556.5796   -114.36263    1.4084259    -112.9542   -10663.354    4.3247926    4.3247926    4.3247926   -10663.354    -4134.683    -25562.24   -2293.1392    13158.546   -10591.077   -59948.454    80.890187 
   82800    1911.0454   -114.67309    1.7291541   -112.94394    10051.118    4.3234347    4.3234347    4.3234347    10051.118   -4107.7739    21837.945    12423.183     10330.79    13405.062    9962.7931    80.814019 
   82900    1700.2471   -114.48246    1.5384193   -112.94404    -514.1532    4.3240682    4.3240682    4.3240682    -514.1532    5557.5682   -10060.521    2960.4932   -2506.0999    8252.0454    1657.3743    80.849552 
   83000    1378.9965   -114.19555     1.247745   -112.94781   -18208.666     4.323382     4.323382     4.323382   -18208.666    30239.765   -55929.641   -28936.123     4098.994   -5938.4368   -67662.204    80.811064 
   83100    1931.2386   -114.68744    1.7474252   -112.94002    20898.676    4.3136116    4.3136116    4.3136116    20898.676    17422.588    6656.7488    38616.692    7055.7983    2467.7898   -2586.7611    80.264429 
   83200    1603.6221   -114.40203    1.4509909   -112.95104    3764.2517     4.322212     4.322212     4.322212    3764.2517    22476.295   -27627.979     16444.44   -7350.5246    7292.5929    3781.0423    80.745475 
   83300    1025.3805    -113.8825   0.92778586   -112.95471    -12711.04    4.3290595    4.3290595    4.3290595    -12711.04    39787.515   -71813.815   -6106.8198    1159.1146    7720.4364   -51935.234    81.129849 
   83400    1654.9095   -114.43958    1.4973969   -112.94219      15250.8    4.3197107    4.3197107    4.3197107      15250.8    22763.752   -17605.592     40594.24    6668.4742   -25889.049   -3042.9216     80.60537 
   83500    1665.0045   -114.44798    1.5065311   -112.94145    15970.536     4.317782     4.317782     4.317782    15970.536    30428.638   -8932.9793    26415.949   -4404.6496   -18077.652   -1142.5364    80.497453 
   83600    1168.5762   -114.00752    1.0573523   -112.95017   -2500.1979    4.3242087    4.3242087    4.3242087   -2500.1979    51334.109   -53154.221   -5680.4819    1810.1653    19118.869   -47766.926     80.85743 
   83700    1588.0428   -114.37604    1.4368945   -112.93915   -6978.1347    4.3261879    4.3261879    4.3261879   -6978.1347   -5456.4122   -22726.156    7248.1638   -704.60874   -21202.946    4033.5139    80.968508 
   83800    1408.7089   -114.21591    1.2746294   -112.94128   -268.13043    4.3214777    4.3214777    4.3214777   -268.13043    10566.841   -4962.3939   -6408.8381   -3155.3907   -40235.957    2530.5782    80.704328 
   83900    1299.5187   -114.11944    1.1758319   -112.94361    12884.587    4.3149914    4.3149914    4.3149914    12884.587    46610.796   -37612.435      29655.4   -3253.9287    7315.3805   -52808.081    80.341474 
   84000    1421.4358   -114.23334    1.2861449    -112.9472    8975.6978    4.3205071    4.3205071    4.3205071    8975.6978   -3028.1185   -4999.7146    34954.926   -1886.3664   -13880.227   -2124.1889    80.649962 
   84100     1171.895   -114.01379    1.0603552   -112.95343    552.42835     4.322421     4.322421     4.322421    552.42835   -21507.593    33820.202   -10655.324    6869.4931   -38633.823    12805.634    80.757188 
   84200    1487.0575   -114.29395    1.3455209   -112.94843    9997.5755    4.3196528    4.3196528    4.3196528    9997.5755     27616.04   -6847.6952    9224.3812    5327.0352    4640.9485   -30148.026     80.60213 
   84300    1799.0016   -114.56924    1.6277745   -112.94147   -8632.5366    4.3270013    4.3270013    4.3270013   -8632.5366    -14749.84   -6936.0326   -4211.7372    2094.5987    -9909.436   -5667.2974    81.014189 
   84400    998.42218   -113.85756   0.90339337   -112.95417   -16099.222    4.3187058    4.3187058    4.3187058   -16099.222   -42915.696    37271.455   -42653.426    1858.6263    -37749.83    18589.616    80.549128 
   84500    1500.3931   -114.31188    1.3575872    -112.9543    15055.204    4.3169886    4.3169886    4.3169886    15055.204    -438.6033    22690.253    22913.962   -3755.3239    14138.209    -11353.54    80.453085 
   84600    2176.7318   -114.90729    1.9695527   -112.93774     703.8674    4.3270914    4.3270914    4.3270914     703.8674   -18595.303    11738.267    8968.6372    2168.7083   -7867.7417   -13630.251    81.019248 
   84700    950.91338   -113.81243   0.86040641   -112.95202   -6833.3898    4.3227807    4.3227807    4.3227807   -6833.3898   -43507.023    37712.672   -14705.819    5110.8378   -42754.781    19648.988     80.77735 
   84800    1756.3782   -114.53626    1.5892079   -112.94706   -9482.3829    4.3233746    4.3233746    4.3233746   -9482.3829   -30056.321    16886.031   -15276.858    948.87818    25932.129    5723.1317     80.81065 
   84900    2293.1146   -115.00789    2.0748583   -112.93304    -1098.585    4.3250159    4.3250159    4.3250159    -1098.585   -25207.054    23429.521   -1518.2227     11432.81    1428.6876   -6226.7044    80.902722 
   85000    1334.6344   -114.15649    1.2076053   -112.94889   -9526.4917    4.3240237    4.3240237    4.3240237   -9526.4917    -31795.44    41607.684   -38391.719    302.30241   -48795.626    14361.317    80.847051 
   85100    2047.4356   -114.79926    1.8525627    -112.9467    -661.3755    4.3221672    4.3221672    4.3221672    -661.3755   -27506.393    29757.861   -4235.5951    -1522.516    3688.9859    18008.106    80.742963 
   85200    2519.6786   -115.22203    2.2798582   -112.94218    20513.417    4.3150664    4.3150664    4.3150664    20513.417     -3914.96    44716.184    20739.028    1745.4695    8186.0139   -11331.982    80.345663 
   85300    1140.4865   -113.99943    1.0319361   -112.96749    11636.203    4.3133007    4.3133007    4.3133007    11636.203   -19115.344    65331.388   -11307.436    522.75358   -43963.987   -3148.5993    80.247077 
   85400    1681.3023   -114.48085    1.5212777   -112.95957   -13936.932    4.3338928    4.3338928    4.3338928   -13936.932   -29147.223    17920.481   -30584.054    12376.793   -16228.671    26493.257    81.401893 
   85500    2307.5696    -115.0152    2.0879375   -112.92726   -4956.1923    4.3355667    4.3355667    4.3355667   -4956.1923   -15874.511    2212.1705    -1206.236    2844.6679    13265.377    -7784.493    81.496246 
   85600    942.27388    -113.7907   0.85258921   -112.93811    360.25505    4.3195837    4.3195837    4.3195837    360.25505   -17768.723    47801.591   -28952.103   -531.71628   -47232.315   -959.19033     80.59826 
   85700     1501.908   -114.29079    1.3589579   -112.93184     8637.794     4.315592     4.315592     4.315592     8637.794    1885.0105    36116.772   -12088.401   -675.31659   -25966.738    18117.764    80.375031 
   85800    1893.0915    -114.6431     1.712909   -112.93019    6116.0048    4.3222015    4.3222015    4.3222015    6116.0048   -19602.057      22315.6    15634.472   -5108.9645    28290.772   -8424.0485    80.744888 
   85900    966.82928   -113.82116   0.87480745   -112.94635   -16493.725    4.3314739    4.3314739    4.3314739   -16493.725   -49293.989    48632.091   -48819.277    1379.1001    -34955.44   -6486.9638     81.26567 
   86000    1790.3869   -114.55361    1.6199797   -112.93363   -2404.4079    4.3250498    4.3250498    4.3250498   -2404.4079   -9647.3096    22528.944   -20094.858    338.57083   -33715.065    9133.1037     80.90462 
   86100    1903.5941   -114.65439     1.722412   -112.93198    24265.478    4.3138375    4.3138375    4.3138375    24265.478    6208.4276    37564.008        29024   -3719.1415    37678.442    -5071.153    80.277036 
   86200    924.64199   -113.79067   0.83663551   -112.95404    -11905.22    4.3223199    4.3223199    4.3223199    -11905.22   -54150.239    60410.067   -41975.487   -3865.6143   -33046.862   -9931.8399    80.751523 
   86300    1803.8021   -114.57581     1.632118   -112.94369   -2480.8332    4.3270749    4.3270749    4.3270749   -2480.8332    -20400.85    15051.605   -2093.2553   -2916.7579   -39261.231   -7506.8792    81.018321 
   86400    2259.4506    -114.9795    2.0443983    -112.9351    14338.301    4.3212233    4.3212233    4.3212233    14338.301   -10532.402    13958.815     39588.49    1134.2001     26619.51    1656.2226    80.690074 
   86500    993.29534   -113.85761    0.8987545   -112.95886    -4668.787    4.3189004    4.3189004    4.3189004    -4668.787   -67646.744    65052.283   -11411.899    -3355.328   -38161.109   -3852.6222     80.56002 
   86600    1645.1979   -114.44209    1.4886096   -112.95348   -1152.9977    4.3196305    4.3196305    4.3196305   -1152.9977   -47859.049    49419.833   -5019.7773   -230.14719   -27794.535   -6613.9216    80.600884 
   86700    2428.5659   -115.13474    2.1974174   -112.93732    3616.9162    4.3238971    4.3238971    4.3238971    3616.9162   -16340.007     -1602.68    28793.435    881.68431    3284.1047   -6069.7892    80.839954 
   86800    810.47355   -113.68862    0.7333335   -112.95529   -13292.218    4.3281168    4.3281168    4.3281168   -13292.218   -65648.389    50928.769   -25157.034    4578.0652   -46487.401    10333.627     81.07686 
   86900    1408.4118   -114.21913    1.2743606   -112.94477    185.21545     4.319861     4.319861     4.319861    185.21545   -58511.609     44809.73    14257.526    2579.7535    12196.957   -8494.7114    80.613788 
   87000    2096.1917   -114.82899    1.8966783   -112.93231    10072.984    4.3165665    4.3165665    4.3165665    10072.984   -32290.133    14671.386      47837.7     235.2761    9740.1798   -9819.9603    80.429486 
   87100    1083.2608   -113.93431   0.98015711   -112.95415   -10479.875    4.3191273    4.3191273    4.3191273   -10479.875   -72738.439    48330.203   -7031.3899    1856.6048   -50034.968    12075.407    80.572719 
   87200    1160.0553   -114.00278    1.0496424   -112.95314    4354.1896    4.3229501    4.3229501    4.3229501    4354.1896   -62402.408    66752.877       8712.1     6981.281     12854.11   -611.43951     80.78685 
   87300    1862.6983   -114.62226    1.6854086   -112.93685    10450.291    4.3270776    4.3270776    4.3270776    10450.291   -17421.103    22657.181    26114.797   -1436.6698    13614.735   -4591.8197    81.018473 
   87400    1115.3072   -113.95592    1.0091534   -112.94677    1603.6891    4.3217897    4.3217897    4.3217897    1603.6891   -47052.227    58686.698   -6823.4031   -2256.3202   -42934.629   -6318.1307     80.72181 
   87500    1321.8114   -114.14062    1.1960027   -112.94461    11327.277    4.3169738    4.3169738    4.3169738    11327.277   -43532.521     79429.04   -1914.6877    5353.4037    8098.6451    10994.751    80.452256 
   87600    1936.3971   -114.68861    1.7520928   -112.93651    12129.562    4.3205658    4.3205658    4.3205658    12129.562   -6340.2719    48311.886   -5582.9271   -3998.5464    14575.261   -5619.0484    80.653251 
   87700    947.45048   -113.80985    0.8572731   -112.95257    3149.9649    4.3249863    4.3249863    4.3249863    3149.9649   -2896.4391    37541.703   -25195.369    2882.9471   -38847.689   -20265.415    80.901062 
   87800    1203.1372   -114.03356    1.0886238   -112.94494    5028.5098     4.326445     4.326445     4.326445    5028.5098   -1779.7156    11153.748    5711.4971    5982.3214   -11185.605     26576.97    80.982944 
   87900    1876.1888   -114.62842     1.697615    -112.9308    4326.2283    4.3189885    4.3189885    4.3189885    4326.2283    13924.092    5523.9047   -6469.3121   -3405.9498    8262.3985   -8288.9198    80.564948 
   88000    800.26282   -113.67387   0.72409462   -112.94978   -17236.682    4.3195932    4.3195932    4.3195932   -17236.682    2866.8375   -13404.143   -41172.741   -131.21418   -34429.404   -40328.438    80.598796 
   88100     1231.252   -114.06183    1.1140627   -112.94777   -15510.673    4.3208701    4.3208701    4.3208701   -15510.673   -4890.1924   -17721.963   -23919.862   -6255.2647   -21246.794    17649.051    80.670292 
   88200    1798.4212   -114.56305    1.6272493    -112.9358    18280.557    4.3173763    4.3173763    4.3173763    18280.557    26656.604   -20950.808    49135.877    4505.3218    15014.637    3753.4659    80.474765 
   88300    723.45134   -113.60818   0.65459397   -112.95358   -30830.199    4.3278497    4.3278497    4.3278497   -30830.199   -5398.8388   -44544.239   -42547.519    7428.7123   -29947.197    -50207.87    81.061849 
   88400    1167.4867   -114.00407    1.0563665    -112.9477   -14734.166    4.3212086    4.3212086    4.3212086   -14734.166   -13558.045   -15639.031   -15005.423   -3535.4301   -39358.683     3878.872    80.689255 
   88500    2002.0788   -114.74252     1.811523   -112.93099    16282.412    4.3142839    4.3142839    4.3142839    16282.412    28018.139   -24189.091    45018.189     6327.885    14188.637    6707.0087    80.301964 
   88600    654.17532   -113.54973   0.59191158   -112.95782   -21984.871    4.3238238    4.3238238    4.3238238   -21984.871    4.6426082   -38971.195   -26988.061   -546.72563   -22249.909   -46698.634    80.835844 
   88700    1018.1407   -113.87691   0.92123511   -112.95567   -4082.1621    4.3193172    4.3193172    4.3193172   -4082.1621   -10706.289   -12883.685    11343.487     56.79158   -37520.186   -7301.2863    80.583348 
   88800    1946.6278   -114.69978    1.7613498   -112.93843   -838.42571     4.322801     4.322801     4.322801   -838.42571    8052.2661   -39705.076    29137.533   -1361.7094    12902.869    6484.7244    80.778492 
   88900    889.37541   -113.75442   0.80472556    -112.9497    -4351.231    4.3237928    4.3237928    4.3237928    -4351.231    12447.154   -20266.451   -5234.3956   -2644.5919   -13798.654   -34570.474      80.8341 
   89000    1363.6984   -114.17768    1.2339029   -112.94378   -739.39639     4.317844     4.317844     4.317844   -739.39639   -18611.488    12803.431    3589.8688    5970.6843   -34413.275   -11247.865    80.500922 
   89100    1852.6677   -114.61067    1.6763327   -112.93434    3431.4985    4.3220765    4.3220765    4.3220765    3431.4985    18485.975   -20812.687    12621.208   -15345.727    2355.3227    19718.367    80.737879 
   89200    1260.6144   -114.08706    1.1406304   -112.94643   -4942.5025     4.320911     4.320911     4.320911   -4942.5025     19144.84   -17723.707    -16248.64   -11061.588   -420.04901   -12591.151    80.672583 
   89300    1575.7537   -114.37055     1.425775   -112.94478    10818.739    4.3204505    4.3204505    4.3204505    10818.739     4943.444     37237.05   -9724.2761    16852.855   -25623.755   -20856.502    80.646794 
   89400    2036.3325   -114.77808    1.8425164   -112.93556    1461.9165    4.3257472    4.3257472    4.3257472    1461.9165    13439.784    6479.1718   -15533.206   -405.82632   -4362.1378    11286.827    80.943767 
   89500    1353.5462   -114.17192    1.2247171    -112.9472    11314.637    4.3185703    4.3185703    4.3185703    11314.637    38252.434    20578.096   -24886.619   -13908.662    15445.535   -11391.994    80.541548 
   89600    1721.3908   -114.50123    1.5575506   -112.94368    23925.174    4.3172529    4.3172529    4.3172529    23925.174    26885.166    46127.294   -1236.9373   -5408.1301   -5170.3138   -22199.932    80.467864 
   89700    1919.4781   -114.67577    1.7367841   -112.93899    1135.5993    4.3269301    4.3269301    4.3269301    1135.5993    1540.9246    15590.252   -13724.379    32665.975   -5123.0407    14239.936     81.01019 
   89800    1318.8544   -114.13692    1.1933271   -112.94359   -12072.265    4.3283734    4.3283734    4.3283734   -12072.265    6112.9937    13180.381   -55510.168    8359.0544    18118.268   -2857.0603    81.091283 
   89900    1604.2453   -114.38676    1.4515548    -112.9352    4457.3786    4.3208751    4.3208751    4.3208751    4457.3786    17860.005    28155.271    -32643.14   -7167.8973    3423.2834   -18289.146    80.670574 
   90000    1577.8848   -114.36575    1.4277033   -112.93804    1477.5805    4.3154273    4.3154273    4.3154273    1477.5805   -20130.353   -1954.2375    26517.332    51179.965   -1273.9129    784.75172    80.365825 
   90100    1462.1904   -114.26735    1.3230206   -112.94433    -4919.842    4.3158228    4.3158228    4.3158228    -4919.842    15715.269   -12896.967   -17577.828    124.51256    3754.1708     2246.233    80.387925 
   90200    1305.5833   -114.12812    1.1813192    -112.9468   -8268.2206    4.3252662    4.3252662    4.3252662   -8268.2206    6695.0309    -401.9773   -31097.715     549.1706    9421.2279   -16667.406    80.916767 
   90300    1089.6588   -113.93177   0.98594618   -112.94582   -19083.946    4.3309897    4.3309897    4.3309897   -19083.946   -24345.358   -37359.176    4452.6956     68002.52   -2288.1964    2667.1305    81.238417 
   90400    1467.4857   -114.26417    1.3278119   -112.93636    -245.3587    4.3192641    4.3192641    4.3192641    -245.3587    19574.401     -21281.2    970.72271   -539.46829   -12576.087    8645.2592    80.580376 
   90500    1267.7583   -114.08241    1.1470943   -112.93531    9187.7041    4.3105938    4.3105938    4.3105938    9187.7041    24078.271   -8649.5997    12134.441   -4200.5452     12763.11   -22510.074    80.096089 
   90600    633.47049   -113.52879   0.57317741   -112.95561   -5978.7683    4.3205073    4.3205073    4.3205073   -5978.7683   -2618.1007   -49262.409    33944.205    62821.345    3526.8005   -6012.3202    80.649972 
   90700    1627.5676   -114.41284    1.4726574   -112.94018   -4460.5789    4.3290149    4.3290149    4.3290149   -4460.5789    2720.1369   -9502.9274   -6598.9463   -1130.4638    -15029.24    2904.7889     81.12734 
   90800    1525.8418   -114.31949    1.3806137   -112.93888    2174.4498    4.3203558    4.3203558    4.3203558    2174.4498   -278.86589   -11708.556    18510.771    10602.768    4116.9331   -3847.5409    80.641491 
   90900    798.16281   -113.67466   0.72219449   -112.95247   -1510.2784     4.318217     4.318217     4.318217   -1510.2784   -11747.292     -51522.3    58738.757    54820.982    13586.448   -638.22206    80.521785 
   91000    2022.1939   -114.76795    1.8297235   -112.93822   -2986.3379    4.3214655    4.3214655    4.3214655   -2986.3379   -12642.837   -6252.0744    9935.8976   -13907.087   -4183.7408   -12088.504    80.703644 
   91100     1822.187   -114.59102    1.6487531   -112.94226    9963.2114    4.3200294    4.3200294    4.3200294    9963.2114   -3528.5925    13444.417     19973.81    14549.795   -6798.5449    6971.8683    80.623214 
   91200    1338.5076   -114.16106    1.2111098   -112.94995   -11809.231    4.3286817    4.3286817    4.3286817   -11809.231   -25510.934    -30160.47     20243.71    51323.415     20849.59   -12025.024    81.108607 
   91300    2202.1464   -114.92402    1.9925484   -112.93147   -6380.8869    4.3269053    4.3269053    4.3269053   -6380.8869   -22162.966   -6886.4305     9906.736   -26202.462   -1018.5269   -7163.8579    81.008795 
   91400    2029.6118   -114.76806    1.8364354   -112.93163    2441.9987    4.3178408    4.3178408    4.3178408    2441.9987   -12689.906   -7023.9107    27039.812    8213.8455   -6274.1463    18291.515    80.500743 
   91500    1483.4788   -114.28378    1.3422828   -112.94149   -18273.631    4.3270694    4.3270694    4.3270694   -18273.631    -26818.49   -35339.227    7336.8251     59084.75    16672.329   -4450.9565    81.018012 
   91600    1852.1766   -114.61137    1.6758883   -112.93548   -15155.528    4.3260373    4.3260373    4.3260373   -15155.528   -4979.0195     -23497.4   -16990.165    -19269.33    6256.2443   -22952.154    80.960054 
   91700    1728.6594   -114.50059    1.5641274   -112.93647    2772.8205    4.3138969    4.3138969    4.3138969    2772.8205    926.06462   -15844.163     23236.56    1112.6593   -3468.7988   -5074.7587    80.280358 
   91800    1182.4061   -114.01861    1.0698659   -112.94874   -10837.286    4.3192834    4.3192834    4.3192834   -10837.286   -1886.8587   -62730.243    32105.243    52880.761   -6141.1961    10325.473    80.581452 
   91900    1424.8822   -114.23362    1.2892634   -112.94436   -18195.292    4.3265287    4.3265287    4.3265287   -18195.292    34833.821   -67429.007    -21990.69   -8888.2608    8747.7686   -36825.382    80.987646 
   92000    1375.2956   -114.18169    1.2443963   -112.93729   -14199.905    4.3227798    4.3227798    4.3227798   -14199.905    16710.543   -61832.582    2522.3243      13197.5    297.19296   -11358.872      80.7773 
   92100    916.65855   -113.77058   0.82941192   -112.94117   -5203.2751    4.3219248    4.3219248    4.3219248   -5203.2751    3007.0724   -45244.667    26627.769    52725.938   -213.77958    5375.1757    80.729378 
   92200    1368.4774   -114.17361    1.2382271   -112.93538   -8679.2816    4.3227018    4.3227018    4.3227018   -8679.2816    39764.174   -49643.029    -16158.99   -13021.545    5976.3192    -52583.86    80.772929 
   92300    1231.2412   -114.05043    1.1140529   -112.93637    5627.4249    4.3165704    4.3165704    4.3165704    5627.4249    37450.905   -54927.983    34359.353    26275.751   -3133.2247   -14074.018    80.429708 
   92400    1159.8066    -113.9952    1.0494174   -112.94578   -9520.5005    4.3224778    4.3224778    4.3224778   -9520.5005    5521.3872   -57097.543    23014.654    49053.957    1735.8744    12394.247    80.760375 
   92500    1635.1023   -114.41628    1.4794749   -112.93681   -14973.138    4.3298605    4.3298605    4.3298605   -14973.138     11669.33   -22690.781   -33897.962   -28263.949   -654.99142   -23864.233    81.174893 
   92600     1390.278   -114.19597    1.2579527   -112.93801    5313.2437    4.3156826    4.3156826    4.3156826    5313.2437    26469.761   -24228.109    13698.079    32195.017   -5828.9017   -11983.724    80.380093 
   92700    1411.6624   -114.22138    1.2773018   -112.94408    5151.9964    4.3159844    4.3159844    4.3159844    5151.9964    -8486.323   -18227.279    42169.591    52176.474    4598.1278    4284.9157    80.396956 
   92800    1848.8077   -114.60795      1.67284   -112.93511   -17551.887    4.3305033    4.3305033    4.3305033   -17551.887   -18697.891    -16425.82   -17531.951   -43705.034   -1294.9253   -14994.986    81.211051 
   92900     1394.229   -114.19689    1.2615277   -112.93536   -1893.9929    4.3245666    4.3245666    4.3245666   -1893.9929   -9547.6578   -1909.6223    5775.3014    25167.945    1166.4181   -20375.755    80.877507 
   93000    1659.5458   -114.43535    1.5015919   -112.93376    330.37423     4.321562     4.321562     4.321562    330.37423   -15292.649     5161.922     11121.85    48161.138     1959.011    11506.974    80.709054 
   93100    1855.4259    -114.6092    1.6788284   -112.93037     737.0353    4.3199274    4.3199274    4.3199274     737.0353   -13728.914    11255.351     4684.669   -47565.416   -3074.2886    5287.8266    80.617502 
   93200    1166.9956   -113.99861    1.0559222   -112.94269    11402.522    4.3171872    4.3171872    4.3171872    11402.522     132.4807    10024.068    24051.017    16069.161    4162.4171    -13983.03    80.464189 
   93300     1590.601   -114.37994    1.4392092   -112.94073   -14183.367    4.3285625    4.3285625    4.3285625   -14183.367   -14727.393   -22566.223   -5256.4857    51609.254    5458.6929    5250.8384     81.10191 
   93400     1459.656    -114.2548    1.3207274   -112.93407   -12953.558    4.3280121    4.3280121    4.3280121   -12953.558   -1887.5393   -27964.289   -9008.8451   -44851.881    840.85956   -299.27831    81.070976 
   93500    1053.0579   -113.89227   0.95282893   -112.93944    -109.0572    4.3165791    4.3165791    4.3165791    -109.0572    12325.987   -19536.027    6882.8689   -10125.237     6222.038   -17123.545    80.430194 
   93600    1349.0064   -114.16074    1.2206093   -112.94013      17859.7    4.3170068    4.3170068    4.3170068      17859.7    28059.217   -896.91046    26416.794    41439.802   -1479.1571   -3736.7597    80.454102 
   93700    1208.0977   -114.03738    1.0931122   -112.94427   -8427.2098    4.3250688    4.3250688    4.3250688   -8427.2098    18008.158   -44168.071    878.28338   -34598.437   -2275.1085    23602.725    80.905689 
   93800    891.27051   -113.75585   0.80644029   -112.94941   -4736.6648    4.3256061    4.3256061    4.3256061   -4736.6648    13270.257    -37429.64    9949.3891   -32484.441    1450.5442   -8885.3779    80.935847 
   93900    1645.1683   -114.42097    1.4885828   -112.93238    13495.834     4.323379     4.323379     4.323379    13495.834    24802.461   -585.12641    16270.168    23827.022   -2071.6248   -18798.683    80.810898 
   94000    1195.5777   -114.01995    1.0817838   -112.93817    11746.275    4.3221563    4.3221563    4.3221563    11746.275    35175.564   -14100.519    14163.779   -20165.924     8825.556    42461.171    80.742353 
   94100    1179.1713   -114.00902     1.066939   -112.94208    3413.1844    4.3236752    4.3236752    4.3236752    3413.1844    13960.138   -34696.047    30975.462   -24323.413   -5705.3974   -4008.0311    80.827507 
   94200     1916.095   -114.66178     1.733723   -112.92805    6721.7601    4.3291318    4.3291318    4.3291318    6721.7601    11559.655   -8579.0633    17184.689    4427.8018   -4233.6082   -22289.641    81.133912 
   94300    1719.7188   -114.49266    1.5560377   -112.93663    2132.9132    4.3209861    4.3209861    4.3209861    2132.9132    23740.662   -12412.298   -4929.6247   -8926.9294    7929.9607    47281.333    80.676788 
   94400    1319.1763   -114.14087    1.1936184   -112.94725    16955.771    4.3142521    4.3142521    4.3142521    16955.771    2454.2347    6202.7845    42210.294   -30208.029   -11470.311    5078.0146    80.300186 
   94500     2302.496    -115.0244    2.0833468   -112.94105   -3190.8582    4.3231248    4.3231248    4.3231248   -3190.8582   -19600.885    10000.744    27.566029   -5373.7202    335.24063    -14184.12    80.796644 
   94600    1656.1912   -114.44653    1.4985566   -112.94797    2487.5986    4.3241197    4.3241197    4.3241197    2487.5986   -167.71644   -6934.9159    14565.428    11198.282    5765.9991    35725.994    80.852436 
   94700    1381.6345   -114.19792     1.250132   -112.94778   -5498.8044    4.3258172    4.3258172    4.3258172   -5498.8044   -38251.135   -4786.7751    26541.497   -41250.688    6836.7024    13689.814    80.947697 
   94800    2302.7333   -115.01141    2.0835615   -112.92785    1084.7887    4.3300816    4.3300816    4.3300816    1084.7887   -28259.104    19088.927    12424.543   -8918.9925    5010.4015   -20929.617    81.187326 
   94900    1429.8853   -114.23115    1.2937903   -112.93736    1070.6499    4.3246834    4.3246834    4.3246834    1070.6499   -3054.9864   -4024.2748    10291.211    19667.648   -5628.8408    23755.144    80.884061 
   95000    993.67883   -113.84041   0.89910148   -112.94131   -8751.5544    4.3226145    4.3226145    4.3226145   -8751.5544   -56041.874   -12065.046    41852.256   -37913.916    7767.4236    26971.436    80.768033 
   95100     2053.396   -114.79051    1.8579559   -112.93255   -8572.4747    4.3219307    4.3219307    4.3219307   -8572.4747   -29428.981   -7697.1214    11408.678   -10693.075   -2309.1277   -24737.448     80.72971 
   95200    1261.9758   -114.08824    1.1418622   -112.94638   -2003.9897    4.3181992    4.3181992    4.3181992   -2003.9897    13040.544   -33732.926    14680.413    15426.094    7759.7731    7841.1319    80.520786 
   95300    1153.4001   -113.99777    1.0436206   -112.95415   -15243.171    4.3209231    4.3209231    4.3209231   -15243.171   -36880.107   -40136.513    31287.107   -22999.906    2005.6336    27550.377    80.673259 
   95400    1783.2408   -114.55083    1.6135137   -112.93732   -7087.1925    4.3279604    4.3279604    4.3279604   -7087.1925   -21776.713   -26143.846    26658.982   -9794.1316   -3527.0345   -26365.724    81.068072 
   95500    1117.1887   -113.94957    1.0108558   -112.93872   -24262.778    4.3284236    4.3284236    4.3284236   -24262.778    10464.582   -74207.511   -9045.4046    12025.727    5299.8528    -19849.23    81.094101 
   95600    1232.9857   -114.05293    1.1156313    -112.9373   -17210.697    4.3210238    4.3210238    4.3210238   -17210.697   -2959.6653   -57694.644    9022.2182     -10926.3   -8683.6728    36753.531    80.678899 
   95700    1854.2912   -114.60761    1.6778016   -112.92981    9161.9892    4.3193202    4.3193202    4.3193202    9161.9892    22427.779   -17610.269    22668.457   -5404.1479    4199.5751   -13721.176    80.583513 
   95800     1147.127    -113.9822    1.0379446   -112.94425   -4548.0335    4.3216417    4.3216417    4.3216417   -4548.0335    35100.263   -47979.634   -764.73015    6216.6888    7320.5401   -34409.892    80.713517 
   95900    1087.9444   -113.93365   0.98439497   -112.94926   -7075.8828    4.3242402    4.3242402    4.3242402   -7075.8828    15248.063   -37884.477    1408.7647   -1830.2913   -14530.508    49986.031      80.8592 
   96000    2180.9681   -114.90548    1.9733858   -112.93209   -3013.8679    4.3238571    4.3238571    4.3238571   -3013.8679    692.14148   -9748.5862    14.840952   -6512.8482    12327.854   -10699.751     80.83771 
   96100    1187.7909   -114.01943    1.0747381   -112.94469    5433.3626    4.3206962    4.3206962    4.3206962    5433.3626     42630.98   -44738.117    18407.225    1001.2701    1230.9001   -33058.699    80.660552 
   96200    1230.8367   -114.06169     1.113687   -112.94801    88.368515    4.3209092    4.3209092    4.3209092    88.368515    31083.862   -28099.495   -2719.2615    7582.5737   -7515.8798    36466.987    80.672481 
   96300    2269.5574   -114.98473    2.0535432   -112.93118     6903.095    4.3196874    4.3196874    4.3196874     6903.095    8292.8649    7037.6118    5378.8084   -5869.5663    13981.765     8469.161    80.604065 
   96400    1271.1812   -114.09738    1.1501915   -112.94719    3070.9905    4.3223342    4.3223342    4.3223342    3070.9905     20052.92   -32367.463    21527.514   -1729.0368   -173.34703   -21389.862    80.752326 
   96500    1591.9594   -114.38423    1.4404383   -112.94379   -8323.1315    4.3267581    4.3267581    4.3267581   -8323.1315    26665.953   -36222.635   -15412.713    9508.4898    4556.3683    5572.6342    81.000527 
   96600    2060.6712   -114.79569    1.8645386   -112.93115    14532.017    4.3165342    4.3165342    4.3165342    14532.017    16322.902     15884.92     11388.23   -10477.244   -10959.159    11560.217    80.427683 
   96700    1414.1023   -114.22598    1.2795095   -112.94647   -10582.697    4.3202394    4.3202394    4.3202394   -10582.697   -5810.7424   -26372.114    434.76632   -17983.985   -12397.451   -13789.334    80.634974 
   96800    1952.3849   -114.70806    1.7665589    -112.9415   -14130.545    4.3243247    4.3243247    4.3243247   -14130.545    23483.565   -33598.255   -32276.944    1336.3441    11956.699   -24136.175    80.863938 
   96900    1995.2165   -114.74258    1.8053138   -112.93726     1220.476    4.3188749    4.3188749    4.3188749     1220.476   -3780.8529   -2702.6353    10144.916    10225.441   -16187.095    2614.8484    80.558593 
   97000    1547.3975   -114.34657    1.4001178   -112.94646   -22890.532    4.3267268    4.3267268    4.3267268   -22890.532   -19552.467   -33143.117   -15976.011   -7232.5191   -10837.199   -15717.148    80.998772 
   97100    1877.4708   -114.63526     1.698775   -112.93648   -15134.476    4.3245541    4.3245541    4.3245541   -15134.476    27909.184   -41631.048   -31681.564   -9382.0698    8862.3007   -50227.666    80.876808 
   97200    1914.2932    -114.6636    1.7320927   -112.93151   -977.08227    4.3168044    4.3168044    4.3168044   -977.08227   -8064.8436    15938.788   -10805.191    11076.528   -28480.189    11897.806    80.442786 
   97300    1407.5011   -114.21442    1.2735366   -112.94088   -28540.076    4.3287121    4.3287121    4.3287121   -28540.076   -32267.456   -24404.356   -28948.418   -9008.4682   -23135.603   -15379.952    81.110321 
   97400    1568.4234   -114.35456    1.4191425   -112.93542    -16820.64    4.3251232    4.3251232    4.3251232    -16820.64    28485.813   -37830.239   -41117.495    -6811.688    12759.453   -64897.567    80.908742 
   97500    1738.1708   -114.50461    1.5727335   -112.93188   -1771.5763    4.3145879    4.3145879    4.3145879   -1771.5763   -4389.1578    6281.4124   -7206.9835    18111.516   -8546.0906    8779.4947    80.318938 
   97600    1011.7673   -113.86124   0.91546834   -112.94578    -19177.03    4.3243999    4.3243999    4.3243999    -19177.03   -33396.865    -821.7111   -23312.513   -7263.1667   -29422.555   -2454.5195    80.868156 
   97700    1450.8823   -114.25337    1.3127888   -112.94058   -13539.509    4.3225422    4.3225422    4.3225422   -13539.509    16900.171   -16984.437    -40534.26   -5841.3162   -737.74131    -37692.53     80.76398 
   97800    1413.4491   -114.21783    1.2789185   -112.93891   -9045.1926     4.323504     4.323504     4.323504   -9045.1926   -13819.973    -2671.538   -10644.067    10533.752   -10484.776     3288.045    80.817907 
   97900    835.65399   -113.70156   0.75611729   -112.94544   -38617.984     4.332672     4.332672     4.332672   -38617.984   -59010.532   -17145.204   -39698.216   -8595.8307   -32823.092    9601.7555    81.333119 
   98000    1814.8224   -114.57197    1.6420895   -112.92988    1415.0195    4.3185568    4.3185568    4.3185568    1415.0195    23315.183   -131.08548   -18939.039   -8716.5241    9041.8951   -14365.438    80.540796 
   98100    1438.2917   -114.23849    1.3013966    -112.9371   -12662.838    4.3192729    4.3192729    4.3192729   -12662.838   -22380.623    14417.894   -30025.786    7096.2412   -1152.6351    1217.9415    80.580866 
   98200    765.21836    -113.6454   0.69238565   -112.95301    -22312.83    4.3311223    4.3311223    4.3311223    -22312.83   -34008.131   -12310.838   -20619.521    2247.5131   -28872.983     24409.55    81.245877 
   98300    2458.2813   -115.15917    2.2243046   -112.93486    2362.1611    4.3246364    4.3246364    4.3246364    2362.1611    13052.467    9334.2358   -15300.219   -7331.1956    4604.4851   -10722.093    80.881425 
   98400    1750.7225   -114.52819    1.5840905    -112.9441    6581.9498     4.320121     4.320121     4.320121    6581.9498    1273.9497    32464.505   -13992.606    4221.9904   -6364.6563   -4019.1086    80.628344 
   98500     1203.593   -114.04513    1.0890363    -112.9561   -6608.6916    4.3243094    4.3243094    4.3243094   -6608.6916   -781.73101    21748.096   -40792.439    10429.106   -24775.912    17712.233     80.86308 
   98600    2359.6128   -115.06892    2.1350272   -112.93389    10580.965    4.3264392    4.3264392    4.3264392    10580.965    16422.695    11844.565    3475.6361   -7671.9644    4495.1553    -1046.039     80.98262 
   98700    1618.4521   -114.40382    1.4644095   -112.93942   -1670.2471    4.3303385    4.3303385    4.3303385   -1670.2471   -11355.588     11972.52   -5627.6734   -2187.8064   -17455.668   -9106.4594    81.201776 
   98800    1446.7767   -114.24606    1.3090739   -112.93698   -7755.8886    4.3317228    4.3317228    4.3317228   -7755.8886   -27473.306    8022.0835    -3816.443    7572.9625    -27143.37   -691.27815    81.279679 
   98900    2308.2538   -115.00904    2.0885565   -112.92048    5978.0369     4.321559     4.321559     4.321559    5978.0369    10522.147   -443.16341    7855.1269   -2968.5904    7567.6892   -5075.0338    80.708883 
   99000     1116.671   -113.95261    1.0103874   -112.94222   -7572.6902    4.3206575    4.3206575    4.3206575   -7572.6902   -19972.535   -11136.583    8391.0481   -10307.834   -4301.9721   -20323.599    80.658387 
   99100    1069.3767   -113.91893   0.96759447   -112.95133   -13370.341    4.3248849    4.3248849    4.3248849   -13370.341    -29102.92   -12393.342    1385.2402    11995.096   -22003.405   -987.48161     80.89537 
   99200    2021.7862   -114.76415    1.8293546   -112.93479    9449.6023      4.32461      4.32461      4.32461    9449.6023    5738.0893   -8944.0219    31554.739    4785.9335    -3305.637    15209.279    80.879944 
   99300    994.26467   -113.84569   0.89963156   -112.94606   -27833.175    4.3359982    4.3359982    4.3359982   -27833.175   -41050.029   -54716.668    12267.172   -20833.266   -5390.4976   -12097.182    81.520586 
   99400    1233.0418   -114.04707    1.1156822   -112.93138   -9217.2672    4.3275063    4.3275063    4.3275063   -9217.2672   -13633.643   -20546.947    6528.7883    15778.753     -19250.2   -10231.409    81.042556 
   99500    1528.9588   -114.29941    1.3834341   -112.91598    21944.403    4.3173988    4.3173988    4.3173988    21944.403    26297.389    11366.443    28169.377   -8125.3355    5969.4102    24357.201    80.476024 
   99600    917.59885   -113.76126   0.83026272   -112.93099    -31885.58    4.3369524    4.3369524    4.3369524    -31885.58   -48794.002   -47714.096    851.35739   -25983.595    5055.0535    9338.7641    81.574412 
   99700    1660.0184   -114.42253    1.5020195   -112.92051   -9154.1246     4.325833     4.325833     4.325833   -9154.1246   -28726.485   -4752.0684    6016.1797     7976.153   -15758.295   -18887.718    80.948584 
   99800     1398.726   -114.19011    1.2655967   -112.92452    14744.165     4.317135     4.317135     4.317135    14744.165     17486.04    23883.371    2863.0861   -1964.3879    2863.3363    45431.742    80.461268 
   99900    1186.1616   -114.01146     1.073264    -112.9382   -23174.438    4.3342196    4.3342196    4.3342196   -23174.438   -47854.119   -17330.907   -4338.2888    -21838.79    96.202305    12888.086    81.420309 
  100000    1907.9723   -114.64895    1.7263734   -112.92258    12103.186    4.3243807    4.3243807    4.3243807    12103.186   -22263.166     19179.78    39392.944     -6240.89   -8324.4142    -5787.062    80.867078 
Loop time of 22.5409 on 1 procs for 100000 steps with 8 atoms

Pair  time (%) = 7.19803 (31.9331)
Kspce time (%) = 5.34343 (23.7055)
Neigh time (%) = 0.106261 (0.471414)
Comm  time (%) = 1.10426 (4.89893)
Outpt time (%) = 0.0271266 (0.120344)
Other time (%) = 8.76181 (38.8707)

Nlocal:    8 ave 8 max 8 min
Histogram: 1 0 0 0 0 0 0 0 0 0
Nghost:    2189 ave 2189 max 2189 min
Histogram: 1 0 0 0 0 0 0 0 0 0
Neighs:    2174 ave 2174 max 2174 min
Histogram: 1 0 0 0 0 0 0 0 0 0

Total # of neighbors = 2174
Ave neighs/atom = 271.75
Neighbor list builds = 1228
Dangerous builds = 0
unfix 20
unfix 21
print "seeds:1857160"
seeds:1857160
