LAMMPS (10 Feb 2015)
# ---- initialize simulations
clear
units metal
dimension 3
boundary p p p
atom_style charge
atom_modify map array
# ---- create atoms
read_data /Users/eugeneragasa/pyflamestk_git/pypospack/tests/tests_integration/workflow/WorkflowLammpsThermalExpansion/param_2424/MgO_NaCl_unit.npt.T400/lammps.structure
  triclinic box = (0 0 0) to (4.2565 4.2565 4.2565) with tilt (0 0 0)
  1 by 1 by 1 MPI processor grid
  reading atoms ...
  8 atoms
# ---- define interatomic potential
include potential.mod
mass 1 24.305
mass 2 15.999

group Mg type 1
4 atoms in group Mg
group O type 2
4 atoms in group O

set group Mg charge 1.67924051174
  4 settings made for charge
set group O charge -1.67924051174
  4 settings made for charge

variable R_cut equal 10.0

pair_style buck/coul/long ${R_cut}
pair_style buck/coul/long 10
pair_coeff 1 1 0.0 0.5 0.0 ${R_cut}
pair_coeff 1 1 0.0 0.5 0.0 10
pair_coeff 1 2 1306.98043044 0.288034123545 0.0 ${R_cut}
pair_coeff 1 2 1306.98043044 0.288034123545 0.0 10
pair_coeff 2 2 2032.48006166 0.252585756474 14.8401495582 ${R_cut}
pair_coeff 2 2 2032.48006166 0.252585756474 14.8401495582 10

kspace_style pppm 1.0e-5

neighbor 1.0 bin
neigh_modify every 1 delay 0 check yes
# ---- define settings
compute eng all pe/atom
compute eatoms all reduce sum c_eng
# ---- run minimization
reset_timestep 0
fix 1 all box/relax iso 0.0 vmax 0.001
thermo 10
thermo_style custom step pe lx ly lz xy xz yz press pxx pyy pzz pxy pxz pyz c_eatoms
min_style cg
minimize 1e-25 1e-25 5000 10000
PPPM initialization ...
  G vector (1/distance) = 0.352997
  grid = 8 8 8
  stencil order = 5
  estimated absolute RMS force accuracy = 4.02799e-05
  estimated relative force accuracy = 2.79728e-06
  using double precision FFTs
  3d grid and FFT values/proc = 3375 512
Neighbor list info ...
  1 neighbor list requests
  update every 1 steps, delay 0 steps, check yes
  master list distance cutoff = 11
Memory usage per processor = 4.06549 Mbytes
Step PotEng Lx Ly Lz Xy Xz Yz Press Pxx Pyy Pzz Pxy Pxz Pyz eatoms 
       0   -114.09861       4.2565       4.2565       4.2565            0            0            0    83013.551    83013.551    83013.551    83013.551 1.023811e-10 -6.100653e-11 -2.0427431e-10   -114.09861 
      10   -114.17745     4.299065     4.299065     4.299065            0            0            0    27173.213    27173.213    27173.213    27173.213 -1.7620305e-11 8.177727e-11 3.0587737e-11   -114.17745 
      19   -114.18814    4.3219883    4.3219883    4.3219883            0            0            0 -0.014642896 -0.014642896 -0.014642896 -0.014642896 -4.2788838e-11 1.5607732e-10 -4.5124802e-11   -114.18814 
Loop time of 0.00890589 on 1 procs for 19 steps with 8 atoms

Minimization stats:
  Stopping criterion = linesearch alpha is zero
  Energy initial, next-to-last, final = 
        -114.098610965     -114.188144107     -114.188144107
  Force two-norm initial, final = 11.9872 7.95763e-05
  Force max component initial, final = 11.9872 1.65313e-05
  Final line search alpha, max atom move = 0.5 8.26564e-06
  Iterations, force evaluations = 19 24

Pair  time (%) = 0.00234151 (26.2917)
Kspce time (%) = 0.00158763 (17.8267)
Neigh time (%) = 0 (0)
Comm  time (%) = 0.000295401 (3.31691)
Outpt time (%) = 3.60012e-05 (0.404241)
Other time (%) = 0.00464535 (52.1604)

Nlocal:    8 ave 8 max 8 min
Histogram: 1 0 0 0 0 0 0 0 0 0
Nghost:    2189 ave 2189 max 2189 min
Histogram: 1 0 0 0 0 0 0 0 0 0
Neighs:    2344 ave 2344 max 2344 min
Histogram: 1 0 0 0 0 0 0 0 0 0

Total # of neighbors = 2344
Ave neighs/atom = 293
Neighbor list builds = 0
Dangerous builds = 0
unfix 1
# ---- define output variables ----
variable natoms equal "count(all)"
variable tot_energy equal "c_eatoms"
variable length_x equal "lx"
variable length_y equal "ly"
variable length_z equal "lz"
variable tilt_xy equal "xy"
variable tilt_xz equal "xz"
variable tilt_yz equal "yz"
variable tot_press equal "press"
variable press_xx equal "pxx"
variable press_yy equal "pyy"
variable press_zz equal "pzz"
variable press_xy equal "pxy"
variable press_xz equal "pxz"
variable press_yz equal "pyz"

# ---- output ----
print "pypospack:output_section:begin"
pypospack:output_section:begin
print "tot_energy = ${tot_energy}"
tot_energy = -114.188144106894
print "num_atoms = ${natoms}"
num_atoms = 8
print "xx = ${length_x}"
xx = 4.32198834005221
print "yy = ${length_y}"
yy = 4.32198834005221
print "zz = ${length_z}"
zz = 4.32198834005221
print "xy = ${tilt_xy}"
xy = 0
print "xz = ${tilt_xz}"
xz = 0
print "yz = ${tilt_yz}"
yz = 0
print "tot_press = ${tot_press}"
tot_press = -0.0146428956780545
print "pxx = ${press_xx}"
pxx = -0.0146428956419126
print "pyy = ${press_yy}"
pyy = -0.0146428958165915
print "pzz = ${press_zz}"
pzz = -0.0146428955756593
print "pxy = ${press_xy}"
pxy = -4.27888380608005e-11
print "pxz = ${press_xz}"
pxz = 1.56077321107314e-10
print "pyz = ${press_yz}"
pyz = -4.51248020389503e-11
print "pypospack:output_section:done"
pypospack:output_section:done
print "pypospack:lammps_sim:done"
pypospack:lammps_sim:done
#------------------------------------------------------------------------------
# RUN THERMOSTAT
# running using an NPT Nose-Hoover style thermostat
#------------------------------------------------------------------------------
variable tempdamp equal 0.1
variable pressdamp equal 1.0
# set initial velocities
velocity all create 400 633355 mom yes dist gaussian loop all
# fix for Nose-Hoover style thermostat
fix 20 all npt temp 400 400 0.1 aniso 0.0 0.0 1.0 drag 1.0 couple xyz
variable boxx equal lx
variable boxy equal ly
variable boxz equal lz
variable boxp equal press
variable boxt equal temp
# calculate averages every 10000 steps
reset_timestep 0
fix 21 all ave/time 10 10 100 v_boxx v_boxy v_boxz v_boxp v_boxt file lattice.out
thermo_style custom step temp pe ke etotal press lx ly lz press pxx pyy pzz pxy pxz pyz vol
thermo_modify flush yes
thermo 100
run 100000
PPPM initialization ...
  G vector (1/distance) = 0.35233
  grid = 8 8 8
  stencil order = 5
  estimated absolute RMS force accuracy = 4.15437e-05
  estimated relative force accuracy = 2.88505e-06
  using double precision FFTs
  3d grid and FFT values/proc = 3375 512
Memory usage per processor = 3.06549 Mbytes
Step Temp PotEng KinEng TotEng Press Lx Ly Lz Press Pxx Pyy Pzz Pxy Pxz Pyz Volume 
       0          400   -114.18815   0.36192841   -113.82623    4786.5614    4.3219883    4.3219883    4.3219883    4786.5614    6127.8999    4715.5073     3516.277     1344.592    1735.9467   -864.40233    80.732941 
     100    121.90333   -113.88298    0.1103007   -113.77268   -5093.6349    4.3448251    4.3448251    4.3448251   -5093.6349    1362.7041   -6203.0798   -10440.529    284.50699   -6019.9507    1538.5573     82.01946 
     200    350.69593   -113.99794   0.31731704   -113.68062    4683.0857    4.3282934    4.3282934    4.3282934    4683.0857    8190.4686    2661.9266    3196.8618    727.18798    757.79866    1917.8598    81.086786 
     300    357.18265   -113.91421   0.32318637   -113.59102   -6292.4729    4.3495891    4.3495891    4.3495891   -6292.4729    4322.7299   -6329.4989    -16870.65    -3620.012    1664.8311   -1082.7228    82.289554 
     400    338.65302    -113.8337   0.30642037   -113.52728    13063.526    4.3350029    4.3350029    4.3350029    13063.526    19170.969    9946.4602    10073.149   -1928.8612   -9406.7113    2296.0958    81.464459 
     500    426.00854   -113.87012   0.38546148   -113.48465   -9941.8598    4.3499556    4.3499556    4.3499556   -9941.8598   -9631.1163   -2486.5042   -17707.959    3336.4223    3119.0053    3885.1879    82.310355 
     600    379.29838   -113.80461   0.34319714   -113.46141    5334.8825    4.3435151    4.3435151    4.3435151    5334.8825    19228.283    -3364.821    141.18555    326.76089   -5128.8561    725.57863    81.945294 
     700    430.73728   -113.84418   0.38974014   -113.45444    3493.4114    4.3424268    4.3424268    4.3424268    3493.4114   -2187.1413    8620.8103    4046.5652   -48.642415   -629.03669    17.514828    81.883713 
     800    452.70715   -113.86635   0.40961894   -113.45673   -10502.703    4.3492833    4.3492833    4.3492833   -10502.703    4378.9692   -22276.241   -13610.836    1780.7253    3761.0176    904.84913    82.272197 
     900     195.9345   -113.63881   0.17728565   -113.46152    12847.089    4.3414257    4.3414257    4.3414257    12847.089    14555.061    6502.0814    17484.126    5897.5567   -5705.1319    1124.6389    81.827091 
    1000    617.42838   -114.01857   0.55866217   -113.45991   -10406.929    4.3446793    4.3446793    4.3446793   -10406.929    -3339.767   -15311.741   -12569.279    1920.1351    2484.1728   -475.60122      82.0112 
    1100    239.57536   -113.68009   0.21677282   -113.46332    2056.1168    4.3473684    4.3473684    4.3473684    2056.1168    5258.7436   -5047.7651     5957.372   -973.41036   -2633.5972    2425.3339    82.163574 
    1200    391.13806   -113.81551   0.35390994    -113.4616   -8704.2179    4.3441079    4.3441079    4.3441079   -8704.2179   -5747.9861   -21792.562    1427.8944    7686.4436    -594.9295    644.11341    81.978846 
    1300    420.41752   -113.84214   0.38040261   -113.46174    4050.3295    4.3401431    4.3401431    4.3401431    4050.3295    3421.5905    10020.637   -1291.2387   -1318.4677   -289.81774    281.75142    81.754593 
    1400    328.95527   -113.75894   0.29764564    -113.4613   -6023.3138    4.3531468    4.3531468    4.3531468   -6023.3138   -6266.4957    -19523.19    7719.7444    1555.9835   -3550.2758    1796.7359    82.491642 
    1500    352.44293   -113.77825   0.31889777   -113.45936    54.612216    4.3378845    4.3378845    4.3378845    54.612216    3007.5028   -2286.9938   -556.67236    7372.7689    4446.1436    810.51499    81.627025 
    1600    344.59938   -113.77222   0.31180076   -113.46042   -1848.7169    4.3482576    4.3482576    4.3482576   -1848.7169    4023.9268   -13129.912    3559.8348     261.2941   -2556.9932    1005.8374    82.214004 
    1700       374.65   -113.79822   0.33899119   -113.45923    4097.3504    4.3447406    4.3447406    4.3447406    4097.3504   -952.36263    7630.5594    5613.8543    4612.6619    1123.7465   -12.828621    82.014673 
    1800    413.29064    -113.8341   0.37395405   -113.46014   -5699.5167    4.3419699    4.3419699    4.3419699   -5699.5167   -9345.8805   -7252.3091   -500.36047     5674.477   -4233.0368    3162.4422    81.857868 
    1900    266.10615   -113.70239   0.24077844   -113.46161    3972.3105     4.346547     4.346547     4.346547    3972.3105    3279.3345     4829.452     3808.145    394.09831   -2710.9177     -8.35171    82.117014 
    2000     564.4399   -113.96876   0.51071708   -113.45805   -8984.4257    4.3474043    4.3474043    4.3474043   -8984.4257   -6354.8848     -9945.63   -10652.762   -1199.4424    5018.6694   -1419.9761    82.165614 
    2100    292.16701    -113.7245   0.26435885   -113.46014    10116.935    4.3383043    4.3383043    4.3383043    10116.935    5686.6298    9497.5699    15166.606   -185.41222    -6956.292    4940.6138    81.650722 
    2200    460.50608   -113.87748   0.41667558   -113.46081   -10132.405    4.3501089    4.3501089    4.3501089   -10132.405    3528.5127   -15673.347   -18252.382    3365.9933    1068.7737    3837.3393    82.319057 
    2300    468.01618   -113.88355   0.42347087   -113.46008    2816.5532    4.3430757    4.3430757    4.3430757    2816.5532   -498.84099    3331.6725    5616.8282    1813.7607   -902.46067   -2813.1718    81.920428 
    2400    438.53252   -113.85711   0.39679344   -113.46032    3066.7012    4.3425425    4.3425425    4.3425425    3066.7012    13973.166   -3611.0052   -1162.0572   -411.40779   -5954.0411    120.13801    81.890254 
    2500    445.21137   -113.86315   0.40283661   -113.46031   -3250.5901    4.3476645    4.3476645    4.3476645   -3250.5901     3535.495    2842.6328   -16129.898    3643.4035    6213.0475   -339.76281    82.180367 
    2600    432.38249   -113.85077   0.39122877   -113.45954    4667.4641    4.3437564    4.3437564    4.3437564    4667.4641    10160.618   -30.325301    3872.0998   -4316.3406   -7084.2679   -397.36483    81.958948 
    2700    408.69697   -113.82942    0.3697976   -113.45962    8011.3388    4.3428018    4.3428018    4.3428018    8011.3388    22388.398    11162.018   -9516.3996    232.35648   -3692.7351    2215.5564    81.904927 
    2800    526.08009   -113.93688   0.47600833   -113.46087   -9101.0028    4.3462812    4.3462812    4.3462812   -9101.0028   -5662.2243   -7931.3183   -13709.466    5098.5116    2813.7688    1675.6329     82.10195 
    2900    237.81757   -113.67819   0.21518233     -113.463    10095.797    4.3426114    4.3426114    4.3426114    10095.797    19903.594     7195.652    3188.1448    4978.6186   -9632.9487   -245.47743    81.894157 
    3000    617.08045   -114.01863   0.55834736   -113.46028   -7562.2709     4.345463     4.345463     4.345463   -7562.2709   -1339.9783   -8962.3886   -12384.446   -759.30774    4212.9513   -1287.3786    82.055592 
    3100    330.57224     -113.761   0.29910871   -113.46189    1100.2626    4.3469319    4.3469319    4.3469319    1100.2626    10780.339   -111.25543   -7368.2955    4900.5571   -504.85336    2417.8669    82.138831 
    3200    364.56179   -113.79241   0.32986317   -113.46254   -944.27973    4.3415022    4.3415022    4.3415022   -944.27973    4954.7781   -10504.965    2717.3475    6615.2086   -5614.0952   -752.59419    81.831416 
    3300    484.02292   -113.89947   0.43795411   -113.46152   -6751.5104    4.3470591    4.3470591    4.3470591   -6751.5104    151.94444    -8550.306   -11856.169   -3249.8169    3726.5037     35.16778     82.14604 
    3400    339.97529   -113.76797   0.30761679   -113.46035    2236.8194    4.3445621    4.3445621    4.3445621    2236.8194    9626.0364   -6203.4726    3287.8943    1819.9047   -6605.7359    3459.6971    82.004565 
    3500     390.8863   -113.81295   0.35368214   -113.45926   -7131.3816    4.3455592    4.3455592    4.3455592   -7131.3816   -13976.441   -1973.6239   -5444.0801    754.40582    2379.5871   -721.97227    82.061041 
    3600     385.3921   -113.80853   0.34871087   -113.45981    1751.2001    4.3435243    4.3435243    4.3435243    1751.2001    11391.905   -2789.7773   -3348.5273     1502.039   -1590.7264   -465.00539    81.945813 
    3700    316.59462   -113.74819   0.28646147   -113.46173    4900.4737    4.3462959    4.3462959    4.3462959    4900.4737   -8448.3612    12516.803     10632.98    754.62554   -3339.6648   -3186.6104    82.102781 
    3800     413.6001   -113.83663   0.37423407   -113.46239   -415.59749    4.3428667    4.3428667    4.3428667   -415.59749    11172.134   -3239.1993   -9179.7269    4052.8244    1965.7535    580.76442    81.908598 
    3900    199.36354   -113.64376   0.18038832   -113.46337    9357.6238     4.347641     4.347641     4.347641    9357.6238   -840.26117    17823.011    11090.122    5852.2595   -1059.2311   -2268.8459    82.179032 
    4000     534.4808   -113.94269   0.48360946   -113.45908   -2705.3897    4.3435078    4.3435078    4.3435078   -2705.3897   -7260.2996   -615.37671   -240.49266   -3243.6861    4246.5985   -1752.3935     81.94488 
    4100    281.93197   -113.71689   0.25509797   -113.46179    4938.1291    4.3440356    4.3440356    4.3440356    4938.1291    14492.478     1475.983   -1154.0737    4990.6106   -4677.1071    2896.2712    81.974754 
    4200    413.55627   -113.83696   0.37419441   -113.46277   -5266.1477    4.3453182    4.3453182    4.3453182   -5266.1477   -13485.286   -5884.4144    3571.2576   -197.11696   -686.47185    2322.1453    82.047385 
    4300    485.43429   -113.90206   0.43923114   -113.46283   -3900.4991    4.3451217    4.3451217    4.3451217   -3900.4991    -8567.322    4372.5655   -7506.7408   -3191.5627   -61.446828    364.08513    82.036254 
    4400    398.34143   -113.82261    0.3604277   -113.46218    1692.5897    4.3435324    4.3435324    4.3435324    1692.5897   -5594.4359    4104.1424    6568.0626    1167.7609   -3484.2602    3106.0551    81.946271 
    4500    409.45094   -113.83237   0.37047982   -113.46189   -4436.8737    4.3463526    4.3463526    4.3463526   -4436.8737   -15230.862     8509.902   -6589.6611    2742.5654    1545.6359   -700.64057    82.105993 
    4600    393.64233   -113.81835   0.35617586   -113.46217    1127.1511    4.3454561    4.3454561    4.3454561    1127.1511    -13049.43   -2261.1379    18692.021    5300.9194   -4508.2719   -3800.6532    82.055201 
    4700    412.05802   -113.83498   0.37283876   -113.46214    5950.3899    4.3423796    4.3423796    4.3423796    5950.3899     -3598.06    23180.702   -1731.4719   -1525.2422    2444.3349   -3498.3498    81.881043 
    4800    434.07934   -113.85506   0.39276411    -113.4623    -10293.24    4.3499656    4.3499656    4.3499656    -10293.24   -20022.214   -18816.492    7958.9871    5300.4599    4195.2735    2046.4368    82.310923 
    4900    364.02357   -113.79017   0.32937618   -113.46079    7957.9907     4.338001     4.338001     4.338001    7957.9907    3790.4171    10530.085    9553.4705    7185.0396    -433.5768    408.41731    81.633599 
    5000    552.64123   -113.96036    0.5000414   -113.46032   -11562.268    4.3522215    4.3522215    4.3522215   -11562.268   -7612.3887   -16014.542   -11059.874   -3207.0768    3836.6123    1230.7252    82.439046 
    5100    318.19521   -113.74865   0.28790971   -113.46074    4118.7202    4.3437039    4.3437039    4.3437039    4118.7202   -2789.5234   -1815.9042    16961.588    5898.8068   -676.48627    1528.3494    81.955976 
    5200    456.28209   -113.87295   0.41285362    -113.4601   -5492.2539    4.3431732    4.3431732    4.3431732   -5492.2539    3598.0654   -6788.3833   -13286.444    1051.3967   -344.00495     1528.296    81.925942 
    5300    351.81768   -113.77959   0.31833203   -113.46126    1146.5825    4.3500016    4.3500016    4.3500016    1146.5825   -7140.7383    593.24555    9987.2401   -5100.6271   -778.64784    779.16035    82.312964 
    5400    364.02087   -113.78954   0.32937373   -113.46017    733.11134       4.3444       4.3444       4.3444    733.11134   -6145.4478    4148.8918    4195.8901    4193.9827   -5913.3142   -1296.5926    81.995384 
    5500    356.57755   -113.78245   0.32263886   -113.45981    2234.6153    4.3419383    4.3419383    4.3419383    2234.6153    3833.6838   -3675.8788    6546.0409   -912.92154     1231.377   -216.39677    81.856078 
    5600    387.55644   -113.81255   0.35066921   -113.46188    -6632.826    4.3521196    4.3521196    4.3521196    -6632.826    -18948.58   -838.23288   -111.66476     813.9295   -2237.9887   -3650.4148    82.433259 
    5700    387.34977   -113.81283   0.35048221   -113.46234    2145.4009    4.3387618    4.3387618    4.3387618    2145.4009    -3320.257    5071.0951    4685.3647    2021.7635    683.06936    126.29955    81.676557 
    5800    381.97092   -113.80902   0.34561532   -113.46341   -3103.4574    4.3468069    4.3468069    4.3468069   -3103.4574   -10850.639   -1666.5369    3206.8037    3273.7166    4286.7087    592.72034    82.131746 
    5900    405.69329   -113.82754   0.36707981   -113.46046   -8267.3264    4.3519979    4.3519979    4.3519979   -8267.3264   -5249.1356     -4687.51   -14865.334    4512.9353   -1419.3549    1415.3941    82.426343 
    6000    371.50229   -113.79348   0.33614308   -113.45734    9527.6202    4.3332587    4.3332587    4.3332587    9527.6202    11457.156    4977.7395    12147.966   -1997.0128    6176.9665   -5071.0675    81.366166 
    6100    334.69612   -113.76217   0.30284008   -113.45933   -3946.4849    4.3524016    4.3524016    4.3524016   -3946.4849    6005.8002   -5722.6126   -12122.642    5162.6295   -1579.8487     1553.109    82.449282 
    6200    391.54134   -113.81341   0.35427484   -113.45914    3130.3461    4.3443417    4.3443417    4.3443417    3130.3461    10288.456   -3202.7183    2305.3002   -896.07014   -2650.8953    2245.7552    81.992082 
    6300    369.33646   -113.79389   0.33418339    -113.4597    7481.1455    4.3386859    4.3386859    4.3386859    7481.1455    21616.055   -5455.1082    6282.4898   -4531.7938   -1526.1268   -7570.6434    81.672272 
    6400    394.19893   -113.81797   0.35667947   -113.46129   -4166.4567    4.3499032    4.3499032    4.3499032   -4166.4567    414.87385   -857.31653   -12056.927    4816.4929   -1419.3988    1454.4733    82.307381 
    6500     407.9538   -113.82937   0.36912517   -113.46024   -2052.6168    4.3461757    4.3461757    4.3461757   -2052.6168   -13427.928   -8625.3925     15895.47   -999.46813   -201.60525     -2296.05    82.095967 
    6600    450.82007   -113.86874   0.40791147   -113.46083     2863.428    4.3400999    4.3400999    4.3400999     2863.428    16279.103   -906.59844   -6782.2206     3467.736    380.54055   -4725.1942     81.75215 
    6700    497.33543   -113.91209   0.44999954   -113.46209   -12592.814    4.3529009    4.3529009    4.3529009   -12592.814   -15144.084   -18819.789   -3814.5681    51.282077    1309.8724      3543.67    82.477662 
    6800    283.31874   -113.72024   0.25635275   -113.46389    6786.4228    4.3410185    4.3410185    4.3410185    6786.4228    18246.166   -7512.1443    9625.2465    4146.3589    2823.7473   -6455.1129    81.804067 
    6900    510.82427   -113.92494   0.46220454   -113.46274    -6328.294    4.3453798    4.3453798    4.3453798    -6328.294    15515.664    -14619.44   -19881.106    822.56462    4468.0262    2846.6672    82.050879 
    7000    333.62327   -113.76359   0.30186934   -113.46173    1802.0275    4.3506568    4.3506568    4.3506568    1802.0275    15973.654   -12476.453    1908.8811    2961.2131     -169.575    1225.6712    82.350165 
    7100    374.67602   -113.79891   0.33901473   -113.45989    2365.0578    4.3423633    4.3423633    4.3423633    2365.0578    15829.177   -3483.8067   -5250.1964    5862.1182    350.97735    -4105.418    81.880119 
    7200     501.5301   -113.91209   0.45379498    -113.4583   -6912.0454    4.3467352    4.3467352    4.3467352   -6912.0454    8346.8422    -10708.33   -18374.648   -3329.0433   -4499.6991    3623.3619    82.127678 
    7300      438.821   -113.85507   0.39705446   -113.45801   -4362.0002    4.3480416    4.3480416    4.3480416   -4362.0002   -856.18358    -10115.56   -2114.2566   -2054.7188   -3288.2353   -2236.2743    82.201752 
    7400    452.88012   -113.86846   0.40977545   -113.45868   -3564.1159    4.3435766    4.3435766    4.3435766   -3564.1159   -4614.7899    8214.2287   -14291.786   -54.640929   -2051.4135   -2028.3719    81.948775 
    7500    507.95593   -113.92047    0.4596092   -113.46086    -2616.902    4.3453385    4.3453385    4.3453385    -2616.902    10803.941   -10406.079   -8248.5682    5860.8871   -1612.8352    3296.2945    82.048538 
    7600    383.23479   -113.80924   0.34675889   -113.46248    2442.8951    4.3471913    4.3471913    4.3471913    2442.8951    244.19207    19996.146   -12911.653    11.040519    1657.5794   -6182.5747    82.153534 
    7700    454.28216    -113.8729   0.41104405   -113.46186    2969.6992    4.3396387    4.3396387    4.3396387    2969.6992     21480.12    -4009.702   -8561.3198   -3014.8711   -3389.2837    344.62123    81.726088 
    7800    277.24599    -113.7154   0.25085799   -113.46454    5040.5044    4.3494455    4.3494455    4.3494455    5040.5044     8339.669    17977.247   -11195.403    1075.8445    1929.8942    225.97944    82.281399 
    7900    444.16646   -113.86605   0.40189115   -113.46416     5277.227    4.3406407    4.3406407    4.3406407     5277.227    18873.156   -1139.2982   -1902.1768   -69.897542    3702.3338    -1057.984    81.782712 
    8000    396.48954   -113.82467   0.35875206   -113.46592   -774.32402    4.3457028    4.3457028    4.3457028   -774.32402   -1227.5005    5930.3467   -7025.8183    3467.1528    3427.8589     756.3567    82.069175 
    8100    331.05281   -113.76423   0.29954354   -113.46469   -3673.5218    4.3479756    4.3479756    4.3479756   -3673.5218   -10159.816    5805.7853   -6666.5351    14.288126    4034.5586   -1939.5962     82.19801 
    8200    418.42114   -113.83975   0.37859624   -113.46115    461.32588    4.3417985    4.3417985    4.3417985    461.32588   -5651.4736    7358.8936   -323.44242    5610.6606   -841.42964     450.7898    81.848175 
    8300    402.92551   -113.82465   0.36457547   -113.46007   -3135.7643    4.3492322    4.3492322    4.3492322   -3135.7643   -7352.3137    9114.1661   -11169.145   -2062.0049    886.96534   -2880.8204    82.269295 
    8400     377.1341   -113.80287   0.34123886   -113.46163   -6724.8673    4.3454669    4.3454669    4.3454669   -6724.8673   -20064.406    63.191771   -173.38756    382.63688    1264.5248    -1404.175    82.055811 
    8500    350.39366   -113.78007   0.31704355   -113.46302    439.63478    4.3409108    4.3409108    4.3409108    439.63478   -9955.2149    8957.8633     2316.256    4327.9646   -2116.4659    2942.3092    81.797978 
    8600    495.78742   -113.91094   0.44859888   -113.46234   -9577.8392    4.3521072    4.3521072    4.3521072   -9577.8392   -7647.6361   -3735.1088   -17350.773   -4458.7687   -498.36998   -518.40462    82.432556 
    8700    284.32799   -113.71929   0.25726594   -113.46203     4548.946    4.3431358    4.3431358    4.3431358     4548.946   -6318.3892    14951.521    5013.7058     6431.081   -5433.2734    3624.4559    81.923824 
    8800    337.36188   -113.76907   0.30525211   -113.46381    5331.0845    4.3404077    4.3404077    4.3404077    5331.0845    2686.8277    13695.594   -389.16796    1790.0628   -1124.3091   -2051.4599    81.769546 
    8900    478.79778   -113.89896    0.4332263   -113.46573   -10886.368    4.3538195    4.3538195    4.3538195   -10886.368   -7859.2568   -3557.9114   -21241.936    4381.5853    1462.8155    4970.0044    82.529889 
    9000    298.08391   -113.73427   0.26971259   -113.46455    13283.674    4.3355886    4.3355886    4.3355886    13283.674    11724.968    19956.056     8169.997    1241.3538   -586.11041   -3629.4207    81.497484 
    9100    372.49216   -113.80067   0.33703873   -113.46363   -6020.7396    4.3500261    4.3500261    4.3500261   -6020.7396   -4349.3438    733.46521    -14446.34   -4025.3908   -335.33411    356.86526    82.314358 
    9200    534.29044   -113.94361   0.48343722   -113.46018   -9101.5074    4.3463221    4.3463221    4.3463221   -9101.5074   -69.161996   -8506.5382   -18728.822    1251.3649   -3721.5769   -2736.2727    82.104268 
    9300    308.02671   -113.73982   0.27870904   -113.46111    4179.1065    4.3412528    4.3412528    4.3412528    4179.1065     -288.713    13579.557   -753.52469   -10291.666    1585.6273   -9005.1613    81.817313 
    9400    540.23527   -113.94996   0.48881622   -113.46114   -12815.655    4.3468833    4.3468833    4.3468833   -12815.655   -16222.904   -8196.0205   -14028.041    2861.1079    4314.2363    6245.4739    82.136075 
    9500    335.05278   -113.76604    0.3031628   -113.46288    318.06178    4.3456661    4.3456661    4.3456661    318.06178    10813.437    10559.417   -20418.669   -343.57185    1690.4544   -3930.6366    82.067097 
    9600    491.58998   -113.90488   0.44480095   -113.46008   -3605.5512    4.3416981    4.3416981    4.3416981   -3605.5512   -3453.6456   -10112.037    2749.0289   -7545.1581    1646.7009   -2434.5016    81.842493 
    9700    387.51198    -113.8118   0.35062898   -113.46117   -2203.2842      4.34765      4.34765      4.34765   -2203.2842   -5333.3555    16465.366   -17741.863    -1632.854   -3833.8051    5598.9284    82.179544 
    9800     467.5526   -113.88429   0.42305142   -113.46124    1893.1894     4.341274     4.341274     4.341274    1893.1894    21657.884   -8096.3835   -7881.9326    4688.3541   -1790.7363   -3718.0817    81.818516 
    9900    403.63882   -113.82949   0.36522088   -113.46427    2803.6919    4.3460155    4.3460155    4.3460155    2803.6919   -4974.7369    19511.028   -6125.2153     2009.604    1887.8999    5956.0859     82.08689 
   10000     381.6906   -113.81078   0.34536168   -113.46542    8277.2034    4.3409959    4.3409959    4.3409959    8277.2034    21157.168    14788.537   -11114.094    -5491.267   -608.76412   -1950.6261    81.802792 
   10100    453.42048   -113.87517   0.41026438    -113.4649    2162.1316    4.3430672    4.3430672    4.3430672    2162.1316     6182.793    8654.2898    -8350.688   -2880.9008    2114.9258   -663.74353    81.919942 
   10200     290.0211   -113.72579   0.26241718   -113.46337    7574.1706    4.3464471    4.3464471    4.3464471    7574.1706    532.68678    31482.136   -9292.3114    1978.9318   -1956.0894    7483.6883     82.11135 
   10300    526.86946   -113.93714   0.47672256   -113.46041   -1630.5772    4.3398014    4.3398014    4.3398014   -1630.5772    8122.3631   -5445.5871   -7568.5078    4181.5402   -2521.8118   -4551.4764    81.735281 
   10400    311.78266   -113.74399    0.2821075   -113.46188   -57.725422    4.3475468    4.3475468    4.3475468   -57.725422   -3191.0034    23372.036   -20354.209   -3376.7775    1715.9196     3418.495     82.17369 
   10500     379.6536   -113.80426   0.34351855   -113.46075   -208.91851    4.3426558    4.3426558    4.3426558   -208.91851   -7486.4045    3501.7022    3357.9467     2905.616   -1758.8832     4446.824    81.896669 
   10600    400.74339    -113.8227   0.36260104    -113.4601    548.92701    4.3411542    4.3411542    4.3411542    548.92701    891.43162    9245.8063   -8490.4569    1572.2857    1432.0455   -7068.1179    81.811741 
   10700    440.90912   -113.85849   0.39894384   -113.45955   -10038.386    4.3490082    4.3490082    4.3490082   -10038.386   -11793.335    1305.9783   -19627.801   -4713.4111    1888.7005    4024.7596    82.256584 
   10800    252.60548   -113.68924   0.22856275   -113.46068    4227.5466    4.3420623    4.3420623    4.3420623    4227.5466   -16148.086    19788.051    9042.6744    8612.2501   -1025.1327   -5183.2305    81.863093 
   10900    517.40468   -113.92721   0.46815863   -113.45905   -2440.6222    4.3398634    4.3398634    4.3398634   -2440.6222    4303.8324   -147.54538   -11478.154    1035.7766   -214.72322   -1880.2667    81.738783 
   11000    374.31779   -113.79897   0.33869061   -113.46028   -7042.7371     4.352958     4.352958     4.352958   -7042.7371   -22269.344    18730.495   -17589.362   -2249.5741   -494.58839    3934.1758    82.480907 
   11100    320.98506   -113.75024   0.29043403    -113.4598    6401.3872    4.3363883    4.3363883    4.3363883    6401.3872   -10641.991    14138.912     15707.24    5463.8352    1062.1038   -6867.4285    81.542587 
   11200    508.66202   -113.92022   0.46024809   -113.45997   -3582.5905    4.3446162    4.3446162    4.3446162   -3582.5905   -5037.9338    4779.2924    -10489.13   -5437.9825   -56.977258   -1550.7862     82.00763 
   11300    355.82602   -113.78099   0.32195886   -113.45904   -751.56406    4.3513872    4.3513872    4.3513872   -751.56406   -21036.683    29827.281    -11045.29    2798.9488   -1521.8724    456.47368    82.391648 
   11400    450.85089   -113.86612   0.40793936   -113.45818   -801.92566    4.3351858    4.3351858    4.3351858   -801.92566    -10709.83   -9662.6626    17966.716   -2657.6156    1066.8775    3526.2584    81.474768 
   11500    336.02907   -113.76659   0.30404617   -113.46255    3282.7785    4.3467087    4.3467087    4.3467087    3282.7785   -16846.678    36795.019   -10100.006   -5021.8911   -246.48121   -1034.1791    82.126177 
   11600    570.50531   -113.97697   0.51620519   -113.46077   -11704.695     4.349201     4.349201     4.349201   -11704.695   -12417.323   -9519.2614   -13177.501    708.68245    302.30637   -1219.6013    82.267528 
   11700     277.6131   -113.71288   0.25119016   -113.46169    9055.7913    4.3348811    4.3348811    4.3348811    9055.7913   -12777.543    19037.811    20907.106   -12218.624    554.71176    1578.2849    81.457593 
   11800    476.42914   -113.89247    0.4310831   -113.46139   -10823.496    4.3499359    4.3499359    4.3499359   -10823.496   -16053.706    2072.0006   -18488.782   -890.95789   -2455.0213    372.72647    82.309235 
   11900    524.71949   -113.93373   0.47477722   -113.45895   -7403.9756    4.3453166    4.3453166    4.3453166   -7403.9756   -8493.7982   -4395.9289   -9322.1997    3193.0925    88.224986    6279.2722    82.047297 
   12000      229.313   -113.66745   0.20748723   -113.45996    6693.7643    4.3392793    4.3392793    4.3392793    6693.7643   -15614.381    17795.887    17899.787   -15558.695    1057.1736   -2347.8918    81.705784 
   12100     523.1257   -113.93207   0.47333513   -113.45874   -14327.817    4.3473385    4.3473385    4.3473385   -14327.817    -12190.61   -12551.657   -18241.183     1217.744    1172.2205   -2886.6258     82.16188 
   12200    391.94204   -113.81487    0.3546374   -113.46023   -955.71236    4.3454226    4.3454226    4.3454226   -955.71236   -15258.339    14796.346   -2405.1437    1764.9591   -362.14573    2385.2232    82.053298 
   12300    321.25253   -113.75194   0.29067604   -113.46126    2505.0346    4.3395518    4.3395518    4.3395518    2505.0346   -4553.9714   -2010.4614    14079.537   -11521.122   -1500.2726   -816.08748    81.721178 
   12400    419.72487   -113.84119   0.37977588   -113.46141   -9922.7578    4.3470339    4.3470339    4.3470339   -9922.7578   -20764.524    2292.4411    -11296.19    5533.6516    894.60504    1179.6881    82.144614 
   12500    370.14208   -113.79512   0.33491233   -113.46021    1152.3944    4.3447917    4.3447917    4.3447917    1152.3944   -8258.8165    4378.5234    7337.4764   -3515.0973   -1135.4149   -2388.4724    82.017568 
   12600    347.38451   -113.77383   0.31432081   -113.45951    5173.7263     4.340331     4.340331     4.340331    5173.7263    5444.3183   -247.88862    10324.749   -2155.3203    1173.7496   -1385.8759     81.76521 
   12700    389.70133    -113.8142   0.35260996   -113.46159   -3722.8344    4.3457461    4.3457461    4.3457461   -3722.8344   -17022.931    16781.918    -10927.49   -3104.5615    1248.8047    2057.8593    82.071629 
   12800    293.51363   -113.72738    0.2655773   -113.46181    8953.2337    4.3439621    4.3439621    4.3439621    8953.2337    18012.662   -9974.2573    18821.296   -2718.8864   -238.14914   -2426.5626    81.970595 
   12900    467.35877   -113.88336   0.42287603   -113.46048    478.98382    4.3421924    4.3421924    4.3421924    478.98382   -6668.1038    9957.2012   -1852.1459    6146.1216    1343.2161   -745.75377    81.870452 
   13000     335.1502   -113.76495   0.30325095   -113.46169    4389.7883    4.3441975    4.3441975    4.3441975    4389.7883    6654.9529    6140.4287    373.98337   -10154.567    396.27027   -4267.1828    81.983918 
   13100    368.55194   -113.79323   0.33347354   -113.45976    4907.5584    4.3456214    4.3456214    4.3456214    4907.5584     20559.23   -20066.804     14230.25    3564.4502    519.37496    1749.6345    82.064561 
   13200    559.41963   -113.96441   0.50617463   -113.45824   -3425.1633    4.3417749    4.3417749    4.3417749   -3425.1633   -11451.043    9156.7785   -7981.2251    2465.6342   -1552.4036   -604.94722    81.846837 
   13300    223.59133   -113.66427   0.20231013   -113.46196      10738.1    4.3440686    4.3440686    4.3440686      10738.1    28040.487   -10870.519    15044.332   -7863.6242    475.54239   -5241.0131    81.976624 
   13400    592.86396   -113.99511   0.53643577   -113.45868   -9332.3506    4.3463778    4.3463778    4.3463778   -9332.3506   -1705.3302    -18014.85   -8276.8713    4438.6954    2255.8853     448.1292    82.107421 
   13500    418.44901   -113.83942   0.37862146    -113.4608    3589.8956    4.3401476    4.3401476    4.3401476    3589.8956    9535.4275   -5769.1331    7003.3924   -1290.0823    11.376488   -2713.4764    81.754847 
   13600    324.64757   -113.75768   0.29374794   -113.46394    1835.7528    4.3459252    4.3459252    4.3459252    1835.7528    16634.787   -12780.192    1652.6624   -3993.2007    260.36493   -5325.4989    82.081774 
   13700    655.30856   -114.05299   0.59293696   -113.46005   -15263.757    4.3460532    4.3460532    4.3460532   -15263.757   -14652.431   -21258.403    -9880.438    1466.2522   -264.77218     2835.502     82.08903 
   13800    233.43307   -113.67228   0.21121515   -113.46107    14460.141    4.3377095    4.3377095    4.3377095    14460.141    22795.282   -4965.0343    25550.176   -4670.0022    343.32176   -2039.3571    81.617145 
   13900     537.9349   -113.94767    0.4867348   -113.46093   -13707.676    4.3496733    4.3496733    4.3496733   -13707.676   -15132.942   -8530.9441   -17459.142   -388.13618    452.72445   -5620.3687    82.294332 
   14000    384.69565   -113.80826   0.34808071   -113.46018    3168.7076    4.3436454    4.3436454    4.3436454    3168.7076   -248.83151   -14499.619    24254.573   -829.35088    385.67626    222.51063    81.952665 
   14100    406.45204   -113.82669   0.36776634   -113.45892    7316.8862    4.3373234    4.3373234    4.3373234    7316.8862    1016.6592     8012.173    12921.827   -3765.2661   -400.78429   -4309.6147    81.595352 
   14200    446.69944   -113.86499   0.40418304    -113.4608   -10346.198    4.3509204    4.3509204    4.3509204   -10346.198   -19935.547   -6445.7569   -4657.2913    2002.8561    596.01692    1328.6141    82.365135 
   14300     275.4294   -113.70988   0.24921431   -113.46066     8361.046    4.3419759    4.3419759    4.3419759     8361.046    3027.2435   -15420.647    37476.541   -8200.7474     622.8652   -2371.0776    81.858206 
   14400    496.85256   -113.90842   0.44956264   -113.45886     3350.118     4.337463     4.337463     4.337463     3350.118   -13251.902    24565.736   -1263.4802    585.96976    2459.2816   -247.04051    81.603229 
   14500     313.7698    -113.7447   0.28390551   -113.46079   -3542.2032    4.3510537    4.3510537    4.3510537   -3542.2032   -11251.096   -19250.012    19874.498    2202.9648    1274.9739   -786.54935    82.372707 
   14600    304.90363   -113.73522   0.27588321   -113.45933    2994.1599    4.3405662    4.3405662    4.3405662    2994.1599   -11451.088    -358.7449    20792.312   -9901.1151   -1839.7825   -5741.0687    81.778502 
   14700    552.07872   -113.95845   0.49953243   -113.45892   -3528.0435    4.3400154    4.3400154    4.3400154   -3528.0435   -9424.6815    1471.0073   -2630.4562    2048.8151    4314.5419    6663.7898    81.747376 
   14800    195.84645    -113.6396   0.17720598   -113.46239    6279.5022    4.3485114    4.3485114    4.3485114    6279.5022   -5156.2197   -5394.4431    29389.169   -2846.0235    186.77313   -7184.5605    82.228398 
   14900    415.16524   -113.83551   0.37565023   -113.45986   -6515.5307    4.3416196    4.3416196    4.3416196   -6515.5307    -21277.76    179.80711    1551.3606   -3954.9284   -603.14293   -1844.8826    81.838058 
   15000    455.78741   -113.87148   0.41240603   -113.45907   -3555.7287    4.3433076    4.3433076    4.3433076   -3555.7287   -5601.3553   -3252.2125   -1813.6183    453.17223    91.039053    2130.8184    81.933546 
   15100    174.64384   -113.61867   0.15802141   -113.46065    12961.542    4.3449628    4.3449628    4.3449628    12961.542   -5116.4857    18617.434    25383.677   -3002.2689   -447.55434   -7857.8256    82.027258 
   15200    587.39758   -113.99142   0.53148968   -113.45993   -15261.252    4.3445404    4.3445404    4.3445404   -15261.252   -21962.431   -13849.036   -9972.2882   -1420.9695    2320.2364    1114.1835    82.003335 
   15300    251.77114   -113.69167   0.22780782   -113.46386    11226.848    4.3418719    4.3418719    4.3418719    11226.848    2124.4027    20687.315    10868.826   -3523.0957    1470.0864   -11141.396    81.852324 
   15400    478.50431   -113.89571   0.43296075   -113.46275   -1613.2272    4.3444233    4.3444233    4.3444233   -1613.2272   -11681.272   -7081.2991     13922.89    224.73578   -707.77608    1921.1531    81.996708 
   15500    478.66358   -113.89438   0.43310486   -113.46127   -9441.9627    4.3452717    4.3452717    4.3452717   -9441.9627   -13775.899   -1672.3926   -12877.597   -2481.3845   -2380.9453   -2334.0792    82.044752 
   15600     264.3577   -113.70026   0.23919641   -113.46107    12125.943    4.3402958    4.3402958    4.3402958    12125.943    11117.022    8254.9844    17005.824   -2726.5541   -633.20648   -9799.6454    81.763219 
   15700    653.00899   -114.04929   0.59085626   -113.45844    -13290.67    4.3471017    4.3471017    4.3471017    -13290.67   -16365.158   -11391.846   -12115.006    3991.7229    3840.1926    4989.5459    82.148455 
   15800    316.97564   -113.74742   0.28680622   -113.46061    1627.3636    4.3426399    4.3426399    4.3426399    1627.3636    -1736.206    3326.4346    3291.8621   -3861.8881    10.859775   -10546.473    81.895767 
   15900    387.00138   -113.81053   0.35016698   -113.46036    619.07031    4.3423331    4.3423331    4.3423331    619.07031    6986.0753   -11288.349    6159.4841   -2391.8454   -82.271479   -1849.5227    81.878409 
   16000      616.854   -114.01773   0.55814246   -113.45959   -9964.6692    4.3463166    4.3463166    4.3463166   -9964.6692   -17283.721   -3017.5809   -9592.7059    1283.9478   -737.47743    2207.9581    82.103954 
   16100     196.6111   -113.64077   0.17789786   -113.46288    8064.5933    4.3429435    4.3429435    4.3429435    8064.5933    11760.152   -6015.5297    18449.157   -2401.1853    207.22879     -13467.3    81.912945 
   16200    526.37686   -113.93674   0.47627684   -113.46046   -9432.8715    4.3415559    4.3415559    4.3415559   -9432.8715   -7295.5423   -14119.379   -6883.6929    2335.7039    1784.0455   -1690.4984    81.834453 
   16300    410.05494   -113.83224   0.37102632   -113.46121    603.12236    4.3468828    4.3468828    4.3468828    603.12236   -8076.0926   -9680.9444    19566.404   -881.31418   -99.540086   -256.59571    82.136049 
   16400    274.54196   -113.71061   0.24841134    -113.4622    6936.0982    4.3421911    4.3421911    4.3421911    6936.0982    6561.5151    -969.9956    15216.775   -2603.0589    145.02517   -5342.8952    81.870381 
   16500    532.98241   -113.94336   0.48225368   -113.46111   -9246.1233    4.3422282    4.3422282    4.3422282   -9246.1233   -14149.033   -17699.507    4110.1696   -1384.0962   -389.26562    650.23178    81.872474 
   16600    210.63081   -113.65311   0.19058319   -113.46253    10840.128    4.3463785    4.3463785    4.3463785    10840.128    2338.8116   -8617.8374    38799.409   -5080.9768    1813.5262   -5770.7167    82.107462 
   16700    528.12032   -113.93817   0.47785436   -113.46031   -6698.0408    4.3410599    4.3410599    4.3410599   -6698.0408   -6801.5406   -6033.7251   -7258.8566    643.13801   -319.52698    294.87811     81.80641 
   16800    289.12352   -113.72374   0.26160504   -113.46214    2133.3608    4.3438784    4.3438784    4.3438784    2133.3608    -10777.47   -14316.475    31494.027   -3129.1617    -1596.732   -3085.1765    81.965855 
   16900    295.37299   -113.72698   0.26725969   -113.45972    8057.6704    4.3443337    4.3443337    4.3443337    8057.6704     5050.464    2615.1804    16507.367   -7163.7138   -350.52689   -3275.2095     81.99163 
   17000    575.91117   -113.97857   0.52109653   -113.45747    -11454.73    4.3433288    4.3433288    4.3433288    -11454.73   -14242.605   -11944.808    -8176.776    1483.9656    195.55272    7172.0173    81.934746 
   17100    167.69359   -113.61317   0.15173269   -113.46144    7963.9717    4.3429009    4.3429009    4.3429009    7963.9717     -5986.58   -3345.6679    33224.163   -9012.0826    1076.2985   -8842.3381    81.910532 
   17200    463.04803   -113.87805   0.41897559   -113.45908   -2677.8978    4.3445608    4.3445608    4.3445608   -2677.8978   -6141.1334    3595.5735   -5488.1336    -4391.153   -1847.3921     919.6376    82.004494 
   17300    513.82876   -113.92362   0.46492306    -113.4587   -4547.8121    4.3433209    4.3433209    4.3433209   -4547.8121   -7801.8201   -7491.6642    1650.0478     2077.674   -488.65654    3259.4629    81.934301 
   17400    179.49904   -113.62414    0.1624145   -113.46173    8325.5193    4.3430212    4.3430212    4.3430212    8325.5193   -5941.8157    12755.118    18163.256   -12935.098       1887.7   -5454.6423    81.917342 
   17500    613.11993   -114.01301    0.5547638   -113.45824   -11771.842    4.3448754    4.3448754    4.3448754   -11771.842   -14870.388   -13040.673    -7404.465    2088.7791    1502.3966    1983.0072    82.022307 
   17600    373.89739   -113.79825   0.33831021   -113.45994    3449.6621    4.3437721    4.3437721    4.3437721    3449.6621   -6807.1613    11457.578    5698.5693   -654.52279    1975.7008   -4942.0633    81.959837 
   17700    325.18148   -113.75576   0.29423103   -113.46152    1633.8356    4.3424645    4.3424645    4.3424645    1633.8356   -3638.7835   -235.56582    8775.8561   -9942.1332      -2532.4    1211.4515    81.885846 
   17800    583.77254   -113.98707   0.52820967   -113.45886    -12000.54    4.3452958    4.3452958    4.3452958    -12000.54       -15155   -10171.504   -10675.116    2239.4657   -1963.8281   -1457.8436    82.046119 
   17900    307.61565   -113.73725    0.2783371   -113.45891    6122.7249    4.3435688    4.3435688    4.3435688    6122.7249    1617.0357    6179.1092     10572.03   -3037.4247    994.53135   -5262.9566    81.948334 
   18000    507.79387   -113.91837   0.45946256   -113.45891   -11158.388    4.3432579    4.3432579    4.3432579   -11158.388   -12804.555   -19888.147   -782.46215   -3756.7918    261.58065    2720.4343    81.930733 
   18100    328.17888   -113.75951   0.29694314   -113.46257    1209.1872    4.3450654    4.3450654    4.3450654    1209.1872   -6788.9896    4148.7985    6267.7528   -274.02956    2617.2362   -6643.1143    82.033067 
   18200    403.67839   -113.82748   0.36525669   -113.46222   -636.35318    4.3440006    4.3440006    4.3440006   -636.35318   -555.54695   -11362.591    10009.078   -3158.0434   -4270.9488    1570.3901    81.972775 
   18300    468.40149   -113.88653   0.42381951   -113.46271   -8420.5547    4.3429956    4.3429956    4.3429956   -8420.5547   -9435.0177   -13478.111   -2348.5353   -1925.4878    586.85406    1457.2806    81.915891 
   18400    207.06698   -113.65113   0.18735856   -113.46377    4493.6828    4.3448072    4.3448072    4.3448072    4493.6828    9517.3819   -9400.0397    13363.706   -4165.6621    55.569957   -10725.935    82.018443 
   18500    578.80912   -113.98344   0.52371866   -113.45972   -6049.3525    4.3412229    4.3412229    4.3412229   -6049.3525   -4281.8982   -4241.5311   -9624.6282    3467.1884   -45.238689    963.06615    81.815623 
   18600    326.57527   -113.75779   0.29549216    -113.4623   -438.21315    4.3475835    4.3475835    4.3475835   -438.21315   -2075.5953   -13798.233    14559.188   -650.60868    -1476.633   -3547.0589    82.175773 
   18700     256.7494   -113.69563   0.23231225   -113.46332    6485.0834    4.3402674    4.3402674    4.3402674    6485.0834    18711.219   -7876.8372    8620.8682   -5459.1224   -3351.7749    -3579.502    81.761617 
   18800    566.01504   -113.97352    0.5121423   -113.46138   -6853.5561    4.3443816    4.3443816    4.3443816   -6853.5561   -15346.251   -9007.0945    3792.6772   -433.32276   -25.087577    2200.5203    81.994344 
   18900    232.26147   -113.67211   0.21015506   -113.46196    9833.3676    4.3455439    4.3455439    4.3455439    9833.3676    14181.466    1727.9986    13590.638   -4583.4548   -1332.8128   -9055.4605     82.06017 
   19000    487.20995   -113.90147    0.4408378   -113.46063    -8334.532     4.341406     4.341406     4.341406    -8334.532   -1199.8303    -12046.31   -11757.456    11.965944    3447.1251     2457.334    81.825978 
   19100    393.33732   -113.81802   0.35589988   -113.46212    2325.7596    4.3437647    4.3437647    4.3437647    2325.7596   -1222.8281   -1441.4609    9641.5679   -1293.3975   -241.77364    232.28016     81.95942 
   19200    368.97654   -113.79447   0.33385772   -113.46061     2108.886    4.3464619    4.3464619    4.3464619     2108.886    5526.7983    8716.7415   -7916.8817   -1315.1163    973.57733   -6763.3055    82.112188 
   19300    527.55035   -113.93771   0.47733865   -113.46037   -10425.217    4.3413252    4.3413252    4.3413252   -10425.217   -14565.377   -11042.457    -5667.818   -3769.3145    270.59302    5860.5353    81.821408 
   19400    212.49487   -113.65591   0.19226982   -113.46364    10437.597    4.3455892    4.3455892    4.3455892    10437.597    10730.937    18330.486    2251.3674   -4644.5879   -791.70087   -4072.7463    82.062738 
   19500    574.41698   -113.97942   0.51974456   -113.45968   -7295.2276    4.3460897    4.3460897    4.3460897   -7295.2276   -13315.193   -2795.2448   -5775.2454    6370.8831   -71.219379    1382.2464    82.091098 
   19600    383.95657   -113.80814   0.34741197   -113.46073    386.80465    4.3402404    4.3402404    4.3402404    386.80465   -2655.8339    1748.8749    2067.3729   -9569.5964   -1824.2697    1453.9365    81.760091 
   19700    304.03937   -113.73685   0.27510122   -113.46175    26.468998    4.3475156    4.3475156    4.3475156    26.468998   -6657.4762    6014.5178     722.3654   -5347.1206   -396.80529   -5885.6723    82.171924 
   19800     577.4004   -113.98182   0.52244402   -113.45937   -6246.2695    4.3441038    4.3441038    4.3441038   -6246.2695   -10063.414    3257.4246    -11932.82    1069.0704   -1669.2687    2344.6786    81.978616 
   19900    264.55224   -113.70092   0.23937243   -113.46155    7237.4051    4.3410659    4.3410659    4.3410659    7237.4051    1880.2478    12848.451     6983.516   -10290.265   -363.23089   -6474.9793    81.806747 
   20000    382.38446   -113.80733   0.34598949   -113.46134   -8241.6162    4.3472814    4.3472814    4.3472814   -8241.6162   -15394.068   -9302.2347   -28.545898   -799.60009    1644.0245    2513.2393    82.158641 
   20100    393.98453   -113.81601   0.35648549   -113.45952    1704.2724     4.343441     4.343441     4.343441    1704.2724    7760.6375    8675.3318   -11323.152   -3877.1542   -2854.0954    2788.2259    81.941096 
   20200    443.21132   -113.86129   0.40102691   -113.46026    1115.1921    4.3408901    4.3408901    4.3408901    1115.1921   -4806.4201   -1900.7708    10052.767   -1949.5122   -2659.8692   -5743.3669     81.79681 
   20300    326.42159   -113.75924   0.29535312   -113.46389   -5884.9206    4.3471017    4.3471017    4.3471017   -5884.9206     2057.696   -12211.269    -7501.189   -2767.2151   -449.64396    6738.1471    82.148457 
   20400    426.57258   -113.84788   0.38597183    -113.4619   -334.33428    4.3415081    4.3415081    4.3415081   -334.33428    16426.516    -8792.261   -8637.2578   -2880.9673    1020.4655   -2473.1792    81.831753 
   20500    468.23031   -113.88421   0.42366463   -113.46055    81.489424    4.3440748    4.3440748    4.3440748    81.489424   -4262.4022   -6317.3901    10824.261    799.13841    1199.0219    5515.7934    81.976974 
   20600    251.05127   -113.68914   0.22715646   -113.46198    7602.0426    4.3429478    4.3429478    4.3429478    7602.0426    26741.126     8289.703   -12224.701   -6525.2844    1140.7992    927.43976     81.91319 
   20700    492.35394   -113.90559   0.44549219    -113.4601   -6768.6629    4.3440829    4.3440829    4.3440829   -6768.6629   -4093.3794     -7866.06   -8346.5493     3045.833   -176.95922     -2916.84    81.977433 
   20800    292.04119   -113.72477     0.264245   -113.46052    11938.217     4.343398     4.343398     4.343398    11938.217    17709.023    16166.709    1938.9199    917.67707    1436.4683    5901.9476    81.938663 
   20900    434.04868   -113.85346   0.39273636   -113.46072    582.54837    4.3432378    4.3432378    4.3432378    582.54837    846.84221    9800.3009    -8899.498   -5557.3629    884.90433   -4309.9369    81.929598 
   21000     399.3263   -113.82418   0.36131882   -113.46286   -1458.9221    4.3418292    4.3418292    4.3418292   -1458.9221    4313.0226    1844.4235   -10534.212   -7484.7423   -2287.2545    1792.9792    81.849909 
   21100    333.13539   -113.76501    0.3014279   -113.46359    3057.6896    4.3469583    4.3469583    4.3469583    3057.6896    10403.678    2723.1147   -3953.7242    1457.9349    -760.2293    2807.1835    82.140323 
   21200    592.62445   -113.99697   0.53621905   -113.46075   -10306.418    4.3444646    4.3444646    4.3444646   -10306.418   -10601.385   -6675.2711   -13642.598     2757.085    -889.1304   -2365.3225    81.999042 
   21300    255.39234   -113.69408   0.23108436   -113.46299    7649.5167    4.3409014    4.3409014    4.3409014    7649.5167    10150.832    15680.647   -2882.9283   -4741.0516   -897.54423    4852.8064    81.797451 
   21400    497.78387   -113.91093   0.45040531   -113.46052   -10112.324    4.3491799    4.3491799    4.3491799   -10112.324   -10810.182   -10779.787    -8747.004    1546.7017    151.56222   -3624.5599    82.266329 
   21500    411.97394   -113.83263   0.37276268   -113.45987    1699.9181    4.3420063    4.3420063    4.3420063    1699.9181     1966.415    17234.015   -14100.676   -3276.5331   -1739.6367    -1777.316    81.859925 
   21600    416.21974    -113.8377   0.37660437    -113.4611    -5739.358    4.3428222    4.3428222    4.3428222    -5739.358   -11348.645    1637.4668   -7506.8958   -4684.0952   -1414.4523    1162.7857    81.906079 
   21700    365.32723   -113.79234   0.33055576   -113.46179    -757.0456    4.3452124    4.3452124    4.3452124    -757.0456    7792.1128   -8564.7191   -1498.5305    1269.2437    2759.0935   -5615.3404    82.041396 
   21800    473.77025    -113.8876   0.42867728   -113.45892    -2946.722    4.3449305    4.3449305    4.3449305    -2946.722    1672.2149    7504.7246   -18017.105   -4923.1333   -1085.9536    4221.6689    82.025427 
   21900    489.20522   -113.90162   0.44264317   -113.45898   -3883.3588    4.3400352    4.3400352    4.3400352   -3883.3588   -3807.6932   -8875.3089    1032.9258   -2515.7753   -2641.5193   -6457.2497    81.748493 
   22000    235.69817   -113.67604   0.21326466   -113.46277     1858.773    4.3475569    4.3475569    4.3475569     1858.773    22749.531   -5263.6151   -11909.597   -4539.4962   -783.67851   -6748.3223    82.174267 
   22100    575.15151   -113.97986   0.52040917   -113.45945   -4300.9724    4.3397931    4.3397931    4.3397931   -4300.9724   -2753.3471   -2393.7713   -7755.7989    2946.9386   -465.36565    6736.2019    81.734814 
   22200    296.66782   -113.73143   0.26843128     -113.463    9146.2491    4.3441157    4.3441157    4.3441157    9146.2491    14545.727    18248.027   -5355.0065    -1329.088    324.68332   -7167.8148    81.979289 
   22300    392.59042   -113.81891   0.35522407   -113.46369   -3367.3201    4.3445442    4.3445442    4.3445442   -3367.3201    5957.0833   -10367.259   -5691.7845   -3886.3981   -1886.1831   -1702.2194    82.003551 
   22400    450.94886   -113.87082     0.408028   -113.46279   -3959.4779    4.3414512    4.3414512    4.3414512   -3959.4779   -6658.3935    5821.3266   -11041.367   -776.80592    2449.7203    2569.9442    81.828535 
   22500    355.68582   -113.78347     0.321832   -113.46164    4014.5782     4.345588     4.345588     4.345588    4014.5782    10728.027    8752.4025   -7436.6946    -21.10525    911.92667   -9051.8007     82.06267 
   22600    509.02418      -113.92   0.46057578   -113.45943   -6334.9941    4.3424961    4.3424961    4.3424961   -6334.9941   -12276.785   -4932.9435   -1795.2543   -3840.7484    1701.8079    2656.9582    81.887632 
   22700    262.38047   -113.69851   0.23740736    -113.4611    47.822912    4.3455955    4.3455955    4.3455955    47.822912   -3146.0909    15167.255   -11877.695   -4466.2635    4096.6559    1285.2519    82.063097 
   22800       452.44   -113.86866   0.40937722   -113.45928   -2505.3583    4.3424337    4.3424337    4.3424337   -2505.3583    1886.8529   -6450.8482   -2952.0797    3977.1714    -1746.388   -2023.5176      81.8841 
   22900    350.75775    -113.7788   0.31737298   -113.46143   -264.79924    4.3441599    4.3441599    4.3441599   -264.79924    -535.1176    7349.0497   -7608.3298   -2666.4827   -524.35276    3228.6537    81.981792 
   23000    285.11372   -113.72036   0.25797689   -113.46239    1699.2628    4.3437944    4.3437944    4.3437944    1699.2628    759.32459    14427.911   -10089.447   -3204.9048    276.33497   -2696.1467    81.961101 
   23100    422.45075   -113.84246   0.38224232   -113.46022   -5632.4242    4.3468053    4.3468053    4.3468053   -5632.4242    5850.5278   -14821.511   -7926.2889    2003.5846   -1006.5912    5925.7672    82.131653 
   23200     373.9447    -113.7981   0.33835302   -113.45974    4129.9721     4.340311     4.340311     4.340311    4129.9721    8658.7862    9739.3296   -6008.1995   -6256.2481    1132.8897   -2338.6433    81.764079 
   23300     406.6354   -113.82885   0.36793225   -113.46092   -7082.3199      4.34814      4.34814      4.34814   -7082.3199   -9567.4347    1172.8039   -12852.329   -1581.6102   -637.31522   -2427.3659    82.207335 
   23400    376.01216   -113.80081   0.34022371   -113.46059    1785.7831    4.3435658    4.3435658    4.3435658    1785.7831    15790.263     7573.116    -18006.03   -2143.3338    2575.7013    5713.7582    81.948159 
   23500    447.76067   -113.86439   0.40514326   -113.45924    1445.6228    4.3428855    4.3428855    4.3428855    1445.6228   -5920.4525    11703.074    -1445.753   -2857.8292    1009.3972   -2307.7238    81.909663 
   23600    458.45233   -113.87583    0.4148173   -113.46102   -3919.7174    4.3447827    4.3447827    4.3447827   -3919.7174   -77.167064    894.43127   -12576.416   -4167.7058   -1178.4586    4779.6603    82.017056 
   23700    303.66775   -113.73892   0.27476496   -113.46415    5774.8284    4.3414384    4.3414384    4.3414384    5774.8284    19924.555    10067.359   -12667.429    362.68315    3892.2381    9953.7601    81.827809 
   23800    585.62676   -113.99421    0.5298874   -113.46432   -4489.3883    4.3442139    4.3442139    4.3442139   -4489.3883   -10631.376    6417.9924   -9254.7817    4331.5181   -809.34597    565.86065    81.984849 
   23900    338.18409   -113.77094   0.30599607   -113.46495    6936.0925    4.3441787    4.3441787    4.3441787    6936.0925    24140.048    2079.2712   -5411.0421     -2631.47   -120.74546    250.90333    81.982859 
   24000    446.99379   -113.86786   0.40444937   -113.46341   -2452.7439    4.3398029    4.3398029    4.3398029   -2452.7439   -3326.6527   -1304.0455   -2727.5334   -5765.5218   -73.134696    1052.5467    81.735368 
   24100    417.10237   -113.83952   0.37740299   -113.46212    339.94682    4.3469552    4.3469552    4.3469552    339.94682     -3491.81    16986.934   -12475.284   -4502.2221   -2296.2163    4034.0749    82.140148 
   24200    439.34951   -113.85702   0.39753267   -113.45948    1949.6003    4.3448456    4.3448456    4.3448456    1949.6003    7838.8019    364.51838   -2354.5192    2719.1614    2239.8259    831.55926    82.020622 
   24300    395.73597   -113.81884   0.35807022   -113.46077   -1325.9606    4.3392381    4.3392381    4.3392381   -1325.9606   -11388.575    9592.1219   -2181.4281   -6049.7835    1315.6355    766.54783    81.703459 
   24400    356.14173    -113.7844   0.32224452   -113.46215   -1637.3303    4.3461313    4.3461313    4.3461313   -1637.3303    4603.9727    2764.1233   -12280.087    2154.7267    1668.3252     612.5397    82.093452 
   24500    558.14076   -113.96431   0.50501749   -113.45929   -10019.018    4.3474698    4.3474698    4.3474698   -10019.018   -16247.888   -13519.317   -289.84872   -1973.1117   -447.84557    -2316.983    82.169327 
   24600    301.18084   -113.73397   0.27251475   -113.46146    7737.3544    4.3374496    4.3374496    4.3374496    7737.3544    11288.272    13801.046    -1877.254   -9738.2752    1109.1812    3393.7906    81.602476 
   24700    452.90959   -113.87271   0.40980212   -113.46291   -10699.743    4.3469081    4.3469081    4.3469081   -10699.743   -13333.651   -10468.763   -8296.8162    2206.6423    4897.9106    4754.3566     82.13748 
   24800     369.9985   -113.79812   0.33478242   -113.46334    292.92573    4.3464761    4.3464761    4.3464761    292.92573     8001.553    -3004.583   -4118.1928   -4808.6833    -555.1094   -609.64907    82.112993 
   24900    439.18917   -113.85934   0.39738759   -113.46195     1815.614     4.338431     4.338431     4.338431     1815.614    4755.0079     5040.686    -4348.852   -1851.5619   -316.38448    328.55353    81.657876 
   25000    277.83692    -113.7151   0.25139268    -113.4637    3444.9156    4.3459205    4.3459205    4.3459205    3444.9156    4666.0154    5259.9191    408.81226   -4384.6361   -2504.5102    2203.1323     82.08151 
   25100     355.7397    -113.7839   0.32188076   -113.46202    1570.2922    4.3446657    4.3446657    4.3446657    1570.2922    20910.296   -8480.2163   -7719.2028   -666.76543    2606.7415    770.59804    82.010429 
   25200    523.41044    -113.9342   0.47359277    -113.4606   -3863.0859     4.339693     4.339693     4.339693   -3863.0859   -4529.9954   -1116.7294   -5942.5328    1101.3704   -346.49574   -3265.4519     81.72916 
   25300    139.06771   -113.58978   0.12583139   -113.46394    9841.5805    4.3481213    4.3481213    4.3481213    9841.5805    29708.023   -2679.8578    2496.5762     -6915.67   -2319.6781   -921.31897    82.206274 
   25400    570.02127    -113.9754   0.51576722   -113.45963   -5907.1911    4.3407847    4.3407847    4.3407847   -5907.1911   -5907.4902   -4911.8434   -6902.2398    2716.0114   -288.61162    1577.9891    81.790854 
   25500     272.8387   -113.70939   0.24687019   -113.46252    10017.889    4.3399639    4.3399639    4.3399639    10017.889    24911.151    1878.8756     3263.639   -1743.9842    -5132.268   -4767.0415    81.744462 
   25600     480.5301   -113.89879   0.43479373   -113.46399   -15715.467    4.3503367    4.3503367    4.3503367   -15715.467   -17608.196   -16615.908   -12922.298   -2439.4526    3643.8692    1201.5047    82.331991 
   25700    276.06362   -113.71497   0.24978817   -113.46518    11652.398    4.3366146    4.3366146    4.3366146    11652.398    23761.774    9428.2185    1767.2025   -3059.0782   -6602.3209    2793.8311    81.555357 
   25800    510.78924   -113.92471   0.46217283   -113.46254   -3560.9719    4.3449376    4.3449376    4.3449376   -3560.9719   -7936.4068    1388.5934   -4135.1022    2246.0265   -1052.9498   -1434.6938    82.025827 
   25900    389.21027   -113.81494   0.35216563   -113.46278    -4445.692     4.345886     4.345886     4.345886    -4445.692    6946.0652   -8992.1713    -11290.97    996.89352   -286.56178    4389.5256    82.079552 
   26000    338.50456   -113.76929   0.30628604     -113.463    2649.9014    4.3392171    4.3392171    4.3392171    2649.9014    2720.0929     5995.859   -766.24765   -6524.2769   -6984.8348    5593.8494    81.702272 
   26100    470.49731    -113.8868   0.42571585   -113.46109    2279.5881    4.3446177    4.3446177    4.3446177    2279.5881    6228.3068    3200.5626   -2590.1051    2877.7146     2487.013   -476.16754    82.007713 
   26200    456.65067   -113.87436   0.41318712   -113.46117    811.97705    4.3429296    4.3429296    4.3429296    811.97705    9348.4967     -3513.28   -3399.2856   -1593.1728   -4419.4757   -3459.5357    81.912161 
   26300    344.31912   -113.77372   0.31154718   -113.46217   -5.1150085    4.3426425    4.3426425    4.3426425   -5.1150085   -6870.0981    5937.9224    916.83061    369.40652    3614.6057    3828.7035    81.895912 
   26400    452.94963   -113.87146   0.40983834   -113.46162    724.15432    4.3441033    4.3441033    4.3441033    724.15432    25694.095   -10384.682    -13136.95    1384.6816   -1904.0077    3156.1011    81.978586 
   26500    502.12722   -113.91714   0.45433526   -113.46281    1866.5854    4.3408074    4.3408074    4.3408074    1866.5854   -12328.864    1512.1655    16416.455   -3882.5356    84.440664   -3222.2395    81.792137 
   26600    321.32692   -113.75563   0.29074335   -113.46489    2523.8536    4.3434825    4.3434825    4.3434825    2523.8536    19588.482   -6467.8836   -5549.0375    5038.0063    1655.8738    1490.1639     81.94345 
   26700    481.34228   -113.89777   0.43552861   -113.46224   -7743.4462    4.3465969    4.3465969    4.3465969   -7743.4462    -9067.916   -15363.931    1201.5088    1144.5513    -666.3922    545.76702    82.119843 
   26800    393.37518   -113.81704   0.35593413    -113.4611    8594.7557    4.3371059    4.3371059    4.3371059    8594.7557    13776.743    4305.9488    7701.5753    632.34374    7275.5383   -342.64084    81.583075 
   26900    460.68247   -113.87893   0.41683518    -113.4621   -10089.373    4.3465246    4.3465246    4.3465246   -10089.373   -9256.9911   -16772.292   -4238.8354    2289.2758   -5080.1468    4166.5786    82.115741 
   27000    323.55935   -113.75605    0.2927633   -113.46329   -2735.7334    4.3447838    4.3447838    4.3447838   -2735.7334    6937.8318   -14634.752   -510.27987   -4962.0536    4747.7445    3793.9748     82.01712 
   27100    414.40022   -113.83666   0.37495803    -113.4617    3647.4042    4.3402673    4.3402673    4.3402673    3647.4042    4138.6908    8522.1654   -1718.6437    6157.0265     3104.045    117.07952    81.761611 
   27200    486.97135   -113.90169   0.44062191   -113.46106   -6401.5639    4.3462242    4.3462242    4.3462242   -6401.5639   -1263.6749     -8997.44   -8943.5767   -1975.3119   -2610.8405   -1561.1626     82.09872 
   27300    212.71683   -113.65538   0.19247066   -113.46291    5201.8424    4.3432147    4.3432147    4.3432147    5201.8424    21430.874   -3368.7645   -2456.5823   -3049.4281    6263.9122    1799.0907    81.928293 
   27400    507.47672   -113.92123    0.4591756   -113.46206   -2651.2746    4.3411671    4.3411671    4.3411671   -2651.2746   -193.16108   -561.56424   -7199.0984   -2901.0717   -3493.9743    1256.0089    81.812471 
   27500    271.64971   -113.70959   0.24579436    -113.4638    8056.3806    4.3481598    4.3481598    4.3481598    8056.3806    25556.998    616.31732   -2004.1735    409.26128    2580.1517   -2868.3111    82.208456 
   27600    438.30496   -113.85946   0.39658754   -113.46287   -2444.8663    4.3393057    4.3393057    4.3393057   -2444.8663   -3332.1443    1256.0376   -5258.4921    2925.2141    89.729369     507.9939    81.707279 
   27700    241.40089    -113.6822   0.21842459   -113.46377    2754.1013    4.3463314    4.3463314    4.3463314    2754.1013     26260.26   -12588.758   -5409.1977   -492.85852   -1018.3393   -177.66385    82.104792 
   27800    487.65661   -113.90128   0.44124195   -113.46004   -7622.9158    4.3471366    4.3471366    4.3471366   -7622.9158   -12857.637   -9495.0392   -516.07139    1951.0642   -1568.3087    -3939.251    82.150435 
   27900     283.5202   -113.71796   0.25653503   -113.46143     7588.749    4.3379059    4.3379059    4.3379059     7588.749    22591.055    1188.0071   -1012.8155    3810.2306   -809.29768    2924.7293     81.62823 
   28000    384.74211   -113.80996   0.34812275   -113.46183   -8103.3358    4.3489806    4.3489806    4.3489806   -8103.3358   -1740.1809    -14881.62   -7688.2064    547.73626    3498.6596   -102.53318    82.255019 
   28100    453.68664    -113.8706   0.41050521    -113.4601    -6475.075    4.3452705    4.3452705    4.3452705    -6475.075    2697.7896      -7155.4   -14967.615   -1695.4825   -4636.1834   -1994.3111    82.044682 
   28200    390.73759   -113.81381   0.35354759   -113.46026    901.01539    4.3391221    4.3391221    4.3391221    901.01539    16892.771   -13426.558   -763.16707    827.96952   -2408.0896    6049.5846    81.696908 
   28300    430.71117   -113.85176   0.38971652   -113.46204   -6558.5919      4.34823      4.34823      4.34823   -6558.5919    3567.7887    -7225.181   -16018.384    1016.8177   -1098.1007    2735.9323    82.212437 
   28400    420.61518   -113.84192   0.38058146   -113.46134   -750.01716     4.343685     4.343685     4.343685   -750.01716     18131.21   -5020.0354   -15361.226   -2384.0874   -1857.8392    440.20267    81.954907 
   28500    507.37512   -113.91921   0.45908367   -113.46013    451.26654    4.3391421    4.3391421    4.3391421    451.26654     16355.07   -2372.3656   -12628.904   -1670.5266   -1741.1872    2177.2106    81.698036 
   28600    323.11684   -113.75427   0.29236291   -113.46191   -114.59203    4.3501551    4.3501551    4.3501551   -114.59203    23512.347   -8275.4802   -15580.643    4268.4007   -4643.7345    1839.9135    82.321682 
   28700    509.54659   -113.92315   0.46104846    -113.4621    3059.2406    4.3365881    4.3365881    4.3365881    3059.2406      8014.31    7698.7586   -6535.3468    3158.4111    5640.6282    915.66105    81.553861 
   28800    395.91238     -113.822   0.35822984   -113.46377    2148.8847    4.3461783    4.3461783    4.3461783    2148.8847     26078.13   -5429.2854   -14202.191    1048.6978   -3044.3268   -599.67156    82.096119 
   28900    470.74212   -113.88794   0.42593736   -113.46201   -2933.6441    4.3452657    4.3452657    4.3452657   -2933.6441   -2043.4063    7059.9398   -13817.466   -3508.8499   -514.71255    1695.3245    82.044414 
   29000    285.00238   -113.72071   0.25787614   -113.46283     8703.328     4.340401     4.340401     4.340401     8703.328    31518.197    722.38581   -6130.5989    521.34069    1921.0078   -1987.7605    81.769168 
   29100    563.49406   -113.97149   0.50986126   -113.46163   -6176.0482    4.3431892    4.3431892    4.3431892   -6176.0482    -4486.666   -7591.4435    -6450.035    496.63631   -2851.1398   -8165.6457    81.926847 
   29200    302.80626   -113.73805   0.27398546   -113.46406    1434.1395    4.3457862    4.3457862    4.3457862    1434.1395    14279.906    736.82423   -10714.312    807.29239    2879.2705    1707.9697      82.0739 
   29300    455.04639   -113.87377   0.41173554   -113.46204   -5940.4219    4.3406336    4.3406336    4.3406336   -5940.4219   -2504.1015   -10497.638   -4819.5264   -1959.9337   -1481.9242   -703.07134    81.782314 
   29400    349.92617   -113.77922   0.31662055    -113.4626     4547.496    4.3419129    4.3419129    4.3419129     4547.496    26820.923    -6951.499   -6226.9358   -1143.6551    1389.3869   -5205.0225    81.854642 
   29500    491.38603   -113.90639   0.44461641   -113.46177   -4639.3204    4.3440876    4.3440876    4.3440876   -4639.3204   -6063.0897   -5722.2186   -2132.6528    4764.6192    3552.7743    2957.4948    81.977697 
   29600    273.65186   -113.71128   0.24760595   -113.46367     1184.477    4.3438758    4.3438758    4.3438758     1184.477    30739.187   -22662.527    -4523.229   -259.51668   -3123.8346    -2777.088    81.965711 
   29700    429.10057   -113.85173   0.38825922   -113.46347    1371.4278    4.3391962    4.3391962    4.3391962    1371.4278    11491.631   -9150.0431     1772.695    6033.3138    1425.5356   -3809.7437    81.701095 
   29800    410.89023   -113.83436   0.37178212   -113.46258    327.64664    4.3460867    4.3460867    4.3460867    327.64664    3797.0468   -7393.9093    4579.8024   -5534.4995   -4305.8902    2863.5357    82.090925 
   29900    401.73142   -113.82489   0.36349504   -113.46139   -7794.6013    4.3440063    4.3440063    4.3440063   -7794.6013    15283.109   -22313.978   -16352.934   -1574.4108    328.35957   -645.18785    81.973097 
   30000    326.94291   -113.75986   0.29582481   -113.46404    1705.9284    4.3380575    4.3380575    4.3380575    1705.9284    7121.4483   -13870.216    11866.553    1409.8109    -1024.927    429.34277     81.63679 
   30100    408.64017   -113.83418   0.36974621   -113.46443   -5209.7196    4.3501857    4.3501857    4.3501857   -5209.7196    6404.8239   -15265.778   -6768.2043   -3098.7617   -1515.3773   -1651.3074    82.323419 
   30200    433.09362   -113.85641   0.39187221   -113.46454   -4485.4727    4.3387501    4.3387501    4.3387501   -4485.4727    10220.196   -7936.6037    -15740.01    4767.2196   -2946.7734    2492.9917    81.675899 
   30300     219.5779   -113.66462    0.1986787   -113.46594    4467.7996    4.3399195    4.3399195    4.3399195    4467.7996    23342.174   -11946.098    2007.3236   -2501.7816   -2737.4054    1776.6109    81.741956 
   30400    500.76814    -113.9144   0.45310553    -113.4613   -11259.764    4.3520512    4.3520512    4.3520512   -11259.764   -9649.3848   -12305.022   -11824.884    2467.7385    5388.4086   -2870.5155     82.42937 
   30500    375.03407    -113.8003   0.33933871   -113.46096    4932.7412    4.3365254    4.3365254    4.3365254    4932.7412     25427.57    -5607.965   -5021.3812    2032.0472   -8455.4076    2737.8647    81.550325 
   30600    362.00348   -113.79198   0.32754836   -113.46443    146.22945    4.3405166    4.3405166    4.3405166    146.22945    11331.525   -4066.9776   -6825.8593    2378.9963     3066.794    1109.0542    81.775702 
   30700     450.4167   -113.87138   0.40754649   -113.46384    -13057.31    4.3539846    4.3539846    4.3539846    -13057.31    4006.4967    -14625.93   -28552.497   -646.73413   -92.583033     22.69654     82.53928 
   30800    372.53553   -113.79758   0.33707798    -113.4605    10203.148    4.3329895    4.3329895    4.3329895    10203.148    17113.254    7733.5405    5762.6488   -2759.0144    -2109.182    3751.5948    81.351002 
   30900    356.77259   -113.78522   0.32281533   -113.46241    204.90827    4.3440763    4.3440763    4.3440763    204.90827    26951.954   -9638.6096    -16698.62    1422.5847    996.18783   -565.58655    81.977056 
   31000     461.1951   -113.88156   0.41729902   -113.46426   -10893.182     4.348307     4.348307     4.348307   -10893.182   -14787.035   -6009.8189   -11882.693    4237.3854    2708.0139   -1047.4165    82.216808 
   31100    351.38783   -113.78326   0.31794309   -113.46531    8264.5076    4.3348923    4.3348923    4.3348923    8264.5076    25114.874    2047.4932   -2368.8447    724.17444    10362.322   -382.89111    81.458221 
   31200    516.39417   -113.93121   0.46724429   -113.46397    -11115.32    4.3491143    4.3491143    4.3491143    -11115.32   -15363.347   -13725.405   -4257.2071   -2112.6298   -7318.7144    3093.9525    82.262604 
   31300    287.70083   -113.72396   0.26031776   -113.46364    4609.8566     4.342414     4.342414     4.342414    4609.8566    14150.674    1194.3656   -1515.4694    284.14834    4734.5046    2135.8516    81.882989 
   31400    488.48819   -113.90309   0.44199438    -113.4611    -5071.551    4.3407384    4.3407384    4.3407384    -5071.551   -9229.8236   -5690.6503   -294.17927    5781.5889     5263.554   -2080.0908    81.788233 
   31500    368.94638   -113.79718   0.33383043   -113.46335    3256.5064     4.344583     4.344583     4.344583    3256.5064    26429.144   -15661.377   -998.24819   -2148.0741   -3190.6635   -421.49345    82.005749 
   31600     449.7121   -113.87005   0.40690896   -113.46314    315.15837    4.3432859    4.3432859    4.3432859    315.15837   -957.13774    1832.6021    70.010748   -2083.2319    2333.0009   -233.77244    81.932319 
   31700    443.70887   -113.86286   0.40147711   -113.46138   -187.03515     4.343283     4.343283     4.343283   -187.03515    13650.244     -10373.8   -3837.5487    1914.0766   -1693.1881   -3059.9081    81.932159 
   31800    443.05916   -113.86119   0.40088924    -113.4603    1761.0697    4.3427216    4.3427216    4.3427216    1761.0697    12078.058   -10478.768    3683.9189   -704.03582    6777.5301    1285.7151    81.900391 
   31900    442.13187   -113.86158   0.40005021   -113.46153    2080.1455    4.3427337    4.3427337    4.3427337    2080.1455    13066.617   -4545.4849   -2280.6961    857.31443   -1658.1555    1439.9071    81.901073 
   32000    411.95209   -113.83641   0.37274291   -113.46367   -5234.9936    4.3468917    4.3468917    4.3468917   -5234.9936     6281.348   -12942.947   -9043.3823   -1664.2862   -925.52031   -866.16131    82.136552 
   32100     364.6342   -113.79523   0.32992869    -113.4653    5731.6085    4.3358721    4.3358721    4.3358721    5731.6085    13519.436   -6123.1234    9798.5131     8872.185    953.67428    251.99556    81.513469 
   32200    343.40597   -113.77738   0.31072094   -113.46666    718.73288    4.3470996    4.3470996    4.3470996    718.73288    4587.5502   -9804.1437    7372.7921    99.955374   -165.70139    1672.6792    82.148335 
   32300    432.86623   -113.85617   0.39166646    -113.4645   -7112.3214    4.3442045    4.3442045    4.3442045   -7112.3214    1063.9659   -14981.813   -7419.1168     1101.016    -655.2931   -1125.8928    81.984318 
   32400    277.29544   -113.71441   0.25090275   -113.46351    9545.5518    4.3351634    4.3351634    4.3351634    9545.5518    10216.551   -2987.0347    21407.139    11078.792   -1161.3242    341.99721    81.473509 
   32500    433.04939   -113.85331   0.39183219   -113.46147   -9052.1801    4.3521665    4.3521665    4.3521665   -9052.1801   -5512.4602   -7420.8116   -14223.268   -2757.4948    2200.4544    4863.8916    82.435924 
   32600    352.76069   -113.77961   0.31918528   -113.46043    5854.6625    4.3371029    4.3371029    4.3371029    5854.6625    16056.175   -9383.6596    10891.472    5216.2802   -3640.2653    1873.2672    81.582905 
   32700    410.42872   -113.83238   0.37136453   -113.46101   -3770.7052    4.3409993    4.3409993    4.3409993   -3770.7052   -9217.8564   -9331.6134    7237.3541    2925.2559    6002.2283   -946.73307    81.802985 
   32800    358.67243   -113.78545   0.32453435   -113.46092   -3994.2361    4.3487243    4.3487243    4.3487243   -3994.2361    18025.575    -8697.636   -21310.647   -4172.8349    781.67057   -1539.3682    82.240476 
   32900    493.32252   -113.90714   0.44636859   -113.46077   -3611.0277     4.337714     4.337714     4.337714   -3611.0277   -3099.3471   -6636.7205   -1097.0154    4347.0526    626.31113   -530.69706      81.6174 
   33000    279.98822   -113.71794   0.25333923    -113.4646    8577.6108    4.3405314    4.3405314    4.3405314    8577.6108    24313.456   -6456.3071    7875.6835   -1408.9544      2647.88    1769.6303    81.776538 
   33100    538.40307   -113.94958   0.48715842   -113.46242   -17791.131    4.3506511    4.3506511    4.3506511   -17791.131   -12861.491   -18833.421   -21678.482    221.45563    125.93078   -542.53467    82.349843 
   33200    320.48713   -113.75229   0.28998349    -113.4623    8127.3724    4.3336178    4.3336178    4.3336178    8127.3724    18144.814    4677.4935    1559.8095   -6576.8655    6266.2542    79.370439    81.386399 
   33300    440.71212   -113.86135   0.39876558   -113.46258   -10192.687    4.3479131    4.3479131    4.3479131   -10192.687   -3372.6316   -21416.382   -5789.0486    5068.0252   -4944.4942   -3218.5261    82.194466 
   33400     398.8464   -113.82245    0.3608846   -113.46157   -3118.1915    4.3425757    4.3425757    4.3425757   -3118.1915   -6935.2692    -2339.027   -80.278252    4812.0358    9098.4628    352.06788    81.892136 
   33500    338.45058   -113.76689    0.3062372   -113.46066     2879.824    4.3387766    4.3387766    4.3387766     2879.824    13786.816    4768.6161   -9915.9606   -5082.2276    6403.8625    5157.5802    81.677394 
   33600     537.5669   -113.94596   0.48640183   -113.45956   -10887.972    4.3456755    4.3456755    4.3456755   -10887.972   -9077.7713   -16417.624   -7168.5213   -3192.3603   -2481.1002   -948.44037     82.06763 
   33700    256.19738   -113.69435   0.23181278   -113.46254    5421.0102    4.3433764    4.3433764    4.3433764    5421.0102    12015.476    10993.088   -6745.5338    210.38005    10367.071   -1419.0789    81.937445 
   33800    479.25687   -113.89449   0.43364169   -113.46085    1872.5353    4.3385659    4.3385659    4.3385659    1872.5353   -2963.0323     8289.321    291.31722    6792.8551    6102.3667    663.80348    81.665495 
   33900    418.38365   -113.84056   0.37856232     -113.462    1049.0528    4.3457723    4.3457723    4.3457723    1049.0528    14689.383   -3364.3961    -8177.828    -1837.573   -1586.5581   -680.76969    82.073111 
   34000     374.2649   -113.80069   0.33864274   -113.46205    4224.9596    4.3406507    4.3406507    4.3406507    4224.9596   -1678.1987    13523.186    829.89196    484.78448    1234.0853    846.30067    81.783278 
   34100    426.25056   -113.84739   0.38568047   -113.46171    2201.5239    4.3416387    4.3416387    4.3416387    2201.5239    15494.018   -2743.0548   -6146.3921    2087.9299    1280.6964   -1842.9677    81.839136 
   34200    433.27607   -113.85298    0.3920373   -113.46094    4723.2929    4.3434187    4.3434187    4.3434187    4723.2929    8496.5161    9814.0177   -4140.6551   -3658.6758    3145.3298    -733.8217    81.939835 
   34300     453.7038   -113.87094   0.41052074   -113.46042    206.35728    4.3413931    4.3413931    4.3413931    206.35728    1228.1253     1646.261   -2255.3145    2845.3669   -629.65651   -904.71072    81.825247 
   34400     342.9352   -113.77175   0.31029497   -113.46145    3253.0334     4.342372     4.342372     4.342372    3253.0334    15435.091   -303.16808   -5372.8223    1913.8503   -1248.7125   -2865.9707    81.880611 
   34500    474.32274     -113.889   0.42917718   -113.45983   -577.41562    4.3436741    4.3436741    4.3436741   -577.41562    -3402.067    2461.9907   -792.17061   -86.466249    440.52294    2273.5328    81.954292 
   34600    346.03712   -113.77416   0.31310166   -113.46105    3922.9308    4.3422753    4.3422753    4.3422753    3922.9308    16551.541   -4169.1507    -613.5982   -1509.6998   -2539.2975   -999.61754    81.875139 
   34700    430.68431   -113.85295   0.38969221   -113.46326   -5775.1619    4.3415987    4.3415987    4.3415987   -5775.1619    -10644.13   -3188.9322    -3492.423    2485.2025    5136.2083   -3269.1882    81.836877 
   34800    247.20124   -113.68817   0.22367288    -113.4645    8718.2428    4.3415062    4.3415062    4.3415062    8718.2428    11402.023   -5320.8614    20073.567     6814.644   -998.11903   -137.37033    81.831644 
   34900    558.53863   -113.96629   0.50537749   -113.46091   -11570.277    4.3440598    4.3440598    4.3440598   -11570.277   -11721.078   -13240.534   -9749.2197   -1339.7078    -278.6159    777.99681    81.976126 
   35000    227.05875   -113.66805   0.20544753    -113.4626    3203.7653    4.3403724    4.3403724    4.3403724    3203.7653      8480.26   -1083.8156    2214.8516    4000.4884    -1484.449   -1608.5018    81.767551 
   35100    420.91754   -113.84291   0.38085504   -113.46205   -4047.5618    4.3433358    4.3433358    4.3433358   -4047.5618   -6272.5038   -14314.182    8444.0008     4400.676     2382.135   -1744.4539    81.935145 
   35200    440.42514   -113.85935   0.39850592   -113.46085   -268.99219    4.3443248    4.3443248    4.3443248   -268.99219    12298.088   -5422.8612   -7682.2035    -1761.079    261.73382   -1543.4386    81.991131 
   35300    316.04833   -113.74753   0.28596717   -113.46157    3590.7402    4.3384094    4.3384094    4.3384094    3590.7402    13602.407   -4866.3571    2036.1705    1834.7515   -3585.7063   -2329.1935    81.656655 
   35400    457.31959   -113.87584   0.41379237   -113.46205    -14508.36    4.3477607    4.3477607    4.3477607    -14508.36   -17524.727    -17072.98   -8927.3744    3253.9168    2859.7492    862.58019    82.185819 
   35500    346.97101   -113.77588   0.31394666   -113.46194    7517.8098    4.3411117    4.3411117    4.3411117    7517.8098    27118.428     2843.287    -7408.286   -3147.3243    4164.9043     1991.765    81.809337 
   35600    493.58092   -113.90786   0.44660239   -113.46125   -3670.5101    4.3412797    4.3412797    4.3412797   -3670.5101   -7791.2871   -3462.5475    242.30428    357.94308    3541.0106   -2306.0984    81.818838 
   35700    359.24304   -113.78791   0.32505065   -113.46286   -8284.5915    4.3467283    4.3467283    4.3467283   -8284.5915   -1045.1939   -14533.206    -9275.375    1786.2654   -795.97449    7.7364049    82.127287 
   35800    343.45526    -113.7727   0.31076554   -113.46193    -2136.043    4.3431041    4.3431041    4.3431041    -2136.043    2496.7588    6116.3011   -15021.189    3730.9916    4881.8923   -826.13872    81.922035 
   35900    490.14131   -113.90347   0.44349016   -113.45998    2009.8123    4.3384655    4.3384655    4.3384655    2009.8123    5010.0266    -3168.111    4187.5212   -1986.5916    3675.2294    3526.7611    81.659825 
   36000    324.60032   -113.75524   0.29370519   -113.46154   -1927.5641    4.3493802    4.3493802    4.3493802   -1927.5641    4350.1029   -9965.3433   -167.45178   -4033.6652   -1735.3039    2096.3681    82.277698 
   36100    336.96261   -113.76449   0.30489085    -113.4596   -1128.2776    4.3413078    4.3413078    4.3413078   -1128.2776   -6767.2063    7605.9696   -4223.5961      4347.94     3859.383   -1625.6341    81.820428 
   36200    499.89833   -113.91084   0.45231851   -113.45852   -1844.8635    4.3393898    4.3393898    4.3393898   -1844.8635    982.36187   -7122.9125    605.96007   -1457.9163   -1630.9595    1677.9784    81.712026 
   36300    374.28497   -113.79874    0.3386609   -113.46008    -730.0188    4.3487233    4.3487233    4.3487233    -730.0188    4199.4365   -2105.8093   -4283.6836    773.25723   -67.295804   -2164.4026    82.240422 
   36400    372.26334   -113.79769   0.33683169   -113.46086   -450.87075    4.3392397    4.3392397    4.3392397   -450.87075   -14172.798    12291.597    528.58938    2661.4073    6086.4968     396.0989    81.703552 
   36500    450.42682   -113.86941   0.40755565   -113.46185   -244.09485    4.3407685    4.3407685    4.3407685   -244.09485    6230.8012   -3160.2571   -3802.8286   -187.08148    1906.9759    929.65656    81.789936 
   36600    421.20936   -113.84155   0.38111908   -113.46043    731.97825    4.3480165    4.3480165    4.3480165    731.97825   -3751.6917    14842.519   -8894.8923    1518.7242   -2395.1142    -2187.921    82.200328 
   36700    417.22392     -113.838   0.37751297   -113.46049   -2548.1812    4.3386563    4.3386563    4.3386563   -2548.1812   -3632.7606   -3382.3905   -629.39245    4446.0043   -1719.6399    1485.3625    81.670599 
   36800    343.44694   -113.77202   0.31075801   -113.46126    2954.4206     4.341166     4.341166     4.341166    2954.4206    3280.2617    11682.467   -6099.4671    5389.4973    3851.0125   -550.74852    81.812406 
   36900     550.0514   -113.95648   0.49769807   -113.45879   -7239.9896    4.3496298    4.3496298    4.3496298   -7239.9896   -16488.118   -1386.9565   -3844.8938   -3508.8093    266.22612    1058.0646     82.29186 
   37000    375.81204   -113.80075   0.34004264   -113.46071    3341.9107    4.3349237    4.3349237    4.3349237    3341.9107    6373.8315   -2661.2984     6313.199    4662.6691   -2198.1635    491.88042    81.459995 
   37100    376.13511   -113.80296   0.34033495   -113.46263   -6160.2271    4.3440446    4.3440446    4.3440446   -6160.2271   -18156.752     4512.529   -4836.4586    3493.2082    414.24026   -2221.5491    81.975264 
   37200     447.9966   -113.86537   0.40535674   -113.46002   -3711.9768     4.348791     4.348791     4.348791   -3711.9768   -8666.2219   -2785.3368    315.62838    -2277.152   -3434.7371    1305.0092    82.244264 
   37300    455.59021   -113.87012    0.4122276   -113.45789    7742.7304    4.3331085    4.3331085    4.3331085    7742.7304    5383.8595    11246.697    6597.6345    6769.1114    1904.7653    41.305542    81.357703 
   37400    263.52754   -113.70106   0.23844526   -113.46262    421.06202     4.346874     4.346874     4.346874    421.06202   -9463.0055    3309.2404    7416.9512    3755.1802    2174.9481   -1806.5968    82.135546 
   37500    415.36521   -113.83731   0.37583117   -113.46148   -3129.4507    4.3458954    4.3458954    4.3458954   -3129.4507   -8969.1246    675.04145   -1094.2689   -477.06455    971.78572    766.29419    82.080086 
   37600    388.02277   -113.81087   0.35109116   -113.45978    11071.185    4.3350258    4.3350258    4.3350258    11071.185    21019.154    19560.831   -7366.4301    684.85732    803.26574    507.18427    81.465752 
   37700    410.62859   -113.83461   0.37154538   -113.46306   -1011.7506    4.3458226    4.3458226    4.3458226   -1011.7506   -8138.7798   -1754.8956    6858.4236    4233.9113   -1293.9582   -1218.6437    82.075961 
   37800    220.64185   -113.66229   0.19964139   -113.46265    2117.4968    4.3481614    4.3481614    4.3481614    2117.4968   -3364.7072    8345.9181    1371.2796    2215.2738    3547.3813     1609.229    82.208545 
   37900    533.95174   -113.94117   0.48313076   -113.45804    4380.9075     4.330443     4.330443     4.330443    4380.9075    7710.5346    10660.662   -5228.4735   -6337.7367    -2455.644    2330.0954    81.207655 
   38000    364.17661   -113.79055   0.32951465   -113.46104   -4357.9143    4.3524506    4.3524506    4.3524506   -4357.9143   -2026.5931   -2238.5428   -8808.6071    4675.4669   -2021.7009    743.74457    82.452069 
   38100    327.68711   -113.75709   0.29649818   -113.46059    924.14088    4.3410151    4.3410151    4.3410151    924.14088   -2149.5328    9993.4034    -5071.448    300.33907    880.68879    296.74012    81.803876 
   38200    385.49055   -113.80847   0.34879995   -113.45967     2334.147    4.3367665    4.3367665    4.3367665     2334.147   -2117.6065    1996.5009    7123.5467   -3428.6891   -982.71661   -1916.6742    81.563926 
   38300    411.62371    -113.8313   0.37244578   -113.45886   -3802.7761     4.350469     4.350469     4.350469   -3802.7761    2319.5709   -1712.6751   -12015.224    4494.3687    2447.8777    1303.1785    82.339501 
   38400    357.92733   -113.78281   0.32386017   -113.45895   -4593.8794    4.3426905    4.3426905    4.3426905   -4593.8794    3720.0516   -5869.7674   -11631.922   -153.64851   -2349.8106    1613.9521     81.89863 
   38500    319.71474   -113.75075   0.28928461   -113.46147    4132.7597    4.3336982    4.3336982    4.3336982    4132.7597    3532.1123    1740.4148    7125.7521     2132.953   -688.66757    1347.7506    81.390927 
   38600    417.15189   -113.84044    0.3774478   -113.46299   -5185.5929    4.3520679    4.3520679    4.3520679   -5185.5929    2134.1546   -10004.145    -7686.788   -3184.1703     3354.503   -757.54007     82.43032 
   38700    494.95042   -113.91074   0.44784154    -113.4629   -4639.5805    4.3390657    4.3390657    4.3390657   -4639.5805   -3540.2629   -6474.3912   -3904.0874    4484.6044     3716.964   -3893.7052    81.693724 
   38800    292.18873    -113.7289    0.2643785   -113.46452    1866.9139     4.336983     4.336983     4.336983    1866.9139    4565.4958   -463.52845    1498.7743    4709.0923    4209.8253    2602.1054    81.576143 
   38900    527.24797   -113.93725   0.47706504   -113.46019   -14153.535    4.3519647    4.3519647    4.3519647   -14153.535    -18024.22   -10789.367   -13647.018   -7882.5791   -3566.6599    1118.5923    82.424454 
   39000    464.88303   -113.87871   0.42063593   -113.45808    3069.2066    4.3374897    4.3374897    4.3374897    3069.2066   -3045.9008   -434.03925     12687.56    8643.0655    -195.0142    1527.8517    81.604735 
   39100    430.40938   -113.84896   0.38944345   -113.45951   -2170.4445     4.340292     4.340292     4.340292   -2170.4445   -2774.9403    3495.9921   -7232.3855    3914.6378    4879.8346    -192.8893    81.763003 
   39200    472.54164   -113.88783   0.42756561   -113.46026   -9131.9133    4.3503554    4.3503554    4.3503554   -9131.9133   -16893.518   -7177.8418   -3324.3803   -6170.8608    742.34195   -2984.9203    82.333053 
   39300    407.61283   -113.82861   0.36881665   -113.45979    8241.1776    4.3370764    4.3370764    4.3370764    8241.1776    2046.3865    11937.035    10740.111    5048.4667    1048.2684    3520.4707    81.581411 
   39400    554.31569   -113.96118   0.50155649   -113.45962   -2164.6322    4.3389419    4.3389419    4.3389419   -2164.6322   -3778.1954   -8.8950518   -2706.8062    1597.4611   -1611.3956    2274.1872    81.686728 
   39500    305.44636   -113.73916   0.27637428   -113.46278    1253.6372    4.3506819    4.3506819    4.3506819    1253.6372   -2016.3908    3692.0268    2085.2758    1985.4457    1828.6591     1944.745     82.35159 
   39600    435.47419   -113.85456    0.3940262   -113.46053     9874.798    4.3358137    4.3358137    4.3358137     9874.798   -1219.0301    11910.895    18932.529   -3460.2174    2466.6087   -1598.7585    81.510179 
   39700    488.79099   -113.90336   0.44226836   -113.46109    5738.0871    4.3401566    4.3401566    4.3401566    5738.0871    14764.513    2217.5541    232.19391    1270.4278    2475.4091    -4874.846    81.755353 
   39800    289.60507   -113.72431   0.26204075   -113.46227    2256.9907     4.349493     4.349493     4.349493    2256.9907   -14415.817    10958.591    10228.198    2968.0031    5027.3822    2417.6551    82.284097 
   39900    422.23113   -113.84145    0.3820436    -113.4594    3101.5295    4.3358062    4.3358062    4.3358062    3101.5295   -3003.2276    3902.4646    8405.3517   -8593.7234   -1154.3645    1480.5765    81.509756 
   40000    405.88984   -113.82835   0.36725766   -113.46109    5925.7245    4.3409744    4.3409744    4.3409744    5925.7245   -3092.8247       2348.2    18521.798    1517.6693    1292.5292    341.62542    81.801579 
   40100    371.13939   -113.79636   0.33581472   -113.46054      -3628.9    4.3483461    4.3483461    4.3483461      -3628.9   -3492.0184    2479.5347   -9874.2162    4242.1297    4213.0295    1133.3826    82.219022 
   40200    426.32977   -113.84503   0.38575213   -113.45928   -7718.1743    4.3354088    4.3354088    4.3354088   -7718.1743   -11119.778   -6261.7531   -5772.9918   -8371.6925    761.25026   -1423.2227    81.487345 
   40300    273.33363   -113.70988   0.24731801   -113.46257     2849.323    4.3433938    4.3433938    4.3433938     2849.323   -4696.2456   -1596.0481    14840.263   -3626.7581    843.04543    4521.4482    81.938425 
   40400    557.76724   -113.96377   0.50467952   -113.45909   -13592.662    4.3478172    4.3478172    4.3478172   -13592.662   -17367.148   -11371.263   -12039.576     578.5436   -1822.9103    2615.0337    82.189023 
   40500    230.41196   -113.66917   0.20848159   -113.46069    4324.8328    4.3340132    4.3340132    4.3340132    4324.8328   -972.87715    4045.0087    9902.3668   -3851.7341    6707.1724     236.6504    81.408673 
   40600    454.76292   -113.87321   0.41147905   -113.46173   -14484.636    4.3467347    4.3467347    4.3467347   -14484.636   -15390.801   -14431.444   -13631.663   -6201.7053   -1654.5391   -3558.7223    82.127651 
   40700    356.80804   -113.78403   0.32284741   -113.46118    545.99923    4.3455874    4.3455874    4.3455874    545.99923   -12856.813   -5948.9691     20443.78    772.77744     1754.187   -3149.3879    82.062637 
   40800    423.30003   -113.84338   0.38301076   -113.46037   -1138.9694    4.3335964    4.3335964    4.3335964   -1138.9694   -6454.1994     4121.738   -1084.4468    917.39237    9395.2951    6502.6093    81.385193 
   40900    287.26133   -113.72321   0.25992008   -113.46329   -5346.7195    4.3485457    4.3485457    4.3485457   -5346.7195   -6465.3152    -15928.29    6353.4465   -5745.5187   -3039.5888   -355.24742    82.230345 
   41000    442.03911   -113.85991   0.39996627   -113.45995   -938.09711    4.3436342    4.3436342    4.3436342   -938.09711   -14412.116   -1795.1902    13393.015    215.30369    3954.9944   -231.93917    81.952035 
   41100    425.13349   -113.84305   0.38466972   -113.45838    7047.1259    4.3333445    4.3333445    4.3333445    7047.1259    3303.3678    4980.4125    12857.597    2903.6781     1209.064   -2325.7944    81.371002 
   41200    292.80571   -113.72574   0.26493676    -113.4608   -2996.8635    4.3501191    4.3501191    4.3501191   -2996.8635   -16736.051   -13350.533    21095.994   -3919.2956   -431.00981    1347.5596    82.319634 
   41300    447.62693   -113.86366   0.40502225   -113.45863   -297.54099     4.342053     4.342053     4.342053   -297.54099    -4816.002    2015.0243    1908.3547    129.54558   -32.294532    3909.3123    81.862567 
   41400    407.96916   -113.82785   0.36913907   -113.45871    12415.788    4.3344224    4.3344224    4.3344224    12415.788    2651.4792    2844.9753     31750.91    2439.5484   -3951.2592   -47.082139    81.431736 
   41500    341.58753   -113.77057   0.30907557    -113.4615   -5221.7318    4.3519547    4.3519547    4.3519547   -5221.7318   -15447.689   -11846.911    11629.405   -4174.0766    2733.4367    131.58854    82.423887 
   41600    364.45389   -113.78909   0.32976554   -113.45933    5292.8821    4.3380975    4.3380975    4.3380975    5292.8821   -1605.9076    7770.7234    9713.8305   -4737.9202   -4280.2169    703.16954    81.639044 
   41700    498.11695   -113.90992   0.45070669   -113.45921    4418.9574    4.3382009    4.3382009    4.3382009    4418.9574   -1228.8494   -375.44011    14861.162    765.02182    250.03666    2000.2592    81.644887 
   41800     354.7621   -113.78271    0.3209962   -113.46171   -1521.6594     4.348796     4.348796     4.348796   -1521.6594   -9643.1631    3320.1636    1758.0214   -3163.2735     1930.088    2078.5436    82.244547 
   41900    346.80275   -113.77651   0.31379442   -113.46272    571.81506    4.3386487    4.3386487    4.3386487    571.81506   -7602.5577   -2396.3792    11714.382   -5951.2725   -1491.3594   -1800.7297    81.670172 
   42000    520.79688   -113.93405   0.47122796   -113.46282   -619.27217    4.3401008    4.3401008    4.3401008   -619.27217   -4667.6598    120.58411    2689.2592   -206.81079   -923.99245   -1081.2483    81.752197 
   42100    355.06432   -113.78391   0.32126965   -113.46264   -3194.4901    4.3495075    4.3495075    4.3495075   -3194.4901   -15660.089    6258.7251   -182.10625   -699.43315    5680.4147    317.33858    82.284918 
   42200    395.66151   -113.81792   0.35800285   -113.45992   -3256.8063     4.336498     4.336498     4.336498   -3256.8063   -12154.917   -7406.7508    9791.2493   -6887.6718   -2755.6797    4401.1787    81.548775 
   42300    435.48155   -113.85499   0.39403286   -113.46096   -3047.3301    4.3453348    4.3453348    4.3453348   -3047.3301    -13041.38   -1964.1554     5863.545   -1267.9729    -3589.512   -2273.3178    82.048325 
   42400    503.36711   -113.91537   0.45545714   -113.45992   -2539.4502    4.3439094    4.3439094    4.3439094   -2539.4502   -11013.564    2244.2836    1150.9299    2366.4549    2178.1819   -1066.4401    81.967609 
   42500    410.51473   -113.83289   0.37144235   -113.46144   -4118.2148     4.338245     4.338245     4.338245   -4118.2148   -9854.6495   -9318.8748    6818.8799    -5620.197   -317.67317   -635.91189    81.647376 
   42600    397.38013   -113.82227   0.35955789   -113.46272   -3811.1178    4.3459124    4.3459124    4.3459124   -3811.1178   -15305.372   -7878.0656    11750.084   -3151.9379    118.85569    2302.3389     82.08105 
   42700    456.24553   -113.87392   0.41282055    -113.4611    5804.6794    4.3422624    4.3422624    4.3422624    5804.6794    1503.1709   -4942.0299    20852.897    2146.8507    685.37471   -2306.4805    81.874413 
   42800    434.87659    -113.8562   0.39348548   -113.46271    2156.5526     4.338101     4.338101     4.338101    2156.5526   -2638.4883   -2501.2768    11609.423   -3916.6478    3836.8264   -2678.1444    81.639243 
   42900    311.80085   -113.74654   0.28212396   -113.46441   -511.93135    4.3455422    4.3455422    4.3455422   -511.93135   -5443.9667   -9140.0025    13048.175   -5638.6121   -2367.1666    3344.6581    82.060079 
   43000    491.15224    -113.9054   0.44440487     -113.461    1305.5214    4.3421171    4.3421171    4.3421171    1305.5214    2162.6861    595.61317     1158.265     807.0297   -1301.8763     -286.874    81.866194 
   43100    381.22031   -113.80541   0.34493614   -113.46048    7155.1322    4.3395181    4.3395181    4.3395181    7155.1322   -2497.7058    1171.0064    22792.096    -1866.145    2688.4049    3209.2556    81.719278 
   43200    343.27859   -113.77219   0.31060568   -113.46158   -3260.4278    4.3429373    4.3429373    4.3429373   -3260.4278   -2019.2121   -6112.1114     -1649.96   -7367.9229   -2355.5415    -1144.328    81.912596 
   43300    403.16244   -113.82584   0.36478985   -113.46105   -1536.8308     4.343947     4.343947     4.343947   -1536.8308   -10604.965    7360.0453   -1365.5725    10.923643   -1665.7454    502.47246    81.969738 
   43400    380.14624   -113.80382    0.3439643   -113.45986     7222.841    4.3404604    4.3404604    4.3404604     7222.841   -5397.1153    1355.1541    25710.484   -223.52094    -3750.747    1698.1443    81.772521 
   43500    414.85226   -113.83642   0.37536704   -113.46105   -3394.7378    4.3396199    4.3396199    4.3396199   -3394.7378   -9569.1487   -272.64141   -342.42319   -4683.7009    5124.0847     1216.439    81.725028 
   43600    283.80728   -113.71827   0.25679479   -113.46147   -3213.4683    4.3461764    4.3461764    4.3461764   -3213.4683   -17677.271    11351.756     -3314.89    -955.3398   -2901.8349    32.165767    82.096007 
   43700    602.22831   -114.00321   0.54490883    -113.4583   -9421.1515    4.3405338    4.3405338    4.3405338   -9421.1515    -11217.35   -5483.8102   -11562.295    1682.6224   -1716.1108   -5172.1748    81.776669 
   43800    252.54143   -113.68995   0.22850479   -113.46145    9149.3326    4.3397666    4.3397666    4.3397666    9149.3326     -11115.1    15546.141    23016.957   -2344.3071     8773.564    845.85267    81.733314 
   43900    446.84339   -113.86544   0.40431329   -113.46113   -9950.8088     4.345148     4.345148     4.345148   -9950.8088   -18047.097    1693.7762   -13499.105   -4319.4934   -6166.2542    785.55225    82.037748 
   44000    375.60142   -113.80217   0.33985206   -113.46232   -406.00836    4.3407965    4.3407965    4.3407965   -406.00836   -4958.3316   -8146.7702    11887.077    4039.5951    1595.6209    1981.2084    81.791523 
   44100    337.88398   -113.76975   0.30572453   -113.46403    11679.093    4.3369479    4.3369479    4.3369479    11679.093    2066.2071    13395.745    19575.326   -1512.6393   -1817.1999    1474.1317    81.574162 
   44200    320.52365   -113.75286   0.29001653   -113.46284   -3004.4175    4.3516782    4.3516782    4.3516782   -3004.4175   -3938.5513   -12177.607     7102.906   -8341.3547   -793.75731   -1232.7092    82.408177 
   44300    377.64608   -113.80158   0.34170211   -113.45988    6168.0313    4.3342157    4.3342157    4.3342157    6168.0313    3608.6164   -4566.8271    19462.305    2933.7569    466.70043    1555.0692    81.420087 
   44400    412.51624   -113.83473   0.37325337   -113.46147   -1907.7379    4.3431508    4.3431508    4.3431508   -1907.7379    1145.7312   -1947.4842   -4921.4606      -469.24   -2881.6994   -2421.7585    81.924673 
   44500    312.55455   -113.74286   0.28280592   -113.46006    1643.4235    4.3476805    4.3476805    4.3476805    1643.4235   -2680.8719   -13756.738     21367.88   -6574.8837    6253.0309    870.30099    82.181273 
   44600    393.96174   -113.81449   0.35646486   -113.45803    3411.7688    4.3372508    4.3372508    4.3372508    3411.7688    3798.9327   -7299.3025    13735.676    635.60718   -2701.4281    1378.5519    81.591252 
   44700    351.64049   -113.77756    0.3181717   -113.45939    3424.7152    4.3403636    4.3403636    4.3403636    3424.7152   -2093.4391   -99.442563    12467.027    404.04161    593.39418   -153.13618    81.767052 
   44800    421.10282   -113.84121   0.38102268   -113.46019   -13719.993    4.3513627    4.3513627    4.3513627   -13719.993   -16039.482   -29779.182    4658.6842    -5300.166    2894.1347   -1505.2777    82.390255 
   44900    302.94694    -113.7346   0.27411276   -113.46049    10915.176    4.3323918    4.3323918    4.3323918    10915.176   -6097.5995    3771.1181     35072.01   -7477.1261   -1074.9923   -2899.6824    81.317341 
   45000    530.29664    -113.9414   0.47982355   -113.46157   -9430.9676    4.3466354    4.3466354    4.3466354   -9430.9676   -7926.0258   -13193.241   -7173.6357    2174.2471    1155.3587    4880.4053    82.122022 
   45100    421.96312   -113.84193    0.3818011   -113.46012   -12260.193    4.3491143    4.3491143    4.3491143   -12260.193   -17130.736   -23151.798    3501.9534   -4847.2043   -2723.6146     2093.015    82.262607 
   45200    384.76668   -113.80727   0.34814497   -113.45913      4873.83    4.3301363    4.3301363    4.3301363      4873.83   -9423.4128    6081.3923     17963.51   -13713.589    3295.6577    1738.0383    81.190405 
   45300    557.58063   -113.96416   0.50451067   -113.45965   -10917.723    4.3494187    4.3494187    4.3494187   -10917.723   -12367.361   -15148.678   -5237.1298    3013.4268   -5262.1557   -4396.1183    82.279882 
   45400    365.72494     -113.792   0.33091561   -113.46109   -2768.5603    4.3459786    4.3459786    4.3459786   -2768.5603   -15267.448   -7760.7125     14722.48   -3176.2793   -2660.7035   -4378.4881    82.084799 
   45500    435.89069    -113.8546   0.39440306   -113.46019     2171.137    4.3319849    4.3319849    4.3319849     2171.137   -9642.1249   -1340.6874    17496.223   -11421.563    2035.6791    2273.2059    81.294433 
   45600    437.41805   -113.85724   0.39578504   -113.46145   -86.753422    4.3489081    4.3489081    4.3489081   -86.753422   -6237.9128   -11750.347        17728    4864.1833   -2635.2121    2195.5957    82.250909 
   45700    455.02838   -113.87224   0.41171924   -113.46052   -5517.5408    4.3454563    4.3454563    4.3454563   -5517.5408   -16215.822   -4613.1339    4276.3331   -3518.5691    4883.9499    61.512368    82.055208 
   45800    298.59355   -113.73043   0.27017372   -113.46025     12292.97     4.331876     4.331876     4.331876     12292.97    6406.1014   -7742.7621     38215.57   -8355.4702    1923.7155   -2679.6875    81.288301 
   45900    649.66816   -114.04805    0.5878334   -113.46021   -19411.112    4.3528664    4.3528664    4.3528664   -19411.112   -19866.554    -17367.31   -20999.473    4182.5269    1235.9502    1377.8291      82.4757 
   46000    283.38594   -113.72054   0.25641356   -113.46413    7368.6023    4.3358801    4.3358801    4.3358801    7368.6023   -2530.4351    1036.2444    23599.997   -4273.4637    -7424.982    576.24433    81.513923 
   46100    491.38274   -113.90746   0.44461343   -113.46285   -12543.858    4.3418622    4.3418622    4.3418622   -12543.858   -17401.987   -23679.953    3450.3677   -9156.4737    3678.5556     1250.266    81.851774 
   46200    428.21418   -113.84721   0.38745718   -113.45975    -862.2849    4.3472523    4.3472523    4.3472523    -862.2849   -9523.7953   -7914.6042    14851.545   -337.29022    385.98294    217.75997    82.156993 
   46300    410.25687   -113.82988   0.37120904   -113.45868    273.89306    4.3385884    4.3385884    4.3385884    273.89306   -6544.1138   -2667.8254    10033.618   -4998.4661   -7353.8517    25.651902    81.666765 
   46400    328.14242   -113.75749   0.29691016   -113.46058   -1314.6618    4.3391615    4.3391615    4.3391615   -1314.6618   -10545.627   -15996.999     22598.64   -6517.2439   -1870.6625   -2386.2264    81.699132 
   46500    387.48819   -113.81168   0.35060746   -113.46107   -847.91665     4.349143     4.349143     4.349143   -847.91665   -9117.0497   -5019.8812    11593.181    -2796.933   -4824.8668   -4589.3845    82.264237 
   46600    412.78748   -113.83375   0.37349879   -113.46025    5717.8427    4.3374192    4.3374192    4.3374192    5717.8427    4241.9491    2574.2158    10337.363   -4910.3014    3139.0921    1129.8039    81.600755 
   46700    295.76195   -113.72975   0.26761163   -113.46214    622.07985    4.3395929    4.3395929    4.3395929    622.07985   -7289.5977   -4514.8382    13670.675   -6240.8871   -1658.5213   -1139.3394      81.7235 
   46800    349.06261   -113.77709   0.31583919   -113.46126   -5634.9944    4.3523559    4.3523559    4.3523559   -5634.9944    2633.7307   -4344.4349   -15194.279    -5112.742    3043.4514    1105.1286    82.446683 
   46900    381.20657   -113.80326   0.34492372   -113.45833     11684.34    4.3359166    4.3359166    4.3359166     11684.34    5214.8273    3190.2089    26647.984   -586.68306    453.35549    3004.7364    81.515983 
   47000    340.92418    -113.7689   0.30847536   -113.46042   -1857.2262    4.3420879    4.3420879    4.3420879   -1857.2262   -8330.8959   -1192.1709    3951.3881   -4160.2785   -1526.3806    3296.2502    81.864544 
   47100    179.25582    -113.6241   0.16219443   -113.46191    5959.0334    4.3469067    4.3469067    4.3469067    5959.0334    7400.0239   -1634.9477    12112.024   -6229.9695      3477.84    3879.9363    82.137401 
   47200    462.57151   -113.87679   0.41854442   -113.45824    2089.3635    4.3410465    4.3410465    4.3410465    2089.3635    1112.5433   -7939.8063    13095.353    2003.5135   -2988.2781   -101.37505    81.805654 
   47300    310.80976   -113.74112    0.2812272   -113.45989    8229.3424    4.3397566    4.3397566    4.3397566    8229.3424    834.86213    2171.0186    21682.147   -505.53622    5510.7918    1204.6833    81.732748 
   47400    341.17006   -113.77046   0.30869784   -113.46176   -7153.2946    4.3497072    4.3497072    4.3497072   -7153.2946    422.10853   -13641.579   -8240.4132   -5379.6751   -4331.1613   -985.21365    82.296256 
   47500    543.51463   -113.95067   0.49178346   -113.45889   -6294.0208    4.3406802    4.3406802    4.3406802   -6294.0208   -8307.3687   -5516.7942   -5057.8996    950.64354    1833.8146    381.26339    81.784948 
   47600    396.46451   -113.81992   0.35872942   -113.46119    6308.2268    4.3406819    4.3406819    4.3406819    6308.2268    12407.194    2065.3005    4452.1862    -727.0393    4658.9349   -2455.0863    81.785039 
   47700    468.01894   -113.88459   0.42347337   -113.46111   -12566.657    4.3500736    4.3500736    4.3500736   -12566.657   -16513.593   -17764.255   -3422.1217   -409.60482   -5526.3215   -2585.1799    82.317054 
   47800    377.70888   -113.80296   0.34175893    -113.4612    5024.1361    4.3357501    4.3357501    4.3357501    5024.1361   -1196.9488   -3134.9077    19404.265    2361.9564    2929.4864   -2696.7837     81.50659 
   47900    541.18479   -113.95222   0.48967537   -113.46255   -4649.4213    4.3443456    4.3443456    4.3443456   -4649.4213     -6961.22   -6676.0755   -310.96823   -1830.8073   -4050.8209    294.37977    81.992303 
   48000    391.65075    -113.8163   0.35437383   -113.46193   -641.41185    4.3464657    4.3464657    4.3464657   -641.41185   -11875.774   -14696.386    24647.925   -4819.5004    2882.1072    2203.1385    82.112406 
   48100    428.76897   -113.84799   0.38795918   -113.46003   -663.95559    4.3379001    4.3379001    4.3379001   -663.95559   -5758.1882   -2717.5674    6483.8889   -4110.4139   -1326.0167   -588.27806    81.627903 
   48200    476.40444   -113.89076   0.43106075   -113.45969   -3290.7842    4.3452342    4.3452342    4.3452342   -3290.7842   -9258.6712   -445.97029    -167.7111     3575.929    -978.9861    1069.8838    82.042629 
   48300    521.23173   -113.93013   0.47162143   -113.45851   -9198.2275    4.3463883    4.3463883    4.3463883   -9198.2275   -9776.9454   -9466.1562   -8351.5808   -3120.9058    5945.0953    1731.7807    82.108016 
   48400    264.23442   -113.70012   0.23908485   -113.46103    11318.006    4.3344599    4.3344599    4.3344599    11318.006    1371.8982    14381.868    18200.251   -10251.622   -9482.7384   -586.32163     81.43385 
   48500    564.16809   -113.97106   0.51047114   -113.46059   -12984.335    4.3489705    4.3489705    4.3489705   -12984.335   -15543.705   -7511.1097   -15898.191     31.47942    4809.4552   -51.485563    82.254445 
   48600     292.0831   -113.72594   0.26428293   -113.46166    7118.0003    4.3420172    4.3420172    4.3420172    7118.0003    3609.5782    2980.8689    14763.554   -5205.0429    138.90163   -5209.9539    81.860541 
   48700    403.99268   -113.82658   0.36554107   -113.46104    2528.6904    4.3367403    4.3367403    4.3367403    2528.6904   -6795.5755    6944.5506    7437.0962   -2825.4769   -7398.9514   -1512.2344    81.562446 
   48800    347.19172   -113.77451   0.31414636   -113.46036   -741.59275    4.3483953    4.3483953    4.3483953   -741.59275   -2391.7113   -9810.2276    9977.1606    2882.7664    1739.1799   -5964.3083    82.221811 
   48900    380.91569   -113.80441   0.34466052   -113.45975    1750.2143    4.3401669    4.3401669    4.3401669    1750.2143    5415.8087   -3137.5243    2972.3586   -2794.8767    -3216.983   -2177.9422    81.755937 
   49000    353.24002   -113.78091   0.31961899   -113.46129    3422.8651    4.3377162    4.3377162    4.3377162    3422.8651    1076.8305   -6426.1238    15617.889   -3876.8764    723.91299    41.658563    81.617523 
   49100    420.28212   -113.84094   0.38028009   -113.46066   -3007.0603    4.3454198    4.3454198    4.3454198   -3007.0603    3099.1407   -5194.5194   -6925.8021    -2346.084   -3215.3767    -2505.276    82.053142 
   49200    360.69511   -113.78766   0.32636452   -113.46129    927.02048    4.3395277    4.3395277    4.3395277    927.02048    3690.0877   -6599.0213     5689.995    5679.5737    1377.4825    3508.9264    81.719817 
   49300    421.67845   -113.84259   0.38154353   -113.46105   -599.60055    4.3385712    4.3385712    4.3385712   -599.60055    3356.5478   -11760.371    6605.0216   -2700.8795    5461.2873   -816.93523    81.665791 
   49400    341.57721   -113.76905   0.30906624   -113.45998   -1081.9554    4.3488979    4.3488979    4.3488979   -1081.9554   -125.66063   -11020.897    7900.6913   -6173.1097   -5570.9442    2554.3765    82.250325 
   49500    413.62776   -113.83228   0.37425909   -113.45802    7715.7394    4.3337356    4.3337356    4.3337356    7715.7394    11062.265    5359.9546    6724.9986    5916.8879    4358.9188    1849.8706    81.393036 
   49600    393.41953   -113.81543   0.35597426   -113.45946   -3665.9994    4.3434133    4.3434133    4.3434133   -3665.9994   -6726.7128   -10214.584     5943.299   -2441.0903    1119.9377   -1108.8837    81.939528 
   49700     275.1904   -113.70973   0.24899806   -113.46073    5721.1983    4.3442645    4.3442645    4.3442645    5721.1983    632.98153    504.84751    16025.766   -3395.8789   -4096.7354    1036.6125    81.987715 
   49800     488.3316   -113.90045   0.44185269    -113.4586    1825.0589    4.3368283    4.3368283    4.3368283    1825.0589    2408.7972   -4094.3029    7160.6822    3400.2635   -450.48209   -7644.5747    81.567411 
   49900    310.15314   -113.74194   0.28063308   -113.46131    8514.0994    4.3395428    4.3395428    4.3395428    8514.0994   -1976.7469    14454.805     13064.24   -3945.8291   -1627.1496   -1264.4509    81.720673 
   50000     431.2307   -113.85172    0.3901866   -113.46154   -13193.123    4.3486566    4.3486566    4.3486566   -13193.123   -14669.294   -8541.0194   -16369.056   -2682.2479    1994.2225    616.42529    82.236638 
   50100     381.4581   -113.80575    0.3451513    -113.4606    9321.3709    4.3321251    4.3321251    4.3321251    9321.3709    7105.1329    6555.3756    14303.604   -1177.9549   -7303.9014   -1506.5132    81.302324 
   50200    525.36748   -113.93566   0.47536353   -113.46029   -10145.862    4.3477169    4.3477169    4.3477169   -10145.862   -11908.582   -4200.5599   -14328.444    256.84766    1673.3642    340.94845    82.183338 
   50300    301.20012   -113.73501    0.2725322   -113.46248    4586.1458    4.3402595    4.3402595    4.3402595    4586.1458    -2915.111    8286.8727    8386.6757   -4364.3283    7167.0871   -2327.7674     81.76117 
   50400     511.7313   -113.92413   0.46302524    -113.4611   -5429.7156    4.3387112    4.3387112    4.3387112   -5429.7156   -10688.479   -4186.9982   -1413.6698   -7741.9783   -6181.8092    6120.1449    81.673698 
   50500    331.21198   -113.76053   0.29968756   -113.46085    5994.1779    4.3452539    4.3452539    4.3452539    5994.1779   -7744.3033    7018.4674     18708.37    1713.3448    2871.3891    1511.8659    82.043746 
   50600    469.26464   -113.88435   0.42460051   -113.45975   -4930.5993    4.3411074    4.3411074    4.3411074   -4930.5993   -16808.456   -6369.2179    8385.8755     -2729.16    4690.3691   -2201.7309    81.809097 
   50700    377.56985   -113.80184   0.34163314    -113.4602    2906.1181      4.33755      4.33755      4.33755    2906.1181   -7831.4281    3013.0964    13536.686    -4647.643   -3613.1812   -1398.4349    81.608142 
   50800    525.67178    -113.9363   0.47563887   -113.46066   -10400.492    4.3481016    4.3481016    4.3481016   -10400.492   -22335.293   -9333.2175    467.03428     350.2941   -760.31847   -4100.3226    82.205157 
   50900    433.42362   -113.85284    0.3921708   -113.46067   -329.45502    4.3378274    4.3378274    4.3378274   -329.45502   -3639.2543   -641.71287    3292.6021    -5589.504    1824.6461    47.052454    81.623801 
   51000    463.68961   -113.88106    0.4195561    -113.4615   -5375.5015    4.3409555    4.3409555    4.3409555   -5375.5015    -12308.66   -13186.171    9368.3262   -3742.7671   -1451.8533   -1175.9687    81.800507 
   51100    418.12946   -113.83964   0.37833232    -113.4613   -6984.1788    4.3476461    4.3476461    4.3476461   -6984.1788   -16155.832    -11992.37    7195.6667    2946.6765   -5762.3406   -1040.6019    82.179324 
   51200    413.52331   -113.83452   0.37416458   -113.46036    5029.0481    4.3353842    4.3353842    4.3353842    5029.0481   -3233.5472   -2226.1044    20546.796    -651.2852   -4186.8896   -539.53966    81.485957 
   51300    328.73972   -113.75908    0.2974506   -113.46163   -3141.9852    4.3485187    4.3485187    4.3485187   -3141.9852    -14517.55   -10503.754    15595.348   -4428.5642    4796.8831    1845.4791    82.228812 
   51400     421.6488   -113.84164   0.38151669   -113.46012   -2758.3514    4.3390769    4.3390769    4.3390769   -2758.3514   -10478.275   -2349.4082    4552.6291    -384.1002   -8181.5385    3761.9604    81.694353 
   51500    313.88029   -113.74534   0.28400548   -113.46133    -43.60031    4.3404956    4.3404956    4.3404956    -43.60031    1667.0354   -5376.6615    3578.8252    -3575.605   -1076.5137   -1554.4573    81.774511 
   51600    402.99102   -113.82499   0.36463474   -113.46035   -5081.5963    4.3447318    4.3447318    4.3447318   -5081.5963   -6850.3625   -9594.2115    1199.7852   -4151.7556    3721.7834   -2051.5299    82.014173 
   51700    333.35163   -113.76257   0.30162356   -113.46094    2191.9045    4.3410718    4.3410718    4.3410718    2191.9045    233.31433    9106.1102   -2763.7109   -1527.7251   -4436.1489   -346.98744    81.807085 
   51800    314.16525   -113.74503   0.28426332   -113.46077    3341.0145    4.3400653    4.3400653    4.3400653    3341.0145    6300.7641    1083.4846    2638.7949   -3479.9042   -1759.9215   -1069.3697    81.750195 
   51900    334.78662   -113.76437   0.30292197   -113.46145   -2649.3517    4.3473688    4.3473688    4.3473688   -2649.3517   -2517.8839   -18184.889    12754.718    -1804.476   -3926.3966   -5164.4635    82.163599 
   52000    241.81866    -113.6798   0.21880261     -113.461    11115.406    4.3404953    4.3404953    4.3404953    11115.406   -1486.1093     6110.347    28721.981    -2309.634    -1710.905   -5204.3416    81.774494 
   52100    369.56327   -113.79542   0.33438861   -113.46103    3948.8911     4.342272     4.342272     4.342272    3948.8911   -1820.5502    14.239453    13652.984    -1873.991    -7524.881    533.32574    81.874955 
   52200     379.8362   -113.80475   0.34368377   -113.46107   -3040.7136    4.3464455    4.3464455    4.3464455   -3040.7136   -10809.806    -12622.42    14310.085   -489.40736   -3807.8878   -29.004378    82.111259 
   52300    408.34286   -113.83134    0.3694772   -113.46186     3968.574    4.3378117    4.3378117    4.3378117     3968.574    5973.5941    3196.0425    2736.0853    -4129.611    3448.5358    109.19478    81.622913 
   52400    446.41752   -113.86581   0.40392795   -113.46188   -4169.2265    4.3485574    4.3485574    4.3485574   -4169.2265    -15076.85   -5063.4795    7632.6501    1430.3896   -6130.9337   -157.36756    82.231011 
   52500    475.28294   -113.89078   0.43004599   -113.46073    7543.6991    4.3360944    4.3360944    4.3360944    7543.6991    2397.9182     10055.84    10177.339    474.56771    116.24317    3569.3335    81.526011 
   52600    425.27533   -113.84654   0.38479805   -113.46174    1687.9185    4.3441782    4.3441782    4.3441782    1687.9185   -12382.384    349.86175    17096.278   -2493.2724    4327.6173   -1436.1967    81.982826 
   52700    400.51204   -113.82328   0.36239171   -113.46089    1648.1973    4.3440247    4.3440247    4.3440247    1648.1973   -9209.2983   -1734.1008    15887.991    1538.9028   -4138.4939   -2900.5057    81.974136 
   52800    467.00993   -113.88298    0.4225604   -113.46042    1017.3962    4.3384958    4.3384958    4.3384958    1017.3962   -14090.165    16659.306    483.04773   -716.22364   -4440.4187   -2101.7059    81.661538 
   52900    454.91479   -113.87181   0.41161646    -113.4602    3607.6554    4.3415261    4.3415261    4.3415261    3607.6554   -6669.0586    4964.1399    12527.885   -1349.0855   -3622.3078    -2471.142    81.832767 
   53000    514.28269   -113.92582   0.46533378   -113.46048   -12452.951    4.3477303    4.3477303    4.3477303   -12452.951   -18417.891   -3457.4952   -15483.467    902.12241   -1934.4423    3226.9774    82.184098 
   53100    375.19063   -113.80028   0.33948037    -113.4608    3541.4199    4.3347262    4.3347262    4.3347262    3541.4199   -13375.767    13894.726    10105.302   -821.05167   -11110.513    2064.2369     81.44886 
   53200    513.64208   -113.92521   0.46475415   -113.46045    -9579.535    4.3467516    4.3467516    4.3467516    -9579.535    -15438.78   -9135.0808   -4164.7444   -1774.3013   -2644.9278   -2086.4865    82.128607 
   53300    353.58986    -113.7828   0.31993553   -113.46287    1538.1584    4.3415506    4.3415506    4.3415506    1538.1584   -7149.2322   -9440.8405    21204.548   -4439.1404    3683.1418   -3159.8555    81.834154 
   53400    349.36459   -113.78066   0.31611242   -113.46455    3662.3655       4.3387       4.3387       4.3387    3662.3655   -3425.0017   -1308.5972    15720.695   -1214.1294   -4660.4282    1779.2266    81.673066 
   53500    429.84287   -113.85105   0.38893086   -113.46212   -6274.8419    4.3483112    4.3483112    4.3483112   -6274.8419   -11518.477   -11719.337    4413.2879   -923.36465    1489.7916     3432.905    82.217043 
   53600    393.98992   -113.81739   0.35649036    -113.4609    2077.4906    4.3357296    4.3357296    4.3357296    2077.4906    2532.8902   -6911.2113    10610.793    -4311.187    3790.1188   -7114.0346    81.505436 
   53700    417.84852   -113.83998   0.37807812   -113.46191    -5842.503    4.3431258    4.3431258    4.3431258    -5842.503    1571.1971   -17656.442   -1442.2643    415.83418   -4108.6297    54.081624    81.923261 
   53800    295.12668   -113.72867   0.26703682   -113.46163    1735.5799    4.3483858    4.3483858    4.3483858    1735.5799   -8561.8651   -4558.1785    18326.783   -59.056972   -4931.8243    1100.5558    82.221275 
   53900    436.50702   -113.85359   0.39496073   -113.45862    4875.5981    4.3337579    4.3337579    4.3337579    4875.5981    8103.0181   -7197.7513    13721.528   -4338.2724    630.84152   -2836.3276    81.394291 
   54000    302.02105   -113.73426   0.27327499   -113.46098    2119.7337    4.3420885    4.3420885    4.3420885    2119.7337   -6290.2287   -14203.522    26852.951    387.60962   -4241.6514   -190.90254    81.864578 
   54100    308.36707   -113.74045   0.27901701   -113.46143    -5549.593    4.3478865    4.3478865    4.3478865    -5549.593   -9455.0387   -10103.131    2909.3905    353.35881   -9264.4747   -230.32668    82.192954 
   54200    383.75125   -113.80609    0.3472262   -113.45886     10344.83    4.3311706    4.3311706    4.3311706     10344.83    9035.9043   -128.06587    22126.653   -2243.8543    985.45158    3115.8175    81.248598 
   54300    428.88742   -113.84877   0.38806635    -113.4607    -6448.495    4.3479709    4.3479709    4.3479709    -6448.495   -10285.163   -10420.545    1360.2237    111.71131     292.1681   -2020.9851    82.197741 
   54400    363.36932   -113.79045    0.3287842   -113.46166   -5817.1526    4.3422744    4.3422744    4.3422744   -5817.1526   -4963.0489   -5670.9534   -6817.4556    70.952723   -1495.0053    -234.7808    81.875091 
   54500    312.76837   -113.74473    0.2829994   -113.46173    4173.4753    4.3356363    4.3356363    4.3356363    4173.4753     -982.709    -8767.379    22270.514   -2575.1813   -2319.3902    1250.9691    81.500173 
   54600     510.4607   -113.92258   0.46187557   -113.46071   -7249.0177    4.3476645    4.3476645    4.3476645   -7249.0177   -14943.931    -11548.66    4745.5381    -3595.783    4475.9209   -570.68549    82.180363 
   54700    215.09308   -113.65774   0.19462074   -113.46312    7817.9864    4.3410341    4.3410341    4.3410341    7817.9864    7114.2693    2556.1593     13783.53    1547.3311   -5749.0695    603.99885    81.804954 
   54800    450.81645   -113.87066    0.4079082   -113.46275   -2632.3397    4.3347383    4.3347383    4.3347383   -2632.3397   -8634.9611   -7410.6283    8148.5703    2013.6691   -7918.7782   -1121.2797     81.44954 
   54900    361.16717   -113.78903   0.32679165   -113.46224     2008.635    4.3486692    4.3486692    4.3486692     2008.635    3022.1373   -7449.8218     10453.59    -2868.821    3523.0795   -1278.8276    82.237351 
   55000    531.00005   -113.94037      0.48046   -113.45991   -481.13726    4.3376367    4.3376367    4.3376367   -481.13726    1407.6175    1500.1648   -4351.1941     523.7991   -6768.7045    675.12225    81.613033 
   55100    374.75731   -113.80028   0.33908829   -113.46119    2291.3214    4.3370487    4.3370487    4.3370487    2291.3214    1755.3798    1159.7437    3958.8408   -3220.1314   -4659.2589     3373.314     81.57985 
   55200    438.71463   -113.85842   0.39695821   -113.46146   -2750.6469    4.3479236    4.3479236    4.3479236   -2750.6469   -8049.8934   -6131.8302     5929.783   -2883.1355    1751.4343     1191.553    82.195059 
   55300    481.92142   -113.89564   0.43605262   -113.45959    5792.7469    4.3377842    4.3377842    4.3377842    5792.7469    2088.4321    1991.0841    13298.724    3121.2786    2170.3789    250.31467     81.62136 
   55400    406.85497   -113.82904   0.36813093   -113.46091    4593.2168    4.3369164    4.3369164    4.3369164    4593.2168   -5791.2933    871.36173    18699.582    -88.14084   -1717.8676    207.60568    81.572381 
   55500    358.09747   -113.78685   0.32401411   -113.46284   -3775.0665    4.3474243    4.3474243    4.3474243   -3775.0665   -4694.7591   -3770.7588   -2859.6816   -5944.4164   -4094.1062    2182.2364    82.166747 
   55600    499.75216   -113.91277   0.45218625   -113.46058    7425.1109    4.3328988    4.3328988    4.3328988    7425.1109   -3077.2772     4207.158    21145.452   -4108.8858     8176.707    1414.9078    81.345896 
   55700    498.85738   -113.91463   0.45137664   -113.46325   -6463.9952    4.3447361    4.3447361    4.3447361   -6463.9952   -8435.1919   -6375.3223   -4581.4713    2540.8326   -6893.4349   -3812.1044     82.01442 
   55800    401.84329   -113.82664   0.36359625   -113.46304   -7829.2354    4.3417394    4.3417394    4.3417394   -7829.2354   -15994.922   -1557.3582   -5935.4264    594.79924    -5422.563   -1361.9906    81.844834 
   55900    430.55594   -113.85121   0.38957606   -113.46164   -2509.3643    4.3373353    4.3373353    4.3373353   -2509.3643    2363.3378   -5603.3479   -4288.0828   -4276.0721    5053.8852    186.10452    81.596024 
   56000    504.31559   -113.91764   0.45631534   -113.46132   -3516.7361    4.3421191    4.3421191    4.3421191   -3516.7361   -12874.078   -10433.626    12757.496    843.48999   -3748.5546    917.82483    81.866308 
   56100    367.49535    -113.7956   0.33251752   -113.46308   -399.22735    4.3410559    4.3410559    4.3410559   -399.22735   -3579.1777   -505.70957    2887.2052   -2341.3123   -804.56451    1250.7584    81.806182 
   56200    290.69692   -113.72552   0.26302869   -113.46249   -955.53135    4.3422343    4.3422343    4.3422343   -955.53135   -5382.3811   -14721.066    17236.853   -3708.5978   -480.84233    354.52535    81.872821 
   56300    462.15637   -113.87788   0.41816879   -113.45971    1993.7717    4.3375733    4.3375733    4.3375733    1993.7717   -3411.2877   -7915.1083    17307.711    4067.6766    3638.4591    3137.1289    81.609454 
   56400    356.01471   -113.78297    0.3221296   -113.46084   -790.87109    4.3455732    4.3455732    4.3455732   -790.87109    976.53055   -8881.1166    5531.9728   -1938.4142    182.71911    1571.5559     82.06183 
   56500    368.68671   -113.79423   0.33359548   -113.46063   -1556.3518    4.3394507    4.3394507    4.3394507   -1556.3518   -5296.0019    -5202.176    5829.1226   -7778.8238   -1250.0666    3195.7113     81.71547 
   56600    394.89692   -113.81737   0.35731103   -113.46006   -1109.8926    4.3418536    4.3418536    4.3418536   -1109.8926   -1085.0988   -9705.8612    7461.2823    747.50216    5545.8293    4117.2226    81.851287 
   56700    434.22293   -113.85244   0.39289404   -113.45954     847.0414    4.3412872    4.3412872    4.3412872     847.0414    11095.236   -4734.9002   -3819.2118   -820.10243   -2989.7782   -839.99679    81.819263 
   56800     346.7342   -113.77531   0.31373239   -113.46158   -3554.2602    4.3436339    4.3436339    4.3436339   -3554.2602   -12687.265   -8423.1829    10447.667    -2500.372    -4742.886    895.58156    81.952014 
   56900     272.2359   -113.70914   0.24632477   -113.46282    7212.2197    4.3381051    4.3381051    4.3381051    7212.2197    8064.8558   -4511.9739    18083.777   -1756.9386    339.32461   -1347.4157    81.639475 
   57000    383.91387   -113.80984   0.34737334   -113.46246    1710.8662    4.3432462    4.3432462    4.3432462    1710.8662   -6255.3387   -5436.4662    16824.403   -491.63856   -166.78431   -1349.1733    81.930075 
   57100    332.11308   -113.76247   0.30050289   -113.46196   -1091.4355    4.3437002    4.3437002    4.3437002   -1091.4355   -6558.5432   -11481.534     14765.77   -717.64254   -3473.5334    279.06083    81.955767 
   57200    381.18438   -113.80693   0.34490363   -113.46202   -1016.4735      4.33786      4.33786      4.33786   -1016.4735     312.4086    -2457.322   -904.50717   -577.50088   -2048.1984     4829.176     81.62564 
   57300    358.39849   -113.78568   0.32428648   -113.46139    1966.9147    4.3451039    4.3451039    4.3451039    1966.9147   -8096.5503    5027.9454     8969.349    2071.1057    4508.6414    1567.8455    82.035249 
   57400    566.61342   -113.97125   0.51268373   -113.45857   -9059.3401    4.3417885    4.3417885    4.3417885   -9059.3401   -6142.3619   -11694.584   -9341.0741    1082.4345    780.24351   -3086.9108    81.847609 
   57500    353.33902   -113.77975   0.31970857   -113.46004    782.06547    4.3379751    4.3379751    4.3379751    782.06547   -5433.6682    4528.0391    3251.8255   -3406.5888   -4481.9519    2369.6454    81.632135 
   57600    415.56707   -113.83686   0.37601382   -113.46085   -3080.4608    4.3463722    4.3463722    4.3463722   -3080.4608   -16099.016    7625.9482   -768.31434     3512.242    6256.7435    2994.1392    82.107107 
   57700    434.23152   -113.85383    0.3929018   -113.46093    5814.1397    4.3401857    4.3401857    4.3401857    5814.1397     -4294.98   -1943.5344    23680.933    2745.7138   -73.316525    675.88291    81.756995 
   57800    403.38757   -113.82649   0.36499355    -113.4615    6268.8311    4.3371846    4.3371846    4.3371846    6268.8311   -10950.074    18385.101    11371.466   -2943.1263   -7938.2941     -3523.21    81.587517 
   57900     368.1012   -113.79603    0.3330657   -113.46297   -5557.1036    4.3491392    4.3491392    4.3491392   -5557.1036   -16482.712    128.59302   -317.19187   -163.66423    3467.1749   -254.70536     82.26402 
   58000    450.47492   -113.86856   0.40759917   -113.46096    5327.6233    4.3363925    4.3363925    4.3363925    5327.6233   -2632.6023     2579.944    16035.528   -1839.7207   -1432.9836    1938.5516    81.542826 
   58100    488.49365   -113.90288   0.44199932   -113.46089    589.16275    4.3422613    4.3422613    4.3422613    589.16275   -5864.2254     11591.82   -3960.1067   -426.93097   -3260.6396    120.53181     81.87435 
   58200    434.36984   -113.85501   0.39302696   -113.46199   -9461.3763    4.3487722    4.3487722    4.3487722   -9461.3763   -11999.643   -11403.129   -4981.3564   -1332.7234    496.60699      2898.42    82.243193 
   58300    435.34573   -113.85512   0.39390997   -113.46121   -3791.7764    4.3379884    4.3379884    4.3379884   -3791.7764   -6014.9954   -1932.3433   -3427.9904    911.95261    5120.6493   -1406.3384    81.632886 
   58400    374.87857   -113.80062     0.339198   -113.46142    4490.1796    4.3420765    4.3420765    4.3420765    4490.1796   -10868.379    1599.1686    22739.749    2920.0393    6233.6015    314.90141    81.863897 
   58500    426.11532   -113.84591    0.3855581   -113.46035   -6175.4664    4.3481632    4.3481632    4.3481632   -6175.4664   -9105.4625    -15032.91    5611.9734   -4932.8247    63.732822    2017.4989    82.208646 
   58600    227.60925   -113.66714   0.20594564    -113.4612    3507.4397    4.3378832    4.3378832    4.3378832    3507.4397   -14719.647    9179.2085    16062.757    3278.3117    10582.435   -381.57902    81.626949 
   58700    356.82315   -113.78405   0.32286109   -113.46119   -237.00023    4.3423322    4.3423322    4.3423322   -237.00023   -10693.134   -7575.3553    17557.489    7056.3411    5244.6026   -2860.5016    81.878361 
   58800    464.92702   -113.88003   0.42067574   -113.45936   -5182.6392    4.3457741    4.3457741    4.3457741   -5182.6392   -11202.296   -6956.6849    2611.0628   -1575.6864    161.12847   -8143.5888    82.073212 
   58900    267.50763     -113.704   0.24204653   -113.46196     2491.988    4.3393331    4.3393331    4.3393331     2491.988      2333.43    4416.1183    726.41572    4436.9042    10372.074    3445.1172    81.708824 
   59000      418.223   -113.84036   0.37841696   -113.46195   -5467.8786    4.3430879    4.3430879    4.3430879   -5467.8786   -4221.0469   -3535.5058   -8647.0831    5450.0225    1596.9505    2309.6869    81.921116 
   59100    396.07204   -113.81889    0.3583743   -113.46051    2757.0939    4.3446524    4.3446524    4.3446524    2757.0939    1829.0554   -822.39114    7264.6175    66.119398   -1999.0852   -47.539308    82.009679 
   59200    488.93139   -113.90271    0.4423954   -113.46032   -4438.9642    4.3385932    4.3385932    4.3385932   -4438.9642    4106.5334   -11040.235   -6383.1906    2814.6408   -1041.9495    3535.0372    81.667037 
   59300    276.53194   -113.71376   0.25021191   -113.46355    2757.9285    4.3435648    4.3435648    4.3435648    2757.9285   -7215.2131    2391.1771    13097.822    2371.7749    2541.4838    2411.3415    81.948102 
   59400    510.52119   -113.92292    0.4619303   -113.46099   -1437.8414    4.3440488    4.3440488    4.3440488   -1437.8414    5120.0527   -6732.7793   -2700.7977   -441.71318    1111.0234     5163.169    81.975504 
   59500    492.20434   -113.90532   0.44535683   -113.45996    6148.0121    4.3346175    4.3346175    4.3346175    6148.0121    5301.2606   -3556.5382    16699.314   -3248.0346   -4886.3303      1999.18    81.442736 
   59600    403.54072   -113.82747   0.36513212   -113.46234   -7144.5052    4.3472552    4.3472552    4.3472552   -7144.5052   -8697.6457   -10550.719   -2185.1508    1648.4389    6374.2649    3242.4326    82.157156 
   59700    346.15481   -113.77328   0.31320815   -113.46007    7169.4903    4.3424409    4.3424409    4.3424409    7169.4903    14887.472   -3061.2144    9682.2129    2382.8706    443.14606    2549.2459    81.884506 
   59800    604.07718   -114.00416   0.54658173   -113.45758    2320.4798    4.3361418    4.3361418    4.3361418    2320.4798    7556.8994   -6063.3318     5467.872   -4548.2767     4343.869   -6052.7014    81.528686 
   59900    288.55261   -113.72349   0.26108846   -113.46241   -1138.1354    4.3466861    4.3466861    4.3466861   -1138.1354    14448.158   -10659.629   -7202.9356    964.63346    5682.7807    1653.0127    82.124894 
   60000    397.05153   -113.82127   0.35926057   -113.46201   -8702.3398    4.3424727    4.3424727    4.3424727   -8702.3398   -1887.0439   -6473.0857    -17746.89    5508.3678    966.77911   -2148.9052    81.886308 
   60100    407.46098   -113.82911   0.36867926   -113.46043    9952.7597    4.3370952    4.3370952    4.3370952    9952.7597     12571.06    2376.1712    14911.048    1280.6159    4285.3882   -2801.4036    81.582471 
   60200    506.57946   -113.91818   0.45836374   -113.45981   -8483.2732    4.3467269    4.3467269    4.3467269   -8483.2732    943.57394   -9441.6276   -16951.766    2246.8852   -2565.1196    2464.9549    82.127207 
   60300    258.28337   -113.69761   0.23370022   -113.46391   -5992.6204    4.3386353    4.3386353    4.3386353   -5992.6204   -7038.2186    5106.6721   -16046.315    3873.0289    5800.5332   -607.27193    81.669414 
   60400    442.85203   -113.86382   0.40070183   -113.46312   -6387.3945    4.3412637    4.3412637    4.3412637   -6387.3945   -4312.9173   -3602.1578   -11247.109    4207.5523   -438.92132     3088.325    81.817934 
   60500    439.02536   -113.85779   0.39723937   -113.46055    -1368.585    4.3472081    4.3472081    4.3472081    -1368.585   -2767.4579   -3697.9994    2359.7025   -1769.1981   -1103.7438   -907.97156     82.15449 
   60600    263.05219   -113.69863   0.23801515   -113.46061    4732.8791    4.3349655    4.3349655    4.3349655    4732.8791     8148.124    10537.245   -4486.7316    2688.9027    13008.323      1835.59     81.46235 
   60700    265.33632    -113.7026   0.24008188   -113.46252   -4366.4501    4.3439708    4.3439708    4.3439708   -4366.4501    -642.9003    -7411.383   -5045.0669    1155.0318     1538.598    3104.3186    81.971087 
   60800    417.72647    -113.8392   0.37796769   -113.46124    1908.4357    4.3429311    4.3429311    4.3429311    1908.4357    17508.279   -4787.1761    -6995.796   -6446.8254    4133.0141   -2768.8559    81.912243 
   60900    258.75064   -113.69693   0.23412302    -113.4628    15500.686    4.3374015    4.3374015    4.3374015    15500.686    14008.966    9782.9812    22710.111   -1591.2167    8880.0105    7205.5456    81.599761 
   61000     347.2223   -113.77744   0.31417404   -113.46326   -6716.9893    4.3466418    4.3466418    4.3466418   -6716.9893     1922.703   -11583.713   -10489.958   -943.91324    1276.3684    2340.6459    82.122384 
   61100    362.73887   -113.78994   0.32821375   -113.46172    1974.4104    4.3397019    4.3397019    4.3397019    1974.4104   -4091.7166    3926.0156    6088.9321   -22.937855   -1331.7333    1571.9849    81.729662 
   61200    506.30273   -113.92004   0.45811335   -113.46192   -1920.4529     4.340992     4.340992     4.340992   -1920.4529    45.986922   -2172.5706   -3634.7751   -1317.3582   -4825.6104    2528.6878     81.80257 
   61300     339.0226   -113.76988   0.30675477   -113.46313    -779.1422    4.3443119    4.3443119    4.3443119    -779.1422   -4647.9671     -5887.73    8198.2706     3055.282    5382.4799     79.26556    81.990397 
   61400     417.3641   -113.83956    0.3776398   -113.46192   -1575.7913    4.3399699    4.3399699    4.3399699   -1575.7913   -3259.1805   -6430.7338    4962.5403    7636.5456   -2412.0311    3708.0658      81.7448 
   61500     447.8986   -113.86578   0.40526807   -113.46052   -172.28967    4.3443763    4.3443763    4.3443763   -172.28967    11251.124   -5888.2609   -5879.7321    731.07456    -3292.578   -2937.2808    81.994045 
   61600    408.50226   -113.83002   0.36962143    -113.4604   -331.75203    4.3420055    4.3420055    4.3420055   -331.75203    9961.2877   -13361.195    2404.6509    5250.5576    2812.5731    1445.8291     81.85988 
   61700    265.73873   -113.70266   0.24044598   -113.46222    8939.7631    4.3392706    4.3392706    4.3392706    8939.7631     16239.56   -5943.1086    16522.838    8521.6647    2359.7699    474.66312    81.705297 
   61800    474.78036   -113.89135   0.42959124   -113.46176   -3760.1979    4.3476343    4.3476343    4.3476343   -3760.1979    840.42119   -15707.883    3586.8678    1435.1925    6366.7579   -9438.6843    82.178652 
   61900    403.58301   -113.82786   0.36517039   -113.46269    4300.3388    4.3400662    4.3400662    4.3400662    4300.3388    2624.3888   -4032.5084    14309.136    2792.2989    3817.0761   -72.023495    81.750247 
   62000    343.38841   -113.77406   0.31070505   -113.46336    -419.1575    4.3408427    4.3408427    4.3408427    -419.1575   -7608.2873   -6550.0252     12900.84    6302.6785    3621.7915   -2927.5143    81.794134 
   62100    437.40607   -113.85826    0.3957742   -113.46248   -2661.0535    4.3439414    4.3439414    4.3439414   -2661.0535    -7488.568   -5677.5296     5182.937    106.36327   -8211.0827   -624.85572    81.969423 
   62200    564.96454   -113.97136   0.51119179   -113.46017   -7769.9775    4.3438228    4.3438228    4.3438228   -7769.9775   -14071.832   -8701.7511   -536.34908    321.72852    3170.0449    1056.2926     81.96271 
   62300    392.35755   -113.81679   0.35501336   -113.46178    271.81794    4.3386582    4.3386582    4.3386582    271.81794   -7375.2899   -1760.7154    9951.4592     426.8835    2267.3481   -1991.9612    81.670706 
   62400    459.24531    -113.8777    0.4155348   -113.46216   -8159.6189    4.3463932    4.3463932    4.3463932   -8159.6189   -6311.8709   -8736.2281   -9430.7577   -1386.1755   -5604.8019     866.2601    82.108297 
   62500    463.55255   -113.88084   0.41943209    -113.4614    104.79805    4.3419826    4.3419826    4.3419826    104.79805   -9896.4871   -905.36825     11116.25   -2713.8205   -644.21131   -1854.3838    81.858588 
   62600    357.90718   -113.78675   0.32384194   -113.46291    9484.6734    4.3384756    4.3384756    4.3384756    9484.6734    9934.4715   -6605.2017     25124.75   -2209.4657     8085.665    4756.9876    81.660396 
   62700    381.95492   -113.80827   0.34560084   -113.46267     -3959.53    4.3451245    4.3451245    4.3451245     -3959.53   -9048.1443   -8455.5051    5625.0595    1132.0667    7227.9401    972.55269    82.036416 
   62800    467.77518   -113.88561   0.42325281   -113.46236   -888.99071    4.3398035    4.3398035    4.3398035   -888.99071    6343.4341   -2251.6994   -6758.7068   -2956.4898   -3294.9047   -2947.9356    81.735403 
   62900    348.15239   -113.78014    0.3150156   -113.46513    4896.1917    4.3442599    4.3442599    4.3442599    4896.1917    8881.6632   -13168.311    18975.223   -1873.0217    562.40216   -2333.1634    81.987451 
   63000    449.46282   -113.87109    0.4066834    -113.4644   -5829.0596    4.3408709    4.3408709    4.3408709   -5829.0596   -2721.1824   -3305.7308   -11460.266    3397.2964    3524.4585   -1330.1223    81.795725 
   63100    264.89583   -113.70264   0.23968331   -113.46296    3294.5483    4.3411371    4.3411371    4.3411371    3294.5483    5956.4344   -2792.5089    6719.7194    -91.20686   -1925.3677   -1341.2073    81.810775 
   63200    469.20037   -113.88401   0.42454236   -113.45947   -7260.8859    4.3451286    4.3451286    4.3451286   -7260.8859   -6557.8691   -15781.313    556.52436    626.47969   -4880.7972   -3259.5581    82.036648 
   63300    287.14669   -113.72008   0.25981636   -113.46027    5430.9207    4.3399604    4.3399604    4.3399604    5430.9207   -9289.3334    203.68639    25378.409    4730.4654    3002.6198    234.95965    81.744265 
   63400    401.95669   -113.82512   0.36369886   -113.46142   -5891.6858    4.3421397    4.3421397    4.3421397   -5891.6858    -8669.749   -8154.6249   -850.68353    1301.5824    892.57804   -3614.6988     81.86747 
   63500       466.76   -113.88525   0.42233425   -113.46292   -11536.438    4.3442068    4.3442068    4.3442068   -11536.438   -15312.974    -12469.15   -6827.1894    1071.6651    461.04355    2742.7552    81.984445 
   63600    387.49575   -113.81376    0.3506143   -113.46315    2104.5685    4.3383825    4.3383825    4.3383825    2104.5685   -10936.665    3084.8411    14165.529    2359.4423    6434.3375    2982.0346    81.655137 
   63700     418.8461   -113.84119   0.37898076   -113.46221   -4421.4784    4.3449347    4.3449347    4.3449347   -4421.4784   -9524.0252    -8612.906    4872.4959    5317.6455    3198.3211    1858.3041    82.025663 
   63800    324.66283   -113.75715   0.29376175   -113.46338    3388.5941    4.3414462    4.3414462    4.3414462    3388.5941    4583.6937   -9976.1564    15558.245    1840.8277   -6248.0892     691.6456    81.828252 
   63900    436.02346   -113.85822   0.39452319    -113.4637     3307.157    4.3387835    4.3387835    4.3387835     3307.157      2877.92    -260.7625    7304.3134   -621.87496   -3413.1233   -1666.9197    81.677782 
   64000    234.72592   -113.67606   0.21238494   -113.46368    6873.2136    4.3475577    4.3475577    4.3475577    6873.2136    4932.3799   -13767.582    29454.843    5264.0125     3469.436    833.58359    82.174307 
   64100    479.28907   -113.89368   0.43367083   -113.46001    217.99198    4.3380256    4.3380256    4.3380256    217.99198    13733.116   -7978.4728   -5100.6678   -221.63926   -5786.8179   -3616.0458    81.634989 
   64200    388.22867   -113.81265   0.35127746   -113.46137    1091.3386    4.3435934    4.3435934    4.3435934    1091.3386    924.00136   -7042.4722    9392.4867   -2131.9192   -3168.0671   -1774.0698    81.949725 
   64300    504.83526   -113.91887   0.45678555   -113.46208   -7334.2122    4.3450926    4.3450926    4.3450926   -7334.2122    461.93959   -16761.108   -5703.4687   -114.75877    5659.5873   -3378.1502     82.03461 
   64400    465.51624   -113.88592   0.42120888   -113.46471   -3735.5497    4.3399793    4.3399793    4.3399793   -3735.5497   -9565.6198   -8205.6903    6564.6611   -1797.0617    9363.2816   -3244.4702    81.745333 
   64500    498.46437   -113.91477   0.45102104   -113.46375   -7431.0163    4.3466205    4.3466205    4.3466205   -7431.0163   -10160.938   -18843.791    6711.6802   -2471.2906   -938.99025    1070.4693    82.121178 
   64600    511.10843   -113.92232   0.46246165   -113.45986   -5725.0905    4.3454968    4.3454968    4.3454968   -5725.0905   -18555.978     -19059.7    20440.406    -3015.101     2261.002   -259.64456    82.057503 
   64700    501.81449   -113.91398    0.4540523   -113.45993   -5482.7483    4.3413404    4.3413404    4.3413404   -5482.7483   -11840.319   -13865.427     9257.501   -394.10701   -3348.8303    1077.6335     81.82227 
   64800    483.98462   -113.89949   0.43791945   -113.46157   -3701.7154    4.3457037    4.3457037    4.3457037   -3701.7154   -6443.9567   -19275.759     14614.57   -2352.8698   -6075.1356   -1096.2213    82.069225 
   64900    536.62021   -113.94625   0.48554525   -113.46071   -6545.5631    4.3474196    4.3474196    4.3474196   -6545.5631   -257.90404   -17623.967   -1754.8185   -4124.0677   -150.29916    1379.6011    82.166477 
   65000    475.40967   -113.89012   0.43016066   -113.45996   -316.67542    4.3393162    4.3393162    4.3393162   -316.67542    13307.395    -14304.49    47.069151    2921.7878    2384.8178    3546.3406    81.707871 
   65100    377.38737    -113.8015   0.34146802   -113.46003   -203.94658    4.3483025    4.3483025    4.3483025   -203.94658    6276.8911   -18027.242    11138.511    280.49962   -2369.0156   -153.08864    82.216549 
   65200    456.55694   -113.87189   0.41310231   -113.45879    100.63951    4.3448407    4.3448407    4.3448407    100.63951    11512.978   -13876.676    2665.6163   -970.68089     2159.218    4164.1097    82.020344 
   65300    346.54345   -113.77416    0.3135598    -113.4606    8956.6022    4.3392174    4.3392174    4.3392174    8956.6022    9917.8683     -8470.73    25422.668    4122.6678    11628.548   -1347.8409    81.702292 
   65400    335.29152   -113.76607   0.30337881   -113.46269   -3918.1415    4.3487166    4.3487166    4.3487166   -3918.1415    3716.8082   -13310.864   -2160.3692    3105.2844    5150.9673   -1985.1704    82.240039 
   65500    381.63935   -113.80665   0.34531531   -113.46134    644.01108    4.3395766    4.3395766    4.3395766    644.01108    1129.2453      2781.62   -1978.8321    4279.2638   -6728.1685   -2864.6826    81.722581 
   65600    388.73655   -113.81305     0.351737   -113.46131   -291.76825    4.3436161    4.3436161    4.3436161   -291.76825   -8907.4041    338.34242     7693.757    3365.8144    37.044425   -3131.8216    81.951011 
   65700     360.0027    -113.7859     0.325738   -113.46016   -5586.2345    4.3474066    4.3474066    4.3474066   -5586.2345   -10545.023    2623.4136   -8837.0944    4694.4215    433.47195    524.05914    82.165744 
   65800    370.21279    -113.7942   0.33497631   -113.45922   -2279.6627    4.3380347    4.3380347    4.3380347   -2279.6627   -14491.362    15345.503   -7693.1288    1360.8726    -9887.135   -302.75276    81.635499 
   65900    374.96407    -113.7993   0.33927537   -113.46003   -6352.0161     4.346918     4.346918     4.346918   -6352.0161    -13748.61     2438.889    -7746.327    -1445.519   -2302.0072    2762.1019    82.138043 
   66000    293.61608   -113.72509      0.26567   -113.45942    2972.3617    4.3441861    4.3441861    4.3441861    2972.3617   -10222.221    7509.4203    11629.886    2599.6594    469.02775    5258.5971    81.983275 
   66100    365.81471   -113.78892   0.33099684   -113.45792    2023.5942    4.3373441    4.3373441    4.3373441    2023.5942   -11402.348    17185.015    288.11629   -4117.6114   -4302.2588    2626.2381    81.596519 
   66200     235.0657   -113.67368   0.21269238   -113.46099    2437.3732    4.3465371    4.3465371    4.3465371    2437.3732   -3323.6196   -2004.1018    12639.841   -4734.0168    191.55115    7370.9331    82.116454 
   66300    364.38418   -113.79099   0.32970247   -113.46129    2132.4543    4.3423573    4.3423573    4.3423573    2132.4543     3510.528    5596.6757   -2709.8409   -970.96867     7504.424    2360.3177    81.879782 
   66400    289.63027   -113.72302   0.26206355   -113.46096    10703.611    4.3382061    4.3382061    4.3382061    10703.611    4884.4691    38.031724    27188.332   -5831.5379   -1240.5314    -2267.606     81.64518 
   66500    364.99393   -113.79025   0.33025418   -113.45999   -2512.9514    4.3461642    4.3461642    4.3461642   -2512.9514    5798.2821    65.960371   -13403.097   -3798.6238   -2568.6971    3181.7713    82.095316 
   66600    361.25788    -113.7859   0.32687372   -113.45903    1842.7674     4.340643     4.340643     4.340643    1842.7674    6859.0367   -424.92108    -905.8133   -738.44196     6565.696   -4505.3726    81.782845 
   66700    438.89964   -113.85598   0.39712562   -113.45886    2174.7287    4.3391465    4.3391465    4.3391465    2174.7287    5861.5909   -93.927171    756.52249   -2851.2302   -484.40276   -2370.3076    81.698284 
   66800    419.95544   -113.84032   0.37998451   -113.46034   -3679.1719    4.3466248    4.3466248    4.3466248   -3679.1719     -6385.15   -2978.9298   -1673.4358   -317.72974   -10611.418   -2955.0935     82.12142 
   66900    441.50719   -113.85965   0.39948498   -113.46017   -3372.8114    4.3403822    4.3403822    4.3403822   -3372.8114   -11415.914   -2718.0474    4015.5275    2040.4666   -2766.9317   -6071.8566    81.768105 
   67000    454.60327   -113.87183   0.41133459   -113.46049   -467.11884    4.3422028    4.3422028    4.3422028   -467.11884   -8080.9684   -983.12766    7662.7396    5337.2701    6675.5447    711.03817    81.871043 
   67100    450.86093   -113.86716   0.40794845   -113.45921   -2516.8959     4.346627     4.346627     4.346627   -2516.8959   -8390.1768   -8820.0429     9659.532    2491.4072   -3592.0989   -2875.7843    82.121545 
   67200    472.68967   -113.88631   0.42769955   -113.45861   -372.39857    4.3384672    4.3384672    4.3384672   -372.39857   -9553.6444   -3547.4941    11983.943    135.63879   -66.298601    1668.9599    81.659921 
   67300    446.61327   -113.86446   0.40410507   -113.46036   -3700.9415     4.344433     4.344433     4.344433   -3700.9415   -10431.148   -5991.8487    5320.1723    4586.0587    7811.5768    613.99213    81.997255 
   67400    483.70468   -113.89626   0.43766616   -113.45859   -84.414521     4.343109     4.343109     4.343109   -84.414521    5999.6454   -5058.9199   -1193.9691   -1403.9251    1361.8253   -1779.0501    81.922311 
   67500    542.24259   -113.94891   0.49063249   -113.45828   -3697.8911    4.3408679    4.3408679    4.3408679   -3697.8911   -3654.7067   -3210.6871   -4228.2795    603.76958    3043.8186    5372.8566    81.795559 
   67600    427.82137   -113.84641   0.38710176   -113.45931   -868.85052    4.3443376    4.3443376    4.3443376   -868.85052    6870.7096   -5602.5288   -3874.7323    4104.5926    3929.8194   -721.40683    81.991855 
   67700    461.09204   -113.87758   0.41720577   -113.46037    2637.7573    4.3433298    4.3433298    4.3433298    2637.7573    4830.4888   -2087.8721    5170.6553    -4332.374   -3890.0109    2235.0563    81.934805 
   67800    485.33117   -113.89982   0.43913784   -113.46068    2726.8888    4.3408202    4.3408202    4.3408202    2726.8888    2166.9383   -2574.1791     8587.907   -3546.7091   -10042.606    427.51082     81.79286 
   67900    317.28111   -113.74878   0.28708262    -113.4617    6880.0306     4.343293     4.343293     4.343293    6880.0306    6498.4992    5205.5527    8936.0399   -1397.5219   -1469.0535    -5039.497    81.932724 
   68000    377.90481   -113.80332   0.34193621   -113.46139   -871.85767     4.346853     4.346853     4.346853   -871.85767   -11204.772    -2607.931     11197.13    1565.5686      1099.65    733.51086    82.134356 
   68100    416.65098   -113.83726   0.37699456   -113.46026    6968.9187     4.335706     4.335706     4.335706    6968.9187    -1958.431    8869.3856    13995.801    -1923.057    -6445.689   -6638.1976    81.504103 
   68200    361.77961   -113.78966   0.32734579   -113.46232   -5062.6256    4.3460913    4.3460913    4.3460913   -5062.6256    -17569.61    1933.4471     448.2858   -224.97263   -556.83378     1610.997    82.091188 
   68300     408.9835   -113.83078   0.37005687   -113.46072   -10031.526    4.3445754    4.3445754    4.3445754   -10031.526   -19123.421    -5022.871   -5948.2864     6509.769     5382.863   -2154.0984    82.005317 
   68400    453.66271   -113.87051   0.41048356   -113.46002   -5411.5972    4.3396685    4.3396685    4.3396685   -5411.5972   -6685.2902     1958.515   -11508.016   -756.06019    4083.8209   -242.73151    81.727771 
   68500    378.37413   -113.80234   0.34236086   -113.45998   -4851.4455    4.3436001    4.3436001    4.3436001   -4851.4455   -11058.229   -3803.3868    307.27945    4616.1449   -2584.6627    5542.5133    81.950104 
   68600    398.84408   -113.82307    0.3608825   -113.46219   -13077.086    4.3439683    4.3439683    4.3439683   -13077.086    -11496.37   -19109.046   -8625.8414    7168.7062    2203.8386   -295.02646    81.970944 
   68700    337.25375   -113.76748   0.30515428   -113.46233   -4167.3411    4.3422364    4.3422364    4.3422364   -4167.3411   -3229.0901   -1034.3007   -8238.6323   -2169.8039   -2277.6986    3517.9476    81.872943 
   68800    317.54981   -113.74815   0.28732575   -113.46083    3983.6072    4.3430629    4.3430629    4.3430629    3983.6072    5460.2981   -8628.6692    15119.193   -496.44788   -8429.9359   -3468.8914    81.919698 
   68900    232.88859   -113.67217   0.21072249   -113.46144    2853.2426    4.3454476    4.3454476    4.3454476    2853.2426   -4555.1061   -7733.6091    20848.443    2131.3956   -2728.2212    -787.0172    82.054717 
   69000    287.80002   -113.72117    0.2604075   -113.46076    6039.0466    4.3396838    4.3396838    4.3396838    6039.0466    13184.323     3060.073    1872.7438   -734.08463   -5096.7889   -3744.8291    81.728638 
   69100    323.75769   -113.75428   0.29294276   -113.46134    3652.8563    4.3460315    4.3460315    4.3460315    3652.8563    6987.6674   -5252.5878    9223.4894   -6764.8354   -5051.4463   -5759.1154    82.087801 
   69200    261.83665   -113.69808    0.2369153   -113.46117    11727.068    4.3422772    4.3422772    4.3422772    11727.068    16725.467     8995.785    9459.9502   -4484.2171   -5039.2813   -1188.1036    81.875247 
   69300    400.73768   -113.82324   0.36259587   -113.46065   -2493.5748    4.3443044    4.3443044    4.3443044   -2493.5748    6247.4195    -5224.383   -8503.7607   -278.48436   -312.07991   -6978.1621    81.989974 
   69400    426.66267    -113.8465   0.38605335   -113.46045    2030.8541    4.3421142    4.3421142    4.3421142    2030.8541    177.46839    7820.5547    -1905.461   -2665.9979    1191.4004    2680.5506    81.866026 
   69500    462.13123   -113.87738   0.41814605   -113.45924    -7216.931    4.3492219    4.3492219    4.3492219    -7216.931   -4861.6917    1194.8976   -17983.999   -1348.9576    2494.1499    213.79746    82.268714 
   69600    469.77458   -113.88362   0.42506192   -113.45855    1090.6422    4.3376635    4.3376635    4.3376635    1090.6422   -2057.5645   -6478.8134    11808.305    5050.3612    5918.3143   -3035.8249     81.61455 
   69700    570.69031     -113.975   0.51637259   -113.45862   -13969.895    4.3486747    4.3486747    4.3486747   -13969.895   -19419.357   -4549.5569   -17940.772    1590.8803   -766.00379    5790.2122    82.237664 
   69800    484.78705    -113.8962   0.43864551   -113.45755   -5111.0359    4.3438258    4.3438258    4.3438258   -5111.0359   -10472.012   -8824.3281    3963.2325    847.60781   -1983.8813   -1018.8937    81.962881 
   69900    514.37492   -113.92374   0.46541724   -113.45832   -3845.0816    4.3376372    4.3376372    4.3376372   -3845.0816    -1705.245   -12362.414    2532.4143    8401.9485     3270.989     2009.836    81.613064 
   70000    489.37704   -113.90222   0.44279863   -113.45942    -6115.387    4.3477981    4.3477981    4.3477981    -6115.387   -4403.6351   -9949.9474   -3992.5785     6673.069    1257.9451   -840.12714    82.187944 
   70100     472.8177   -113.88723   0.42781539   -113.45942   -1062.8912    4.3423527    4.3423527    4.3423527   -1062.8912    5945.2741   -7751.6263   -1382.3215   -4348.0656   -4653.2855   -4974.7926    81.879522 
   70200    414.70347   -113.83578   0.37523242   -113.46055    6948.5541    4.3375253    4.3375253    4.3375253    6948.5541    6683.1892    6267.3926    7895.0803   -3934.2202   -5748.5182    2024.6301    81.606746 
   70300    348.07969   -113.77616   0.31494982   -113.46121    3724.7036    4.3474171    4.3474171    4.3474171    3724.7036    12611.326    5943.1726   -7380.3882    2612.5378   -3587.0358   -6585.5167    82.166338 
   70400    383.25963   -113.80698   0.34678137    -113.4602    6999.1803    4.3399764    4.3399764    4.3399764    6999.1803    3404.3306    10619.261    6973.9496   -6727.1046    -1059.635   -2060.7572     81.74517 
   70500    361.13284   -113.78742   0.32676058   -113.46066    8944.0965    4.3401566    4.3401566    4.3401566    8944.0965    11287.107    22498.477   -6953.2944   -8692.3903   -1527.2165   -2356.9815    81.755352 
   70600    318.30686   -113.74991   0.28801074    -113.4619    615.89299    4.3459713    4.3459713    4.3459713    615.89299   -6143.6636    4310.2166    3681.1259    133.46873   -934.21658   -2859.7655    82.084386 
   70700    371.79086   -113.79791   0.33640418    -113.4615    2078.3573    4.3349492    4.3349492    4.3349492    2078.3573   -4877.2692    9860.1765    1252.1647    4319.2493    -3903.044    3741.9733    81.461429 
   70800    462.73545   -113.87938   0.41869276   -113.46069   -10074.611    4.3469322    4.3469322    4.3469322   -10074.611   -15484.139   -2918.1205   -11821.573   -579.08436   -1838.3007   -2744.3345    82.138848 
   70900    406.96654   -113.82855   0.36823188   -113.46031   -6566.7655    4.3428457    4.3428457    4.3428457   -6566.7655    1065.2326   -17019.086   -3746.4433    3589.8179    4599.6306    5849.0701    81.907412 
   71000    410.68839    -113.8315   0.37159948    -113.4599   -4965.9762    4.3374111    4.3374111    4.3374111   -4965.9762   -8312.2269   -10858.618     4272.916    9034.3242   -175.19417    3148.1772      81.6003 
   71100    478.72404   -113.89376   0.43315957    -113.4606   -12862.834    4.3470955    4.3470955    4.3470955   -12862.834   -15606.395    -11522.33   -11459.776   -1779.4453    -648.1234    603.26141    82.148106 
   71200     369.0867   -113.79457    0.3339574   -113.46061    -1104.928    4.3413487    4.3413487    4.3413487    -1104.928    5222.2412   -3904.6942   -4632.3311   -582.05554   -179.88709    3758.6206    81.822741 
   71300    343.13195   -113.77146     0.310473   -113.46099   -305.88449    4.3405179    4.3405179    4.3405179   -305.88449    2053.4152    6635.2199   -9606.2886    3910.4302   -2245.3168   -1755.4426    81.775774 
   71400    233.66648   -113.67499   0.21142634   -113.46356    10143.384    4.3416943    4.3416943    4.3416943    10143.384    2310.9083    16163.402    11955.842   -1947.1023   -2037.2487   -1799.6358    81.842279 
   71500    406.57865   -113.83039   0.36788091   -113.46251    6168.0275    4.3395117    4.3395117    4.3395117    6168.0275    2776.7283    22583.131   -6855.7764   -6997.7506   -3568.8232   -4598.1576    81.718913 
   71600     248.1707   -113.68905   0.22455007    -113.4645    6543.3907    4.3445589    4.3445589    4.3445589    6543.3907    28.776503    20560.086    -958.6904   -1254.5702   -855.13445   -1165.1789    82.004381 
   71700    289.23951   -113.72476   0.26170999   -113.46305     5225.273    4.3416166    4.3416166    4.3416166     5225.273    16068.004   -3276.0815    2883.8968    2009.6686   -4872.3173   -2713.6113    81.837888 
   71800    466.92966    -113.8819   0.42248777   -113.45941    1840.9791    4.3409917    4.3409917    4.3409917    1840.9791   -7722.9733    9383.8184    3862.0923   -13.662523   -1709.4231   -417.64042    81.802554 
   71900    484.41586   -113.89837   0.43830965   -113.46006   -8998.8438    4.3448371    4.3448371    4.3448371   -8998.8438   -8349.8542   -14355.647   -4291.0305     2858.671    3450.8449   -2425.1146    82.020135 
   72000    370.89726   -113.79836   0.33559563   -113.46276   -4211.1277    4.3398445    4.3398445    4.3398445   -4211.1277   -4176.9054   -12172.698    3716.2201    8756.5262   -1823.5489    2066.3247    81.737715 
   72100    551.12618   -113.95921   0.49867055   -113.46054   -11680.737    4.3470543    4.3470543    4.3470543   -11680.737   -15356.982   -11508.344   -8176.8851    3817.9333     1489.723    5793.2607    82.145766 
   72200    483.01276   -113.89683   0.43704009   -113.45979    1412.5367    4.3413144    4.3413144    4.3413144    1412.5367    -9199.798    13968.971   -531.56282    -916.4179    3672.8193    623.80261    81.820796 
   72300     514.1194   -113.92603   0.46518604   -113.46084    -7203.639    4.3422314    4.3422314    4.3422314    -7203.639   -13999.525   -1443.0216   -6168.3703    4479.8924    3459.4611    1009.0833     81.87266 
   72400    372.89821   -113.79957   0.33740614   -113.46217    -1523.568    4.3479248    4.3479248    4.3479248    -1523.568   -10108.584    9143.7207   -3605.8404    2449.8463    3791.9126   -1116.1505     82.19513 
   72500    516.17464   -113.92611   0.46704566   -113.45906     4790.011    4.3399262    4.3399262    4.3399262     4790.011     969.6677    13247.481    152.88399   -4673.6994   -1473.4139   -2960.5704    81.742333 
   72600    427.54828   -113.84721   0.38685467   -113.46035    1492.7099    4.3459247    4.3459247    4.3459247    1492.7099   -3009.6996   -2311.9571    9799.7865   -3830.8763     180.5663   -5406.7725    82.081749 
   72700    250.63953   -113.68994   0.22678392   -113.46315     8254.227    4.3451191    4.3451191    4.3451191     8254.227   -2720.5476    5976.2346    21506.994    1104.0926   -6964.5524   -6961.7899    82.036108 
   72800    447.06695   -113.86611   0.40451558   -113.46159    7369.2144    4.3390814    4.3390814    4.3390814    7369.2144    4292.5376   -3874.6348     21689.74     -771.767   -2886.9892    -4706.656     81.69461 
   72900    367.69625    -113.7947   0.33269929     -113.462    3496.2231    4.3460372    4.3460372    4.3460372    3496.2231    4412.6474   -4881.9906    10958.012   -2430.3865   -4692.3747   -2444.1847    82.088123 
   73000    293.75047   -113.72814    0.2657916   -113.46235   -635.65731    4.3443039    4.3443039    4.3443039   -635.65731   -4084.6073    838.61185    1339.0235    3366.6703   -7190.2198      268.097    81.989945 
   73100    437.06338   -113.85499   0.39546413   -113.45952    1785.5139    4.3391675    4.3391675    4.3391675    1785.5139    6512.7232   -11483.463    10327.281    3070.3331   -1991.1749    1609.8226     81.69947 
   73200    507.34526   -113.91724   0.45905665   -113.45818   -7599.8451     4.346871     4.346871     4.346871   -7599.8451   -5529.9967   -10897.782   -6371.7566   -1667.4106    1542.8409    1797.0238    82.135376 
   73300    342.78157   -113.77024   0.31015597   -113.46009   -7413.1829    4.3414174    4.3414174    4.3414174   -7413.1829   -11779.269    -1804.354   -8655.9256     8886.402    3209.7008     1307.128    81.826623 
   73400    403.02869    -113.8253   0.36466883   -113.46063   -7917.8107    4.3425815    4.3425815    4.3425815   -7917.8107   -9478.9097   -13611.305   -663.21768    10684.238   -1639.9227    656.92831    81.892461 
   73500    403.66987   -113.82462   0.36524898   -113.45937     4851.551     4.343693     4.343693     4.343693     4851.551   -8579.6658    4324.9872    18809.332    694.94912    1747.1626    -1742.224    81.955362 
   73600    413.11478    -113.8346   0.37379494   -113.46081   -6660.1809     4.340755     4.340755     4.340755   -6660.1809   -18732.641    4001.6335   -5249.5351    5401.2348    4023.4624   -3040.7816    81.789173 
   73700    206.44125   -113.65024   0.18679238   -113.46345   -3313.2777    4.3439941    4.3439941    4.3439941   -3313.2777   -25246.682    3096.3278    12210.521    7041.5489   -1273.2001   -6322.4014    81.972407 
   73800    342.03222    -113.7714   0.30947794   -113.46193    6456.0912    4.3435341    4.3435341    4.3435341    6456.0912   -4624.1399    16645.249    7347.1645    35.263455   -2498.3351   -2576.5462     81.94637 
   73900    401.64192   -113.82504   0.36341405   -113.46162    5829.2797    4.3391909    4.3391909    4.3391909    5829.2797   -5256.3953    11568.466    11175.768   -4423.0588   -2994.5221   -3381.0263    81.700792 
   74000    212.12677   -113.65513   0.19193676   -113.46319   -1459.5119    4.3446442    4.3446442    4.3446442   -1459.5119   -14192.952    5253.0176    4561.3992    2327.7188   -1472.8316    360.07159    82.009217 
   74100    422.75846   -113.84268   0.38252074   -113.46016   -6738.1235    4.3450903    4.3450903    4.3450903   -6738.1235   -3089.3366   -3005.1085   -14119.925   -1361.1786   -2514.9798    1319.2478    82.034476 
   74200    469.34017   -113.88305   0.42466885   -113.45838    5026.8091    4.3388408    4.3388408    4.3388408    5026.8091    1099.7483    4969.0958    9011.5831   -3867.6194   -1680.7288    4229.9464    81.681018 
   74300    358.21011   -113.78434   0.32411603   -113.46022   -1301.4934    4.3431876    4.3431876    4.3431876   -1301.4934    7563.0805   -12637.068    1169.5074    3376.0053    1198.3001    2644.3643    81.926756 
   74400    395.44972   -113.82043   0.35781121   -113.46262   -6878.9619    4.3448455    4.3448455    4.3448455   -6878.9619   -7103.7112    -8651.157   -4882.0175    1669.3975     282.5004    1091.1752    82.020614 
   74500     449.7428    -113.8678   0.40693674   -113.46086    1931.8291    4.3419798    4.3419798    4.3419798    1931.8291    -3827.068    9225.0395    397.51587    1095.6685    4467.4734   -318.74029     81.85843 
   74600    416.96325   -113.83805   0.37727711   -113.46078    2306.6744    4.3407682    4.3407682    4.3407682    2306.6744    2810.4459   -6871.8049    10981.382    5734.0614    3749.9098   -3552.5034    81.789919 
   74700    233.22424   -113.67339   0.21102619   -113.46236    7839.0041    4.3439601    4.3439601    4.3439601    7839.0041   -4262.4798    23397.797    4381.6948    7831.3593    639.11323    -2689.231    81.970482 
   74800    494.87145   -113.90745   0.44777009   -113.45968    2650.6548    4.3411243    4.3411243    4.3411243    2650.6548   -10373.266    8958.8745    9366.3555    1418.6267     1900.752   -6141.6641    81.810053 
   74900    380.19681   -113.80537   0.34401006   -113.46136    6148.8109    4.3420493    4.3420493    4.3420493    6148.8109    -933.7797    10585.236    8794.9761    -2143.392    1606.5725    636.23073    81.862356 
   75000    395.93584    -113.8194   0.35825107   -113.46115   -1736.5166    4.3436407    4.3436407    4.3436407   -1736.5166   -13963.464    10310.108   -1556.1939    5336.1971   -2041.2431   -5339.5666      81.9524 
   75100    546.37044    -113.9539   0.49436746   -113.45953   -3055.8409    4.3408943    4.3408943    4.3408943   -3055.8409   -2964.4211   -11148.632    4945.5307    3413.7611   -4415.7789    1935.6619    81.797049 
   75200    524.85691   -113.93502   0.47490156   -113.46012   -5200.8989    4.3449337    4.3449337    4.3449337   -5200.8989   -11291.431   -3690.8679   -620.39785   -5912.1621    1217.3746     5464.006     82.02561 
   75300    492.70943   -113.90639   0.44581385   -113.46058   -5854.1823    4.3427185    4.3427185    4.3427185   -5854.1823   -5298.8046   -15674.257    3410.5152   -814.79763   -3779.2967    1657.7892    81.900213 
   75400    537.76046   -113.94833   0.48657697   -113.46175   -9116.9901    4.3434293    4.3434293    4.3434293   -9116.9901   -13964.564   -17294.831    3908.4242   -574.09001   -5352.7509    2175.1574    81.940437 
   75500    511.64779   -113.92416   0.46294968   -113.46121    2224.8865    4.3390066    4.3390066    4.3390066    2224.8865   -3262.7955   -9164.6725    19102.128   -5423.1077   -1485.3378   -3035.5666    81.690384 
   75600    416.31021   -113.83857   0.37668623   -113.46188   -6472.3895    4.3482721    4.3482721    4.3482721   -6472.3895    -22457.05   -15398.316    18438.198   -960.25382     3699.789      290.267    82.214827 
   75700    469.40728   -113.88525   0.42472957   -113.46052   -3358.4935    4.3395028    4.3395028    4.3395028   -3358.4935   -3483.8549   -6972.2817    380.65621    704.88054    281.90076   -5611.4893    81.718414 
   75800    417.40142   -113.83722   0.37767358   -113.45955   -178.06957    4.3430084    4.3430084    4.3430084   -178.06957   -5046.1642   -5595.7499    10107.705   -1845.6888   -759.47079   -1941.6772    81.916615 
   75900     412.2352   -113.83232   0.37299907   -113.45932   -7259.1727     4.347031     4.347031     4.347031   -7259.1727   -13419.454   -4741.3891   -3616.6746    47.388377     2311.679   -433.05546    82.144448 
   76000    323.01013   -113.75263   0.29226635   -113.46036   -753.85259    4.3396036    4.3396036    4.3396036   -753.85259   -621.83309   -5726.3824    4086.6577    6030.4343    -1739.536   -5431.7261    81.724105 
   76100    275.20046   -113.70968   0.24900716   -113.46067    4295.3111    4.3442102    4.3442102    4.3442102    4295.3111    16041.381    865.13236   -4020.5803    4272.5685   -1755.7395    1475.7612    81.984639 
   76200    348.76716   -113.77537   0.31557186    -113.4598    1176.6807    4.3453355    4.3453355    4.3453355    1176.6807    1016.0854   -82.291423    2596.2481    118.49115   -2844.0697    820.47463    82.048366 
   76300    155.19239   -113.60196   0.14042134   -113.46154    11833.542    4.3396357    4.3396357    4.3396357    11833.542    10983.814   -5285.9552    29802.766    7345.4323   -7498.9539    4884.5774    81.725922 
   76400    291.27974   -113.72493   0.26355603   -113.46137    1465.6856    4.3478959    4.3478959    4.3478959    1465.6856    2795.7738    5967.7993   -4366.5161    7244.2182   -5020.4681    3155.0187     82.19349 
   76500    268.17408   -113.70232   0.24264955   -113.45967    11163.691    4.3404541    4.3404541    4.3404541    11163.691    15147.085   -1208.1174    19552.106    1246.7638   -2095.0004    2748.8655    81.772167 
   76600    331.13455   -113.76067    0.2996175   -113.46105    3684.6561    4.3393082    4.3393082    4.3393082    3684.6561   -702.77754    9046.7963    2709.9496    2556.5745   -135.25734    5628.4309    81.707417 
   76700    298.93216   -113.73081    0.2704801   -113.46033   -2271.9025    4.3499454    4.3499454    4.3499454   -2271.9025   -8411.3441    3858.2148   -2262.5783    5721.7857   -5659.8013   -2897.8885    82.309773 
   76800    458.93111   -113.87286   0.41525052   -113.45761    2523.8131    4.3379418    4.3379418    4.3379418    2523.8131    2955.7671   -428.23144    5043.9035    367.17057    325.63545    2162.0862    81.630256 
   76900    441.86072   -113.85939   0.39980487   -113.45958   -4185.8761    4.3430359    4.3430359    4.3430359   -4185.8761    -6342.161    1417.6197   -7633.0868   -1454.7726    6596.2013   -4835.1976    81.918172 
   77000    367.36113   -113.79212   0.33239607   -113.45972   -2762.4876    4.3471486    4.3471486    4.3471486   -2762.4876   -9958.1336   -9070.5357    10741.207    2955.3012    -160.4471   -2478.6942    82.151113 
   77100    586.69271   -113.98774   0.53085189   -113.45689   -6465.9336    4.3398778    4.3398778    4.3398778   -6465.9336   -10004.324   -10212.368    818.89059   -5368.1804    816.38462   -1111.9375      81.7396 
   77200    395.29201   -113.81776   0.35766852   -113.46009    2440.7288    4.3419639    4.3419639    4.3419639    2440.7288    422.51075   -8205.4112    15105.087   -6307.5647    18.055569   -6825.8942     81.85753 
   77300    485.05452    -113.9003   0.43888753   -113.46141   -11228.382    4.3465435    4.3465435    4.3465435   -11228.382   -9367.1094   -22737.931    -1580.106    4483.7788   -427.45662    2637.2032    82.116814 
   77400      438.019   -113.85781    0.3963288   -113.46148    8941.8742     4.332905     4.332905     4.332905    8941.8742    6165.8841    2633.9319    18025.807    1442.9897    -393.5504    -3241.384    81.346242 
   77500    474.55445   -113.89066   0.42938684   -113.46128   -5942.6817     4.349395     4.349395     4.349395   -5942.6817    2874.0305   -20802.501    100.42571   -4774.0609   -3169.6822    3077.6437    82.278535 
   77600    412.54971   -113.83316   0.37328365   -113.45987    -2498.241    4.3416113    4.3416113    4.3416113    -2498.241   -574.08424   -7087.0448    166.40609    1901.4781   -5367.9032    3562.0601    81.837588 
   77700    440.10332   -113.85672   0.39821473    -113.4585    4955.9874    4.3345773    4.3345773    4.3345773    4955.9874    7296.2189    1367.8614    6203.8819    7228.1795   -6282.4728   -3638.4493    81.440469 
   77800     458.6444   -113.87431   0.41499109   -113.45931   -3080.2403    4.3490714    4.3490714    4.3490714   -3080.2403    2362.0861   -5973.0023   -5629.8048   -1053.3034    2507.6532     1522.464     82.26017 
   77900    436.25015   -113.85498    0.3947283   -113.46026   -1783.3473    4.3391035    4.3391035    4.3391035   -1783.3473    -6392.986   -1749.6356    2792.5797    2810.5518     4809.021   -2846.6644    81.695856 
   78000    329.11302   -113.75992   0.29778838   -113.46213     8330.403    4.3363858    4.3363858    4.3363858     8330.403     -2446.98    9192.0682    18246.121    5256.4298   -2750.7123   -3112.0842     81.54245 
   78100    502.53129   -113.91621   0.45470087   -113.46151   -5890.3501    4.3463761    4.3463761    4.3463761   -5890.3501   -16619.419   -7638.9461    6587.3145   -3444.4584    596.81042   -4600.2996    82.107324 
   78200    323.73031   -113.75791   0.29291799   -113.46499    5395.7824    4.3365298    4.3365298    4.3365298    5395.7824   -6000.7206    475.72553    21712.342   -5173.7676   -1195.3426   -4286.4644     81.55057 
   78300    347.48771    -113.7791   0.31441419   -113.46469    2446.5269     4.341346     4.341346     4.341346    2446.5269   -14670.809   -4786.0215    26796.411     3179.641    1753.9665    1046.0391    81.822584 
   78400    496.83018   -113.90868   0.44954239   -113.45914   -7645.1823    4.3468475    4.3468475    4.3468475   -7645.1823   -18234.179   -11423.377    6722.0096   -426.67896   -2459.8333   -1240.6315    82.134048 
   78500    350.58896   -113.77555   0.31722026   -113.45833   -2210.5395    4.3375292    4.3375292    4.3375292   -2210.5395   -11874.827   -3054.9213    8298.1296   -9385.9077   -4125.3954    1931.1527    81.606968 
   78600    405.35915   -113.82594   0.36677747   -113.45916   -8741.3739    4.3430779    4.3430779    4.3430779   -8741.3739   -14333.815   -15785.812    3895.5052   -154.75584   -499.67816    3140.9872    81.920552 
   78700    463.79862   -113.87868   0.41965474   -113.45902   -4337.2029    4.3449104    4.3449104    4.3449104   -4337.2029    19.478877   -9377.1871   -3653.9005    2055.4037   -4420.4702    1364.2822    82.024286 
   78800    360.77224   -113.78576    0.3264343   -113.45932   -485.11032    4.3384497    4.3384497    4.3384497   -485.11032   -5017.1576    -1382.424    4944.2507   -5491.4613    2551.9575    3626.3694    81.658934 
   78900     341.7626   -113.76981   0.30923398   -113.46057   -9960.6895    4.3454124    4.3454124    4.3454124   -9960.6895   -10425.986   -17236.708   -2219.3744    794.91385    3140.8434    140.20305    82.052724 
   79000    320.38393   -113.75049   0.28989012    -113.4606    4647.6631    4.3439372    4.3439372    4.3439372    4647.6631    8972.3938    8738.3147   -3767.7192    5640.5176     4805.729   -181.29827    81.969184 
   79100    364.41297   -113.78989   0.32972852   -113.46016    6776.0622    4.3405081    4.3405081    4.3405081    6776.0622   -957.99167    789.39053    20496.788   -586.49974    5442.2443   -4730.0144    81.775216 
   79200    239.92116   -113.67844   0.21708571   -113.46136    1721.1812    4.3463713    4.3463713    4.3463713    1721.1812   -5639.9544    3337.6941     7465.804     1503.116    2365.1799     -2089.19    82.107055 
   79300    286.69722   -113.71823   0.25940967   -113.45882    6548.2173    4.3426684    4.3426684    4.3426684    6548.2173   -4645.8647    11775.915    12514.602    5514.2395    2396.2044   -4731.7953    81.897377 
   79400    441.23517    -113.8579   0.39923886   -113.45866    3925.3753    4.3408173    4.3408173    4.3408173    3925.3753    -1303.188    2449.5779    10629.736   -3417.7369   -678.06525    -5305.225    81.792695 
   79500    288.69015   -113.72201   0.26121292    -113.4608    4701.8031    4.3442563    4.3442563    4.3442563    4701.8031   -4232.5753     1460.452    16877.533    -7219.566   -2630.5434    -2683.959    81.987248 
   79600    459.79341   -113.87568   0.41603074   -113.45965   -2390.4304    4.3433452    4.3433452    4.3433452   -2390.4304   -2008.1784   -6078.0826    914.96969    1521.6936   -3994.7406   -2480.0965    81.935673 
   79700    499.99616   -113.91124   0.45240704   -113.45884    -3311.708     4.344341     4.344341     4.344341    -3311.708    1957.7415   -8824.3639   -3068.5016   -553.59486   -2841.3796    4092.3442    81.992043 
   79800     452.3195   -113.86878   0.40926819   -113.45951    208.54311    4.3398562    4.3398562    4.3398562    208.54311     6646.752   -10138.446    4117.3234   -9301.2943   -1955.5374   -1666.5335    81.738377 
   79900    492.54561   -113.90571   0.44566562   -113.46004   -8491.3862    4.3463506    4.3463506    4.3463506   -8491.3862    4381.4716   -21782.452   -8073.1779   -2651.1285   -1500.8112    5236.4552    82.105883 
   80000    491.35142   -113.90356   0.44458509   -113.45897    482.13989    4.3430373    4.3430373    4.3430373    482.13989    11999.186   -8674.5255   -1878.2404    2406.8351   -3239.3795    4065.1485    81.918251 
   80100     520.8939   -113.92984   0.47131574   -113.45853   -6353.1426     4.342471     4.342471     4.342471   -6353.1426   -563.26413   -19780.202    1284.0389   -3045.3925    4107.7178   -561.34485    81.886211 
   80200    373.94686   -113.79921   0.33835498   -113.46085   -167.66589    4.3407043    4.3407043    4.3407043   -167.66589    1005.4781   -13360.297    11851.821      825.622    5251.0346    3791.2521    81.786308 
   80300    480.80343   -113.89552   0.43504105   -113.46048    -5518.388    4.3452547    4.3452547    4.3452547    -5518.388   -12836.719   -15649.372    11930.927    6890.4592    224.64175   -3301.5434    82.043789 
   80400    445.49652   -113.86374   0.40309461   -113.46064    1862.2122    4.3418836    4.3418836    4.3418836    1862.2122   -341.47296   -7899.9055    13828.015    -2975.056    -3478.904   -2395.0084    81.852988 
   80500    390.26613   -113.81438     0.353121   -113.46126   -3407.1362    4.3432832    4.3432832    4.3432832   -3407.1362   -10925.436   -10535.123    11239.151   -3403.7712   -4217.7982   -4446.2234    81.932167 
   80600    395.31085     -113.819   0.35768557   -113.46131   -720.39041    4.3413021    4.3413021    4.3413021   -720.39041   -3489.7393   -4482.0898     5810.658    3160.4139   -625.61035   -3761.2683    81.820105 
   80700    381.88148   -113.80801   0.34553439   -113.46247     221.3366    4.3458263    4.3458263    4.3458263     221.3366    11903.419   -1370.1848   -9869.2248   -3939.9868   -5974.3378   -245.81655    82.076172 
   80800    242.57176    -113.6811   0.21948403   -113.46162    14441.572    4.3405998    4.3405998    4.3405998    14441.572    21114.931     8888.222    13321.564   -12892.487   -2906.0605   -3994.3667    81.780403 
   80900    343.06965   -113.76993   0.31041663   -113.45951   -1818.8385     4.345773     4.345773     4.345773   -1818.8385     10397.91    344.76009   -16199.186   -5728.1794   -1474.5239    -1099.776    82.073151 
   81000    317.32519   -113.74678    0.2871225   -113.45965    2985.3447     4.342191     4.342191     4.342191    2985.3447    1618.7944    15999.892   -8662.6522   -2160.8313   -58.128638   -1891.6513    81.870372 
   81100    334.98463   -113.76402   0.30310114   -113.46092    2046.8123    4.3443321    4.3443321    4.3443321    2046.8123   -723.17569    9188.7827   -2325.1702   -9634.8165    4863.0226    307.12539    81.991541 
   81200     424.5463   -113.84376   0.38413842   -113.45963   -3753.6273    4.3447304    4.3447304    4.3447304   -3753.6273   -8171.2133    10450.575   -13540.244   -2141.0047    237.94242     3736.902    82.014094 
   81300    365.45908   -113.79035   0.33067506   -113.45968   -4528.9839    4.3437917    4.3437917    4.3437917   -4528.9839   -17516.899    10264.774    -6334.826    7040.4829    1940.2032    705.58044    81.960949 
   81400    452.82638   -113.86917   0.40972682   -113.45945   -8549.4652    4.3424323    4.3424323    4.3424323   -8549.4652   -15245.361   -4510.4879   -5892.5466    1993.9173    1703.4623    2047.4657    81.884022 
   81500    471.15317   -113.88551   0.42630929    -113.4592   -9083.2403    4.3465081    4.3465081    4.3465081   -9083.2403   -6579.5641   -10236.074   -10434.083    771.89243   -789.86819    150.76791    82.114807 
   81600     390.3477   -113.81289    0.3531948    -113.4597   -634.74362    4.3420432    4.3420432    4.3420432   -634.74362   -4509.1976   -4400.2861    7005.2528    6423.5121     989.6967    1413.1906    81.862013 
   81700    481.37951   -113.89612    0.4355623   -113.46056   -8159.1023    4.3425616    4.3425616    4.3425616   -8159.1023   -7631.4248   -6299.9838   -10545.898    434.89703   -3186.4066   -1905.2559    81.891336 
   81800    328.31321   -113.75934    0.2970647   -113.46228   -2542.6473    4.3471316    4.3471316    4.3471316   -2542.6473   -10378.241    10087.296   -7336.9978   -8415.6202   -1348.9031   -3168.2192     82.15015 
   81900    360.47352    -113.7867   0.32616401   -113.46053    11931.618    4.3360103    4.3360103    4.3360103    11931.618    10557.277    24921.089    316.48732   -2457.2311    1064.2746   -1113.7749    81.521266 
   82000    392.96902   -113.81588   0.35556662   -113.46032    1981.1277    4.3459674    4.3459674    4.3459674    1981.1277   -6879.0005    23093.317   -10270.934   -1647.2361   -1873.7102   -3747.9026    82.084169 
   82100    236.94058   -113.67622   0.21438881   -113.46183    6478.8873    4.3430455    4.3430455    4.3430455    6478.8873    3594.9948    13274.339    2567.3278   -13735.195    1187.0257    1538.8512    81.918716 
   82200    482.29688   -113.89722   0.43639235   -113.46082    74.790891    4.3378508    4.3378508    4.3378508    74.790891    555.13534    8650.8866   -8981.6493   -5694.0235   -4908.4684   -993.38267    81.625122 
   82300    429.43681   -113.84915   0.38856345   -113.46059   -668.94874     4.344862     4.344862     4.344862   -668.94874    1223.6317   -3942.9308    712.45284    3032.1589   -1421.4137    1482.8205    82.021548 
   82400    407.26322   -113.82983   0.36850032   -113.46133   -3369.7813    4.3415066    4.3415066    4.3415066   -3369.7813   -2346.8379   -15607.332    7844.8258   -1452.5288    6972.5133    3797.2927    81.831666 
   82500    487.90411   -113.90171   0.44146589   -113.46024   -9017.8443    4.3425768    4.3425768    4.3425768   -9017.8443    -12827.31   -13993.984   -232.23944   -7011.5326    663.58035   -1362.3985    81.892199 
   82600    491.49008   -113.90567   0.44471055   -113.46096   -522.30857    4.3405657    4.3405657    4.3405657   -522.30857    -3683.904   -9079.7594    11196.738      7419.68     920.8231    3220.2433    81.778475 
   82700    473.88487   -113.89117   0.42878099   -113.46239   -7014.9309    4.3423059    4.3423059    4.3423059   -7014.9309   -17163.816   -14271.508    10390.531    348.07502   -3843.1038   -3369.8466    81.876872 
   82800     398.7872   -113.82356   0.36083104   -113.46272   -3351.9462    4.3419501    4.3419501    4.3419501   -3351.9462   -15309.142   -10062.104    15315.408   -8049.1983    -1773.001   -85.405693    81.856747 
   82900    471.24571   -113.88714   0.42639302   -113.46075    2503.5187    4.3419811    4.3419811    4.3419811    2503.5187   -475.63636    2379.8723    5606.3202    125.91862    157.91293   -2127.3592    81.858499 
   83000    469.32877   -113.88603   0.42465854   -113.46137    785.09644    4.3392024    4.3392024    4.3392024    785.09644   -456.35075   -5907.8449     8719.485   -2042.8663   -2507.4716   -4574.4703     81.70144 
   83100    310.95991   -113.74579   0.28136307   -113.46442    91.222455    4.3430037    4.3430037    4.3430037    91.222455   -5244.6198   -2476.9039     7995.191   -9756.7432    736.67735    2050.9035    81.916348 
   83200    482.30057   -113.89984   0.43639569   -113.46344    1937.3569    4.3410448    4.3410448    4.3410448    1937.3569    8433.6971   -5443.4688    2821.8424   -2718.2995   -2264.7753   -2734.0497    81.805555 
   83300    326.51969   -113.75794   0.29544188    -113.4625    10810.324    4.3399157    4.3399157    4.3399157    10810.324    12642.808    3947.3174    15840.847    332.88428    5850.3054    2820.4605    81.741741 
   83400    428.41073   -113.84912   0.38763503   -113.46148    -4137.353    4.3400755    4.3400755    4.3400755    -4137.353   -11382.411   -3772.8222    2743.1747   -7083.7215    4719.7114    892.69095    81.750769 
   83500    328.71586   -113.75937   0.29742902   -113.46195    3482.7233    4.3437625    4.3437625    4.3437625    3482.7233    3480.9477   -8917.0123    15884.234   -2089.6731     1522.722    3377.2186    81.959297 
   83600     499.1209   -113.91208   0.45161508   -113.46046    3110.7562    4.3393018    4.3393018    4.3393018    3110.7562   -6564.9991    5184.4339    10712.834    1954.9744   -3124.5666    5518.9748    81.707058 
   83700    292.76207   -113.72707   0.26489727   -113.46218    2181.4995     4.342041     4.342041     4.342041    2181.4995    36.811069    -6308.299    12815.986    117.21206   -2251.4068   -1283.9571    81.861889 
   83800     380.4751    -113.8046   0.34426186   -113.46034   -3351.6169    4.3417177    4.3417177    4.3417177   -3351.6169   -5920.3567   -8818.4716    4683.9775    -1259.205     660.3151    2558.9745    81.843602 
   83900    498.78059   -113.91127   0.45130716   -113.45997   -4658.4366    4.3423078    4.3423078    4.3423078   -4658.4366   -842.51762   -2041.7073   -11091.085    3114.9982    -4504.958   -4705.0124     81.87698 
   84000    242.89481   -113.68331   0.21977633   -113.46353    5114.8006    4.3404011    4.3404011    4.3404011    5114.8006    12622.996   -13920.212    16641.618    1432.2248   -3653.1327   -2596.7667    81.769172 
   84100    450.86484    -113.8708   0.40795198   -113.46285   -11004.068    4.3398626    4.3398626    4.3398626   -11004.068   -11286.192   -15828.133     -5897.88   -7423.2742    1009.2287   -1056.9824    81.738741 
   84200    322.79131   -113.75473   0.29206836   -113.46266    2263.4278    4.3415604    4.3415604    4.3415604    2263.4278    11892.222   -8969.5756     3867.637    1200.4614    2502.4984   -3010.6861    81.834711 
   84300    455.26099    -113.8739   0.41192971   -113.46197   -11752.762    4.3438232    4.3438232    4.3438232   -11752.762   -18430.933   -16753.299   -74.053696   -2315.0985    1080.6117    773.45757     81.96273 
   84400    178.82742   -113.62566   0.16180681   -113.46385    7285.8837    4.3369739    4.3369739    4.3369739    7285.8837    1991.3294   -14022.625    33888.946   -12392.897   -758.14383   -1642.9331    81.575626 
   84500    438.68374   -113.85797   0.39693026   -113.46104   -6272.1905    4.3447951    4.3447951    4.3447951   -6272.1905   -10182.476   -8605.0252   -29.070204   -133.80784   -827.25051    3328.9593    82.017756 
   84600    388.85659    -113.8129   0.35184562   -113.46106   -6351.4693    4.3429487    4.3429487    4.3429487   -6351.4693   -10277.862   -10557.593    1781.0477   -2511.2143   -3882.5634    1861.6069    81.913239 
   84700    209.71175   -113.65275   0.18975159     -113.463    5075.8787    4.3375639    4.3375639    4.3375639    5075.8787    1123.7013   -7261.7709    21365.706   -7215.5612   -2093.1345    2760.3026    81.608922 
   84800    467.67057   -113.88467   0.42315816   -113.46151   -5545.6158    4.3446511    4.3446511    4.3446511   -5545.6158     -6408.28   -177.47327   -10051.094    943.45209   -2057.3306    1441.3255    82.009606 
   84900    344.54361    -113.7742    0.3117503   -113.46245    2040.0297     4.342305     4.342305     4.342305    2040.0297    9193.6297   -2538.7646   -534.77598    2079.6501   -1667.5921    -1476.447    81.876821 
   85000    358.21263   -113.78747   0.32411832   -113.46335   -1767.1718    4.3388355    4.3388355    4.3388355   -1767.1718   -7496.2131    6138.7115   -3944.0136   -2745.9773    1272.2546   -1526.4519    81.680719 
   85100    256.61349   -113.69639   0.23218928    -113.4642    5159.8447    4.3468023    4.3468023    4.3468023    5159.8447   -4836.5187   -2394.1984    22710.251    398.01083    6010.3962   -2143.1385    82.131481 
   85200    450.40294   -113.86729   0.40753404   -113.45976    5472.3461    4.3386566    4.3386566    4.3386566    5472.3461    6883.9403   -326.04545    9859.1435    3234.7262    3546.8464   -3438.8237    81.670619 
   85300    323.66061   -113.75487   0.29285492   -113.46202    332.21939    4.3418169    4.3418169    4.3418169    332.21939   -16409.649     1602.763    15803.544   -4231.6067   -1731.3495   -974.67674    81.849211 
   85400    331.02403    -113.7617    0.2995175   -113.46218   -3297.3886    4.3458787    4.3458787    4.3458787   -3297.3886    -11155.33   -15552.371    16815.535   -1301.6532   -2241.1392    589.84414    82.079143 
   85500    536.88917   -113.94565   0.48578861   -113.45987    1414.0544    4.3363928    4.3363928    4.3363928    1414.0544   -1470.9584   -2039.2856    7752.4071    982.03582    360.53748    4103.5508    81.542845 
   85600    483.29988   -113.89923   0.43729989   -113.46193   -8526.9464    4.3446766    4.3446766    4.3446766   -8526.9464   -12821.932    -11480.51   -1278.3972   -3936.6134    -714.3842    3689.3741    82.011047 
   85700     432.9239   -113.85493   0.39171864   -113.46321    -9014.037    4.3429618    4.3429618    4.3429618    -9014.037   -11496.525   -8948.0038   -6597.5826   -275.36185    -4701.999    1515.0839     81.91398 
   85800     427.3599   -113.84976   0.38668422   -113.46308    2538.3719    4.3392244    4.3392244    4.3392244    2538.3719   -7272.7782   -552.03975    15439.934     2206.095   -1068.0737    5225.9098    81.702686 
   85900    534.27237   -113.94481   0.48342086   -113.46139   -1035.9397    4.3424227    4.3424227    4.3424227   -1035.9397   -2580.6717   -2261.7656    1734.6183   -801.32051   -1152.3318   -181.19857    81.883482 
   86000    228.13583   -113.67028    0.2064221   -113.46386    4672.1656    4.3454824    4.3454824    4.3454824    4672.1656   -9826.0115    5194.4915    18648.017    -1347.714    2489.3153   -1004.9121    82.056688 
   86100    445.21408   -113.86513   0.40283906   -113.46229    4623.4344    4.3341862    4.3341862    4.3341862    4623.4344   -4087.1354    3240.4718    14716.967    3652.1545    5669.2514   -529.84431    81.418426 
   86200    432.90793   -113.85338   0.39170419   -113.46167    5564.7225    4.3448095    4.3448095    4.3448095    5564.7225    1879.2084    3211.0216    11603.938    2224.7552    3170.0434   -1921.3483    82.018574 
   86300    453.17394   -113.87224    0.4100413    -113.4622   -2618.6991    4.3437524    4.3437524    4.3437524   -2618.6991   -6919.0152   -6428.2981     5491.216   -1801.7349   -14.900975    408.64425    81.958721 
   86400    462.24128   -113.88023   0.41824562   -113.46198   -799.98697    4.3359143    4.3359143    4.3359143   -799.98697   -4297.0386   -9754.5621     11651.64   -1693.8388   -3286.7466    2458.5638    81.515852 
   86500    461.63553   -113.87882   0.41769753   -113.46113   -542.42717    4.3461845    4.3461845    4.3461845   -542.42717    -853.4018    1263.5459   -2037.4256    599.56216     -383.801    4697.4767    82.096469 
   86600    564.25292   -113.97025    0.5105479    -113.4597   -5482.4552    4.3409247    4.3409247    4.3409247   -5482.4552   -7628.1196   -4166.2749    -4652.971   -4098.6485   -382.63022     2941.938    81.798766 
   86700    315.67046   -113.74775   0.28562526   -113.46212    3302.5296    4.3393106    4.3393106    4.3393106    3302.5296   -6845.0711    -2283.237    19035.897    -4640.676    -3399.877   -1230.8262    81.707557 
   86800    397.47133   -113.82161   0.35964041   -113.46197   -524.16457    4.3448539    4.3448539    4.3448539   -524.16457   -15567.786    10846.686    3148.6064    2919.1838   -1618.1729    834.53277    82.021092 
   86900    472.04897   -113.88805   0.42711983   -113.46093    1993.0403    4.3380961    4.3380961    4.3380961    1993.0403    377.89726    1988.3652    3612.8586   -191.02102   -1172.2103    -2269.029    81.638968 
   87000    321.71208    -113.7543   0.29109185    -113.4632   -2197.7092    4.3433501    4.3433501    4.3433501   -2197.7092   -12659.688    178.19752    5888.3627   -1644.9119    3366.0273    496.73274    81.935955 
   87100    363.73805   -113.79064   0.32911783   -113.46152   -2533.3664    4.3437095    4.3437095    4.3437095   -2533.3664   -10066.012   -4628.2012    7094.1142    5284.6952    3319.3885    418.39679    81.956295 
   87200    456.02559   -113.87234   0.41262154   -113.45972   -531.03726    4.3396476    4.3396476    4.3396476   -531.03726    4112.1306   -5396.6695   -308.57294      408.031     4017.134    2227.2547    81.726592 
   87300    345.68081   -113.77373   0.31277926   -113.46095    -3164.772    4.3415989    4.3415989    4.3415989    -3164.772    258.80561    410.46547   -10163.587   -3171.9497    1347.5522    3786.9039    81.836887 
   87400    381.23625   -113.80652   0.34495057   -113.46157   -11053.573    4.3445714    4.3445714    4.3445714   -11053.573    -9264.588   -11174.325   -12721.806    3738.2534   -3125.5107   -719.85739     82.00509 
   87500    250.13906    -113.6884   0.22633108   -113.46206    9401.8725    4.3396964    4.3396964    4.3396964    9401.8725    5202.0393    11939.141    11064.437   -1115.4917    1947.8265    3952.0151     81.72935 
   87600    489.52395   -113.90329   0.44293156   -113.46036   -1326.4392    4.3383865    4.3383865    4.3383865   -1326.4392   -3034.6473    6230.8639   -7175.5342   -4925.9838    775.09308   -1646.0062    81.655364 
   87700    174.57835   -113.62191   0.15796216   -113.46395    1708.3125    4.3459967    4.3459967    4.3459967    1708.3125   -4526.6472    523.78341    9127.8015   -1693.1641   -2675.5825   -593.41688    82.085826 
   87800    372.29368   -113.79863   0.33685915   -113.46177    138.03838    4.3390042    4.3390042    4.3390042    138.03838   -7328.2702    4131.7796    3610.6058     3051.447   -3019.8914    1890.7716    81.690249 
   87900    384.32748   -113.80812   0.34774758   -113.46037     5652.464    4.3414517    4.3414517    4.3414517     5652.464   -1161.5263   -1944.7619     20063.68   -442.19693    1747.6066   -2775.6908     81.82856 
   88000    426.13943   -113.84649   0.38557991   -113.46091   -5223.9334    4.3425769    4.3425769    4.3425769   -5223.9334   -10854.695   -2142.2544   -2674.8506    1310.9769    1701.8465    2789.1539    81.892203 
   88100    395.19138   -113.81972   0.35757746   -113.46214   -7824.6398    4.3401983    4.3401983    4.3401983   -7824.6398   -12153.223   -12180.745    860.04914    6163.4348    1466.8024   -147.82709    81.757711 
   88200    450.70148   -113.86976   0.40780417   -113.46196   -260.56994    4.3413672    4.3413672    4.3413672   -260.56994   -6524.2624   -2029.8119    7772.3645    443.24621    4411.2932    901.24573    81.823782 
   88300    506.90113   -113.91963   0.45865479   -113.46098   -1831.9253    4.3412643    4.3412643    4.3412643   -1831.9253   -9289.6338    1950.1526    1843.7054    1194.8512    73.427487    3178.8281    81.817968 
   88400    328.06328   -113.75953   0.29683855    -113.4627     2077.642    4.3392027    4.3392027    4.3392027     2077.642   -8176.0832   -13854.386    28263.395    5524.4841    154.51746   -3477.0067    81.701458 
   88500    397.43835   -113.82187   0.35961057   -113.46226    408.50728    4.3428099    4.3428099    4.3428099    408.50728   -8070.5747    2221.5184    7074.5781    802.31288     1559.947    2798.8242    81.905387 
   88600    450.48069   -113.86783    0.4076044   -113.46022    4878.3124    4.3406257    4.3406257    4.3406257    4878.3124   -6961.9274    1462.1555    20134.709   -1463.6344    1548.2922   -5188.1819    81.781867 
   88700    372.79346   -113.79785   0.33731136   -113.46054    5669.5467    4.3387819    4.3387819    4.3387819    5669.5467    8361.1567   -10389.826    19037.309    1304.1173   -4373.4821   -873.76897    81.677693 
   88800    402.78777   -113.82645   0.36445084     -113.462   -1660.5796    4.3419029    4.3419029    4.3419029   -1660.5796    -10087.37   -518.45388     5624.085     1336.277   -1751.9176    1384.2837    81.854078 
   88900    441.34696   -113.85983   0.39934001   -113.46049    2232.7621     4.339845     4.339845     4.339845    2232.7621    397.90005    -1875.791    8176.1773   -3192.6884    6487.8739   -3976.7114    81.737747 
   89000    397.17281   -113.82034    0.3593703   -113.46097    1676.9096    4.3411447    4.3411447    4.3411447    1676.9096    1989.4661   -6259.3426    9300.6053   -841.88507    780.38746    5174.6528    81.811203 
   89100    393.93918   -113.81873   0.35644445   -113.46229    895.23303    4.3405238    4.3405238    4.3405238    895.23303    -10879.66   -6531.1444    20096.503    4780.8674    509.64568   -2239.4554    81.776107 
   89200    410.64568    -113.8344   0.37156084   -113.46283    2767.8746    4.3414278    4.3414278    4.3414278    2767.8746   -130.71676   -5072.6376    13506.978    440.61726    1672.5075    2849.3835    81.827209 
   89300    477.20285   -113.89327   0.43178317   -113.46149   -5441.9425    4.3425606    4.3425606    4.3425606   -5441.9425   -12004.044    -12874.82    8553.0366    183.86946    2497.0694    310.98309    81.891282 
   89400    396.35443   -113.82022   0.35862982   -113.46159   -65.072389    4.3375561    4.3375561    4.3375561   -65.072389    -9480.446   -7985.3761    17270.605    5867.3539   -2124.0063   -2853.7158    81.608483 
   89500    460.98693   -113.87912   0.41711066   -113.46201   -1508.9519    4.3421149    4.3421149    4.3421149   -1508.9519    1300.2782    -9276.071    3448.9372    1625.7662   -2546.4016    4742.4784    81.866071 
   89600    423.96691   -113.84553   0.38361417   -113.46191   -771.56113    4.3407588    4.3407588    4.3407588   -771.56113   -9597.4029   -7609.9598    14892.679    655.29157    2391.6513    -7808.257    81.789391 
   89700    370.43866   -113.79821   0.33518069   -113.46303   -1287.5371    4.3378501    4.3378501    4.3378501   -1287.5371   -4701.6433   -6762.7277    7601.7596    3111.8599    2120.9159    1490.5789    81.625078 
   89800    384.30563   -113.81041   0.34772781   -113.46268   -5280.7475    4.3465675    4.3465675    4.3465675   -5280.7475    -3237.457    -17682.49    5077.7038    1495.1441    4219.6403   -3758.1404    82.118177 
   89900    344.78746   -113.77326   0.31197094   -113.46129    8263.1872    4.3367319    4.3367319    4.3367319    8263.1872    1966.2843    640.11817    22183.159   -2114.8958    6241.2669     63.97354    81.561974 
   90000    361.71965   -113.78874   0.32729154   -113.46145    -1737.476    4.3396081    4.3396081    4.3396081    -1737.476    -363.2331   -8407.2034    3558.0084   -3.3178031    703.54315    5559.4283     81.72436 
   90100    305.46518   -113.73807   0.27639131   -113.46168    -3630.771    4.3449723    4.3449723    4.3449723    -3630.771   -6001.6657   -9615.3458    4724.6983    828.65272    558.50484   -3218.5086    82.027794 
   90200    484.06786   -113.89807   0.43799478   -113.46008   -2753.6331    4.3373554    4.3373554    4.3373554   -2753.6331    1391.3458   -2327.8852   -7324.3598   -1988.2204    5167.4703    7790.7679    81.597159 
   90300    273.47936   -113.71029   0.24744987   -113.46284    7141.0179    4.3383416    4.3383416    4.3383416    7141.0179   -2093.4024   -6013.6726    29530.129    307.73917    828.42443   -1879.0137    81.652831 
   90400    432.81508   -113.85332   0.39162018    -113.4617   -14666.043    4.3478891    4.3478891    4.3478891   -14666.043   -20903.145   -13034.313   -10060.673    2087.1912   -4416.6327    302.07323    82.193104 
   90500    353.62723   -113.78023   0.31996935   -113.46027    4910.6183     4.334357     4.334357     4.334357    4910.6183    627.24623    4499.1975    9605.4112    185.25134    3312.8769    1045.8096     81.42805 
   90600    463.86899    -113.8809   0.41971841   -113.46118   -3174.7508    4.3414666    4.3414666    4.3414666   -3174.7508   -11056.413   -4630.1255    6162.2865   -465.92542    5079.1549   -4539.8995    81.829405 
   90700    314.28536   -113.74666     0.284372   -113.46229    -2253.785    4.3443652    4.3443652    4.3443652    -2253.785   -14457.756   -7236.5595     14932.96    1144.2237    2315.6322    2723.2676    81.993418 
   90800     372.9644   -113.79864   0.33746603   -113.46117    4191.7377    4.3350453    4.3350453    4.3350453    4191.7377    7897.2103   -999.05849    5677.0612    2315.3603   -1007.8064   -2791.3346    81.466848 
   90900    562.88946   -113.97031   0.50931422   -113.46099   -8873.5686    4.3444197    4.3444197    4.3444197   -8873.5686   -6185.4831   -5666.3269   -14768.896     2335.828      2414.94    4266.5054    81.996501 
   91000    233.28438   -113.67555   0.21108061   -113.46447    8187.8436    4.3400263    4.3400263    4.3400263    8187.8436    6102.1395   -586.95204    19048.343    3576.4011   -1324.4586    3277.3209    81.747989 
   91100     455.8046   -113.87466   0.41242158   -113.46224   -3574.9432    4.3383526    4.3383526    4.3383526   -3574.9432   -1313.3808    -11469.46    2058.0111    487.05564   -915.20137    537.83428    81.653449 
   91200    421.35344   -113.84301   0.38124944   -113.46176    4805.3334    4.3423193    4.3423193    4.3423193    4805.3334    8660.9094   -3170.9629    8926.0537   -1934.8774   -1906.5784    3329.3598     81.87763 
   91300    436.09186   -113.85641   0.39458508   -113.46183   -1246.6639    4.3417254    4.3417254    4.3417254   -1246.6639   -487.17078   -127.52843   -3125.2926    2122.4825   -3405.0134   -1224.5491    81.844039 
   91400    346.89996   -113.77617   0.31388237   -113.46229    5164.5566    4.3363162    4.3363162    4.3363162    5164.5566   -8275.8299   -7049.8051    30819.305    2093.2052   -3459.6723    1927.9475    81.538519 
   91500    548.89133   -113.95877   0.49664841   -113.46213   -4436.8532    4.3444067    4.3444067    4.3444067   -4436.8532   -5187.2413   -4332.5134   -3790.8051   -1829.8326    1063.4204   -4981.6325    81.995766 
   91600    464.02542   -113.88092   0.41985995   -113.46106    2533.1451    4.3416018    4.3416018    4.3416018    2533.1451   -3506.5001   -2994.0509    14099.986   -987.12798    3220.7334   -1681.4228     81.83705 
   91700    453.83446   -113.87305   0.41063896   -113.46241   -5328.9609    4.3379175    4.3379175    4.3379175   -5328.9609   -12546.865   -13131.415    9691.3975     164.4487    2229.6779    211.07357    81.628885 
   91800    392.44471   -113.81787   0.35509222   -113.46277   -889.63161    4.3433581    4.3433581    4.3433581   -889.63161   -2121.0314   -4186.9404     3639.077   -471.13628   -388.87205   -118.09083    81.936408 
   91900    580.81103     -113.985   0.52553002   -113.45947   -6489.4763    4.3443057    4.3443057    4.3443057   -6489.4763   -7096.4379   -7990.5888   -4381.4021    787.01784    518.10191    3113.9622    81.990049 
   92000    279.52923   -113.71371   0.25292392   -113.46079    6917.2024    4.3372583    4.3372583    4.3372583    6917.2024    6770.5963   -9531.0309    23512.042    1375.1296    3148.3233   -87.628305    81.591679 
   92100    361.74619   -113.78827   0.32731556   -113.46096   -5533.5461    4.3417852    4.3417852    4.3417852   -5533.5461   -4826.8868   -6993.6967   -4780.0549   -1228.7065   -4118.7732    2437.8159    81.847424 
   92200    355.48546   -113.78266   0.32165072   -113.46101    851.81664    4.3434926    4.3434926    4.3434926    851.81664    2382.5874    -5904.798    6077.6605    2685.4854   -6027.8297    128.42709    81.944019 
   92300    336.02639   -113.76633   0.30404374   -113.46228    6232.2797    4.3382756    4.3382756    4.3382756    6232.2797    7521.4931    571.04376    10604.302    4690.1697   -2370.5155    232.66319    81.649105 
   92400     293.1528   -113.72879   0.26525082   -113.46354   -1011.0374    4.3439062    4.3439062    4.3439062   -1011.0374   -10699.669   -7879.4074    15545.964    124.46407   -1087.8617    2937.4024    81.967428 
   92500    366.26041   -113.79209   0.33140011   -113.46069    -4498.727    4.3421397    4.3421397    4.3421397    -4498.727   -2096.8672   -1933.3591   -9465.9547    401.81542   -2324.1861    323.20162     81.86747 
   92600    486.32265   -113.89965   0.44003495   -113.45961   -6330.4904    4.3391473    4.3391473    4.3391473   -6330.4904    -9067.354   -2888.1811    -7035.936     288.7068     830.2897   -1754.4858    81.698329 
   92700    321.49039   -113.75373   0.29089126   -113.46284   -2931.3948    4.3453596    4.3453596    4.3453596   -2931.3948    -10640.84   -6902.3312    8748.9872    205.99812    3756.2505   -2242.2367    82.049731 
   92800    404.71744   -113.82766   0.36619685   -113.46146    -2665.049    4.3396492    4.3396492    4.3396492    -2665.049   -10270.147     2807.816    -532.8163   -1103.2942   -4407.7012     1799.442    81.726685 
   92900    450.60146   -113.86761   0.40771367   -113.45989   -2903.1906     4.338629     4.338629     4.338629   -2903.1906   -5484.2257   -7387.7848    4162.4388   -2648.3612   -273.57147   -1464.6159    81.669059 
   93000    368.84319   -113.79497   0.33373707   -113.46123   -5493.9815    4.3466952    4.3466952    4.3466952   -5493.9815   -1715.4234   -8686.2896   -6080.2314   -1973.2081    467.61591   -2746.4161    82.125413 
   93100    256.45178   -113.69426   0.23204296   -113.46221     10315.26    4.3375197    4.3375197    4.3375197     10315.26   -7394.6431     7269.855    31070.567   -262.36638   -8125.4667    598.65784    81.606432 
   93200    525.45298   -113.93798   0.47544089   -113.46254   -142.28101     4.338657     4.338657     4.338657   -142.28101      8965.99   -4664.4473   -4728.3857    2623.2336   -3615.1175    62.387925    81.670638 
   93300    255.89346   -113.69757   0.23153778   -113.46603    2849.1119    4.3475993    4.3475993    4.3475993    2849.1119    1795.3391    4212.0034    2539.9933    648.05446   -2400.4931    1178.8266     82.17667 
   93400     455.4312   -113.87496   0.41208372   -113.46288    1253.0367    4.3333338    4.3333338    4.3333338    1253.0367   -4326.4949      7185.09    900.51488   -2804.5897   -108.45598   -1134.9595    81.370398 
   93500    330.27504   -113.76086    0.2988398   -113.46202    10831.224    4.3411749    4.3411749    4.3411749    10831.224    12966.379    -452.8402    19980.134     156.3098   -5178.3517   -831.59517     81.81291 
   93600    504.78576   -113.91701   0.45674076   -113.46027   -3467.8962    4.3444682    4.3444682    4.3444682   -3467.8962   -9250.0769    5242.6333   -6396.2451    2216.1647    3177.8516    1055.9411    81.999245 
   93700    356.71323   -113.78454   0.32276163   -113.46177   -397.62084    4.3379344    4.3379344    4.3379344   -397.62084   -6178.2305   -3925.6767    8911.0447   -1910.1439    3838.9177   -282.96969    81.629836 
   93800    436.79903    -113.8571   0.39522495   -113.46188    909.44709    4.3398553    4.3398553    4.3398553    909.44709   -4805.7882   -5513.6822    13047.812   -1634.5329   -3599.4013     4338.269     81.73833 
   93900    456.48284   -113.87357   0.41303527   -113.46054    2981.3374    4.3424023    4.3424023    4.3424023    2981.3374   -6426.3126   -230.05531     15600.38    639.76618   -3776.9446   -5586.4901    81.882324 
   94000    458.21513   -113.87554   0.41460268   -113.46094   -5802.6622    4.3396344    4.3396344    4.3396344   -5802.6622   -7967.8176   -14360.954    4920.7847   -5423.3985    -628.1103   -2857.8943    81.725848 
   94100    345.27561   -113.77521   0.31241263   -113.46279   -4002.2142    4.3414054    4.3414054    4.3414054   -4002.2142   -6153.5365   -11680.044    5826.9379    480.41387   -1083.7192    1337.2773    81.825946 
   94200    453.00495   -113.87211    0.4098884   -113.46223    1152.4279    4.3385568    4.3385568    4.3385568    1152.4279    6222.4144   -4928.4285    2163.2978     2852.832   -6503.3568   -2214.5009    81.664979 
   94300     440.2829   -113.86099   0.39837722   -113.46262   -5497.0217    4.3419019    4.3419019    4.3419019   -5497.0217   -477.36324   -16808.194    794.49183    -2193.272   -1630.9213    2862.4285    81.854022 
   94400    282.32787   -113.71917   0.25545619   -113.46372   -3368.1751    4.3413146    4.3413146    4.3413146   -3368.1751    1519.2965   -20407.964    8784.1423   -661.25565    276.38253    -1855.158    81.820812 
   94500     465.8675   -113.88328   0.42152671   -113.46176   -4746.3334    4.3392284    4.3392284    4.3392284   -4746.3334    -4482.466   -4928.3281   -4828.2061    83.139111   -2924.4986    934.16033    81.702913 
   94600    431.26983   -113.85178     0.390222   -113.46156    126.40242    4.3412896    4.3412896    4.3412896    126.40242    1420.8246   -8387.3651    7345.7477    3934.0348    2743.1975   -38.841756    81.819399 
   94700     426.8043   -113.84981    0.3861815   -113.46363   -7818.4697     4.340183     4.340183     4.340183   -7818.4697   -9729.3917   -19797.175    6071.1579    -1549.971   -1434.0487   -2590.4022    81.756842 
   94800    364.29535    -113.7943   0.32962209   -113.46467    547.99319    4.3397572    4.3397572    4.3397572    547.99319   -6171.9968   -3918.4067    11734.383   -2473.4653   -4036.3434    4496.7844    81.732782 
   94900    454.79802   -113.87332   0.41151081   -113.46181    24.107275    4.3434786    4.3434786    4.3434786    24.107275    833.79051   -1820.7822    1059.3135    1865.0632   -3694.5465   -4683.2669    81.943228 
   95000     402.2235   -113.82553   0.36394028   -113.46159    3709.0178    4.3354549    4.3354549    4.3354549    3709.0178    11046.367   -8424.1024    8504.7886   -6209.3949    3221.1105   -1168.5237    81.489943 
   95100    325.95977   -113.75742   0.29493525   -113.46248   -1323.6665    4.3425281    4.3425281    4.3425281   -1323.6665    1800.9547   -5763.2461   -8.7079437   -4317.3693     -2273.53    450.16908    81.889442 
   95200    386.62946   -113.81031   0.34983046   -113.46048    3514.0712    4.3435226    4.3435226    4.3435226    3514.0712    12196.152   -1705.5121    51.573808   -273.71039   -5036.4198   -2769.0494    81.945718 
   95300    480.20729    -113.8937   0.43450165    -113.4592    4734.5694    4.3352595    4.3352595    4.3352595    4734.5694    5995.4493   -25.734626    8233.9936   -671.19017    374.04516    5028.6898    81.478926 
   95400    374.47678   -113.79995   0.33883446   -113.46112   -3447.8637    4.3420986    4.3420986    4.3420986   -3447.8637   -6837.5927   -761.44672   -2744.5518   -1277.0479    1586.5117   -733.46502    81.865147 
   95500    427.93391   -113.84774   0.38720359   -113.46053   -7407.8586    4.3445285    4.3445285    4.3445285   -7407.8586   -2962.0989   -8769.2145   -10492.262    822.45252   -105.13861    404.02117    82.002662 
   95600    514.64389   -113.92559   0.46566061   -113.45993    750.37418    4.3359098    4.3359098    4.3359098    750.37418    1241.6594    682.96119    326.50191    328.93546    -3498.829    4494.9506    81.515599 
   95700     314.9164   -113.74756   0.28494297   -113.46261    3919.6835    4.3429798    4.3429798    4.3429798    3919.6835    9036.1958    -1842.019    4564.8738   -3131.1136    312.14653   -336.46231    81.914999 
   95800    456.56694   -113.87618   0.41311137   -113.46306   -8872.3628    4.3417095    4.3417095    4.3417095   -8872.3628   -873.81526   -11737.644   -14005.629    2203.1235   -2148.2282    3760.4667     81.84314 
   95900     333.0902   -113.76495   0.30138701   -113.46357     7328.204    4.3366903    4.3366903    4.3366903     7328.204     19134.85    10664.399   -7814.6375   -2075.1617   -4196.4503   -702.32308    81.559625 
   96000    499.16489   -113.91366   0.45165488     -113.462   -6440.9858    4.3451892    4.3451892    4.3451892   -6440.9858   -1328.1253   -9156.8869   -8837.9452   -5824.1504    143.09774   -1603.6722    82.040079 
   96100    328.97798   -113.76042   0.29766619   -113.46275    5150.4537    4.3379679    4.3379679    4.3379679    5150.4537   -4042.7628    7116.2399    12377.884   -3638.3542   -3364.6481    1878.2845     81.63173 
   96200    450.64891   -113.86884   0.40775661   -113.46108   -3907.7112    4.3400002    4.3400002    4.3400002   -3907.7112   -4552.8034    6495.8914   -13666.222    2170.9703   -4789.4328   -3739.2376    81.746515 
   96300    428.03292   -113.84775   0.38729318   -113.46046   -2077.0681    4.3448304    4.3448304    4.3448304   -2077.0681    288.74547    -701.3641   -5818.5856    2140.6249    146.45753    932.43324    82.019756 
   96400    365.81693   -113.79154   0.33099885   -113.46054    3133.2768    4.3378104    4.3378104    4.3378104    3133.2768    7393.1111     2253.916   -247.19664   -2363.7707    286.10615   -958.79063    81.622838 
   96500    310.32523   -113.74199   0.28078879    -113.4612    5957.0268    4.3392198    4.3392198    4.3392198    5957.0268      9320.53   -1504.6285    10055.179   -240.18986   -3061.2164   -1806.9063    81.702425 
   96600    422.26877    -113.8428   0.38207765   -113.46072   -1762.7017    4.3451844    4.3451844    4.3451844   -1762.7017    16525.356   -8624.6947   -13188.766    3120.5363   -594.14952    3071.4781    82.039811 
   96700    385.58139   -113.81088   0.34888214     -113.462    3896.9869    4.3374153    4.3374153    4.3374153    3896.9869    132.00658   -330.30197    11889.256   -990.29438    159.91422     169.8592    81.600537 
   96800    418.11373   -113.84189   0.37831809   -113.46357   -3631.2549    4.3402474    4.3402474    4.3402474   -3631.2549    5811.2948   -11340.052   -5365.0075   -565.76312   -2013.2201    2039.5077    81.760486 
   96900    408.04966   -113.83162   0.36921191   -113.46241   -2148.7345    4.3439465    4.3439465    4.3439465   -2148.7345   -6632.2899    -9664.397    9850.4835   -2377.4158   -3815.0384    815.02289    81.969713 
   97000    475.31684   -113.89056   0.43007667   -113.46049   -4748.2681    4.3402436    4.3402436    4.3402436   -4748.2681    2506.3412   -12958.174    -3792.972   -3959.1425   -363.92021    -445.7582    81.760271 
   97100    311.09758   -113.74356   0.28148763   -113.46207    1271.9689    4.3425138    4.3425138    4.3425138    1271.9689    7960.3418   -14693.391    10548.956   -1694.4977    910.61697    3536.2539    81.888634 
   97200    436.93214   -113.85687   0.39534538   -113.46153   -3363.5018     4.340779     4.340779     4.340779   -3363.5018    604.63818   -3635.5093   -7059.6342   -876.59642   -4924.0646   -2581.1252     81.79053 
   97300     311.7502   -113.74374   0.28207813   -113.46166    5055.9621    4.3384638    4.3384638    4.3384638    5055.9621    19671.306   -9658.2428    5154.8231     1352.287   -433.40253    601.81732    81.659728 
   97400    467.78706   -113.88491   0.42326356   -113.46164    -11868.24    4.3448703    4.3448703    4.3448703    -11868.24   -10493.097   -22197.421   -2914.2026   -1368.3448    2944.5775   -125.07776    82.022017 
   97500    263.77946   -113.70038    0.2386732   -113.46171    6365.9315      4.33901      4.33901      4.33901    6365.9315    1524.3105    11776.302    5797.1819    2845.4836   -8682.5901   -685.35411    81.690572 
   97600    570.99792   -113.97666   0.51665092   -113.46001   -8459.2087    4.3380129    4.3380129    4.3380129   -8459.2087   -9209.2809   -3393.7303   -12774.615    1681.3176   -4079.1011    1728.3631     81.63427 
   97700    300.47317   -113.73543   0.27187444   -113.46355    235.73905    4.3437592    4.3437592    4.3437592    235.73905      2966.52    450.43584   -2709.7387   -5694.3763   -220.84481   -298.40573     81.95911 
   97800     429.7301   -113.85137   0.38882882   -113.46254    -6292.584    4.3415984    4.3415984    4.3415984    -6292.584   -4966.8169   -1143.2886   -12767.647   -3932.0026    -4078.691    885.36112    81.836855 
   97900     380.3569   -113.80608   0.34415492   -113.46193    7199.7866    4.3386897    4.3386897    4.3386897    7199.7866    16221.194    5245.8019     132.3642    700.06748    -2103.515     1868.677    81.672488 
   98000    392.31018   -113.81669   0.35497049   -113.46172     3198.253    4.3412993    4.3412993    4.3412993     3198.253    17505.485    3816.6861   -11727.412   -3378.3131    1009.3493    1400.0794    81.819943 
   98100    388.39516    -113.8148    0.3514281   -113.46337   -2549.6275    4.3413845    4.3413845    4.3413845   -2549.6275   -610.06498   -9746.2416    2707.4242   -5725.0776    3296.6997    2362.1932    81.824764 
   98200    432.01645   -113.85389   0.39089756     -113.463    467.00823    4.3411707    4.3411707    4.3411707    467.00823    11676.463   -2620.4875   -7654.9505    1049.5648   -1176.0881   -1921.5252    81.812675 
   98300    481.55182   -113.89709    0.4357182   -113.46137    3322.8667    4.3400517    4.3400517    4.3400517    3322.8667   -4732.2504   -334.85073    15035.701    3196.4746    67.760695    2033.7256    81.749424 
   98400    407.79823   -113.83225   0.36898441   -113.46326   -3443.1346    4.3430933    4.3430933    4.3430933   -3443.1346    5960.9872   -14964.682   -1325.7086    -1764.055   -2157.3755    284.78303    81.921422 
   98500    348.83378   -113.77814   0.31563214   -113.46251    616.82893    4.3420749    4.3420749    4.3420749    616.82893    4640.7163   -6568.8757    3778.6461   -2045.9988   -6307.3502    2129.6078    81.863807 
   98600    412.78344   -113.83427   0.37349513   -113.46077    4032.5312    4.3418441    4.3418441    4.3418441    4032.5312    26436.448   -7762.6827   -6576.1716    919.60051   -3368.3873    1387.8003     81.85075 
   98700    391.12049   -113.81602   0.35389404   -113.46212   -1382.5906    4.3426988    4.3426988    4.3426988   -1382.5906    4270.1336     -15346.1    6928.1949   -4154.3666   -2067.1875    -4799.303    81.899099 
   98800    352.35741   -113.78122   0.31882039    -113.4624   -1801.5236    4.3386166    4.3386166    4.3386166   -1801.5236    1900.2822   -5650.1571   -1654.6959   -4904.2937    773.06388    3686.6946     81.66836 
   98900    471.27054   -113.88849   0.42641549   -113.46207   -8071.1877    4.3447684    4.3447684    4.3447684   -8071.1877   -5900.2097   -7449.1182   -10864.235   -2135.2952   -1513.3468    -539.2857    82.016248 
   99000     483.5601     -113.899   0.43753534   -113.46147   -5837.4491    4.3405536    4.3405536    4.3405536   -5837.4491   -5288.2441    -6970.795   -5253.3083   -4541.5565    4066.6453   -2695.4549    81.777788 
   99100    304.47672   -113.73777   0.27549693   -113.46228    814.82041     4.339237     4.339237     4.339237    814.82041   -7422.5515   -4795.9776     14662.99   -2304.4017     2411.187    2992.9333    81.703398 
   99200    449.23454    -113.8685   0.40647685   -113.46202   -8098.3306    4.3456495    4.3456495    4.3456495   -8098.3306   -2875.9419   -18241.167   -3177.8827    2346.5224   -5931.5702   -3269.0364    82.066156 
   99300    306.89535   -113.73965   0.27768536   -113.46196    9441.8051    4.3390524    4.3390524    4.3390524    9441.8051    18137.254    552.10005    9636.0616    302.81329   -1773.4397    5331.3157    81.692973 
   99400     312.4066   -113.74517   0.28267205    -113.4625     3371.965    4.3415017    4.3415017    4.3415017     3371.965    4601.2949   -8441.3107    13955.911   -2062.3992   -2437.2648   -1691.7542     81.83139 
   99500    271.02283   -113.70764   0.24522715   -113.46241    7127.8123    4.3419312    4.3419312    4.3419312    7127.8123    13696.846   -12741.781    20428.371    762.63755     -6080.02    1747.2569    81.855678 
   99600    443.00055   -113.86255   0.40083621   -113.46172    623.41239    4.3412232    4.3412232    4.3412232    623.41239    92.892968    -3692.267    5469.6112    2207.5202   -5675.2251    5489.3911    81.815641 
   99700    313.01695   -113.74658   0.28322432   -113.46336    2702.8861    4.3425595    4.3425595    4.3425595    2702.8861     1002.105   -9601.0547    16707.608    1659.3802    2205.7951   -2055.6099    81.891221 
   99800    497.68756   -113.91175   0.45031816   -113.46144   -7495.7088    4.3422824    4.3422824    4.3422824   -7495.7088   -16215.059    -11413.33    5141.2625   -1325.3992    2290.0382    3556.1494     81.87554 
   99900    467.88847   -113.88341   0.42335532   -113.46005   -2429.5457    4.3421269    4.3421269    4.3421269   -2429.5457   -2390.0878   -3088.7367   -1809.8126    -1354.003    2871.8803   -5850.2557    81.866748 
  100000    479.91716   -113.89452   0.43423913   -113.46028   -7054.8846    4.3431184    4.3431184    4.3431184   -7054.8846   -9877.7586   -11906.146    619.25095    1832.5658    161.11016    -810.6106    81.922843 
Loop time of 21.9699 on 1 procs for 100000 steps with 8 atoms

Pair  time (%) = 6.68737 (30.4388)
Kspce time (%) = 5.42847 (24.7087)
Neigh time (%) = 0 (0)
Comm  time (%) = 1.10559 (5.03231)
Outpt time (%) = 0.0241084 (0.109734)
Other time (%) = 8.72436 (39.7105)

Nlocal:    8 ave 8 max 8 min
Histogram: 1 0 0 0 0 0 0 0 0 0
Nghost:    2189 ave 2189 max 2189 min
Histogram: 1 0 0 0 0 0 0 0 0 0
Neighs:    2056 ave 2056 max 2056 min
Histogram: 1 0 0 0 0 0 0 0 0 0

Total # of neighbors = 2056
Ave neighs/atom = 257
Neighbor list builds = 0
Dangerous builds = 0
unfix 20
unfix 21
print "seeds:633355"
seeds:633355
