LAMMPS (10 Feb 2015)
# ---- initialize simulations
clear
units metal
dimension 3
boundary p p p
atom_style charge
atom_modify map array
# ---- create atoms
read_data /Users/eugeneragasa/pyflamestk_git/pypospack/tests/tests_integration/workflow/WorkflowLammpsThermalExpansion/param_5861/MgO_NaCl_unit.npt.T1400/lammps.structure
  triclinic box = (0 0 0) to (4.2565 4.2565 4.2565) with tilt (0 0 0)
  1 by 1 by 1 MPI processor grid
  reading atoms ...
  8 atoms
# ---- define interatomic potential
include potential.mod
mass 1 24.305
mass 2 15.999

group Mg type 1
4 atoms in group Mg
group O type 2
4 atoms in group O

set group Mg charge 1.63577302612
  4 settings made for charge
set group O charge -1.63577302612
  4 settings made for charge

variable R_cut equal 10.0

pair_style buck/coul/long ${R_cut}
pair_style buck/coul/long 10
pair_coeff 1 1 0.0 0.5 0.0 ${R_cut}
pair_coeff 1 1 0.0 0.5 0.0 10
pair_coeff 1 2 1558.72850733 0.278190610155 0.0 ${R_cut}
pair_coeff 1 2 1558.72850733 0.278190610155 0.0 10
pair_coeff 2 2 26609.5495557 0.148782776904 9.00084075824 ${R_cut}
pair_coeff 2 2 26609.5495557 0.148782776904 9.00084075824 10

kspace_style pppm 1.0e-5

neighbor 1.0 bin
neigh_modify every 1 delay 0 check yes
# ---- define settings
compute eng all pe/atom
compute eatoms all reduce sum c_eng
# ---- run minimization
reset_timestep 0
fix 1 all box/relax iso 0.0 vmax 0.001
thermo 10
thermo_style custom step pe lx ly lz xy xz yz press pxx pyy pzz pxy pxz pyz c_eatoms
min_style cg
minimize 1e-25 1e-25 5000 10000
PPPM initialization ...
  G vector (1/distance) = 0.352653
  grid = 8 8 8
  stencil order = 5
  estimated absolute RMS force accuracy = 3.87471e-05
  estimated relative force accuracy = 2.69083e-06
  using double precision FFTs
  3d grid and FFT values/proc = 3375 512
Neighbor list info ...
  1 neighbor list requests
  update every 1 steps, delay 0 steps, check yes
  master list distance cutoff = 11
Memory usage per processor = 4.06549 Mbytes
Step PotEng Lx Ly Lz Xy Xz Yz Press Pxx Pyy Pzz Pxy Pxz Pyz eatoms 
       0   -109.00108       4.2565       4.2565       4.2565            0            0            0    61252.417    61252.417    61252.417    61252.417 -3.6848803e-11 -3.3369169e-11 3.6549969e-10   -109.00108 
      10    -109.0509     4.299065     4.299065     4.299065            0            0            0    8703.9294    8703.9294    8703.9294    8703.9294 1.5032756e-10 -1.0327816e-11 -1.1009458e-10    -109.0509 
      15   -109.05203    4.3066964    4.3066964    4.3066964            0            0            0 0.0034250328 0.0034250327  0.003425033 0.0034250328 -1.8553982e-10 4.3823803e-11 -1.4551403e-10   -109.05203 
Loop time of 0.00837398 on 1 procs for 15 steps with 8 atoms

Minimization stats:
  Stopping criterion = linesearch alpha is zero
  Energy initial, next-to-last, final = 
        -109.001077098     -109.052033723     -109.052033723
  Force two-norm initial, final = 8.84488 3.43431e-05
  Force max component initial, final = 8.84488 7.26821e-06
  Final line search alpha, max atom move = 0.5 3.63411e-06
  Iterations, force evaluations = 15 22

Pair  time (%) = 0.00224829 (26.8485)
Kspce time (%) = 0.00153518 (18.3327)
Neigh time (%) = 0 (0)
Comm  time (%) = 0.000297546 (3.55323)
Outpt time (%) = 2.69413e-05 (0.321727)
Other time (%) = 0.00426602 (50.9438)

Nlocal:    8 ave 8 max 8 min
Histogram: 1 0 0 0 0 0 0 0 0 0
Nghost:    2189 ave 2189 max 2189 min
Histogram: 1 0 0 0 0 0 0 0 0 0
Neighs:    2344 ave 2344 max 2344 min
Histogram: 1 0 0 0 0 0 0 0 0 0

Total # of neighbors = 2344
Ave neighs/atom = 293
Neighbor list builds = 0
Dangerous builds = 0
unfix 1
# ---- define output variables ----
variable natoms equal "count(all)"
variable tot_energy equal "c_eatoms"
variable length_x equal "lx"
variable length_y equal "ly"
variable length_z equal "lz"
variable tilt_xy equal "xy"
variable tilt_xz equal "xz"
variable tilt_yz equal "yz"
variable tot_press equal "press"
variable press_xx equal "pxx"
variable press_yy equal "pyy"
variable press_zz equal "pzz"
variable press_xy equal "pxy"
variable press_xz equal "pxz"
variable press_yz equal "pyz"

# ---- output ----
print "pypospack:output_section:begin"
pypospack:output_section:begin
print "tot_energy = ${tot_energy}"
tot_energy = -109.052033723467
print "num_atoms = ${natoms}"
num_atoms = 8
print "xx = ${length_x}"
xx = 4.30669636930156
print "yy = ${length_y}"
yy = 4.30669636930156
print "zz = ${length_z}"
zz = 4.30669636930156
print "xy = ${tilt_xy}"
xy = 0
print "xz = ${tilt_xz}"
xz = 0
print "yz = ${tilt_yz}"
yz = 0
print "tot_press = ${tot_press}"
tot_press = 0.00342503281246904
print "pxx = ${press_xx}"
pxx = 0.00342503266517326
print "pyy = ${press_yy}"
pyy = 0.00342503296687446
print "pzz = ${press_zz}"
pzz = 0.00342503280535941
print "pxy = ${press_xy}"
pxy = -1.85539817051957e-10
print "pxz = ${press_xz}"
pxz = 4.38238030577261e-11
print "pyz = ${press_yz}"
pyz = -1.45514027090344e-10
print "pypospack:output_section:done"
pypospack:output_section:done
print "pypospack:lammps_sim:done"
pypospack:lammps_sim:done
#------------------------------------------------------------------------------
# RUN THERMOSTAT
# running using an NPT Nose-Hoover style thermostat
#------------------------------------------------------------------------------
variable tempdamp equal 0.1
variable pressdamp equal 1.0
# set initial velocities
velocity all create 1400 3113449 mom yes dist gaussian loop all
# fix for Nose-Hoover style thermostat
fix 20 all npt temp 1400 1400 0.1 aniso 0.0 0.0 1.0 drag 1.0 couple xyz
variable boxx equal lx
variable boxy equal ly
variable boxz equal lz
variable boxp equal press
variable boxt equal temp
# calculate averages every 10000 steps
reset_timestep 0
fix 21 all ave/time 10 10 100 v_boxx v_boxy v_boxz v_boxp v_boxt file lattice.out
thermo_style custom step temp pe ke etotal press lx ly lz press pxx pyy pzz pxy pxz pyz vol
thermo_modify flush yes
thermo 100
run 100000
PPPM initialization ...
  G vector (1/distance) = 0.352152
  grid = 8 8 8
  stencil order = 5
  estimated absolute RMS force accuracy = 3.96483e-05
  estimated relative force accuracy = 2.75342e-06
  using double precision FFTs
  3d grid and FFT values/proc = 3375 512
Memory usage per processor = 3.06549 Mbytes
Step Temp PotEng KinEng TotEng Press Lx Ly Lz Press Pxx Pyy Pzz Pxy Pxz Pyz Volume 
       0         1400   -109.05204    1.2667494   -107.78529    16937.127    4.3066964    4.3066964    4.3066964    16937.127    11048.403    22011.092    17751.886    4448.6487    3021.1586   -5054.7029    79.879026 
     100    303.67862   -107.91175    0.2747748   -107.63698    6874.6647    4.3434317    4.3434317    4.3434317    6874.6647   -9886.1503    45305.213   -14795.068   -3470.4012   -4585.8291    19939.291    81.940569 
     200    1124.9772   -108.29024     1.017903   -107.27234   -37140.864    4.3775294    4.3775294    4.3775294   -37140.864   -46414.229    -4939.891   -60068.473    1116.9732    2886.7442   -3531.3949    83.885559 
     300    1169.4991   -108.02997    1.0581874   -106.97178   -11834.928    4.3813888    4.3813888    4.3813888   -11834.928   -43649.971    33027.944   -24882.758    6538.6727    5250.3234    951.74142    84.107628 
     400    1319.9505   -107.91361    1.1943189   -106.71929    -29851.68    4.3749873    4.3749873    4.3749873    -29851.68   -33607.252   -36503.359   -19444.427    253.92882   -889.38542    3503.5468    83.739504 
     500    1250.4271   -107.68373    1.1314127   -106.55232     40225.93    4.3691816    4.3691816    4.3691816     40225.93      21861.7    111964.21   -13148.118    1024.2486    6623.6591   -11332.634    83.406575 
     600    1475.1941   -107.82972    1.3347866   -106.49494   -51306.784    4.3964122    4.3964122    4.3964122   -51306.784   -42607.226   -46361.502   -64951.623      2248.66    11652.802    7172.6686    84.975793 
     700     1536.466   -107.83826    1.3902267   -106.44804   -5307.2998    4.3947591    4.3947591    4.3947591   -5307.2998   -22688.601     7857.595   -1090.8937   -3379.1733   -2564.2423    -12847.33    84.879974 
     800    1360.4203    -107.6705    1.2309369   -106.43956    13583.588    4.3773917    4.3773917    4.3773917    13583.588   -20505.647    93522.268   -32265.857    5477.3652    18890.962   -6930.2674    83.877644 
     900    1311.4799   -107.64732    1.1866545   -106.46066    1772.2483     4.383005     4.383005     4.383005    1772.2483    15803.604    12515.773   -23002.632   -16761.961   -6314.3874    17458.123    84.200736 
    1000    1640.7005   -107.94006    1.4845403   -106.45552    7017.8621    4.3825299    4.3825299    4.3825299    7017.8621   -5185.7253    37378.609   -11139.298   -2805.7349    11878.985   -2361.7585    84.173362 
    1100     1188.744   -107.54613    1.0756006   -106.47053    15047.598    4.3846862    4.3846862    4.3846862    15047.598     14457.99    23354.927    7329.8759   -40.699178    8527.3094     8138.099    84.297667 
    1200    1675.4199   -107.96864    1.5159552   -106.45268   -9709.8987     4.384334     4.384334     4.384334   -9709.8987   -47961.015     51923.56   -33092.241   -1610.2797    4919.4393    6170.8081    84.277355 
    1300    1437.5911   -107.75464    1.3007626   -106.45388   -10853.518    4.3693441    4.3693441    4.3693441   -10853.518   -28491.719    36121.977   -40190.813    3817.7743    4797.4861   -4772.7092    83.415882 
    1400    1490.7394    -107.8325    1.3488524   -106.48365    799.84239    4.3845393    4.3845393    4.3845393    799.84239   -11835.766    55931.649   -41696.355   -10313.538    9239.8752    -146.2873    84.289196 
    1500     1494.347   -107.82793    1.3521166   -106.47581   -22721.483    4.3947252    4.3947252    4.3947252   -22721.483   -46158.691   -6884.3865   -15121.373    6748.7123    14238.991   -11450.463    84.878007 
    1600    1485.6338   -107.80277    1.3442327   -106.45854    13190.507    4.3752836    4.3752836    4.3752836    13190.507   -10455.871    61525.612    -11498.22    19456.633   -9405.3065   -6118.5551    83.756521 
    1700    900.93959   -107.28154   0.81518908   -106.46635    35036.715    4.3793175    4.3793175    4.3793175    35036.715    15122.742    69576.473     20410.93   -12957.719    15736.182     3643.804    83.988397 
    1800    1535.6508   -107.84865    1.3894891   -106.45916     -16839.7    4.3902174    4.3902174    4.3902174     -16839.7   -29416.792   -2273.7072   -18828.599    25114.823    2157.7762   -3541.5906    84.617088 
    1900    1554.3028   -107.85948    1.4063658   -106.45311    3198.0739    4.3834569    4.3834569    4.3834569    3198.0739   -17441.276    5321.4184    21714.079   -12489.992     3477.822    15300.267    84.226784 
    2000    953.29574    -107.3219   0.86256202   -106.45934    4567.7603    4.3806375    4.3806375    4.3806375    4567.7603   -1854.8144    48141.175    -32583.08   -163.03697    17884.093    8476.8607     84.06437 
    2100    1849.6293   -108.12284    1.6735835   -106.44926   -8612.9614    4.3686214    4.3686214    4.3686214   -8612.9614    20056.708   -3447.4591   -42448.133   -8003.7241   -7294.0276    10354.513    83.374496 
    2200     1482.762   -107.81313    1.3416342    -106.4715   -10442.253     4.386101     4.386101     4.386101   -10442.253   -41653.959    46120.401   -35793.201    1458.0932    24915.157    7227.3039    84.379294 
    2300    1138.4526   -107.48803    1.0300959   -106.45794   -13818.153    4.3952789    4.3952789    4.3952789   -13818.153    5148.7176    10048.837   -56652.015   -16780.679    -1882.553    24171.036     84.91009 
    2400    1622.3269   -107.91369    1.4679155   -106.44577   -8299.3234    4.3662645    4.3662645    4.3662645   -8299.3234   -5912.6512    29978.847   -48964.166    12259.385    11805.144    1192.0205    83.239626 
    2500    1770.5563   -108.07104    1.6020366     -106.469   -5504.8013    4.3576224    4.3576224    4.3576224   -5504.8013   -19332.066    43710.739   -40893.077    4505.3499    11578.994    10092.596    82.746338 
    2600     1459.803   -107.83487    1.3208605   -106.51401   -4026.4897    4.3867096    4.3867096    4.3867096   -4026.4897   -4903.4153    44863.338   -52039.392   -1443.8653   -3543.3381   -4063.3966    84.414425 
    2700    1324.5563   -107.68365    1.1984864   -106.48516   -41376.686    4.4078181    4.4078181    4.4078181   -41376.686   -53044.981   -14344.179   -56740.899   -16140.948        19527    8166.6723    85.638881 
    2800    1934.2133    -108.2014    1.7501168   -106.45128   -33767.117    4.3722287    4.3722287    4.3722287   -33767.117   -39779.039   -5828.0614    -55694.25   -3505.0967   -25810.233    10964.991    83.581203 
    2900    1439.6275   -107.77263    1.3026052   -106.47002    29893.521    4.3557088    4.3557088    4.3557088    29893.521    42893.914    37884.009    8902.6401    392.99574    7854.7072    13547.964    82.637375 
    3000    1587.1996   -107.92743    1.4361316    -106.4913   -12036.573     4.382736     4.382736     4.382736   -12036.573   -30470.382    12786.149   -18425.487    6732.1711   -540.56119   -3957.6391    84.185236 
    3100    1115.7963   -107.48317     1.009596   -106.47358   -7893.3075    4.3975436    4.3975436    4.3975436   -7893.3075   -8933.3138    2083.3895   -16829.998    13161.821   -3120.1564    6901.6389    85.041411 
    3200    957.81381   -107.31819   0.86665006   -106.45154    7203.5303    4.3868813    4.3868813    4.3868813    7203.5303   -43962.778    43971.498     21601.87   -526.36393     1256.545   -1125.2541    84.424336 
    3300    1509.9366   -107.80323    1.3662224   -106.43701    5686.1935    4.3603843    4.3603843    4.3603843    5686.1935    9815.3813   -17105.924    24349.123    3211.6677   -25398.308   -3309.9608    82.903772 
    3400    1367.6622   -107.71333    1.2374895   -106.47584    122.52771    4.3722195    4.3722195    4.3722195    122.52771    3822.6613   -20741.223    17286.145    -2117.416    2331.9658    10592.324    83.580676 
    3500    1053.6294   -107.42606   0.95334605   -106.47271   -490.41948    4.3983004    4.3983004    4.3983004   -490.41948    21998.495    9256.9891   -32726.743   -21207.447   -709.66044    918.96314    85.085323 
    3600    1546.8068   -107.84843    1.3995833   -106.44885   -20162.587    4.3895488    4.3895488    4.3895488   -20162.587    32462.965   -45671.135   -47279.589   -14237.646     2260.853   -730.58608    84.578437 
    3700    1165.0631   -107.50498    1.0541736   -106.45081    10903.652     4.374047     4.374047     4.374047    10903.652    28882.574    15267.034   -11438.654    5870.2605    19635.773    26153.371    83.685522 
    3800     1843.725    -108.1254    1.6682412   -106.45716   -26907.139    4.3685612    4.3685612    4.3685612   -26907.139   -35778.888   -9637.5545   -35304.974    -16887.44    524.77325   -6692.9707    83.371052 
    3900    1388.7096    -107.7371    1.2565336   -106.48056   -13269.853    4.3844956    4.3844956    4.3844956   -13269.853    8246.0141   -19381.638   -28673.936    9010.4475    4547.9671    7703.7688    84.286671 
    4000    1434.2836   -107.76074      1.29777   -106.46297   -20306.122    4.3911161    4.3911161    4.3911161   -20306.122   -23784.452   -9916.1021   -27217.812    5756.3897    14354.388    20445.403    84.669066 
    4100    1606.8799   -107.90287    1.4539387   -106.44894    -2497.425    4.3637574    4.3637574    4.3637574    -2497.425   -1025.6822    8882.9501   -15349.543     6494.981   -2673.3453   -7565.7945     83.09632 
    4200    929.21022   -107.32139   0.84076893   -106.48062    26733.238    4.3628829    4.3628829    4.3628829    26733.238    27406.695    58068.008   -5274.9899    17488.972    2356.0639    9087.5139    83.046375 
    4300    1912.1492   -108.21888    1.7301528   -106.48873   -30145.475    4.3859907    4.3859907    4.3859907   -30145.475   -477.47622   -32090.565   -57868.385   -2618.0295   -5647.2293   -2260.2824     84.37293 
    4400    1380.8051   -107.73278    1.2493815   -106.48339   -20463.474    4.3950007    4.3950007    4.3950007   -20463.474    1831.1776   -19348.915   -43872.685    6383.3501   -5937.3773   -5819.9712    84.893972 
    4500    1079.3391   -107.45084   0.97660871   -106.47424   -17126.053    4.3792063    4.3792063    4.3792063   -17126.053       -19780    8068.0308   -39666.189    6955.0496     7707.932   -3832.4988    83.982001 
    4600    2062.0345   -108.32737    1.8657721    -106.4616    5758.5639    4.3630492    4.3630492    4.3630492    5758.5639    31801.518   -8748.8525   -5776.9737   -15577.865   -22772.885    7041.7191    83.055872 
    4700    1297.2667   -107.66449    1.1737942   -106.49069   -9025.1678    4.3907107    4.3907107    4.3907107   -9025.1678    21785.066   -348.32209   -48512.247     6259.489    9447.7011    8033.1793    84.645614 
    4800    1023.3024    -107.4059   0.92590554      -106.48   -1926.4889     4.390659     4.390659     4.390659   -1926.4889    39433.676    -10659.25   -34553.893    -2668.141   -8884.7567    3307.5459    84.642625 
    4900    1857.0575   -108.14804    1.6803046   -106.46774    10442.389     4.367562     4.367562     4.367562    10442.389    27405.285    -8548.463    12470.344   -1426.1989    6965.0732    3587.7714    83.313857 
    5000    1261.2738   -107.62902    1.1412271   -106.48779    28487.941    4.3629361    4.3629361    4.3629361    28487.941    37282.744    82999.195   -34818.118    21488.611    26.599039    15721.296    83.049414 
    5100    1202.1787   -107.60163    1.0877565   -106.51387   -17733.553    4.3880658    4.3880658    4.3880658   -17733.553   -59068.503     61735.26   -55867.416     962.5363   -3740.1132   -5875.6969    84.492742 
    5200    1603.1115    -107.9349     1.450529   -106.48437   -29020.682    4.4026718    4.4026718    4.4026718   -29020.682   -20527.759     -12802.1   -53732.188   -8387.6469    15575.966   -5329.8775     85.33927 
    5300    1605.7681   -107.91071    1.4529327   -106.45778   -25103.723    4.3785402    4.3785402    4.3785402   -25103.723   -41790.813   -12475.124   -21045.233   -494.85845   -22851.272   -6476.9383    83.943686 
    5400    1738.6028   -108.02305    1.5731243   -106.44993   -1477.9768    4.3626314    4.3626314    4.3626314   -1477.9768    3218.0633    314.30784   -7966.3015   -27007.153    8873.3804   -10438.351     83.03201 
    5500    1842.1166   -108.13935    1.6667858   -106.47257    -52534.77    4.3969974    4.3969974    4.3969974    -52534.77   -39111.245   -45579.901   -72913.164    599.95603    8120.1956   -14044.153    85.009726 
    5600    1578.0466   -107.85461    1.4278497   -106.42676   -51198.472    4.4266692    4.4266692    4.4266692   -51198.472   -89347.045   -7210.6206   -57037.751   -16444.155   -3656.3448   -15611.307    86.742354 
    5700    1831.2836   -108.03444    1.6569839   -106.37745   -27795.468    4.3970515    4.3970515    4.3970515   -27795.468   -12676.695   -69121.554   -1588.1556    -8288.382   -1817.9222    8314.4331    85.012866 
    5800    1925.9468   -108.10796    1.7426372   -106.36532      6513.66    4.3584842    4.3584842    4.3584842      6513.66   -719.10848    30389.679   -10129.591    492.89255    8103.0881   -11165.857    82.795444 
    5900    1601.7229   -107.89401    1.4492726   -106.44474   -25631.018     4.382651     4.382651     4.382651   -25631.018   -12100.035   -11122.145   -53670.875   -14923.337    4402.3282    3062.1681    84.180341 
    6000    1597.2017   -107.89637    1.4451816   -106.45119   -41909.643    4.4095771    4.4095771    4.4095771   -41909.643   -37865.334    -62074.52   -25789.073    13514.156    16275.021   -3042.9974    85.741449 
    6100    1878.8982   -108.12358    1.7000665   -106.42351   -35737.655    4.3965971    4.3965971    4.3965971   -35737.655   -58590.291   -41782.806   -6839.8681   -4239.1198    5901.9167    7065.3169    84.986514 
    6200    1501.2289   -107.77874    1.3583435    -106.4204    1974.8583    4.3759958    4.3759958    4.3759958    1974.8583     -28507.8   -54858.889    89291.264   -7362.2453    1689.6569    8715.6126    83.797431 
    6300    1472.3221   -107.77942    1.3321879   -106.44723   -17682.568    4.3725137    4.3725137    4.3725137   -17682.568    -28868.65   -25159.865    980.81321    10097.561   -6837.2887    420.66132    83.597547 
    6400    1502.3404   -107.82391    1.3593491   -106.46456   -14234.487    4.3760363    4.3760363    4.3760363   -14234.487   -32841.605    -7590.684   -2271.1729   -12992.729   -33578.114    21214.595    83.799754 
    6500    1731.3179   -108.02456    1.5665328   -106.45803   -800.28099    4.3803396    4.3803396    4.3803396   -800.28099   -10547.224   -27871.355    36017.736    4994.4903     14306.62   -2769.4029     84.04722 
    6600    922.41447   -107.29521      0.83462   -106.46059    14671.416    4.3926973    4.3926973    4.3926973    14671.416   -25752.509   -22065.129    91831.885   -13553.665   -28621.587     21473.34     84.76056 
    6700     1307.525   -107.63722    1.1830761   -106.45414   -2837.7246    4.3757735    4.3757735    4.3757735   -2837.7246   -15358.704   -9065.9675    15911.498    11967.547     670.1003   -6504.8631    83.784655 
    6800    1143.8774   -107.49808    1.0350043   -106.46308    7556.7372    4.3635574    4.3635574    4.3635574    7556.7372    40825.191   -14072.851   -4082.1285    1511.6789   -9369.4256   -9962.1193    83.084894 
    6900    1825.7742    -108.1214    1.6519989    -106.4694   -18218.346    4.3700379    4.3700379    4.3700379   -18218.346   -49378.719   -17196.792    11920.473   -12748.325   -24753.618    12733.241    83.455621 
    7000    947.72567   -107.34059    0.8575221   -106.48307    17898.934    4.3818519    4.3818519    4.3818519    17898.934   -2146.5643   -21029.031    76872.397    21155.566    11931.155   -44117.652    84.134299 
    7100    1530.7557   -107.85639    1.3850599   -106.47133   -5791.7448    4.3801831    4.3801831    4.3801831   -5791.7448    13159.052   -24825.354   -5708.9316   -10828.999    -8469.511    -10288.01    84.038211 
    7200    1166.8721   -107.52442    1.0558104   -106.46861   -9864.2732    4.3725082    4.3725082    4.3725082   -9864.2732   -44942.286    -23631.11    38980.577    23208.636   -5787.2322    -5147.435    83.597231 
    7300    1406.2118   -107.74535      1.27237   -106.47298    15703.513    4.3727452    4.3727452    4.3727452    15703.513     82269.79   -40375.085    5215.8352   -12343.165    4380.9725   -26339.352    83.610829 
    7400    1394.4274    -107.7438    1.2617072   -106.48209    20621.373    4.3700853    4.3700853    4.3700853    20621.373   -10739.098    20759.141    51844.074    3872.8508    1612.4639    12495.584    83.458338 
    7500    1313.7131   -107.67777    1.1886752   -106.48909    25950.669    4.3681942    4.3681942    4.3681942    25950.669    55828.258   -4849.9707     26873.72    22845.164    1810.2881   -2827.9249    83.350039 
    7600    1694.7153    -108.0097     1.533414   -106.47629    3076.0502    4.3809037    4.3809037    4.3809037    3076.0502    23251.499   -23608.168    9584.8193   -9120.9432   -9591.3453     8326.078    84.079696 
    7700    1087.7779   -107.45689   0.98424427   -106.47265    1552.0543    4.3722003    4.3722003    4.3722003    1552.0543   -5509.0289    341.55667    9823.6352     13683.84    3198.6258    6346.6658    83.579571 
    7800    1249.5916   -107.60527    1.1306567   -106.47461    10515.936    4.3637783    4.3637783    4.3637783    10515.936    52614.651   -16396.397   -4670.4467   -1309.2717   -9138.7301   -7508.2675    83.097512 
    7900     1936.672   -108.22926    1.7523415   -106.47692   -2514.6282    4.3661699    4.3661699    4.3661699   -2514.6282     1602.102   -40228.947     31082.96   -2271.6835   -14858.813    2936.5413    83.234218 
    8000    1208.9132   -107.58207    1.0938501   -106.48822    18808.475    4.3719282    4.3719282    4.3719282    18808.475    20370.607    12359.705    23695.113    20360.641    3355.5673   -3548.5437    83.563972 
    8100    1427.0502    -107.7579     1.291225   -106.46667   -4024.7655    4.3895889    4.3895889    4.3895889   -4024.7655    49799.147   -22280.285   -39593.158   -13282.921    3335.5485   -5933.3037    84.580755 
    8200    1619.9317   -107.91696    1.4657483   -106.45121    -28960.15    4.3771271    4.3771271    4.3771271    -28960.15    4296.1647   -49427.741   -41748.875     24478.19   -1453.8838   -469.38883    83.862435 
    8300    1406.7947   -107.72581    1.2728974   -106.45291    9732.7949    4.3505381    4.3505381    4.3505381    9732.7949    57501.513    13017.393   -41320.521    8825.7591    5717.1611   -14085.627    82.343427 
    8400    1590.7603   -107.92263    1.4393534   -106.48328    22861.519    4.3696375    4.3696375    4.3696375    22861.519    37244.593   -14372.942    45712.906    8269.6357    4746.0526     1576.371    83.432688 
    8500    1153.8007   -107.52657    1.0439832   -106.48259   -31478.862    4.3892856    4.3892856    4.3892856   -31478.862   -7916.6811   -63656.919   -22862.986    11483.301     3050.499   -14847.693    84.563222 
    8600    1105.4776   -107.46131    1.0002594   -106.46105    20225.583    4.3742299    4.3742299    4.3742299    20225.583    59277.541    3848.8048   -2449.5974   -1223.8022   -7613.3199   -3857.3951    83.696023 
    8700    1717.6033   -108.02329    1.5541236   -106.46917   -12203.676    4.3612143    4.3612143    4.3612143   -12203.676    -10062.28   -26309.403   -239.34511   -6486.5629   -2146.9712   -14040.515    82.951123 
    8800    1418.3661   -107.77062    1.2833674   -106.48726   -15495.133    4.3521153    4.3521153    4.3521153   -15495.133    3169.6245   -24164.454   -25490.569    10577.094     20066.53    -12295.83    82.433013 
    8900    1278.0478   -107.65494    1.1564045   -106.49853    31027.722    4.3624978    4.3624978    4.3624978    31027.722    24067.542    36926.079    32089.546    -8007.268   -12244.306   -5960.2096    83.024384 
    9000    1294.2662   -107.66509    1.1710793   -106.49402   -28387.991    4.3827164    4.3827164    4.3827164   -28387.991   -4132.6037    -54827.97     -26203.4   -2401.7626    3155.5208   -6280.1561    84.184109 
    9100    1240.1021   -107.58957    1.1220705    -106.4675    12217.695    4.3768336    4.3768336    4.3768336    12217.695    11476.626   -4068.3153    29244.774   -2054.6003   -14171.634    11486.156    83.845568 
    9200    1757.5528   -108.04584    1.5902707   -106.45557   -10782.679    4.3688799    4.3688799    4.3688799   -10782.679   -20330.875   -920.06708   -11097.096   -5509.9795   -7392.1711    11501.532    83.389297 
    9300    1166.9423   -107.51719    1.0558739   -106.46131   -690.50066    4.3746567    4.3746567    4.3746567   -690.50066   -1106.0834    11706.071    -12671.49    16294.341    3595.3096    4258.5722    83.720525 
    9400    1531.1703   -107.83721     1.385435   -106.45177   -8026.3435    4.3865684    4.3865684    4.3865684   -8026.3435   -8405.6882    -5382.025   -10291.317   -5543.7684    2322.3409   -3666.4875    84.406271 
    9500    1321.7012   -107.63387     1.195903   -106.43796       -20529    4.3867633    4.3867633    4.3867633       -20529    21253.487   -24652.396    -58188.09    6404.9873    12820.385   -18741.613    84.417522 
    9600    1469.0813   -107.75941    1.3292556   -106.43016     5072.847    4.3596011    4.3596011    4.3596011     5072.847   -37567.285    67064.061   -14278.235    13393.671    16769.542    10481.449    82.859109 
    9700    1427.5583   -107.74916    1.2916848   -106.45747    8278.7259     4.355679     4.355679     4.355679    8278.7259    41972.581   -6153.0348   -10983.369   -19591.082   -3170.5762   -21996.252    82.635678 
    9800    1466.0069   -107.80632    1.3264739   -106.47984   -31436.732    4.3743476    4.3743476    4.3743476   -31436.732   -37289.975   -31819.824   -25200.398    2072.6535    17741.021   -17726.032    83.702777 
    9900     1638.137   -107.94774    1.4822208   -106.46552   -836.67522    4.3746876    4.3746876    4.3746876   -836.67522    41769.236   -8977.5246   -35301.737   -8791.7442   -10113.038    11538.024    83.722295 
   10000    1173.9343   -107.53248    1.0622004   -106.47028   -21342.666    4.3717363    4.3717363    4.3717363   -21342.666   -31330.612   -29922.782   -2774.6047    -11833.19   -5962.4372   -20453.329    83.552969 
   10100    1321.2035   -107.66429    1.1954527   -106.46884   -7074.5093    4.3623595    4.3623595    4.3623595   -7074.5093   -1109.6761    -16669.44   -3444.4115    4568.8673    6245.5868    6454.0173    83.016486 
   10200    1626.9223    -107.9498    1.4720735   -106.47773   -9723.6583    4.3721517    4.3721517    4.3721517   -9723.6583    19398.305   -36628.889   -11940.391   -13631.634    1650.6251    1766.1516    83.576789 
   10300    1271.4108   -107.62458    1.1503992   -106.47418   -25161.831    4.3862351    4.3862351    4.3862351   -25161.831   -11644.042   -57314.273   -6527.1763    10286.572    15710.216   -31465.391     84.38703 
   10400    1902.0818   -108.17839    1.7210435   -106.45735    9527.5617    4.3527987    4.3527987    4.3527987    9527.5617    13678.072    -19061.21    33965.823   -10130.327    10182.977    8295.2669    82.471851 
   10500    933.61768   -107.32068    0.8447569   -106.47592    55060.212    4.3471452    4.3471452    4.3471452    55060.212    74093.294    5967.2233    85120.119   -6821.3127   -7078.1586   -24243.851     82.15092 
   10600    1557.5201   -107.89053     1.409277   -106.48125   -25552.822    4.3882115    4.3882115    4.3882115   -25552.822   -1354.7586   -54399.757   -20903.952     3764.993    2964.0536   -8688.8887    84.501159 
   10700    1496.7104   -107.80926     1.354255     -106.455    -8609.362    4.3865962    4.3865962    4.3865962    -8609.362     6979.017   -57693.952    24886.849   -16425.063     15691.32    32.712634    84.407877 
   10800    1081.0407   -107.43053   0.97814838   -106.45238     18161.01    4.3587735    4.3587735    4.3587735     18161.01    55754.276    -24881.49    23610.244   -12352.713   -1172.1911   -18742.582    82.811932 
   10900    1713.2764   -108.01367    1.5502085   -106.46346    14248.198    4.3550486    4.3550486    4.3550486    14248.198   -18626.069   -361.53134    61732.194    5753.9415    16734.085    11394.737    82.599807 
   11000    1049.2685   -107.44179   0.94940021   -106.49239    -1112.707    4.3753893    4.3753893    4.3753893    -1112.707   -821.07399   -27831.054    25314.007   -17292.547   -2947.1768   -5340.8493    83.762588 
   11100    1644.5377   -107.96096    1.4880123   -106.47295   -1168.2307    4.3749867    4.3749867    4.3749867   -1168.2307    -33757.01   -988.79738    31241.115    12852.361   -10234.909   -9335.1868    83.739471 
   11200    1744.3629    -108.0332    1.5783362   -106.45486   -11797.451    4.3735259    4.3735259    4.3735259   -11797.451     1208.241   -21101.324   -15499.271   -2744.2354    5131.0942   -13371.164    83.655619 
   11300    916.50281   -107.29117     0.829271    -106.4619   -5347.4945    4.3710887    4.3710887    4.3710887   -5347.4945   -24128.287   -24602.009    32687.812   -8159.1185   -24002.021   -23784.596    83.515842 
   11400    1418.1275   -107.74568    1.2831515   -106.46252    10260.248    4.3630667    4.3630667    4.3630667    10260.248   -53190.885    45226.425    38745.203    8161.9703   -13636.611    1477.7458    83.056868 
   11500    1790.4159   -108.08919    1.6200059   -106.46919   -8720.0217    4.3662861    4.3662861    4.3662861   -8720.0217    13316.401   -28222.225   -11254.241   -6744.5421   -4797.3053   -20475.208    83.240864 
   11600    1060.9226   -107.43677   0.95994505   -106.47682   -1509.5445    4.3784836    4.3784836    4.3784836   -1509.5445   -10586.298    31736.344    -25678.68   -842.44971   -12619.773    -4985.758    83.940431 
   11700    1729.4257   -108.01797    1.5648207   -106.45315   -9513.7628     4.383622     4.383622     4.383622   -9513.7628   -47498.741   -2128.0161    21085.469   -3374.5889   -7373.1493   -11235.089    84.236304 
   11800    858.39872    -107.2397    0.7766972     -106.463     20931.39    4.3678235    4.3678235    4.3678235     20931.39    23537.071    6443.6892    32813.411    8479.2692    115.83735   -36775.585    83.328824 
   11900     1552.469   -107.87359    1.4047066   -106.46888     13817.09    4.3599951    4.3599951    4.3599951     13817.09   -5387.8522   -19436.998    66276.121   -17863.902   -845.94508    1217.3576    82.881575 
   12000    1701.8467   -108.02606    1.5398666   -106.48619   -11600.233     4.366324     4.366324     4.366324   -11600.233   -12716.625   -21209.579   -874.49423    3047.2463   -3933.7161    3512.6417     83.24303 
   12100    1274.9333   -107.64528    1.1535864   -106.49169   -24156.954    4.3689847    4.3689847    4.3689847   -24156.954   -30262.203    2531.3521   -44740.012   -2746.9932   -17992.789   -15842.561    83.395301 
   12200    1712.2492   -108.03276    1.5492791   -106.48348    -2077.678    4.3822888    4.3822888    4.3822888    -2077.678   -51542.983   -18836.539    64146.487   -849.07974    2.9635555    9948.4719    84.159468 
   12300    1013.3487   -107.37889   0.91689917   -106.46199   -37162.591    4.3958337    4.3958337    4.3958337   -37162.591   -61081.354    1008.8173   -51415.238    1806.5724   -27485.881    -35553.72    84.942249 
   12400    1336.2124   -107.66261    1.2090331   -106.45357    7702.1733    4.3486822    4.3486822    4.3486822    7702.1733   -2419.5699    12118.866    13407.224    9034.6196   -13566.723   -15255.388    82.238089 
   12500    1313.5601    -107.6422    1.1885368   -106.45367    47626.788    4.3328865    4.3328865    4.3328865    47626.788    2617.9636    101392.56    38869.845    -7498.125    8347.0375    2622.6103    81.345204 
   12600    1515.3484   -107.86733    1.3711191   -106.49621   -41394.994    4.3786337    4.3786337    4.3786337   -41394.994   -54149.161   -25136.997   -44898.824      15138.7   -27654.156   -29492.967    83.949063 
   12700    1646.5474   -107.95064    1.4898307   -106.46081   -14788.082    4.3921969    4.3921969    4.3921969   -14788.082   -36862.092    8246.6657   -15748.821   -1096.4573    8808.2113    5261.8568    84.731601 
   12800    1088.7499    -107.4529   0.98512382   -106.46778    21601.273    4.3563638    4.3563638    4.3563638    21601.273   -5485.8204    65393.438    4896.2032    6377.4217   -7300.8426   -10080.716     82.67466 
   12900    1582.1367   -107.91374    1.4315506   -106.48219    12614.102    4.3494943    4.3494943    4.3494943    12614.102    -12846.72     27413.01    23276.016   -15897.279    -14243.62   -31169.563    82.284173 
   13000    1626.7524   -107.96667    1.4719197   -106.49475    4703.3915    4.3743209    4.3743209    4.3743209    4703.3915   -43003.745    53155.512    3958.4074    3567.1387    2235.2786    3551.4966    83.701246 
   13100    1409.0688   -107.75492    1.2749551   -106.47997   -25114.109    4.3839293    4.3839293    4.3839293   -25114.109    -16495.93   -8468.4848   -50377.911   -3839.5452   -14810.274   -12811.848    84.254021 
   13200    1371.9004   -107.70093    1.2413243    -106.4596   -7818.2968    4.3840248    4.3840248    4.3840248   -7818.2968   -25255.951   -11626.211    13427.272   -8681.0582    4590.2917   -877.91589    84.259524 
   13300    1551.0549   -107.86024    1.4034271   -106.45682   -11063.566    4.3687932    4.3687932    4.3687932   -11063.566   -15852.764    10463.279   -27801.214    1828.3966   -15549.384    15033.023    83.384335 
   13400    1595.4577   -107.91071    1.4436037   -106.46711     6019.767    4.3680929    4.3680929    4.3680929     6019.767    15557.759    9020.7137   -6519.1715   -1758.2799   -7207.9519   -25638.163    83.344239 
   13500    1049.3423   -107.41902   0.94946692   -106.46955   -7619.7366    4.3790226    4.3790226    4.3790226   -7619.7366   -31099.149    24155.324   -15915.385   -71.346556   -16946.392    8937.9962    83.971429 
   13600    1285.8861   -107.62392    1.1634967   -106.46042   -8240.1129    4.3597297    4.3597297    4.3597297   -8240.1129   -11848.037    21325.592   -34197.894    6784.0821   -11142.257   -11360.566    82.866441 
   13700    1470.6227   -107.80344    1.3306503   -106.47279    31256.204    4.3663069    4.3663069    4.3663069    31256.204    19246.035    43302.466    31220.111   -3309.9321    7612.5003    -15202.72    83.242052 
   13800    1027.3925   -107.40986   0.92960635   -106.48025   -23920.713    4.3912511    4.3912511    4.3912511   -23920.713   -14984.567   -3298.4613   -53479.111   -397.45927   -16082.902    8523.8901    84.676876 
   13900    1614.9303   -107.90684    1.4612229   -106.44562    4180.7997    4.3806714    4.3806714    4.3806714    4180.7997    25019.794    17783.913   -30261.307    -25930.06    9767.5251    -18182.16    84.066319 
   14000    1174.1056    -107.5037    1.0623554   -106.44134    9505.0655    4.3738147    4.3738147    4.3738147    9505.0655    10250.818    12965.033    5299.3461   -3862.7451   -31717.791   -4702.3414    83.672191 
   14100     1097.191   -107.44618   0.99276145   -106.45342   -3638.0161    4.3774015    4.3774015    4.3774015   -3638.0161    19924.106   -9844.2778   -20993.877   -16115.671   -18254.555    2903.5004     83.87821 
   14200    1648.6819   -107.93768     1.491762   -106.44592   -677.92176    4.3872187    4.3872187    4.3872187   -677.92176    18329.678    29253.214   -49616.657   -21848.103   -6706.6005   -8104.9225    84.443817 
   14300    852.90311   -107.23426   0.77172466   -106.46253   -4526.7866    4.3866182    4.3866182    4.3866182   -4526.7866    3817.5182    29182.046   -46579.924   -1439.2857   -22806.682    5176.2323    84.409145 
   14400    1621.7776   -107.90402    1.4674184    -106.4366    18057.604    4.3647265    4.3647265    4.3647265    18057.604    3187.5803    28271.103    22714.127   -21434.201   -3251.6029   -5186.9138    83.151697 
   14500    1211.2508   -107.54976    1.0959652   -106.45379    4946.4558    4.3595981    4.3595981    4.3595981    4946.4558   -3606.8428    29502.169   -11055.959    4942.2943   -21909.199    6922.6945    82.858938 
   14600    1302.7761    -107.6468    1.1787792   -106.46803   -14553.192    4.3809352    4.3809352    4.3809352   -14553.192   -21282.554   -20558.982   -1818.0398   -6132.0166    3186.6478   -9328.6427    84.081506 
   14700    1588.9922   -107.89596    1.4377535   -106.45821    11391.019    4.3768613    4.3768613    4.3768613    11391.019   -5296.5783    41532.501    -2062.866     11345.78   -5126.9993    -4261.727    83.847157 
   14800    1218.9471    -107.5663     1.102929   -106.46337    4115.3517    4.3614719    4.3614719    4.3614719    4115.3517   -11257.447     47427.42   -23823.917   -4433.6521   -3274.4362    1359.7471    82.965823 
   14900    1852.2205   -108.14558    1.6759281   -106.46965    3638.5299     4.361927     4.361927     4.361927    3638.5299    -16152.34    4009.9653    23057.964     5437.754    6463.5204    3286.4448      82.9918 
   15000    913.39212    -107.3223   0.82645638   -106.49584    10527.038     4.378911     4.378911     4.378911    10527.038   -7269.9456    29311.363    9539.6971   -3668.9772    -19132.36   -4029.3926    83.965014 
   15100    1620.2717   -107.93278    1.4660558   -106.46673   -36326.125    4.3858315    4.3858315    4.3858315   -36326.125   -53288.993   -40485.567   -15203.815    5680.9255    12312.967    18990.549    84.363743 
   15200     1178.601   -107.52251    1.0664229   -106.45609    27864.134    4.3563918    4.3563918    4.3563918    27864.134   -23533.919    56776.229    50350.093   -10750.544   -17625.483    -8884.303    82.676255 
   15300    1329.8368   -107.68177    1.2032643    -106.4785    19575.258     4.347517     4.347517     4.347517    19575.258   -11437.587    60233.242    9930.1196    1634.2282    -17344.45    8738.1597    82.172002 
   15400    1834.7457    -108.1638    1.6601165   -106.50368    -41796.29    4.3859609    4.3859609    4.3859609    -41796.29   -43473.528   -62111.995   -19803.346    7185.0481    4688.7532     6003.189    84.371207 
   15500    1137.9803   -107.50067    1.0296685     -106.471   -20408.271    4.3958173    4.3958173    4.3958173   -20408.271    -27645.21   -14094.152   -19485.453    85.775258   -17992.834   -12979.973      84.9413 
   15600    1573.5563   -107.87455    1.4237869   -106.45076   -11261.131    4.3513253    4.3513253    4.3513253   -11261.131    -26454.78    -16195.35    8866.7358   -7340.2939    5546.5952   -2215.8726    82.388129 
   15700    1337.7671   -107.67417    1.2104398   -106.46373    26080.388    4.3353959    4.3353959    4.3353959    26080.388    14382.816    9187.8273    54670.521    28556.851   -12110.749    4876.9317    81.486619 
   15800    1414.5027   -107.78956    1.2798718   -106.50969    13837.286     4.362638     4.362638     4.362638    13837.286    13760.742    29918.877   -2167.7601   -18703.222   -1729.8281   -15693.325    83.032389 
   15900    1273.3505   -107.65063    1.1521543   -106.49847   -33440.637     4.398039     4.398039     4.398039   -33440.637   -11757.307   -47047.101   -41517.503    29748.485    15650.572    10233.093    85.070158 
   16000    1738.4236   -108.03396    1.5729622     -106.461   -25766.411    4.3743693    4.3743693    4.3743693   -25766.411   -22635.181   -42435.202    -12228.85    6504.7721    -17716.13    4629.2879    83.704025 
   16100    1347.2741   -107.65458    1.2190419   -106.43554    24580.845    4.3357184    4.3357184    4.3357184    24580.845   -1764.6882    34916.297    40590.927    5161.9222    22286.531   -10527.078    81.504802 
   16200    1321.4092   -107.68629    1.1956388   -106.49065   -10912.825    4.3578474    4.3578474    4.3578474   -10912.825   -41899.526   -46712.525    55873.578    13187.374   -2318.8909    12045.426    82.759158 
   16300    1625.7087   -107.95014    1.4709754   -106.47916   -7726.2842    4.3898819    4.3898819    4.3898819   -7726.2842   -28983.693   -15394.185    21199.026   -5109.7314    5537.3668   -1578.2695    84.597694 
   16400    1255.8742   -107.60526    1.1363414   -106.46892   -22547.417    4.3803484    4.3803484    4.3803484   -22547.417   -35988.493   -63307.991    31654.235    14206.293     10848.04    3434.5952    84.047728 
   16500    1637.5922   -107.94874    1.4817278   -106.46702   -1931.8697    4.3597889    4.3597889    4.3597889   -1931.8697   -29341.037   -23659.259    47204.686   -10172.179    17511.406    3414.7368    82.869818 
   16600    1719.0244   -108.03018    1.5554094   -106.47477    20125.898    4.3671515    4.3671515    4.3671515    20125.898    17188.973    -34743.62    77932.339    10043.113   -6190.9548   -8626.4462    83.290365 
   16700     948.4397   -107.34149   0.85816817   -106.48332   -5289.6149    4.3902443    4.3902443    4.3902443   -5289.6149   -25536.011    -59159.15    68826.316   -12159.949     -544.044    391.63724    84.618645 
   16800    1456.0596   -107.76547    1.3174733     -106.448    7503.3627    4.3903583    4.3903583    4.3903583    7503.3627    37083.753   -31295.637    16721.971    6403.6795   -19556.229    2055.1514    84.625236 
   16900    1279.0324   -107.59776    1.1572954   -106.44046    16959.429    4.3680606    4.3680606    4.3680606    16959.429    77710.416   -64128.218    37296.091   -5321.9904    -19425.26   -8652.1321    83.342391 
   17000    974.25263   -107.33956   0.88152426   -106.45804    13507.058    4.3590465    4.3590465    4.3590465    13507.058    33438.787   -53828.036    60910.422   -25956.504    -3156.154     14562.59     82.82749 
   17100    1876.7923   -108.16963    1.6981611   -106.47146   -6592.5748    4.3740027    4.3740027    4.3740027   -6592.5748   -10764.037    7816.3245   -16830.012    2950.5556    -5838.396   -9267.6734    83.682979 
   17200    829.53174   -107.23269   0.75057776   -106.48211   -17054.478    4.3817844    4.3817844    4.3817844   -17054.478   -15551.008   -73150.232    37537.804   -22399.227    15462.066   -9142.3523    84.130413 
   17300    1513.0252   -107.82622     1.369017    -106.4572     10285.05    4.3554744    4.3554744    4.3554744     10285.05    57498.919   -32793.762    6149.9945   -4260.2995     12746.16   -3316.0114    82.624035 
   17400    1589.7281   -107.91448    1.4384194   -106.47606    2083.7063    4.3609684    4.3609684    4.3609684    2083.7063    20860.851   -1635.9901   -12973.742    9096.5569   -7491.0677   -5555.2678    82.937097 
   17500    1191.6229   -107.55812    1.0782054   -106.47991    -19982.74     4.386345     4.386345     4.386345    -19982.74   -39042.325   -53210.738    32304.843   -5049.3284   -3871.0919   -9508.2262    84.393379 
   17600    1817.1132   -108.09684    1.6441622   -106.45268   -15879.034    4.3872348    4.3872348    4.3872348   -15879.034   -3018.6658   -18972.079   -25646.358    8651.2789   -1351.1243   -537.04488    84.444747 
   17700    1426.9044   -107.75126    1.2910931   -106.46017   -16000.959    4.3566581    4.3566581    4.3566581   -16000.959   -36205.989   -37665.547    25868.658    -16817.78   -15958.779     2211.028    82.691419 
   17800    1327.0041   -107.66716    1.2007012   -106.46646    42463.029    4.3409626    4.3409626    4.3409626    42463.029    59347.597    44145.814    23895.677    2935.0185    4276.1019   -6304.5821     81.80091 
   17900     1784.928   -108.10455    1.6150404   -106.48951    -25429.59    4.3861914    4.3861914    4.3861914    -25429.59    -20770.69    2204.0165   -57722.097    4921.0223   -3827.2616    6921.0722     84.38451 
   18000    1219.8831   -107.56383    1.1037758   -106.46006   -46617.126    4.3911337    4.3911337    4.3911337   -46617.126   -66779.486   -50650.189   -22421.702   -3679.8884   -8039.8435    3908.4385    84.670082 
   18100    1938.8703   -108.17755    1.7543306   -106.42322    12662.833    4.3552161    4.3552161    4.3552161    12662.833     22984.81    19468.526   -4464.8378    18973.142   -629.27587   -4962.3452    82.609336 
   18200    1390.5549   -107.71113    1.2582033   -106.45292   -22982.119    4.3638685    4.3638685    4.3638685   -22982.119   -37389.376   -9119.0621   -22437.918   -9100.0898   -8133.2545   -18518.618    83.102668 
   18300     1441.404   -107.77184    1.3042126   -106.46762   -10473.516    4.3724193    4.3724193    4.3724193   -10473.516   -29220.788   -20397.481    18197.722    9420.6821   -3311.0104     2945.767    83.592134 
   18400    1542.9957   -107.85728     1.396135   -106.46115   -8411.4668    4.3845014    4.3845014    4.3845014   -8411.4668   -21900.612   -18267.604    14933.815   -6241.9117    3737.4371     -6507.84     84.28701 
   18500    949.49729   -107.31466    0.8591251   -106.45554    -15689.88    4.3802268    4.3802268    4.3802268    -15689.88   -60474.251   -29916.632    43321.243   -4502.8546   -14585.852    2241.7683    84.040723 
   18600    1530.9839   -107.81463    1.3852664   -106.42936    39873.614    4.3566678    4.3566678    4.3566678    39873.614    3412.7097     49416.53    66791.602    3857.1383    10636.537    5007.3979     82.69197 
   18700    1283.4345   -107.62878    1.1612785    -106.4675   -7181.5202    4.3677091    4.3677091    4.3677091   -7181.5202   -48550.283   -44899.467    71905.189   -16882.819    6063.4075   -28530.368    83.322276 
   18800    1513.8353    -107.8385      1.36975   -106.46875   -7544.4375    4.3831698    4.3831698    4.3831698   -7544.4375   -41913.037     14554.91    4724.8153   -5541.9647   -2219.3067    8499.0694    84.210238 
   18900    1483.7765   -107.80754    1.3425522   -106.46499   -20634.873    4.3788308    4.3788308    4.3788308   -20634.873   -6919.5909   -30910.358   -24074.672   -5031.8691    20665.812   -6144.9289    83.960398 
   19000    1334.7316   -107.67302    1.2076932   -106.46533   -4356.3401    4.3772981    4.3772981    4.3772981   -4356.3401    -29609.41   -19744.049    36284.439   -4315.4938    4089.6175    -8180.387    83.872264 
   19100     1385.511   -107.70762    1.2536395   -106.45398    21130.967    4.3708988    4.3708988    4.3708988    21130.967   -7611.6476    28282.709    42721.841    5081.3354    3761.7216    14167.857    83.504957 
   19200    1478.8026   -107.80239    1.3380517   -106.46434   -18297.617    4.3597582    4.3597582    4.3597582   -18297.617   -34961.168   -47616.089    27684.407   -4755.0735    17016.099   -11175.495    82.868065 
   19300    1159.5261   -107.53113    1.0491636   -106.48196    17658.089    4.3663082    4.3663082    4.3663082    17658.089    46640.324    26353.776   -20019.834   -16954.914   -25031.508   -7665.5421    83.242123 
   19400    1148.0243   -107.52711    1.0387565   -106.48836   -14709.839    4.3788845    4.3788845    4.3788845   -14709.839    16979.945   -39486.733   -21622.729    7946.5718    6875.7735    13311.824    83.963487 
   19500    1717.1743     -108.012    1.5537354   -106.45827   -28284.185    4.3809231    4.3809231    4.3809231   -28284.185    5551.9364    -43699.62   -46704.871   -19692.255    2611.3778   -9644.2146    84.080808 
   19600    1543.9815   -107.85362    1.3970269   -106.45659    16515.589    4.3667404    4.3667404    4.3667404    16515.589    57530.435     9235.043    -17218.71     11108.18     926.1852    9879.7338    83.266849 
   19700    1429.0715   -107.75591    1.2930539   -106.46286   -19402.254    4.3596401    4.3596401    4.3596401   -19402.254    -13505.15   -38632.332    -6069.281   -6382.4617    13141.546    4582.9208    82.861332 
   19800    1742.4764   -108.04108    1.5766293   -106.46445   -344.55837    4.3686191    4.3686191    4.3686191   -344.55837    51297.832   -25560.108   -26771.399   -2471.4031    9434.5701   -3801.2834    83.374363 
   19900    1385.3936   -107.72276    1.2535333   -106.46923    43.523611    4.3746041    4.3746041    4.3746041    43.523611    43665.958   -14521.454   -29013.933    8821.1876    12719.412    21253.284    83.717506 
   20000    1568.2152   -107.88131    1.4189541   -106.46236   -3553.6333     4.379434     4.379434     4.379434   -3553.6333    21184.886   -42737.333    10891.547   -23857.132   -4072.0455   -5465.9567    83.995098 
   20100    1559.3733   -107.86828    1.4109537   -106.45733   -33340.365    4.3747543    4.3747543    4.3747543   -33340.365   -27256.422   -17446.699   -55317.975    7833.6402   -14311.861    37191.976    83.726128 
   20200    1423.8178   -107.73968    1.2883003   -106.45138    43292.799    4.3418398    4.3418398    4.3418398    43292.799    107699.01    9710.8216    12468.566   -12996.561    1197.9966   -3528.9429     81.85051 
   20300    1536.7775   -107.87529    1.3905086   -106.48478    6450.9412    4.3642112    4.3642112    4.3642112    6450.9412     6500.507   -14868.255    27720.572   -2093.9915   -7493.5633    13412.287    83.122246 
   20400    1206.3223   -107.55761    1.0915057   -106.46611   -27930.234     4.386917     4.386917     4.386917   -27930.234   -12257.297   -11993.061   -59540.343    158.18914   -7380.5677    36394.757    84.426397 
   20500    1829.5934   -108.10473    1.6554546   -106.44928    15096.386    4.3525176    4.3525176    4.3525176    15096.386    25525.821    5685.0827    14078.255   -4305.3914   -11192.542   -8956.5291    82.455878 
   20600    886.41337   -107.26631   0.80204545   -106.46426    28036.487    4.3443664    4.3443664    4.3443664    28036.487    36346.769    36508.548    11254.143      5175.37    8968.1985    40626.257    81.993482 
   20700    1761.8771   -108.07557    1.5941834   -106.48138   -17546.978    4.3675223    4.3675223    4.3675223   -17546.978   -26800.041     8648.079   -34488.971    3550.4646   -25443.696    4663.4348    83.311582 
   20800    1558.6648    -107.8751    1.4103127   -106.46479   -14371.126    4.3869527    4.3869527    4.3869527   -14371.126   -23639.118   -52098.903    32624.642   -1693.5055    1074.6904    11735.838     84.42846 
   20900    988.63898   -107.35633   0.89454133   -106.46179   -16350.942    4.3720538    4.3720538    4.3720538   -16350.942   -23723.512   -212.98855   -25116.327    22198.183   -12377.476    30076.232    83.571172 
   21000    1659.6688   -107.94508    1.5017032   -106.44338    18841.115    4.3370246    4.3370246    4.3370246    18841.115   -24649.396    4387.5068    76785.234   -16921.862   -6463.1922   -6829.6422    81.578489 
   21100    1424.8535   -107.77743    1.2892374    -106.4882   -6659.2452    4.3545648    4.3545648    4.3545648   -6659.2452   -9683.1102   -12349.475    2054.8499    2632.4404   -341.71966    20321.674    82.572277 
   21200    1381.4807   -107.74122    1.2499928   -106.49123   -14726.972    4.3765437    4.3765437    4.3765437   -14726.972   -51569.944    -40336.63    47725.659    9049.3168   -18996.431    1785.0526    83.828907 
   21300    1549.4231   -107.87431    1.4019505   -106.47236   -9551.7636    4.3806742    4.3806742    4.3806742   -9551.7636   -65948.082   -6709.9749    44002.766   -13706.299      9147.72   -12699.952    84.066478 
   21400     1569.014   -107.88573    1.4196769   -106.46606    9072.5332    4.3477096    4.3477096    4.3477096    9072.5332    -14553.63    30868.737    10902.493     6166.236   -9898.0464    13610.349    82.182921 
   21500    1506.8075   -107.84419     1.363391    -106.4808    15672.362    4.3382125    4.3382125    4.3382125    15672.362   -41805.529    39066.799    49755.815    -15520.87   -3522.9823    173.54923    81.645542 
   21600    1308.7012   -107.67756    1.1841403   -106.49342   -12720.181     4.368121     4.368121     4.368121   -12720.181   -38716.182    4314.7165   -3759.0777   -6389.8162    22331.152   -18142.852    83.345848 
   21700    1639.7679   -107.96228    1.4836964   -106.47858    -11588.23    4.3712524    4.3712524    4.3712524    -11588.23   -41271.093    9505.1973   -2998.7933    7857.9508   -8151.3735    16160.862    83.525222 
   21800    1375.9956   -107.71809    1.2450298   -106.47306   -10219.033    4.3760063    4.3760063    4.3760063   -10219.033   -37950.263   -1296.9896    8590.1547   -10733.603    10977.311    1488.2267    83.798031 
   21900      973.004    -107.3471   0.88039447   -106.46671      17762.3     4.351856     4.351856     4.351856      17762.3    14754.509   -1255.0035    39787.395    4173.2829    19042.159   -12602.329    82.418283 
   22000    1503.0086   -107.83146    1.3599538    -106.4715    -3693.856    4.3536161    4.3536161    4.3536161    -3693.856   -5437.6319    6215.8653   -11859.801   -2965.2835   -24439.695    15342.499    82.518322 
   22100    1392.1853    -107.7329    1.2596785   -106.47323   -17149.036    4.3766821    4.3766821    4.3766821   -17149.036   -17252.328    9121.0498   -43315.829   -7479.6473    12712.475   -17412.354    83.836862 
   22200    1163.4939   -107.51864    1.0527537   -106.46588    230.72724    4.3745478    4.3745478    4.3745478    230.72724   -5232.9612   -17461.409    23386.552    3814.9688   -12979.771    -27298.41    83.714272 
   22300    1681.5504   -107.97057    1.5215021   -106.44906    9464.5023    4.3512899    4.3512899    4.3512899    9464.5023    30235.202    21511.821   -23353.516   -9984.2131   -25050.738    -3762.058    82.386121 
   22400    963.70629   -107.33675    0.8719817   -106.46477     20283.76    4.3446126    4.3446126    4.3446126     20283.76    13103.862    -30944.51    78691.929     11543.09    15558.895   -29172.283    82.007427 
   22500    1671.3878   -107.98422    1.5123068   -106.47191   -17889.575     4.371696     4.371696     4.371696   -17889.575    -15730.04   -28399.624   -9539.0605    684.04781   -17342.847   -1567.4891    83.550655 
   22600    1464.1406   -107.78912    1.3247852   -106.46434   -7801.2403    4.3675204    4.3675204    4.3675204   -7801.2403   -21878.325   -37970.853    36445.456   -150.91459   -5600.5751   -17935.974    83.311478 
   22700    1253.6945   -107.60515    1.1343692   -106.47079   -12145.065    4.3481868    4.3481868    4.3481868   -12145.065    36144.392   -24027.848   -48551.739    13755.851    22544.946   -34058.097    82.209986 
   22800    1490.3918   -107.82425    1.3485378   -106.47571    18723.326    4.3494619    4.3494619    4.3494619    18723.326     27082.44    -13061.14    42148.679     8792.226   -14871.767     9808.403     82.28233 
   22900    1224.7974    -107.5999    1.1082225   -106.49168   -22599.232    4.3745361    4.3745361    4.3745361   -22599.232    22004.673   -61524.144   -28278.224    5149.5391   -8337.9939   -31084.518    83.713601 
   23000    1373.3138    -107.7113    1.2426032   -106.46869    1419.9442    4.3683225    4.3683225    4.3683225    1419.9442   -1141.6456   -19740.052     25141.53    18494.792    7974.4543    14522.246    83.357384 
   23100     1521.631   -107.83134    1.3768037   -106.45453    21578.677    4.3321524    4.3321524    4.3321524    21578.677     57899.37    16582.099    -9745.438     1520.923   -5239.9808   -25918.562    81.303861 
   23200    1001.9267   -107.39981   0.90656432   -106.49324    6285.6184    4.3481014    4.3481014    4.3481014    6285.6184    18876.814   -28671.562    28651.604     14219.57    11741.794    -28149.68    82.205144 
   23300    1634.9393   -107.96489    1.4793274   -106.48556   -7288.2368    4.3703939    4.3703939    4.3703939   -7288.2368   -25403.999     -2729.62    6268.9082    5717.9421    28095.091    9326.6891    83.476024 
   23400    953.03472    -107.3428   0.86232584   -106.48048    8302.2527     4.370628     4.370628     4.370628    8302.2527    21515.576    8180.4575   -4789.2754   -54.722716   -8151.1921   -24126.716    83.489437 
   23500    1801.3344   -108.09505    1.6298852   -106.46517   -8989.0701    4.3493221    4.3493221    4.3493221   -8989.0701   -7421.8957   -1737.5692   -17807.745    15716.585   -1936.0939    1306.6353    82.274398 
   23600    1108.7486   -107.48139     1.003219   -106.47817    31190.276    4.3313018    4.3313018    4.3313018    31190.276    47367.173    22678.123    23525.532   -5291.3117    12880.337   -14255.593    81.255983 
   23700    1272.2358   -107.65344    1.1511457   -106.50229    11898.319    4.3479663    4.3479663    4.3479663    11898.319    35154.055    12108.912    -11568.01     8061.268   -19739.721   -19261.166    82.197479 
   23800    1604.0337   -107.93586    1.4513634   -106.48449   -28211.002    4.3758666    4.3758666    4.3758666   -28211.002    -46444.02   -40142.422    1953.4376    1383.1317   -4486.3485    5742.0075    83.790007 
   23900    1447.1108   -107.78403    1.3093763   -106.47465     -7025.11    4.3528106    4.3528106    4.3528106     -7025.11    22366.391   -4293.3591   -39148.362   -4875.7399    14826.491   -30520.147    82.472532 
   24000    1584.6686   -107.90031    1.4338415   -106.46647    19609.799    4.3341009    4.3341009    4.3341009    19609.799    4759.7222    5938.8313    48130.845    10654.768   -14793.398    5636.1392    81.413615 
   24100    1250.9124   -107.62289    1.1318518   -106.49104   -16079.556    4.3548498    4.3548498    4.3548498   -16079.556   -20358.009    -6640.911   -21239.749    3836.6451   -8445.5447   -12409.427    82.588493 
   24200    1370.7301   -107.72768    1.2402654   -106.48741   -6484.8954    4.3694399    4.3694399    4.3694399   -6484.8954    2924.5685   -41847.155      19467.9    3467.3187    3742.4438   -15647.136    83.421371 
   24300    1899.5641   -108.19093    1.7187655   -106.47216   -21717.649    4.3678268    4.3678268    4.3678268   -21717.649   -47638.244    1051.7788   -18566.482   -2965.2487    -37000.64    5490.4298    83.329013 
   24400    1280.1649   -107.63117    1.1583201   -106.47285    8547.7631    4.3443478    4.3443478    4.3443478    8547.7631    5764.8378   -6627.9607    26506.412    299.42584    7739.5258   -24639.158     81.99243 
   24500    1495.4568   -107.84021    1.3531208   -106.48709    15508.245    4.3486091    4.3486091    4.3486091    15508.245      13229.3    26544.821    6750.6151    -9027.163    4242.2412    3585.7077     82.23394 
   24600    1083.5993   -107.46919   0.98046344   -106.48872   -5882.3638    4.3662785    4.3662785    4.3662785   -5882.3638   -30143.836   -9654.3678    22151.112    2288.4424   -21433.672     5328.985    83.240427 
   24700    1433.7065   -107.78309    1.2972478   -106.48585   -21194.251    4.3558934    4.3558934    4.3558934   -21194.251    12692.484    -37113.66   -39161.577    5586.6144    10352.083   -26955.963     82.64788 
   24800    1691.0993   -108.00518    1.5301422   -106.47503    20817.644    4.3449951    4.3449951    4.3449951    20817.644    -7331.811    40001.469    29783.275   -12909.459    -20924.78   -2355.5377    82.029085 
   24900    1101.0731   -107.49493   0.99627409   -106.49866    9537.5028    4.3628906    4.3628906    4.3628906    9537.5028   -22194.771    33053.009     17754.27    13850.842   -27075.158   -13743.949    83.046811 
   25000     1461.635   -107.81633    1.3225181   -106.49381   -15610.676    4.3689698    4.3689698    4.3689698   -15610.676    6493.0605    -47405.97   -5919.1194   -8541.2921   -6294.1169   -26995.576    83.394445 
   25100    1222.0214   -107.59169    1.1057106   -106.48598    12841.484    4.3581679    4.3581679    4.3581679    12841.484    12778.883    41480.444   -15734.876   -9781.3741   -24578.338    5368.2657    82.777416 
   25200    1750.3187   -108.06842    1.5837251   -106.48469    -18123.74    4.3493014    4.3493014    4.3493014    -18123.74     16618.37   -37889.219   -33100.369    4251.3665   -13373.668   -34168.735    82.273226 
   25300    1146.2498   -107.53083    1.0371509   -106.49368    21165.491    4.3508883    4.3508883    4.3508883    21165.491    19882.746   -9630.3074    53244.036    7407.7234    14578.815    5824.5523    82.363309 
   25400    1498.1084   -107.84381    1.3555199   -106.48829   -7337.6106    4.3547932    4.3547932    4.3547932   -7337.6106   -3758.1484   -1641.5318   -16613.151   -12528.614   -15680.205    8584.7779    82.585275 
   25500    967.70837   -107.36831   0.87560287    -106.4927   -850.41527    4.3611808    4.3611808    4.3611808   -850.41527    588.96563   -46657.178    43516.967    15995.967    8471.3611   -22349.836    82.949211 
   25600    1394.6868   -107.74508     1.261942   -106.48314    3145.3096    4.3563437    4.3563437    4.3563437    3145.3096    32269.676   -36242.359    13408.611   -1136.6289    10932.131      13153.1    82.673517 
   25700    1567.1187   -107.89547    1.4179619   -106.47751    6493.2697    4.3534392    4.3534392    4.3534392    6493.2697    17178.516    566.35706    1734.9363   -13219.235   -15884.997    -6433.604    82.508263 
   25800    1135.2272   -107.50584    1.0271774   -106.47867   -6835.1318    4.3614151    4.3614151    4.3614151   -6835.1318    41641.613   -66691.689    4544.6809    29256.912   -601.68903   -18995.621    82.962584 
   25900    1582.0817   -107.90775    1.4315007   -106.47625   -11850.368    4.3572456    4.3572456    4.3572456   -11850.368   -4271.8579   -13080.547     -18198.7   -26028.573   -3587.0522    22123.107    82.724874 
   26000    1277.5786   -107.63992      1.15598   -106.48394    -25287.39    4.3558385    4.3558385    4.3558385    -25287.39   -4412.8931   -46834.089   -24615.189    25973.124   -3852.8675   -15691.601    82.644754 
   26100    1322.4888   -107.68237    1.1966156   -106.48576   -17507.633    4.3583336    4.3583336    4.3583336   -17507.633   -17210.432   -37523.938    2211.4722    24721.131    4379.4883   -7217.5328     82.78686 
   26200    1898.3624   -108.19468    1.7176782   -106.47701   -26007.717    4.3550094    4.3550094    4.3550094   -26007.717   -26759.347   -25150.564   -26113.241   -12323.507    15774.831    16370.446    82.597576 
   26300    1003.7735   -107.40278   0.90823537   -106.49455    9775.3091    4.3491073    4.3491073    4.3491073    9775.3091    23327.353   -11301.707    17300.281    40908.273    2908.0773   -8546.3679    82.262207 
   26400    1651.2574   -107.98669    1.4940924    -106.4926    12566.891    4.3564639    4.3564639    4.3564639    12566.891   -7624.8333   -915.01011    46240.517    3256.3709    20591.429   -16710.111    82.680359 
   26500    1446.2326   -107.79424    1.3085816   -106.48566    2576.5593    4.3668957    4.3668957    4.3668957    2576.5593    3622.5358   -14194.477    18301.619      19092.6   -2421.2367    6310.5822    83.275731 
   26600    650.44408   -107.06804   0.58853547    -106.4795    9526.7219    4.3628953    4.3628953    4.3628953    9526.7219   -20117.761   -15733.131    64431.057    17487.215    16103.008   -3595.3375    83.047082 
   26700    2018.5117   -108.28871    1.8263918   -106.46232   -16798.208    4.3434625    4.3434625    4.3434625   -16798.208   -23370.433   -8548.7407   -18475.451    754.34134    19802.236   -5199.5483    81.942317 
   26800    1294.7721   -107.65519     1.171537   -106.48366    29320.683    4.3437399    4.3437399    4.3437399    29320.683    31763.069   -26035.126    82234.107    31040.572   -15259.014    13249.202    81.958016 
   26900     1190.303   -107.56478    1.0770111   -106.48776   -27842.337    4.3771373    4.3771373    4.3771373   -27842.337   -27319.484    -15214.19   -40993.337   -12904.867      24977.7   -9623.8646    83.863021 
   27000      1522.15   -107.84136    1.3772733   -106.46409   -19706.481     4.365179     4.365179     4.365179   -19706.481   -35042.804     -21378.6   -2698.0383    2856.7861    5546.2949   -8299.3797    83.177559 
   27100    1355.7967   -107.68571    1.2267534   -106.45896    13156.122    4.3370424    4.3370424    4.3370424    13156.122   -20660.812    15248.109    44881.068    23548.836   -9691.4522    5650.0337    81.579494 
   27200    1026.2038   -107.41807   0.92853075   -106.48954    1483.1867    4.3488019    4.3488019    4.3488019    1483.1867    24086.884   -9074.2416   -10563.082   -10264.344    31809.966   -28999.519    82.244883 
   27300    1833.0286   -108.15286    1.6585628    -106.4943   -20900.243     4.366274     4.366274     4.366274   -20900.243   -19077.496   -44167.487    544.25362    16256.323    72.445148    8849.7356    83.240171 
   27400    1323.6933   -107.68892    1.1977055   -106.49121   -2848.2593    4.3602854    4.3602854    4.3602854   -2848.2593   -12806.043   -26080.472    30341.737    11954.784    6674.7305   -1257.6561    82.898134 
   27500     1057.516   -107.44345   0.95686269   -106.48659     8116.578    4.3376134    4.3376134    4.3376134     8116.578    13921.543     15180.52   -4752.3291   -8854.7869    27888.083    -17121.97    81.611717 
   27600    1766.1761   -108.08897    1.5980732    -106.4909    1130.8331    4.3523714    4.3523714    4.3523714    1130.8331   -30509.346   -20229.527    54131.372    25281.516   -11705.223   -222.69912    82.447565 
   27700    1524.0615   -107.86247    1.3790029   -106.48346   -36157.209    4.3719413    4.3719413    4.3719413   -36157.209   -27304.724   -42139.002   -39027.901   -3415.2511    11871.921   -21535.041    83.564722 
   27800     1420.542   -107.75225    1.2853363   -106.46692    7849.6207    4.3574922    4.3574922    4.3574922    7849.6207    11844.753   -18284.555    29988.664   -1167.7141    19797.397   -12122.544    82.738923 
   27900    1663.9304    -107.9685    1.5055592   -106.46294   -18661.951    4.3579809    4.3579809    4.3579809   -18661.951   -45210.264    -13837.75    3062.1615    10293.582    -12331.94   -900.24503    82.766765 
   28000    1053.2372   -107.42871   0.95299115   -106.47572    9981.8968     4.351268     4.351268     4.351268    9981.8968    36135.605   -27123.184     20933.27   -8737.5525    18456.137   -13698.311    82.384876 
   28100    1791.0181   -108.10504    1.6205508   -106.48449   -6317.8138    4.3544524    4.3544524    4.3544524   -6317.8138    4773.2863   -38169.942    14443.214    7565.9882    768.49247    8086.1126    82.565884 
   28200    1499.4288   -107.83922    1.3567147    -106.4825   -22603.411     4.371776     4.371776     4.371776   -22603.411    21937.706   -36796.224   -52951.715    7330.8599   -17802.583    4476.9439    83.555242 
   28300    1389.2585   -107.71859    1.2570303   -106.46156   -8455.7154    4.3695872    4.3695872    4.3695872   -8455.7154    8493.5789   -34061.059    200.33373   -6404.8982    23344.526   -5390.4452    83.429808 
   28400    1646.0615   -107.93483     1.489391   -106.44544    -1331.131    4.3535301    4.3535301    4.3535301    -1331.131    -13626.15    21949.974   -12317.217    11404.254   -23354.229    6630.8504    82.513432 
   28500    1586.6359   -107.89461    1.4356216   -106.45899    10051.199    4.3537512    4.3537512    4.3537512    10051.199    37512.395   -8975.3103    1616.5124    10227.887    6734.5854     14780.13    82.526005 
   28600    1438.1081   -107.77333    1.3012304    -106.4721   -27314.641    4.3642703    4.3642703    4.3642703   -27314.641   -18330.758   -42415.762   -21197.405   -31161.818     385.7886   -11092.864    83.125622 
   28700    1383.4813   -107.72529     1.251803   -106.47348     24172.35    4.3506747    4.3506747    4.3506747     24172.35    54956.986     3188.295    14371.769    7381.8963   -19362.526    15403.376    82.351184 
   28800    1557.8163   -107.89328    1.4095449   -106.48374   -14228.699    4.3589418    4.3589418    4.3589418   -14228.699   -18081.037   -40680.254    16075.195   -14456.329    11984.389    7453.4438    82.821525 
   28900    947.67582   -107.34729   0.85747699   -106.48982    6579.2222    4.3564856    4.3564856    4.3564856    6579.2222    49579.158   -26207.901   -3633.5908   -29969.757    5245.1373    -15037.99    82.681597 
   29000     1836.405   -108.14956    1.6616178   -106.48794    -1717.507    4.3486291    4.3486291    4.3486291    -1717.507   -10634.034   -1458.9114     6940.424    7900.0427   -7873.8763    16836.689    82.235078 
   29100    931.85432   -107.34202   0.84316137   -106.49886    13808.604    4.3522301    4.3522301    4.3522301    13808.604    53209.776   -41760.005    29976.042   -24794.784   -3132.5266    -21924.37    82.439535 
   29200    1559.0544    -107.9082    1.4106652   -106.49754   -16724.207    4.3524307    4.3524307    4.3524307   -16724.207    -33131.34   -42388.814    25347.535   -18631.569   -1660.2203   -1229.8562    82.450937 
   29300    1396.5749   -107.75681    1.2636503   -106.49316    5049.9555    4.3601636    4.3601636    4.3601636    5049.9555    49889.226   -31923.652   -2815.7071    10297.311   -14230.834   -3205.9422    82.891185 
   29400      1476.76   -107.82762    1.3362035   -106.49142   -15612.542    4.3503244    4.3503244    4.3503244   -15612.542   -10038.116   -63134.844    26335.336   -18553.415    -1715.081   -27897.241    82.331289 
   29500    1445.7615   -107.80199    1.3081554   -106.49383    13420.162    4.3464868    4.3464868    4.3464868    13420.162     35251.32   -284.41971    5293.5862   -1054.9598   -22128.542    7280.6374      82.1136 
   29600     1550.863   -107.89707    1.4032535   -106.49381   -10596.912    4.3592267    4.3592267    4.3592267   -10596.912     6613.351   -58295.765    19891.678   -9435.0648   -16327.035   -9946.2169    82.837766 
   29700    1469.1624    -107.8183     1.329329   -106.48897   -24901.195    4.3600455    4.3600455    4.3600455   -24901.195   -10143.731   -70249.842    5689.9875   -18614.259   -4150.6925   -8772.4723    82.884449 
   29800    1224.9112   -107.60118    1.1083254   -106.49285    27735.201    4.3460402    4.3460402    4.3460402    27735.201    25381.432    11177.713    46646.456    7031.4624    -21738.68     12559.12    82.088294 
   29900    1891.3794   -108.20133    1.7113598   -106.48997    8064.0386    4.3391345    4.3391345    4.3391345    8064.0386     14457.35    -31907.51    41642.276    -37286.23     8214.172   -12641.535    81.697609 
   30000    1111.4531   -107.51043    1.0056661   -106.50477    45.276601    4.3628841    4.3628841    4.3628841    45.276601    25509.001   -36119.275    10746.104    2975.3856   -15755.418     8510.802    83.046443 
   30100    1275.1253   -107.64462    1.1537601   -106.49086   -29660.034    4.3628288    4.3628288    4.3628288   -29660.034   -29299.788    -24381.58   -35298.733   -4242.7497   -21119.054    16251.938    83.043281 
   30200    1537.5719   -107.86682    1.3912274   -106.47559     10721.97    4.3394085    4.3394085    4.3394085     10721.97    27930.329   -15146.567    19382.147   -27584.998    15762.336   -10618.486    81.713087 
   30300    1385.5668   -107.74846      1.25369   -106.49477    6286.1729    4.3426014    4.3426014    4.3426014    6286.1729   -9904.0199   -16.125127    28778.664    21369.002   -34060.003    10947.576    81.893587 
   30400    1293.2088   -107.67679    1.1701225   -106.50667   -19914.108    4.3568245    4.3568245    4.3568245   -19914.108   -10332.516    -24697.29   -24712.518   -13899.638   -3249.3483    3391.6294    82.700891 
   30500    1371.4371    -107.7386    1.2409051   -106.49769    3773.8383    4.3640211    4.3640211    4.3640211    3773.8383    -27076.07   -15042.694    53440.279   -19537.259    1343.3496   -8713.9515    83.111386 
   30600    1575.2329   -107.91746    1.4253038   -106.49215    -24124.97    4.3524715    4.3524715    4.3524715    -24124.97   -23401.388   -9334.0453   -39639.477    12677.523   -45073.162    4741.1205    82.453253 
   30700    889.31515   -107.29848   0.80467104    -106.4938     10982.89    4.3327629    4.3327629    4.3327629     10982.89    32558.282   -8862.5372    9252.9251    -41920.51    2790.0484   -3652.4613    81.338242 
   30800    1386.0965   -107.75629    1.2541692   -106.50212    22386.508    4.3465008    4.3465008    4.3465008    22386.508   -471.45342    13295.889    54335.089   -8004.3491    4109.7907   -4061.7582    82.114394 
   30900    1443.0256   -107.80695    1.3056799   -106.50127   -20090.994    4.3672257    4.3672257    4.3672257   -20090.994   -6723.8265    -12713.56   -40835.597   -16772.404   -26189.911    12361.245    83.294612 
   31000    1182.5561   -107.56307    1.0700016   -106.49307    -6672.162    4.3529837    4.3529837    4.3529837    -6672.162   -40772.961    13232.949    7523.5255   -33320.871    36089.548   -11263.045     82.48237 
   31100    1445.6344   -107.78167    1.3080404   -106.47363    25147.975    4.3343667    4.3343667    4.3343667    25147.975     1633.441    61506.371    12304.112      4044.52    19017.474    14505.219    81.428597 
   31200    1365.4155   -107.71945    1.2354566   -106.48399   -1294.7563    4.3467959    4.3467959    4.3467959   -1294.7563   -18459.204     14616.99   -42.054642   -21972.468   -7193.5562    21973.004    82.131122 
   31300    851.57345   -107.25711   0.77052155   -106.48659   -11760.102    4.3665848    4.3665848    4.3665848   -11760.102   -79003.947    17047.574    26676.068   -12683.665    47481.725    7381.3017    83.257947 
   31400    2020.8177   -108.28705    1.8284783   -106.45857   -7308.5672    4.3572036    4.3572036    4.3572036   -7308.5672   -29905.864    3992.8343    3987.3285    2450.2335   -22721.242    20366.811    82.722485 
   31500    945.08219   -107.32751   0.85513022   -106.47238    6394.7027    4.3481038    4.3481038    4.3481038    6394.7027   -49787.445    74680.148   -5708.5955   -19784.799    38071.304    2471.8463    82.205279 
   31600    1450.9309   -107.77985    1.3128328   -106.46701    318.32572    4.3517298    4.3517298    4.3517298    318.32572   -22983.952      15812.4    8126.5301    1619.9327    22328.283    10993.896    82.411109 
   31700     1297.727   -107.64591    1.1742107    -106.4717   -4166.9869    4.3555255    4.3555255    4.3555255   -4166.9869   -13008.888    20534.975   -20027.048    7174.9886    1562.5857    1321.9535    82.626943 
   31800    1344.3666   -107.68502    1.2164111   -106.46861   -17803.686     4.364359     4.364359     4.364359   -17803.686   -54349.501    7219.3732    -6280.929   -10693.408    33914.101    7682.4772    83.130691 
   31900    1511.6285    -107.8359    1.3677532   -106.46815    5050.9196     4.346966     4.346966     4.346966    5050.9196    35206.063   -10022.716   -10030.589    27712.131   -8287.1803   -10781.099    82.140762 
   32000     1162.552   -107.53487    1.0519015   -106.48297    11820.226    4.3390673    4.3390673    4.3390673    11820.226   -21227.537    71194.459   -14506.244   -474.02182    30977.901    21212.961    81.693809 
   32100    1651.2977   -107.97919    1.4941288   -106.48507   -1337.4118    4.3631329    4.3631329    4.3631329   -1337.4118   -8045.5495   -7999.7303    12033.044    4545.5475    5156.4932   -7381.2054    83.060648 
   32200    1339.3831   -107.68446     1.211902   -106.47256   -3495.2706     4.361184     4.361184     4.361184   -3495.2706    9251.7643   -21683.516    1945.9396    9659.3569    4943.8602    4931.5886    82.949397 
   32300    1386.1154   -107.72181    1.2541864   -106.46763    6314.7843    4.3483692    4.3483692    4.3483692    6314.7843   -25152.968    36357.795    7739.5259    1975.4843    40360.036    12015.541    82.220336 
   32400    1672.7032   -107.97687     1.513497   -106.46337     2703.693    4.3491482    4.3491482    4.3491482     2703.693    7128.1705   -560.17084    1543.0795    16570.996    -14782.54    -6508.405    82.264532 
   32500    1027.4498   -107.41043   0.92965822   -106.48077    -18252.52    4.3501056    4.3501056    4.3501056    -18252.52   -14208.636   -3353.9345   -37194.989   -4639.7165    35265.797     13151.92    82.318872 
   32600     1735.777   -108.05075    1.5705675   -106.48019    -2274.323    4.3589167    4.3589167    4.3589167    -2274.323    15447.402    13491.508   -35761.879   -6086.7261    12539.704   -11857.315    82.820093 
   32700    1415.7865   -107.76074    1.2810334   -106.47971   -17837.573    4.3675616    4.3675616    4.3675616   -17837.573   -7076.3296   -21834.164   -24602.227    7285.7999   -21646.835    7397.1413    83.313832 
   32800    1307.8456    -107.6635    1.1833662   -106.48013   -9329.0868    4.3481918    4.3481918    4.3481918   -9329.0868    11768.158   -8645.3449   -31110.073   -5474.4499    47795.886    8384.4804    82.210271 
   32900    1349.5737     -107.694    1.2211226   -106.47287    39754.293    4.3331745    4.3331745    4.3331745    39754.293    7803.2673    58081.247    53378.365   -16966.127   -17172.806   -3895.2489    81.361422 
   33000    1275.8924   -107.65165    1.1544542   -106.49719   -17663.856    4.3536514    4.3536514    4.3536514   -17663.856   -13369.144   -14073.506   -25548.918    13608.756   -829.52368    10069.966    82.520331 
   33100    1512.8023   -107.85155    1.3688153   -106.48273   -4634.8309    4.3652964    4.3652964    4.3652964   -4634.8309    990.01427    11504.155   -26398.662   -16532.741    19778.802     3312.997     83.18427 
   33200    1586.4058   -107.90962    1.4354133   -106.47421   -10038.243    4.3575852    4.3575852    4.3575852   -10038.243   -42415.065    11247.319    1053.0152   -5773.0232   -15386.479    1422.7959    82.744218 
   33300    1171.8765   -107.53561    1.0603385   -106.47527    11537.363    4.3407886    4.3407886    4.3407886    11537.363    34758.975   -2521.9651    2375.0771    43103.209    13241.106    16439.395    81.791076 
   33400    1408.9515   -107.76137    1.2748489   -106.48652    9129.1315    4.3362725    4.3362725    4.3362725    9129.1315   -18664.033    42262.711    3788.7167   -33014.596    -8065.148     591.8819    81.536057 
   33500    1083.4263    -107.4862   0.98030691    -106.5059   -26883.021    4.3553518    4.3553518    4.3553518   -26883.021   -39281.687   -41889.683    522.30569    22156.784   -13629.069    7873.8722    82.617055 
   33600     1659.262      -107.99    1.5013351   -106.48866    3704.0697    4.3557564    4.3557564    4.3557564    3704.0697    10970.858    2411.5444   -2270.1935    12046.976   -2144.5653    12768.768    82.640082 
   33700    1404.4676   -107.76365    1.2707918   -106.49286   -8173.0225    4.3505339    4.3505339    4.3505339   -8173.0225   -13877.471   -33666.341    23024.745   -45445.253    3525.8483   -6393.7214    82.343186 
   33800    818.40846    -107.2347   0.74051317   -106.49419    34940.224    4.3421202    4.3421202    4.3421202    34940.224    72032.855    2502.0584    30285.759    37064.188   -21235.143    8619.1849    81.866369 
   33900    1566.2899   -107.91474    1.4172121   -106.49753    417.66108    4.3590598    4.3590598    4.3590598    417.66108    23709.889   -17524.854   -4932.0515   -21511.198    15156.771   -3658.0444    82.828252 
   34000     1538.621   -107.87615    1.3921766   -106.48398   -1446.6864    4.3598651    4.3598651    4.3598651   -1446.6864   -7875.0895   -15093.396    18628.427    1615.2434   -23232.354    7613.0219    82.874164 
   34100    999.47235   -107.38646   0.90434359   -106.48212    13219.007    4.3533256    4.3533256    4.3533256    13219.007    46025.151   -19272.087    12903.959    22855.943   -4702.2975     4226.213    82.501807 
   34200    1536.1083   -107.86266    1.3899031   -106.47276     5109.648    4.3582864    4.3582864    4.3582864     5109.648    33226.249   -5707.3205   -12189.985   -6617.6307   -359.98927   -834.50718     82.78417 
   34300    1236.8256   -107.60565    1.1191058   -106.48654   -20458.328    4.3605678    4.3605678    4.3605678   -20458.328   -27542.373   -48139.382    14306.772    36789.972   -22050.479    11823.142    82.914239 
   34400    1740.4436   -108.06178      1.57479   -106.48699   -7916.6177    4.3525761    4.3525761    4.3525761   -7916.6177    5641.1427   -21525.036   -7865.9601   -4559.4631    15486.127   -11214.742    82.459198 
   34500    1015.9514   -107.41767   0.91925421   -106.49841     22972.11    4.3450723    4.3450723    4.3450723     22972.11    71312.586   -7406.7661    5010.5104    8351.3959   -9252.3357    14184.535    82.033457 
   34600    1026.7288   -107.44224   0.92900583   -106.51323   -11743.175      4.35243      4.35243      4.35243   -11743.175    34739.117   -42026.953    -27941.69     30244.38   -14961.525   -4774.4652    82.450898 
   34700    1944.6967   -108.25844    1.7596024   -106.49883   -7840.1966    4.3555445    4.3555445    4.3555445   -7840.1966   -10254.819    5969.8772   -19235.648   -13175.701    7048.3231   -11415.172    82.628024 
   34800    1080.3863   -107.47302   0.97755621   -106.49546   -10488.016    4.3580952    4.3580952    4.3580952   -10488.016    17547.405   -40529.851    -8481.602     45949.43    3288.3843    6836.3212    82.773276 
   34900    1428.7368   -107.78071    1.2927511   -106.48796   -9029.3387    4.3494774    4.3494774    4.3494774   -9029.3387   -2308.3498   -21101.247    -3678.419    3070.9867   -23523.959   -18094.601    82.283211 
   35000    1612.1697   -107.94491     1.458725   -106.48618    4293.8576    4.3461964    4.3461964    4.3461964    4293.8576   -13116.762   -7056.0553     33054.39     11520.04    22575.178   -6635.1921    82.097142 
   35100    679.34035   -107.11821   0.61468143   -106.50353   -3909.7455    4.3569935    4.3569935    4.3569935   -3909.7455     3054.227   -46673.508    31890.045    26220.412   -16598.806    4365.0461    82.710515 
   35200    1769.4158   -108.08183    1.6010046   -106.48083    4124.0879    4.3542939    4.3542939    4.3542939    4124.0879   -8547.0676   -7420.7667    28340.098     -11957.5     13498.04   -33732.872    82.556869 
   35300    1242.9937   -107.60357    1.1246869   -106.47889    19287.543    4.3501575    4.3501575    4.3501575    19287.543    44207.321   -34080.955    47736.263    37881.609   -156.12762     9510.535    82.321815 
   35400    1419.4008   -107.75919    1.2843037   -106.47489   -33921.541    4.3630381    4.3630381    4.3630381   -33921.541   -38932.569   -13538.281   -49293.772   -7662.9528   -15962.743    -11119.33    83.055234 
   35500      1334.39   -107.67351    1.2073841   -106.46612    10287.167    4.3522076    4.3522076    4.3522076    10287.167     23560.78   -13542.495    20843.215    21373.805    8611.3621   -10715.672     82.43826 
   35600    1623.3931   -107.94363    1.4688802   -106.47475    650.36342    4.3539105    4.3539105    4.3539105    650.36342   -4676.2392   -21326.719    27954.049    20151.016   -11036.302     14430.16    82.535066 
   35700    1502.4947    -107.8342    1.3594888   -106.47471   -3340.1453    4.3554088    4.3554088    4.3554088   -3340.1453   -3676.3727   -14953.808    8609.7448    1663.8937   -12055.101   -3115.9366    82.620299 
   35800     954.3224   -107.35129   0.86349096    -106.4878    284.23822    4.3507836    4.3507836    4.3507836    284.23822    7044.2097   -40624.792    34433.297    52017.359    6865.1447   -4406.2475    82.357367 
   35900    1614.2144   -107.93616    1.4605751   -106.47559    20553.044    4.3486891    4.3486891    4.3486891    20553.044     8272.337    2445.5717    50941.222   -9385.0235    8078.5878    7777.1039     82.23848 
   36000    1128.3163    -107.5136    1.0209243   -106.49267    -9738.143    4.3509078    4.3509078    4.3509078    -9738.143   -30669.425   -32638.768    34093.764    48564.924   -11552.667    7195.3254    82.364417 
   36100    1497.9876   -107.83746    1.3554106   -106.48205   -22853.333    4.3695981    4.3695981    4.3695981   -22853.333   -44135.052   -17490.619   -6934.3274    7131.2133     26965.73   -9147.9038    83.430431 
   36200    1905.9164    -108.1903    1.7245132   -106.46578    1495.6856    4.3490651    4.3490651    4.3490651    1495.6856   -21147.249   -18650.698    44285.004    12274.681    1778.6231     4650.191    82.259817 
   36300    1203.1331   -107.56147    1.0886201   -106.47285      21828.9    4.3298759    4.3298759    4.3298759      21828.9   -12456.697   -15413.961    93357.358    35522.909   -17442.117   -9028.8944     81.17576 
   36400    1318.8774   -107.69208     1.193348   -106.49873   -11163.034    4.3558418    4.3558418    4.3558418   -11163.034   -23190.906   -9255.1344    -1043.062   -6620.6364      22331.5   -11563.426    82.644944 
   36500     1561.878   -107.90215      1.41322   -106.48893   -12995.177    4.3717756    4.3717756    4.3717756   -12995.177   -37424.858    -49324.54    47763.868     33016.38    64.054157    3486.0948    83.555217 
   36600    1593.2795   -107.92228    1.4416328   -106.48065    11632.365    4.3620186    4.3620186    4.3620186    11632.365    4336.8091   -5760.6145    36320.902   -3922.9558    12695.786   -17051.113    82.997029 
   36700    684.13958   -107.10328   0.61902387   -106.48426      6150.47    4.3453628    4.3453628    4.3453628      6150.47    -30154.25   -37958.924    86564.584    41569.613    25440.903    -7162.721    82.049913 
   36800    2064.0491   -108.33242     1.867595   -106.46483    9888.0512    4.3517165    4.3517165    4.3517165    9888.0512    14330.605     -9868.91    25202.459   -1628.8852    6163.0636   -2365.9965    82.410352 
   36900     1204.108   -107.56657    1.0895022   -106.47707   -41580.103    4.3756875    4.3756875    4.3756875   -41580.103   -39502.815   -37794.197   -47443.296    22839.441    12689.556    -14281.41    83.779719 
   37000    1071.6699    -107.4426   0.96966943   -106.47293   -30013.296    4.3581624    4.3581624    4.3581624   -30013.296   -6822.9601   -52866.496   -30350.431    37928.617    11757.416   -10860.468    82.777107 
   37100    1829.4819   -108.11175    1.6553537    -106.4564     36401.85    4.3344256    4.3344256    4.3344256     36401.85    46422.528     41413.06    21369.962   -3333.3609    -1008.012    4036.5027    81.431919 
   37200    1083.4658   -107.47357   0.98034261   -106.49323   -15800.512    4.3557033    4.3557033    4.3557033   -15800.512   -29100.915    1891.6359   -20192.257    47908.589    3936.5617    -2268.487    82.637059 
   37300    1329.0999   -107.68085    1.2025975   -106.47826    -32606.16    4.3753416    4.3753416    4.3753416    -32606.16   -14997.798   -11219.515   -71601.165    10064.512    -12809.96     11627.01    83.759851 
   37400    1586.8509   -107.90228     1.435816   -106.46646    7489.1611    4.3536437    4.3536437    4.3536437    7489.1611   -30132.245    18582.308    34017.421    345.75384   -3033.7316    9910.7231    82.519892 
   37500    1582.0491   -107.90326    1.4314713   -106.47178   -4671.8562    4.3360012    4.3360012    4.3360012   -4671.8562   -29553.573   -12406.207    27944.211    18634.024    1177.8376   -8520.7432    81.520753 
   37600     1150.755   -107.53217    1.0412273   -106.49094   -1972.2001    4.3497578    4.3497578    4.3497578   -1972.2001   -18447.651    12643.182   -112.13072     -14278.8   -26170.604     13818.56    82.299126 
   37700    1717.9096   -108.03074    1.5544007   -106.47634    -16312.23    4.3684816    4.3684816    4.3684816    -16312.23   -46974.904   -24051.285    22089.497    5490.5403    3052.8812    2099.8513    83.366492 
   37800    1344.7619   -107.69584    1.2167688   -106.47907    6503.8653    4.3561909    4.3561909    4.3561909    6503.8653   -3877.8311    26190.253   -2800.8255    12998.875   -18639.832   -15247.563    82.664818 
   37900    1157.9579   -107.52358    1.0477446   -106.47583    27087.891    4.3360452    4.3360452    4.3360452    27087.891    -1613.186    33424.735    49452.125    2145.2346   -23119.442    5122.4334    81.523233 
   38000    1367.6424   -107.71658    1.2374716    -106.4791     660.6058    4.3564928    4.3564928    4.3564928     660.6058   -12335.977     2625.663    11692.132    16974.482    19651.268   -7055.0791    82.682006 
   38100    1198.1495   -107.56421    1.0841108    -106.4801   -7966.0905    4.3597458    4.3597458    4.3597458   -7966.0905   -35211.067    12195.647   -882.85193    10036.909    -30320.36   -12000.025    82.867359 
   38200    1405.0316   -107.74312    1.2713021   -106.47182    19392.008    4.3481891    4.3481891    4.3481891    19392.008   -2544.3476    13562.887    47157.485   -1890.5136   -1627.1594    4700.4977    82.210118 
   38300    1518.6525   -107.84978    1.3741087   -106.47567   -26183.394    4.3540355    4.3540355    4.3540355   -26183.394   -25961.631     -30341.2   -22247.352    9776.9614    21450.017    198.88336    82.542174 
   38400    1542.4722   -107.86438    1.3956613   -106.46872     13574.74    4.3484603    4.3484603    4.3484603     13574.74   -11429.445    13431.741    38721.924    169.15359   -17008.187   -10489.523    82.225503 
   38500    1391.8403   -107.73771    1.2593664   -106.47834   -216.49136    4.3573212    4.3573212    4.3573212   -216.49136   -8571.6481    -23403.85    31326.024   -17353.007    3839.0886     1876.803     82.72918 
   38600    1146.2591   -107.53041    1.0371593   -106.49325    -21302.26    4.3487933    4.3487933    4.3487933    -21302.26   -3700.0455   -46476.745   -13729.988    1510.4283    11872.135   -29475.423    82.244394 
   38700    1759.8227   -108.07466    1.5923245   -106.48233    43682.324    4.3381522    4.3381522    4.3381522    43682.324    46180.804    89512.276   -4646.1061    4348.0967   -5244.3302   -10022.558    81.642138 
   38800    1224.4795   -107.60667    1.1079348   -106.49874   -24214.035     4.364507     4.364507     4.364507   -24214.035   -18325.012   -9790.7933   -44526.299   -6562.1657    8840.1946   -13908.712     83.13915 
   38900    860.05524   -107.26837   0.77819606   -106.49018     2398.335    4.3527512    4.3527512    4.3527512     2398.335    21734.041    19640.777   -34179.813    5768.4413    2039.7934   -33298.211    82.469152 
   39000    2003.7356   -108.28461    1.8130221   -106.47159    15295.429    4.3433138    4.3433138    4.3433138    15295.429    11069.781    40695.784   -5879.2767   -6553.9456    -3741.581    15969.881    81.933901 
   39100     1071.054   -107.45563   0.96911221   -106.48652   -17575.842    4.3548669    4.3548669    4.3548669   -17575.842   -905.12152   -9870.0058     -41952.4   -6469.9212     13358.76   -29522.478    82.589465 
   39200    1537.2825   -107.86742    1.3909655   -106.47645    1162.5635    4.3563309    4.3563309    4.3563309    1162.5635    7400.0624    5442.9013   -9355.2733   -10141.144   -245.77434   -12170.644     82.67279 
   39300    1781.7177   -108.08468    1.6121356   -106.47255   -9080.6013    4.3595345    4.3595345    4.3595345   -9080.6013   -18773.179    27610.128   -36078.753   -1145.2485    3993.3953    32519.843    82.855314 
   39400    1123.4221   -107.50283    1.0164959   -106.48634    -11925.26     4.344631     4.344631     4.344631    -11925.26    75.760892   -1324.6835   -34526.858    889.32755    16048.074   -48273.077    82.008468 
   39500    1459.2328   -107.81166    1.3203445   -106.49131   -684.91627    4.3390108    4.3390108    4.3390108   -684.91627   -298.68974   -4042.0512    2285.9922   -9790.8637    620.39587    26254.221    81.690618 
   39600    1573.2044   -107.91752    1.4234684   -106.49405    102.08836    4.3530663    4.3530663    4.3530663    102.08836    34169.178   -9505.7109   -24357.202   -1883.3001    4261.8755    1934.3002    82.487062 
   39700     1115.419   -107.50769    1.0092545   -106.49844   -27927.764    4.3604349    4.3604349    4.3604349   -27927.764    9022.3727   -37817.602   -54988.062   -10260.576    20067.372   -27750.914    82.906659 
   39800    1479.1076   -107.81924    1.3383276   -106.48091    -17766.29    4.3557634    4.3557634    4.3557634    -17766.29    2638.9173   -50518.601   -5419.1861   -7500.0516    -1578.416    35268.486    82.640483 
   39900    1356.8537   -107.70154    1.2277097   -106.47383    4253.4273    4.3454786    4.3454786    4.3454786    4253.4273    13806.033    16295.551   -17341.302     21065.62    7083.6953   -33787.349    82.056471 
   40000    1212.5454   -107.58546    1.0971366   -106.48833    6922.9087    4.3449381    4.3449381    4.3449381    6922.9087   -703.69058    15522.907    5949.5094   -12512.473    14609.479    4165.0445    82.025856 
   40100    1184.9291   -107.56311    1.0721487   -106.49096   -20861.949    4.3634551    4.3634551    4.3634551   -20861.949   -38946.618   -50042.651    26403.423    16906.175   -2755.9314   -4549.0523    83.079051 
   40200    1738.2177   -108.04364    1.5727759   -106.47086   -7668.7551    4.3548014    4.3548014    4.3548014   -7668.7551   -4699.9402   -3856.4838   -14449.841    8368.4445     1522.699   -31157.382    82.585742 
   40300    1213.6036   -107.57081     1.098094   -106.47272   -15782.112     4.338842     4.338842     4.338842   -15782.112    -35612.41   -16518.746    4784.8202   -11060.831   -602.44214    27288.819    81.681088 
   40400    970.09084    -107.3712   0.87775857   -106.49344   -1343.2769    4.3446498    4.3446498    4.3446498   -1343.2769   -15619.197   -31841.414     43430.78    19843.026   -5901.9958   -13416.994    82.009529 
   40500     1989.975   -108.28292    1.8005712   -106.48235    2919.9945    4.3557559    4.3557559    4.3557559    2919.9945    7815.7661    5626.8587   -4682.6413   -3932.6496   -11165.208    25618.147    82.640058 
   40600    894.54687   -107.30656   0.80940481   -106.49715   -28553.519    4.3651855    4.3651855    4.3651855   -28553.519   -66944.225   -32606.923    13890.591    7966.2706   -5248.7986    13622.841    83.177931 
   40700    1456.7767    -107.7884    1.3181221   -106.47028    11137.754    4.3484553    4.3484553    4.3484553    11137.754    10075.668   -453.51853    23791.112    16965.707   -15470.092   -2538.6348    82.225217 
   40800    1435.6256   -107.76351    1.2989842   -106.46453    13883.125    4.3425444    4.3425444    4.3425444    13883.125   -5093.9884     29965.47    16777.893    -3494.722     -1911.91    35285.048    81.890362 
   40900     1274.883   -107.63756    1.1535409   -106.48402   -18229.493    4.3508184    4.3508184    4.3508184   -18229.493   -56897.542   -23994.489    26203.553    17991.251    -2771.424   -2750.1118    82.359342 
   41000    1436.6616   -107.78418    1.2999216   -106.48426    20610.626    4.3502357    4.3502357    4.3502357    20610.626    6480.2742    7939.4506    47412.152    273.58318   -6125.1734    12394.892    82.326256 
   41100    1405.4441   -107.76575    1.2716753   -106.49408    4637.2621    4.3520606    4.3520606    4.3520606    4637.2621   -11590.037    34183.142   -8681.3191    9580.2504    13471.747    8962.2882    82.429908 
   41200    1374.7875    -107.7362    1.2439366   -106.49227   -21347.996     4.361018     4.361018     4.361018   -21347.996   -38026.845   -53621.469    27604.327    14613.485   -4800.0188   -4817.0676    82.939922 
   41300    1343.4327   -107.69254    1.2155662   -106.47697    34259.927    4.3417513    4.3417513    4.3417513    34259.927    15137.062    69611.904    18030.815   -1556.1621     -934.793    -505.3959    81.845505 
   41400    1299.0299    -107.6643    1.1753896   -106.48891   -33322.775    4.3469931    4.3469931    4.3469931   -33322.775   -48418.449   -44195.857   -7354.0196    20849.944    8092.2854    8624.1547    82.142298 
   41500    1857.8795   -108.15898    1.6810484   -106.47794   -25647.162    4.3583375    4.3583375    4.3583375   -25647.162   -53098.266   -33865.427    10022.206   -2302.8996    356.59162   -5535.7997    82.787083 
   41600    1165.3436   -107.54353    1.0544274    -106.4891   -5871.3741    4.3570958    4.3570958    4.3570958   -5871.3741    4358.8801    7080.5022   -29053.505    9621.5019    3281.5965   -1781.7989    82.716344 
   41700    1294.2536    -107.6569    1.1710679   -106.48583   -4414.1855    4.3497168    4.3497168    4.3497168   -4414.1855   -44989.127   -13922.157    45668.728    27657.778    12350.483    8233.9014    82.296798 
   41800    1476.9095   -107.80995    1.3363388   -106.47362    40577.305    4.3462729    4.3462729    4.3462729    40577.305   -12268.848    42900.222    91100.541   -12649.357   -1515.4541   -15870.768    82.101479 
   41900    807.77993    -107.2276   0.73089626   -106.49671   -27982.475    4.3639721    4.3639721    4.3639721   -27982.475   -42948.695   -68768.292     27769.56    40714.437    1754.3102    6100.6105    83.108586 
   42000    2016.4883   -108.29558     1.824561   -106.47101    5675.4381     4.359672     4.359672     4.359672    5675.4381   -29439.825    6698.8765    39767.263   -8546.1862    8782.8359    11358.211    82.863153 
   42100    1637.6285   -107.96125    1.4817607   -106.47949   -16760.075    4.3429897    4.3429897    4.3429897   -16760.075   -30314.222   -23520.805    3554.8013    21346.572     1541.359   -8529.2067    81.915557 
   42200    940.60387   -107.35081   0.85107814   -106.49973     19755.06    4.3431654    4.3431654    4.3431654     19755.06   -7547.6776   -25742.459    92555.316    20321.102    4513.3476   -231.39944    81.925501 
   42300    1766.7986   -108.08738    1.5986365   -106.48874    2593.5904    4.3633846    4.3633846    4.3633846    2593.5904   -46250.942    19657.227    34374.487   -4505.0567    3674.8005    10457.915    83.075028 
   42400    1047.5768    -107.4349   0.94786947   -106.48703   -10353.042    4.3618839    4.3618839    4.3618839   -10353.042   -42286.378   -40833.037    52060.291    29003.009   -7964.3432   -12363.282    82.989337 
   42500    1585.7819   -107.90328    1.4348488   -106.46844    15212.985     4.342035     4.342035     4.342035    15212.985    16361.508    22965.656    6311.7905   -13058.667    7193.0615   -48.477781    81.861547 
   42600    1502.9242   -107.83921    1.3598774   -106.47933    18524.867     4.344443     4.344443     4.344443    18524.867    -20436.78    12675.029    63336.353    15270.423   -1751.9937    11902.239    81.997823 
   42700    1678.2484   -107.99528    1.5185144   -106.47676   -26378.735    4.3736045    4.3736045    4.3736045   -26378.735   -27698.564   -41441.909   -9995.7326    3707.9527   -9110.6065   -27714.432    83.660126 
   42800    1530.0166   -107.84041    1.3843912   -106.45602    17738.867    4.3618686    4.3618686    4.3618686    17738.867    21211.307     27543.62    4461.6746   -3131.7409     4401.755    19391.806    82.988463 
   42900    965.58776   -107.32902   0.87368409   -106.45534   -3196.0206    4.3445139    4.3445139    4.3445139   -3196.0206   -3990.7324    4552.5377   -10149.867    9915.1087    -2457.051   -34007.102    82.001838 
   43000      1512.21   -107.83705    1.3682794   -106.46877    3870.8016    4.3449127    4.3449127    4.3449127    3870.8016    1140.3181    26524.928   -16052.841    2871.6356   -5335.0313   -30865.863    82.024417 
   43100    1576.2065   -107.89897    1.4261847   -106.47278    29488.741    4.3492983    4.3492983    4.3492983    29488.741    31409.814    14523.006    42533.405    7728.6463   -2071.5257   -1468.8394     82.27305 
   43200    1028.9615   -107.42362   0.93102596   -106.49259   -37692.862    4.3682308    4.3682308    4.3682308   -37692.862   -24103.671    -77127.14   -11847.774    5534.1329    8363.7096    -58470.56    83.352138 
   43300    1888.6874   -108.17683    1.7089241    -106.4679    25798.778    4.3506738    4.3506738    4.3506738    25798.778    23146.041    25772.908    28477.385   -2166.4936    3705.6328    22579.396    82.351128 
   43400     908.5377    -107.3007     0.822064   -106.47863    18445.121    4.3311549    4.3311549    4.3311549    18445.121    76971.598   -33778.759    12142.524    9638.9368     2902.783   -45956.969    81.247714 
   43500    1227.5931   -107.60142     1.110752   -106.49067   -9638.0144    4.3459864    4.3459864    4.3459864   -9638.0144    34734.182   -43075.287   -20572.938    9302.9151    7144.9614   -18657.149    82.085244 
   43600    2012.6536   -108.30539    1.8210913    -106.4843   -1865.4049    4.3560328    4.3560328    4.3560328   -1865.4049    21765.248    -27189.69   -171.77202    4109.4219   -1159.9754    3085.6322     82.65582 
   43700    989.62003     -107.389     0.895429   -106.49357   -24462.709    4.3640277    4.3640277    4.3640277   -24462.709    22997.276    -60722.04   -35663.361    12972.738   -4966.6523   -62574.186    83.111762 
   43800    1666.8586   -107.97397    1.5082087   -106.46576    24832.517    4.3462909    4.3462909    4.3462909    24832.517    32877.152   -19341.536    60961.936    16166.716     19862.39    20689.172    82.102499 
   43900    1085.9277   -107.46026   0.98257018   -106.47769    12712.934    4.3475341    4.3475341    4.3475341    12712.934    72070.367   -39122.363    5190.7983   -1761.2865    9599.8246   -41058.631    82.172974 
   44000    1081.2112   -107.44742   0.97830259   -106.46911     9962.168    4.3634174    4.3634174    4.3634174     9962.168    36120.812   -53581.381    47347.073    31033.327    19329.635   -8577.6651    83.076901 
   44100     1483.986   -107.80086    1.3427417   -106.45812     460.9721    4.3623458    4.3623458    4.3623458     460.9721    81015.298   -52994.657   -26637.724   -8830.6714    1761.6326   -14849.496    83.015706 
   44200    977.05993   -107.34054   0.88406436   -106.45648   -1220.6084    4.3601529    4.3601529    4.3601529   -1220.6084    50672.772   -39003.456   -15331.142    24642.586   -117.26872   -21014.141    82.890579 
   44300    1764.9537   -108.03829    1.5969672   -106.44133    29440.679    4.3467578    4.3467578    4.3467578    29440.679    78158.962   -14214.754     24377.83     9912.942   -11320.438   -2180.6244    82.128959 
   44400    1164.9068   -107.51716    1.0540321   -106.46312   -36064.526    4.3615256    4.3615256    4.3615256   -36064.526    6489.5172   -55193.482   -59489.612     1378.023    390.21995   -33668.138    82.968887 
   44500    1753.1456   -108.03594     1.586283   -106.44966   -242.66461    4.3600107    4.3600107    4.3600107   -242.66461   -40549.977   -15756.285    55578.269    19602.946   -15225.439    27299.664    82.882467 
   44600    1095.2004   -107.44592   0.99096031   -106.45496   -21605.928    4.3609365    4.3609365    4.3609365   -21605.928   -18076.435   -59111.029     12369.68   -19622.971   -4766.1731   -34258.797    82.935277 
   44700    1550.2766   -107.85585    1.4027228   -106.45312   -21333.863    4.3665222    4.3665222    4.3665222   -21333.863   -40218.966   -44099.316    20316.692    4704.9439   -6612.9309    13694.893    83.254368 
   44800    1640.8934   -107.94005    1.4847149   -106.45534    4853.1812    4.3517573    4.3517573    4.3517573    4853.1812    8184.0929   -37060.394    43435.844    866.41175   -4953.0026   -24686.943    82.412673 
   44900    1267.5263   -107.61587    1.1468844   -106.46898   -21579.544     4.342481     4.342481     4.342481   -21579.544    28782.148   -52499.986   -41020.794   -27251.983    -5645.357   -29488.756    81.886775 
   45000    1662.5383   -107.97927    1.5042995   -106.47497    14937.171     4.352726     4.352726     4.352726    14937.171    24966.377    3459.6663     16385.47    793.73953    4596.1465    22710.128    82.467722 
   45100    1188.9903   -107.54769    1.0758235   -106.47186   -28765.605    4.3678385    4.3678385    4.3678385   -28765.605    -7583.813   -23112.099   -55600.902   -12707.778    9267.2108    -48774.53    83.329679 
   45200    1212.4044   -107.55747     1.097009   -106.46046    -8099.102    4.3554731    4.3554731    4.3554731    -8099.102    1658.8457    4554.3708   -30510.522   -19793.494    -7674.381    26613.623    82.623962 
   45300    1833.7872   -108.11319    1.6592492   -106.45394    7590.4209    4.3417828    4.3417828    4.3417828    7590.4209    34516.112    2404.5525   -14149.402    7435.4111    10527.616   -21236.172    81.847283 
   45400    1307.3193   -107.65961      1.18289   -106.47672   -11276.303    4.3489523    4.3489523    4.3489523   -11276.303    11546.351   -32681.022   -12694.236   -11826.171    1454.1666   -12971.175    82.253412 
   45500    1671.6051   -107.99381    1.5125034   -106.48131   -17885.378    4.3526996    4.3526996    4.3526996   -17885.378    1376.1002   -32218.208   -22814.027   -3785.6335    14328.861    35513.176    82.466218 
   45600    1149.7988   -107.51982    1.0403621   -106.47946      10102.8    4.3530629    4.3530629    4.3530629      10102.8     46364.94    17694.977   -33751.517    7973.5756    966.68894   -40180.646    82.486868 
   45700    1421.0686   -107.76196    1.2858128   -106.47615   -8456.5587    4.3458577    4.3458577    4.3458577   -8456.5587    3636.5582   -27660.385   -1345.8488   -15310.022    2553.0447    35165.611    82.077949 
   45800    1235.0232   -107.59582     1.117475   -106.47834    12510.212    4.3394368    4.3394368    4.3394368    12510.212    30669.607    13117.317   -6256.2873     2118.269    86.458845   -1513.1348    81.714685 
   45900    1518.9794   -107.86135    1.3744045   -106.48695   -10871.528    4.3490313    4.3490313    4.3490313   -10871.528    5905.1551   -19935.943   -18583.796    21007.021   -2996.5488   -20280.728    82.257894 
   46000    1474.5604   -107.81521    1.3342132   -106.48099    1588.7715    4.3573883    4.3573883    4.3573883    1588.7715    28456.553   -6039.5771   -17650.661   -27316.479   -3644.0329    20924.892    82.733005 
   46100    1153.1512   -107.52413    1.0433955   -106.48074   -27066.803    4.3556814    4.3556814    4.3556814   -27066.803   -6677.3749   -26210.341   -48312.693    27375.595   -7289.6621   -45404.911    82.635814 
   46200    1452.1081   -107.78899    1.3138979   -106.47509    25732.167    4.3335126    4.3335126    4.3335126    25732.167     26424.93    51528.974    -757.4034    -11919.22    6023.8055    11282.604    81.380467 
   46300    1512.4011   -107.85068    1.3684523   -106.48223   -1491.4681    4.3423714    4.3423714    4.3423714   -1491.4681    35510.677   -8361.0742   -31624.007    3155.9859   -6811.2541   -18773.439    81.880579 
   46400    1259.6608   -107.62212    1.1397675   -106.48235   -23689.904    4.3560707    4.3560707    4.3560707   -23689.904    23129.384   -34886.043   -59313.053    1062.6748   -4092.3285   -26919.617    82.657976 
   46500    1375.1938   -107.71358    1.2443042   -106.46927    20394.508    4.3583705    4.3583705    4.3583705    20394.508    38196.328    50492.021   -27504.827   -11203.088      2222.73    7868.6897    82.788964 
   46600    1235.1154   -107.58323    1.1175583   -106.46567   -17167.604    4.3657714    4.3657714    4.3657714   -17167.604    35372.106   -38130.537   -48744.381   -8831.0691    -14356.51   -49115.879     83.21143 
   46700    1460.1146   -107.77555    1.3211424   -106.45441    16997.286     4.348217     4.348217     4.348217    16997.286    25706.871     25591.04   -306.05216    1695.1648   -13772.948    21108.022    82.211701 
   46800    829.66072   -107.22562   0.75069445   -106.47492    16145.094    4.3502545    4.3502545    4.3502545    16145.094    41600.828     5809.095    1025.3585    10689.478   -2137.6133   -44547.154    82.327325 
   46900    1501.1773   -107.81521    1.3582967   -106.45691   -8918.8226    4.3659746    4.3659746    4.3659746   -8918.8226    5698.5788   -26625.747   -5829.2993     1170.972   -16059.846   -13331.966    83.223046 
   47000    1509.9431   -107.82367    1.3662282   -106.45744    5267.9464    4.3515908    4.3515908    4.3515908    5267.9464   -11978.482    58519.935   -30737.613      1795.38    4526.2205   -1862.5389    82.403214 
   47100    1295.6892    -107.6468    1.1723668   -106.47444   -44056.951    4.3576578    4.3576578    4.3576578   -44056.951    15476.816   -68012.933   -79634.736   -2068.2091   -4787.1145   -56827.197    82.748354 
   47200    1886.0788   -108.16383    1.7065637   -106.45726    16212.637    4.3471386    4.3471386    4.3471386    16212.637    677.57101    64971.516   -17011.177   -3083.8179    -4260.403    16602.347    82.150549 
   47300    1093.8554   -107.47405   0.98974339   -106.48431   -31672.473    4.3534496    4.3534496    4.3534496   -31672.473     1208.925   -36727.704   -59498.638   -23.297472    9427.2248   -60085.243    82.508854 
   47400    1186.1311   -107.56092    1.0732363   -106.48769   -22912.262    4.3578981    4.3578981    4.3578981   -22912.262   -8379.6048   -33969.557   -26387.625   -5739.9657   -1692.3065    11792.504    82.762044 
   47500    1641.4711   -107.96275    1.4852376   -106.47751    29572.628    4.3360136    4.3360136    4.3360136    29572.628   -16185.717    35293.079    69610.523   -1922.3564   -6911.1846   -12616.964    81.521455 
   47600     1300.897   -107.67745    1.1770789   -106.50038   -21353.368    4.3536749    4.3536749    4.3536749   -21353.368    253.83927    -27550.97   -36762.974    5214.3776    26721.261    -47763.56    82.521669 
   47700    1475.6011     -107.818    1.3351549   -106.48285   -11450.331    4.3547899    4.3547899    4.3547899   -11450.331   -20532.594    4589.4686   -18407.868   -4292.8313    17470.335    27595.013    82.585087 
   47800    1551.6239   -107.87702    1.4039419   -106.47307   -16143.065    4.3571709    4.3571709    4.3571709   -16143.065    3964.0106   -11255.931   -41137.274    1027.1699   -3564.2616   -22995.009    82.720618 
   47900    1479.8419   -107.81071    1.3389921   -106.47172   -23597.085    4.3569203    4.3569203    4.3569203   -23597.085   -22410.042   -12293.943   -36087.269    2036.6756    30611.769    4229.0127    82.706347 
   48000    1321.2661   -107.66759    1.1955093   -106.47208    28533.975    4.3357507    4.3357507    4.3357507    28533.975   -7774.9566     28358.22    65018.661   -11735.355   -23583.823    25450.193    81.506627 
   48100    1470.5229    -107.8163    1.3305601   -106.48574    4608.2699    4.3493099    4.3493099    4.3493099    4608.2699    6728.2547    6821.9882    274.56682    3214.9352   -6318.4406   -22881.623    82.273707 
   48200    1083.4533   -107.46727   0.98033132   -106.48694   -2949.4238    4.3549037    4.3549037    4.3549037   -2949.4238   -25343.591    7051.7101    9443.6095   -9884.7327    19121.167    2110.6623    82.591559 
   48300    1610.7633   -107.92832    1.4574525   -106.47086    7608.3045    4.3566663    4.3566663    4.3566663    7608.3045   -1106.0973    40484.029   -16553.018   -4845.6062   -32056.331   -1191.1734    82.691884 
   48400    1576.2215   -107.89157    1.4261984   -106.46537   -13339.072    4.3582207    4.3582207    4.3582207   -13339.072   -36454.377   -4475.3695    912.52961    5080.9915    45278.247   -7490.6156    82.780424 
   48500    1173.9243   -107.53557    1.0621914   -106.47338    17317.053    4.3428427    4.3428427    4.3428427    17317.053   -22108.646    40308.598    33751.206   -15368.496    11501.175    3565.8935     81.90724 
   48600    1247.5883   -107.61292    1.1288441   -106.48407    30197.613     4.338946     4.338946     4.338946    30197.613    3652.8228    31213.236    55726.781    14902.515     4254.763    2065.2606    81.686959 
   48700    1340.7778   -107.70984     1.213164   -106.49668   -3486.3181    4.3538204    4.3538204    4.3538204   -3486.3181   -20272.747    14956.219   -5142.4254   -10347.603    49438.179    -11833.36    82.529942 
   48800    1462.9065   -107.80647    1.3236685   -106.48281     -7622.05    4.3600549    4.3600549    4.3600549     -7622.05   -4663.9901   -23637.835    5435.6747   -16648.792   -8123.1145    2392.2058    82.884989 
   48900    1358.8237   -107.70833    1.2294922   -106.47884   -13406.689    4.3452134    4.3452134    4.3452134   -13406.689     -21265.5    25285.554   -44240.121    4461.2178    43270.897    17202.463    82.041451 
   49000    1621.1865   -107.94291    1.4668836   -106.47602    1744.8145    4.3427273    4.3427273    4.3427273    1744.8145   -1386.6672    6225.9082    395.20245   -15555.789   -1769.5872   -1523.1693     81.90071 
   49100    1338.8614    -107.6985      1.21143   -106.48707    -23396.34    4.3487943    4.3487943    4.3487943    -23396.34   -12964.449   -28654.113   -28570.457   -9144.6002    8141.8266    30190.508    82.244449 
   49200    1168.6624   -107.55496    1.0574303   -106.49753   -1717.9593    4.3564776    4.3564776    4.3564776   -1717.9593   -38618.762    62616.484     -29151.6    16411.179    24729.149   -2905.8862    82.681142 
   49300    2055.5242   -108.34807    1.8598815   -106.48819    4559.2275    4.3449989    4.3449989    4.3449989    4559.2275     19977.76   -19227.826    12927.749    5983.2771   -15801.112    3554.9777    82.029299 
   49400    835.44069   -107.25602   0.75592429    -106.5001    46493.781    4.3333297    4.3333297    4.3333297    46493.781    71765.097    68083.671   -367.42451    -19749.53    48707.318    4628.9909    81.370166 
   49500    1468.7673   -107.82415    1.3289715   -106.49518   -17326.843    4.3640856    4.3640856    4.3640856   -17326.843   -11688.444   -36635.782   -3656.3033    27036.769    3500.0721      5791.52    83.115072 
   49600    1362.7216   -107.70551    1.2330191    -106.4725   -4030.4162    4.3628332    4.3628332    4.3628332   -4030.4162    18588.723   -14558.712   -16121.259   -4602.3374    11485.498    6371.2534    83.043533 
   49700    1132.7515   -107.49234    1.0249373    -106.4674    20795.865    4.3374975    4.3374975    4.3374975    20795.865    -27419.47    46868.845     42938.22    9133.8583    35082.625    9308.0074    81.605178 
   49800    2021.7249   -108.30332    1.8292992   -106.47402   -10520.016    4.3403174    4.3403174    4.3403174   -10520.016   -35866.369    -8575.072    12881.392    22580.127   -9377.7574    865.04532    81.764438 
   49900    1293.1577   -107.66375    1.1700763   -106.49368   -2031.0757    4.3518232    4.3518232    4.3518232   -2031.0757   -6989.9406    14624.318   -13727.605   -6524.0822    17189.498   -394.71438    82.416414 
   50000    1284.4187   -107.65934    1.1621691   -106.49717    -27108.38    4.3546748    4.3546748    4.3546748    -27108.38   -35865.024   -417.90185   -45042.214    20765.519    19917.324   -999.04118    82.578537 
   50100     1854.246    -108.1572    1.6777607   -106.47944    -15011.52    4.3530903    4.3530903    4.3530903    -15011.52   -25820.172   -14484.783   -4729.6058    21964.266   -4661.0509   -6564.4584    82.488429 
   50200    1172.2303   -107.53703    1.0606586   -106.47638   -13756.816    4.3508505    4.3508505    4.3508505   -13756.816   -53787.155    40042.809   -27526.101   -9814.1424     39704.92    11675.184    82.361167 
   50300    1363.3483    -107.7127    1.2335862   -106.47911   -9826.1716    4.3476851    4.3476851    4.3476851   -9826.1716   -48342.088   -16482.902    35346.476    46578.192   -10829.268   -11780.884    82.181532 
   50400    1189.0449   -107.54923    1.0758728   -106.47335     12925.19    4.3530413    4.3530413    4.3530413     12925.19   -43161.932    62468.543    19468.958   -5174.0667    13803.424    10945.383    82.485642 
   50500    1211.6268   -107.57536    1.0963054   -106.47905   -15086.966    4.3493682    4.3493682    4.3493682   -15086.966    -29550.18    -5316.759    -10393.96    9685.1744    29396.959   -466.20866    82.277012 
   50600    1542.8121   -107.87272    1.3959688   -106.47675    1650.1327    4.3371699    4.3371699    4.3371699    1650.1327   -17556.102   -12264.926    34771.425    21709.402   -15051.553   -1646.0334    81.586687 
   50700    982.28596   -107.38415   0.88879298   -106.49536   -2181.9075    4.3420352    4.3420352    4.3420352   -2181.9075   -43391.807    46210.774   -9364.6888   -24191.577    33421.122    4357.9804    81.861559 
   50800    1852.1972    -108.1609     1.675907     -106.485   -20610.085    4.3539097    4.3539097    4.3539097   -20610.085   -18041.845   -24644.544   -19143.867    5189.0825    6531.5986    9195.7394    82.535017 
   50900    1509.9859   -107.84726     1.366267     -106.481   -20668.035    4.3536519    4.3536519    4.3536519   -20668.035   -35163.796    -15161.99   -11678.319    2947.1801    7493.0416   -6658.3708    82.520361 
   51000      919.049     -107.317   0.83157485   -106.48542   -10341.323    4.3437601    4.3437601    4.3437601   -10341.323   -33176.795    14568.758   -12415.931   -32725.854    25704.582    8155.1768     81.95916 
   51100    1898.6651   -108.19166    1.7179521   -106.47371   -7143.9078    4.3464529    4.3464529    4.3464529   -7143.9078   -9077.0843   -30038.279     17683.64    4973.3674   -7560.1787    9237.6456     82.11168 
   51200    1343.3035   -107.69881    1.2154493   -106.48336   -7706.9061    4.3483269    4.3483269    4.3483269   -7706.9061   -39029.069   -16512.217    32420.567    -21525.77    18271.965   -11911.428    82.217933 
   51300    950.19036   -107.35323   0.85975221   -106.49348    11849.249    4.3460474    4.3460474    4.3460474    11849.249    490.24238   -7057.2126    42114.718   -11832.441    13592.555    9479.9097    82.088701 
   51400    1883.0011   -108.18965     1.703779   -106.48588   -4535.9964     4.343979     4.343979     4.343979   -4535.9964    8335.0623   -33519.129    11576.077    16727.459   -1764.4469    18503.235     81.97155 
   51500    1638.3055   -107.97135    1.4823732   -106.48897   -5250.1134    4.3465985    4.3465985    4.3465985   -5250.1134   -19208.131   -4280.7439    7738.5343   -15004.471    19619.664   -12794.387    82.119931 
   51600    865.68739   -107.28115   0.78329215   -106.49785   -28141.559    4.3528647    4.3528647    4.3528647   -28141.559   -20518.938   -44557.935   -19347.803    4790.6383    27586.165    26508.289    82.475603 
   51700    1790.2316   -108.10982    1.6198392   -106.48998   -1574.5463    4.3461204    4.3461204    4.3461204   -1574.5463    -22215.01   -29822.928    47314.299    18705.197   -10775.595    7301.6797    82.092838 
   51800    1411.2055   -107.76767    1.2768884   -106.49078    13421.544    4.3526607    4.3526607    4.3526607    13421.544    39275.133   -3642.1131     4631.612   -14131.212    12169.241    550.49395     82.46401 
   51900    914.79709   -107.32752   0.82772763   -106.49979   -32054.735    4.3544765    4.3544765    4.3544765   -32054.735   -9021.4844   -69566.384   -17576.336    19325.508    3570.8706    35786.653    82.567256 
   52000    1568.1736   -107.90514    1.4189165   -106.48623    22719.525    4.3440357    4.3440357    4.3440357    22719.525    43778.344   -20596.232    44976.464      15538.3   -14941.517   -7843.8304     81.97476 
   52100    1501.8197   -107.85721     1.358878   -106.49833   -11318.644    4.3441391    4.3441391    4.3441391   -11318.644   -21448.993    -21964.07    9457.1296     460.6365    19259.589     30671.44    81.980613 
   52200    874.55237   -107.29964   0.79131337   -106.50833    -28538.41    4.3560904    4.3560904    4.3560904    -28538.41   -18764.783   -41486.443   -25364.002    29628.713    7318.7455    22808.988    82.659095 
   52300    2122.8531   -108.40782    1.9208021   -106.48702    615.81517    4.3508517    4.3508517    4.3508517    615.81517    9240.1115   -15115.998    7723.3323   -9357.9511   -17606.374   -5903.5239    82.361235 
   52400      1167.08   -107.55658    1.0559985   -106.50058    4976.9219    4.3470123    4.3470123    4.3470123    4976.9219    -12284.06   -41387.078    68601.904    18052.794    4249.4147    25446.194    82.143389 
   52500    889.35174   -107.30411   0.80470415   -106.49941    19720.019    4.3572859    4.3572859    4.3572859    19720.019    11513.497    -6875.779     54522.34    3927.6759   -13112.251   -9657.6148    82.727172 
   52600    1336.1502   -107.68382    1.2089768   -106.47484     1610.675    4.3670124    4.3670124    4.3670124     1610.675    4931.2114   -36458.822    36359.635   -9470.0482   -22996.932    9715.4177     83.28241 
   52700    1139.7456   -107.49864    1.0312658   -106.46737    -8867.799    4.3534849    4.3534849    4.3534849    -8867.799    2236.3354   -58293.151    29453.418    24229.925   -2862.8916    15358.494    82.510864 
   52800    1345.3355   -107.68295    1.2172878   -106.46566    1128.8042    4.3424447    4.3424447    4.3424447    1128.8042    8851.0525   -5124.3369   -340.30308   -23847.569    2644.3145   -12357.106    81.884725 
   52900    1599.9256   -107.92644    1.4476463   -106.47879    -18678.26     4.351523     4.351523     4.351523    -18678.26   -16199.592   -27395.447   -12439.742    10432.183    2092.2859    26795.241    82.399365 
   53000    1644.4941   -107.96508    1.4879728   -106.47711     -22554.3    4.3616456    4.3616456    4.3616456     -22554.3     -32216.5    -42118.73    6672.3291    8058.2793    2940.8473   -3332.8091    82.975739 
   53100    1252.5257   -107.60585    1.1333116   -106.47253   -37597.277    4.3620977    4.3620977    4.3620977   -37597.277   -42722.233   -18725.084   -51344.513   -20098.773    7435.1856    8640.7988    83.001544 
   53200    1489.9596   -107.81616    1.3481467   -106.46802   -16111.901    4.3447895    4.3447895    4.3447895   -16111.901   -5140.9046   -31366.828   -11827.969    16994.864    947.52473    18641.452    82.017441 
   53300    1800.1087   -108.11136    1.6287762   -106.48259    19858.206    4.3401682    4.3401682    4.3401682    19858.206    45556.077   -18100.238     32118.78    2601.6324    13257.584   -18186.418    81.756011 
   53400    1516.5272   -107.87117    1.3721857   -106.49898    3206.6246    4.3496924    4.3496924    4.3496924    3206.6246    34062.831   -23284.008   -1158.9489    -5313.086    5553.3855    25616.689    82.295412 
   53500    685.46323   -107.13434   0.62022154   -106.51412   -5809.0465    4.3553817    4.3553817    4.3553817   -5809.0465    44195.128    -51492.01   -10130.257    21717.946    3081.0967    -4896.028     82.61876 
   53600    1679.7965   -108.01152    1.5199151    -106.4916    21906.324    4.3525784    4.3525784    4.3525784    21906.324     39654.74   -459.13823    26523.369    2886.1276    2009.4849   -4193.4947    82.459331 
   53700    1924.2397   -108.23472    1.7410925   -106.49363    5869.7167     4.337863     4.337863     4.337863    5869.7167    12035.789   -23018.605    28591.966   -5649.4079   -18205.767    14669.471     81.62581 
   53800    624.83758   -107.08759   0.56536617   -106.52222   -4906.2542     4.340492     4.340492     4.340492   -4906.2542     14412.96   -39060.675    9928.9517    18825.976   -1073.6344   -26649.812    81.774306 
   53900    1798.9884   -108.13803    1.6277625   -106.51027    -5116.931    4.3512945    4.3512945    4.3512945    -5116.931   -7218.3966   -4036.4915   -4095.9048   -5501.5437   -18432.888    11653.292    82.386382 
   54000    1631.0758    -107.9765    1.4758317   -106.50067   -8005.1947    4.3563663    4.3563663    4.3563663   -8005.1947    13328.808   -57933.319    20588.927     9466.867    6026.6541   -22540.941    82.674803 
   54100    998.31073   -107.40368   0.90329253   -106.50039   -8752.0415    4.3445495    4.3445495    4.3445495   -8752.0415   -7101.8183   -25242.653    6088.3469    14997.426    1801.5839   -3932.6509    82.003853 
   54200    1190.7185   -107.57909    1.0773871    -106.5017    4695.0696    4.3383269    4.3383269    4.3383269    4695.0696    5509.0783    16940.287   -8364.1559   -4219.7318    7805.2022     9021.611       81.652 
   54300    2063.4412   -108.36847     1.867045   -106.50143    1138.3373    4.3440391    4.3440391    4.3440391    1138.3373   -17777.897   -20761.801     41954.71      9497.51    863.29651   -19650.974    81.974955 
   54400    959.95672   -107.38497   0.86858902   -106.51638   -2114.5389    4.3544042    4.3544042    4.3544042   -2114.5389    28402.664   -3274.6916   -31471.589   -5863.9724   -2445.2184    6671.0119    82.563146 
   54500    1275.6316   -107.66261    1.1542183   -106.50839    -20968.99    4.3524609    4.3524609    4.3524609    -20968.99   -38932.334    12218.432   -36193.068   -1614.1971    13135.397   -1489.7936    82.452655 
   54600    1612.4739    -107.9514    1.4590002    -106.4924    39775.268    4.3408362    4.3408362    4.3408362    39775.268    45482.771    4839.1068    69003.926   -2554.5398    -11999.97   -7175.1318    81.793766 
   54700    1166.0869   -107.56443    1.0550999   -106.50933   -11423.683    4.3488652    4.3488652    4.3488652   -11423.683   -51610.104    19219.826   -1880.7709    2185.2171     14189.55      3231.32    82.248471 
   54800     1268.382   -107.64886    1.1476587    -106.5012   -3241.7595    4.3491694    4.3491694    4.3491694   -3241.7595   -7484.0818   -275.86247   -1965.3343    1140.5139    13919.575    437.77784    82.265732 
   54900    1460.2612   -107.81214     1.321275   -106.49087    11878.181    4.3526994    4.3526994    4.3526994    11878.181     23237.65    -14427.95    26824.843     969.0232   -10387.035   -11792.986    82.466206 
   55000    1502.4617   -107.85104     1.359459   -106.49158   -16937.054    4.3490114    4.3490114    4.3490114   -16937.054   -46163.379    20472.012   -25119.795    2556.5405    24956.479    4058.4479    82.256769 
   55100    1202.8962   -107.57928    1.0884058   -106.49087    32147.309    4.3359665    4.3359665    4.3359665    32147.309    45981.625    11144.692    39315.609    2957.2799   -5271.7664   -3582.6724    81.518793 
   55200    1231.5405   -107.61343    1.1143237   -106.49911   -20116.894    4.3559496    4.3559496    4.3559496   -20116.894   -32134.256   -42841.732    14625.305    10320.411    2630.3639   -4728.6933    82.651084 
   55300    1272.4364   -107.64334    1.1513272   -106.49201    5479.5759    4.3470346    4.3470346    4.3470346    5479.5759   -26805.385    16216.898    27027.215    1907.6065     27459.43    8045.0583     82.14465 
   55400    1812.0791   -108.12368    1.6396073   -106.48407    10447.228    4.3418419    4.3418419    4.3418419    10447.228    23686.824    -8664.104    16318.964    5409.2577   -8055.5428    -6304.087    81.850631 
   55500    1036.3191   -107.44326   0.93768333   -106.50558   -10665.809    4.3437879    4.3437879    4.3437879   -10665.809   -26191.157   -12750.933    6944.6642    15972.467    22491.277   -3529.7333    81.960734 
   55600    1239.6552   -107.63198    1.1216661   -106.51031    20258.353    4.3451666    4.3451666    4.3451666    20258.353    4936.3678    21465.776    34372.915   -4517.5637     39260.05    2455.5064    82.038802 
   55700    1972.8211   -108.27483      1.78505   -106.48978   -6073.5295    4.3602733    4.3602733    4.3602733   -6073.5295    12437.778   -16354.241   -14304.126    13478.942   -16428.351   -15354.418    82.897442 
   55800    845.16903     -107.265    0.7647267   -106.50027   -15732.703    4.3474473    4.3474473    4.3474473   -15732.703     -43566.3    7672.2419    -11304.05    1358.0662    50099.071    5979.1427    82.168047 
   55900    1648.7496   -107.98205    1.4918233   -106.49022    15670.849    4.3424795    4.3424795    4.3424795    15670.849    46543.072   -9531.8116    10001.287   -13205.544   -20835.467   -2455.7508     81.88669 
   56000    1809.9596   -108.12358    1.6376894   -106.48589     8153.998    4.3441048    4.3441048    4.3441048     8153.998   -5780.3063   -164.95979     30407.26   -1766.4235    26431.544    -3025.965    81.978672 
   56100    949.88529   -107.35575   0.85947617   -106.49628   -12464.744    4.3556181    4.3556181    4.3556181   -12464.744    8226.1692   -26891.795   -18728.606    435.35669    25184.622    7367.9819    82.632213 
   56200    1535.1188   -107.86219    1.3890077   -106.47318   -3567.9582    4.3620141    4.3620141    4.3620141   -3567.9582    18136.823   -30668.904    1828.2066   -10010.699   -13056.969    747.97049    82.996773 
   56300    1634.4044    -107.9505    1.4788434   -106.47166   -12784.561    4.3457472    4.3457472    4.3457472   -12784.561   -27177.898    3196.5193   -14372.303    8525.3563    51279.377   -391.46443    82.071692 
   56400    1395.0303    -107.7388    1.2622527   -106.47655    15584.453    4.3370595    4.3370595    4.3370595    15584.453    48086.053   -6527.8405     5195.147    5294.1432   -7439.1827    18499.955    81.580456 
   56500    1357.8511   -107.71374    1.2286122   -106.48512   -10371.327    4.3492049    4.3492049    4.3492049   -10371.327   -11392.426   -12100.757    -7620.798    -4524.622    7016.5483    7869.6706    82.267747 
   56600    1332.4624   -107.69669      1.20564   -106.49105    7083.3357    4.3542822    4.3542822    4.3542822    7083.3357    30652.774    6925.2746   -16328.041    2177.7605    21282.536   -8775.5273    82.556205 
   56700    1538.9921   -107.88064    1.3925124   -106.48813    17828.657    4.3489201    4.3489201    4.3489201    17828.657    52326.564   -13240.265    14399.672   -13841.691   -14723.569    20552.581    82.251587 
   56800    1178.6311   -107.56276    1.0664502   -106.49631    2253.2515    4.3397031    4.3397031    4.3397031    2253.2515    10482.641   -2043.1251   -1679.7612    -612.3163    25438.057   -17565.848    81.729731 
   56900    1522.2779   -107.87315     1.377389   -106.49576    24600.539    4.3465287    4.3465287    4.3465287    24600.539    79386.723    8180.7664   -13765.871   -3696.7442    6456.5089    -3142.107    82.115977 
   57000    1776.1051    -108.0935    1.6070572   -106.48645   -22184.027    4.3598114    4.3598114    4.3598114   -22184.027   -19595.895   -45503.387   -1452.7984   -9233.5454   -5237.5595   -1280.4451    82.871099 
   57100    527.43211   -106.97513   0.47723165   -106.49789    20732.224    4.3451151    4.3451151    4.3451151    20732.224    103185.99   -13785.335   -27203.981    149.83295    28293.538   -30376.628    82.035884 
   57200    2126.3697   -108.39767     1.923984   -106.47368    11474.958    4.3437028    4.3437028    4.3437028    11474.958    6425.0129   -10170.074    38169.935   -795.69618    -4694.754    6243.9201    81.955915 
   57300    1342.3596   -107.70331    1.2145952   -106.48871    -8470.582    4.3528081    4.3528081    4.3528081    -8470.582    37315.704   -45279.165   -17448.285   -12410.147    6265.7521   -16838.996    82.472384 
   57400    847.55346   -107.26153   0.76688418   -106.49464    11703.961    4.3503872    4.3503872    4.3503872    11703.961    57536.952    -23468.97       1043.9    275.35262    33474.682   -9366.8671    82.334858 
   57500     1811.815   -108.12071    1.6393683   -106.48134    22965.753    4.3458963    4.3458963    4.3458963    22965.753    14469.619   -7499.0115    61926.652   -6982.7719   -11931.576    24611.254    82.080139 
   57600    1528.7945   -107.87584    1.3832854   -106.49255    7240.7865    4.3425662    4.3425662    4.3425662    7240.7865   -773.42663    -19514.74    42010.527    2085.9585    8648.6019   -18128.614    81.891596 
   57700    1341.4671   -107.71899    1.2137876    -106.5052   -15559.713    4.3480617    4.3480617    4.3480617   -15559.713    19824.736   -40803.018   -25700.855    4389.3385    11480.401    16498.488     82.20289 
   57800    1633.3479   -107.98583    1.4778875   -106.50794   -3990.7174     4.345388     4.345388     4.345388   -3990.7174   -5843.2754    -11825.54     5696.663   -5764.1594   -16548.554    10371.367    82.051342 
   57900    1196.3016   -107.60396    1.0824388   -106.52152    16260.342    4.3409928    4.3409928    4.3409928    16260.342    896.48088   -25276.601    73161.146    6115.2425    7691.4925    -254.3305    81.802616 
   58000     1184.772   -107.60061    1.0720066    -106.5286   -10286.853    4.3489505    4.3489505    4.3489505   -10286.853    16461.823   -51463.853    4141.4698    3136.1989    15680.384    25070.223    82.253312 
   58100    1841.8086   -108.18337    1.6665072   -106.51686   -16971.073    4.3492398    4.3492398    4.3492398   -16971.073   -24820.574    -9161.362   -16931.282   -2304.2098   -49867.748    7071.8827    82.269726 
   58200    1438.1651   -107.81145     1.301282   -106.51017    3297.7734    4.3478965    4.3478965    4.3478965    3297.7734   -19083.806   -24163.048    53140.173    7716.4035    4926.2763    5548.6709    82.193524 
   58300    1026.8012   -107.44149   0.92907126   -106.51242   -32747.294    4.3579649    4.3579649    4.3579649   -32747.294    5841.2218   -78926.647   -25156.456   -8102.1386    487.50751    28966.534    82.765854 
   58400    1456.0459   -107.82142     1.317461   -106.50396   -22671.312    4.3515873    4.3515873    4.3515873   -22671.312   -31110.772   -10227.865   -26675.299   -2082.2933    -39302.32   -11947.723    82.403013 
   58500    1997.1192   -108.30625    1.8070354   -106.49922    2226.2187    4.3441244    4.3441244    4.3441244    2226.2187   -23299.095   -14566.264    44544.014    6153.4181    2652.4339    287.23066    81.979783 
   58600    1298.4571   -107.69505    1.1748713   -106.52018   -1125.9657    4.3476333    4.3476333    4.3476333   -1125.9657   -32507.379    -41424.17    70553.652   -15658.642   -8303.3645    4241.3295    82.178595 
   58700    838.02564   -107.28842   0.75826321   -106.53015   -37728.325    4.3597422    4.3597422    4.3597422   -37728.325    -56586.83   -4184.4132    -52413.73   -86.791672   -41172.252   -20968.594    82.867158 
   58800    1952.0633   -108.26941    1.7662679   -106.50315    1019.8329    4.3358967    4.3358967    4.3358967    1019.8329   -8295.1656   -5296.6154     16651.28    3298.2497    22617.273    834.59504     81.51486 
   58900     1296.591   -107.68415    1.1731828   -106.51096    22127.771    4.3333125    4.3333125    4.3333125    22127.771    -19898.89    10481.873    75800.329    -5373.886   -29926.703   -3931.0084    81.369196 
   59000    1090.4491   -107.50532    0.9866613   -106.51866   -7506.0338    4.3527537    4.3527537    4.3527537   -7506.0338   -31558.314   -2103.7288    11143.941   -3515.3198   -14112.234   -18936.532    82.469293 
   59100     1780.121   -108.11537    1.6106909   -106.50468   -16827.755    4.3546915    4.3546915    4.3546915   -16827.755   -33390.059   -15829.661   -1263.5451   -1386.6454    30949.831    5881.7319    82.579485 
   59200    1400.7311   -107.76922    1.2674109   -106.50181    17520.807    4.3430479    4.3430479    4.3430479    17520.807    7925.0737   -15655.968    60293.316   -2996.0872   -24610.203    6218.0055    81.918855 
   59300    1175.1807   -107.57453    1.0633282    -106.5112    90.469371    4.3413236    4.3413236    4.3413236    90.469371   -17025.242    5176.5748    12120.075   -6859.1131   -1103.4727   -25515.486    81.821321 
   59400    1302.7262   -107.69604    1.1787341   -106.51731   -14567.754    4.3496745    4.3496745    4.3496745   -14567.754    7105.2208   -17710.875    -33097.61   -2223.6166    28518.651     31096.58    82.294397 
   59500    1603.3908   -107.95636    1.4507816   -106.50557    18353.765    4.3584401    4.3584401    4.3584401    18353.765     14297.92   -29876.453    70639.828   -5791.0705   -5527.3307    7150.5106    82.792926 
   59600    1381.3982   -107.75894    1.2499182   -106.50902   -15923.483    4.3567541    4.3567541    4.3567541   -15923.483   -18684.062   -13186.936   -15899.451   -2043.3273    28402.332   -6351.8996    82.696884 
   59700    797.96184   -107.22743   0.72201264   -106.50542    21738.735    4.3389576    4.3389576    4.3389576    21738.735    63736.952   -11404.014    12883.266   -6710.1148    27334.765    37500.745    81.687616 
   59800    2060.8663   -108.35001    1.8647152   -106.48529    17056.911    4.3542454    4.3542454    4.3542454    17056.911    20331.508   -1259.8842     32099.11   -8116.8955   -2119.6817   -1773.0006    82.554111 
   59900    1250.5247    -107.6234     1.131501    -106.4919   -10885.253    4.3640168    4.3640168    4.3640168   -10885.253   -24183.123     9566.877   -18039.512    -8638.015    14561.151    30848.334     83.11114 
   60000    785.11294   -107.19495   0.71038669   -106.48457    11411.043    4.3633239    4.3633239    4.3633239    11411.043    11972.628    9608.9479    12651.552   -1611.0254   -10337.724    6480.3088    83.071556 
   60100    1716.4029    -108.0113    1.5530374   -106.45826    13022.878    4.3587682    4.3587682    4.3587682    13022.878    1355.7865    10291.357     27421.49    -5561.825   -7911.9525   -13723.807    82.811625 
   60200    1127.0376   -107.49217    1.0197673   -106.47241    16985.774    4.3448368    4.3448368    4.3448368    16985.774    13456.671    27129.302    10371.347   -15644.457    5626.7075    25078.073    82.020123 
   60300      1061.95   -107.45827   0.96087467    -106.4974    4521.7002     4.345803     4.345803     4.345803    4521.7002    23240.422     15960.86   -25636.181   -11954.098   -22496.529   -7707.4334    82.074854 
   60400    1608.7451   -107.94532    1.4556264    -106.4897    6049.6741    4.3617257    4.3617257    4.3617257    6049.6741   -8462.7965     21730.71    4881.1084   -8738.7193   -18364.087   -10187.937     82.98031 
   60500    1743.6016   -108.05958    1.5776474   -106.48193   -21441.268    4.3645061    4.3645061    4.3645061   -21441.268   -26314.817   -26690.349   -11318.637   -4925.8627    7714.9951    24399.761    83.139096 
   60600    808.29782   -107.22349   0.73136486   -106.49212   -11823.129    4.3499376    4.3499376    4.3499376   -11823.129   -14145.129   -181.42531   -21142.833    -5738.676   -25305.666   -19927.818    82.309333 
   60700    2003.7029   -108.29728    1.8129925   -106.48429     8987.797    4.3394254    4.3394254    4.3394254     8987.797   -14425.819    23764.881     17624.33    2917.4895     8825.723   -8891.6927    81.714042 
   60800    1537.0487   -107.89158    1.3907539   -106.50082    15976.873    4.3511733    4.3511733    4.3511733    15976.873   -31712.212    40577.565    39065.266     1907.348   -7330.5461    320.84959    82.379496 
   60900    673.13727   -107.11936   0.60906875   -106.51029   -5884.6441    4.3636026    4.3636026    4.3636026   -5884.6441   -35019.728    56888.245    -39522.45    5315.8353   -2112.7968   -35381.149    83.087477 
   61000    1649.9205   -107.97792    1.4928827   -106.48504   -323.31842     4.360372     4.360372     4.360372   -323.31842   -44503.855      4656.31     38877.59    6018.1904    29161.889     19205.01    82.903075 
   61100    1920.1169   -108.21243    1.7373621   -106.47507    19180.088    4.3356567    4.3356567    4.3356567    19180.088   -7155.4671    36813.716    27882.013    11802.077   -9317.7323   -5734.9846    81.501322 
   61200    1021.6607   -107.42859   0.92442005   -106.50417    -3263.073    4.3390804    4.3390804    4.3390804    -3263.073    -35304.04   -4194.4459    29709.267    4408.3605    21001.124   -18642.252    81.694552 
   61300    1417.7686   -107.78533    1.2828269    -106.5025   -38334.605    4.3660089    4.3660089    4.3660089   -38334.605   -48759.726   -26192.716   -40051.372    3825.5221    11456.129    27572.698    83.225012 
   61400    2017.4199   -108.30655     1.825404   -106.48115   -10011.487     4.356885     4.356885     4.356885   -10011.487    -19363.29   -4702.5728    -5968.598    11639.992   -7.1887506   -6811.9516    82.704337 
   61500    1103.4163   -107.50166   0.99839424   -106.50327   -1844.4507    4.3411971    4.3411971    4.3411971   -1844.4507   -22288.533    26062.924   -9307.7439     254.9427    30792.196   -10280.005    81.814167 
   61600    954.66932   -107.37956   0.86380486   -106.51576    36336.317    4.3328552    4.3328552    4.3328552    36336.317    15620.892    53981.511    39406.548    13507.877   -8268.6137    36258.517     81.34344 
   61700     1885.264   -108.21904    1.7058265   -106.51321   -2308.4618    4.3597667    4.3597667    4.3597667   -2308.4618   -32374.623    15516.516    9932.7223    3158.1946    4642.2021    14309.621    82.868554 
   61800     1331.633   -107.71317    1.2048895   -106.50828    17266.552    4.3552312    4.3552312    4.3552312    17266.552   -6554.0962    2915.5506    55438.202    6107.3769    7301.1091    16382.894    82.610193 
   61900    968.87818   -107.38974   0.87666134   -106.51308   -23885.834    4.3412473    4.3412473    4.3412473   -23885.834   -10610.605   -26560.882   -34486.015    1617.6826   -28699.592    33060.533    81.817004 
   62000    1841.2076   -108.17545    1.6659633   -106.50949    14930.092    4.3427472    4.3427472    4.3427472    14930.092   -12178.654    48218.511    8750.4179   -6334.3166    957.71974   -22014.626     81.90184 
   62100    1324.5246   -107.71638    1.1984577   -106.51792    12178.668     4.356704     4.356704     4.356704    12178.668   -13632.024    31830.805    18337.223   -7693.1279   -8431.3062    14322.373    82.694028 
   62200    832.25369   -107.26903   0.75304063   -106.51599   -17250.758    4.3603348    4.3603348    4.3603348   -17250.758   -39300.215    30641.353   -43093.413   -8943.9738    -17880.91    17322.518    82.900953 
   62300    1553.5681   -107.89643     1.405701   -106.49073     8685.856    4.3508592    4.3508592    4.3508592     8685.856   -39314.624    20821.506    44550.685   -5917.8702    23980.921   -30251.826    82.361658 
   62400    2043.3476   -108.33066    1.8488638    -106.4818   -13585.607    4.3530216    4.3530216    4.3530216   -13585.607   -20905.515   -5752.6296   -14098.675    -4236.996   -17653.723    25190.231    82.484522 
   62500    995.59469   -107.39058     0.900835   -106.48975   -4059.2928     4.357028     4.357028     4.357028   -4059.2928   -15513.273   -15591.435     18926.83   -6248.0843    8799.6836    399.26954    82.712482 
   62600    1403.1066   -107.76227    1.2695604   -106.49271   -22923.246    4.3577723    4.3577723    4.3577723   -22923.246   -38200.032     1296.297   -31866.004   -6226.3979     26386.53   -18861.644     82.75488 
   62700    2271.3554   -108.52951    2.0551701   -106.47434    13912.884    4.3468616    4.3468616    4.3468616    13912.884    14541.164   -12616.015    39813.501   -11723.503   -16007.518    19168.694    82.134844 
   62800    952.98009   -107.36359   0.86227642   -106.50132    -45335.77    4.3627114    4.3627114    4.3627114    -45335.77   -55313.998    -31534.95   -49158.362   -4300.1737    28276.006   -21899.307    83.036582 
   62900    1440.8691   -107.79962    1.3037287    -106.4959    -30859.03    4.3561536    4.3561536    4.3561536    -30859.03   -29689.902   -30681.792   -32205.396   -7956.8175    945.21493    1212.6483    82.662692 
   63000    2086.1782   -108.36405    1.8876178   -106.47643   -10772.279    4.3572381    4.3572381    4.3572381   -10772.279   -13813.391    -25649.55    7146.1036   -11210.452   -1198.2267    2293.4408    82.724448 
   63100    1374.9536   -107.71659    1.2440869   -106.47251   -38646.759    4.3669184    4.3669184    4.3669184   -38646.759   -37281.743   -37153.201   -41505.331   -8286.5611    34694.989   -23566.443    83.277031 
   63200    1110.7802   -107.47386    1.0050573    -106.4688   -3322.2834    4.3584618    4.3584618    4.3584618   -3322.2834   -16659.797   -24221.844     30914.79   -12397.101   -18546.128    18370.411    82.794167 
   63300     2069.449   -108.33605    1.8724809   -106.46357   -18344.036    4.3524884    4.3524884    4.3524884   -18344.036   -13261.669   -37162.933    -4607.506   -7955.0288    67.244719   -8012.7422    82.454219 
   63400    1411.3498   -107.75501    1.2770189   -106.47799    16959.196    4.3464011    4.3464011    4.3464011    16959.196   -27149.972   -5191.6141    83219.175   -7145.9361    8875.0078   -9327.1825    82.108742 
   63500    1116.2377   -107.51365    1.0099953   -106.50366   -34847.466    4.3608082    4.3608082    4.3608082   -34847.466   -40402.061   -29364.869   -34775.467   -4065.4938   -27430.437    44260.814    82.927955 
   63600    2014.5382   -108.30787    1.8227965   -106.48507     3322.574    4.3597415    4.3597415    4.3597415     3322.574   -24516.123   -8832.8693    43316.714    -10931.81    541.96415    4410.4749    82.867114 
   63700    1629.1735   -107.96013    1.4741105   -106.48602     -8191.46    4.3460041    4.3460041    4.3460041     -8191.46   -22374.932   -8032.5333    5833.0856   -2529.0915   -10992.147    11104.059    82.086249 
   63800    796.23678   -107.22916   0.72045177   -106.50871   -31641.323    4.3449011    4.3449011    4.3449011   -31641.323   -7297.5997    -24003.26   -63623.108    -538.4617    -15052.38    36082.452    82.023762 
   63900    1835.9487   -108.16525    1.6612049   -106.50404    7319.4521    4.3548595    4.3548595    4.3548595    7319.4521   -960.19649   -13084.413    36002.966    -3775.368     15951.06   -20245.938    82.589043 
   64000    1799.3835   -108.11619      1.62812   -106.48807   -38031.704    4.3706688    4.3706688    4.3706688   -38031.704   -24284.742   -56657.805   -33152.565    -2229.918    -12648.09    25699.406    83.491777 
   64100    1014.8102   -107.39546   0.91822164   -106.47724     13813.07    4.3525624    4.3525624    4.3525624     13813.07    3700.1566   -20130.413    57869.466   -2117.5134   -19364.838   -88.062076    82.458423 
   64200    1609.8775   -107.92556     1.456651   -106.46891    4020.2571    4.3490625    4.3490625    4.3490625    4020.2571    13764.723   -8180.0521    6476.1002   -6778.0342    18986.629   -16729.752    82.259669 
   64300    1490.5737   -107.82038    1.3487024   -106.47168    3626.7952    4.3603515    4.3603515    4.3603515    3626.7952    9274.3092   -25261.878    26867.954    -3042.712   -25742.295    21768.502    82.901902 
   64400    1055.5139   -107.43671   0.95505114   -106.48166   -3673.1942    4.3560807    4.3560807    4.3560807   -3673.1942    49350.918   -5487.7279   -54882.773   -8363.9008   -10506.418   -6945.6673    82.658544 
   64500     1387.731     -107.739    1.2556482   -106.48335    5737.2609    4.3493304    4.3493304    4.3493304    5737.2609    19988.954   -7585.7965    4808.6253   -8259.6019    29895.551   -12534.343    82.274872 
   64600    1871.6018   -108.17688    1.6934647   -106.48342    10667.186    4.3480894    4.3480894    4.3480894    10667.186    46562.855   -13373.071    -1188.225    4500.8017   -14013.819    11575.471    82.204461 
   64700    969.10276   -107.37904   0.87686454   -106.50218   -11692.123     4.350202     4.350202     4.350202   -11692.123   -28654.898   -6100.0733   -321.39742   -1215.8023    11353.203   -22954.695    82.324345 
   64800    1484.5259   -107.84736    1.3432302   -106.50413    4934.4613    4.3485569    4.3485569    4.3485569    4934.4613   -18701.243    7313.9445    26190.683   -6007.0231    24370.144    4745.7903    82.230982 
   64900    1797.1624   -108.11972    1.6261103   -106.49361    7316.8909    4.3517637    4.3517637    4.3517637    7316.8909    30345.139   -31535.095    23140.629    4773.0944   -10440.082   -2572.7059    82.413036 
   65000    1204.0258   -107.58928    1.0894279   -106.49985    11012.889    4.3387612    4.3387612    4.3387612    11012.889     4194.929   -1027.7069    29871.444     4759.818    32539.484   -29574.834    81.676523 
   65100    1169.2426   -107.57257    1.0579553   -106.51462   -11451.164    4.3516927    4.3516927    4.3516927   -11451.164    24931.844   -37473.518   -21811.817   -5420.5582    11178.383    23757.027    82.409001 
   65200    1857.1913   -108.17477    1.6804257   -106.49434   -7931.9074    4.3560457    4.3560457    4.3560457   -7931.9074    5480.6738   -45134.747    15858.351    2730.5786   -10421.273     6408.836    82.656551 
   65300    1279.2408   -107.65394     1.157484   -106.49646   -13889.028    4.3530623    4.3530623    4.3530623   -13889.028   -3250.0325   -4451.9481   -33965.104    1238.3116    32747.924   -5070.7227    82.486838 
   65400    1180.9014   -107.56857    1.0685044   -106.50007    -28217.09    4.3496824    4.3496824    4.3496824    -28217.09   -10828.535   -29837.361   -43985.373   -16006.891   -11935.975    23580.124     82.29485 
   65500    1692.0583   -108.02567    1.5310099   -106.49466    27558.661    4.3421525    4.3421525    4.3421525    27558.661    50279.552   -11333.868    43730.301   -4142.6041    -21793.69    2647.0023    81.868192 
   65600    1269.5963   -107.65856    1.1487574    -106.5098   -2838.3668    4.3539894    4.3539894    4.3539894   -2838.3668    25464.965   -20256.148   -13723.916    -4407.879    36000.088    7523.2376    82.539549 
   65700    1066.7216   -107.47061   0.96519211   -106.50542    924.47119    4.3485327    4.3485327    4.3485327    924.47119    3528.4393   -18426.354    17671.328   -12571.721   -14408.859    13925.293    82.229607 
   65800    1736.3087   -108.06959    1.5710486   -106.49854      16009.7    4.3545174    4.3545174    4.3545174      16009.7    2070.0893   -2580.6005    48539.612   -307.74996   -21515.272   -5391.7412    82.569583 
   65900    1861.9652   -108.17981    1.6847452   -106.49507   -2526.6084     4.352233     4.352233     4.352233   -2526.6084   -3321.9965   -33571.741    29313.912   -3057.8969    11223.303    3417.0042    82.439699 
   66000    888.35897   -107.31002   0.80380586   -106.50621    14687.906    4.3466749    4.3466749    4.3466749    14687.906    17069.709    25385.765    1608.2442   -13483.768   -31489.981    6533.8709    82.124261 
   66100    1565.6064   -107.91479    1.4165936    -106.4982   -5683.8372    4.3642361    4.3642361    4.3642361   -5683.8372    33892.429   -30029.731   -20914.209   -2623.9714    3686.5188   -13552.622    83.123668 
   66200    1664.5834   -107.99056    1.5061501   -106.48441    5982.0757    4.3545412    4.3545412    4.3545412    5982.0757    33880.008   -20767.043    4833.2616    -4652.828   -10750.394    4897.5742    82.570935 
   66300    1030.7585   -107.43253   0.93265195   -106.49987   -25649.904    4.3437093    4.3437093    4.3437093   -25649.904   -48835.297    38753.477   -66867.891   -11380.525   -35163.055    -2374.657    81.956282 
   66400     1705.001   -108.04767    1.5427207   -106.50495   -13209.545    4.3460094    4.3460094    4.3460094   -13209.545   -1963.3905   -32265.377   -5399.8693    3110.4715    8918.3528   -19542.673    82.086548 
   66500    1692.6301   -108.03435    1.5315273   -106.50282   -19494.744    4.3667583    4.3667583    4.3667583   -19494.744   -19840.682   -22650.404   -15993.146    5689.6771   -18392.571    22152.581    83.267873 
   66600    1097.1358   -107.49305   0.99271155   -106.50034   -26080.119     4.359377     4.359377     4.359377   -26080.119   -24907.918     8445.083   -61777.522   -10719.846   -17136.085   -11605.053    82.846332 
   66700    997.22698    -107.3969   0.90231193   -106.49459    35749.532    4.3354663    4.3354663    4.3354663    35749.532    34306.922   -11879.422    84821.096    9507.1788    35744.781   -18288.426    81.490586 
   66800    2262.0478   -108.53374    2.0467484   -106.48699    1617.3689    4.3468333    4.3468333    4.3468333    1617.3689    3538.5918   -6615.9415    7929.4565   -969.84347   -11786.015    1222.4076    82.133242 
   66900    785.32236   -107.22195   0.71057617   -106.51138    16286.681    4.3527721    4.3527721    4.3527721    16286.681    3186.5011   -21595.501    67269.042    16525.064    13395.973   -16716.737     82.47034 
   67000    1043.8269   -107.46342   0.94447652   -106.51894    -36025.99    4.3603065    4.3603065    4.3603065    -36025.99   -70485.314   -31901.162   -5691.4934    11268.633    28853.968   -12511.664    82.899335 
   67100     2075.023   -108.37365    1.8775244   -106.49613    22067.927    4.3401093    4.3401093    4.3401093    22067.927    8183.1588    22249.043    35771.579    -4211.742    1183.2997    15452.424    81.752679 
   67200    1173.7351   -107.58389    1.0620201   -106.52187   -8742.0246    4.3485783    4.3485783    4.3485783   -8742.0246   -1904.5004     6941.895   -31263.468     3993.577    17596.121   -31270.565    82.232195 
   67300    1182.0966   -107.57622    1.0695859   -106.50664   -34454.528    4.3675517    4.3675517    4.3675517   -34454.528   -78007.754    20959.219   -46315.049   -18350.821    9874.1089    5950.8404    83.313268 
   67400    1836.2494   -108.14703    1.6614771   -106.48555    5311.9597    4.3553927    4.3553927    4.3553927    5311.9597    18727.527    25403.074   -28194.722   -8839.1493   -14377.409   -15265.251    82.619384 
   67500     1597.833   -107.93498    1.4457529   -106.48923    3996.6015    4.3467235    4.3467235    4.3467235    3996.6015   -1109.5787      39074.2   -25974.817    13264.981    21394.108   -9510.6947    82.127016 
   67600    903.14255   -107.31669   0.81718236   -106.49951    4408.0311     4.341127     4.341127     4.341127    4408.0311   -19370.348    40535.182   -7940.7406    6092.7236   -24726.067    -3467.469    81.810205 
   67700    1274.1163   -107.66426    1.1528472   -106.51142    1742.7599    4.3596444    4.3596444    4.3596444    1742.7599   -6884.9398    26294.236   -14181.017   -4997.1321    77.343329   -8069.6188     82.86158 
   67800    1965.7254   -108.27147    1.7786296   -106.49284    -4701.804    4.3580312    4.3580312    4.3580312    -4701.804   -22544.656    486.17446    7953.0691    9459.3954    1564.0302   -7119.4143    82.769629 
   67900    994.33161   -107.39279   0.89969214    -106.4931     22927.64    4.3379459    4.3379459    4.3379459     22927.64   -10068.771    43876.334    34975.357   -9358.3562   -34741.644   -2996.7992    81.630487 
   68000    1393.0419   -107.76417    1.2604535   -106.50371   -6835.4234    4.3574294    4.3574294    4.3574294   -6835.4234    391.84314   -28305.598    7407.4852   -5950.8429    6234.3518   -4591.2143    82.735342 
   68100     1976.378   -108.27212    1.7882683   -106.48385    715.34678    4.3578874    4.3578874    4.3578874    715.34678    14462.892    10843.804   -23160.655   -3919.0984    -15442.06   -8377.8951    82.761434 
   68200    693.97037   -107.13064   0.62791897   -106.50272    8083.6532    4.3474105    4.3474105    4.3474105    8083.6532   -3239.9334   -4538.1295    32029.023   -3130.9435   -14010.907    2393.7719     82.16596 
   68300    1662.0508   -108.00308    1.5038585   -106.49922   -11491.375    4.3474303    4.3474303    4.3474303   -11491.375   -6828.0311    1563.7052     -29209.8    629.11742     11063.38   -29028.154    82.167083 
   68400    1681.3671   -108.01494    1.5213362    -106.4936    9906.5781    4.3589297    4.3589297    4.3589297    9906.5781    3910.1978   -11994.659    37804.195    5834.6941    10288.878    18476.302    82.820835 
   68500    1391.2743   -107.74873    1.2588542   -106.48988   -20059.308    4.3566398    4.3566398    4.3566398   -20059.308   -18986.874   -14085.288   -27105.764   -3235.6322   -21010.367   -13363.182    82.690376 
   68600    957.75061   -107.35575   0.86659288   -106.48915    29942.237    4.3436861    4.3436861    4.3436861    29942.237     38412.81    25477.625    25936.275    2688.8756    35674.098   -4384.6981    81.954973 
   68700    2065.9525   -108.35069    1.8693172   -106.48137   -5098.3676    4.3505008    4.3505008    4.3505008   -5098.3676    21100.288   -22604.151   -13791.239    289.36417    1841.9614    20649.292    82.341308 
   68800    1073.2386   -107.47377   0.97108884   -106.50268   -2302.1038    4.3512118    4.3512118    4.3512118   -2302.1038   -13427.005    20158.069   -13637.376   -7821.2472    7879.4155   -20459.286    82.381684 
   68900    1255.3829   -107.64909    1.1358969    -106.5132   -13670.677    4.3542961    4.3542961    4.3542961   -13670.677   -24864.692    4607.0474   -20754.386     4550.109    39406.957    16096.693    82.556993 
   69000      1974.67   -108.27744    1.7867229   -106.49072    2905.1745    4.3553931    4.3553931    4.3553931    2905.1745    9042.9844   -4330.1881    4002.7272   -7131.2646   -16713.306   -10837.201    82.619408 
   69100    994.97591    -107.3989   0.90027511   -106.49863    13300.234    4.3472786    4.3472786    4.3472786    13300.234    35973.064    51684.858    -47757.22   -8355.5472    35745.897   -14706.055    82.158485 
   69200    1326.1594   -107.69863    1.1999369   -106.49869    -12393.32    4.3545736    4.3545736    4.3545736    -12393.32   -39708.989   -9841.2008     12370.23     13522.54    7954.0431    5409.2364     82.57278 
   69300    1664.9948     -107.991    1.5065223   -106.48448   -8181.8509    4.3536951    4.3536951    4.3536951   -8181.8509   -9341.1573   -2974.8618   -12229.534    19850.213    6507.4767   -22361.134    82.522817 
   69400    1504.3739   -107.84615    1.3611891   -106.48496    -23079.43    4.3564101    4.3564101    4.3564101    -23079.43   -27219.666    1890.3113   -43908.936   -5964.2819    36207.568   -4428.8567    82.677296 
   69500    1154.0879    -107.5318     1.044243   -106.48756   -25272.877    4.3613255    4.3613255    4.3613255   -25272.877   -64655.118   -31751.042     20587.53    26167.584   -10012.345   -1874.5137    82.957469 
   69600    1471.5213   -107.80223    1.3314634   -106.47076    9682.5404    4.3433114    4.3433114    4.3433114    9682.5404    10544.638    30738.422    -12235.44    626.49019    11667.844   -11745.842    81.933765 
   69700    1257.8901    -107.6197    1.1381654   -106.48153   -6198.7785    4.3524715    4.3524715    4.3524715   -6198.7785   -7250.7495    6654.6617   -18000.248    7393.2325    19783.262    9945.6469    82.453254 
   69800    1456.6308   -107.79934    1.3179902   -106.48135   -23349.238    4.3579855    4.3579855    4.3579855   -23349.238   -46897.513     -40104.4    16954.199    15815.872   -10532.453   -118.00796    82.767023 
   69900     1425.284   -107.76635    1.2896269   -106.47672    30606.084     4.350298     4.350298     4.350298    30606.084    15496.936    79162.526   -2841.2103   -1020.1715     2740.962    12734.685    82.329794 
   70000    1228.1495   -107.59867    1.1112555   -106.48741   -19498.476     4.364128     4.364128     4.364128   -19498.476   -73311.422    20778.273   -5962.2801    15928.639   -7862.3602    26247.684    83.117495 
   70100    1389.4696   -107.73079    1.2572213   -106.47357   -7212.1612    4.3692915    4.3692915    4.3692915   -7212.1612   -57802.384    12293.847    23872.053   -12808.746   -2945.7503    5642.6255    83.412868 
   70200    2010.1487   -108.26746    1.8188248   -106.44863   -15114.179    4.3673878    4.3673878    4.3673878   -15114.179   -22005.936   -4543.9138   -18792.688   -1583.6334    1985.7974    32081.428    83.303889 
   70300    1183.4959   -107.53006    1.0708519    -106.4592   -22016.417    4.3591399    4.3591399    4.3591399   -22016.417   -60511.689   -40965.156    35427.595    4311.7242   -7060.3869    2886.6063    82.832812 
   70400    1827.2063   -108.11446    1.6532947   -106.46117    5440.9764    4.3560043    4.3560043    4.3560043    5440.9764    16081.372    1706.8466   -1465.2898   -28039.376    10136.647    4486.4237    82.654197 
   70500    1522.8906   -107.84645    1.3779435    -106.4685   -16551.903    4.3647022    4.3647022    4.3647022   -16551.903   -12798.757    -34859.43    -1997.521    28867.215    1388.8106    15983.158    83.150305 
   70600    663.89643   -107.08165   0.60070744   -106.48094    9123.0609    4.3520368    4.3520368    4.3520368    9123.0609    10345.039   -11205.442    28229.586   -21069.123   -2423.8925   -4256.5779    82.428555 
   70700    2172.4954   -108.44331    1.9657195   -106.47759   -6985.5504    4.3515378    4.3515378    4.3515378   -6985.5504   -15016.644    8592.9341   -14532.941    4579.7022    8475.6128    3760.4163    82.400204 
   70800    1180.1365   -107.56253    1.0678123   -106.49472    12233.281    4.3486827    4.3486827    4.3486827    12233.281   -2954.0558   -1619.5266    41273.424    5130.4264   -2943.4082   -3297.6735    82.238118 
   70900    1087.9438   -107.48957   0.98439437   -106.50517   -2442.3822    4.3581767    4.3581767    4.3581767   -2442.3822   -13832.563    17483.932   -10978.516   -29265.992   -5671.2394   -2079.3403    82.777922 
   71000    1596.6963   -107.91842    1.4447244   -106.47369    13993.425    4.3682191    4.3682191    4.3682191    13993.425    47355.298   -13722.627    8347.6026    5563.0431    3209.9982   -15153.598    83.351467 
   71100    1153.5395   -107.52114    1.0437468   -106.47739   -7486.3043    4.3471144    4.3471144    4.3471144   -7486.3043   -20629.892   -10504.464    8675.4427   -29724.074   -10421.099    530.71328    82.149175 
   71200    1327.3026   -107.68188    1.2009713    -106.4809    12639.543      4.34306      4.34306      4.34306    12639.543    32391.036    5127.1398    400.45471   -626.21303    -9005.682   -23603.104    81.919534 
   71300    1739.1306   -108.05595    1.5736019   -106.48235   -10967.545    4.3522816    4.3522816    4.3522816   -10967.545   -16435.001     4799.687   -21267.322   -1281.0515   -815.10088    612.43536    82.442466 
   71400    952.12365   -107.36166   0.86150149   -106.50016   -1158.1938    4.3584456    4.3584456    4.3584456   -1158.1938    -68726.81    33988.071    31264.157   -15567.962   -8142.4292   -674.96457    82.793241 
   71500    1692.3938   -108.01864    1.5313135   -106.48733   -25318.827    4.3570008    4.3570008    4.3570008   -25318.827    7259.8031   -34280.217   -48936.068    1930.6872   -1179.6332   -9102.7983    82.710932 
   71600    1410.6936   -107.75926    1.2764252   -106.48283     26519.26    4.3331732    4.3331732    4.3331732     26519.26   -1470.6932    66087.322    14941.152   -3372.1596   -746.14398     22011.64     81.36135 
   71700    1246.5648   -107.62961    1.1279181   -106.50169   -4432.1578    4.3493285    4.3493285    4.3493285   -4432.1578    4209.2191   -23102.664    5596.9718   -11536.925   -5111.2707   -6832.0107    82.274762 
   71800    1359.6433   -107.71991    1.2302338   -106.48968   -13524.199    4.3628115    4.3628115    4.3628115   -13524.199    5193.9163   -18851.158   -26915.355    12697.455    5405.1751    18070.976    83.042298 
   71900    1368.9424   -107.71631    1.2386478   -106.47766   -1678.5551    4.3543411    4.3543411    4.3543411   -1678.5551   -22884.505    38098.855   -20250.016   -20690.024   -6831.7908    7202.5322    82.559557 
   72000    1286.3059   -107.64374    1.1638766   -106.47986   -7983.7827    4.3460875    4.3460875    4.3460875   -7983.7827   -10555.374   -27247.633    13851.659     -12403.6   -10315.236    4317.5668    82.090975 
   72100     1536.718   -107.87885    1.3904548   -106.48839    452.70418    4.3382161    4.3382161    4.3382161    452.70418    -2249.556    50497.796   -46890.127    4094.0878    13234.369     17019.99    81.645743 
   72200     1347.382   -107.72583    1.2191395   -106.50669    -13217.55    4.3610556    4.3610556    4.3610556    -13217.55   -53570.461    12675.194     1242.616   -6753.6696   -16809.758   -15983.246    82.942071 
   72300    1667.4135   -108.00097    1.5087108   -106.49226   -25426.311    4.3558269    4.3558269    4.3558269   -25426.311   -56744.876   -907.79678    -18626.26    15502.858   -1668.0659    7690.6168    82.644095 
   72400    1224.0802   -107.59938    1.1075735    -106.4918    29869.725    4.3346914    4.3346914    4.3346914    29869.725    10396.372      44835.2    34377.603    5043.7043    31455.266    5170.5051      81.4469 
   72500    1391.0864   -107.76691    1.2586842   -106.50823   -12816.895    4.3454303    4.3454303    4.3454303   -12816.895   -20503.252    12650.218   -30597.653   -3524.8115   -2493.0761   -8403.7948     82.05374 
   72600    1367.8216   -107.74322    1.2376337   -106.50558   -3437.8788    4.3677359    4.3677359    4.3677359   -3437.8788   -24746.018      15652.8   -1220.4179    18613.205    1445.7076     6819.961    83.323807 
   72700    1298.6557   -107.65714     1.175051   -106.48209    -20774.87    4.3759067    4.3759067    4.3759067    -20774.87    -4731.373    5801.7256   -63394.961   -14158.691    27361.572   -18546.483    83.792307 
   72800    1204.3418   -107.55755    1.0897138   -106.46784    15646.552    4.3356713    4.3356713    4.3356713    15646.552    8171.1874    35118.883    3649.5859    10073.969   -24607.848   -16466.959    81.502145 
   72900    1108.4914    -107.4837    1.0029863   -106.48071    27468.293     4.331572     4.331572     4.331572    27468.293   -10285.433    63896.093    28794.219    9518.1801    26777.986     4892.348    81.271188 
   73000    1588.6373   -107.92618    1.4374324   -106.48874   -11387.615    4.3564766    4.3564766    4.3564766   -11387.615   -14554.605    14983.739   -34591.979   -8661.7837     11423.26   -5484.7515    82.681085 
   73100    1396.0352   -107.76021     1.263162   -106.49705   -30666.244    4.3634502    4.3634502    4.3634502   -30666.244   -46725.463   -55992.325    10719.056    33339.866    -17512.14    400.29251    83.078773 
   73200    1178.6492   -107.57191    1.0664666   -106.50545   -12515.373    4.3412839    4.3412839    4.3412839   -12515.373   -14282.023   -21515.802   -1748.2938    8393.1462    25866.257    8307.1553    81.819072 
   73300    1596.1133   -107.94235    1.4441969   -106.49816    16944.377     4.325452     4.325452     4.325452    16944.377    14420.469    11002.679    25409.982   -7253.3627    13440.998   -22742.137    80.927193 
   73400    1527.2252    -107.8911    1.3818654   -106.50924   -593.02591    4.3513785    4.3513785    4.3513785   -593.02591    2240.5952   -21107.823    17088.151    23186.145    -9571.659    3363.2826    82.391156 
   73500     1087.874   -107.48299   0.98433123   -106.49866   -32596.425    4.3663119    4.3663119    4.3663119   -32596.425   -69923.807   -27207.264   -658.20373   -20837.951    31853.975   -7504.1063    83.242335 
   73600    1422.9018   -107.77274    1.2874714   -106.48527    4770.0055     4.353132     4.353132     4.353132    4770.0055    30334.792   -21418.901    5394.1256   -9344.8841   -1705.0996   -24025.039    82.490797 
   73700    1707.6301   -108.02975    1.5450996   -106.48465    33836.737    4.3308025    4.3308025    4.3308025    33836.737    8111.0226    55671.337     37727.85   -1362.8345    15169.521    7650.9079    81.227884 
   73800    845.28251   -107.28591   0.76482938   -106.52109      717.219    4.3469847    4.3469847    4.3469847      717.219   -15019.307    15297.433    1873.5311   -26622.877    31124.383   -16403.126    82.141824 
   73900    1658.1482   -107.98878    1.5003274   -106.48846     7491.431    4.3690408    4.3690408    4.3690408     7491.431    21165.761    28026.171   -26717.639    9193.0594   -19722.372   -8298.4915    83.398514 
   74000    1320.1137   -107.67794    1.1944666   -106.48347    4319.0248    4.3552486    4.3552486    4.3552486    4319.0248   -9888.7112    48492.657   -25646.872    811.01739    34978.588   -3488.9873    82.611182 
   74100    1058.5643   -107.44734   0.95781118   -106.48953   -27567.512    4.3355294    4.3355294    4.3355294   -27567.512   -30987.495   -24307.759   -27407.284    -37410.07    108.32198   -24933.392    81.494146 
   74200    1780.7792   -108.11357    1.6112865   -106.50228    15159.795    4.3368243    4.3368243    4.3368243    15159.795    34240.829    10507.161    731.39648     940.9146   -14959.343   -3844.4522    81.567189 
   74300    1424.4058   -107.79685    1.2888323   -106.50802    -8776.378    4.3602346    4.3602346    4.3602346    -8776.378    26293.713   -11130.215   -41492.632   -7052.4547    27763.737    1988.2179    82.895233 
   74400    936.84636   -107.34073   0.84767827   -106.49305   -25996.571    4.3664203    4.3664203    4.3664203   -25996.571     6732.559   -53289.346   -31432.926   -8254.1386   -27519.535   -17597.938    83.248538 
   74500    2005.5991   -108.27686    1.8147082   -106.46215   -13032.023     4.354978     4.354978     4.354978   -13032.023   -22534.894    7512.9385   -24074.114    19654.935      160.962    4385.9058    82.595787 
   74600    1273.1697   -107.62957    1.1519907   -106.47758    116.80659    4.3351659    4.3351659    4.3351659    116.80659    39553.644   -13301.528   -25901.696   -18628.631    19609.584   -20681.643    81.473648 
   74700    1129.9962   -107.52298    1.0224443   -106.50054    17594.822     4.337661     4.337661     4.337661    17594.822    15280.881     48694.11   -11190.526   -22137.848   -14761.613   -6161.6326    81.614408 
   74800      1730.87    -108.0599    1.5661276   -106.49378    1358.2815    4.3608154    4.3608154    4.3608154    1358.2815    14444.948    4194.7073   -14564.811    13392.796     6433.458   -1653.5719    82.928364 
   74900    1132.5627   -107.52856    1.0247665    -106.5038   -24572.405    4.3535615    4.3535615    4.3535615   -24572.405   -3895.8481   -35757.125   -34064.241     -32309.3   -3060.2681   -15776.829    82.515219 
   75000    1223.1624    -107.5978     1.106743   -106.49105    8216.6387     4.329044     4.329044     4.329044    8216.6387    -11198.92    36781.452   -932.61572   -4478.0975   -21753.164    10974.586    81.128979 
   75100    1887.8021   -108.20246     1.708123   -106.49433   -4841.0982    4.3397537    4.3397537    4.3397537   -4841.0982   -4434.0967   -7227.4185   -2861.7792    23935.947    9647.2541   -7320.6281    81.732588 
   75200     991.5926   -107.39636   0.89721383   -106.49915   -28175.219    4.3696654    4.3696654    4.3696654   -28175.219   -9290.6002   -40744.733   -34490.324   -34001.435   -11933.261   -17667.593    83.434286 
   75300    1317.1915   -107.67776    1.1918225   -106.48594   -22543.769    4.3577044    4.3577044    4.3577044   -22543.769    2338.4511   -40366.612   -29603.148    10895.961   -14241.054    15789.151    82.751011 
   75400    1522.4964   -107.84888    1.3775867   -106.47129    30984.095    4.3253313    4.3253313    4.3253313    30984.095    45959.188    27720.183    19272.913    4025.3857    7570.6609   -23444.163    80.920419 
   75500    1522.4126   -107.87083    1.3775109   -106.49332   -5180.7849    4.3417361    4.3417361    4.3417361   -5180.7849    12882.007   -886.34743   -27538.014   -24692.491   -5012.4755    4362.5143    81.844644 
   75600    1088.7776   -107.47957   0.98514884   -106.49442   -42005.782    4.3689031    4.3689031    4.3689031   -42005.782   -54243.013   -22011.861   -49762.472    15430.868    2124.9399    11370.289    83.390626 
   75700    2037.3263   -108.31441    1.8434156     -106.471    -23641.69    4.3555302    4.3555302    4.3555302    -23641.69   -40460.421   -27400.441    -3064.207    20297.018    6666.7241   -25328.576    82.627209 
   75800    1088.9394   -107.45773   0.98529527   -106.47243    4747.5945    4.3361323    4.3361323    4.3361323    4747.5945    38669.376    13173.166   -37599.758   -11926.711   -27500.555    38002.466    81.528146 
   75900    1193.0626   -107.56609    1.0795081   -106.48658    435.73687    4.3296875    4.3296875    4.3296875    435.73687   -12043.304    7187.1071    6163.4077    20069.596    6625.0209   -9432.3059    81.165164 
   76000    1337.0756   -107.71394    1.2098141   -106.50412    11019.013    4.3552434    4.3552434    4.3552434    11019.013     8271.804   -7079.1414    31864.375    17525.181   -1163.1262    13487.672     82.61089 
   76100    1537.6225    -107.8778    1.3912731   -106.48653   -19103.528    4.3632441    4.3632441    4.3632441   -19103.528   -23497.175      5462.45    -39275.86   -2904.6019   -26649.057    30761.961       83.067 
   76200    968.21498   -107.35263   0.87606126   -106.47657    8631.3096    4.3378069    4.3378069    4.3378069    8631.3096   -29790.704    7297.7485    48386.884    29380.632    21887.025   -6733.8278     81.62264 
   76300    1453.4957   -107.79455    1.3151534    -106.4794   -9935.8383    4.3443525    4.3443525    4.3443525   -9935.8383     -14815.8   -27234.009    12242.294   -12926.452   -4623.9828    41241.235    81.992696 
   76400    1736.0611   -108.05314    1.5708245   -106.48232   -9510.7622    4.3473027    4.3473027    4.3473027   -9510.7622   -37486.452    21256.212   -12302.047    4639.6398    4299.0175    3654.3834    82.159848 
   76500    1276.9155   -107.64474      1.15538   -106.48936   -32472.558     4.356081     4.356081     4.356081   -32472.558   -55192.962   -31212.135   -11012.578    7530.7284    26898.818    10835.152    82.658561 
   76600    1163.3145   -107.54204    1.0525915   -106.48945   -23908.018    4.3525406    4.3525406    4.3525406   -23908.018   -21605.895   -57527.793    7409.6359   -33357.888   -403.70876    28416.331     82.45718 
   76700    1820.7265   -108.12505    1.6474316   -106.47762     12312.11    4.3272157    4.3272157    4.3272157     12312.11   -4238.7454    25697.692    15477.384    10858.153    3091.1108    -18638.27    81.026231 
   76800    1030.6929   -107.43698   0.93259262   -106.50439    1753.2527    4.3450186    4.3450186    4.3450186    1753.2527   -6092.2407   -22048.637    33400.635   -11821.331    10533.557    28873.595    82.030419 
   76900    1096.4453   -107.48513   0.99208673   -106.49305    -17275.09    4.3598526    4.3598526    4.3598526    -17275.09    9753.6079   -62359.019    780.14184   -21820.559    -17035.73    11437.716    82.873453 
   77000    1745.2348    -108.0532    1.5791251   -106.47408    1508.4402    4.3452388    4.3452388    4.3452388    1508.4402    16319.666    27675.245    -39469.59    18073.778    16737.306   -16233.882    82.042888 
   77100    938.39005   -107.33694   0.84907504   -106.48787   -9893.2384    4.3456905    4.3456905    4.3456905   -9893.2384    23988.672   -43406.294   -10262.093   -21295.657    13451.234     50070.03    82.068475 
   77200     1604.671   -107.92736      1.45194   -106.47542    1923.2292    4.3423312    4.3423312    4.3423312    1923.2292    14832.891   -34558.797    25495.593   -12538.265    289.36554   -3253.8551    81.878302 
   77300    1430.1999   -107.77492    1.2940749   -106.48084   -17061.326    4.3574442    4.3574442    4.3574442   -17061.326   -26922.411   -14319.653   -9941.9126    16792.906     26783.35    811.24049    82.736187 
   77400     707.3486   -107.12399   0.64002388   -106.48397   -32714.969    4.3616557    4.3616557    4.3616557   -32714.969    -7944.583   -73878.178   -16322.144   -21514.431    1199.5169     46970.37    82.976315 
   77500    2045.4061   -108.31255    1.8507264   -106.46183    25027.318    4.3276005    4.3276005    4.3276005    25027.318    4911.7021    10933.043    59237.208   -5174.4185   -355.26493   -17232.604     81.04785 
   77600    1287.1901    -107.6584    1.1646766   -106.49372   -26379.953    4.3381125    4.3381125    4.3381125   -26379.953   -22814.147   -32458.989   -23866.724   -6965.5816    17606.317    42295.471    81.639897 
   77700    1029.7385   -107.43371   0.93172907   -106.50198   -21968.764    4.3534786    4.3534786    4.3534786   -21968.764   -20607.314     -39366.6   -5932.3773   -22315.873   -13208.792    31703.001    82.510505 
   77800    1804.8412   -108.11617    1.6330583   -106.48311    23967.115    4.3502505    4.3502505    4.3502505    23967.115   -16700.524    1226.1608    87375.709    8056.9783    1296.2992   -25604.856    82.327097 
   77900    1245.6885   -107.62463    1.1271252   -106.49751   -33505.024    4.3504129    4.3504129    4.3504129   -33505.024     -42381.4   -64499.471       6365.8   -29710.386    18350.194    46015.172    82.336319 
   78000    1272.3525   -107.64313    1.1512513   -106.49188    17011.101     4.339612     4.339612     4.339612    17011.101    2547.9166   -2258.2689    50743.654   -1946.8358   -3629.4127   -1726.4457    81.724579 
   78100    1911.6484   -108.21573    1.7296996   -106.48603    6071.4482    4.3486579    4.3486579    4.3486579    6071.4482   -8933.1998    1143.5585    26003.986    1781.4307    7248.7285   -23629.253     82.23671 
   78200    1139.4721    -107.5233    1.0310183   -106.49228     -1685.04    4.3549929    4.3549929    4.3549929     -1685.04   -32216.831   -47178.849     74340.56   -21807.603    12208.636    37341.751    82.596636 
   78300    1217.9904   -107.59886    1.1020633   -106.49679   -10314.158    4.3413295    4.3413295    4.3413295   -10314.158    19493.328   -6528.0599   -43907.743    9543.5328   -10871.335    -25865.29    81.821654 
   78400    1600.4432    -107.9464    1.4481147   -106.49828    4888.1427    4.3308975    4.3308975    4.3308975    4888.1427    -17463.16   -4749.2453    36876.834   -14949.559   -1793.7293   -14089.877    81.233228 
   78500    1585.7889   -107.94432    1.4348552   -106.50946    4996.1507    4.3453027    4.3453027    4.3453027    4996.1507    4272.8521   -24372.166    35087.766   -12264.226   -2613.2058    27620.516    82.046508 
   78600    961.70049    -107.3758   0.87016681   -106.50564   -10840.266    4.3608435    4.3608435    4.3608435   -10840.266   -8302.1625   -20204.424   -4014.2098   -911.89156    -3226.761   -26800.445    82.929967 
   78700    1278.8249   -107.64044    1.1571076   -106.48333    10131.268    4.3515346    4.3515346    4.3515346    10131.268   -31230.716   -4853.4675    66477.987   -17606.652    11708.552    1512.4657    82.400021 
   78800    1870.2875   -108.16599    1.6922755   -106.47372   -14002.623    4.3447066    4.3447066    4.3447066   -14002.623   -2688.0558   -31132.763    -8187.051    239.45055   -1050.9225   -28493.109    82.012746 
   78900    1294.1647   -107.65823    1.1709874   -106.48724    8386.7453     4.331767     4.331767     4.331767    8386.7453    9833.8241   -12444.692    27771.103   -13457.366   -1022.3617   -28983.299    81.282164 
   79000    1391.4812   -107.75672    1.2590414   -106.49768    13942.491    4.3470419    4.3470419    4.3470419    13942.491    -41221.37    2204.9117    80843.933    -14158.06   -2476.6586    9547.6795    82.145063 
   79100     1476.246    -107.8261    1.3357384   -106.49036    -18897.34    4.3539005    4.3539005    4.3539005    -18897.34   -16761.219   -55732.886    15802.086    6674.8042    5715.3196   -27479.812    82.534497 
   79200    1380.3996   -107.73508    1.2490145   -106.48606   -8107.8831    4.3370396    4.3370396    4.3370396   -8107.8831   -21042.802   -26726.267    23445.419   -28905.274    -5697.783   -11318.055    81.579333 
   79300    1447.1462   -107.80499    1.3094083   -106.49558   -5318.0453    4.3411042    4.3411042    4.3411042   -5318.0453   -50608.608    9281.7583    25372.713    6356.3895    9434.5147    7089.9616    81.808912 
   79400    1245.2155   -107.63028    1.1266972   -106.50358   -9445.8704     4.360996     4.360996     4.360996   -9445.8704   -27302.025   -60352.474    59316.888   -12638.677   -1514.8631   -38609.317    82.938667 
   79500     1294.204   -107.65969    1.1710229   -106.48867   -8044.1438      4.35514      4.35514      4.35514   -8044.1438   -37664.666   -14160.425    27692.659   -14013.391   -344.35649    907.63987    82.605004 
   79600    1267.4918   -107.62659    1.1468532   -106.47974    5543.5346    4.3392081    4.3392081    4.3392081    5543.5346   -18828.343    6237.7309    29221.216    4690.8477    329.52624   -3513.6173    81.701766 
   79700    1998.6768   -108.29151    1.8084448   -106.48307    -9081.229    4.3437092    4.3437092    4.3437092    -9081.229    -32412.63   -36814.437     41983.38   -25531.108    4936.1876   -7832.1994    81.956276 
   79800    1126.5701   -107.52078    1.0193443   -106.50143    18554.724    4.3397348    4.3397348    4.3397348    18554.724   -2950.1435   -4027.7295    62642.045    6010.3956    7374.8138    25946.435     81.73152 
   79900    1081.3314    -107.4848    0.9784114   -106.50639   -16875.874    4.3549767    4.3549767    4.3549767   -16875.874   -60560.839    29382.864   -19449.648   -17204.089    294.94593    -2372.907    82.595712 
   80000    1770.7907   -108.08227    1.6022486   -106.48002   -182.76855    4.3500055    4.3500055    4.3500055   -182.76855    5521.4713   -34510.345    28440.568    -13123.91    6822.2136    -4711.072    82.313187 
   80100    1217.1141   -107.58805    1.1012704   -106.48678   -32648.956     4.339006     4.339006     4.339006   -32648.956   -42341.929   -17138.519   -38466.421    14757.149     3644.136    31928.418    81.690348 
   80200     1334.698   -107.69744    1.2076628   -106.48978     2067.032    4.3433427    4.3433427    4.3433427     2067.032   -5815.3008    30806.299   -18789.902   -10469.193   -5959.2231   -19741.125    81.935537 
   80300    1485.5586   -107.82514    1.3441647   -106.48097   -22320.608    4.3577129    4.3577129    4.3577129   -22320.608   -23151.754   -29993.563   -13816.506     6191.305   -861.04086   -25886.542    82.751493 
   80400    926.12218   -107.32133   0.83797481   -106.48336   -7017.5574    4.3530805    4.3530805    4.3530805   -7017.5574   -46291.575    7174.5944    18064.309    15757.168    11934.201    10728.884     82.48787 
   80500     1383.011   -107.72195    1.2513774   -106.47057    26191.567    4.3454805    4.3454805    4.3454805    26191.567    11330.034    1999.7657    65244.901   -695.68019    695.09397    -37367.87     82.05658 
   80600    1525.4167   -107.85164    1.3802291   -106.47141    5645.4564    4.3549044    4.3549044    4.3549044    5645.4564    3857.9044    1995.9954    11082.469    11817.431    4394.9609   -24058.469      82.5916 
   80700    1289.5455    -107.6388    1.1668079   -106.47199   -22347.862     4.357611     4.357611     4.357611   -22347.862   -53089.217    31151.475   -45105.843     11929.92    13083.694   -1239.5026    82.745689 
   80800    1088.6276   -107.45893   0.98501312   -106.47391   -2207.6369    4.3493121    4.3493121    4.3493121   -2207.6369    44306.763   -11999.501   -38930.173   -3820.6101   -1999.5484   -50217.287    82.273828 
   80900    2038.0068   -108.31189    1.8440314   -106.46785     15521.24    4.3420278    4.3420278    4.3420278     15521.24   -21493.702    53126.693     14930.73       9892.2    3504.7649    15698.459     81.86114 
   81000    809.11314   -107.23017   0.73210258   -106.49807   -17774.429    4.3487655    4.3487655    4.3487655   -17774.429   -5904.6753   -23665.143    -23753.47    4825.0462   -5462.7564   -22921.013    82.242817 
   81100    1394.8317   -107.76227    1.2620731    -106.5002   -20676.166    4.3501543    4.3501543    4.3501543   -20676.166   -21571.945   -46404.108    5947.5557   -14747.162    9761.9224   -24857.279    82.321634 
   81200    1910.3074   -108.21483    1.7284863   -106.48634    11342.228    4.3444706    4.3444706    4.3444706    11342.228   -1869.0092    27485.594    8410.0988    9476.2976   -9263.3475    15486.744    81.999384 
   81300    1005.4422   -107.41201    0.9097452   -106.50226   -9246.6786    4.3421867    4.3421867    4.3421867   -9246.6786   -16106.674   -30754.874    19121.512   -6870.8632   -9931.0337   -38741.395    81.870131 
   81400     1397.357   -107.76404     1.264358   -106.49968   -716.73516     4.351048     4.351048     4.351048   -716.73516   -18153.212    20814.515   -4811.5088   -23669.795    8240.0597    5408.5698    82.372383 
   81500     1627.665    -107.9545    1.4727455   -106.48176    18363.931    4.3543803    4.3543803    4.3543803    18363.931    25623.702    28254.864    1213.2277    2788.2505   -14900.953   -8838.8908    82.561787 
   81600    995.46547   -107.38728   0.90071808   -106.48656    5385.1546    4.3447543    4.3447543    4.3447543    5385.1546    4432.4796   -7291.0174    19014.002   -26483.378   -7393.4276   -24275.781    82.015447 
   81700    1515.0839   -107.85333    1.3708797   -106.48246   -1073.0921    4.3426361    4.3426361    4.3426361   -1073.0921    4730.9155    3345.0487    -11295.24   -25245.346   -10169.941    14838.182    81.895552 
   81800     1562.124    -107.9021    1.4134426   -106.48866   -2367.6345    4.3445198    4.3445198    4.3445198   -2367.6345    22246.991   -27504.681   -1845.2132     9900.526    1355.3041   -36639.798    82.002169 
   81900    1440.3651   -107.79068    1.3032726   -106.48741   -13648.091    4.3566812    4.3566812    4.3566812   -13648.091   -33215.265   -25436.253    17707.244   -33237.682   -9770.1914    6729.1371    82.692734 
   82000     1111.426   -107.49346    1.0056416   -106.48782   -18318.964    4.3530242    4.3530242    4.3530242   -18318.964    23273.688   -28803.784   -49426.796    6683.9137     11518.81   -16904.004    82.484671 
   82100    1781.1535   -108.08644    1.6116251   -106.47481    12103.407    4.3295948    4.3295948    4.3295948    12103.407    42817.258   -13215.854    6708.8171    -10254.73    3883.0525   -19274.686    81.159949 
   82200     1405.644   -107.76262    1.2718562   -106.49076   -2858.0736    4.3394397    4.3394397    4.3394397   -2858.0736   -2633.5652   -1695.1278   -4245.5277   -19621.457   -10298.858    7824.4752    81.714845 
   82300    1121.7807     -107.506    1.0150107   -106.49098   -40120.935    4.3639113    4.3639113    4.3639113   -40120.935   -13711.775   -44779.706   -61871.324    4619.6788    6399.1572   -29734.464    83.105116 
   82400    1720.2243   -108.02634    1.5564951   -106.46984   -7586.9748    4.3536172    4.3536172    4.3536172   -7586.9748   -26055.523   -344.93101    3639.5296    23955.498   -5420.0659    9292.0577    82.518388 
   82500    1333.0022    -107.6742    1.2061284   -106.46807    4190.5281    4.3333866    4.3333866    4.3333866    4190.5281    5158.6621    34268.392    -26855.47   -12708.398   -11606.435     -18916.5    81.373369 
   82600    1051.6269   -107.43832   0.95153408   -106.48679    5269.4236    4.3412642    4.3412642    4.3412642    5269.4236    27154.809   -15279.661     3933.123    43759.901    8463.2587   -21403.356    81.817962 
   82700    1699.9539   -108.01972     1.538154   -106.48157   -11010.465    4.3583501    4.3583501    4.3583501   -11010.465   -28264.203   -18786.335    14019.143    24541.409    7971.1125    3560.7832    82.787799 
   82800    1146.5236   -107.51457    1.0373986   -106.47717   -12732.243    4.3614605    4.3614605    4.3614605   -12732.243   -15192.171   -9466.3869   -13538.169   -541.71382    4091.8215   -24753.802    82.965172 
   82900    1159.2685   -107.52464    1.0489305   -106.47571   -11642.705    4.3435108    4.3435108    4.3435108   -11642.705    -46800.55   -34038.276    45910.712    40196.224    8997.2782   -10940.517    81.945047 
   83000    1646.1259   -107.95671    1.4894493   -106.46726    31113.262    4.3303092    4.3303092    4.3303092    31113.262   -21341.789    53065.492    61616.082    -22495.38   -5027.9177    7236.7185     81.20013 
   83100    965.89629   -107.37241   0.87396326   -106.49845   -28857.978    4.3567298    4.3567298    4.3567298   -28857.978   -69473.473   -42034.286    24933.827    45715.198   -1778.1263   -15696.054    82.695501 
   83200    1532.3552   -107.86678    1.3865072   -106.48027   -18133.137    4.3603913    4.3603913    4.3603913   -18133.137   -68265.621   -35403.341    49269.551   -17168.123   -3993.9883   -5908.8744    82.904172 
   83300    1868.2014   -108.16503    1.6903879   -106.47464   -3137.4942    4.3397793    4.3397793    4.3397793   -3137.4942   -28408.924    13486.873    5509.5688    5431.3187   -8252.8483    4118.3614    81.734032 
   83400    951.82553   -107.36056   0.86123174   -106.49933   -13693.686    4.3314506    4.3314506    4.3314506   -13693.686   -35117.112   -15739.961    9776.0147    22399.719    -8970.283   -17663.447    81.264355 
   83500    1315.4867   -107.71213      1.19028   -106.52185    9684.1874    4.3470551    4.3470551    4.3470551    9684.1874     -48451.2    30223.568    47280.195   -50688.134   -3384.2659    484.77638    82.145812 
   83600    2152.3879   -108.44147    1.9475258   -106.49394   -23806.858    4.3642169    4.3642169    4.3642169   -23806.858   -34695.071   -13178.954    -23546.55    21152.256   -4229.8585    -251.6469    83.122576 
   83700    994.83265   -107.40715   0.90014549     -106.507    15002.332    4.3308809    4.3308809    4.3308809    15002.332   -36428.929    28065.508    53370.418   -23487.591   -354.98513   -3156.0939    81.232293 
   83800    1203.3093   -107.59871    1.0887796   -106.50993    16091.598    4.3277113    4.3277113    4.3277113    16091.598   -39503.169    42213.182    45564.782   -16851.037   -2928.4268    5625.3463    81.054074 
   83900    1841.7007   -108.16943    1.6664095   -106.50302   -763.57443    4.3469716    4.3469716    4.3469716   -763.57443    -27714.29    17582.314    7841.2529    11141.507    12839.025    18998.741     82.14108 
   84000    1161.6818   -107.55912    1.0511141   -106.50801     13105.02    4.3499767    4.3499767    4.3499767     13105.02   -36103.137   -10950.364    86368.562   -36053.108   -6814.6694    -17789.62    82.311552 
   84100     1587.802    -107.9297    1.4366766   -106.49303   -31437.686    4.3563654    4.3563654    4.3563654   -31437.686   -66683.334    556.41604    -28186.14    8879.6081    5510.3086    15739.929    82.674755 
   84200    1606.8856   -107.93874    1.4539439    -106.4848    12657.154    4.3339854    4.3339854    4.3339854    12657.154   -25946.548    4588.2649    59329.745   -12878.199    4333.9921    12627.385    81.407111 
   84300    1194.3013   -107.57738    1.0806289   -106.49675    13327.499     4.331396     4.331396     4.331396    13327.499   -28570.187    29694.486      38858.2   -31544.535   -389.66622   -24562.386    81.261281 
   84400    1328.9236    -107.7029     1.202438   -106.50046    2676.5119    4.3541411    4.3541411    4.3541411    2676.5119   -53842.545    35809.066    26063.014    11349.698    3343.5691   -7463.4837    82.548179 
   84500     1525.661   -107.86314    1.3804501   -106.48269    10063.686    4.3587518    4.3587518    4.3587518    10063.686   -41984.761     335.2547    71840.564   -14133.726   -1954.1472   -25132.154    82.810696 
   84600    987.54042   -107.38502   0.89354732   -106.49147    13669.791    4.3405799    4.3405799    4.3405799    13669.791   -35516.157    77622.991   -1097.4614    388.73208    -1352.009   -17865.389    81.779277 
   84700    1288.5958   -107.66252    1.1659486   -106.49657    125.74566    4.3348996    4.3348996    4.3348996    125.74566    -51141.23    40267.419    11251.048    10793.076   -4409.9878    5300.2901    81.458634 
   84800    2135.7344   -108.42137    1.9324574   -106.48892    13063.953    4.3472705    4.3472705    4.3472705    13063.953   -20440.526    38234.068    21398.317   -3506.5388    428.11436    17778.061    82.158023 
   84900    967.69612   -107.37001   0.87559179   -106.49442   -36508.854    4.3633339    4.3633339    4.3633339   -36508.854   -76339.592   -5914.5882   -27272.382    10387.573   -681.06458   -15767.292    83.072131 
   85000    1374.5275   -107.72677    1.2437014   -106.48306   -3165.3093    4.3523469    4.3523469    4.3523469   -3165.3093   -38185.982     36120.54   -7430.4859    12243.298   -9949.3545    15699.011    82.446176 
   85100    1772.3998   -108.08204    1.6037046   -106.47834    21616.082     4.329495     4.329495     4.329495    21616.082   -3811.7925    37398.753    31261.286   -6700.9847    3593.6014    8601.6817    81.154335 
   85200    1026.4833   -107.42708   0.92878367   -106.49829    30146.112    4.3311108    4.3311108    4.3311108    30146.112   -39246.615    115784.82    13900.127    8691.0506   -7554.8575   -11920.807     81.24523 
   85300    1506.2326   -107.86268    1.3628709   -106.49981   -47286.176    4.3626448    4.3626448    4.3626448   -47286.176   -22553.224    -66893.97   -52411.336   -4449.1254    6211.2477    41124.826    83.032775 
   85400    1737.8629    -108.0661    1.5724549   -106.49364    7179.2086    4.3463226    4.3463226    4.3463226    7179.2086   -29053.832    53219.503    -2628.045   -6685.5255   -10171.211    13170.418    82.104296 
   85500    1220.9401   -107.59783    1.1047322    -106.4931    9978.3492    4.3275072    4.3275072    4.3275072    9978.3492   -24427.249    46024.137    8338.1594    13582.666   -2022.1839    11367.893    81.042608 
   85600    1099.5658   -107.50084   0.99491023   -106.50593   -27458.061    4.3484123    4.3484123    4.3484123   -27458.061   -13073.143   -28462.962   -40838.079    7375.6321    3953.5261    43960.224    82.222776 
   85700    2119.4158   -108.41094     1.917692   -106.49325    16342.139    4.3486128    4.3486128    4.3486128    16342.139   -26226.055    61964.606    13287.866    11390.759   -7740.0807   -23623.415    82.234151 
   85800    610.69293   -107.07302    0.5525678   -106.52045   -8724.9025     4.351418     4.351418     4.351418   -8724.9025   -6738.4859    22724.535   -42160.757    18796.688    4941.9456    39047.756      82.3934 
   85900      1816.13   -108.13587    1.6432726    -106.4926   -1852.0491    4.3526584    4.3526584    4.3526584   -1852.0491   -4219.9799    15690.403   -17026.571    6599.4156    619.50543   -10941.822    82.463878 
   86000    1670.4171   -108.00344    1.5114285   -106.49201    3637.4464    4.3430913    4.3430913    4.3430913    3637.4464   -25418.355    35903.335    427.35867    5805.3354   -5183.8094    17555.818    81.921308 
   86100     667.1866   -107.12247   0.60368446   -106.51879   -10678.873    4.3410526    4.3410526    4.3410526   -10678.873    -16643.52    11923.088   -27316.186    12437.153    4455.3238    44347.767    81.805998 
   86200    2252.8686   -108.53731    2.0384428   -106.49886    9495.7422     4.341467     4.341467     4.341467    9495.7422   -25539.327    58138.515   -4111.9612   -6728.1377   -11150.543   -16715.819    81.829425 
   86300    1228.1184   -107.62748    1.1112273   -106.51626    3280.6478    4.3418897    4.3418897    4.3418897    3280.6478   -17943.109    34412.609   -6627.5561    2651.9015    405.33866    30058.504     81.85333 
   86400    919.78187   -107.35039   0.83223797   -106.51816    5616.7246     4.347295     4.347295     4.347295    5616.7246    -49750.98     52845.79    13755.364    15699.198   -8136.3102    6074.7624    82.159415 
   86500    1897.8102   -108.20389    1.7171785   -106.48672   -18227.819    4.3581444    4.3581444    4.3581444   -18227.819   -42067.772    7781.6052   -20397.291   -2279.2453   -10227.189   -585.53408    82.776079 
   86600    1204.6031   -107.57777    1.0899502   -106.48782   -21980.087    4.3450818    4.3450818    4.3450818   -21980.087   -3435.3066   -41290.418   -21214.537    20231.406     -1467.89    48755.657    82.033994 
   86700    1288.1634   -107.64665    1.1655573   -106.48109    32726.456    4.3261118    4.3261118    4.3261118    32726.456    -34423.81    102156.31    30446.872    17443.606   -10750.112   -10448.331    80.964234 
   86800    1377.0488   -107.73672    1.2459826   -106.49074    6042.0595    4.3445122    4.3445122    4.3445122    6042.0595   -8427.7629    27323.444   -769.50266   -70.654744    2601.4804    36000.481    82.001737 
   86900    1555.5377   -107.89894    1.4074832   -106.49146   -11503.872    4.3505682    4.3505682    4.3505682   -11503.872   -11953.206   -10486.515   -12071.894    17060.557   -4596.1332    22760.847    82.345137 
   87000     1230.604   -107.60455    1.1134764   -106.49107   -6552.6238    4.3478262    4.3478262    4.3478262   -6552.6238   -62370.609    17799.451    24913.287    5990.4719   -1284.8727   -7647.0723    82.189537 
   87100    1777.7137   -108.08793    1.6085127   -106.47942   -5511.4731    4.3401522    4.3401522    4.3401522   -5511.4731    3137.1444   -13925.564   -5746.0001   -10055.374    3873.5632    33279.109    81.755106 
   87200    1282.1791   -107.64983    1.1601426   -106.48968    17269.945    4.3349577    4.3349577    4.3349577    17269.945   -12741.365    54688.664    9862.5365    14130.036   -4747.2413   -6261.9504    81.461909 
   87300    1010.9988   -107.42255   0.91477292   -106.50777      -300.73    4.3460427    4.3460427    4.3460427      -300.73   -67127.436    84316.297   -18091.052   -1334.6553    10058.112   -16492.494    82.088431 
   87400    1984.1438   -108.28224     1.795295   -106.48694    5382.3888    4.3485963    4.3485963    4.3485963    5382.3888   -37500.799    34058.688    19589.278   -13016.838    1841.9527    1417.4083    82.233218 
   87500    1202.9571   -107.58636    1.0884608    -106.4979   -10267.709     4.344572     4.344572     4.344572   -10267.709   -51272.484    29955.475   -9486.1179    9316.1512    511.77112    1073.1996    82.005126 
   87600    1488.1494   -107.84306    1.3465089   -106.49656   -19258.121     4.353057     4.353057     4.353057   -19258.121   -35268.724    13759.213   -36264.851   -7691.7427    13239.269   -6946.9775    82.486537 
   87700     1431.999   -107.78595    1.2957027   -106.49025    15526.968    4.3395988    4.3395988    4.3395988    15526.968   -43076.461    47865.224     41792.14   -23460.546   -8607.6033    10089.014    81.723837 
   87800    1471.7891   -107.82553    1.3317057   -106.49382    6583.3015    4.3367167    4.3367167    4.3367167    6583.3015   -22048.963    65829.442   -24030.574     8464.517    6174.9417   -5892.4172    81.561113 
   87900    1476.3476   -107.82848    1.3358303   -106.49265   -30297.583    4.3540506    4.3540506    4.3540506   -30297.583   -33820.819   -53446.725   -3625.2056   -36962.325    6066.6724   -16810.542    82.543031 
   88000    1401.5564   -107.75604    1.2681577   -106.48789   -9137.4452    4.3415256    4.3415256    4.3415256   -9137.4452   -37951.327     18861.76   -8322.7689   -13326.533   -4333.4716   -3107.4804    81.832741 
   88100    1437.4847   -107.78558    1.3006664   -106.48491    20515.187    4.3458931    4.3458931    4.3458931    20515.187   -401.12636    67112.705   -5166.0178   -1179.2895    2171.7562   -6336.1121    82.079957 
   88200    1127.7196   -107.51007    1.0203844   -106.48969   -8603.8195    4.3488235    4.3488235    4.3488235   -8603.8195   -55745.928    13823.077    16111.392    -42402.02    2975.7222   -9728.4441    82.246103 
   88300     1284.333   -107.65165    1.1620915   -106.48956   -7201.9051    4.3420268    4.3420268    4.3420268   -7201.9051   -27000.771    27339.021   -21943.966    8821.7592   -1706.6957    7810.8789    81.861083 
   88400    1819.9096   -108.12986    1.6466925   -106.48317   -6246.1864    4.3479522    4.3479522    4.3479522   -6246.1864   -18943.177   -15702.436    15907.053   -25550.374     1936.687    413.92782    82.196681 
   88500    1337.9741    -107.7018    1.2106271   -106.49118   -9563.4417    4.3430715    4.3430715    4.3430715   -9563.4417   -58993.452    10230.573    20072.553   -28653.428   -2957.7902    1294.7229    81.920185 
   88600    1414.3614   -107.77601    1.2797439   -106.49627    6749.8653    4.3409581    4.3409581    4.3409581    6749.8653    225.82832    40102.216   -20078.448    16735.005      -3778.8    13366.069    81.800653 
   88700    1376.1328   -107.73807    1.2451539   -106.49292    120.99904    4.3493218    4.3493218    4.3493218    120.99904   -34920.506    23053.086    12230.417   -34694.583   -707.70277     7864.912    82.274381 
   88800    1469.8428   -107.81763    1.3299446   -106.48769   -7251.5781    4.3502945    4.3502945    4.3502945   -7251.5781    -26194.28    1975.6403    2463.9051   -10719.729   -4501.5556    3872.0061    82.329595 
   88900    1739.2635   -108.04751    1.5737221   -106.47379   -9142.7159    4.3500748    4.3500748    4.3500748   -9142.7159    3704.5969   -11786.888   -19345.857   -6639.8979    9901.4955    19013.788     82.31712 
   89000    1149.5246   -107.51941     1.040114    -106.4793   -31448.322    4.3510957    4.3510957    4.3510957   -31448.322   -42619.131   -55402.595    3676.7589   -48967.098     -8446.42   -13608.034     82.37509 
   89100    1610.0049   -107.93736    1.4567662   -106.48059    18614.391    4.3435767    4.3435767    4.3435767    18614.391    24248.938    38898.702    -7304.467    27549.553   -3690.1933    6765.0882    81.948776 
   89200    1537.4114   -107.87589    1.3910822   -106.48481    11846.697    4.3468738    4.3468738    4.3468738    11846.697    -8026.656    23286.215     20280.53   -40585.776    4907.9134   -5972.2446    82.135536 
   89300    903.69917   -107.31255     0.817686   -106.49486    3790.5904    4.3518944    4.3518944    4.3518944    3790.5904    16178.338     20307.18   -25113.747   -12630.318   -3094.8776   -7165.5857    82.420462 
   89400    1682.7074   -107.99611    1.5225491   -106.47356   -6848.3103    4.3499831    4.3499831    4.3499831   -6848.3103    -22582.87   -2436.4877    4474.4267    3481.7664   -12018.163    -8355.879    82.311918 
   89500    1382.0249   -107.72668    1.2504852   -106.47619    14113.732    4.3382237    4.3382237    4.3382237    14113.732    18461.316   -39581.524    63461.402   -53173.954     4200.312   -611.99545    81.646169 
   89600    1570.6326   -107.90372    1.4211414   -106.48258   -6780.1764    4.3455714    4.3455714    4.3455714   -6780.1764   -14934.591   -1212.7235   -4193.2145    18955.251   -19992.762   -2156.0824    82.061733 
   89700    1149.2591   -107.52445    1.0398738   -106.48457   -8049.0005    4.3578793    4.3578793    4.3578793   -8049.0005    5762.7735   -39547.061    9637.2862   -20724.751   -6375.2722    13866.773    82.760974 
   89800    1679.9654   -107.98586     1.520068   -106.46579    15573.805    4.3463151    4.3463151    4.3463151    15573.805   -7865.2578    16864.981    37721.692   -16370.746    10567.503    3505.8283    82.103869 
   89900    915.36238   -107.30371   0.82823912   -106.47547    15336.669    4.3432557    4.3432557    4.3432557    15336.669    12008.703    46199.283   -12197.978    24790.004   -28652.329   -753.74746    81.930612 
   90000    1738.0977   -108.04128    1.5726673   -106.46861    1663.0899    4.3506775    4.3506775    4.3506775    1663.0899   -8432.4583    20117.824   -6696.0964   -18719.924    18580.952    2072.1512     82.35134 
   90100    1327.2721   -107.67469    1.2009437   -106.47375    -6067.604    4.3492859    4.3492859    4.3492859    -6067.604    5423.8061    11055.788   -34682.406    11421.009   -276.14537   -9095.7869    82.272346 
   90200    1290.5901   -107.64904    1.1677531   -106.48129   -18862.367    4.3445728    4.3445728    4.3445728   -18862.367   -6996.1583   -23911.948   -25678.995     20983.97   -20272.459    -10550.04    82.005168 
   90300    2014.8562   -108.29816    1.8230842   -106.47508   -5514.1906    4.3438666    4.3438666    4.3438666   -5514.1906    3578.7209   -3435.4651   -16685.828   -21669.536    33355.854    1417.1194    81.965188 
   90400     1091.625   -107.47235   0.98772521   -106.48463   -38540.192    4.3631629    4.3631629    4.3631629   -38540.192   -21409.316   -50721.993   -43489.265    17512.236    -5784.352   -19973.349    83.062365 
   90500    1790.4181   -108.07571    1.6200079    -106.4557   -29685.269    4.3675029    4.3675029    4.3675029   -29685.269   -20276.101   -45764.222   -23015.484    2135.7068    1270.4331   -7827.9565    83.310471 
   90600    1856.2539   -108.12998    1.6795775    -106.4504    -16148.89    4.3476858    4.3476858    4.3476858    -16148.89   -24452.216   -5370.3973   -18624.057   -13735.886    31087.756   -8189.8279    82.181571 
   90700    988.82339   -107.36816   0.89470819   -106.47345   -5970.7064    4.3373904    4.3373904    4.3373904   -5970.7064    26976.751    -44817.32   -71.549625    31966.554   -34882.197    -16214.97    81.599133 
   90800    1588.3256   -107.92226    1.4371504   -106.48511   -221.92116    4.3470771    4.3470771    4.3470771   -221.92116     12690.91   -4949.6053   -8407.0685   -8210.8774    15430.513    1989.1817    82.147058 
   90900    1390.9504   -107.74243    1.2585612   -106.48386    1634.4032    4.3559387    4.3559387    4.3559387    1634.4032    13892.944     10699.78   -19689.515    27124.021   -3939.9273    846.21229    82.650461 
   91000    830.56454   -107.24534   0.75151225   -106.49382   -10123.619    4.3558096    4.3558096    4.3558096   -10123.619   -42242.238    19846.454   -7975.0742    33751.041   -18667.605   -5652.8929    82.643112 
   91100    1602.0694   -107.92392    1.4495861   -106.47433    21606.661    4.3382183    4.3382183    4.3382183    21606.661    2244.0087    49357.853    13218.122     -19529.2    14878.873    13315.119    81.645868 
   91200     1381.217   -107.73847    1.2497542   -106.48872   -12424.474     4.343097     4.343097     4.343097   -12424.474   -41002.904    9728.2048   -5998.7237    38687.821   -29685.681   -0.8895906    81.921631 
   91300    1528.0174   -107.85783    1.3825822   -106.47524   -30440.179    4.3670249    4.3670249    4.3670249   -30440.179   -49200.209   -32934.624   -9185.7049   -9366.6026    11435.501   -17588.455    83.283126 
   91400    1386.9516   -107.71315     1.254943    -106.4582   -23838.054    4.3625095    4.3625095    4.3625095   -23838.054   -30332.793    3573.8728   -44755.242   -13567.249   -35691.648    6342.4139    83.025053 
   91500    1574.0898   -107.87357    1.4242695    -106.4493    9289.1617    4.3444439    4.3444439    4.3444439    9289.1617   -19603.652    46796.342    674.79534    22167.643   -4103.4826   -12672.469    81.997873 
   91600    881.06726   -107.26451   0.79720818    -106.4673     27355.97    4.3338629    4.3338629    4.3338629     27355.97    22026.697    52405.933    7635.2793   -31901.114    1048.1239   -26009.023    81.400207 
   91700    1521.9349   -107.85872    1.3770786   -106.48164   -13175.073    4.3512861    4.3512861    4.3512861   -13175.073   -22123.897    17680.702   -35082.023    2733.9418   -34175.748     13167.81    82.385904 
   91800    1839.3228    -108.1354    1.6642579   -106.47115   -27598.585    4.3622336    4.3622336    4.3622336   -27598.585   -28882.283   -24652.562    -29260.91    7599.5775    22052.071   -30209.911    83.009299 
   91900    849.29106   -107.25906    0.7684564    -106.4906   -5406.2457    4.3385528    4.3385528    4.3385528   -5406.2457    -13474.74    17226.802   -19970.799   -34487.468   -33954.884     1069.212    81.664753 
   92000    1884.9551   -108.18349     1.705547   -106.47794    23771.461    4.3323134    4.3323134    4.3323134    23771.461    5255.9757     62393.46    3664.9488   -1307.6421     7766.863    12943.425    81.312925 
   92100    1077.7085   -107.47164   0.97513334    -106.4965   -7817.4453    4.3559103    4.3559103    4.3559103   -7817.4453    -34476.32    65518.981   -54494.997   -7493.2356   -9190.7085   -8347.0818    82.648845 
   92200      1070.69   -107.46077   0.96878278   -106.49199   -24149.677    4.3600558    4.3600558    4.3600558   -24149.677   -27697.762   -12912.542   -31838.725   -20576.796   -21843.206   -3854.7631    82.885038 
   92300    1803.8295   -108.09769    1.6321428   -106.46555   -6533.7094    4.3465948    4.3465948    4.3465948   -6533.7094   -3241.0264    19381.945   -35742.047    15275.106    3351.1548     7030.002    82.119723 
   92400    1272.5185   -107.62228    1.1514015   -106.47088   -37417.437    4.3515732    4.3515732    4.3515732   -37417.437   -29795.738   -3696.5601   -78760.014   -1841.2761   -41884.138   -14243.373    82.402214 
   92500    1916.3366   -108.19385    1.7339416   -106.45991   -24440.502     4.359492     4.359492     4.359492   -24440.502   -32892.088   -15937.462   -24491.956   -6151.1159     10513.35   -830.71691    82.852889 
   92600    930.14613   -107.32711   0.84161577   -106.48549    -5845.584    4.3452565    4.3452565    4.3452565    -5845.584   -46667.782    93494.605   -64363.575    8859.7779   -46270.561   -1182.9664    82.043893 
   92700     1483.615   -107.82523    1.3424061   -106.48283    17704.667    4.3390826    4.3390826    4.3390826    17704.667    43875.054    53221.546     -43982.6   -16212.269    20407.045   -21958.496    81.694673 
   92800    1437.8521    -107.7865    1.3009988    -106.4855    7785.4392    4.3466859    4.3466859    4.3466859    7785.4392   -10793.868    64991.618   -30841.432   -16544.925   -32894.052   -3887.0226    82.124887 
   92900    1242.1732   -107.61613    1.1239444   -106.49219   -9449.3009    4.3526153    4.3526153    4.3526153   -9449.3009    13523.661     10894.09   -52765.654    8076.6592    957.46411   -8704.8259     82.46143 
   93000    1718.0534   -108.03436    1.5545308   -106.47982   -10597.634    4.3554588    4.3554588    4.3554588   -10597.634    7925.7616    1854.4776   -41573.141    2765.9211    7647.8782   -15113.341    82.623148 
   93100    1455.9473   -107.79698    1.3173717   -106.47961    19516.798    4.3366771    4.3366771    4.3366771    19516.798    16788.055    64875.339   -23112.999    8032.2789   -17563.662    1542.3524    81.558881 
   93200    998.46014   -107.39784   0.90342771   -106.49441    19355.645    4.3319019    4.3319019    4.3319019    19355.645   -633.82454    88042.716   -29341.956     20561.13    38088.375   -6210.9676    81.289757 
   93300    1908.2592   -108.21905     1.726633   -106.49241   -3617.6525    4.3524302    4.3524302    4.3524302   -3617.6525   -4976.3871    15360.905   -21237.476    2166.5681   -12469.576   -4533.0777    82.450906 
   93400    1281.8191   -107.65329    1.1598169   -106.49347    -26109.17    4.3557165    4.3557165    4.3557165    -26109.17   -11922.858    13864.888   -80269.539   -4764.1279    50486.084    10660.443    82.637812 
   93500    1436.3078    -107.7785    1.2996015   -106.47889   -1127.8618    4.3398287    4.3398287    4.3398287   -1127.8618   -23026.021    23860.107   -4217.6717     18606.18   -6943.5858   -4930.0479    81.736826 
   93600    1204.2614   -107.57403     1.089641   -106.48439   -2809.0796    4.3416538    4.3416538    4.3416538   -2809.0796   -24217.502    54221.363     -38431.1   -14955.617    24718.659    5228.4909    81.839993 
   93700     1765.789    -108.0805     1.597723   -106.48278    7821.1205    4.3400134    4.3400134    4.3400134    7821.1205    16079.193    41138.285   -33754.117    6785.9041    113.96586    14153.026    81.747263 
   93800    959.23326   -107.36857   0.86793441   -106.50064   -20267.307    4.3557814    4.3557814    4.3557814   -20267.307   -32425.528    -35311.22    6934.8262    10188.592    222.72026   -6860.4992    82.641508 
   93900    2053.5435    -108.3303    1.8580893   -106.47221   -15130.845    4.3549388    4.3549388    4.3549388   -15130.845    237.34162   -13788.233   -31841.643    -6783.708    202.22383    8744.3456    82.593555 
   94000    1239.9494   -107.60395    1.1219323   -106.48202    21511.797    4.3339439    4.3339439    4.3339439    21511.797   -480.17141    61180.701     3834.862    21214.044    -29236.04    11185.421     81.40477 
   94100    935.60597   -107.34254   0.84655594   -106.49599    20313.944    4.3422308    4.3422308    4.3422308    20313.944   -14062.965    39582.601    35422.197    -4509.918    11364.977     4643.262    81.872623 
   94200    1850.9569    -108.1565    1.6747847   -106.48172   -18820.533    4.3620643    4.3620643    4.3620643   -18820.533   -7139.7599   -7012.1161   -42309.723   -3957.5964   -33537.393    6891.2113    82.999637 
   94300    1272.1209    -107.6335    1.1510418   -106.48246   -8940.2412    4.3538819    4.3538819    4.3538819   -8940.2412   -25701.316   -10609.773    9490.3655    22898.305   -2182.6541    1032.0328    82.533435 
   94400     1221.769   -107.58594    1.1054822   -106.48046    10988.146     4.341664     4.341664     4.341664    10988.146   -8782.1069    36080.692    5665.8545   -20065.252   -7460.1606   -16655.956    81.840568 
   94500    1663.2856   -107.97677    1.5049758   -106.47179     21077.99    4.3444896    4.3444896    4.3444896     21077.99    34564.777    56471.888   -27802.697   -959.89065   -5924.3065    1593.2412    82.000462 
   94600    992.27448   -107.38416    0.8978308   -106.48633   -17747.725    4.3563852    4.3563852    4.3563852   -17747.725    963.67889   -65391.893    11185.039   -3889.1695    1188.0322   -5048.2993    82.675878 
   94700    1850.9732   -108.15047    1.6747994   -106.47567   -8147.0903    4.3547649    4.3547649    4.3547649   -8147.0903    15738.617    -21841.53   -18338.358   -11491.268   -10207.039   -6793.3349     82.58366 
   94800    1706.6537   -108.02422    1.5442161      -106.48    9807.4446    4.3371437    4.3371437    4.3371437    9807.4446    4511.7151    16268.478    8642.1407    13535.993    10601.907   -523.94921    81.585209 
   94900    497.80939    -106.9564    0.4504284   -106.50597     8965.781    4.3414384    4.3414384    4.3414384     8965.781   -21285.411   -864.47259    49047.226    -16870.61   -6056.3322   -13053.565    81.827808 
   95000    2149.2472   -108.42357     1.944684   -106.47888   -3515.8103    4.3572036    4.3572036    4.3572036   -3515.8103    15730.415   -11398.676   -14879.171   -3466.2084    5918.8114   -6558.4493    82.722483 
   95100    1145.4624   -107.52595    1.0364384   -106.48951   -13537.191    4.3545934    4.3545934    4.3545934   -13537.191    7060.2147   -48541.804    870.01556   -3041.8746    6892.8752    10248.582    82.573906 
   95200    1254.9997   -107.62643    1.1355501   -106.49088   -16485.165     4.335631     4.335631     4.335631   -16485.165   -29653.302   -51307.321    31505.129   -4221.6906     366.9955   -7008.7969    81.499873 
   95300    1753.6641    -108.0726    1.5867522   -106.48585    20556.802    4.3363053    4.3363053    4.3363053    20556.802    58585.492    21413.037   -18328.123   -2211.2766   -16794.918   -8679.7009    81.537907 
   95400    1198.7488   -107.58216    1.0846531   -106.49751   -2966.4363    4.3537461    4.3537461    4.3537461   -2966.4363   -12811.617   -9944.4499    13856.758    -9213.814    2256.7461    5544.0249    82.525717 
   95500     975.7559   -107.37295   0.88288444   -106.49006     447.3245    4.3555494    4.3555494    4.3555494     447.3245    9664.4591   -4256.0163   -4066.4694   -3738.2795   -5296.3779   -14839.692      82.6283 
   95600    1890.6652   -108.17472    1.7107136     -106.464    16683.078    4.3461578    4.3461578    4.3461578    16683.078    56089.933    9351.3153   -15392.014   -4935.0246   -15735.242   -2979.6771    82.094957 
   95700    1224.3331   -107.59606    1.1078023   -106.48826   -7975.4133    4.3348654    4.3348654    4.3348654   -7975.4133   -25492.629   -32676.869    34243.258    8946.8793    8013.8208   -1113.7132     81.45671 
   95800    1261.0132   -107.64224    1.1409913   -106.50125    10009.514    4.3345203    4.3345203    4.3345203    10009.514    61652.276   -33139.752    1516.0192    13673.431   -10370.899   -16274.685    81.437255 
   95900    1933.5665   -108.24343    1.7495316    -106.4939   -11166.793    4.3566244    4.3566244    4.3566244   -11166.793    1830.1676    916.47395   -36247.021    1345.3225     19670.05    12617.161    82.689496 
   96000    1096.1173   -107.47329   0.99178999    -106.4815   -10746.723    4.3660885    4.3660885    4.3660885   -10746.723    21105.374   -64723.141    11377.598    12567.654   -7261.0363   -13618.487    83.229558 
   96100    1243.0112   -107.60213    1.1247027   -106.47742   -26741.447    4.3429006    4.3429006    4.3429006   -26741.447   -15032.505   -35660.208   -29531.629    16737.777    14946.796   -7365.5984    81.910519 
   96200    1421.0572    -107.7602    1.2858024    -106.4744    34011.074    4.3137603    4.3137603    4.3137603    34011.074    16648.475     52527.53    32857.218   -9431.8311    27649.144    20868.275    80.272732 
   96300    1809.8694   -108.13585    1.6376079   -106.49824   -1889.0291    4.3391208    4.3391208    4.3391208   -1889.0291    1138.3855   -18970.175    12164.703    9554.4134   -19317.316   -12093.898    81.696833 
   96400    767.98171   -107.20103   0.69488599   -106.50614   -24003.566    4.3671831    4.3671831    4.3671831   -24003.566   -59965.273    1171.1251    -13216.55   -8964.8414    46863.261   -3744.9372    83.292173 
   96500    1799.5397   -108.11341    1.6282613   -106.48515   -16086.017    4.3540932    4.3540932    4.3540932   -16086.017    4125.3251   -24852.239   -27531.137   -1740.9388     6326.497    20693.857    82.545456 
   96600    1557.4713   -107.88897    1.4092328   -106.47973    12835.148    4.3180181    4.3180181    4.3180181    12835.148    11629.902    14008.343      12867.2     7970.728    10978.483   -18008.523    80.510658 
   96700     633.7892    -107.0876   0.57346578   -106.51413    11831.965    4.3244369    4.3244369    4.3244369    11831.965    26695.594     23641.07   -14840.768   -8313.1092    45508.127    10587.284    80.870232 
   96800    2204.8365   -108.48952    1.9949824   -106.49453   -8662.9585    4.3565729    4.3565729    4.3565729   -8662.9585    8376.9276   -31335.724   -3030.0787   -11672.678    -17233.12    9072.3486    82.686565 
   96900     1108.949   -107.50955    1.0034003   -106.50615   -18428.972      4.35292      4.35292      4.35292   -18428.972     7341.603   -2481.0715   -60147.448    5256.7606    44631.828   -9287.3405     82.47875 
   97000    1199.6483   -107.57842     1.085467   -106.49295    7031.2722    4.3272089    4.3272089    4.3272089    7031.2722    201.13941   -11595.473     32488.15   -11503.529    12422.022    14101.013    81.025848 
   97100    1808.2108    -108.1245    1.6361071    -106.4884     11439.29     4.327244     4.327244     4.327244     11439.29    33716.092   -19353.135    19954.914   -5636.6605    4213.3415     7297.609    81.027819 
   97200    1229.1444   -107.62111    1.1121557   -106.50895    10068.483    4.3431569    4.3431569    4.3431569    10068.483   -5416.1107    14149.081    21472.478    7962.6921    32088.372    -3116.722    81.925023 
   97300    1368.7176   -107.73615    1.2384444    -106.4977    -38719.94    4.3642317    4.3642317    4.3642317    -38719.94   -30538.394   -71354.862   -14266.564   -5457.5092   -15612.434    16287.655    83.123417 
   97400    1549.0967   -107.89309    1.4016553   -106.49143   -4451.0001    4.3347867    4.3347867    4.3347867   -4451.0001   -3053.5637   -31777.527    21478.091    12312.761    16214.394    5053.3827    81.452268 
   97500    1447.9989   -107.79488    1.3101798    -106.4847    38310.677    4.3171159    4.3171159    4.3171159    38310.677    36702.614    41075.174    37154.241    -5637.488   -5094.7088   -494.06715    80.460204 
   97600    1007.9209   -107.42278   0.91198798    -106.5108   -15987.495    4.3430407    4.3430407    4.3430407   -15987.495   -16358.021   -63080.239    31475.777    13308.284   -16000.985    4619.3767    81.918443 
   97700    1593.0659   -107.92941    1.4414395   -106.48797   -7319.1568     4.361568     4.361568     4.361568   -7319.1568    5434.2211   -54412.938    27021.246    3729.5157    11268.054   -4606.5955    82.971312 
   97800    1636.3721    -107.9699    1.4806239   -106.48927   -829.05491    4.3467919    4.3467919    4.3467919   -829.05491    2134.7589   -14416.294    9794.3703     1965.945   -7108.4925   -10866.026    82.130892 
   97900    746.04574   -107.16841   0.67503786   -106.49337    6966.2593    4.3250266    4.3250266    4.3250266    6966.2593   -5099.3035   -34963.184    60961.266     25445.62   -15249.479    7718.9438     80.90332 
   98000    1947.6564   -108.25252    1.7622804   -106.49024    6580.3973    4.3370896    4.3370896    4.3370896    6580.3973    20545.125   -14324.936    13521.003   -20028.202    19648.004   -14271.696    81.582155 
   98100    1259.7647   -107.63064    1.1398615   -106.49078   -23636.962    4.3596733    4.3596733    4.3596733   -23636.962    -10084.91   -42454.125   -18371.851    27070.928   -17535.971   -12740.784    82.863229 
   98200    1193.9903   -107.56571    1.0803475   -106.48537   -22288.739    4.3495438    4.3495438    4.3495438   -22288.739   -36193.319   -40507.406    9834.5082    3914.0492   -8147.0707    4561.9077    82.286983 
   98300    1493.6863   -107.83258    1.3515188   -106.48106      15552.6    4.3267604    4.3267604    4.3267604      15552.6    18025.913    5297.5499    23334.336   -14378.105    38059.728   -12786.064    81.000656 
   98400    1542.5147   -107.88957    1.3956997   -106.49387    11740.614    4.3235688    4.3235688    4.3235688    11740.614    17122.926   -21387.905    39486.819    29555.762   -14675.728   -11964.552     80.82154 
   98500    1173.5733   -107.57086    1.0618738   -106.50899   -13265.231     4.349196     4.349196     4.349196   -13265.231   -45982.275   -28540.667    34727.248   -1355.0381    4249.3359    2555.9706    82.267241 
   98600    1179.7615   -107.56664     1.067473   -106.49917   -37775.525    4.3562389    4.3562389    4.3562389   -37775.525   -29229.488   -15719.495   -68377.592    -4452.992    41067.565     -20510.7     82.66755 
   98700    1968.3734   -108.26228    1.7810256   -106.48125    -3081.366    4.3325111    4.3325111    4.3325111    -3081.366    17140.828   -25906.423   -478.50284    18483.676   -12240.461   -13281.613     81.32406 
   98800    1006.2568    -107.4119   0.91048226   -106.50142    5415.8898    4.3239058    4.3239058    4.3239058    5415.8898   -40335.772    30362.608    26220.834   -15039.554    43027.933   -379.12759    80.840441 
   98900    1301.1008   -107.68746    1.1772633    -106.5102   -20006.591    4.3425968    4.3425968    4.3425968   -20006.591    -637.4807   -26128.406   -33253.886    7099.8516    23210.019   -34365.955    81.893329 
   99000    1628.0264    -107.9646    1.4730725   -106.49153   -7379.5333     4.358382     4.358382     4.358382   -7379.5333   -395.16215   -18101.574   -3641.8635    6139.8829    1386.5563    11456.847    82.789618 
   99100    1405.0304    -107.7615     1.271301    -106.4902   -24437.366    4.3406838    4.3406838    4.3406838   -24437.366   -25670.753    -242.4665   -47398.879   -11286.688    47146.153    -15457.46     81.78515 
   99200    965.43738   -107.36064   0.87354803    -106.4871    14455.134    4.3192272    4.3192272    4.3192272    14455.134     72068.89     5228.971    -33932.46    5977.2777   -21074.292   -34022.467     80.57831 
   99300    1626.2476   -107.96115     1.471463   -106.48969   -3629.1115    4.3387834    4.3387834    4.3387834   -3629.1115     37102.03   -11075.624   -36913.741   -13504.039   -5112.9827    44377.447    81.677777 
   99400    1348.0746   -107.70475    1.2197662   -106.48499   -19539.558    4.3566852    4.3566852    4.3566852   -19539.558    7256.0138   -27260.191   -38614.498   -6901.1177    11474.584   -50232.758    82.692959 
   99500    1094.9592   -107.47442    0.9907421   -106.48368   -7594.7063    4.3447329    4.3447329    4.3447329   -7594.7063    32262.941   -10067.501   -44979.559   -3205.9307   -25171.669    210.39549    82.014235 
   99600    1424.2813   -107.76849    1.2887197   -106.47977    19444.079    4.3229727    4.3229727    4.3229727    19444.079     42605.28    23703.673   -7976.7143   -5750.8148   -12601.818    37228.388    80.788118 
   99700    1416.0737   -107.77152    1.2812932   -106.49022    20205.958    4.3305854    4.3305854    4.3305854    20205.958      75733.9   -3974.3203   -11141.706   -9293.9732     6814.037   -56774.126    81.215671 
   99800    1115.9311   -107.50561    1.0097179   -106.49589   -27166.837    4.3577348    4.3577348    4.3577348   -27166.837    32903.051   -50255.806   -64147.756    4601.9701   -4888.7319    49672.611    82.752743 
   99900      1513.72   -107.84244    1.3696456    -106.4728   -9381.3018    4.3496335    4.3496335    4.3496335   -9381.3018    11868.459   -21049.222   -18963.142   -18790.016   -13984.651   -2905.7688    82.292069 
  100000    1642.4442   -107.95082    1.4861181    -106.4647    2923.2054    4.3263956    4.3263956    4.3263956    2923.2054    60273.436   -20350.033   -31153.787    3404.2974    17009.528    2095.1597    80.980171 
Loop time of 22.362 on 1 procs for 100000 steps with 8 atoms

Pair  time (%) = 7.09211 (31.715)
Kspce time (%) = 5.36095 (23.9735)
Neigh time (%) = 0.136466 (0.610259)
Comm  time (%) = 1.03495 (4.62819)
Outpt time (%) = 0.0246472 (0.110219)
Other time (%) = 8.71285 (38.9628)

Nlocal:    8 ave 8 max 8 min
Histogram: 1 0 0 0 0 0 0 0 0 0
Nghost:    2147 ave 2147 max 2147 min
Histogram: 1 0 0 0 0 0 0 0 0 0
Neighs:    2179 ave 2179 max 2179 min
Histogram: 1 0 0 0 0 0 0 0 0 0

Total # of neighbors = 2179
Ave neighs/atom = 272.375
Neighbor list builds = 1555
Dangerous builds = 0
unfix 20
unfix 21
print "seeds:3113449"
seeds:3113449
