LAMMPS (10 Feb 2015)
# ---- initialize simulations
clear
units metal
dimension 3
boundary p p p
atom_style charge
atom_modify map array
# ---- create atoms
read_data /Users/eugeneragasa/pyflamestk_git/pypospack/tests/tests_integration/workflow/WorkflowLammpsThermalExpansion/param_785/MgO_NaCl_unit.npt.T2000/lammps.structure
  triclinic box = (0 0 0) to (4.2565 4.2565 4.2565) with tilt (0 0 0)
  1 by 1 by 1 MPI processor grid
  reading atoms ...
  8 atoms
# ---- define interatomic potential
include potential.mod
mass 1 24.305
mass 2 15.999

group Mg type 1
4 atoms in group Mg
group O type 2
4 atoms in group O

set group Mg charge 1.62294375895
  4 settings made for charge
set group O charge -1.62294375895
  4 settings made for charge

variable R_cut equal 10.0

pair_style buck/coul/long ${R_cut}
pair_style buck/coul/long 10
pair_coeff 1 1 0.0 0.5 0.0 ${R_cut}
pair_coeff 1 1 0.0 0.5 0.0 10
pair_coeff 1 2 1315.47688947 0.28024601768 0.0 ${R_cut}
pair_coeff 1 2 1315.47688947 0.28024601768 0.0 10
pair_coeff 2 2 7992.27283476 0.124296175577 7.5002562575 ${R_cut}
pair_coeff 2 2 7992.27283476 0.124296175577 7.5002562575 10

kspace_style pppm 1.0e-5

neighbor 1.0 bin
neigh_modify every 1 delay 0 check yes
# ---- define settings
compute eng all pe/atom
compute eatoms all reduce sum c_eng
# ---- run minimization
reset_timestep 0
fix 1 all box/relax iso 0.0 vmax 0.001
thermo 10
thermo_style custom step pe lx ly lz xy xz yz press pxx pyy pzz pxy pxz pyz c_eatoms
min_style cg
minimize 1e-25 1e-25 5000 10000
PPPM initialization ...
  G vector (1/distance) = 0.352546
  grid = 8 8 8
  stencil order = 5
  estimated absolute RMS force accuracy = 3.83063e-05
  estimated relative force accuracy = 2.66022e-06
  using double precision FFTs
  3d grid and FFT values/proc = 3375 512
Neighbor list info ...
  1 neighbor list requests
  update every 1 steps, delay 0 steps, check yes
  master list distance cutoff = 11
Memory usage per processor = 4.06549 Mbytes
Step PotEng Lx Ly Lz Xy Xz Yz Press Pxx Pyy Pzz Pxy Pxz Pyz eatoms 
       0   -108.88461       4.2565       4.2565       4.2565            0            0            0   -30879.056   -30879.056   -30879.056   -30879.056 -2.5133272e-10 -7.2643252e-11 5.7873381e-11   -108.88461 
      10   -108.89911    4.2290577    4.2290577    4.2290577            0            0            0   0.26053131   0.26053131   0.26053131   0.26053131 3.8284322e-11 -1.3873734e-12 -2.9889769e-10   -108.89911 
      12   -108.89911    4.2290577    4.2290577    4.2290577            0            0            0   0.25210742   0.25210742   0.25210742   0.25210742 1.3658055e-10 -3.2077679e-12 -1.3269119e-10   -108.89911 
Loop time of 0.00794792 on 1 procs for 12 steps with 8 atoms

Minimization stats:
  Stopping criterion = linesearch alpha is zero
  Energy initial, next-to-last, final = 
        -108.884606122     -108.899110632     -108.899110632
  Force two-norm initial, final = 4.45895 5.1421e-05
  Force max component initial, final = 4.45895 3.59365e-05
  Final line search alpha, max atom move = 0.5 1.79683e-05
  Iterations, force evaluations = 12 23

Pair  time (%) = 0.00222611 (28.0088)
Kspce time (%) = 0.00131702 (16.5707)
Neigh time (%) = 0 (0)
Comm  time (%) = 0.000236034 (2.96976)
Outpt time (%) = 1.19209e-05 (0.149988)
Other time (%) = 0.00415683 (52.3008)

Nlocal:    8 ave 8 max 8 min
Histogram: 1 0 0 0 0 0 0 0 0 0
Nghost:    2189 ave 2189 max 2189 min
Histogram: 1 0 0 0 0 0 0 0 0 0
Neighs:    2344 ave 2344 max 2344 min
Histogram: 1 0 0 0 0 0 0 0 0 0

Total # of neighbors = 2344
Ave neighs/atom = 293
Neighbor list builds = 0
Dangerous builds = 0
unfix 1
# ---- define output variables ----
variable natoms equal "count(all)"
variable tot_energy equal "c_eatoms"
variable length_x equal "lx"
variable length_y equal "ly"
variable length_z equal "lz"
variable tilt_xy equal "xy"
variable tilt_xz equal "xz"
variable tilt_yz equal "yz"
variable tot_press equal "press"
variable press_xx equal "pxx"
variable press_yy equal "pyy"
variable press_zz equal "pzz"
variable press_xy equal "pxy"
variable press_xz equal "pxz"
variable press_yz equal "pyz"

# ---- output ----
print "pypospack:output_section:begin"
pypospack:output_section:begin
print "tot_energy = ${tot_energy}"
tot_energy = -108.899110631848
print "num_atoms = ${natoms}"
num_atoms = 8
print "xx = ${length_x}"
xx = 4.22905766787052
print "yy = ${length_y}"
yy = 4.22905766787052
print "zz = ${length_z}"
zz = 4.22905766787052
print "xy = ${tilt_xy}"
xy = 0
print "xz = ${tilt_xz}"
xz = 0
print "yz = ${tilt_yz}"
yz = 0
print "tot_press = ${tot_press}"
tot_press = 0.252107417895481
print "pxx = ${press_xx}"
pxx = 0.252107418292273
print "pyy = ${press_yy}"
pyy = 0.252107418323333
print "pzz = ${press_zz}"
pzz = 0.252107417070837
print "pxy = ${press_xy}"
pxy = 1.36580554666579e-10
print "pxz = ${press_xz}"
pxz = -3.20776791999541e-12
print "pyz = ${press_yz}"
pyz = -1.32691186845421e-10
print "pypospack:output_section:done"
pypospack:output_section:done
print "pypospack:lammps_sim:done"
pypospack:lammps_sim:done
#------------------------------------------------------------------------------
# RUN THERMOSTAT
# running using an NPT Nose-Hoover style thermostat
#------------------------------------------------------------------------------
variable tempdamp equal 0.1
variable pressdamp equal 1.0
# set initial velocities
velocity all create 2000 3679589 mom yes dist gaussian loop all
# fix for Nose-Hoover style thermostat
fix 20 all npt temp 2000 2000 0.1 aniso 0.0 0.0 1.0 drag 1.0 couple xyz
variable boxx equal lx
variable boxy equal ly
variable boxz equal lz
variable boxp equal press
variable boxt equal temp
# calculate averages every 10000 steps
reset_timestep 0
fix 21 all ave/time 10 10 100 v_boxx v_boxy v_boxz v_boxp v_boxt file lattice.out
thermo_style custom step temp pe ke etotal press lx ly lz press pxx pyy pzz pxy pxz pyz vol
thermo_modify flush yes
thermo 100
run 100000
PPPM initialization ...
  G vector (1/distance) = 0.352817
  grid = 8 8 8
  stencil order = 5
  estimated absolute RMS force accuracy = 3.78369e-05
  estimated relative force accuracy = 2.62763e-06
  using double precision FFTs
  3d grid and FFT values/proc = 3375 512
Memory usage per processor = 3.06549 Mbytes
Step Temp PotEng KinEng TotEng Press Lx Ly Lz Press Pxx Pyy Pzz Pxy Pxz Pyz Volume 
       0         2000   -108.89911     1.809642   -107.08947     25555.85    4.2290577    4.2290577    4.2290577     25555.85     14109.78    32857.079     29700.69    8453.0036    10079.069    12644.873    75.636395 
     100    710.09974   -107.51092   0.64251317    -106.8684    32934.405    4.2553351    4.2553351    4.2553351    32934.405   -4978.6616    52381.443    51400.433   -11514.088   -16457.629    3527.1664    77.055085 
     200     1134.228   -107.39833    1.0262733   -106.37206   -27760.033     4.300294     4.300294     4.300294   -27760.033    -54555.56   -48368.649    19644.112   -1983.9444    -12390.54     17012.35     79.52331 
     300    1796.0811   -107.54938    1.6251319   -105.92424   -4040.5988    4.3218092    4.3218092    4.3218092   -4040.5988   -62881.337   -995.38608    51754.927    5.5535246    7280.1419   -7251.6773      80.7229 
     400    1195.6966   -106.66349    1.0818914    -105.5816   -7106.6719    4.3139831    4.3139831    4.3139831   -7106.6719   -31082.066    8091.9589    1670.0917   -23656.291    -20819.72     21133.76    80.285165 
     500    2047.7065    -107.1753    1.8528079   -105.32249   -5661.2312     4.303346     4.303346     4.303346   -5661.2312    6500.8144   -36420.782    12936.274    13660.845   -9696.1997    31019.133    79.692746 
     600     2762.463   -107.71529    2.4995346   -105.21576    7025.9552    4.3106329    4.3106329    4.3106329    7025.9552   -15568.617    55505.239   -18858.756   -16158.253     989.8106   -31048.841    80.098267 
     700    1789.4244   -106.81393    1.6191088   -105.19482   -34909.822    4.3306988    4.3306988    4.3306988   -34909.822   -14051.365   -47351.744   -43326.359   -13343.815    -21952.35    47545.734    81.222047 
     800    1837.3077   -106.80757    1.6624346   -105.14513   -13384.379    4.3416516    4.3416516    4.3416516   -13384.379    -1710.541     24325.12   -62767.715    2719.1239    6470.3721     34758.87    81.839865 
     900     2622.115   -107.50552    2.3725448   -105.13298   -31163.785    4.3219613    4.3219613    4.3219613   -31163.785   -39582.915    13844.704   -67753.145   -23221.394   -3279.8413   -18415.144    80.731424 
    1000    1518.4278   -106.54677    1.3739054   -105.17287    2346.6786     4.295722     4.295722     4.295722    2346.6786    22702.156    15263.658   -30925.778   -9211.1839   -9053.6942    86845.131    79.269937 
    1100    2432.9498   -107.43904    2.2013841   -105.23766    51252.751    4.2906013    4.2906013    4.2906013    51252.751    5162.6704    122637.65    25957.936   -2359.6748    8102.2717   -23601.284    78.986793 
    1200    1792.4303   -106.90034    1.6218286   -105.27851    30541.089     4.299334     4.299334     4.299334    30541.089    10030.969    108148.74   -26556.446    10721.736   -894.66699    18754.184    79.470064 
    1300    1629.8733   -106.74497    1.4747436   -105.27023    3835.7286    4.3252666    4.3252666    4.3252666    3835.7286   -7027.8499   -10255.136    28790.172   -1201.4859   -13499.087    50938.441    80.916788 
    1400    2343.9696   -107.30727     2.120873   -105.18639   -33051.888    4.3479928    4.3479928    4.3479928   -33051.888   -49256.625   -29643.458   -20255.582   -2221.0946    1687.8597    3091.4839    82.198982 
    1500    1302.8647   -106.33017    1.1788593   -105.15131   -35213.526    4.3088876    4.3088876    4.3088876   -35213.526    36327.335   -102422.44   -39545.479    18935.249   -2626.7811    71853.576    80.001012 
    1600    2047.0802   -106.95071    1.8522411   -105.09847    55503.748      4.26454      4.26454      4.26454    55503.748    2698.4788   -273.88165    164086.65   -19662.454   -25618.654   -26770.955    77.556207 
    1700    2101.0549   -107.13338    1.9010786   -105.23231   -3496.0316    4.2955509    4.2955509    4.2955509   -3496.0316    41947.112   -40067.676   -12367.531    2339.3584   -4376.8255    34288.467    79.260464 
    1800    1741.6832   -106.81459    1.5759115   -105.23868   -13970.214    4.3448643    4.3448643    4.3448643   -13970.214   -49779.973   -47062.431    54931.763    9556.5296    -20990.04   -16294.166    82.021677 
    1900         1531   -106.54054     1.385281   -105.15526    8106.3814    4.3674251    4.3674251    4.3674251    8106.3814   -8747.0958    4527.9176    28538.322   -16792.989   -7098.8737   -25953.103     83.30602 
    2000    2087.4227   -106.98196    1.8887439   -105.09322   -4003.0663    4.3445196    4.3445196    4.3445196   -4003.0663    70354.394   -52059.084    -30304.51    5323.2607   -17888.876   -3474.3331    82.002158 
    2100    1497.3236   -106.48648    1.3548098   -105.13167    9841.1581    4.2803979    4.2803979    4.2803979    9841.1581    13396.154    6185.0535    9942.2669   -23143.983   -1295.6028   -13690.704     78.42462 
    2200    2496.0813   -107.42923    2.2585069   -105.17072    25171.251    4.2544649    4.2544649    4.2544649    25171.251    28302.664   -17611.637    64822.726   -42767.123   -4361.9723   -33350.083    77.007823 
    2300    2540.7151   -107.55731    2.2988924   -105.25841    42254.298     4.293542     4.293542     4.293542    42254.298    63481.902     47699.82    15581.172    11743.369   -16289.844    6896.7409    79.149314 
    2400    1441.6929   -106.56871     1.304474   -105.26424   -36669.319     4.347809     4.347809     4.347809   -36669.319     797.5836   -73648.593   -37156.948   -20573.793    1173.1189   -26206.716    82.188559 
    2500    1947.8652   -106.91593    1.7624694   -105.15346   -53384.312    4.3619209    4.3619209    4.3619209   -53384.312    16294.558   -118567.19   -57880.299   -8725.7288   -14970.516   -20448.949    82.991448 
    2600    2374.3523   -107.27464    2.1483639   -105.12627   -1899.2793    4.3137486    4.3137486    4.3137486   -1899.2793    31300.408   -9442.1534   -27556.092   -6876.3602    23602.108    27411.509    80.272078 
    2700    2132.1529   -107.03909    1.9292168   -105.10987    55094.889    4.2727248    4.2727248    4.2727248    55094.889    77185.665    28622.973    59476.028   -31041.087   -2892.3029   -43205.843    78.003622 
    2800    2393.7344   -107.36993    2.1659012   -105.20403    18998.989    4.2965086    4.2965086    4.2965086    18998.989    45572.238   -25963.759    37388.489    11128.705    894.87469    28428.272     79.31349 
    2900    1943.0189   -106.97943    1.7580843   -105.22134   -21601.949    4.3409885    4.3409885    4.3409885   -21601.949   -72915.141    13442.209   -5332.9153   -31720.841   -8947.1531   -7652.4811    81.802371 
    3000    1634.6059   -106.64824    1.4790257   -105.16921   -56864.615    4.3550504    4.3550504    4.3550504   -56864.615   -20166.551   -65686.763   -84740.532   -28148.549   -10941.575    1835.3578    82.599907 
    3100     1979.692   -106.92583     1.791267   -105.13457    16139.699    4.3138137    4.3138137    4.3138137    16139.699     56558.87   -28310.145    20170.373    8260.2315    31375.914    42346.576    80.275709 
    3200    2552.5821   -107.43058    2.3096299   -105.12095    26808.518    4.2667951    4.2667951    4.2667951    26808.518    30253.089    -10730.95    60903.414   -48340.245    -22249.14   -16490.182    77.679308 
    3300    1724.8066    -106.7654    1.5606413   -105.20476    51149.013    4.2750404    4.2750404    4.2750404    51149.013    85503.328    4064.2441    63879.469   -4095.4772   -18551.725   -12082.806    78.130512 
    3400    2807.4233   -107.77432    2.5402156   -105.23411   -28042.453    4.3208465    4.3208465    4.3208465   -28042.453   -12135.559   -42154.007   -29837.794   -15426.721   -4593.2981   -2522.8236     80.66897 
    3500    622.07074   -105.76381   0.56286268   -105.20095   -4941.5929    4.3539561    4.3539561    4.3539561   -4941.5929     -36359.7   -11781.383    33316.305   -1908.5616    12055.696   -43977.386    82.537659 
    3600    2681.5625   -107.52187    2.4263341   -105.09553   -14505.084    4.3451254    4.3451254    4.3451254   -14505.084    37366.765   -22887.939   -57994.077    5007.8533    9326.2716   -7247.1237    82.036468 
    3700    2008.1157   -106.89549    1.8169853   -105.07851     5332.719      4.30924      4.30924      4.30924     5332.719   -27094.864    27030.882    16062.139   -25664.176     794.4747    13525.482    80.020645 
    3800     2388.225   -107.26575    2.1609162   -105.10484   -18806.581    4.2966023    4.2966023    4.2966023   -18806.581   -32630.289    2161.2044   -25950.658    909.84092   -25119.363   -26027.225     79.31868 
    3900     2271.718   -107.21735    2.0554982   -105.16185   -33894.569    4.3152066    4.3152066    4.3152066   -33894.569     -34594.1   -26129.635   -40959.973   -21703.237   -2401.5818    52722.416    80.353497 
    4000    2014.7013   -106.99246    1.8229441   -105.16952   -28052.483    4.3320953    4.3320953    4.3320953   -28052.483   -61522.768   -355.97336   -22278.707   -11192.453    -4418.598   -20852.916    81.300646 
    4100      2488.24    -107.3998    2.2514118   -105.14838   -57434.486     4.343518     4.343518     4.343518   -57434.486   -20754.843   -60926.083   -90622.533     12917.24   -8701.1838    31850.412    81.945455 
    4200    2921.2745   -107.77481    2.6432306   -105.13158   -23621.238    4.3224075    4.3224075    4.3224075   -23621.238     -17696.6    100.93574    -53268.05    -20814.91    24763.907   -20273.948    80.756432 
    4300    1777.6736    -106.7456    1.6084764   -105.13713   -1306.8904    4.2809514    4.2809514    4.2809514   -1306.8904    38058.065    14046.877   -56025.613   -324.19063   -5184.9512    46217.401    78.455046 
    4400    1986.6166   -106.98769    1.7975325   -105.19015    33027.386    4.2736697    4.2736697    4.2736697    33027.386    93403.214    31361.865   -25682.923   -9242.4149    293.92459    19310.862    78.055384 
    4500    2371.1423   -107.37862    2.1454594   -105.23316   -9689.9241    4.3145535    4.3145535    4.3145535   -9689.9241    27935.783    10367.869   -67373.425   -20252.383    31566.897   -9654.5957    80.317019 
    4600     1577.238   -106.61148    1.4271181   -105.18436   -26448.842    4.3360092    4.3360092    4.3360092   -26448.842    14824.109   -67470.557   -26700.078    -9638.781    3984.6058     55201.84    81.521203 
    4700    1845.5297   -106.81718    1.6698741   -105.14731   -3750.6804    4.3080289    4.3080289    4.3080289   -3750.6804   -14395.747   -17512.897    20656.602   -11315.369    4549.6824   -18352.447    79.953197 
    4800    1938.9366   -106.89621    1.7543906   -105.14182    49250.443    4.2764042    4.2764042    4.2764042    49250.443    100084.29   -10387.126    58054.169   -26922.987    13468.959    32108.929    78.205309 
    4900    2379.2504   -107.33668    2.1527957   -105.18388    -6385.365    4.2788734    4.2788734    4.2788734    -6385.365   -39225.038   -27830.802    47899.745    38120.849   -1693.5168    26432.583    78.340857 
    5000    1110.3263   -106.22587    1.0046466   -105.22122   -19743.986    4.2983516    4.2983516    4.2983516   -19743.986   -67591.737   -37298.153    45657.931    2638.5014    23359.657    -49777.21      79.4156 
    5100     2562.601   -107.51906    2.3186952   -105.20036   -26363.196    4.3060112    4.3060112    4.3060112   -26363.196   -54194.477    -9595.274   -15299.837   -9046.4896    3832.5269    12952.857    79.840909 
    5200    1861.4321   -106.88661    1.6842629   -105.20235   -13778.827    4.3005577    4.3005577    4.3005577   -13778.827   -5858.8897   -30941.404   -4536.1876    17490.934   -15059.733   -9941.3098    79.537938 
    5300    1546.4585   -106.59717    1.3992682    -105.1979     21427.64    4.2932398    4.2932398    4.2932398     21427.64    79125.334   -31907.542    17065.129   -26747.587    12938.936   -48538.093    79.132599 
    5400    2977.3569   -107.87663    2.6939751   -105.18266   -4516.5469    4.2988772    4.2988772    4.2988772   -4516.5469    37113.787    -3581.517   -47081.911    5321.7496     -5856.44    36365.855    79.444734 
    5500    1504.2601   -106.55732    1.3610861   -105.19623     9901.055    4.3087186    4.3087186    4.3087186     9901.055   -1161.1812   -1421.6845    32286.031   -11788.172   -16084.704   -36842.927    79.991604 
    5600    1612.5879   -106.64296    1.4591034   -105.18385   -5206.0442     4.311619     4.311619     4.311619   -5206.0442     15816.67   -49867.922    18433.119   -7127.0844    13243.698   -10132.236    80.153252 
    5700    2382.9476   -107.33239     2.156141   -105.17625   -8765.7144    4.2982824    4.2982824    4.2982824   -8765.7144   -23671.123   -7586.7585    4960.7377   -10198.897   -16096.681    34403.274    79.411762 
    5800    1658.1902   -106.68682    1.5003653   -105.18646    49919.839    4.2781392    4.2781392    4.2781392    49919.839     12957.03    -18571.48    155373.97   -50694.327    7974.7097   -28801.863    78.300536 
    5900    2410.1076   -107.38872     2.180716   -105.20801   -3449.5198    4.2875079    4.2875079    4.2875079   -3449.5198    32897.783   -8334.1779   -34912.165    1863.0934   -5483.5258    13811.809    78.816074 
    6000    2160.4694   -107.16973    1.9548381    -105.2149    62.885739    4.3091814    4.3091814    4.3091814    62.885739   -38092.984    -25728.09    64009.732   -596.94589   -29717.079    25404.084    80.017381 
    6100    1814.9429   -106.86174    1.6421985   -105.21954   -22755.654    4.3107795    4.3107795    4.3107795   -22755.654   -17011.177   -50680.726   -575.05794   -11533.631    4532.3915   -51159.512    80.106438 
    6200     2167.758   -107.15656     1.961433   -105.19512    1148.0264    4.2880572    4.2880572    4.2880572    1148.0264    3548.9391    25083.755   -25188.614   -12241.027   -696.61271   -16760.778    78.846369 
    6300    2333.0503   -107.30484    2.1109929   -105.19385    31456.507     4.280821     4.280821     4.280821    31456.507   -13744.906    34183.679    73930.748   -30103.988    6167.1071    6790.4669    78.447879 
    6400    1848.7522   -106.89041    1.6727899   -105.21762   -18143.721    4.2972305    4.2972305    4.2972305   -18143.721    34238.756   -65058.201   -23611.717   -8037.1699    1061.7885   -79017.177    79.353476 
    6500    2287.5111   -107.27152    2.0697881   -105.20174    7586.7809    4.3061141    4.3061141    4.3061141    7586.7809   -23215.541     32124.02    13851.864    441.91125    23895.724    16578.336    79.846634 
    6600    1967.9601   -106.97695    1.7806516    -105.1963    -13023.27    4.3030888    4.3030888    4.3030888    -13023.27   -6414.8239   -17930.153   -14724.834   -29032.689   -7350.3237   -40656.966    79.678459 
    6700    2053.4921   -107.04663    1.8580428   -105.18859   -7372.3229    4.2884327    4.2884327    4.2884327   -7372.3229     48645.94   -46553.381   -24209.528    5071.4506    16910.261   -67170.032    78.867085 
    6800    2116.0424   -107.09895    1.9146396   -105.18431     26106.87    4.2968894    4.2968894    4.2968894     26106.87    52681.469   -10857.947    36497.087   -48207.782    8229.8265    21022.349    79.334582 
    6900    1705.7786   -106.73342    1.5434243      -105.19   -36042.091    4.3338079    4.3338079    4.3338079   -36042.091    23372.953   -83259.931   -48239.296    10160.527   -493.96875   -59833.024    81.397109 
    7000    2324.8319   -107.21471    2.1035567   -105.11115   -46409.401    4.3553043    4.3553043    4.3553043   -46409.401   -62197.791   -52108.948   -24921.464   -7317.1642    6849.9852   -15315.081    82.614354 
    7100    2492.1145   -107.30857    2.2549175   -105.05365   -31871.212    4.3424085    4.3424085    4.3424085   -31871.212   -23122.231   -83571.663    11080.259   -6632.2993     4314.284   -20804.966    81.882674 
    7200     1691.779   -106.60251    1.5307572   -105.07175    15162.541    4.3018569    4.3018569    4.3018569    15162.541    58490.656   -53934.327    40931.292    2330.3793    29851.101   -36030.542    79.610044 
    7300    1819.4597    -106.7487    1.6462854   -105.10242    8097.2188    4.2791189    4.2791189    4.2791189    8097.2188   -41550.557    29063.551    36778.662   -41338.095    28302.187    14997.686    78.354339 
    7400    1509.0789   -106.56694    1.3654463   -105.20149    48528.752    4.3040064    4.3040064    4.3040064    48528.752    31704.716    114388.05   -506.51433    14523.679   -1117.6027   -52851.835    79.729441 
    7500    1753.4903   -106.77404    1.5865948   -105.18745   -6786.8858    4.3408879    4.3408879    4.3408879   -6786.8858    -81246.19     68744.07   -7858.5381   -23035.256    1140.4302   -6170.4543    81.796684 
    7600    1995.2198   -106.94595    1.8053168   -105.14064    -20183.29    4.3328926    4.3328926    4.3328926    -20183.29   -56629.376    18947.346   -22867.841   -51586.221    1445.6395   -5002.4143    81.345545 
    7700    1523.7284   -106.52041    1.3787015   -105.14171    8238.1061    4.2933698    4.2933698    4.2933698    8238.1061     16906.98    10440.647   -2633.3088    22936.253    5723.7827   -31258.533     79.13979 
    7800    2101.5043   -107.05647    1.9014853   -105.15499    26395.699    4.2664407    4.2664407    4.2664407    26395.699    1131.0954    18862.487    59193.516   -37676.938    43887.979    20297.739    77.659957 
    7900    2038.0173   -107.07285    1.8440408   -105.22881   -12990.726    4.2940657    4.2940657    4.2940657   -12990.726     33212.82   -46233.597   -25951.401   -23703.381   -7855.5711    -30391.59     79.17828 
    8000    1327.3287    -106.4294    1.2009949    -105.2284   -8693.1096    4.3219913    4.3219913    4.3219913   -8693.1096    55161.485   -26476.231   -54764.583    24951.686    25354.248   -22359.797    80.733109 
    8100     2629.776   -107.56007    2.3794766   -105.18059   -34772.159    4.3295262    4.3295262    4.3295262   -34772.159   -44860.208   -22465.154   -36991.113   -4721.1097    13161.628    10904.302    81.156091 
    8200    1597.4737   -106.63543    1.4454277   -105.19001   -24961.503    4.3065968    4.3065968    4.3065968   -24961.503    22049.653   -36102.602   -60831.561    181.73596   -1115.9317   -52132.424    79.873489 
    8300    2053.1782   -107.02647    1.8577588   -105.16871    33506.592    4.2674979    4.2674979    4.2674979    33506.592    106941.15   -7683.1374    1261.7653    18445.852    4306.9615    25908.786    77.717702 
    8400    1961.2244     -107.001    1.7745571   -105.22644    34727.207     4.289289     4.289289     4.289289    34727.207    17883.792    52857.542    33440.287     9941.752   -3515.3654   -43602.848    78.914338 
    8500    1542.9141   -106.61333    1.3960611   -105.21727   -20055.043    4.3384799    4.3384799    4.3384799   -20055.043    9144.7729   -3158.5937   -66151.308    16420.762   -16424.047   -29891.276    81.660637 
    8600    2488.1908   -107.37396    2.2513673    -105.1226   -28728.246    4.3565792    4.3565792    4.3565792   -28728.246   -49602.715   -698.65108   -35883.371    13604.955   -1720.1791    17935.758    82.686923 
    8700     1765.975   -106.70965    1.5978913   -105.11176   -44278.747    4.3338897    4.3338897    4.3338897   -44278.747   -31409.061    2724.6378   -104151.82   -6292.7349   -9983.9653   -63230.738    81.401714 
    8800    1933.5363   -106.85136    1.7495042   -105.10186    31432.574    4.2726601    4.2726601    4.2726601    31432.574    16357.793    72708.058    5231.8712    7844.0648   -8119.0402      31790.8    78.000076 
    8900     2171.569   -107.10419    1.9648812   -105.13931    46647.111    4.2608077    4.2608077    4.2608077    46647.111    7433.3518     122637.3    9870.6806   -8316.5619    29004.671   -5879.3461     77.35276 
    9000    1870.8821   -106.91692    1.6928134   -105.22411   -36714.607    4.3105839    4.3105839    4.3105839   -36714.607   -32313.282   -15032.683   -62797.856   -5577.6188   -51910.268    -29700.84    80.095537 
    9100    2243.8858   -107.19932     2.030315     -105.169   -37421.531    4.3470749    4.3470749    4.3470749   -37421.531   -96756.265    51863.646   -67371.975    5384.5718    30604.824    -764.8254    82.146933 
    9200    1724.5763   -106.69132    1.5604329   -105.13089   -55454.441    4.3397968    4.3397968    4.3397968   -55454.441   -54997.358    3606.6476   -114972.61    1738.4282    26538.287   -32567.617    81.735022 
    9300    2038.5481   -106.96652    1.8445212   -105.12199   -24121.683    4.2838057    4.2838057    4.2838057   -24121.683   -1284.5963   -6050.1205   -65030.333    9567.4961   -39330.796   -58090.429    78.612083 
    9400    2098.8434   -107.02371    1.8990777   -105.12463    42802.059    4.2453441    4.2453441    4.2453441    42802.059   -41723.727    143564.71    26565.198   -8192.6789    49906.926    22182.216    76.513609 
    9500    1669.9359   -106.73907    1.5109931   -105.22807   -8963.1866    4.2678959    4.2678959    4.2678959   -8963.1866    39141.571   -28432.373   -37598.758     10407.17   -1780.0486   -72277.927     77.73945 
    9600    2214.0808   -107.25774    2.0033469    -105.2544   -18827.994    4.3071456    4.3071456    4.3071456   -18827.994   -8394.0062   -39608.691   -8481.2833    6400.4472   -19638.652   -11035.256    79.904026 
    9700    2432.6329   -107.39072    2.2010973   -105.18963   -68049.234    4.3475472    4.3475472    4.3475472   -68049.234   -30769.975   -118525.45   -54852.279   -9792.4663    30651.647   -18162.899    82.173715 
    9800    1228.9653   -106.27086    1.1119936   -105.15887   -79695.792    4.3287379    4.3287379    4.3287379   -79695.792   -1073.7022   -123396.13   -114617.54   -15845.906   -22757.779   -52931.998    81.111768 
    9900    2778.6681   -107.61526    2.5141973   -105.10106    49097.433    4.2579613    4.2579613    4.2579613    49097.433    23229.145    69234.008    54829.146    11935.678   -32601.831    28582.616    77.197835 
   10000     1840.155   -106.78345    1.6650109   -105.11844    43207.665    4.2425048    4.2425048    4.2425048    43207.665    65393.495    26096.273    38133.226    1945.2385    8402.2345   -71067.304    76.360197 
   10100     1888.826    -106.9135    1.7090494   -105.20445   -21968.239     4.284621     4.284621     4.284621   -21968.239   -21555.428    -23299.36   -21049.927     6564.456   -43120.168   -1462.7168    78.656975 
   10200    2165.7315   -107.15773    1.9595994   -105.19813   -14315.211    4.3310663    4.3310663    4.3310663   -14315.211   -47516.667     67375.99   -62804.956    20067.907    4741.1024    -4054.883    81.242727 
   10300    1508.1443   -106.50419    1.3646007   -105.13959   -30936.559    4.3482599    4.3482599    4.3482599   -30936.559   -18735.038    13835.725   -87910.365   -11589.946   -12697.895   -41215.247    82.214131 
   10400    2647.2166    -107.5211    2.3952572   -105.12584   -822.78831    4.2961573    4.2961573    4.2961573   -822.78831    7411.6719   -14677.765    4797.7286    5714.3779   -9390.9847    35094.518    79.294039 
   10500    1626.5815   -106.56007    1.4717652   -105.08831    51659.955    4.2313956    4.2313956    4.2313956    51659.955    105527.89    45655.761     3796.216    23716.654    22552.956   -99610.144    75.761907 
   10600    2370.3354   -107.28896    2.1447293   -105.14423    32006.459    4.2420686    4.2420686    4.2420686    32006.459   -7888.9373    91886.898    12021.416   -19493.564   -42674.526     28974.48    76.336643 
   10700    1760.4517   -106.80227    1.5928937   -105.20938   -14899.301    4.2938318    4.2938318    4.2938318   -14899.301    15985.516    13741.954   -74425.372   -5815.6036    -5852.884   -78464.359    79.165343 
   10800    2420.0875   -107.35414     2.189746    -105.1644   -38541.929    4.3360299    4.3360299    4.3360299   -38541.929   -56257.459    4773.6936   -64142.022    19439.461    8171.5019     11752.36    81.522373 
   10900    1249.0511   -106.24226    1.1301677   -105.11209   -8959.3366    4.3392942    4.3392942    4.3392942   -8959.3366    53731.594   -17070.101   -63539.503    -11450.37   -24914.169   -34064.114    81.706627 
   11000    2150.9929   -107.01014    1.9462636   -105.06388     23723.39    4.3047032    4.3047032    4.3047032     23723.39    65855.292    35268.043   -29953.164    27871.974    6818.3832   -9273.0072     79.76817 
   11100    2028.2903   -106.92166    1.8352397   -105.08642    24394.723     4.267121     4.267121     4.267121    24394.723    101495.62    45997.829   -74309.278    22542.653   -21161.468   -14761.219    77.697114 
   11200    1305.8331   -106.34798    1.1815452   -105.16643    34452.034    4.2621529    4.2621529    4.2621529    34452.034    134184.89    27063.188   -57891.974     -11111.7   -30628.352   -65200.812    77.426047 
   11300     2464.825   -107.40832    2.2302255   -105.17809     15922.64    4.2840489    4.2840489    4.2840489     15922.64    65460.908    22709.337   -40402.326   -1875.9993    8189.7688    13670.699     78.62547 
   11400    1148.5724   -106.24098    1.0392524   -105.20172   -6161.2722    4.3095719    4.3095719    4.3095719   -6161.2722    151419.65   -40555.882   -129347.58    23102.391   -30250.539   -63017.509    80.039136 
   11500    2497.1284   -107.39617    2.2594542   -105.13671    9382.6364    4.3107044    4.3107044    4.3107044    9382.6364    8730.7203     60394.17   -40976.981   -4781.8651   -17109.272    24694.316    80.102255 
   11600    1440.9124   -106.45288    1.3037678   -105.14911    -16516.57    4.2811446    4.2811446    4.2811446    -16516.57    34733.769   -17433.753   -66849.728   -11003.285    24608.801   -70431.155    78.465669 
   11700    2862.0285   -107.72263    2.5896235   -105.13301    26267.087     4.264033     4.264033     4.264033    26267.087    40281.196    40251.034   -1730.9692   -231.90342   -17322.072    20445.923    77.528551 
   11800      1884.38   -106.88263    1.7050266    -105.1776   -26278.452     4.285434     4.285434     4.285434   -26278.452   -24414.865   -23074.044   -31346.448    4093.1033    37929.811   -65596.317     78.70176 
   11900     1969.134   -106.96054    1.7817138   -105.17882   -58557.876    4.3142658    4.3142658    4.3142658   -58557.876   -36395.007   -54374.953   -84903.669   -35533.187    32521.709   -34043.972    80.300953 
   12000    2925.0601   -107.79566    2.6466559     -105.149   -33915.372    4.3075138    4.3075138    4.3075138   -33915.372   -13871.514   -65568.296   -22306.306    5561.9862   -13664.166   -3012.9121     79.92452 
   12100    1368.0384   -106.41369    1.2378299   -105.17586   -33396.386    4.2679769    4.2679769    4.2679769   -33396.386   -20452.729   -65172.632   -14563.796     11242.93    28629.453   -75100.137    77.743876 
   12200    2243.8039   -107.19229    2.0302409   -105.16205    32862.138     4.242624     4.242624     4.242624    32862.138   -30592.516    70667.441    58511.489   -48144.335    41014.333    14694.201     76.36663 
   12300    1965.3913     -106.985    1.7783274   -105.20667   -25317.322    4.2671775    4.2671775    4.2671775   -25317.322    54218.534   -68673.107   -61497.394    16021.213    -13660.63   -71724.121      77.7002 
   12400    2167.2631   -107.15881    1.9609852   -105.19782    -42963.91    4.2909744    4.2909744    4.2909744    -42963.91   -21296.716   -43673.498   -63921.514   -1878.0494    26407.994   -10366.735    79.007399 
   12500    2327.0906   -107.28288    2.1056005   -105.17728   -20093.461    4.2975891    4.2975891    4.2975891   -20093.461   -26557.195    14462.605   -48185.793   -26723.058    19215.248   -1106.2665     79.37334 
   12600    1290.0746   -106.34916    1.1672866   -105.18187   -31634.938      4.29704      4.29704      4.29704   -31634.938    68870.859   -74512.762    -89262.91    15093.975    -23456.84   -68737.098    79.342921 
   12700    2085.2194   -107.04812    1.8867504   -105.16136    24331.715    4.2712214    4.2712214    4.2712214    24331.715    31952.107    38131.144    2911.8941    2218.0662    33093.033     44362.13    77.921312 
   12800    1710.4409   -106.71715    1.5476429   -105.16951    10329.387    4.2584147    4.2584147    4.2584147    10329.387     33298.83    26828.094   -29138.763   -12115.843   -39451.933   -63045.606    77.222502 
   12900    1919.5791   -106.92501    1.7368755   -105.18813   -4740.0035    4.2788664    4.2788664    4.2788664   -4740.0035    76666.779   -48926.178   -41960.611    3126.3295    2765.0913    43258.003    78.340473 
   13000    2005.9454   -106.99164    1.8150215   -105.17661   -9399.9994    4.2878952    4.2878952    4.2878952   -9399.9994    -6580.217   -30462.353     8842.572    24970.678   -2678.8275    21284.098    78.837438 
   13100    2433.2224   -107.36991    2.2016307   -105.16828   -21295.754    4.2918582    4.2918582    4.2918582   -21295.754   -33971.089    7203.7374    -37119.91    3475.5704   -41831.248   -28395.689     79.05623 
   13200    1480.9952   -106.51992    1.3400355   -105.17989   -23799.308    4.2856986    4.2856986    4.2856986   -23799.308    18882.107   -44723.945   -45556.086   -4882.1853    17518.572    70487.702    78.716334 
   13300    2297.9026   -107.25619    2.0791906     -105.177    8672.5859    4.2644855    4.2644855    4.2644855    8672.5859   -41746.585    45616.378    22147.964    32210.498   -20694.087   -21000.462    77.553237 
   13400     1634.457   -106.68001     1.478891   -105.20112    8332.5899    4.2608567    4.2608567    4.2608567    8332.5899    8780.8279    76087.256   -59870.315   -2605.0526   -19459.143    64325.769    77.355425 
   13500    1920.6649   -106.93197     1.737858   -105.19411   -16925.989    4.2802385    4.2802385    4.2802385   -16925.989   -39370.172    2694.3794   -14102.173    16204.962    10190.649    38443.322    78.415859 
   13600    2182.8278   -107.14934    1.9750685   -105.17428    -3118.517     4.287311     4.287311     4.287311    -3118.517   -45550.012    24283.278    11911.183   -4115.5501   -9810.0706    19775.396    78.805217 
   13700    1545.6999   -106.58578    1.3985818    -105.1872   -1592.7434    4.2977075    4.2977075    4.2977075   -1592.7434    38651.131   -2963.3196   -40466.042   -2762.8402   -4504.9227    76832.888    79.379904 
   13800    3181.2978   -108.02462    2.8785051   -105.14611    7470.9769    4.2934793    4.2934793    4.2934793    7470.9769    2609.7296   -8857.3212    28660.522    14777.004   -1477.9549   -27796.001    79.145843 
   13900    971.92229   -106.06922   0.87941572   -105.18981    1572.7845    4.2693628    4.2693628    4.2693628    1572.7845    64796.558   -52198.158   -7880.0464   -12009.079    3287.5024    104949.87    77.819634 
   14000    2381.9885   -107.34414    2.1552732   -105.18887    11178.223     4.264659     4.264659     4.264659    11178.223   -10324.624    18136.554     25722.74    5141.8421   -24515.054   -27257.431    77.562703 
   14100    1734.7874   -106.77494    1.5696721   -105.20526   -3938.7784      4.26828      4.26828      4.26828   -3938.7784     50706.37   -47967.351   -14555.354    11497.542    11085.071    88007.693    77.760437 
   14200    1883.7874   -106.90461    1.7044904   -105.20011   -12965.161    4.2867062    4.2867062    4.2867062   -12965.161    22336.945   -22496.812   -38735.615   -17404.529   -15168.412    28492.894    78.771872 
   14300    1876.9105   -106.88224    1.6982681   -105.18397   -16643.233    4.2893574    4.2893574    4.2893574   -16643.233   -18170.424   -19179.461   -12579.813      5765.18   -44251.274     17987.49    78.918117 
   14400    1858.7302    -106.8604    1.6818182   -105.17858    20144.029    4.2677651    4.2677651    4.2677651    20144.029    56051.633    15767.205   -11386.751    3033.1033    13765.888    84258.093    77.732299 
   14500    2764.8923   -107.66279    2.5017326   -105.16106    39544.787    4.2633663    4.2633663    4.2633663    39544.787    17463.115    76783.585     24387.66    -15116.68   -20191.219    -26412.84    77.492194 
   14600    971.72279   -106.09078   0.87923521   -105.21154   -6734.0896    4.2811603    4.2811603    4.2811603   -6734.0896    40742.725   -3314.1332    -57630.86   -12333.927   -7591.4399    104223.37    78.466537 
   14700     2804.503   -107.70373    2.5375733   -105.16616    9159.0966    4.2930338    4.2930338    4.2930338    9159.0966   -9213.7107    44089.542   -7398.5419    2478.6016    23462.067   -25664.634    79.121211 
   14800    1324.6269   -106.38724    1.1985503   -105.18869     -26335.7    4.2855534    4.2855534    4.2855534     -26335.7    45550.523   -45238.319   -79319.304    1909.8324   -20484.855    86065.799    78.708334 
   14900     2124.035   -107.09217    1.9218715   -105.17029   -2828.4625    4.2732852    4.2732852    4.2732852   -2828.4625    28868.437   -4971.1351   -32382.689   -19812.747   -2841.9724    35983.346    78.034315 
   15000    2161.0102   -107.11104    1.9553275   -105.15571    17333.364     4.271305     4.271305     4.271305    17333.364    29515.713    28076.885   -5592.5061    8657.8729    17819.349    26658.731    77.925884 
   15100    1438.8814   -106.48156    1.3019301   -105.17963   -25113.605    4.2820368    4.2820368    4.2820368   -25113.605   -2235.1661   -63230.253   -9875.3971   -23417.273   -7838.3634    70850.222    78.514737 
   15200    2527.7489   -107.44415    2.2871603   -105.15699   -9644.9173    4.2832497    4.2832497    4.2832497   -9644.9173    -20818.58   -35423.424    27307.252   -14487.659   -25565.153   -13988.976    78.581473 
   15300    1514.8123   -106.54481     1.370634   -105.17418   -23504.134    4.2805531    4.2805531    4.2805531   -23504.134    57649.133   -65821.927   -62339.608    6733.9977    17890.969    103959.77    78.433151 
   15400    2645.2664   -107.55877    2.3934927   -105.16528    11487.061    4.2774678    4.2774678    4.2774678    11487.061   -5696.2874   -20346.244    60503.716   -19462.677   -3887.8437   -49912.203    78.263675 
   15500    1390.8949   -106.43964    1.2585109   -105.18113   -14681.037    4.2759409    4.2759409    4.2759409   -14681.037    34756.338   -55994.273   -22805.177   -15512.093   -8759.6484    109667.92    78.179895 
   15600    2116.4898   -107.09224    1.9150444    -105.1772    18116.295      4.27607      4.27607      4.27607    18116.295      41082.9   -2742.6667    16008.652    1851.6299     10333.17   -25598.832    78.186976 
   15700    1385.6768   -106.43256    1.2537895   -105.17877    -9266.333    4.2904536    4.2904536    4.2904536    -9266.333    92998.247   -19814.474   -100982.77    -22974.71   -12125.103    52989.787    78.978634 
   15800    2260.1702   -107.19367    2.0450495   -105.14862    2939.5621    4.2874305    4.2874305    4.2874305    2939.5621    54024.396    173.71283   -45379.423   -19784.865   -7555.6552    48302.016    78.811807 
   15900    2053.5045   -106.99495     1.858054    -105.1369    23327.838    4.2774188    4.2774188    4.2774188    23327.838    43089.502    51829.495   -24935.483    3443.4915    1695.6552    25196.799    78.260989 
   16000    1687.0707   -106.68566     1.526497   -105.15916    -24298.34    4.2868569    4.2868569    4.2868569    -24298.34    46071.749    -39802.02   -79164.748   -18439.713    -1163.084     54981.14    78.780178 
   16100    2507.0759   -107.40853     2.268455   -105.14007   -14949.926    4.2882423    4.2882423    4.2882423   -14949.926   -14176.315   -19690.637   -10982.825    2031.7154    -1302.425   -1748.3354    78.856583 
   16200    1554.3458   -106.56701    1.4064048   -105.16061   -17046.847    4.2859046    4.2859046    4.2859046   -17046.847    11780.501   -35617.908   -27303.134   -6876.1327    4590.6631    82006.446    78.727686 
   16300    3155.2742    -107.9972    2.8549584   -105.14224   -565.50209      4.28617      4.28617      4.28617   -565.50209    18543.563   -25233.489    4993.4195    -6507.296    4563.2961   -27574.029    78.742315 
   16400    736.89578   -105.84987   0.66675879   -105.18311    11407.248     4.282159     4.282159     4.282159    11407.248    58364.391   -75811.834    51669.187    11735.359   -10619.904    92330.726     78.52146 
   16500    2728.9504   -107.61592    2.4692117   -105.14671   -14896.101    4.2858572    4.2858572    4.2858572   -14896.101   -48802.855   -6444.4684    10559.021    19169.445    15923.465   -32750.483    78.725078 
   16600    1484.8272   -106.51329    1.3435029   -105.16979   -10084.486    4.2735358    4.2735358    4.2735358   -10084.486    44946.849   -76353.861    1153.5549   -7610.3677    8133.5592    103531.09    78.048045 
   16700    2996.1821   -107.86677    2.7110086   -105.15576    2005.1161    4.2639788    4.2639788    4.2639788    2005.1161   -16518.762    19817.328    2716.7818    -1309.974    -3591.291   -4087.7969    77.525597 
   16800    1112.1457   -106.19915    1.0062928   -105.19286   -13055.233    4.2817279    4.2817279    4.2817279   -13055.233   -10926.797   -35398.751    7159.8493    8321.3281    9824.6916    56415.519    78.497746 
   16900    2125.7867   -107.09927    1.9234565   -105.17581   -34623.637    4.2978742    4.2978742    4.2978742   -34623.637    944.45472   -82490.679   -22324.686   -21276.641    8548.6015    47273.803    79.389139 
   17000    2349.2718    -107.2916    2.1256705   -105.16593   -9840.2706    4.2908692    4.2908692    4.2908692   -9840.2706   -3108.0643   -25474.407   -938.34013   -9396.3112   -24629.069    -22047.99    79.001588 
   17100    1559.4748   -106.58153    1.4110455   -105.17049    11049.505    4.2766626    4.2766626    4.2766626    11049.505    35413.676    11650.677   -13915.839    7173.4774    7966.1483     73183.14    78.219487 
   17200    2776.7527   -107.66513    2.5124642   -105.15267    554.33621    4.2722194    4.2722194    4.2722194    554.33621   -19584.892     9315.352    11932.548   -17229.157   -139.40791   -44590.611    77.975946 
   17300     1162.624   -106.24675    1.0519666   -105.19479   -6173.0195    4.2772314    4.2772314    4.2772314   -6173.0195     27110.01   -4587.6872   -41041.381   -2870.5353    3777.5058    42743.773      78.2507 
   17400    2464.7528   -107.41887    2.2301602   -105.18871   -5354.7805    4.2835446    4.2835446    4.2835446   -5354.7805   -31348.761    25300.962   -10016.542    23631.503   -4627.3269     23109.34     78.59771 
   17500    1842.5109   -106.86496    1.6671426   -105.19782   -12041.717    4.2753858    4.2753858    4.2753858   -12041.717   -11683.274   -2673.8206   -21768.057   -5126.5774    4533.3554    -57396.99    78.149452 
   17600    1447.7504   -106.51774    1.3099549   -105.20779   -2335.4094    4.2582206    4.2582206    4.2582206   -2335.4094    25334.731   -13896.713   -18444.246    5583.4236    13759.367    34841.166    77.211943 
   17700    2383.8989   -107.36411    2.1570018    -105.2071   -2641.8972    4.2570193    4.2570193    4.2570193   -2641.8972   -31254.639   -4462.6487    27791.596    63997.286   -5853.4833    3556.8858    77.146612 
   17800    1868.3531   -106.90851    1.6905251   -105.21799    -15082.41    4.2681751    4.2681751    4.2681751    -15082.41    6945.8788   -11959.721   -40233.388   -19231.779   -2481.0156    -50168.53    77.754704 
   17900    1971.0351    -107.0052    1.7834339   -105.22177   -15041.329    4.2757171    4.2757171    4.2757171   -15041.329    1033.6038   -43361.855   -2795.7362    36908.603    7642.2901    23127.071     78.16762 
   18000    2373.6372   -107.35528    2.1477169   -105.20756   -20023.753    4.2793564    4.2793564    4.2793564   -20023.753   -73130.983    46331.323   -33271.599    8583.3712    960.91186   -5951.5399    78.367388 
   18100    746.33463   -105.91309   0.67529926   -105.23779   -19344.263    4.2671291    4.2671291    4.2671291   -19344.263   -43319.977    69096.515   -83809.327   -26053.316   -11364.459   -40573.196    77.697553 
   18200    2980.7723   -107.89907    2.6970654     -105.202    30541.018    4.2575865    4.2575865    4.2575865    30541.018   -8615.1904    61660.768    38577.475    13100.468    3722.9724    18660.627    77.177454 
   18300     1471.727   -106.56408    1.3316495   -105.23243   -42832.704    4.2741914    4.2741914    4.2741914   -42832.704   -100636.33    53841.938   -81703.722    9969.9043   -11546.322   -21761.324    78.083974 
   18400    1901.7905   -106.93308      1.72078    -105.2123   -15211.478    4.2797785    4.2797785    4.2797785   -15211.478   -23497.911    4383.7258   -26520.251   -3947.3645    3587.9789   -37944.436     78.39058 
   18500     2388.646   -107.36003    2.1612971   -105.19873    -2078.543    4.2768145    4.2768145    4.2768145    -2078.543    4620.1573   -30837.133    19981.346    39694.397   -13523.786    32972.644    78.227825 
   18600    1710.3521   -106.75348    1.5475625   -105.20592   -42610.628    4.2790223    4.2790223    4.2790223   -42610.628       -65534   -7628.5621   -54669.321    4735.4885   -5851.7189   -22361.022    78.349034 
   18700    2673.5708   -107.60357     2.419103   -105.18447    41356.412     4.259466     4.259466     4.259466    41356.412    65637.425   -1970.1839    60401.994    2900.2121    978.91581   -1487.3179    77.279709 
   18800    1225.9338   -106.32678    1.1092507   -105.21753   -13707.693    4.2605474    4.2605474    4.2605474   -13707.693   -6253.7647   -22861.008   -12008.307    29440.917   -15291.014    48716.862     77.33858 
   18900    2684.2276   -107.62191    2.4287455   -105.19316   -10690.555    4.2803789    4.2803789    4.2803789   -10690.555   -50836.771    17201.665    1563.4407    7388.4764   -22304.525   -5747.2883    78.423575 
   19000    2124.7393   -107.11118    1.9225088   -105.18867   -14106.782    4.2828018    4.2828018    4.2828018   -14106.782    43378.525   -74438.547   -11260.324   -7055.8313    2785.8414    2302.5475    78.556828 
   19100    1904.7834   -106.90254     1.723488   -105.17905   -18751.805    4.2837078    4.2837078    4.2837078   -18751.805   -2296.3139   -4691.6664   -49267.433    28091.365   -42043.565    35588.746    78.606693 
   19200    2442.4012   -107.37636     2.209936   -105.16643   -35277.683    4.2840689    4.2840689    4.2840689   -35277.683   -1013.8363   -59732.723    -45086.49   -17809.642   -9731.2796   -54266.609    78.626571 
   19300    1534.7811   -106.57471    1.3887022   -105.18601     2499.157    4.2628242    4.2628242    4.2628242     2499.157    14837.734     -24034.9    16694.637    19384.793    2818.6362    3446.1052    77.462633 
   19400    2436.6777   -107.38357    2.2047572   -105.17882    30408.246    4.2585841    4.2585841    4.2585841    30408.246    53209.168    33696.626    4318.9451    12110.765    -41772.67   -9935.2862    77.231718 
   19500    1662.1957    -106.7091    1.5039896   -105.20511   -36678.886    4.2793595    4.2793595    4.2793595   -36678.886    13398.673   -66985.666   -56449.664    -790.5696    12056.555   -73797.486     78.36756 
   19600     2589.279   -107.51999    2.3428341   -105.17715   -2235.8137    4.2790666    4.2790666    4.2790666   -2235.8137   -12879.973   -30379.523    36552.055    31045.446    3861.5952    27738.302    78.351468 
   19700    1670.7246   -106.69883    1.5117067   -105.18712    10558.005    4.2833075    4.2833075    4.2833075    10558.005     82685.92   -25371.096   -25640.808   -4338.5174   -6299.5428   -87117.953    78.584659 
   19800    2102.9005    -107.0631    1.9027485   -105.16035   -35745.397    4.3006047    4.3006047    4.3006047   -35745.397   -63102.401   -50964.812    6831.0237    32459.892    30364.545    6739.0401    79.540549 
   19900    1871.4263   -106.85652    1.6933059   -105.16321    10508.508    4.2715227    4.2715227    4.2715227    10508.508    36943.695   -26509.844    21091.674    3892.5506   -10774.612   -56844.577    77.937804 
   20000    2258.5402   -107.20429    2.0435747   -105.16072     41637.95    4.2454609    4.2454609    4.2454609     41637.95    60891.988     16531.62    47490.242    1487.1303    11209.608    -58304.38    76.519923 
   20100    2062.6523   -107.05889    1.8663312   -105.19256    3080.3474    4.2626785    4.2626785    4.2626785    3080.3474    8103.2832   -25104.203    26241.962    8559.2301    25917.309   -12186.542    77.454692 
   20200    1300.3201   -106.38526     1.176557    -105.2087   -19054.738    4.2757645    4.2757645    4.2757645   -19054.738    30860.767   -72108.366   -15916.616   -3788.7656   -10863.068    -94134.57    78.170217 
   20300    2656.4314    -107.5876     2.403595     -105.184    3096.9132    4.2912558    4.2912558    4.2912558    3096.9132   -2582.3795   -7548.3644    19421.483   -5526.2155    14403.452    53881.647    79.022942 
   20400    1272.4137    -106.3438    1.1513066    -105.1925   -71559.491    4.2976471    4.2976471    4.2976471   -71559.491    20087.172   -100495.01   -134270.64    10990.626    35968.668   -119062.38    79.376558 
   20500    2283.2499   -107.24314    2.0659325    -105.1772    4442.0132    4.2540047    4.2540047    4.2540047    4442.0132   -7554.0457    50157.218   -29277.133   -7866.8207   -21300.739   -18394.055    76.982833 
   20600    1980.7431   -106.96051     1.792218   -105.16829    8158.1719    4.2322886    4.2322886    4.2322886    8158.1719    45977.975    12328.214   -33831.674   -17382.004   -15917.975    -18509.42    75.809883 
   20700    1760.0445   -106.80102    1.5925252    -105.2085   -17562.366    4.2601504    4.2601504    4.2601504   -17562.366     76533.13   -44280.322   -84939.905    10652.386    17624.175   -75637.291    77.316966 
   20800    1906.1823    -106.9184    1.7247538   -105.19365    15724.221    4.2806246    4.2806246    4.2806246    15724.221   -9636.2979    53400.508    3408.4522   -9966.6716   -57375.976    5076.4839    78.437082 
   20900    1543.8809   -106.59802    1.3969359   -105.20108   -3222.8115    4.2956386    4.2956386    4.2956386   -3222.8115    30959.373   -24859.908     -15767.9   -4254.5308    332.96369   -81537.198    79.265317 
   21000    3157.1105   -108.01409      2.85662   -105.15747    1869.2978    4.2914993    4.2914993    4.2914993    1869.2978   -29392.516    27751.232     7249.177    8384.4888    7979.2101    31582.188    79.036398 
   21100    924.45955   -106.01833   0.83647043   -105.18186    21855.788    4.2606617    4.2606617    4.2606617    21855.788    81936.912    -19378.25     3008.702   -8780.9139   -30475.041   -87016.621    77.344807 
   21200      2517.32   -107.43468     2.277724   -105.15695    33204.491    4.2582289    4.2582289    4.2582289    33204.491    18693.602    41680.311    39239.561    1949.0641    14506.941   -11823.011    77.212391 
   21300    1801.9157   -106.81369    1.6304112   -105.18328    4727.6265    4.2801227    4.2801227    4.2801227    4727.6265    32498.608   -3080.9066   -15234.822    3437.3679    2605.2872   -39834.068    78.409494 
   21400    1591.0346   -106.62691    1.4396015   -105.18731   -5929.8567    4.2913265    4.2913265    4.2913265   -5929.8567     69352.93    -13473.51    -73668.99   -11003.384   -31785.257   -61165.193    79.026851 
   21500    2337.9468   -107.26917    2.1154234   -105.15375   -1169.6638    4.2913671    4.2913671    4.2913671   -1169.6638    13506.807    11478.026   -28493.825    453.34988    10186.596    36620.105    79.029096 
   21600     1641.226   -106.64771    1.4850157    -105.1627   -25188.947    4.2796751    4.2796751    4.2796751   -25188.947    38030.106   -20745.643   -92851.304    2793.0717   -769.78432   -96534.751    78.384898 
   21700    2740.6544   -107.62894    2.4798017   -105.14914    18064.667    4.2556445    4.2556445    4.2556445    18064.667    5057.8102    41993.365    7142.8239   -22632.238   -12092.144    27545.598    77.071892 
   21800    1148.7198   -106.24292    1.0393858   -105.20354   -3381.9131    4.2527428    4.2527428    4.2527428   -3381.9131    88265.026   -46150.311   -52260.455    8757.6638    21275.016   -22268.568    76.914344 
   21900    2754.7537   -107.68991     2.492559   -105.19735   -10062.617    4.2724613    4.2724613    4.2724613   -10062.617    27585.027   -14606.705   -43166.173   -9814.2119    5863.0512    -38599.57    77.989191 
   22000    1483.4087   -106.54279    1.3422194   -105.20057    -21967.19     4.294242     4.294242     4.294242    -21967.19   -28729.208   -30712.955   -6459.4083   -11920.371   -9835.7191    14195.738    79.188034 
   22100    2515.9721   -107.42755    2.2765044   -105.15105   -21117.639    4.2928658    4.2928658    4.2928658   -21117.639    64471.596   -57525.833   -70298.679    17431.774    18372.694   -27261.067     79.11192 
   22200    1449.3918   -106.46072    1.3114402   -105.14928   -44901.387    4.2741082    4.2741082    4.2741082   -44901.387    -65149.97   -87437.917    17883.728   -70802.669   -9649.5635    1468.2085    78.079414 
   22300    1880.4965   -106.85397    1.7015127   -105.15246    6494.7834    4.2541687    4.2541687    4.2541687    6494.7834    36954.871     3364.996   -20835.517    28237.694    -14477.65    43032.566    76.991738 
   22400    2212.7632   -107.17293    2.0021547   -105.17077   -3563.6338    4.2592973    4.2592973    4.2592973   -3563.6338   -14195.548   -33061.713    36566.359   -60135.155    16436.303   -3768.0472    77.270527 
   22500    1542.7861   -106.60055    1.3959453    -105.2046   -13072.504    4.2819319    4.2819319    4.2819319   -13072.504   -58409.689   -49604.792    68796.969   -67525.659   -9661.5778    9488.7563    78.508967 
   22600    2780.5553   -107.67893    2.5159049   -105.16303    -16019.14     4.291943     4.291943     4.291943    -16019.14     10888.51    -39403.26   -19542.669    19534.877    6462.9775    32587.922    79.060916 
   22700    1348.4611   -106.39258     1.220116   -105.17247   -33627.481    4.2907994    4.2907994    4.2907994   -33627.481   -102308.73   -64400.217     65826.51   -107741.93     24668.63    -6470.172    78.997731 
   22800    3036.6523   -107.87956    2.7476269   -105.13194   -11529.903    4.2834416    4.2834416    4.2834416   -11529.903    8771.2506    -13306.17    -30054.79    41039.735    4918.2941    27308.745    78.592037 
   22900    1182.8151   -106.23413    1.0702359   -105.16389   -32432.222    4.2711286    4.2711286    4.2711286   -32432.222    -19189.13   -92204.279    14096.741    -104281.2    2267.4045    35868.647    77.916234 
   23000    2668.9195   -107.56843    2.4148944   -105.15354    19768.643    4.2645523    4.2645523    4.2645523    19768.643    5616.2355    61608.347   -7918.6527    20597.576    31165.435    -6458.167    77.556878 
   23100    1455.7605   -106.49851    1.3172027    -105.1813    -46136.86    4.2812891    4.2812891    4.2812891    -46136.86   -83658.717   -79444.503    24692.642   -99349.009   -714.67708    16793.866    78.473616 
   23200    2096.5152    -107.0533     1.896971   -105.15633   -15874.036    4.2848482    4.2848482    4.2848482   -15874.036     -22033.3   -18500.949    -7087.859   -9979.0642    5252.0077    47476.607    78.669488 
   23300    1856.6009   -106.83482    1.6798916   -105.15493   -24322.442    4.2815525    4.2815525    4.2815525   -24322.442   -103436.96   -69607.462    100077.09   -69385.089    23704.838    52.744188    78.488102 
   23400     1917.029   -106.88073    1.7345682   -105.14616   -23310.878     4.276904     4.276904     4.276904   -23310.878   -40972.845    -76072.33    47112.542   -48401.802   -3764.1213    13829.885    78.232735 
   23500    1865.9059   -106.83579    1.6883109   -105.14748    35105.682    4.2586077    4.2586077    4.2586077    35105.682    89364.026   -39410.187    55363.208   -19936.023   -16096.028    47704.181    77.232998 
   23600    2136.9691   -107.11588    1.9335746    -105.1823    10495.224    4.2692431    4.2692431    4.2692431    10495.224   -33916.409   -8558.3518    73960.432   -66792.613    3605.6531   -20321.717     77.81309 
   23700    2374.2076   -107.30695    2.1482329   -105.15871   -26724.242    4.2967742    4.2967742    4.2967742   -26724.242   -4487.9049   -56219.578   -19465.244    13212.998   -2625.4415    34273.403    79.328201 
   23800    1243.4124   -106.28133    1.1250657   -105.15626    4223.5626    4.2934437    4.2934437    4.2934437    4223.5626   -27194.036    5235.3976    34629.326   -87381.573   -11612.453    15690.617    79.143876 
   23900    2857.9969   -107.69743    2.5859756   -105.11145    18750.457    4.2865027    4.2865027    4.2865027    18750.457    21497.532    21876.379    12877.461    24277.148   -805.98162    3628.5417    78.760654 
   24000     947.6341   -106.01456   0.85743925   -105.15712   -1058.0899    4.2770168    4.2770168    4.2770168   -1058.0899    5056.5117   -67497.776    59266.995   -99958.169    9726.2628    25182.456    78.238924 
   24100    2925.4799   -107.77625    2.6470357   -105.12921    24110.317    4.2808297    4.2808297    4.2808297    24110.317    18349.374    45397.268    8584.3097      19065.6   -8419.3864   -28221.363    78.448357 
   24200    1180.7177   -106.22064    1.0683382    -105.1523   -51609.998    4.2961951    4.2961951    4.2961951   -51609.998   -17218.964   -104517.28    -33093.75   -56816.225   -1945.9677    42440.729     79.29613 
   24300    2578.6109   -107.46284    2.3331813   -105.12966   -19616.207    4.2785667    4.2785667    4.2785667   -19616.207   -22168.159   -35715.928   -964.53441   -17475.834   -4475.7892    4822.7075    78.324012 
   24400    1651.0167    -106.6442    1.4938746   -105.15032   -31039.724    4.2698129    4.2698129    4.2698129   -31039.724   -19074.141   -44664.032   -29380.999   -16284.444   -8958.9219   -33757.666    77.844249 
   24500    2347.9807   -107.28644    2.1245023   -105.16194    3848.9836     4.270777     4.270777     4.270777    3848.9836    12671.948   -24190.746    23065.749   -46999.905    4303.4824    10808.338    77.896992 
   24600    1942.0875   -106.93949    1.7572416   -105.18225   -18839.896     4.280765     4.280765     4.280765   -18839.896   -54371.827    14108.737   -16256.597    34219.257   -38859.552   -7284.7932    78.444798 
   24700    1869.1111   -106.86769     1.691211   -105.17648   -36095.273    4.2896488    4.2896488    4.2896488   -36095.273   -37546.041   -22031.717   -48708.061    -38913.89    2958.0939   -33364.328      78.9342 
   24800    2266.3722    -107.2061    2.0506612   -105.15544    27255.283    4.2743816    4.2743816    4.2743816    27255.283    33451.336    55770.414   -7455.8997    18898.204    -4742.635    14206.003    78.094397 
   24900    1166.6247   -106.23567    1.0555866   -105.18008    20004.459    4.2769006    4.2769006    4.2769006    20004.459   -9160.9361    40227.582     28946.73    18780.847   -9618.8961   -4935.4818    78.232547 
   25000    2945.6296   -107.79926    2.6652676   -105.13399   -2332.8632    4.2943709    4.2943709    4.2943709   -2332.8632    19110.721   -30010.068    3900.7567   -22138.517   -986.79682   -330.25481    79.195162 
   25100    1338.4588      -106.34    1.2110656   -105.12893    634.94347    4.2963865    4.2963865    4.2963865    634.94347   -35498.239    28695.736    8707.3336    21745.581   -42597.954     21786.58     79.30673 
   25200    3085.9586   -107.87202    2.7922402   -105.07978   -14281.083    4.3086692    4.3086692    4.3086692   -14281.083   -23682.024   -17744.651   -1416.5754   -620.77935    19651.211   -10702.437    79.988848 
   25300    827.71131   -105.87851   0.74893058   -105.12958   -70096.943    4.2981307    4.2981307    4.2981307   -70096.943   -85016.192   -85049.453   -40225.186      33064.3   -46722.825     43977.38    79.403353 
   25400    2900.1179   -107.72973    2.6240876   -105.10564    9876.7111     4.256734     4.256734     4.256734    9876.7111    3891.1793   -11945.554    37684.508   -5164.4045    5757.6944   -15986.686    77.131103 
   25500    1781.3989   -106.77661    1.6118471   -105.16476    6569.1537    4.2515932    4.2515932    4.2515932    6569.1537    21273.835   -21926.753    20360.379    6493.3221    13442.026   -26826.023    76.851989 
   25600    1597.4645   -106.65818    1.4454194   -105.21276   -1989.7862    4.2654727    4.2654727    4.2654727   -1989.7862    -18348.45   -18133.326    30512.417    22339.662   -58319.506    52384.635    77.607107 
   25700    2389.7464   -107.37056    2.1622928   -105.20826   -10371.007    4.2932875    4.2932875    4.2932875   -10371.007    -850.3667   -9169.5551   -21093.098   -7863.1982    38183.395   -54343.607    79.135237 
   25800    1887.8372   -106.87674    1.7081548   -105.16859   -50855.946    4.3170401    4.3170401    4.3170401   -50855.946   -17158.543   -76196.327   -59212.968     22195.02   -11144.917    55852.662    80.455966 
   25900    2635.0941   -107.51004    2.3842885   -105.12575   -31457.475    4.2981919    4.2981919    4.2981919   -31457.475   -3031.3077   -65711.795   -25629.323    6184.4474    5598.3428   -29415.808    79.406745 
   26000    1211.5825   -106.24445    1.0962653   -105.14818   -26673.245    4.2525552    4.2525552    4.2525552   -26673.245    29268.429   -28307.491   -80980.675   -3885.5813     52352.79   -5619.8694    76.904171 
   26100    2632.6284   -107.53613    2.3820575   -105.15408     32437.24    4.2352013    4.2352013    4.2352013     32437.24    64566.311     18677.72    14067.691     8016.945   -9459.0122    67162.951    75.966511 
   26200    1891.2439   -106.92265    1.7112373   -105.21141   -23315.332    4.2682148    4.2682148    4.2682148   -23315.332   -17906.691   -25563.013   -26476.293     6944.206    12884.574   -66615.806    77.756873 
   26300     1893.457   -106.90714    1.7132396    -105.1939   -33314.906    4.3039945    4.3039945    4.3039945   -33314.906    6342.7425   -52291.528   -53995.933   -6505.1385    25099.823    11828.656    79.728781 
   26400    2323.7513   -107.23828     2.102579    -105.1357   -33884.689    4.3123426    4.3123426    4.3123426   -33884.689    3475.7247   -61865.631    -43264.16    2601.7361   -37769.314   -5428.5842    80.193608 
   26500    1464.4267   -106.47684    1.3250441    -105.1518   -38150.283    4.2860627    4.2860627    4.2860627   -38150.283   -31810.929   -32014.214   -50625.705   -7624.3173    42880.531   -38763.994    78.736402 
   26600    2646.6977    -107.5342    2.3947877   -105.13941    47681.141    4.2344653    4.2344653    4.2344653    47681.141    35645.746    42635.037     64762.64    14242.265    476.01655    5395.9077    75.926913 
   26700    872.89735   -105.99044   0.78981586   -105.20062    20018.086    4.2323186    4.2323186    4.2323186    20018.086    10367.728    45716.685    3969.8467    17928.686   -64441.353   -14020.109    75.811497 
   26800    2963.6451   -107.88495    2.6815683   -105.20339    16293.801    4.2732555    4.2732555    4.2732555    16293.801    44172.256    3584.8311    1124.3169    -10758.25    3168.4511   -30155.136    78.032689 
   26900    871.08246   -106.00267   0.78817372   -105.21449    25986.916    4.3078475    4.3078475    4.3078475    25986.916    30889.762    33960.727    13110.258     33649.26   -32192.381    23935.693    79.943098 
   27000    3317.4627   -108.10707      3.00171   -105.10536   -34461.823    4.3374301    4.3374301    4.3374301   -34461.823   -73673.071   -6611.4459   -23100.954   -21151.805    13590.225   -18894.711    81.601373 
   27100    604.05254   -105.60539   0.54655943   -105.05883   -37708.432    4.3294535    4.3294535    4.3294535   -37708.432   -45824.393   -61249.115   -6051.7884    46599.143    6225.1439    67817.485    81.152004 
   27200    3472.7058   -108.08715    3.1421772   -104.94498    8974.4847    4.2889626    4.2889626    4.2889626    8974.4847   -349.15779    27605.715   -333.10331   -31795.804    15997.247   -27616.236    78.896328 
   27300    1141.5843   -106.04103    1.0329294    -105.0081    -36608.91      4.27997      4.27997      4.27997    -36608.91   -18202.122    -84064.65   -7559.9573     81678.68   -12770.995    42325.272    78.401106 
   27400    3343.0048   -108.08626     3.024821   -105.06144    10612.355    4.2778976    4.2778976    4.2778976    10612.355    5532.2906    5889.5111    20415.264   -10741.487    17709.098    -10402.92     78.28727 
   27500    1412.6084   -106.43875    1.2781578   -105.16059   -2743.3426    4.2662719    4.2662719    4.2662719   -2743.3426   -33151.216    22102.992    2818.1966   -1470.4318   -25211.045    7483.2877    77.650737 
   27600    1691.6024   -106.72211    1.5305974   -105.19151    -15349.35    4.2611732    4.2611732    4.2611732    -15349.35   -37155.024   -30518.235    21625.207    71847.077   -9930.9649    30462.792    77.372667 
   27700    2264.8859   -107.24196    2.0493164   -105.19264    2764.2037    4.2703336    4.2703336    4.2703336    2764.2037   -32116.308   -65.152264    40474.072   -64906.152    15821.781   -12884.686    77.872733 
   27800    1408.8676   -106.46161     1.274773   -105.18684   -6530.1214    4.2912317    4.2912317    4.2912317   -6530.1214   -26166.333    8866.6468   -2290.6776    28752.935   -27946.959    25778.621    79.021613 
   27900    2916.8662   -107.75937    2.6392418   -105.12013    8610.5565    4.2908309    4.2908309    4.2908309    8610.5565   -7704.2123    31066.269    2469.6127   -38217.815    24724.303   -20463.261    78.999472 
   28000     1405.745   -106.40983    1.2719476   -105.13789   -10329.414    4.2850792    4.2850792    4.2850792   -10329.414   -58999.023    27183.019    827.76199   -25251.127   -24261.678    1596.7086    78.682214 
   28100    2968.9778   -107.78977    2.6863935   -105.10338    12433.956    4.2806435    4.2806435    4.2806435    12433.956   -17701.188    49289.453     5713.602     8409.093    16412.952   -72.253201    78.438123 
   28200    827.28051   -105.89644   0.74854079    -105.1479   -20211.663    4.2721176    4.2721176    4.2721176   -20211.663   -28608.092    -23046.46   -8980.4372   -34011.428    47949.574   -28503.006    77.970369 
   28300    3355.2947   -108.15805    3.0359412   -105.12211    14872.092    4.2745635    4.2745635    4.2745635    14872.092    19421.644    24522.016    672.61593    9348.8586   -10857.676   -6554.4066    78.104365 
   28400    990.15397   -106.07705   0.89591212   -105.18114   -54006.808    4.2818044    4.2818044    4.2818044   -54006.808   -72729.794   -24347.541   -64943.091   -32200.689    53125.924    25143.208    78.501957 
   28500     2575.839   -107.48857    2.3306733    -105.1579     28321.83    4.2665713    4.2665713    4.2665713     28321.83    21296.664    16514.532    47154.295    -9758.673   -7080.0281   -8953.1998    77.667089 
   28600     1363.349   -106.41338    1.2335868   -105.17979   -18268.373    4.2794286    4.2794286    4.2794286   -18268.373    -22853.11    9415.9953   -41368.005    4970.1801   -4110.8374    11299.238    78.371354 
   28700    2327.9081   -107.25943    2.1063402   -105.15308   -38849.408    4.2940345    4.2940345    4.2940345   -38849.408   -43041.793   -1047.9323   -72458.498   -23325.708    39475.468    4557.8501    79.176553 
   28800    2141.6815   -107.07912    1.9378384   -105.14128     8146.772    4.2823444    4.2823444    4.2823444     8146.772    14164.619   -3815.9505    14091.647    30624.705   -17070.486   -23379.219    78.531659 
   28900    1883.9138   -106.85434    1.7046048   -105.14974    5885.0141    4.2814447    4.2814447    4.2814447    5885.0141   -19949.899    22229.103    15375.838   -19789.192     8710.917    22140.636    78.482175 
   29000    2505.5783   -107.41673    2.2670999   -105.14963   -12691.398    4.2771814    4.2771814    4.2771814   -12691.398   -2742.6406   -11610.597   -23720.956    30709.047    9247.4772   -18317.035    78.247959 
   29100    1016.3969     -106.115   0.91965725   -105.19534   -2110.7387     4.265298     4.265298     4.265298   -2110.7387   -2723.7702   -22437.635    18829.189    39645.572   -32421.144   -5424.5878    77.597575 
   29200    2980.0165   -107.84942    2.6963816   -105.15304    5569.8586    4.2714797    4.2714797    4.2714797    5569.8586    9071.1026    6706.8535    931.61982   -9131.4117    1087.1754    5179.4828     77.93545 
   29300    973.16375   -106.06925   0.88053901   -105.18871   -23996.808     4.281009     4.281009     4.281009   -23996.808    43543.268   -107189.21   -8344.4781    68137.301    4761.7893    7181.2863    78.458216 
   29400    3279.3715   -108.13102    2.9672443   -105.16377    23049.419    4.2811448    4.2811448    4.2811448    23049.419    12541.451    49417.045    7189.7623   -6193.1443   -11681.993    1368.1944    78.465684 
   29500    1353.6178   -106.41732    1.2247818   -105.19254   -35351.483    4.2794963    4.2794963    4.2794963   -35351.483   -44818.378   -77129.727    15893.656    43785.244    -3799.334    14003.811    78.375073 
   29600    2575.0187   -107.48251     2.329931   -105.15258    16055.163    4.2735873    4.2735873    4.2735873    16055.163   -47541.673    71212.077    24495.086    20384.747     966.7755   -1335.7082    78.050868 
   29700    1375.1268   -106.40692    1.2442436   -105.16268   -49585.059    4.2968389    4.2968389    4.2968389   -49585.059   -48126.863   -100758.91    130.59362    18079.306   -6379.7129    4320.0819    79.331784 
   29800     1873.057   -106.82647    1.6947813   -105.13169   -35383.733    4.2988185    4.2988185    4.2988185   -35383.733    -57239.06    -62217.93    13305.791    46241.203    1919.1334    15547.113     79.44148 
   29900    2299.9469   -107.20123    2.0810403   -105.12019    2824.3366    4.2699513    4.2699513    4.2699513    2824.3366   -27005.932    31722.174    3756.7677   -30810.397    2152.5978   -5606.4049    77.851819 
   30000    1475.9919   -106.49279    1.3355085   -105.15728   -32721.327    4.2662609    4.2662609    4.2662609   -32721.327    -28527.96   -65376.774   -4259.2458    33807.587   -6977.3102    16769.996    77.650139 
   30100     2666.295   -107.56041    2.4125197   -105.14789    51327.225    4.2589835    4.2589835    4.2589835    51327.225    14276.679      65600.9    74104.095     4596.649    10665.464   -13919.493     77.25345 
   30200    969.41128   -106.08185    0.8771437   -105.20471   -9720.0547    4.2726903    4.2726903    4.2726903   -9720.0547   -50608.323   -39845.475    61293.634   -24253.891    -6590.429    999.86833    78.001734 
   30300     3271.125   -108.10093    2.9597826   -105.14115   -18247.886    4.3002498    4.3002498    4.3002498   -18247.886   -49582.762   -11381.974    6221.0781    9229.3548    1071.7763   -1039.2763    79.520856 
   30400    945.89758   -106.00717   0.85586801    -105.1513   -3560.8762    4.2874831    4.2874831    4.2874831   -3560.8762   -28175.989   -46628.802    64122.162   -55341.146    19898.106    16068.876    78.814704 
   30500     3143.955    -107.9399    2.8447165   -105.09518     34024.79    4.2706462    4.2706462    4.2706462     34024.79    61869.041    19442.598     20762.73    16927.883   -1655.1086   -36416.359    77.889832 
   30600    1027.6926   -106.08048   0.92987788    -105.1506   -58385.325    4.2739878    4.2739878    4.2739878   -58385.325   -62977.657   -97456.478    -14721.84   -29027.943    16730.312    46015.023    78.072813 
   30700    2423.6132   -107.34722    2.1929362   -105.15429    32276.381    4.2685645    4.2685645    4.2685645    32276.381    48841.708    8424.6414    39562.794    -32710.25     7305.181    5777.7771    77.775991 
   30800     1647.312   -106.67198    1.4905225   -105.18146     -5092.83    4.2737327    4.2737327    4.2737327     -5092.83    17001.586    3471.6677   -35751.744    25147.459   -4550.8138    9322.4835    78.058838 
   30900    2267.8215   -107.22024    2.0519726   -105.16827   -2261.5625    4.2807884    4.2807884    4.2807884   -2261.5625    33922.084   -16116.546   -24590.226   -22617.434   -5721.3111    28965.555    78.446088 
   31000    2057.2903   -107.01345    1.8614795   -105.15197   -6589.6498     4.285598     4.285598     4.285598   -6589.6498    32451.053   -20652.418   -31567.584    11171.216    11838.961   -42318.726    78.710792 
   31100    1854.6354   -106.81539    1.6781131   -105.13728    4196.9409    4.2966447    4.2966447    4.2966447    4196.9409    35701.708   -49033.111    25922.226    5348.4206   -11338.581    40191.887    79.321024 
   31200    1817.8524   -106.75671     1.644831   -105.11188   -34868.654    4.2988694    4.2988694    4.2988694   -34868.654    37929.859   -77522.759   -65013.061   -5506.9847    6946.6506   -77685.569    79.444303 
   31300    2222.5035   -107.10755    2.0109679   -105.09658    16894.792    4.2790524    4.2790524    4.2790524    16894.792    18556.028    6819.2604    25309.087    16758.428   -7510.7208    12552.255    78.350687 
   31400    2269.5269    -107.1592    2.0535157   -105.10569   -18313.957    4.2841814    4.2841814    4.2841814   -18313.957    35907.584   -39944.436    -50905.02    2827.2838    917.16816   -60916.054    78.632768 
   31500     1079.795   -106.13425   0.97702125   -105.15723   -32501.711    4.2782876    4.2782876    4.2782876   -32501.711    -30280.32   -4980.3449    -62244.47    6856.4872     42245.46   -44543.617    78.308684 
   31600    2662.7424   -107.55471    2.4093053    -105.1454    30906.151    4.2619438    4.2619438    4.2619438    30906.151    23364.865    57837.808     11515.78    7987.7779    9315.6934     17295.12    77.414648 
   31700    1110.8508   -106.20492    1.0051211    -105.1998   -9812.4791    4.2690198    4.2690198    4.2690198   -9812.4791    57795.758   -55097.897   -32135.299   -790.53685   -10889.789   -63696.358     77.80088 
   31800    3344.1454   -108.18297     3.025853   -105.15711    10902.793    4.2889974    4.2889974    4.2889974    10902.793   -10939.355     21669.46    21978.275     16768.38    16740.757    19414.306    78.898245 
   31900    680.08351   -105.78707   0.61535385   -105.17172   -13813.822    4.3087256    4.3087256    4.3087256   -13813.822    79902.185   -72903.258   -48440.392   -7857.8816   -26033.544   -81961.924    79.991994 
   32000    2775.1381   -107.60375    2.5110033   -105.09274     5775.645    4.3035371    4.3035371    4.3035371     5775.645   -26511.341     46502.01   -2663.7342    6804.0254    13424.227    38502.282    79.703363 
   32100    1297.0984   -106.28946    1.1736419   -105.11582   -13198.191    4.2762962    4.2762962    4.2762962   -13198.191   -6181.0429   -41171.406    7757.8767   -15030.217    15069.933   -107890.09    78.199387 
   32200     2671.871   -107.54057     2.417565     -105.123    17797.278    4.2549248    4.2549248    4.2549248    17797.278    18159.308    17716.288    17516.236   -1804.4825   -18944.703    9285.0388    77.032795 
   32300    2147.4934    -107.1081    1.9430971     -105.165    25142.435    4.2514966    4.2514966    4.2514966    25142.435    50239.945    31069.366   -5882.0073    4022.6831    36121.147   -52050.084    76.846753 
   32400    1168.8405   -106.28737    1.0575915   -105.22978   -14460.492    4.2742339    4.2742339    4.2742339   -14460.492   -11344.664   -15232.893   -16803.918   -19404.177    5357.3904   -71880.591    78.086303 
   32500    2745.0323   -107.66052    2.4837629   -105.17676   -13180.747    4.2943187    4.2943187    4.2943187   -13180.747    -24198.43   -9378.7792   -5965.0313   -4254.9689   -12942.233    10434.474    79.192277 
   32600    877.58892    -105.9693    0.7940609   -105.17524    3215.0014    4.2877865    4.2877865    4.2877865    3215.0014    61663.505   -48229.508   -3788.9922    16658.045     31454.52   -92949.512    78.831438 
   32700    3191.6082   -108.01023    2.8878342    -105.1224    10293.122    4.2854296    4.2854296    4.2854296    10293.122   -45978.618    25265.999    51591.985   -6042.1363    7586.4588    33829.979    78.701517 
   32800    1239.3116     -106.288    1.1213552   -105.16665   -38963.366     4.272958     4.272958     4.272958   -38963.366    42514.493   -105874.41   -53530.186    12942.875   -3187.5986   -124550.87    78.016394 
   32900    2414.1958   -107.34174    2.1844151   -105.15733    49195.041    4.2493494    4.2493494    4.2493494    49195.041     2386.002    95231.065    49968.056    7521.9061    21595.284    35203.065    76.730378 
   33000    1790.2855   -106.81679    1.6198879    -105.1969    -10736.41    4.2627449    4.2627449    4.2627449    -10736.41    59744.031   -47992.505   -43960.756   -4197.1678   -7719.4978    -99545.07     77.45831 
   33100    2010.7298   -107.01278    1.8193506   -105.19343   -13729.968    4.2825322    4.2825322    4.2825322   -13729.968   -7093.4755   -1974.9326   -32121.497    5663.3489    6400.9872   -43528.001    78.541994 
   33200    1941.0051   -106.93602    1.7562622   -105.17976   -28453.235    4.2895349    4.2895349    4.2895349   -28453.235   -4995.4499   -15937.582   -64426.675    14009.099    14056.011   -36465.424    78.927911 
   33300    1746.6522   -106.75191    1.5804077    -105.1715   -23296.256    4.2803913    4.2803913    4.2803913   -23296.256    36122.229   -43056.774   -62954.222    937.20833   -17717.419    -97971.39     78.42426 
   33400     2123.285   -107.07034    1.9211929   -105.14914    28730.603    4.2700153    4.2700153    4.2700153    28730.603   -35172.482    65166.614    56197.677    9266.3774    21941.055    23727.117    77.855321 
   33500    1162.5683   -106.24102    1.0519162   -105.18911   -46393.852    4.2756577    4.2756577    4.2756577   -46393.852    48980.782   -104881.76   -83280.573     16681.66    10731.642   -138732.09     78.16436 
   33600    3356.2494   -108.19574    3.0368049   -105.15894    27990.686    4.2735207    4.2735207    4.2735207    27990.686    8229.0064    55660.843    20082.207   -11239.574   -1220.6745    34862.008     78.04722 
   33700    1075.5827   -106.17333   0.97320986   -105.20012   -44819.283    4.2836934    4.2836934    4.2836934   -44819.283    40179.677    -111944.5   -62693.024    12987.072    18963.318   -121960.49    78.605898 
   33800    3087.6566   -107.95619    2.7937766   -105.16241   -13380.401    4.2846878    4.2846878    4.2846878   -13380.401   -19472.536   -17365.578   -3303.0882   -9486.7593   -6993.3082    10657.946    78.660655 
   33900    1366.3928   -106.41849    1.2363409   -105.18215     11478.81    4.2814785    4.2814785    4.2814785     11478.81    61372.128   -51984.615    25048.916    3592.2001     11413.27   -68524.836    78.484032 
   34000    1819.6502   -106.82103    1.6464577   -105.17457   -11107.935    4.2875765    4.2875765    4.2875765   -11107.935    15456.135    4496.7434   -53276.683    23327.859    30320.584   -42768.824    78.819857 
   34100    2382.5373   -107.31239    2.1557698   -105.15662    30162.229    4.2698999    4.2698999    4.2698999    30162.229    41584.461    29640.569    19261.655   -15077.983   -1134.9702   -22434.863    77.849007 
   34200    1420.0233   -106.46221    1.2848669   -105.17735    27718.716    4.2685012    4.2685012    4.2685012    27718.716    42738.865     9847.721    30569.563    14213.982   -1374.7334   -61925.944     77.77253 
   34300    2357.5051     -107.284    2.1331201   -105.15088   -16185.519    4.2905151    4.2905151    4.2905151   -16185.519   -62723.745    2272.9507    11894.239    13782.147    12567.345    4295.9529    78.982031 
   34400    1745.5756   -106.73233    1.5794335   -105.15289   -5743.6844    4.2814332    4.2814332    4.2814332   -5743.6844    39300.165   -71323.157    14791.938   -13265.182    7437.0192   -90384.853    78.481542 
   34500    2448.4208   -107.35846    2.2153826   -105.14308    26925.478    4.2752041    4.2752041    4.2752041    26925.478   -48417.661    36995.169    92198.927    59378.767    6517.7982     26234.35    78.139486 
   34600     1632.414   -106.66159    1.4770425   -105.18455   -20746.257    4.2763291    4.2763291    4.2763291   -20746.257    18894.131   -65845.931   -15286.973   -22525.305    -2452.793   -85876.135    78.201192 
   34700    2299.9843   -107.25461    2.0810741   -105.17353    26539.317     4.269181     4.269181     4.269181    26539.317    1491.6842    24104.451    54021.818    12895.607    7635.6287   -18806.579    77.809693 
   34800    1517.6113   -106.56992    1.3731666   -105.19675   -1335.9271    4.2829894    4.2829894    4.2829894   -1335.9271   -20946.953    18609.827   -1670.6562    33888.488    4456.2131   -15894.128    78.567147 
   34900    2033.4788   -107.01122    1.8399343   -105.17129   -10596.127    4.2874649    4.2874649    4.2874649   -10596.127    11758.758   -27594.869   -15952.271   -42003.188    691.66714   -73978.003    78.813701 
   35000    2429.3842   -107.35018    2.1981579   -105.15202    13265.862    4.2770597    4.2770597    4.2770597    13265.862   -36006.503    36368.718     39435.37    46675.995   -3600.5774    36021.063    78.241281 
   35100    1719.9459   -106.72883    1.5562432   -105.17259   -4944.8248    4.2755442    4.2755442    4.2755442   -4944.8248    15385.017    -30956.91    737.41807    1963.1764    2265.8628   -72982.321     78.15814 
   35200    2723.8347   -107.63019    2.4645829   -105.16561    12527.695    4.2699565    4.2699565    4.2699565    12527.695    11808.692    32195.653   -6421.2585    -270.5285   -3973.7559    4528.8576    77.852101 
   35300    1075.7586   -106.17622     0.973369   -105.20286    11848.617    4.2683535    4.2683535    4.2683535    11848.617    33130.363   -7783.1115      10198.6    50149.037     3477.152    24403.182    77.764454 
   35400    2628.9211   -107.55937    2.3787031   -105.18066    27873.012    4.2822529    4.2822529    4.2822529    27873.012     65479.56    6347.9214    11791.553   -11801.284    13088.754   -36460.826    78.526624 
   35500    1442.9454   -106.49237    1.3056073   -105.18676   -6147.2983    4.2861195    4.2861195    4.2861195   -6147.2983    31416.973   -1374.8833   -48483.985    891.85027   -23925.315    44469.944    78.739529 
   35600    2489.6978   -107.40814    2.2527309   -105.15541    18619.525    4.2870376    4.2870376    4.2870376    18619.525    6229.6013    56999.833   -7370.8605    25858.743   -1087.7085   -13448.582    78.790142 
   35700    1701.4057   -106.69461    1.5394677   -105.15514   -25042.089    4.2916261    4.2916261    4.2916261   -25042.089   -23753.535    17720.476   -69093.207    -39582.64   -9761.7225    27532.447    79.043404 
   35800     1771.599   -106.75109      1.60298   -105.14811    11766.933    4.2793971    4.2793971    4.2793971    11766.933    21491.644    52731.644   -38922.488    17079.219   -10193.744    38956.239    78.369622 
   35900    2381.9652   -107.31087    2.1552522   -105.15562    781.12797    4.2731721    4.2731721    4.2731721    781.12797    55160.736   -5850.9115   -46966.441    1406.7564     11543.83   -67694.298    78.028122 
   36000    1776.7424    -106.7889    1.6076339   -105.18126   -2116.0531    4.2741336    4.2741336    4.2741336   -2116.0531    18016.642    23248.224   -47613.026   -25789.993   -29644.479    22166.142    78.080803 
   36100     2580.494   -107.50312    2.3348852   -105.16824     6702.096    4.2768983    4.2768983    4.2768983     6702.096    43812.395   -22707.884   -998.22338   -9031.9824    10150.152   -31389.515    78.232423 
   36200    1294.5611   -106.36349    1.1713461   -105.19215    -32851.96    4.2791056    4.2791056    4.2791056    -32851.96    8520.5041   -12176.718   -94899.666    8633.8979   -11613.822    -70409.76    78.353612 
   36300    2816.2418    -107.7109    2.5481948   -105.16271    23059.167    4.2744686    4.2744686    4.2744686    23059.167    30582.794    26086.378     12508.33    -17023.48   -10544.305    16080.264    78.099168 
   36400    1437.1013   -106.48882    1.3003195    -105.1885     815.6486    4.2764594    4.2764594    4.2764594     815.6486    49614.914   -32054.219   -15113.749    10919.388    4254.5208    -110240.7    78.208339 
   36500    2511.8523   -107.43413    2.2727768   -105.16135   -3766.2967    4.2883689    4.2883689    4.2883689   -3766.2967   -44415.409    26412.176    6704.3424    4659.6018    -35812.89    16870.436    78.863569 
   36600    1547.7868   -106.55414    1.4004701   -105.15367   -8158.2443    4.2936166    4.2936166    4.2936166   -8158.2443    79828.788   -71952.227   -32351.294    5308.6632    14751.459   -102575.67    79.153439 
   36700    2340.6621   -107.23781    2.1178803   -105.11993   -6753.5598    4.2878534    4.2878534    4.2878534   -6753.5598   -6216.0744    29104.252   -43148.857    -6158.403   -13451.967    3562.9961    78.835131 
   36800    1458.9371   -106.44895    1.3200769   -105.12888    3909.5164    4.2775858    4.2775858    4.2775858    3909.5164    45432.935    5698.3041   -39402.689    21029.774    2115.5704   -81247.813    78.270154 
   36900    2889.0615   -107.74802    2.6140835   -105.13394   -5996.9039     4.276048     4.276048     4.276048   -5996.9039    27342.664   -25144.153   -20189.223   -14084.158    874.04095   -37597.938    78.185769 
   37000    1758.3897   -106.75912     1.591028    -105.1681   -15512.007    4.2879313    4.2879313    4.2879313   -15512.007    38923.231    -38380.85   -47078.403    13126.701     21992.32   -77360.001    78.839426 
   37100    1514.5822   -106.53745    1.3704258   -105.16702   -21270.207    4.2935663    4.2935663    4.2935663   -21270.207   -18489.405    7880.5597   -53201.775   -3570.4101    -552.3843   -46364.672    79.150655 
   37200    1899.5853   -106.86472    1.7187847   -105.14594   -16005.697    4.2798197    4.2798197    4.2798197   -16005.697    44401.367   -27154.579    -65263.88     1893.473    7105.2061   -40923.163    78.392842 
   37300    2119.0493   -107.05698    1.9173604   -105.13962   -4902.3777    4.2624586    4.2624586    4.2624586   -4902.3777    61883.755   -74444.934   -2145.9541     -1649.58   -3657.1484    -94044.16    77.442708 
   37400    2195.1617    -107.1388    1.9862284   -105.15257   -5430.2214    4.2709313    4.2709313    4.2709313   -5430.2214    470.84376    7223.4484   -23984.956   -4112.3901   -8347.0424   -24512.064    77.905435 
   37500    1257.7586   -106.31147    1.1380464   -105.17342    -32748.09    4.2864148    4.2864148    4.2864148    -32748.09    51113.679   -60232.339   -89125.611    8592.3549    6208.4603    -109122.2     78.75581 
   37600    2791.0034   -107.66308    2.5253585   -105.13772    35400.728    4.2793594    4.2793594    4.2793594    35400.728     53732.21    11419.617    41050.356   -1279.6996    -28720.99    27083.932    78.367551 
   37700    1057.4307   -106.13673   0.95678556   -105.17995   -15442.913     4.289892     4.289892     4.289892   -15442.913    86395.168    -37381.43   -95342.479   -319.73153    5404.4367   -126720.07    78.947625 
   37800    3323.1221   -108.13525    3.0068307   -105.12841    5393.7258    4.2912996    4.2912996    4.2912996    5393.7258   -34008.135    42779.762    7409.5507    9334.2554    -6259.976    45379.327    79.025365 
   37900    1170.3251   -106.23521    1.0589347   -105.17628   -13724.604    4.2700908    4.2700908    4.2700908   -13724.604    31800.738   -51173.968   -21800.582    1823.7392   -12007.196   -93433.877    77.859447 
   38000    2636.9035   -107.55553    2.3859257   -105.16961    13260.172    4.2683909    4.2683909    4.2683909    13260.172    49242.115    4742.9179   -14204.516    11186.335   -2775.8541   -11157.158    77.766499 
   38100    1407.7062    -106.4539    1.2737221   -105.18018   -11656.188    4.2793641    4.2793641    4.2793641   -11656.188    24061.568   -57009.279   -2020.8524   -6765.3967    13280.282   -38083.199    78.367811 
   38200    2006.8268   -106.98872     1.815819    -105.1729   -1165.7122    4.2918676    4.2918676    4.2918676   -1165.7122    18233.705   -44208.044    22477.202    11801.272   -9841.8975   -50649.676    79.056749 
   38300    2259.7691   -107.20429    2.0446866    -105.1596    4747.8975    4.2954063    4.2954063    4.2954063    4747.8975    22392.668   -35278.916     27129.94   -26908.155    15142.516    6056.2937    79.252459 
   38400    1488.6118   -106.50847    1.3469272   -105.16155    -12858.94    4.2865661    4.2865661    4.2865661    -12858.94    29476.815   -91691.272    23637.638   -7636.2339    8849.0953   -78861.395    78.764145 
   38500    3159.5796   -107.99928    2.8588541   -105.14043    24052.402    4.2739831    4.2739831    4.2739831    24052.402     44480.74    12634.288     15042.18   -3946.4415   -12906.007    30051.613    78.072558 
   38600    849.93475   -105.96002   0.76903883   -105.19098    9408.6443     4.267634     4.267634     4.267634    9408.6443    95695.391   -62276.194   -5193.2642   -14308.737    30748.798   -89412.279    77.725139 
   38700    2728.5317   -107.65679    2.4688328   -105.18796    6302.6608     4.285762     4.285762     4.285762    6302.6608    9313.1298    17389.105   -7794.2526   -13870.404   -4348.5553    -12914.56    78.719831 
   38800    1793.5226   -106.80575     1.622817   -105.18293   -31920.541     4.295211     4.295211     4.295211   -31920.541   -25805.201   -48448.463   -21507.959    34382.694     577.5599   -32107.805    79.241649 
   38900    1809.2854   -106.80672    1.6370794   -105.16965    25713.099    4.2784492    4.2784492    4.2784492    25713.099    76337.909    37645.016    -36843.63   -14539.417    27356.149   -64926.732    78.317561 
   39000    2400.8836   -107.33334    2.1723699   -105.16097    126.65026    4.2759545    4.2759545    4.2759545    126.65026    20186.946    8281.7241    -28088.72    1333.1597   -23681.014    30557.441    78.180641 
   39100    1142.6455   -106.23207    1.0338896   -105.19818   -39988.551      4.27167      4.27167      4.27167   -39988.551    19253.082   -53679.582   -85539.154    31192.077     9162.969   -92240.812    77.945868 
   39200    3049.7506   -107.93975    2.7594784   -105.18027    40700.431    4.2647552    4.2647552    4.2647552    40700.431    2459.5944    78079.747    41561.953   -16954.885    11924.261    21964.245    77.567954 
   39300    1418.3949   -106.50019    1.2833935    -105.2168   -24591.959     4.288609     4.288609     4.288609   -24591.959    77113.804   -66549.846   -84339.835   -5070.8451    1281.1509   -49144.163    78.876815 
   39400    2439.4674   -107.37483    2.2072814   -105.16755   -17946.562    4.2960587    4.2960587    4.2960587   -17946.562    22808.945   -44465.256   -32183.373   -550.26512   -7096.3444   -11912.836    79.288577 
   39500    1799.1832   -106.79455    1.6279387   -105.16661    16950.044    4.2802965    4.2802965    4.2802965    16950.044   -6816.3845    -1685.479    59351.995   -56260.815   -9318.8059   -9129.4945    78.419049 
   39600    1782.2299   -106.79583     1.612599   -105.18324   -30829.422    4.2763547    4.2763547    4.2763547   -30829.422    42519.769   -59596.993   -75411.041    5458.1718   -7151.2454   -49179.851    78.202595 
   39700    2668.6724   -107.59404    2.4146708   -105.17937    8396.3182      4.26717      4.26717      4.26717    8396.3182   -39072.261    23172.987    41088.229   -29726.915    5154.9514    34124.798    77.699788 
   39800    1339.2868   -106.42031    1.2118148   -105.20849   -7766.9671    4.2711905    4.2711905    4.2711905   -7766.9671   -24585.813   -39741.656    41026.567    -40092.61    13206.441   -67770.686    77.919622 
   39900    2743.4321   -107.68762     2.482315    -105.2053   -21415.091    4.2920654    4.2920654    4.2920654   -21415.091   -16479.298      -3288.2   -44477.776    15406.401   -1269.5399   -25535.989    79.067681 
   40000    1838.7499   -106.86793    1.6637396   -105.20419    22966.356     4.286046     4.286046     4.286046    22966.356   -14721.177    69479.664    14140.581   -51058.879   -9637.5808   -3500.7662    78.735483 
   40100    1431.2758   -106.49045    1.2950484    -105.1954    16776.168    4.2796135    4.2796135    4.2796135    16776.168    45027.537   -2886.7916    8187.7572   -16641.951    9709.0024   -60907.691    78.381515 
   40200     2841.103   -107.74171    2.5706897   -105.17102   -11174.877    4.2877685    4.2877685    4.2877685   -11174.877   -60445.392    52181.931    -25261.17     2060.046   -17486.059    25453.367    78.830449 
   40300    1176.2813   -106.26909     1.064324   -105.20477   -3963.9161    4.2698842    4.2698842    4.2698842   -3963.9161   -3342.3598   -11104.917     2555.528   -20496.906   -13173.303   -75570.982     77.84815 
   40400    2137.9392   -107.14214    1.9344523   -105.20769    40431.769    4.2600049    4.2600049    4.2600049    40431.769    37528.099   -3861.7662    87628.974   -4802.6061     4039.831   -22097.252     77.30904 
   40500    2479.4337   -107.46573    2.2434437   -105.22229   -6346.6288     4.274872     4.274872     4.274872   -6346.6288   -4966.9799   -5537.8655   -8535.0409   -1559.7261   -19505.357    5174.9939    78.121282 
   40600    921.02625   -106.08023   0.83336391   -105.24686     11695.42    4.2792166    4.2792166    4.2792166     11695.42    13874.149    -66998.87    88210.981   -25584.187   -7238.6919   -72483.153    78.359705 
   40700    3385.9006   -108.25437     3.063634   -105.19074   -9776.1249    4.2953838    4.2953838    4.2953838   -9776.1249   -23105.591   -15210.138    8987.3545     9048.533    16204.402    28051.321    79.251216 
   40800    1089.5256   -106.16029   0.98582565   -105.17446   -5990.3138    4.3042168    4.3042168    4.3042168   -5990.3138    47546.263   -64876.208   -640.99664   -2273.3182   -17693.986   -91430.339    79.741136 
   40900     2911.309   -107.73721    2.6342136     -105.103   -1211.3724    4.3039645    4.3039645    4.3039645   -1211.3724   -21174.376   -4551.2968    22091.556   -5121.1433   -1586.7712     37038.86    79.727111 
   41000    1214.4202   -106.22985    1.0988329   -105.13102   -8512.7264    4.2924999    4.2924999    4.2924999   -8512.7264    17141.806   -89859.848    47179.863    -6787.395    16918.422   -93501.735    79.091697 
   41100    2380.3084   -107.31152    2.1537531   -105.15777    5156.4326    4.2769958    4.2769958    4.2769958    5156.4326    18733.663    -35834.31    32569.945   -24923.411    -5007.536    4804.5465    78.237772 
   41200    2334.7303   -107.28971     2.112513    -105.1772     27437.02    4.2583605    4.2583605    4.2583605     27437.02    40463.741   -19125.193    60972.513   -3334.6743    -8095.019   -55874.251    77.219549 
   41300    1182.1955   -106.31304    1.0696754   -105.24336    2968.6798    4.2756772    4.2756772    4.2756772    2968.6798    4725.7457   -17451.121    21631.415   -11336.403    24701.067   -42782.426    78.165434 
   41400    2712.7908   -107.65226    2.4545901   -105.19767   -24692.186    4.2978968    4.2978968    4.2978968   -24692.186   -33704.817   -46430.276    6058.5342   -33312.661   -9727.7845    1695.8202    79.390393 
   41500    1161.6176   -106.25512     1.051056   -105.20407    3156.5087    4.2832105    4.2832105    4.2832105    3156.5087    62779.185   -80093.685    26784.027    13218.275   -176.73056   -94942.007    78.579317 
   41600    2729.3579   -107.63938    2.4695804    -105.1698     3611.859    4.2731044    4.2731044    4.2731044     3611.859    2928.9462   -15974.389     23881.02   -6757.5953     34665.39    45947.777    78.024415 
   41700    1609.7119   -106.65044    1.4565012   -105.19394   -12511.297    4.2809565    4.2809565    4.2809565   -12511.297    15946.786   -74988.388    21507.711   -12422.945   -17331.762   -80568.748    78.455331 
   41800    1666.5016    -106.7065    1.5078857   -105.19861   -25511.629    4.2847746    4.2847746    4.2847746   -25511.629     30132.17   -31331.357     -75335.7    12621.037    10388.511    -15092.73    78.665432 
   41900    2345.6295   -107.29622    2.1223748   -105.17384   -8530.2042    4.2860103    4.2860103    4.2860103   -8530.2042    145.99407    -9329.817    -16406.79   -9222.5324    13040.208    6199.9009    78.733511 
   42000    1697.3187   -106.72228    1.5357696   -105.18652   -36869.379    4.2920458    4.2920458    4.2920458   -36869.379   -5686.0362   -47156.314   -57765.787   -14095.167   -35688.808   -100207.74    79.066595 
   42100    2557.4582   -107.47354     2.314042   -105.15949     16539.57    4.2811077    4.2811077    4.2811077     16539.57    1579.2664    60698.571   -12659.128    13831.013   -385.82162     66891.67    78.463643 
   42200    1398.9176   -106.45763    1.2657701   -105.19186   -3904.6483     4.273372     4.273372     4.273372   -3904.6483    101429.58   -74557.758   -38585.764     8268.027    10466.125    -87986.51    78.039074 
   42300    2542.4405   -107.47818    2.3004536   -105.17772    16333.125    4.2783128    4.2783128    4.2783128    16333.125    15210.365    31985.951    1803.0577   -15678.926   -8864.2249    949.76506     78.31007 
   42400    1794.8931   -106.80916     1.624057   -105.18511   -39000.249    4.2933338    4.2933338    4.2933338   -39000.249   -13558.622   -45180.442   -58261.684    2215.3425   -14281.643   -43062.321    79.137798 
   42500    1659.1449   -106.67956    1.5012291   -105.17833    -20015.62    4.3001327    4.3001327    4.3001327    -20015.62   -837.21618    10976.164   -70185.808    2028.3406    14424.516   -39909.958     79.51436 
   42600    2470.5624   -107.39229    2.2354168   -105.15687   -6201.3224    4.2958471    4.2958471    4.2958471   -6201.3224   -47803.639    43715.654   -14515.982   -17273.647    -1283.103    11775.363    79.276862 
   42700    1396.3438   -106.44458    1.2634412   -105.18114   -13439.238    4.2827158    4.2827158    4.2827158   -13439.238    66979.898   -20689.332   -86608.279    12254.852   -8154.0915    -88948.51    78.552096 
   42800    2857.5619   -107.75778     2.585582   -105.17219    22229.205    4.2667284    4.2667284    4.2667284    22229.205    21126.159    54420.633   -8859.1759   -6931.9903    22536.155    46255.999     77.67567 
   42900     1547.396   -106.61901    1.4001165   -105.21889     5156.921    4.2800841    4.2800841    4.2800841     5156.921    27057.279    619.92071   -12206.437   -23464.326   -9569.7699   -63330.868    78.407372 
   43000    2344.0217   -107.32939    2.1209201   -105.20847   -14611.162    4.2959022    4.2959022    4.2959022   -14611.162    6375.3369   -19534.907   -30673.916    5996.9582   -5674.0579   -39995.951    79.279911 
   43100    2422.1498   -107.39102    2.1916121   -105.19941    29736.324    4.2821899    4.2821899    4.2821899    29736.324    41948.779    31250.566    16009.627   -3566.8043     10218.41    12139.566     78.52316 
   43200    1108.8157   -106.22991    1.0032797   -105.22663   -9962.8289    4.2705746    4.2705746    4.2705746   -9962.8289    62167.002    -57879.79   -34175.698   -29540.801   -1413.1372   -107188.49     77.88592 
   43300    2702.3811   -107.66932    2.4451712   -105.22415    3100.1274    4.2815707    4.2815707    4.2815707    3100.1274   -17389.991    22657.307    4033.0658    2638.8346   -764.55277    19409.429    78.489102 
   43400    2078.6888   -107.10712    1.8808413   -105.22628   -12359.074    4.2932869    4.2932869    4.2932869   -12359.074    53181.591   -22342.268   -67916.545   -3337.9827    11570.537   -27009.509    79.135203 
   43500    1541.8843    -106.5982    1.3951293   -105.20307        16216    4.2993642    4.2993642    4.2993642        16216    50040.109    28238.014   -29630.123   -21047.959    1142.5939   -62241.553    79.471735 
   43600    2584.1841   -107.49507    2.3382241   -105.15684    14409.763    4.2991929    4.2991929    4.2991929    14409.763    4249.3236    96760.249   -57780.284    41364.558     14575.37    8781.2022    79.462241 
   43700    1151.2676   -106.22786    1.0416911   -105.18617   -28837.363    4.2958363    4.2958363    4.2958363   -28837.363    93604.961   -75429.627   -104687.42   -28349.075   -1873.2215   -46572.592    79.276266 
   43800    2360.6406   -107.31113    2.1359573   -105.17517   -13677.665    4.2846709    4.2846709    4.2846709   -13677.665   -20856.064   -5675.9401   -14500.992    1332.8641    821.77475    20846.621    78.659721 
   43900    1718.7016    -106.7547    1.5551174   -105.19958    16358.703    4.2828272    4.2828272    4.2828272    16358.703    56561.071     9457.896   -16942.857    57034.037   -11740.936   -41158.301    78.558225 
   44000    2068.6608   -107.06583    1.8717678   -105.19406   -13174.605    4.3051895    4.3051895    4.3051895   -13174.605    5714.1866   -5099.0653   -40138.935   -28660.151   -12535.599   -3684.9586    79.795209 
   44100    1928.5893   -106.92588    1.7450281   -105.18086   -44151.571    4.3034795    4.3034795    4.3034795   -44151.571   -109754.56   -70070.148    47369.999     77479.67    2197.9052    8694.3202    79.700166 
   44200    2474.1333    -107.4092    2.2386478   -105.17055   -8610.1919    4.2928006    4.2928006    4.2928006   -8610.1919   -19607.938    23391.002    -29613.64    986.40573    16670.759   -9104.3943    79.108317 
   44300    2038.7244   -107.02777    1.8446807   -105.18309    3467.1507    4.2794329    4.2794329    4.2794329    3467.1507    10449.613    33126.099    -33174.26    20207.661   -1035.1107    36820.951    78.371589 
   44400    1714.4569   -106.76425    1.5512766   -105.21298    8277.4294    4.2829301    4.2829301    4.2829301    8277.4294   -12595.271   -2143.2902     39570.85    65072.328    1014.8649   -4237.7914    78.563886 
   44500    2463.3765   -107.43006    2.2289148   -105.20115    -14229.86    4.3047144    4.3047144    4.3047144    -14229.86   -8605.5357    19818.559   -53902.604   -42330.376    20896.183    11208.813    79.768797 
   44600    1276.0343   -106.34944    1.1545827   -105.19485    5197.7031    4.3076274    4.3076274    4.3076274    5197.7031    44792.488    3651.2635   -32850.642    58873.876   -13834.733     23261.46    79.930844 
   44700    2207.7752   -107.18856    1.9976414   -105.19091   -20493.042    4.2966351    4.2966351    4.2966351   -20493.042   -45686.647     8633.527   -24426.004    11268.302    10663.723   -8159.0501    79.320493 
   44800     2133.138   -107.11471    1.9301081   -105.18461     56540.11    4.2614471    4.2614471    4.2614471     56540.11    111818.12    59672.983   -1870.7711   -6515.8523    2528.3754    22088.364    77.387589 
   44900    1663.4178   -106.72216    1.5050954   -105.21706   -2221.2318    4.2682052    4.2682052    4.2682052   -2221.2318   -27589.129   -23602.609    44528.042    77699.358   -10167.085    16379.911    77.756351 
   45000    2331.8944   -107.29714    2.1099471    -105.1872     -9746.75    4.3009867    4.3009867    4.3009867     -9746.75    32833.353     4627.802   -66701.405   -17407.849     35327.15   -6032.3585    79.561743 
   45100    1212.8965   -106.27949    1.0974543   -105.18204    410.89311    4.3059724    4.3059724    4.3059724    410.89311    8428.2114   -45855.173    38659.641    67073.853    3363.1378    28622.683    79.838748 
   45200    2953.9452   -107.79734    2.6727917   -105.12455    8831.7061    4.3117744    4.3117744    4.3117744    8831.7061   -2501.6068    28853.749    142.97599   -22795.271    10312.346   -10622.631    80.161915 
   45300    1424.5976   -106.43123    1.2890059   -105.14223   -25228.028    4.3118972    4.3118972    4.3118972   -25228.028   -64174.593   -60767.702    49258.209    89856.985    28004.429   -8633.1146    80.168768 
   45400    2213.5648   -107.13379      2.00288   -105.13091    1042.4014    4.2993626    4.2993626    4.2993626    1042.4014    9430.6319   -18436.166    12132.738    14126.787    9248.0271     26747.75    79.471651 
   45500    2339.5645   -107.24797    2.1168871   -105.13108    9698.1681     4.300258     4.300258     4.300258    9698.1681   -18509.494   -27478.446    75082.445    36643.703   -10349.804   -6210.9333     79.52131 
   45600    1253.2748   -106.27779    1.1339894    -105.1438    3240.0506    4.3089515    4.3089515    4.3089515    3240.0506   -34094.198   -20312.589    64126.938    57268.191    9913.2241    27304.687    80.004574 
   45700    2422.7098   -107.30666    2.1921187   -105.11454    15952.199    4.3028576    4.3028576    4.3028576    15952.199   -25585.448    16345.707    57096.339    8842.0382    13720.559   -4962.8666    79.665614 
   45800    1639.6714   -106.62124    1.4836092   -105.13763    30064.917    4.2967414    4.2967414    4.2967414    30064.917   -30736.401   -23540.294    144471.45    61534.668   -12493.323   -12565.884    79.326385 
   45900    2074.5155   -107.01208    1.8770652   -105.13502    56.192616    4.3055949    4.3055949    4.3055949    56.192616    -32263.54    15305.885    17126.233   -11367.073    36150.207    7720.7754    79.817753 
   46000    1565.9382   -106.57524    1.4168938   -105.15835   -56869.698     4.294506     4.294506     4.294506   -56869.698   -105646.68   -117919.81    52957.397    128757.41    966.91335    158.70782    79.202638 
   46100    3079.8505   -107.91617    2.7867134   -105.12946     52811.23    4.2571983    4.2571983    4.2571983     52811.23    31715.591    38042.275    88675.823   -26990.723   -5061.5143   -5865.0156    77.156344 
   46200    773.49457   -105.91102   0.69987414   -105.21114    19550.044    4.2676873    4.2676873    4.2676873    19550.044   -68592.484    28942.065     98300.55    104128.18    26663.763    12924.125    77.728048 
   46300    2877.7357   -107.78813    2.6038358    -105.1843   -11689.776    4.3048324    4.3048324    4.3048324   -11689.776   -56349.464    3298.4226    17981.713    2855.4588   -5223.7117    14174.124    79.775353 
   46400    1689.9144   -106.69453    1.5290701   -105.16546   -19830.626    4.3215297    4.3215297    4.3215297   -19830.626   -19703.769    -57672.49     17884.38    61148.289   -2514.6204     10149.86    80.707242 
   46500    1542.4826   -106.53849    1.3956707   -105.14282   -29932.695    4.3055006    4.3055006    4.3055006   -29932.695   -34073.962   -43326.991   -12397.133    23662.323    43545.535    18198.795    79.812511 
   46600    2715.4713    -107.5919    2.4570155   -105.13489    13571.661       4.2635       4.2635       4.2635    13571.661    5741.6134   -8201.8174    43175.186    4330.7946   -12563.724    13466.918    77.499482 
   46700    1392.2002   -106.43769     1.259692   -105.17799    47724.328    4.2481161    4.2481161    4.2481161    47724.328    15818.468    27311.827    100042.69    81592.332      19570.2    2956.0797    76.663584 
   46800    2984.7102   -107.89816    2.7006285   -105.19753   -2866.0531    4.2819231    4.2819231    4.2819231   -2866.0531    4796.0208    5228.0434   -18622.224   -17084.155    54557.445   -17043.768    78.508486 
   46900    1966.7489   -106.96193    1.7795558   -105.18237   -37146.971    4.3125168    4.3125168    4.3125168   -37146.971   -40347.739   -89672.079    18578.906    59070.997   -10941.828   -1157.2636    80.203329 
   47000    2085.8658   -107.03398    1.8873352   -105.14665   -25149.383    4.3148682    4.3148682    4.3148682   -25149.383   -3055.9611     -57168.7   -15223.487   -27528.037    14105.823   -21972.972    80.334593 
   47100    2242.2295   -107.16601    2.0288164   -105.13719   -38069.289    4.2988761    4.2988761    4.2988761   -38069.289   -30403.164   -74810.186   -8994.5178    60788.056    9420.3947    2918.0112    79.444671 
   47200    2268.0364   -107.19496     2.052167   -105.14279   -24120.247    4.2681227    4.2681227    4.2681227   -24120.247   -48955.629   -52241.251    28836.139    43580.511   -12027.322    11510.053    77.751842 
   47300    2367.1402   -107.31552    2.1418382   -105.17368    4388.9561    4.2663923    4.2663923    4.2663923    4388.9561    29095.668   -12137.641   -3791.1585   -56723.554   -5006.0425   -10352.676    77.657312 
   47400    1517.8365   -106.57907    1.3733703    -105.2057   -10661.856    4.2801779    4.2801779    4.2801779   -10661.856   -75321.837    23513.723    19822.547    126257.01    1708.5558    495.38734    78.412529 
   47500    2394.0895   -107.35494    2.1662225   -105.18871    19462.591    4.2819512    4.2819512    4.2819512    19462.591    -11125.01    29661.949    39850.835   -47612.646    7262.9584   -3501.9659    78.510032 
   47600    960.79558   -106.07798   0.86934803   -105.20863   -7292.2029    4.2927975    4.2927975    4.2927975   -7292.2029   -57663.417   -102811.78    138598.59    49372.624    4548.0323    6914.0975    79.108144 
   47700    2753.4208   -107.62818     2.491353   -105.13682    8876.5804    4.2963789    4.2963789    4.2963789    8876.5804   -25851.821    13605.128    38876.434    36352.508    8797.0199   -11063.298    79.306307 
   47800    1642.3095   -106.63395    1.4859961   -105.14796    -29723.94    4.2876511    4.2876511    4.2876511    -29723.94   -29362.867   -57798.232   -2010.7209     -38198.5    4412.1968    474.60082     78.82397 
   47900    2171.9991   -107.12604    1.9652704   -105.16077    5199.5954    4.2821559    4.2821559    4.2821559    5199.5954   -47489.667   -29028.634    92117.088    48507.894     5138.577    -6437.824    78.521288 
   48000    1895.5143   -106.88551    1.7151012    -105.1704   -10284.212    4.2805297    4.2805297    4.2805297   -10284.212    15876.578   -7831.8274   -38897.388   -26893.717    7853.2181    3792.9283    78.431865 
   48100    1482.1022   -106.54022    1.3410372   -105.19918   -19156.033    4.2812454    4.2812454    4.2812454   -19156.033   -24881.494   -61231.149    28644.546   -33139.873   -4787.5802    1365.8683    78.471214 
   48200    2720.0812   -107.63022    2.4611866   -105.16904    14079.274    4.2822563    4.2822563    4.2822563    14079.274   -16695.344     16972.57    41960.597    12531.794   -2203.1737   -1943.5866    78.526815 
   48300    1034.4378   -106.12936   0.93598108   -105.19338   -41311.816    4.2976089    4.2976089    4.2976089   -41311.816   -21594.557   -93445.394   -8895.4962   -53752.249    10790.243   -20669.565    79.374438 
   48400    3147.3003   -107.97561    2.8477435   -105.12787   -11660.157     4.299143     4.299143     4.299143   -11660.157   -11883.575   -11668.433   -11428.462   -2880.2534   -20212.831    7247.1652     79.45947 
   48500    1316.6323   -106.33056    1.1913166   -105.13925    1723.2679    4.2902381    4.2902381    4.2902381    1723.2679     13145.37   -9700.3329    1724.7671    1864.0326    2826.0343   -4146.2193    78.966734 
   48600    3136.4903   -107.95701    2.8379623   -105.11904   -1441.4215    4.2914609    4.2914609    4.2914609   -1441.4215    3421.2007   -4815.5344   -2929.9307   -10530.445    1968.9577    6756.8599    79.034274 
   48700     1455.567   -106.46387    1.3170276   -105.14685   -35446.273    4.2948974    4.2948974    4.2948974   -35446.273   -26311.117   -32731.751   -47295.951    22393.284    26866.456   -7450.0639    79.224293 
   48800    2858.6004   -107.71092    2.5865217   -105.12439    25028.674    4.2846982    4.2846982    4.2846982    25028.674    41592.629    2018.5036     31474.89   -9814.4867   -26365.843    4295.8554    78.661224 
   48900    1200.3165   -106.24854    1.0860716   -105.16247    11022.858     4.276492     4.276492     4.276492    11022.858     3784.358    42039.068   -12754.853    3012.1744    85174.462    3412.0449    78.210126 
   49000    2328.8516   -107.28472    2.1071939   -105.17752   -11617.844    4.2836448    4.2836448    4.2836448   -11617.844   -32745.755   -28062.096     25954.32    49931.126   -28954.725   -1555.6302    78.603222 
   49100    2005.5148    -107.0059    1.8146319   -105.19127    10358.621    4.2940244    4.2940244    4.2940244    10358.621    -21728.91    25025.461    27779.311   -32620.732    39194.526    1101.8884    79.175996 
   49200     1371.808   -106.43124    1.2412407      -105.19   -619.42145    4.3057149    4.3057149    4.3057149   -619.42145   -7308.6397    1552.1734    3898.2019    2538.1633    24179.305    3328.8166    79.824428 
   49300    2262.3484   -107.18508    2.0470204   -105.13806    15615.212    4.3038238    4.3038238    4.3038238    15615.212   -13705.866    7694.3719     52857.13    13870.207    18832.765   -4449.6029    79.719295 
   49400    1116.9116   -106.15145    1.0106051   -105.14085    25242.778    4.2901782    4.2901782    4.2901782    25242.778   -746.18471    51446.573    25027.947   -23623.643    84460.434    2510.9111    78.963426 
   49500    2871.2574   -107.72626    2.5979741   -105.12829    15771.448    4.2933765    4.2933765    4.2933765    15771.448    31211.452    22207.965   -6105.0737    17084.342   -12860.971    -10403.03     79.14016 
   49600    888.98702   -105.96632   0.80437414   -105.16195   -13209.829    4.2969954    4.2969954    4.2969954   -13209.829   -42773.376    86711.479    -83567.59   -30203.736    115497.96    1584.6438    79.340452 
   49700     2741.238   -107.59237    2.4803298   -105.11204    27408.593    4.2881975    4.2881975    4.2881975    27408.593   -11559.614    39343.935    54441.459   -26246.144   -33365.665   -1423.7739    78.854109 
   49800    1524.8177   -106.51909    1.3796871    -105.1394    19358.738    4.2898108    4.2898108    4.2898108    19358.738    47088.554    48196.247   -37208.586     6207.931    111525.91    671.16913    78.943145 
   49900    3101.9586   -107.91849    2.8067173   -105.11177   -12316.655     4.304302     4.304302     4.304302   -12316.655    7941.1339   -42183.392   -2707.7073   -9420.7618   -29871.197   -10113.301    79.745873 
   50000    909.04771   -105.95369   0.82252547   -105.13116    -46462.09    4.2943634    4.2943634    4.2943634    -46462.09   -124659.33    84336.435    -99063.38   -9783.2738    118618.07    1046.8281    79.194745 
   50100    3311.3541   -108.07732    2.9961828   -105.08114    19145.105    4.2755824    4.2755824    4.2755824    19145.105   -3555.9276    2959.7643    58031.479    18536.055   -50222.719   -14620.249    78.160234 
   50200    727.24171   -105.81017   0.65802358   -105.15215   -18953.717    4.2912093    4.2912093    4.2912093   -18953.717   -112108.52    93282.857   -38035.492   -2554.3084    129574.47    413.33611    79.020375 
   50300      3422.73   -108.19687    3.0969581   -105.09991   -8087.6202    4.3035146    4.3035146    4.3035146   -8087.6202    10944.212   -24149.316   -11057.756   -8924.8931   -33718.597    1336.4915    79.702113 
   50400     765.4352   -105.81263   0.69258185   -105.12004   -15342.326    4.3268167    4.3268167    4.3268167   -15342.326   -29572.476   -18939.151     2484.647      29483.2    103595.19   -2997.3754     81.00382 
   50500    2917.7059   -107.71328    2.6400016   -105.07328   -29409.331    4.3242364    4.3242364    4.3242364   -29409.331   -51921.894   -27600.206   -8705.8917    1574.6652   -33688.777    3670.1922    80.858985 
   50600    1093.6963   -106.08759    0.9895994   -105.09799    35502.935    4.2800121    4.2800121    4.2800121    35502.935   -62193.099    162257.16    6444.7471    -7459.628    100568.63   -7869.7513    78.403415 
   50700    2738.2077   -107.56093    2.4775879   -105.08334    21796.384     4.268796     4.268796     4.268796    21796.384   -23235.059    29403.758    59220.453    46395.814    -23652.38   -12005.264    77.788646 
   50800    1384.3295   -106.39821    1.2525704   -105.14564   -9163.1689    4.2884499    4.2884499    4.2884499   -9163.1689   -97187.328    100550.95   -30853.125   -7038.9274    88062.809    -5122.371    78.868035 
   50900    2336.8225   -107.24733    2.1144061   -105.13293    967.18793    4.3095016    4.3095016    4.3095016    967.18793   -5948.3196    28769.682   -19919.798    6719.3296   -7609.5802    7576.9109    80.035219 
   51000    1812.4514   -106.76346    1.6399441   -105.12351   -28127.376     4.319569     4.319569     4.319569   -28127.376   -94985.657    75072.469   -64468.939    4478.2757    26197.051   -4972.9663    80.597437 
   51100    2361.1707   -107.25134    2.1364368   -105.11491    6388.5477    4.2919777    4.2919777    4.2919777    6388.5477   -28464.244     32053.54    15576.347   -14682.646    24385.889   -8918.7467    79.062831 
   51200    1700.6241   -106.69144    1.5387604   -105.15268    34219.024    4.2558235    4.2558235    4.2558235    34219.024    31545.281   -18461.275    89573.066    34320.671    -37291.48    3959.1841     77.08162 
   51300    1885.8912   -106.89285     1.706394   -105.18645    66548.354     4.255295     4.255295     4.255295    66548.354    28685.061    115774.27     55185.73   -19554.234    31399.608   -20118.042    77.052905 
   51400    1822.9767   -106.87084    1.6494677   -105.22137   -4530.0989    4.3018996    4.3018996    4.3018996   -4530.0989   -46084.139   -25073.131    57566.973   -6099.9766    -10325.61     -6931.49    79.612417 
   51500    1764.0304   -106.75916    1.5961318   -105.16302   -61821.114    4.3254431    4.3254431    4.3254431   -61821.114   -92919.731   -51582.504   -40961.108   -7627.5308   -11663.722    6528.0067    80.926694 
   51600    2937.3822   -107.75703    2.6578052   -105.09922   -7088.6294     4.311066     4.311066     4.311066   -7088.6294   -5069.5721    11520.794    -27717.11    2085.0835    21416.334    14584.474     80.12241 
   51700     992.7517   -106.03277    0.8982626   -105.13451   -47781.318    4.2939383    4.2939383    4.2939383   -47781.318   -126177.68   -61771.693    44605.421    8944.6617   -30271.093     2600.188    79.171231 
   51800    2607.1577   -107.48695     2.359011   -105.12794    36808.553    4.2632273    4.2632273    4.2632273    36808.553    20203.008    104850.95   -14628.304   -33825.452   -12593.636    1128.0029     77.48461 
   51900     2118.831   -107.08661    1.9171628   -105.16944    19698.379    4.2637588    4.2637588    4.2637588    19698.379   -25386.714    20617.614    63864.236    64032.281     16872.23   -16160.423    77.513597 
   52000    1426.8532   -106.49314    1.2910468   -105.20209   -9538.7018    4.2944945    4.2944945    4.2944945   -9538.7018   -63033.835    822.49009     33595.24    -41305.94   -26742.661    -1136.929    79.202002 
   52100    2254.8301   -107.20488    2.0402177   -105.16467    14173.267    4.2995512    4.2995512    4.2995512    14173.267    56791.244    10078.775   -24350.217    17705.975    16002.539   -18217.099    79.482109 
   52200    1695.7305   -106.70932    1.5343326   -105.17499   -7873.3819    4.2911921    4.2911921    4.2911921   -7873.3819   -16042.295   -12966.091    5388.2401    53758.908    7154.3374   -3292.5505    79.019427 
   52300    2688.6807   -107.59609    2.4327748   -105.16332    39138.328     4.283414     4.283414     4.283414    39138.328    39929.406    41371.083    36114.496   -29653.808   -18758.932    13764.534    78.590517 
   52400    1172.5644    -106.2748    1.0609609   -105.21384   -30046.174    4.2771094    4.2771094    4.2771094   -30046.174   -47582.944   -2906.7562   -39648.822    57707.334    29151.634   -2865.1694    78.244005 
   52500    1761.8096   -106.81812    1.5941223   -105.22399     -7133.49    4.2687564    4.2687564    4.2687564     -7133.49   -33472.312    2669.3517    9402.4904    58435.706    6655.4307   -16872.426    77.786478 
   52600      2791.48   -107.73628    2.5257897   -105.21049     21946.88    4.2771219    4.2771219    4.2771219     21946.88    36279.132    43367.554   -13806.045   -21027.022   -10365.284    12609.745    78.244694 
   52700    1415.3703   -106.50453    1.2806568   -105.22388   -44016.169    4.3025588    4.3025588    4.3025588   -44016.169   -59650.027   -36936.064   -35462.417    72509.164    40013.437    -3158.498    79.649024 
   52800    2540.7672   -107.46739    2.2989395   -105.16845   -29353.091     4.302325     4.302325     4.302325   -29353.091   -67579.211    18913.425   -39393.488   -8055.6796   -30713.283    654.25834    79.636036 
   52900    1921.7416   -106.89722    1.7388322   -105.15839   -23879.471    4.2850463    4.2850463    4.2850463   -23879.471   -43191.929    10760.926   -39207.411   -17493.752    13242.997    10834.311    78.680398 
   53000     2804.871   -107.69147    2.5379062   -105.15357    6525.6727    4.2888439    4.2888439    4.2888439    6525.6727   -7104.0377    55039.247   -28358.191    46461.144    586.25975     2114.572    78.889776 
   53100    1587.4398   -106.61424    1.4363489   -105.17789   -32832.561    4.2918486    4.2918486    4.2918486   -32832.561   -59440.994    12196.685   -51253.375   -50005.079   -52302.392   -16744.971    79.055698 
   53200     1692.598   -106.72737    1.5314983   -105.19587    44746.622     4.271496     4.271496     4.271496    44746.622    51675.046    102840.65   -20275.831   -7469.5026     55993.89    20268.666    77.936341 
   53300    2697.1163    -107.6346    2.4404075   -105.19419    8316.1997    4.2888538    4.2888538    4.2888538    8316.1997    12812.381   -12066.654    24202.872    18257.705   -24460.711   -8972.5597    78.890321 
   53400     1216.711   -106.28126    1.1009057   -105.18036   -54221.896    4.3061157    4.3061157    4.3061157   -54221.896   -102397.17    12465.222   -72733.742   -54964.535    43944.825   -953.89664    79.846719 
   53500    1845.8695   -106.80678    1.6701815    -105.1366   -15218.121     4.286933     4.286933     4.286933   -15218.121   -39990.969    513.58721   -6176.9801    28200.018    27798.373   -816.41087    78.784371 
   53600    2214.1035   -107.15385    2.0033674   -105.15049   -10877.207    4.2827778    4.2827778    4.2827778   -10877.207     31397.08   -46999.069   -17029.632     44261.74   -12056.602   -8000.1043    78.555504 
   53700    2148.1204   -107.10653    1.9436644   -105.16287   -20062.781    4.2929212    4.2929212    4.2929212   -20062.781   -19762.979   -1055.6538   -39369.711    -17618.08    47168.282   -2653.8967    79.114983 
   53800    1315.3411   -106.37903    1.1901483   -105.18888    3929.3257    4.2806559    4.2806559    4.2806559    3929.3257   -59024.535   -10974.553    81787.065    82646.499    9057.8823   -1066.3892    78.438805 
   53900    2745.5952   -107.67577    2.4842722    -105.1915    3941.8797     4.278093     4.278093     4.278093    3941.8797    74443.098   -37412.131   -25205.328   -43622.109   -15350.784   -8589.1267    78.298002 
   54000    1127.9361   -106.24104    1.0205803   -105.22046   -36549.445    4.2832027    4.2832027    4.2832027   -36549.445   -30408.774    -77486.73   -1752.8314     89898.17    23257.165    -8677.867    78.578887 
   54100    2274.7696   -107.27024    2.0582593   -105.21198    18515.318    4.2761452    4.2761452    4.2761452    18515.318    4599.2585    19012.829    31933.868     9056.974    26421.855    9726.8405    78.191102 
   54200    2327.1946   -107.32629    2.1056945   -105.22059   -15914.622    4.2951374    4.2951374    4.2951374   -15914.622   -58741.483   -8662.8901    19660.508     27010.91   -5916.0385   -1188.9587    79.237579 
   54300    890.32309   -106.00855   0.80558304   -105.20297   -34512.723    4.3038887    4.3038887    4.3038887   -34512.723   -129217.68    15123.133    10556.375    75114.653    26276.045   -7832.2219    79.722904 
   54400    2344.7183   -107.28216    2.1215504   -105.16061    54996.198    4.2904937    4.2904937    4.2904937    54996.198   -10652.106    80826.662    94814.037   -38181.488   -12680.604   -724.36993    78.980851 
   54500    2086.7877   -107.06644    1.8881694   -105.17827    24764.737    4.2843765    4.2843765    4.2843765    24764.737    -54486.22   -865.04862    129645.48    55743.828   -8773.7027   -25566.849    78.643511 
   54600    1980.1828   -106.99414     1.791711   -105.20243    14468.259    4.2732228    4.2732228    4.2732228    14468.259   -72761.091    64227.324    51938.544   -1797.8076    54348.952   -13349.723    78.030897 
   54700     1640.712   -106.70381    1.4845507   -105.21926    40677.899     4.273715     4.273715     4.273715    40677.899    8583.1611    66975.956    46474.579     11886.39   -18752.232   -3848.4942    78.057865 
   54800    1901.1115   -106.94672    1.7201657   -105.22655   -7179.7245    4.2901591    4.2901591    4.2901591   -7179.7245   -4793.2723   -11785.165   -4960.7357    41770.727    16141.504   -8533.8729    78.962372 
   54900    2228.5173   -107.22157    2.0164093   -105.20516    14735.804    4.2919574    4.2919574    4.2919574    14735.804   -49157.982    52582.814     40782.58   -23416.081    27532.345   -12181.781    79.061708 
   55000    1938.4622   -106.95891    1.7539614   -105.20495   -1813.8601    4.2909251    4.2909251    4.2909251   -1813.8601   -67686.372    13041.957    49202.835    39755.124     -49144.6   -8394.5902    79.004675 
   55100    2528.0729    -107.4787    2.2874534   -105.19124    3884.8182    4.2821462    4.2821462    4.2821462    3884.8182    4962.7904   -24685.759    31377.423    33916.354    34421.747    2277.1378    78.520758 
   55200    1706.0397   -106.74479    1.5436606   -105.20113    10919.873    4.2669114    4.2669114    4.2669114    10919.873   -63390.487    76112.899    20037.207   -6070.4565   -32867.177   -18867.732    77.685664 
   55300    1599.8427    -106.6807    1.4475713   -105.23312    35296.274    4.2746035    4.2746035    4.2746035    35296.274    20079.202     33328.39     52481.23    49364.063   -31212.061   -49.008744    78.106561 
   55400    2917.7288   -107.85252    2.6400223   -105.21249    5802.2665    4.2874746    4.2874746    4.2874746    5802.2665   -15360.614   -21101.903    53869.316   -57.992932     20266.06    16251.495    78.814238 
   55500    1903.7936   -106.95628    1.7225924   -105.23369   -3018.7754    4.2770171    4.2770171    4.2770171   -3018.7754    -49564.55    28974.742    11533.482    5894.6859   -53319.057   -6187.4196    78.238941 
   55600    1091.4592   -106.24692   0.98757519   -105.25934   -42468.495    4.2688845    4.2688845    4.2688845   -42468.495    -45129.01    -43879.77   -38396.705    53083.374    12287.602   -15767.188    77.793481 
   55700    2161.3225   -107.22392      1.95561   -105.26831    1697.3258    4.2609687    4.2609687    4.2609687    1697.3258    13475.109    1234.2942   -9617.4255   -24047.043    36570.319   -7735.7335    77.361527 
   55800    2769.1608   -107.77386    2.5055949   -105.26826    6684.7137    4.2776479    4.2776479    4.2776479    6684.7137   -34887.809   -2707.0883    57649.039    41233.749   -11036.556     3745.201    78.273562 
   55900    1470.3429   -106.57364    1.3303972   -105.24324   -51552.089    4.3028688    4.3028688    4.3028688   -51552.089   -45533.759   -71901.053   -37221.455    40422.302    27009.402   -25519.119    79.666239 
   56000    1812.2276   -106.83438    1.6397417   -105.19464    1552.4642    4.2974121    4.2974121    4.2974121    1552.4642   -33897.917    79330.182   -40774.873   -7059.5057    15055.241   -13457.501    79.363535 
   56100    2010.0451   -107.00629     1.818731   -105.18756    23285.979    4.2862447    4.2862447    4.2862447    23285.979   -40701.919    24668.403    85891.454    84504.301   -15835.134   -1563.3516    78.746433 
   56200     2534.071   -107.48804    2.2928807   -105.19516    25973.623    4.2713431    4.2713431    4.2713431    25973.623   -7764.1339    41490.298    44194.706   -35205.165    16258.716   -7333.3292     77.92797 
   56300    1103.8225   -106.22078   0.99876176   -105.22202    50424.258    4.2701145    4.2701145    4.2701145    50424.258   -6187.1336    68154.765    89305.141    28574.799    5326.3705    -28744.16    77.860749 
   56400    2450.1935   -107.42398    2.2169865     -105.207    13091.248     4.306273     4.306273     4.306273    13091.248    46828.548   -39941.809    32387.004    11504.952   -5490.7179    24656.887    79.855469 
   56500     2245.992   -107.19234    2.0322208   -105.16012   -21696.128    4.3167924    4.3167924    4.3167924   -21696.128   -23900.218   -83663.923    42475.756   -18931.482    23621.013    5810.7271    80.442115 
   56600    2024.7604   -106.97033    1.8320458   -105.13828    8774.3553    4.2827106    4.2827106    4.2827106    8774.3553    32308.842   -54124.909    48139.133    38698.623   -5653.1906   -1641.5634    78.551811 
   56700    2209.7522   -107.13615    1.9994303   -105.13672    15052.857    4.2626273    4.2626273    4.2626273    15052.857    88497.777   -38670.419   -4668.7862   -40614.041   -12629.065    52177.532    77.451899 
   56800    2091.8723   -107.05844      1.89277   -105.16567    7815.0119    4.2694776    4.2694776    4.2694776    7815.0119   -22833.143   -73344.361    119622.54    57074.093    28814.035   -14660.097     77.82591 
   56900    1496.7645   -106.55728     1.354304   -105.20297    3817.0472    4.2873336    4.2873336    4.2873336    3817.0472     91545.49   -49973.344   -30121.004    17296.825   -19484.781    52501.239    78.806461 
   57000    2129.6802   -107.11374    1.9269794   -105.18676   -17116.238    4.2959058    4.2959058    4.2959058   -17116.238    22735.622   -50782.546    -23301.79   -12135.894    10124.043   -36957.602    79.280108 
   57100    2106.6478   -107.08886    1.9061392   -105.18272    -23474.99    4.2818774    4.2818774    4.2818774    -23474.99   -19389.449   -72408.097    21372.576    54870.368     14139.62    20338.323    78.505971 
   57200    1958.4917   -106.96611    1.7720845   -105.19402   -4255.4936    4.2651502    4.2651502    4.2651502   -4255.4936    79967.859   -59246.318   -33488.022   -20329.596   -12395.229    15314.741    77.589507 
   57300    1741.8089   -106.79554    1.5760253   -105.21951     9969.228    4.2687018    4.2687018    4.2687018     9969.228    64974.342   -9561.3192   -25505.339    28087.968    21543.219   -78076.995    77.783492 
   57400    2558.8708   -107.52724    2.3153201   -105.21192    6429.7062    4.2860244    4.2860244    4.2860244    6429.7062   -10965.786   -37544.006     67798.91    8672.0953   -18726.033    15849.096    78.734288 
   57500    706.75355   -105.86495   0.63948547   -105.22547   -43076.263    4.3050884    4.3050884    4.3050884   -43076.263    58897.016   -152083.41     -36042.4    -21447.43    -2003.552   -46765.184    79.789588 
   57600    3019.3961   -107.89897     2.732013   -105.16696   -19824.087    4.3004048    4.3004048    4.3004048   -19824.087   -29087.476   -45222.866    14838.081    8748.1934    5566.2354    19090.839    79.529454 
   57700    1663.6271    -106.6751    1.5052848   -105.16981    27493.822    4.2715586    4.2715586    4.2715586    27493.822    26625.774    14833.709    41021.982    10024.369    10308.124    -64856.65    77.939766 
   57800    2197.9264   -107.15815      1.98873   -105.16942    36027.031    4.2653264    4.2653264    4.2653264    36027.031    53085.622    8994.0825    46001.389   -37814.603   -14403.372   -9833.2626    77.599124 
   57900    1942.8122   -106.95853    1.7578973   -105.20064    5021.2095    4.2814935    4.2814935    4.2814935    5021.2095   -12731.273    9405.7071    18389.194    33034.921    34157.076    13505.427    78.484855 
   58000    999.49306   -106.12688   0.90436232   -105.22251    25028.109    4.2822019    4.2822019    4.2822019    25028.109    85391.636     7960.516   -18267.824    3876.9111    4714.7042   -50986.354    78.523818 
   58100    2698.8974   -107.63547    2.4420191   -105.19345    23695.331    4.2933768    4.2933768    4.2933768    23695.331    32020.316     59686.18   -20620.504   -20805.857    -21145.07    5837.1324    79.140177 
   58200    1582.9975   -106.63803    1.4323294    -105.2057    522.72689    4.2957029    4.2957029    4.2957029    522.72689    32985.053    40740.305   -72157.178   -2285.3473    43142.948   -32759.658    79.268879 
   58300    1525.6069   -106.56679    1.3804012   -105.18639    35009.904    4.2827351    4.2827351    4.2827351    35009.904    79660.766     57982.36   -32613.414    8401.5368   -21723.983   -35615.909    78.553156 
   58400    2318.0627   -107.25399    2.0974318   -105.15656    17768.577    4.2915167    4.2915167    4.2915167    17768.577     9677.052    62116.825   -18488.147   -41026.391    25347.629    26316.719    79.037359 
   58500    1541.2558   -106.55746    1.3945607    -105.1629    -40714.51    4.3085295    4.3085295    4.3085295    -40714.51    4052.2865   -46926.329   -79269.488    23494.936    44994.794   -50205.419    79.981068 
   58600    3172.2931   -107.99148    2.8703575   -105.12112   -6676.0266    4.3062854    4.3062854    4.3062854   -6676.0266   -3584.8359   -49853.991    33410.747    1570.9908   -455.01543    35657.743    79.856162 
   58700    1549.0466   -106.57383    1.4016099   -105.17222   -44315.929    4.2885715    4.2885715    4.2885715   -44315.929   -15889.714   -53702.519   -63355.555   -13334.437    30191.142   -50964.722    78.874746 
   58800    1353.1248   -106.42542    1.2243357   -105.20109    6860.2593    4.2549932    4.2549932    4.2549932    6860.2593   -5809.2138    71335.063   -44945.071    16550.499    41774.693   -16138.887    77.036512 
   58900     2649.975    -107.6055    2.3977531   -105.20775    29621.006     4.260536     4.260536     4.260536    29621.006   -1504.9909    5417.1238    84950.884   -7491.3394   -37492.147    2301.1642    77.337963 
   59000      1336.18   -106.43691    1.2090038    -105.2279   -34742.183    4.2885339    4.2885339    4.2885339   -34742.183    11723.715   -56232.506   -59717.759   -7593.3876    45417.768   -74655.965    78.872671 
   59100    2385.3305   -107.34555    2.1582971   -105.18726   -6420.5469    4.2955734    4.2955734    4.2955734   -6420.5469   -55191.324    3803.8511    32125.832    4924.8755    31543.444    8791.0429    79.261712 
   59200    2488.3929   -107.43418    2.2515501   -105.18263   -27530.248    4.3019477    4.3019477    4.3019477   -27530.248   -10696.694   -14385.308   -57508.741    -10824.48   -22548.351   -38754.248    79.615091 
   59300    1177.0311   -106.28382    1.0650025   -105.21882   -30793.997    4.2757347    4.2757347    4.2757347   -30793.997   -5093.0322   -25668.554   -61620.404    4935.0397    57754.577   -57302.671    78.168584 
   59400    2000.9399   -107.00726    1.8104925   -105.19677    40936.067    4.2364708    4.2364708    4.2364708    40936.067    80307.464     14137.52    28363.218    18919.236    327.27863    62698.807    76.034842 
   59500     2411.965   -107.40383    2.1823966   -105.22144    35824.514    4.2514586    4.2514586    4.2514586    35824.514    18474.026    80806.095    8193.4204   -774.38385    5086.2087   -19077.238    76.844691 
   59600     1851.353   -106.90844    1.6751431    -105.2333   -25346.209     4.290286     4.290286     4.290286   -25346.209   -48928.287    29729.354   -56839.695   -8647.6255    60609.555    4344.6064    78.969381 
   59700    1920.6574   -106.93758    1.7378512   -105.19973   -10717.817    4.3002865    4.3002865    4.3002865   -10717.817    11806.299    -22907.77   -21051.979    17127.795   -16383.071    48714.105    79.522895 
   59800    2167.7867   -107.13231     1.961459   -105.17085   -3751.2569    4.2954157    4.2954157    4.2954157   -3751.2569    -53337.13    59779.686   -17696.327   -19021.838    51030.595   -10136.747    79.252981 
   59900    1646.5714   -106.66614    1.4898524   -105.17628   -37163.411     4.281301     4.281301     4.281301   -37163.411   -20487.603   -33120.432   -57882.199    249.43273    39314.854    59199.438    78.474273 
   60000    2821.9825   -107.71354    2.5533891   -105.16015   -1718.5485    4.2553092    4.2553092    4.2553092   -1718.5485    11881.928   -19207.634    2170.0612    30065.585   -17677.623    10223.689    77.053677 
   60100    1412.6271   -106.48047    1.2781747   -105.20229   -646.34564    4.2657906    4.2657906    4.2657906   -646.34564   -51574.972      16115.9    33520.035   -29247.439    82644.096    1952.2998     77.62446 
   60200    1739.8915   -106.79254    1.5742904   -105.21825   -13168.969    4.2860468    4.2860468    4.2860468   -13168.969   -2381.5118   -56488.694    19363.298    4240.3846    -3226.716     66363.65    78.735526 
   60300    2421.9089   -107.39437    2.1913941   -105.20298   -741.90347    4.2842047    4.2842047    4.2842047   -741.90347   -368.97673   -22813.335    20956.602    5129.4942    15825.463   -49999.796    78.634047 
   60400    1667.3565   -106.71313    1.5086592   -105.20448     -20278.4    4.2809676    4.2809676    4.2809676     -20278.4   -62464.601   -18638.968    20268.369   -21340.033    52660.352    23232.477    78.455941 
   60500    2120.4266   -107.11695    1.9186066   -105.19834   -16021.284    4.2716248    4.2716248    4.2716248   -16021.284   -14018.729    -50476.03    16430.909    885.92608   -16858.217    30302.377    77.943389 
   60600    2501.5085   -107.46863    2.2634174   -105.20521    11125.328    4.2687528    4.2687528    4.2687528    11125.328    14216.776   -2401.5719     21560.78    10384.104    24166.918   -70053.242     77.78628 
   60700    1719.6553   -106.77513    1.5559802   -105.21915   -35266.783    4.2896004    4.2896004    4.2896004   -35266.783   -49584.078   -50288.978   -5927.2943   -36213.016    22063.539    48606.046    78.931527 
   60800    1274.3703   -106.37188     1.153077    -105.2188    -21494.16    4.2810471    4.2810471    4.2810471    -21494.16   -8972.5747   -81338.259    25828.355    31333.184   -17256.774    8136.4956    78.460312 
   60900    2891.3199   -107.79169     2.616127   -105.17557    41719.265      4.27024      4.27024      4.27024    41719.265    11970.847    61024.037    52162.909   -8014.9399   -2507.0489   -19976.421    77.867613 
   61000    1481.6113    -106.5538     1.340593    -105.2132   -25825.815    4.2772078    4.2772078    4.2772078   -25825.815   -40266.989   -66863.785    29653.328   -1541.0483    2587.9982     55465.77    78.249408 
   61100    1965.7367   -106.98937    1.7786399   -105.21073    6532.6703    4.2741242    4.2741242    4.2741242    6532.6703   -70729.158    42514.655    47812.514    43725.331   -5839.7044    4910.1966    78.080289 
   61200    2454.3575   -107.43087    2.2207543   -105.21011    11652.024    4.2734947    4.2734947    4.2734947    11652.024   -27520.818    14422.058    48054.831   -19091.175    15162.217   -21583.098    78.045796 
   61300    797.88114   -105.96967   0.72193962   -105.24773   -27003.962    4.2768195    4.2768195    4.2768195   -27003.962   -32054.093   -30180.573   -18777.222    38940.354   -1176.9451    43069.634    78.228096 
   61400    2637.7615   -107.62466     2.386702   -105.23796   -8741.1811    4.2680324    4.2680324    4.2680324   -8741.1811   -41993.931   -19244.171    35014.559    32878.511    3735.4856   -5269.1964    77.746907 
   61500    2287.3218   -107.30671    2.0696169    -105.2371    13551.619    4.2555343    4.2555343    4.2555343    13551.619    38363.415   -16953.698     19245.14   -14366.305    3106.1065   -28266.493    77.065904 
   61600    1329.3866   -106.45739     1.202857   -105.25453   -42971.047    4.2766446    4.2766446    4.2766446   -42971.047   -14520.954   -94235.692   -20156.494    49986.287   -10134.505    51393.976      78.2185 
   61700     2470.068   -107.44169    2.2349695   -105.20672   -14073.692    4.2816083    4.2816083    4.2816083   -14073.692   -80506.356     25466.83     12818.45   -9770.3652   -31721.087   -11309.999    78.491171 
   61800    1445.8565   -106.51957    1.3082414   -105.21133    23636.531    4.2703046    4.2703046    4.2703046    23636.531    30148.329   -25597.077     66358.34     12144.36   -10379.556    36740.798    77.871148 
   61900    1933.1542   -106.96589    1.7491586   -105.21674   -4865.1985    4.2809479    4.2809479    4.2809479   -4865.1985    1930.5298   -49610.002    33083.877    43267.312   -3924.9539    47968.499    78.454857 
   62000    3012.8472    -107.9067    2.7260875   -105.18061    1610.6462    4.2863733    4.2863733    4.2863733    1610.6462   -37814.924    4733.1778    37913.685   -51939.294    14487.217   -13258.548    78.753519 
   62100    918.29893   -106.02822   0.83089617   -105.19732   -3945.2564     4.295526     4.295526     4.295526   -3945.2564    465.19186   -56270.161      43969.2    49872.472   -4474.1504    42691.349    79.259084 
   62200    2520.6092   -107.43934    2.2807001   -105.15864   -4291.5644     4.304052     4.304052     4.304052   -4291.5644   -24281.971    32248.157   -20840.879    8054.0607   -20863.559   -29181.951    79.731978 
   62300    1968.8517   -106.94879    1.7814584   -105.16734   -13459.814    4.2919015    4.2919015    4.2919015   -13459.814    23440.081   -42312.592   -21506.932   -16953.885    9620.6743    25328.388    79.058621 
   62400    1324.4056   -106.37522      1.19835   -105.17687    3868.9215    4.2644598    4.2644598    4.2644598    3868.9215   -20581.211     9917.207    22270.768    59681.573   -17067.092     39979.38    77.551833 
   62500    2751.6531   -107.65641    2.4897535   -105.16665    50570.947    4.2619382    4.2619382    4.2619382    50570.947    19871.113    74969.038     56872.69   -27883.168    19288.816   -50457.284    77.414347 
   62600    1109.1178   -106.21237    1.0035531   -105.20882   -5048.6806     4.287164     4.287164     4.287164   -5048.6806    11963.715   -28040.409    930.65248    38326.485   -10443.897    83788.532    78.797112 
   62700    2112.4972   -107.10371    1.9114319   -105.19228   -5298.4703    4.2993796    4.2993796    4.2993796   -5298.4703   -17889.556   -6738.3334    8732.4782    22077.122     15879.22   -18458.106     79.47259 
   62800    2357.5373   -107.30527    2.1331493   -105.17212    6172.6163    4.2843153    4.2843153    4.2843153    6172.6163    31263.096   -87.702308   -12657.545    -14653.43    10278.623    29296.463     78.64014 
   62900    1298.1982   -106.37325     1.174637   -105.19861   -28649.141     4.266204     4.266204     4.266204   -28649.141   -2965.1588   -97674.947    14692.683    76941.828   -13060.831    67646.743    77.647033 
   63000    2942.6897   -107.82862    2.6626075   -105.16601    16377.918    4.2669502    4.2669502    4.2669502    16377.918   -2918.8896    54726.615   -2673.9716   -32608.405    27281.235   -22569.113    77.687784 
   63100    1188.1256   -106.27062     1.075041   -105.19558    -43773.64    4.2991665    4.2991665    4.2991665    -43773.64   -22269.097   -64296.393   -44755.429    19853.473   -3085.8187    73214.993    79.460775 
   63200     2483.882   -107.39837    2.2474687    -105.1509   -11890.101    4.3149948    4.3149948    4.3149948   -11890.101   -26849.564   -8549.5865   -271.15341    12616.589    2464.1727   -35190.699    80.341664 
   63300    2203.5148   -107.13899    1.9937865    -105.1452   -26324.409     4.295358     4.295358     4.295358   -26324.409   -4473.3249   -47323.724   -27176.178   -12945.413    10821.966    28261.037    79.249787 
   63400    1647.1185   -106.65201    1.4903474   -105.16166    4521.3215    4.2591991    4.2591991    4.2591991    4521.3215   -19482.273   -24789.888    57836.125    54162.653    -7537.821    37770.497    77.265183 
   63500    2425.1364   -107.36298    2.1943144   -105.16867    14920.984    4.2451347    4.2451347    4.2451347    14920.984    47669.854   -26992.046    24085.143    7835.5156   -6322.0234    -81249.79    76.502288 
   63600    1870.7461   -106.90892    1.6926904   -105.21623     10982.97    4.2659861    4.2659861    4.2659861     10982.97    59409.732   -15872.568   -10588.255    7047.2143    14109.709    64358.292    77.635132 
   63700    1676.6949   -106.72437    1.5171088   -105.20726   -50897.189    4.2993876    4.2993876    4.2993876   -50897.189   -42909.227   -90890.933   -18891.405    49593.761    14650.444   -31088.732    79.473033 
   63800    2165.5397   -107.14564    1.9594258   -105.18621   -37297.326    4.2929666    4.2929666    4.2929666   -37297.326    32027.892   -86869.639    -57050.23   -19786.116    264.88748   -44488.458    79.117497 
   63900    2410.9647   -107.35432    2.1814915   -105.17283    -12381.32    4.2727269    4.2727269    4.2727269    -12381.32   -10101.955   -38072.843    11030.838    18707.761   -14662.079     69551.29    78.003736 
   64000    1211.2543   -106.30137    1.0959684   -105.20541   -27677.097    4.2564198    4.2564198    4.2564198   -27677.097   -3899.1148   -70752.629   -8379.5482    66953.862    21266.045   -73142.307    77.114025 
   64100    2560.6314   -107.52781    2.3169131    -105.2109    28630.684    4.2525942    4.2525942    4.2525942    28630.684    55714.413     27705.69    2471.9493   -48966.204   -29188.524   -2600.9627    76.906285 
   64200    1760.0387   -106.80652      1.59252     -105.214   -36206.748    4.2817393    4.2817393    4.2817393   -36206.748   -71830.344    -53991.24    17201.338    74423.637    20495.175    -5666.261    78.498373 
   64300    1889.8048   -106.90269    1.7099351   -105.19276   -32989.239    4.2926124    4.2926124    4.2926124   -32989.239    908.96659   -34251.671   -65625.012    13867.397   -862.66733   -45361.483    79.097911 
   64400     2063.328     -107.048    1.8669426   -105.18106   -3669.9159    4.2837949    4.2837949    4.2837949   -3669.9159   -29971.925   -19834.739    38796.916     2522.813   -26929.287    19956.929    78.611485 
   64500    1621.2417   -106.65057    1.4669336   -105.18364   -3364.3756    4.2692692    4.2692692    4.2692692   -3364.3756    10070.257   -84133.336    63969.952    75025.049    13377.175   -25516.826    77.814515 
   64600    2811.8377    -107.7075    2.5442098   -105.16329    23474.445    4.2673463    4.2673463    4.2673463    23474.445     126337.8   -12751.079   -43163.386   -25072.253   -10971.379   -38176.035    77.709418 
   64700    1097.4983   -106.18889   0.99303953   -105.19585    614.56739    4.2763336    4.2763336    4.2763336    614.56739   -475.68443   -30054.855    32374.241     77805.94   -17217.695    11849.549    78.201439 
   64800    2201.5126   -107.16986    1.9919749   -105.17789    112.95047    4.2912741    4.2912741    4.2912741    112.95047    37856.275   -24393.311   -13124.112   -41562.548    3553.3758   -12661.248    79.023955 
   64900    1579.1683   -106.59897    1.4288647   -105.17011   -48113.537    4.2998489    4.2998489    4.2998489   -48113.537   -98664.918   -90809.822    45134.128    91055.458    23523.258   -2011.2609    79.498619 
   65000    2146.9668   -107.09363    1.9426207   -105.15101   -9221.3841    4.2761663    4.2761663    4.2761663   -9221.3841   -38384.845   -30638.131    41358.824    49096.862   -27895.343    13403.988    78.192256 
   65100    2477.1755   -107.39536    2.2414004   -105.15396    1016.9523    4.2504407    4.2504407    4.2504407    1016.9523    -19998.14    17599.256    5449.7413   -12204.612    44799.237   -1182.2859    76.789506 
   65200    1615.1703    -106.6592    1.4614401   -105.19776   -8634.8152    4.2489514    4.2489514    4.2489514   -8634.8152   -66683.032    -33518.51    74297.096    110209.69    30001.786   -4130.5946    76.708816 
   65300    2568.6904   -107.53099    2.3242051   -105.20678    27997.848    4.2663547    4.2663547    4.2663547    27997.848    6749.1385    42825.321    34419.084   -14115.861   -72903.249    -3927.515    77.655261 
   65400    1884.2036   -106.91457     1.704867    -105.2097   -20264.893    4.2981914    4.2981914    4.2981914   -20264.893   -40444.568   -11096.093   -9254.0177    60682.613     32737.27    12622.278    79.406718 
   65500    1616.6877   -106.64331     1.462813   -105.18049   -31110.562    4.2995933    4.2995933    4.2995933   -31110.562     -67607.5    30319.106   -56043.292    41157.282   -9533.2707    -2226.793    79.484444 
   65600    2629.5247   -107.52329    2.3792492   -105.14404    15468.747    4.2732939    4.2732939    4.2732939    15468.747    37051.055    5835.9555     3519.231   -1230.5788   -37884.929     2813.955    78.034797 
   65700    519.30678   -105.65414   0.46987969   -105.18426   -5181.8944    4.2607129    4.2607129    4.2607129   -5181.8944    5462.9572   -93273.887    72265.246    103898.94    26920.451   -572.67085    77.347593 
   65800    2963.1048   -107.86529    2.6810795   -105.18422     13887.48    4.2627087    4.2627087    4.2627087     13887.48    53862.119    14067.388   -26267.067     -22446.1    31813.417   -5675.5226    77.456339 
   65900    2020.0891    -107.0566     1.827819   -105.22878   -36067.021    4.2770275    4.2770275    4.2770275   -36067.021   -48021.643   -67143.012    6963.5915    65629.513    -25311.89    17070.205    78.239513 
   66000    1771.4495   -106.82616    1.6028448   -105.22331   -19395.103     4.278676     4.278676     4.278676   -19395.103   -51021.324   -1798.4076   -5365.5759    32588.643    41959.023    5239.8419    78.330016 
   66100    2473.7745   -107.42292    2.2383232   -105.18459    22985.403    4.2685918    4.2685918    4.2685918    22985.403    709.62351    103232.75   -34986.162   -15669.915   -52487.474    6714.0593     77.77748 
   66200    1369.2988    -106.4356    1.2389704   -105.19663   -19622.725    4.2798478    4.2798478    4.2798478   -19622.725    -22610.21   -15624.922   -20633.042    69289.008     4399.034   -2342.5521    78.394388 
   66300    2446.2351   -107.36949    2.2134049   -105.15608    -2088.794     4.286761     4.286761     4.286761    -2088.794    20779.954    6681.2802   -33727.617   -7039.6807    -18372.39   -1541.0566    78.774893 
   66400     998.1407   -106.06552   0.90313868   -105.16238    20367.327    4.2973774    4.2973774    4.2973774    20367.327    60702.232    6435.1716   -6035.4239    34160.248    -70562.15    9490.6023    79.361612 
   66500    2335.0211   -107.21316    2.1127761   -105.10039    1333.1487    4.3068438    4.3068438    4.3068438    1333.1487    65578.908    -64773.84    3194.3773    17143.017    7805.1123   -4009.3861    79.887232 
   66600    1531.2715   -106.49781    1.3855266   -105.11228    2404.1594    4.2897076    4.2897076    4.2897076    2404.1594    637.41602    7031.0323   -455.97019   -6103.6972   -107362.75    4429.4052    78.937448 
   66700    2410.8523   -107.31702    2.1813898   -105.13563   -3759.7445     4.263433     4.263433     4.263433   -3759.7445    6749.5422   -50052.847    32024.071    46697.613    19377.589    6150.7931    77.495827 
   66800    1823.9986   -106.82411    1.6503923   -105.17372    19142.715    4.2418703    4.2418703    4.2418703    19142.715   -31999.945    37941.442    51486.647   -25577.521   -66575.381   -18357.675    76.325938 
   66900    1843.8626    -106.8794    1.6683657   -105.21103    13420.854    4.2493249    4.2493249    4.2493249    13420.854    -611.4167    16768.084    24105.895    15242.147   -59338.723    26860.652    76.729047 
   67000     2087.667   -107.10374     1.888965   -105.21477   -3031.2428    4.2821075    4.2821075    4.2821075   -3031.2428   -9984.9847   -34512.031    35403.287    38669.314    5420.2231     20575.33     78.51863 
   67100    1612.9353   -106.63572    1.4594177    -105.1763   -23199.409    4.3098318    4.3098318    4.3098318   -23199.409   -78769.101    49343.546   -40172.671   -27149.753   -73796.258   -11730.036    80.053618 
   67200    2557.2753   -107.42494    2.3138764   -105.11106   -30764.348    4.3058402    4.3058402    4.3058402   -30764.348    6615.8018   -71371.658   -27537.187    20033.253    34791.482    48223.748    79.831397 
   67300    1506.6548   -106.49235     1.363253    -105.1291   -5569.8076     4.266714     4.266714     4.266714   -5569.8076   -27179.218    34159.942   -23690.148     1235.696   -107219.95    -35363.62    77.674881 
   67400    2323.2952   -107.22406    2.1021663   -105.12189    26543.899    4.2353167    4.2353167    4.2353167    26543.899    50870.086    40594.394   -11832.784   -15496.561    32473.667    46865.916    75.972717 
   67500    1876.6188   -106.88271    1.6980042   -105.18471    9163.9383    4.2436134    4.2436134    4.2436134    9163.9383    66592.828    672.35779   -39773.371    12061.013   -2643.6322    10351.488    76.420069 
   67600    2261.3031   -107.24822    2.0460746   -105.20214    4675.3849    4.2701485    4.2701485    4.2701485    4675.3849    -3530.891    11689.737    5867.3091    -7000.641   -45003.711   -30875.534    77.862608 
   67700    1263.4239   -106.35332    1.1431725   -105.21015   -10984.034    4.2853332    4.2853332    4.2853332   -10984.034    2019.0931    32048.146   -67019.341    3220.3271    83067.011    51992.573    78.696204 
   67800    2703.5855   -107.60985     2.446261   -105.16359   -13494.013    4.2871283    4.2871283    4.2871283   -13494.013    28897.185   -30025.134   -39354.092    7388.8349   -18103.524    -64574.03    78.795144 
   67900    1581.9819   -106.59511    1.4314104   -105.16369    11836.775    4.2820585    4.2820585    4.2820585    11836.775    6613.1118    59474.543   -30577.331   -9405.5899    50517.132    29277.049     78.51593 
   68000     1982.274   -106.94067    1.7936032   -105.14707   -3909.4342    4.2744248    4.2744248    4.2744248   -3909.4342   -6141.8537    23971.978   -29558.427    13488.291    15699.763    32225.595    78.096765 
   68100     2875.769   -107.74922    2.6020563   -105.14717    23219.522    4.2650423    4.2650423    4.2650423    23219.522    31537.216    13679.649    24441.702   -3842.3562    7105.8254   -26893.142    77.583618 
   68200    984.22895   -106.10397   0.89055104   -105.21342   -27703.454    4.2610762    4.2610762    4.2610762   -27703.454   -31852.966   -3294.7069   -47962.689   -25361.517    64705.838    45859.931    77.367381 
   68300    2923.7753   -107.84616    2.6454933   -105.20066     8856.089    4.2689756    4.2689756    4.2689756     8856.089    28466.615   -44520.775    42622.428    16866.985   -23395.189    15858.862    77.798465 
   68400    1355.0437   -106.43233     1.226072   -105.20626   -39082.664    4.2991938    4.2991938    4.2991938   -39082.664   -55839.131    11549.214   -72958.076    -5433.436     56207.31   -986.90252    79.462286 
   68500    2471.1652   -107.37869    2.2359622   -105.14273   -28038.254    4.2991265    4.2991265    4.2991265   -28038.254   -40094.129   -48293.654    4273.0224    -35147.43   -7009.4242    26860.668    79.458559 
   68600    1765.0712   -106.72996    1.5970735   -105.13288   -6605.8296    4.2712884    4.2712884    4.2712884   -6605.8296   -60508.044     57353.26   -16662.705    5630.4991     76021.78   -40766.718    77.924981 
   68700    1982.4989   -106.93445    1.7938067   -105.14064   -2670.4454    4.2615357    4.2615357    4.2615357   -2670.4454   -18540.239    51233.921   -40705.018    4725.3979    861.96373   -14218.168    77.392412 
   68800     2538.373   -107.45694    2.2967733   -105.16017    14466.256    4.2603805    4.2603805    4.2603805    14466.256   -44923.703    68267.041     20055.43   -13799.166    29710.255    9067.8163    77.329496 
   68900    1035.7264   -106.14158   0.93714701   -105.20444   -26913.456    4.2768859    4.2768859    4.2768859   -26913.456   -34018.924    35720.648   -82442.093   -4318.9294     64792.69   -56040.687     78.23174 
   69000    2619.5136   -107.54045    2.3701909   -105.17026   -24403.073    4.2877368    4.2877368    4.2877368   -24403.073   -16856.475   -14517.255    -41835.49   -347.86637   -56912.976    -16905.91    78.828697 
   69100    1317.8007   -106.36864    1.1923737   -105.17626   -19270.085    4.2753821    4.2753821    4.2753821   -19270.085   -88760.276    80622.081    -49672.06    1204.4136    109243.19    19602.925    78.149247 
   69200    2007.3449   -106.98595    1.8162879   -105.16966    15828.045    4.2618768    4.2618768    4.2618768    15828.045    56463.996     3995.825   -12975.686   -21785.809   -10865.146   -61708.688    77.410999 
   69300    2528.6959   -107.45655    2.2880172   -105.16854    25410.254    4.2581062    4.2581062    4.2581062    25410.254   -11650.017    47432.553    40448.226    20602.623    48937.493    15592.575    77.205718 
   69400    1408.2915   -106.47594    1.2742517   -105.20169   -4977.8676     4.271571     4.271571     4.271571   -4977.8676     -20259.7    46836.735   -41510.638   -6571.7557    60572.875   -30263.319    77.940448 
   69500    2753.3492   -107.65387    2.4912882   -105.16258    16668.577    4.2819748    4.2819748    4.2819748    16668.577    9470.7551    22833.996    17700.981   -961.28018   -17419.296   -33737.268    78.511328 
   69600    1104.7563   -106.18123   0.99960673   -105.18162    4698.5434    4.2791072    4.2791072    4.2791072    4698.5434   -45951.693    29638.062     30409.26    34145.378    75972.341     23153.52    78.353697 
   69700    2686.4931   -107.57934    2.4307954   -105.14854    7153.2859    4.2789107    4.2789107    4.2789107    7153.2859    40955.696   -24605.575    5109.7369    2482.1942   -21857.778   -7574.4046    78.342907 
   69800    1469.3917   -106.49114    1.3295365   -105.16161   -15807.626    4.2739019    4.2739019    4.2739019   -15807.626   -83840.038    89342.954   -52925.796   -21338.098     93422.54   -3593.1012    78.068105 
   69900    2472.0181   -107.37771    2.2367339   -105.14097   -11694.134    4.2699209    4.2699209    4.2699209   -11694.134    17159.691   -32585.491   -19656.603     6159.274   -28351.217    65032.801    77.850155 
   70000    1637.9634   -106.64599    1.4820637   -105.16392   -42315.991    4.2745618    4.2745618    4.2745618   -42315.991   -32888.762   -21585.378   -72473.832   -4900.0399    64178.939    29327.893    78.104274 
   70100    1908.2665   -106.90786    1.7266396   -105.18122    734.12723    4.2653842    4.2653842    4.2653842    734.12723    -32873.72     64429.81   -29353.708   -10668.774    64124.764   -25400.973    77.602276 
   70200    2118.9139   -107.09879    1.9172378   -105.18155    23021.362    4.2590684    4.2590684    4.2590684    23021.362    68748.946   -9041.7502    9356.8897    18801.177   -12528.178    35237.846    77.258068 
   70300    1687.3573   -106.72958    1.5267563   -105.20283   -55.169152    4.2699888    4.2699888    4.2699888   -55.169152   -29276.501    28479.302    631.69127   -3610.6997    76701.003    23539.757    77.853873 
   70400    2708.6077   -107.62262    2.4508052   -105.17182     7082.151    4.2785562    4.2785562    4.2785562     7082.151     31064.21   -47968.234    38150.477    5273.4885   -30178.453   -43970.422    78.323435 
   70500    1373.5132   -106.43184    1.2427836   -105.18905   -22548.248    4.2801081    4.2801081    4.2801081   -22548.248    21221.844   -41277.083   -47589.505   -7640.9101     38985.45    44900.351    78.408691 
   70600    2470.6767   -107.39847    2.2355202   -105.16295    13178.557    4.2711482    4.2711482    4.2711482    13178.557    35215.775   -35539.007    39858.903    31751.636   -5537.0003   -6583.7983    77.917306 
   70700    1350.1784   -106.40243    1.2216698   -105.18076    7399.7325    4.2657596    4.2657596    4.2657596    7399.7325    61468.116   -36716.405   -2552.5135   -4113.5223   -19473.598   -21184.406     77.62277 
   70800    2739.4393   -107.63636    2.4787022   -105.15766    12738.493    4.2738542    4.2738542    4.2738542    12738.493    41356.676   -4893.4757    1752.2799    2727.8935    20677.976    52512.153    78.065493 
   70900    1110.1524   -106.19204    1.0044892   -105.18755    15605.031      4.27198      4.27198      4.27198    15605.031    33381.465   -40045.575    53479.202    29648.221   -21945.285   -61783.527    77.962837 
   71000    2390.0754    -107.3446    2.1625904   -105.18201    4701.5959    4.2783711    4.2783711    4.2783711    4701.5959    63608.248   -14575.418   -34928.042   -6918.0417    -32360.06    15300.798    78.313267 
   71100    2010.3861   -107.00121    1.8190396   -105.18217   -10455.641    4.2794764    4.2794764    4.2794764   -10455.641   -43314.459       -43128    55075.536   -22986.929    36191.116   -7701.7295    78.373979 
   71200    1244.5346    -106.3321    1.1260811   -105.20601   -23019.394    4.2654323    4.2654323    4.2654323   -23019.394   -12996.918   -46059.276   -10001.987    17217.928   -36327.981   -59051.269    77.604903 
   71300    2768.0206   -107.69432    2.5045632   -105.18976     17348.17    4.2604854    4.2604854    4.2604854     17348.17    17044.061    33355.913    1644.5353   -13839.919   -7027.3942    57995.213    77.335203 
   71400    1878.5913    -106.9116    1.6997889   -105.21181    5681.6037    4.2688928    4.2688928    4.2688928    5681.6037    25091.438   -26014.857     17968.23    6466.2082    20274.183   -46318.495    77.793934 
   71500    1931.2603   -106.95387    1.7474449   -105.20642     1991.139    4.2740961    4.2740961    4.2740961     1991.139    35677.068   -2688.5072   -27015.144    11846.567   -19269.779   -5709.1922    78.078748 
   71600    2238.4965   -107.21073    2.0254386   -105.18529    4168.7586    4.2781579    4.2781579    4.2781579    4168.7586    32566.062   -3871.9656    -16187.82   -8687.3567   -8820.6926     89008.78    78.301561 
   71700    1871.1678   -106.87606    1.6930719   -105.18299    1597.3936    4.2807185    4.2807185    4.2807185    1597.3936    9248.2921   -21849.336    17393.224     9908.205    3615.5796   -89029.519    78.442242 
   71800    1909.4694   -106.91341     1.727728   -105.18568   -5304.2742    4.2706075    4.2706075    4.2706075   -5304.2742    30011.319   -20339.267   -25584.875   -12601.759    3880.1904    70283.091    77.887719 
   71900    2445.9597   -107.39008    2.2131557   -105.17692    21175.966    4.2552353    4.2552353    4.2552353    21175.966    18840.386   -25595.998    70283.508    262.33789   -2163.9847   -30126.266    77.049665 
   72000    1448.4665   -106.52699    1.3106029   -105.21639   -13170.231    4.2648376    4.2648376    4.2648376   -13170.231   -33121.794    18503.841   -24892.741    2226.6587    16852.559   -45723.373    77.572445 
   72100    2555.3702   -107.50005    2.3121526    -105.1879    7689.7005    4.2794652    4.2794652    4.2794652    7689.7005   -38148.134    38012.561    23204.674   -2676.1824    6231.0928    30870.066    78.373366 
   72200    1574.9672   -106.61908    1.4250635   -105.19402    -13160.72    4.2933833    4.2933833    4.2933833    -13160.72    33956.962   -68383.069   -5056.0544    11278.334    1239.2135   -99301.811    79.140536 
   72300    2839.5198   -107.71616    2.5692572   -105.14691    4893.8168    4.2904901    4.2904901    4.2904901    4893.8168   -36031.459    77448.785   -26735.875    5979.7762    13080.969    50741.271    78.980654 
   72400    682.69582   -105.79375   0.61771753   -105.17604   -23203.243    4.2686216    4.2686216    4.2686216   -23203.243    35583.559    -91593.65   -13599.639    5091.3929   -6412.6526   -114140.02    77.779112 
   72500    2650.4044   -107.58063    2.3981416   -105.18249    19013.977    4.2511709    4.2511709    4.2511709    19013.977   -4680.8355   -10117.206    71839.973    782.08487   -14124.343   -17599.278    76.829091 
   72600    2211.0101   -107.21277    2.0005684    -105.2122    14895.266    4.2463308    4.2463308    4.2463308    14895.266    36151.843   -43140.302    51674.257   -3526.8203    8860.7806   -58230.135    76.566973 
   72700    1723.8682   -106.78469    1.5597922    -105.2249   -14575.773    4.2646478    4.2646478    4.2646478   -14575.773    21890.889   -64583.157    -1035.052   -8988.9166   -10365.346   -56767.352    77.562091 
   72800     2378.958   -107.35709    2.1525312   -105.20456   -302.75492     4.270509     4.270509     4.270509   -302.75492   -42166.466    40967.378     290.8228    1789.7841    4329.1441    38343.565     77.88233 
   72900    1716.0428   -106.75774    1.5527116   -105.20502    29752.322    4.2679866    4.2679866    4.2679866    29752.322    2748.0832    51169.857    35339.026   -740.33439    9829.5679   -82019.273    77.744404 
   73000    2126.7019   -107.11469    1.9242846   -105.19041   -16672.019    4.2716697    4.2716697    4.2716697   -16672.019    15626.682   -31409.872   -34232.867    6552.9459   -2958.1848    96650.046    77.945847 
   73100    2243.3367   -107.21561    2.0298182    -105.1858    12465.486    4.2643917    4.2643917    4.2643917    12465.486    -11805.39    45670.549       3531.3    7617.2387    21064.401    -18780.52    77.548117 
   73200    1573.1003   -106.61825    1.4233742   -105.19488    7817.1782    4.2595325    4.2595325    4.2595325    7817.1782    91534.807   -49832.757   -18250.515    141.73561    14215.171    25106.531    77.283327 
   73300    2160.3004   -107.14495    1.9546852   -105.19026    2813.1237    4.2691105    4.2691105    4.2691105    2813.1237    51272.626   -45030.632     2197.377    7282.6046   -7279.0599    77823.486     77.80584 
   73400    2078.7082   -107.04614    1.8808589   -105.16528   -20009.281    4.2931552    4.2931552    4.2931552   -20009.281    23686.869   -95555.906    11841.194   -611.51762   -2525.1046    35201.277    79.127922 
   73500    1191.5505   -106.22005    1.0781399   -105.14191   -45597.668    4.3023641    4.3023641    4.3023641   -45597.668    71280.061   -145790.05   -62283.011   -5076.2899     8515.555    60162.341    79.638208 
   73600    2711.1104   -107.56056    2.4530696   -105.10749    32771.809    4.2681159    4.2681159    4.2681159    32771.809    16696.103    42295.152    39324.171     9747.684   -4111.0123   -2720.2829     77.75147 
   73700    1839.0517   -106.78106    1.6640126   -105.11705    21383.813    4.2502138    4.2502138    4.2502138    21383.813    103103.23   -18497.942   -20453.852    3144.5666   -7512.1452    94959.662    76.777209 
   73800     1961.723    -106.9183    1.7750082   -105.14329    15334.938    4.2600356    4.2600356    4.2600356    15334.938    46063.219   -32386.522    32328.116    7718.4258    9875.0077    -91183.61    77.310716 
   73900    2048.7262   -107.02725    1.8537305   -105.17352     10219.07    4.2729834    4.2729834    4.2729834     10219.07    56308.751    4896.1955   -30547.735   -3558.1618   -14202.337     76902.62    78.017788 
   74000    1841.5733   -106.84792    1.6662942   -105.18162   -28790.887    4.2808714    4.2808714    4.2808714   -28790.887    80301.512   -93022.767   -73651.408    9182.2225   -298.24138    -86416.88     78.45065 
   74100    1901.8582   -106.90374    1.7208412    -105.1829   -17731.834     4.269068     4.269068     4.269068   -17731.834   -778.84932   -63276.797    10860.146      2564.16     7815.971   -23074.306    77.803514 
   74200    2194.5572   -107.15614    1.9856815   -105.17046   -16472.521    4.2601525    4.2601525    4.2601525   -16472.521    33312.753   -78583.965   -4146.3496    972.05191   -2817.8568   -55891.348    77.317081 
   74300    1982.2168   -106.97444    1.7935515   -105.18089   -16348.491    4.2598958    4.2598958    4.2598958   -16348.491    80651.374   -71649.265   -58047.581   -5104.1102    1497.6375   -89280.705    77.303105 
   74400     2000.092   -106.98629    1.8097253   -105.17656     15924.09    4.2621454    4.2621454    4.2621454     15924.09    1313.5287   -9075.8666    55534.609    448.79683    5993.7782    7371.4913    77.425637 
   74500    1693.8753   -106.71015     1.532654    -105.1775   -11557.307      4.27937      4.27937      4.27937   -11557.307    32188.975   -55992.303   -10868.592    6259.1743    2616.2019   -96060.197    78.368137 
   74600    2126.6476   -107.07951    1.9242354   -105.15527    6977.4242    4.2746948    4.2746948    4.2746948    6977.4242    63616.853    5162.2315   -47846.812   -10760.676     11596.22    96452.665    78.111566 
   74700    2187.0228   -107.12518    1.9788642   -105.14631    19774.584    4.2642374    4.2642374    4.2642374    19774.584    51948.954   -14318.327    21693.126   -2402.0028   -20412.776   -65683.497      77.5397 
   74800    1856.7452   -106.83372    1.6800221   -105.15369    5731.4758    4.2719406    4.2719406    4.2719406    5731.4758    49200.934   -13609.838   -18396.669    469.47973     24430.29    78104.211    77.960681 
   74900    2151.3714   -107.09474    1.9466061   -105.14813    4526.1199     4.280776     4.280776     4.280776    4526.1199    9294.7842    10822.962   -6539.3867    7928.6746    14977.084     17593.42    78.445405 
   75000    1665.3317   -106.65805    1.5068271   -105.15122   -698.15454    4.2839947    4.2839947    4.2839947   -698.15454    36961.186   -56998.785    17943.136    10046.134   -23268.404    71910.878    78.622488 
   75100    1833.3025   -106.82744    1.6588106   -105.16863   -9753.9931    4.2762858    4.2762858    4.2762858   -9753.9931    45606.013   -54722.378   -20145.614   -6593.0701    24135.161    55510.731    78.198812 
   75200    2102.0525    -107.0542    1.9019813   -105.15222    38163.226    4.2555356    4.2555356    4.2555356    38163.226    64691.766    28910.311    20887.602   -5361.9527   -4009.6173    32620.905    77.065978 
   75300    1678.8756   -106.67794     1.519082   -105.15886    23396.125    4.2633078    4.2633078    4.2633078    23396.125     69992.18    25015.405   -24819.211   -16562.463   -10936.528    94928.717    77.489002 
   75400    2094.4229   -107.04145    1.8950779   -105.14637    13472.929     4.275641     4.275641     4.275641    13472.929    4765.2365    16608.407    19045.142    1034.0382    11817.222   -42510.813    78.163447 
   75500    1411.0061   -106.45222    1.2767079   -105.17551   -4484.7899    4.2800956    4.2800956    4.2800956   -4484.7899    66358.301   -3537.3562   -76275.315   -9775.0524   -4318.7886     122500.4    78.408007 
   75600    2855.2298   -107.72081    2.5834719   -105.13734   -8801.5519    4.2868373    4.2868373    4.2868373   -8801.5519   -15883.773   -5799.1326   -4721.7499    -10825.91   -7830.7506   -31644.026      78.7791 
   75700    1085.6617   -106.12504   0.98232949   -105.14271   -23376.419    4.2803026    4.2803026    4.2803026   -23376.419    99139.994   -67554.347    -101714.9    319.69071   -5580.0559    76853.431    78.419385 
   75800    2990.1739   -107.80439    2.7055722   -105.09882    18482.835    4.2763799    4.2763799    4.2763799    18482.835    24327.618    30136.461    984.42741    12547.259     8267.119   -7223.0019    78.203977 
   75900    1269.3595   -106.28712    1.1485432   -105.13857   -48334.004    4.2912574    4.2912574    4.2912574   -48334.004    60718.902   -119587.49    -86133.42   -5960.7393   -10004.544    62752.225    79.023032 
   76000    2734.3316   -107.58986    2.4740807   -105.11578   -12546.694    4.2752459    4.2752459    4.2752459   -12546.694    33866.935    -20984.86   -50522.156    3775.4137   -7158.8987     26155.27    78.141782 
   76100    1464.6607    -106.4574    1.3252558   -105.13215    8224.6169    4.2466812    4.2466812    4.2466812    8224.6169    3576.4061   -52639.276    73736.721    27876.775    2660.6638    5376.2966     76.58593 
   76200     2629.787   -107.53055    2.3794866   -105.15106    8835.0515    4.2599474    4.2599474    4.2599474    8835.0515    105419.83   -30434.063    -48480.61    -17978.15    4534.0333    37858.464    77.305911 
   76300    1726.7785   -106.73183    1.5624255    -105.1694   -34.320841    4.2721993    4.2721993    4.2721993   -34.320841   -23968.188   -33780.807    57646.033    57057.131   -2174.0022   -983.85072    77.974846 
   76400    2089.5159   -107.06057    1.8906379   -105.16993    22961.048    4.2784402    4.2784402    4.2784402    22961.048    78898.444    -45925.57    35910.268   -17884.882    2619.7914   -10096.618    78.317065 
   76500    1803.4139   -106.78662    1.6317668   -105.15486   -33052.643    4.2870514    4.2870514    4.2870514   -33052.643   -70985.261   -61781.484    33608.815    86825.918    25280.727   -1097.9754    78.790902 
   76600    2002.5301   -106.94986    1.8119314   -105.13793    28392.227    4.2649179    4.2649179    4.2649179    28392.227   -22061.952    13440.041    93798.591    40118.269    -12345.26   -14217.078    77.576829 
   76700     2227.011   -107.15769    2.0150464   -105.14264    4615.0524    4.2655174    4.2655174    4.2655174    4615.0524   -45902.427    12306.218    47441.366    29126.395    21004.014   -14097.208    77.609548 
   76800    1275.1105    -106.3194    1.1537468   -105.16566   -35443.849    4.2777336    4.2777336    4.2777336   -35443.849   -110317.07   -24979.097    28964.615    90532.091    17877.486    8243.9248    78.278267 
   76900    2474.2235   -107.36052    2.2387294   -105.12179    14418.556    4.2840799    4.2840799    4.2840799    14418.556    8071.7042    43028.928   -7844.9651    -2264.572   -30668.525   -2502.1557    78.627176 
   77000     1332.336   -106.33084    1.2055256   -105.12532    -19832.19    4.2980063    4.2980063    4.2980063    -19832.19   -17359.812   -84040.384    41903.627    89063.055    38785.803   -4608.5257    79.396458 
   77100     2827.968   -107.63821    2.5588049   -105.07941    15642.848    4.2911271    4.2911271    4.2911271    15642.848     83840.21   -11270.289   -25641.378   -4758.3971    7727.3609   -12342.059    79.015833 
   77200    1037.5882   -106.05492   0.93883157   -105.11609   -2872.3077    4.2857779    4.2857779    4.2857779   -2872.3077   -27192.707   -41359.706    59935.491    106672.82     2394.501   -26504.519    78.720709 
   77300     3283.041   -108.07921    2.9705645   -105.10865    8899.7585    4.2734759    4.2734759    4.2734759    8899.7585    14543.154    48371.426   -36215.304   -38138.574    7479.0416    14442.194    78.044767 
   77400    891.08763   -105.97194   0.80627482   -105.16567    23348.207    4.2537389    4.2537389    4.2537389    23348.207   -34307.696    48223.964    56128.352    134913.68    5607.0962    -19224.82    76.968404 
   77500    2931.6841   -107.81314    2.6526493   -105.16049    31768.516    4.2664982    4.2664982    4.2664982    31768.516    80251.121    15274.484   -220.05671    -34363.39    -3446.162   -28706.922    77.663095 
   77600    1094.6764   -106.17935   0.99048624   -105.18886   -8840.8416    4.2898854    4.2898854    4.2898854   -8840.8416   -48960.182   -77747.733    100185.39    120036.78    23121.099    12525.298    78.947262 
   77700    3135.9423   -107.93254    2.8374665   -105.09507    15986.147    4.3012836    4.3012836    4.3012836    15986.147    35552.868    3408.9153    8996.6584   -32817.324    18412.711   -27167.266    79.578224 
   77800    994.33942   -105.99558   0.89969921   -105.09588    6309.8334    4.3006228    4.3006228    4.3006228    6309.8334   -26086.004   -28425.025    73440.529    135036.64   -3437.6082      4630.89    79.541551 
   77900    3333.7456   -108.05895     3.016443   -105.04251    1023.1476    4.2935151    4.2935151    4.2935151    1023.1476     20957.18   -3532.9731   -14354.764   -37428.923   -6930.1206     22425.66    79.147826 
   78000    827.44539   -105.83498   0.74868997   -105.08629   -58218.042    4.2835659    4.2835659    4.2835659   -58218.042   -105152.73   -150000.13    80498.735    161562.95   -3175.8373   -11567.843    78.598881 
   78100    3345.0333   -108.08537    3.0266564   -105.05872    24677.021    4.2749958    4.2749958    4.2749958    24677.021    19217.831    9925.9994    44887.234   -25764.325   -21647.237    4218.3434    78.128067 
   78200    1137.5117   -106.14021    1.0292445   -105.11097   -35151.688    4.2922979    4.2922979    4.2922979   -35151.688    -77470.33   -124733.64    96748.911     132422.6    2105.1141   -1609.4325    79.080527 
   78300    2582.7827   -107.40446     2.336956   -105.06751    48853.201    4.2830255    4.2830255    4.2830255    48853.201    7105.8061     29808.41    109645.39   -4922.4134    4023.7554   -2955.8659    78.569139 
   78400     1290.531   -106.26637    1.1676996   -105.09867    53899.045    4.2878905    4.2878905    4.2878905    53899.045    59353.049    -25677.95    128022.04    78582.567    25529.046   -1237.7349    78.837175 
   78500    2304.3652   -107.15047     2.085038   -105.06543   -36503.078    4.3014855    4.3014855    4.3014855   -36503.078   -27775.209   -75042.403    -6691.621    47069.251   -1557.4261    17895.766    79.589431 
   78600    1691.7199   -106.62075    1.5307038   -105.09005    13815.993    4.2715774    4.2715774    4.2715774    13815.993     3926.152   -42092.199    79614.025    94828.195    12627.411     300.3884    77.940797 
   78700    2256.5466   -107.13357    2.0417708    -105.0918    1922.2201    4.2647129    4.2647129    4.2647129    1922.2201    -36496.14    29152.849    13109.951    34614.627     12642.29   -1729.8684    77.565642 
   78800    1057.4204   -106.11399   0.95677617   -105.15722   -22260.789     4.256502     4.256502     4.256502   -22260.789   -80956.037   -24423.818    38597.487    130554.78   -7425.2399    4973.1035    77.118493 
   78900    2939.5578   -107.80707    2.6597737    -105.1473     22094.12    4.2576687    4.2576687    4.2576687     22094.12    37978.782    45354.468   -17050.891   -14901.995   -8218.4559   -1056.4862    77.181925 
   79000    581.85909   -105.72672   0.52647833   -105.20024   -47824.122    4.2830003    4.2830003    4.2830003   -47824.122   -65385.681   -124233.71    46147.027    147029.21    6144.7543   -6891.3944     78.56775 
   79100    3426.6462   -108.22057    3.1005015   -105.12007    12317.903    4.2872894    4.2872894    4.2872894    12317.903     16802.67    53386.234   -33235.195    -39574.45    -15191.84    1603.8741    78.804024 
   79200    1009.6706   -106.06143   0.91357122   -105.14786    -68410.18    4.3021891    4.3021891    4.3021891    -68410.18   -153521.55   -82538.318    30829.326    131284.29   -1380.4798    14598.631    79.628489 
   79300    3531.8004   -108.27672    3.1956472   -105.08108    4667.5254    4.2846503    4.2846503    4.2846503    4667.5254   -4368.5579    14593.107    3778.0268   -42590.882    12455.092    6425.5543    78.658589 
   79400    958.95346   -105.94964   0.86768124   -105.08195     36685.96    4.2636272    4.2636272    4.2636272     36685.96   -31417.107    47412.766    94062.221    131286.89   -15833.929    -347.5415    77.506417 
   79500    2696.0489   -107.50734    2.4394417    -105.0679    11065.636    4.2848504    4.2848504    4.2848504    11065.636    28896.037    5658.9259   -1358.0556   -19605.664    9915.3921    3288.8095     78.66961 
   79600     1147.524    -106.1448    1.0383039   -105.10649   -29111.345    4.2924525    4.2924525    4.2924525   -29111.345   -81494.267   -111651.18    105811.41    133803.11    19385.087    3199.4928    79.089077 
   79700    2539.6549   -107.35633    2.2979331    -105.0584   -14385.532    4.2972214    4.2972214    4.2972214   -14385.532   -12703.405   -24742.687   -5710.5056    26690.232   -17848.893   -1885.6172    79.352968 
   79800    1852.4819   -106.75311    1.6761646   -105.07694   -32805.582    4.3021153    4.3021153    4.3021153   -32805.582   -87596.346    -49611.76    38791.359    70825.333   -6370.1549    9242.5259    79.624396 
   79900     1820.696   -106.70415     1.647404   -105.05675   -35412.181    4.2964354    4.2964354    4.2964354   -35412.181   -95025.532   -52982.262    41771.251    92244.421   -382.27287    10705.417    79.309438 
   80000    2469.2583   -107.28842    2.2342368   -105.05418    -23120.02     4.284457     4.284457     4.284457    -23120.02   -58646.817   -17719.478    7006.2347    43522.419   -14215.725   -4554.5054     78.64794 
   80100    1151.4275    -106.1406    1.0418358   -105.09877     7960.849    4.2731372    4.2731372    4.2731372     7960.849   -66729.394    456.38125     90155.56    77791.349   -4548.8423    4603.6307    78.026212 
   80200    2500.7646   -107.36752    2.2627444   -105.10478    10832.469    4.2845683    4.2845683    4.2845683    10832.469   -15716.536   -9838.7709    58052.713    20958.985    17249.619   -6684.3078    78.654074 
   80300    1030.0278   -106.07054   0.93199077   -105.13855    58785.333    4.2945431    4.2945431    4.2945431    58785.333   -24890.523    32595.395    168651.13    75310.402     1714.284   -10330.778    79.204687 
   80400    2529.2335   -107.37216    2.2885036   -105.08366    6415.0538    4.3214854    4.3214854    4.3214854    6415.0538   -5416.1557   -1529.7033     26191.02   -33594.255    899.27492     14514.69    80.704759 
   80500    1293.4602   -106.25747      1.17035   -105.08712   -79550.607    4.3102639    4.3102639    4.3102639   -79550.607   -148814.91   -128481.37     38644.45    155363.65    5823.7354    6563.7952    80.077699 
   80600    2999.1842   -107.75136    2.7137249   -105.03764    28544.624    4.2498598    4.2498598    4.2498598    28544.624      14957.3    55029.622    15646.951   -34291.042   -39684.212    6713.6804    76.758028 
   80700     865.8559   -105.86666   0.78344461   -105.08321   -20316.655    4.2398231    4.2398231    4.2398231   -20316.655   -126145.37   -96015.363    161210.77    181459.31   -11563.127    9851.9926    76.215481 
   80800    3266.8994   -108.02368    2.9559592   -105.06772    41142.755    4.2674001    4.2674001    4.2674001    41142.755    71690.508    23978.373    27759.385   -29544.123    21673.489   -2204.4136    77.712359 
   80900    865.43286   -105.91856   0.78306184   -105.13549    -2368.205    4.3018956    4.3018956    4.3018956    -2368.205   -10293.867   -11248.268     14437.52    136642.96   -15393.018    2680.2797    79.612194 
   81000    3156.5386   -107.92157    2.8561025   -105.06547   -14629.107    4.3202515    4.3202515    4.3202515   -14629.107   -22539.803    33552.003   -54899.521    -38249.07   -10367.738    -3805.172    80.635648 
   81100    974.66972    -105.9543   0.88190165    -105.0724   -22083.361    4.2976307    4.2976307    4.2976307   -22083.361   -73746.908   -107682.27     115179.1    146172.87    11461.743    5880.2575    79.375649 
   81200     2926.401   -107.66038    2.6478691   -105.01251    15863.834    4.2654061    4.2654061    4.2654061    15863.834    23383.815    44445.787     -20238.1   -37323.243   -11783.505   -8603.5732    77.603471 
   81300    1457.5745   -106.39413     1.318844   -105.07529    -18403.97    4.2585865    4.2585865    4.2585865    -18403.97   -54560.454   -80131.985    79480.529    144072.58    -19857.36   -3187.1816    77.231849 
   81400    3045.6943   -107.85124    2.7558082   -105.09543    6768.9939    4.2657786    4.2657786    4.2657786    6768.9939   -16298.284    29130.889    7474.3768   -20140.429    22663.126   -8941.9787    77.623807 
   81500    1065.0953   -106.12534   0.96372063   -105.16161   -21214.138    4.2824631    4.2824631    4.2824631   -21214.138    -81860.34   -30469.636    48687.561    92482.817   -19771.161   -9741.3446    78.538191 
   81600    2816.9475   -107.66168    2.5488333   -105.11285   -15265.926    4.2971788    4.2971788    4.2971788   -15265.926   -45222.366     -9269.69     8694.278   -16887.099     86.25307   -11978.555    79.350611 
   81700    1347.6226   -106.35683    1.2193573   -105.13748   -23549.907    4.2861588    4.2861588    4.2861588   -23549.907   -54253.568   -21191.436    4795.2821    24026.636    22565.813   -6838.1592    78.741695 
   81800    3166.1715   -107.98496    2.8648185   -105.12014    28392.655    4.2549908    4.2549908    4.2549908    28392.655    16233.009    31880.893    37064.062    28593.991   -11708.871   -3110.9255     77.03638 
   81900    469.28622    -105.6123   0.42462004   -105.18768    19584.267    4.2333486    4.2333486    4.2333486    19584.267   -27491.181    50337.509    35906.473   -72161.887     21722.44   -22543.664    75.866859 
   82000    3095.2185    -107.9916    2.8006188   -105.19098    33053.949    4.2572828    4.2572828    4.2572828    33053.949    32499.054    50419.407    16243.387    18783.379    1696.1852   -10897.463    77.160936 
   82100    1019.2214   -106.11991   0.92221297    -105.1977   -27009.892    4.2980946    4.2980946    4.2980946   -27009.892   -73768.132   -33778.264     26516.72   -8955.6119   -3168.4215   -102.99569    79.401354 
   82200    2680.4409   -107.52843    2.4253192   -105.10311   -19957.007    4.3113774    4.3113774    4.3113774   -19957.007   -13647.591   -25703.302   -20520.128   -16923.625    9803.9509   -15469.725    80.139778 
   82300    1077.9481   -106.08622   0.97535005   -105.11087   -800.99608    4.2838838    4.2838838    4.2838838   -800.99608   -19899.992   -32923.176    50420.179    47174.416   -9838.3953    17322.474    78.616383 
   82400    2808.6283   -107.61189    2.5413059   -105.07059    34879.366    4.2564612    4.2564612    4.2564612    34879.366    36613.774   -691.37722    68715.702   -48898.228     1355.037    17029.589    77.116272 
   82500     1250.168   -106.25544    1.1311783   -105.12426   -5268.7917    4.2500816    4.2500816    4.2500816   -5268.7917    5568.7098    -36186.39    14811.305    96392.854    12657.419   -18926.358    76.770049 
   82600    2781.4903   -107.65813    2.5167508   -105.14138    17447.791    4.2665285    4.2665285    4.2665285    17447.791    20519.942    996.26405    30827.168   -14464.853   -20323.681    22711.236    77.664752 
   82700    1338.5049   -106.36804    1.2111074   -105.15693   -42509.993    4.2986574    4.2986574    4.2986574   -42509.993   -17357.271   -78751.827   -31420.882    63158.348    21482.845   -20847.918    79.432548 
   82800    2292.2317    -107.1943    2.0740594   -105.12024    -30175.93    4.2967703    4.2967703    4.2967703    -30175.93   -4239.2049   -47725.982   -38562.604     20986.59   -13216.052    11877.809    79.327985 
   82900    1540.6368   -106.50939    1.3940006   -105.11538   -4995.0846    4.2829017    4.2829017    4.2829017   -4995.0846   -28471.047   -51495.096    64980.889    27289.294    7962.1669   -15855.818    78.562323 
   83000    1781.3874   -106.72252    1.6118368   -105.11068   -7447.3494    4.2754066    4.2754066    4.2754066   -7447.3494   -40421.224   -26540.634    44619.809    54704.513     23711.21   -11649.104    78.150592 
   83100    1996.9144   -106.91245    1.8068501    -105.1056    5467.2392    4.2727686    4.2727686    4.2727686    5467.2392   -2723.2339    14073.744    5051.2078    9106.4389    -20708.78    19251.164    78.006018 
   83200    1959.2144   -106.88717    1.7727384   -105.11443    12438.502     4.292472     4.292472     4.292472    12438.502   -20798.765     35409.63    22704.641    45766.744    19761.481   -18191.999    79.090153 
   83300    1541.6103   -106.49351    1.3948814   -105.09863   -36666.065    4.3074924    4.3074924    4.3074924   -36666.065   -8000.1724   -36010.593    -65987.43   -10331.956   -30908.947    20271.633     79.92333 
   83400    2255.9204   -107.11387    2.0412042   -105.07266     4908.504    4.2886051    4.2886051    4.2886051     4908.504    38584.176    -6536.395   -17322.269    33631.966   -3720.0355    12719.768    78.876601 
   83500    1583.3075   -106.51685    1.4326099   -105.08424   -11465.891      4.26612      4.26612      4.26612   -11465.891    -8726.545   -16284.045   -9387.0843   -18537.464    8085.9071   -20860.932    77.642446 
   83600    2153.6263   -107.05621    1.9486463   -105.10756    20281.468      4.25836      4.25836      4.25836    20281.468     53261.23    1813.1204    5770.0554     -13521.4   -10483.714    45746.496    77.219525 
   83700    1582.7617   -106.57505     1.432116   -105.14293    -4053.949      4.26888      4.26888      4.26888    -4053.949   -34661.975    29431.264   -6931.1357    17483.755    13597.653   -33088.761    77.793239 
   83800    2487.5339   -107.38373    2.2507729   -105.13295   -35705.535    4.2941718    4.2941718    4.2941718   -35705.535   -40741.124   -46245.322   -20130.159   -32515.452    1393.6351   -11983.381    79.184148 
   83900    1353.1027    -106.3412    1.2243157   -105.11688    20449.858    4.2922703    4.2922703    4.2922703    20449.858   -25192.717    79422.125    7120.1659    41829.973    16478.526    795.85028    79.079002 
   84000    2473.5452   -107.32131    2.2381157   -105.08319    20032.028    4.2906302    4.2906302    4.2906302    20032.028   -19626.536    34267.738    45454.882   -11024.408   -4958.7432   -8812.7966    78.988387 
   84100    1826.2034   -106.75685    1.6523872   -105.10446   -24810.622    4.2820062    4.2820062    4.2820062   -24810.622   -10979.649   -30150.268    -33301.95    20876.546    9343.1595   -5523.2427    78.513057 
   84200    2148.1238   -107.05663    1.9436676   -105.11296    23257.252    4.2672312    4.2672312    4.2672312    23257.252    5666.3223    55977.347    8128.0859    28346.257    1865.4582   -16820.829    77.703131 
   84300    1644.2095   -106.60948    1.4877153   -105.12176   -48686.131    4.2761674    4.2761674    4.2761674   -48686.131   -61442.092   -84693.712    77.409903   -74398.383    8900.4714    16049.756    78.192318 
   84400    2232.5003   -107.15475    2.0200132   -105.13473   -9441.6199    4.2707989    4.2707989    4.2707989   -9441.6199   -2384.7729    23975.358   -49915.444    33910.772    16840.217   -3530.8156    77.898192 
   84500    1774.0735   -106.75338     1.605219   -105.14816   -259.07865    4.2665258    4.2665258    4.2665258   -259.07865   -11877.156   -44026.111    55126.032    -84229.19    -3321.115    -6393.877    77.664601 
   84600    1835.6396   -106.81431    1.6609253   -105.15338   -3644.3189    4.2728948    4.2728948    4.2728948   -3644.3189   -24040.597   -3765.7801     16873.42   -9266.0132    9562.8936    2483.6844     78.01293 
   84700    2307.3347   -107.21954    2.0877249   -105.13181    12924.696     4.282235     4.282235     4.282235    12924.696    1663.3988   -13289.586    50400.274   -48091.138    9232.2539    13020.184     78.52564 
   84800    1351.1933   -106.36871    1.2225881   -105.14612    -16876.98    4.2856089    4.2856089    4.2856089    -16876.98    -38340.16   -37673.751    25382.969   -35947.105   -9785.6848     32024.91    78.711397 
   84900    2819.9939   -107.65661    2.5515897   -105.10502   -10035.766    4.2811812    4.2811812    4.2811812   -10035.766    28673.381   -71613.876    12833.197   -16566.523    11856.607    18861.399    78.467684 
   85000    1322.6557   -106.33638    1.1967667   -105.13962   -40977.387    4.2756646    4.2756646    4.2756646   -40977.387   -94225.023   -95341.797    66634.659   -74188.629    -24661.03   -18078.787    78.164739 
   85100    3059.0557   -107.86431    2.7678979   -105.09641   -842.43421    4.2749428    4.2749428    4.2749428   -842.43421    9929.3634   -15799.429    3342.7629    9033.0185   -18638.573   -5348.7918    78.125162 
   85200    1155.4283   -106.16852    1.0454558   -105.12307    96.553016    4.2818724    4.2818724    4.2818724    96.553016   -67516.556     -27673.5    95479.715   -104797.12     11718.34    12077.935    78.505695 
   85300    2455.6968   -107.30937    2.2219661    -105.0874   -3481.9418    4.2916209    4.2916209    4.2916209   -3481.9418   -43935.497   -3982.2724    37471.944    18364.937    2877.7782    8835.3662    79.043117 
   85400    1130.3449   -106.14333    1.0227598   -105.12057   -3362.6127    4.2924482    4.2924482    4.2924482   -3362.6127    -71801.28   -76496.384    138209.83   -106286.09   -527.51033   -1629.4433    79.088839 
   85500    2982.0972   -107.77477    2.6982642   -105.07651    2956.7347    4.2797084    4.2797084    4.2797084    2956.7347   -30038.705    20821.647    18087.261   -15832.266    2162.0088    733.54535     78.38673 
   85600    1442.0424   -106.42648    1.3047902   -105.12169    7782.6563    4.2688552    4.2688552    4.2688552    7782.6563   -21535.911    -73517.99    118401.87   -109856.02   -9888.4969   -4473.7113    77.791879 
   85700    2398.8871   -107.28549    2.1705635   -105.11493   -20795.541    4.2722921    4.2722921    4.2722921   -20795.541   -58120.199   -14899.045     10632.62   -11718.856   -23956.623   -19626.514    77.979925 
   85800    1870.0597   -106.82848    1.6920693   -105.13641   -4086.6989     4.268308     4.268308     4.268308   -4086.6989   -16584.117   -59154.569     63478.59   -113215.27   -7354.6368    5583.5058    77.761968 
   85900    2656.2556    -107.5363    2.4034359   -105.13287   -17508.307    4.2754254    4.2754254    4.2754254   -17508.307   -36674.396    -37881.67    22031.144   -6376.0245    2907.7697    301.88246    78.151622 
   86000    859.85758   -105.95043   0.77801721   -105.17241   -41110.238    4.2697753    4.2697753    4.2697753   -41110.238   -80651.861   -104808.86    62130.012    -127795.7    4629.3561    -14548.16     77.84219 
   86100    2897.8896   -107.74938    2.6220714   -105.12731    17093.761    4.2598222    4.2598222    4.2598222    17093.761    29708.877   -18346.358    39918.766   -4478.9113    -8374.516    293.26638    77.299095 
   86200    1133.9789   -106.18167    1.0260479   -105.15562   -56419.643    4.2792203    4.2792203    4.2792203   -56419.643   -113444.14   -113581.27    57766.473   -113418.28    2027.8517    6110.2321     78.35991 
   86300    2682.5937   -107.53261    2.4272672   -105.10535    17927.438    4.2740792    4.2740792    4.2740792    17927.438    419.82828    30789.669    22572.815    12881.212   -2707.7918   -12735.701    78.077822 
   86400    1136.0703   -106.17064    1.0279403    -105.1427    11615.468    4.2648138    4.2648138    4.2648138    11615.468   -25658.633   -49334.191    109839.23   -137739.95    4390.7681    8949.2629    77.571147 
   86500    3035.1451   -107.86216    2.7462631    -105.1159     10933.13    4.2695531    4.2695531    4.2695531     10933.13   -20299.933    18421.131    34678.191    25539.564     1825.225    11063.063    77.830039 
   86600    1257.6692   -106.29222    1.1379656   -105.15426   -24767.545     4.268917     4.268917     4.268917   -24767.545   -86224.434   -49857.718    61779.517   -132885.27    12057.044   -2637.9904    77.795258 
   86700    2837.9151   -107.69216    2.5678052   -105.12435   -4481.2738    4.2770628    4.2770628    4.2770628   -4481.2738    -11032.38   -145.92616   -2265.5154    35606.328   -4855.4733    14210.111    78.241449 
   86800    616.87657   -105.71803   0.55816288   -105.15986   -43618.739    4.2805903    4.2805903    4.2805903   -43618.739   -110183.58   -118298.53    97625.891   -157814.48   -2838.6333    6453.5132    78.435198 
   86900    3210.3321   -108.00774    2.9047759   -105.10296    44644.392    4.2624661    4.2624661    4.2624661    44644.392    57437.344    11695.503    64800.328    37238.128    5935.4178     1475.423    77.443117 
   87000    1238.7951   -106.28298    1.1208878   -105.16209   -34526.311    4.2723148    4.2723148    4.2723148   -34526.311   -70299.561   -107350.35    74070.977   -144118.63   -1379.4417    11935.619    77.981167 
   87100    2885.7198   -107.72979    2.6110599   -105.11873   -10162.077    4.2785437    4.2785437    4.2785437   -10162.077    4840.8721    4530.1557    -39857.26    41954.648   -2749.4971    34059.622     78.32275 
   87200    1173.4946   -106.20461    1.0618026   -105.14281    23737.959    4.2669103    4.2669103    4.2669103    23737.959   -32458.756    5541.8417    98130.792   -137842.06    -8594.026     7196.372    77.685605 
   87300    2864.4337   -107.71221    2.5917998   -105.12041    24084.949    4.2758039    4.2758039    4.2758039    24084.949    24153.738    3340.2332    44760.876     59908.65    9097.0994   -198.18166     78.17238 
   87400    981.09385    -106.0384   0.88771434   -105.15068   -44685.665    4.2822912    4.2822912    4.2822912   -44685.665   -114534.43   -79515.539    59992.975   -128022.89   -14538.414    13835.844    78.528734 
   87500    3294.1954   -108.08154    2.9806572   -105.10088    5425.5184    4.2713003    4.2713003    4.2713003    5425.5184   -17270.524    34919.569   -1372.4895     37310.95    3824.3141    -311.3984    77.925629 
   87600    538.01436   -105.64439    0.4868067   -105.15758   -34465.179    4.2753136    4.2753136    4.2753136   -34465.179   -115845.13   -51578.951    64028.544   -86009.484    11618.257   -18720.694     78.14549 
   87700    3181.7384   -107.99687    2.8789037   -105.11797    9202.4244    4.2774895    4.2774895    4.2774895    9202.4244    -26517.05    11489.819    42634.505   -329.80829   -4555.4305    18381.836    78.264865 
   87800     1080.824   -106.13168   0.97795227   -105.15372   -16842.027    4.2784691    4.2784691    4.2784691   -16842.027   -31048.852   -38659.662    19182.433   -43988.517   -10767.446   -33330.233    78.318649 
   87900    2685.3644   -107.56617    2.4297742   -105.13639    22984.695    4.2791197    4.2791197    4.2791197    22984.695   -16745.252    12089.381    73609.955   -23221.116    15843.018    13768.405    78.354382 
   88000    1744.8151   -106.74194    1.5787453   -105.16319   -17343.107    4.2763573    4.2763573    4.2763573   -17343.107   -33011.371   -7371.8214    -11646.13   -10608.527   -27781.723    363.87236    78.202735 
   88100    2234.8991   -107.18349    2.0221837    -105.1613    7568.5968    4.2708579    4.2708579    4.2708579    7568.5968   -2072.5504   -13085.359      37863.7   -68718.661    7487.1358    2331.2982     77.90142 
   88200    1806.1029   -106.80035    1.6341998   -105.16615   -12480.696    4.2717317    4.2717317    4.2717317   -12480.696   -10778.186    25768.945   -52432.847    27285.246    8801.1783   -7624.5946    77.949245 
   88300    2190.4864   -107.13829    1.9819982   -105.15629     18508.96    4.2846417    4.2846417    4.2846417     18508.96    36762.221    11725.148    7039.5118    -20187.53   -14311.436    12245.238    78.658112 
   88400     1774.889   -106.74969    1.6059569   -105.14373   -19543.133    4.2931795    4.2931795    4.2931795   -19543.133    5251.4874    4611.2184   -68492.104    11798.751    29983.669    6421.0007    79.129269 
   88500    1760.0189   -106.72953    1.5925021   -105.13703    13815.118     4.283713     4.283713     4.283713    13815.118    27950.004    39611.762   -26116.411    9353.3959   -10223.487    12968.451    78.606975 
   88600    2061.1061   -106.98798    1.8649321   -105.12305   -7305.3515    4.2825294    4.2825294    4.2825294   -7305.3515   -24399.855   -4767.5444     7251.345   -25135.901    29470.483   -6848.5852    78.541837 
   88700    1769.6278   -106.73914    1.6011964   -105.13794   -22995.349    4.2758161    4.2758161    4.2758161   -22995.349   -2035.0258    8476.2043   -75427.225    16005.477    31659.626    738.65798     78.17305 
   88800    2160.4722   -107.08888    1.9548407   -105.13404    25451.242    4.2678665    4.2678665    4.2678665    25451.242   -8350.3571    29369.137    55334.946   -42697.047   -12000.403    11286.515    77.737844 
   88900    1314.9128   -106.35434    1.1897607   -105.16457   -34514.705    4.2765227    4.2765227    4.2765227   -34514.705   -63138.949   -17617.678   -22787.487   -31738.229    57891.033    20230.612    78.211813 
   89000    2801.3931   -107.67475    2.5347593   -105.13999    27526.751    4.2748077    4.2748077    4.2748077    27526.751    8072.3151    73856.033     651.9047    7994.1707   -9589.9366    -14222.54    78.117752 
   89100    787.16116   -105.89267   0.71223996   -105.18043   -10246.645    4.2847386    4.2847386    4.2847386   -10246.645   -24616.762   -42186.814    36063.642   -53319.143   -70.103058    16726.338     78.66345 
   89200    3545.5547   -108.31338    3.2080924   -105.10529     506.4181    4.2945002    4.2945002    4.2945002     506.4181   -27362.518    45266.476   -16384.703    28169.845    -15073.58    -7534.034    79.202318 
   89300    608.65629   -105.68341     0.550725   -105.13268   -3787.9218    4.2940134    4.2940134    4.2940134   -3787.9218   -26331.814   -63275.589    78243.637   -48039.239   -1313.3868    4309.9405    79.175385 
   89400    3171.6029   -107.94389    2.8697329   -105.07415    24792.697    4.2873373    4.2873373    4.2873373    24792.697    29113.434    34607.671    10656.986    23963.586   -8405.7355   -17234.114    78.806669 
   89500    920.86196   -105.96629   0.83321525   -105.13308   -18656.722    4.2695533    4.2695533    4.2695533   -18656.722   -45198.517   -28695.738    17924.091   -19640.334    3600.6982   -3513.4952    77.830051 
   89600    3140.6616   -107.94744    2.8417366    -105.1057    36260.163    4.2566364    4.2566364    4.2566364    36260.163    35090.421    40506.646    33183.423   -30177.872   -3819.0167   -2979.3968    77.125794 
   89700    722.86167   -105.83666   0.65406043    -105.1826   -15831.675    4.2652661    4.2652661    4.2652661   -15831.675   -36044.959    9100.4759   -20550.543    65480.121    14263.762    -18025.32    77.595832 
   89800    3248.3923   -108.09599    2.9392136   -105.15678    5007.9008    4.2808253    4.2808253    4.2808253    5007.9008    36000.353    -12100.34   -8876.3105   -11440.311   -285.00581   -18936.544    78.448115 
   89900     1691.054   -106.71191    1.5301012   -105.18181   -1733.6025    4.2780296    4.2780296    4.2780296   -1733.6025   -50183.917    29486.664    15496.446    17544.585    10782.447   -5398.4037    78.294518 
   90000    2053.5121   -107.01874    1.8580609   -105.16068    22269.079    4.2805371    4.2805371    4.2805371    22269.079   -12428.792    71799.899    7436.1314    32949.137    19598.142   -5886.9864    78.432272 
   90100    1793.3044   -106.76864    1.6226196   -105.14602   -36168.117    4.2838355    4.2838355    4.2838355   -36168.117   -78911.164   -52153.833    22560.644   -56492.664   -22177.182    2215.4094    78.613722 
   90200     1885.477   -106.83686    1.7060192   -105.13084    16592.976    4.2712693    4.2712693    4.2712693    16592.976   -20598.666    33488.571    36889.023    56352.987    9789.4597    4633.4368    77.923931 
   90300    1869.2596   -106.82735    1.6913453     -105.136    11345.323    4.2753963    4.2753963    4.2753963    11345.323   -42808.565   -35570.321    112414.85   -85629.901    -7692.794    3100.7657    78.150026 
   90400    1988.0689    -106.9322    1.7988466   -105.13335   -9119.8528    4.2920604    4.2920604    4.2920604   -9119.8528   -41292.473   -40557.694    54490.608    26778.024   -24912.052   -2376.8699    79.067403 
   90500    1772.8544   -106.71903     1.604116   -105.11491   -11378.369    4.3063758    4.3063758    4.3063758   -11378.369   -38565.506   -48588.815    53019.214   -86719.593    12273.243    208.52962    79.861193 
   90600    2771.3301   -107.58413    2.5075577   -105.07658   -21592.118    4.3095639    4.3095639    4.3095639   -21592.118    -23566.68   -31914.999   -9294.6748    18255.503   -27222.412   -6971.3986    80.038689 
   90700    874.00969   -105.89262   0.79082234    -105.1018   -16832.003    4.2826506    4.2826506    4.2826506   -16832.003   -37306.966   -49366.369    36177.327   -115365.99   -28905.359    6239.0814    78.548504 
   90800    2949.8692   -107.76222    2.6691036   -105.09312    16717.337    4.2587499    4.2587499    4.2587499    16717.337    24286.092    3566.4138    22299.506    5942.9867    10989.711    15648.202    77.240737 
   90900    1581.7188     -106.585    1.4311724   -105.15383   -765.91496    4.2664069    4.2664069    4.2664069   -765.91496   -15548.009   -31222.812    44473.077   -88900.733    3352.6503   -4755.3761    77.658109 
   91000    2078.7005   -107.06298    1.8808519   -105.18213   -36666.777    4.2922047    4.2922047    4.2922047   -36666.777   -60770.375   -39461.315     -9768.64   -52111.305   -20695.114    1658.8847    79.075379 
   91100     1987.074   -106.94657    1.7979463   -105.14863   -17250.827    4.3013655    4.3013655    4.3013655   -17250.827   -12320.041   -87914.396    48481.955    -40962.59   -2561.6257   -22422.074    79.582769 
   91200    2019.3764   -106.94397    1.8271742    -105.1168   -14938.132    4.2936589    4.2936589    4.2936589   -14938.132   -36116.364   -33592.953    24894.921   -51797.115    7247.2183   -4062.8093     79.15578 
   91300    1905.7363   -106.84309    1.7243503   -105.11874   -14989.547    4.2804788    4.2804788    4.2804788   -14989.547   -34551.739   -36714.561     26297.66   -42826.682   -5431.7296   -509.43488    78.429067 
   91400    1419.3791   -106.42911     1.284284   -105.14482   -11359.195    4.2695625    4.2695625    4.2695625   -11359.195   -27911.638   -63665.424    57499.478   -85866.646    23818.686    -9110.736    77.830557 
   91500    2587.7264   -107.47898    2.3414293   -105.13755    12086.307    4.2763996    4.2763996    4.2763996    12086.307    8830.8861    17929.665      9498.37   -20642.252    5205.1669   -11301.177    78.205057 
   91600    1416.6934   -106.43839     1.281854   -105.15654   -38982.108    4.3033398    4.3033398    4.3033398   -38982.108   -69760.632    -92095.93    44910.239   -100931.77   -13447.847    6579.8384    79.692402 
   91700    2560.9245   -107.41357    2.3171783   -105.09639    11066.205     4.310021     4.310021     4.310021    11066.205    18906.501   -12515.003    26807.116   -3990.5556    2270.9733    2473.4888    80.064159 
   91800    1248.6764   -106.24061    1.1298287   -105.11078    940.49046    4.2966401    4.2966401    4.2966401    940.49046   -62560.597    38908.419     26473.65   -106613.31    2189.1844     -1219.92    79.320774 
   91900     2922.486    -107.7306    2.6443268   -105.08628    25560.914    4.2779958    4.2779958    4.2779958    25560.914    46323.738    30073.562    285.44125    8923.7744   -807.96631    13857.809    78.292664 
   92000    1127.1299   -106.16173    1.0198508   -105.14187   -6214.0374    4.2660431    4.2660431    4.2660431   -6214.0374   -92221.442   -16735.085    90314.415   -132212.11    16473.181    1808.8823    77.638244 
   92100    2982.5165   -107.80653    2.6986436   -105.10788    10838.744    4.2779183    4.2779183    4.2779183    10838.744    54257.776   -8949.7807   -12791.764    11772.022    6162.6757    15738.783    78.288409 
   92200    1266.0868   -106.28013    1.1455819   -105.13455   -27942.819    4.2953175    4.2953175    4.2953175   -27942.819   -32474.009   -98472.567    47118.118   -129089.78   -9221.6688    4646.4947    79.247545 
   92300    2702.9224    -107.5396     2.445661   -105.09394   -13042.359    4.3067232    4.3067232    4.3067232   -13042.359    7007.6015   -48548.529    2413.8497    7897.7223    23705.052    15945.254    79.880518 
   92400    1089.6797   -106.11129    0.9859651   -105.12533   -48836.041    4.2955719    4.2955719    4.2955719   -48836.041   -105302.44   -138170.67    96964.981   -148483.34    5024.6996    2302.9708    79.261627 
   92500    3015.9114   -107.81057      2.72886   -105.08171    53891.011    4.2589787    4.2589787    4.2589787    53891.011    68736.203    72392.168    20544.662    16208.385   -319.82398   -2807.4967    77.253188 
   92600    1036.5454   -106.08942   0.93788809   -105.15153    24618.424    4.2660845    4.2660845    4.2660845    24618.424    5802.2713   -30544.876    98597.876   -124523.41    -733.5146    2962.7598    77.640509 
   92700    2475.8639   -107.36034    2.2402137   -105.12013    12729.055    4.2987659    4.2987659    4.2987659    12729.055   -13144.845   -14083.676    65415.687    1548.5229    20982.554    18116.892    79.438567 
   92800    1560.1441   -106.53019    1.4116512   -105.11854   -33930.457    4.3093605    4.3093605    4.3093605   -33930.457   -75999.115    -78062.14    52269.885   -114166.64   -8196.2358   -453.62755    80.027358 
   92900    2608.6561   -107.44193    2.3603668   -105.08157   -42366.618    4.3071773    4.3071773    4.3071773   -42366.618   -81148.106   -51335.926    5384.1772   -31597.913   -4575.2695    107.98139    79.905791 
   93000     1417.411   -106.38972    1.2825032   -105.10722   -21410.907    4.2876574    4.2876574    4.2876574   -21410.907    -90518.52   -65350.694    91636.495   -103667.22    16531.755    5344.1233    78.824321 
   93100    1988.0474   -106.89013    1.7988271    -105.0913    31652.499    4.2678672    4.2678672    4.2678672    31652.499    34462.751   -59267.609    119762.36   -42824.876    3661.0308   -2340.0347    77.737883 
   93200    1914.8004   -106.85306    1.7325517   -105.12051   -15453.993    4.2821876    4.2821876    4.2821876   -15453.993   -10243.507   -97254.144    61135.672   -66825.755    14368.312    2385.1115    78.523034 
   93300    1832.8493    -106.7704    1.6584006     -105.112    12045.438    4.2941995    4.2941995    4.2941995    12045.438    -5313.805   -29351.936    70802.055   -65418.255    836.94582   -3809.2237    79.185679 
   93400    1804.2761   -106.74982    1.6325469   -105.11727     1208.613    4.3064247    4.3064247    4.3064247     1208.613   -62465.985   -5561.6012    71653.425   -44051.871   -891.38995    18821.342    79.863909 
   93500    1410.8574   -106.38204    1.2765734   -105.10546   -23126.291     4.299069     4.299069     4.299069   -23126.291   -96960.198   -42332.019    69913.344   -84303.087    3051.4758    4372.8312    79.455371 
   93600    3081.4435   -107.84815    2.7881549      -105.06    24797.127    4.2863664    4.2863664    4.2863664    24797.127   -47550.307    56566.429     65375.26    9383.3892   -7778.4859    -19480.33    78.753141 
   93700    1260.3709   -106.22846    1.1404101   -105.08805   -63685.092    4.2948151    4.2948151    4.2948151   -63685.092   -135808.84   -109678.03    54431.596   -157848.33   -3701.3168     10492.27    79.219739 
   93800    2987.7934   -107.76518    2.7034183   -105.06176    12956.546    4.2798582    4.2798582    4.2798582    12956.546    2491.3031     38532.29   -2153.9567     24857.41   -5789.0002   -1383.0389    78.394961 
   93900     1254.575   -106.26099    1.1351658   -105.12582    -59081.07    4.2899401    4.2899401    4.2899401    -59081.07   -86687.866   -137783.15     47227.81   -145343.95    6206.1746   -8658.7129    78.950284 
   94000    2604.5445   -107.46643    2.3566466   -105.10978   -5996.7178    4.2911117    4.2911117    4.2911117   -5996.7178    21088.415   -34041.436   -5037.1322   -15575.893    9872.7461    10842.546    79.014984 
   94100    818.72709   -105.85658   0.74080148   -105.11578    16990.446    4.2973569    4.2973569    4.2973569    16990.446   -18231.775   -1573.1345    70776.249   -100185.16   -24775.102   -2018.5355    79.360478 
   94200    2803.1645   -107.59431    2.5363621   -105.05794    14074.039    4.3103106    4.3103106    4.3103106    14074.039   -1593.3571   -8153.2286    51968.702    37317.843    1029.8116    -8217.683    80.080302 
   94300    1306.7186   -106.29118    1.1823464   -105.10884   -40271.198     4.289877     4.289877     4.289877   -40271.198   -100755.26   -94569.141    74510.802   -143145.31   -6819.9364    8587.5623      78.9468 
   94400     2780.797   -107.61719    2.5161236   -105.10107    -1340.329    4.2708595    4.2708595    4.2708595    -1340.329    23868.513    9227.2394    -37116.74    12769.864   -7809.5878   -3579.5145    77.901508 
   94500    1530.6756   -106.51716    1.3849875   -105.13218     10818.19    4.2674595    4.2674595    4.2674595     10818.19    33554.944   -61665.655     60565.28   -94089.988    276.82488   -10367.485    77.715603 
   94600    1967.0504   -106.91489    1.7798285   -105.13506    61416.822    4.2788129    4.2788129    4.2788129    61416.822    41396.771    1226.4888     141627.2   -1855.0744       -38875    7858.5554     78.33753 
   94700    1054.5134   -106.09471   0.95414593   -105.14057    44727.098    4.3000042    4.3000042    4.3000042    44727.098    1091.3507   -21710.313    154800.26   -79565.959   -23498.744    1757.0278    79.507236 
   94800    2798.5874   -107.62306    2.5322207   -105.09084   -3543.3796    4.3150712    4.3150712    4.3150712   -3543.3796    14968.271   -23537.238   -2061.1719   -569.76967   -7489.8803    3421.3084    80.345933 
   94900    1086.2434   -106.11472   0.98285589   -105.13187   -23889.326    4.2832472    4.2832472    4.2832472   -23889.326   -48713.169   -49986.461    27031.653   -62536.528   -30274.005    9622.3833     78.58134 
   95000    2600.8231   -107.44428    2.3532794     -105.091    53440.728    4.2467229    4.2467229    4.2467229    53440.728    26105.456    13443.631     120773.1   -25117.856   -4794.4183    12355.926    76.588182 
   95100    1552.9825    -106.5348    1.4051712   -105.12963   -10171.046    4.2688678    4.2688678    4.2688678   -10171.046   -25840.969   -58662.682    53990.513   -59207.368   -10326.236   -1281.4509    77.792567 
   95200    2071.1678   -107.02078    1.8740361   -105.14675   -49560.243    4.2961687    4.2961687    4.2961687   -49560.243    -76233.79   -76727.526    4280.5862   -49200.946   -20122.095     8161.826    79.294667 
   95300     2343.723   -107.24314    2.1206498   -105.12249   -42595.356    4.3132113    4.3132113    4.3132113   -42595.356    -8183.101   -75060.589   -44542.377   -27517.372   -14308.797   -23577.197    80.242086 
   95400    1145.1029   -106.17823    1.0361131   -105.14211   -63962.915    4.2994835    4.2994835    4.2994835   -63962.915    -91273.23   -107951.58    7336.0701   -60615.878     21679.59    7517.4926    79.478352 
   95500    3378.0403   -108.15929    3.0565219   -105.10276    41897.992    4.2526829    4.2526829    4.2526829    41897.992     79741.31    34361.714    11590.952    24184.369    8877.3952    7190.3052    76.911094 
   95600    670.80566   -105.78128   0.60695906   -105.17432    7929.5812    4.2483267    4.2483267    4.2483267    7929.5812     21019.23   -68253.897    71023.411   -120057.21     -19542.6   -13586.676    76.674991 
   95700    3403.2108   -108.24873    3.0792967   -105.16943     -2264.48    4.2828259    4.2828259    4.2828259     -2264.48    17087.589    253.78275   -24134.811    33079.571    34758.456    12048.044    78.558151 
   95800     1109.596   -106.17744    1.0039858   -105.17346   -74485.733    4.3181065    4.3181065    4.3181065   -74485.733   -114200.95   -117418.74    8162.4875   -112414.64   -22821.954   -5245.7489    80.515602 
   95900    2934.9915   -107.76427     2.655642   -105.10863   -14842.699    4.3066293    4.3066293    4.3066293   -14842.699   -11778.728   -31504.803   -1244.5643    24299.847     1660.804   -13008.982    79.875294 
   96000    1857.0705   -106.80618    1.6803165   -105.12586   -29115.597    4.2743172    4.2743172    4.2743172   -29115.597   -88176.005   -36873.165    37702.378   -112290.37   -764.15091     10741.77    78.090867 
   96100    1684.8918   -106.67344    1.5245255   -105.14891    35680.501    4.2525997    4.2525997    4.2525997    35680.501    11861.875    71239.831    23939.796   -29945.242   -33201.694   -8416.5222    76.906584 
   96200    1965.7826   -106.94617    1.7786814   -105.16749    48933.888     4.266012     4.266012     4.266012    48933.888   -2561.0331    69425.515    79937.182   -43808.549    21159.464   -3536.1782    77.636546 
   96300    1358.1592   -106.41733     1.228891   -105.18844   -25344.508    4.3012698    4.3012698    4.3012698   -25344.508   -105844.41   -3039.6127      32850.5   -82949.997   -19387.514   -16224.614    79.577454 
   96400    2587.9143   -107.46407    2.3415992   -105.12247   -16680.012    4.3077387    4.3077387    4.3077387   -16680.012   -2033.5086    9234.9043   -57241.432    1461.8855   -1133.8597   -3333.4941    79.937037 
   96500    1655.8854   -106.62205    1.4982799   -105.12377   -9199.3301    4.2892084    4.2892084    4.2892084   -9199.3301   -17555.197   -60337.247    50294.454   -97085.845    11143.579    13544.428     78.90989 
   96600    3099.8627    -107.9047    2.8048209   -105.09988    22668.198     4.270731     4.270731     4.270731    22668.198    59042.381    26951.887   -17989.675    23702.194    -21915.63   -8793.9667    77.894477 
   96700    756.29711   -105.85584   0.68431352   -105.17153    9070.2081     4.265749     4.265749     4.265749    9070.2081    47830.777   -73000.731    52380.578   -110614.83    1647.5172    2961.0724    77.622192 
   96800    2971.1183    -107.8619    2.6883303   -105.17357    15401.989     4.276023     4.276023     4.276023    15401.989    45737.018     19086.51   -18617.562    28006.643    13114.868    3442.2021    78.184397 
   96900    1374.2287   -106.45091     1.243431   -105.20748    31717.492    4.2721329    4.2721329    4.2721329    31717.492     85527.58   -36304.885    45929.783   -84134.598   -2606.3851   -7024.3869    77.971209 
   97000    2279.6707   -107.25751     2.062694   -105.19481   -18556.254    4.2816825    4.2816825    4.2816825   -18556.254   -6239.8775   -3222.9966   -46205.887   -24630.367   -10303.683   -14124.493    78.495251 
   97100    2263.7865   -107.22679    2.0483216   -105.17847    2547.6825     4.289375     4.289375     4.289375    2547.6825   -34563.549    31878.098    10328.498   -30577.077    10922.277    11178.992    78.919088 
   97200    1211.9907   -106.27212    1.0966346   -105.17548      658.506    4.2926196    4.2926196    4.2926196      658.506   -32037.585   -9762.7853    43775.888   -69143.366   -8308.3852   -4680.3164    79.098314 
   97300    2626.5862   -107.51206    2.3765904   -105.13547   -2608.6363      4.29836      4.29836      4.29836   -2608.6363   -22205.809   -8794.2755    23174.176    6865.7505   -8270.3994   -11814.373    79.416065 
   97400    1514.8386   -106.51341    1.3706578   -105.14275   -36684.215    4.2896543    4.2896543    4.2896543   -36684.215   -94273.327   -60891.538     45112.22   -125886.48    5130.4562    2036.2384    78.934503 
   97500    2767.9862   -107.62109    2.5045321   -105.11656    30406.531    4.2606766    4.2606766    4.2606766    30406.531     27223.42    68107.414    -4111.239    28757.854   -52325.822   -11873.957    77.345617 
   97600    936.27506   -106.02843   0.84716135   -105.18127   -9462.9217    4.2621013    4.2621013    4.2621013   -9462.9217   -44460.564   -85048.801     101120.6   -125673.79   -12097.625    4158.9038    77.423234 
   97700    3160.4523   -107.99329    2.8596437   -105.13364     17602.31    4.2909888    4.2909888    4.2909888     17602.31    36962.667    17351.744   -1507.4823    38843.791   -8760.9306     3859.647    79.008194 
   97800    673.45562    -105.7709   0.60935679   -105.16154   -12535.896     4.307214     4.307214     4.307214   -12535.896   -60086.793   -17722.376    40201.481   -117206.83   -30134.753   -2814.5327    79.907832 
   97900     3284.903   -108.05994    2.9722492   -105.08769   -4043.4152    4.3013214    4.3013214    4.3013214   -4043.4152    11280.071    17194.767   -40605.084     46423.54     7594.298    13246.132    79.580319 
   98000    886.52694   -105.93127    0.8021482   -105.12912   -41108.743    4.2808788    4.2808788    4.2808788   -41108.743   -91579.661   -91577.979    59831.411   -152870.04    195.92375    14054.706    78.451056 
   98100    3098.6505   -107.91364    2.8037241   -105.10992    42426.181    4.2593685    4.2593685    4.2593685    42426.181    64587.946     54377.49    8313.1073    38373.522   -29504.699    -480.3123    77.274399 
   98200    1134.9178    -106.1905    1.0268974    -105.1636    1827.4892    4.2676094    4.2676094    4.2676094    1827.4892   -33097.342   -86119.988     124699.8   -145590.92    25916.794    3827.5947    77.723795 
   98300    3165.4753    -107.9846    2.8641886   -105.12041    9473.5404    4.2831571    4.2831571    4.2831571    9473.5404    33904.307    -13867.72    8384.0341    28257.601   -979.84987    9849.4503    78.576378 
   98400    1246.1009   -106.28259    1.1274983   -105.15509   -17772.669    4.2969295    4.2969295    4.2969295   -17772.669   -37088.789   -57546.266    41317.049   -128399.87     -15580.2   -1869.5211    79.336802 
   98500    3353.6874   -108.14036    3.0344868   -105.10588    -16814.96      4.29916      4.29916      4.29916    -16814.96   -21716.188   -3245.6208   -25483.072      27438.2    5827.0491    1881.6744    79.460416 
   98600    1353.4607   -106.37695    1.2246397   -105.15231    11492.994    4.2532398    4.2532398    4.2532398    11492.994   -37719.025   -20431.109    92629.115   -134502.14     5206.171    3367.5901    76.941318 
   98700    2279.8089   -107.18344     2.062819   -105.12062    79845.951    4.2399107    4.2399107    4.2399107    79845.951    26919.089    119610.24    93008.529    15456.498   -39795.973   -2649.0012     76.22021 
   98800    1649.3314   -106.63495    1.4923497    -105.1426   -24484.649    4.2709722    4.2709722    4.2709722   -24484.649   -72189.159   -69038.588      67773.8   -109704.55   -886.19218   -41.220801    77.907675 
   98900    2739.7359   -107.59624    2.4789706   -105.11727   -494.57127     4.283965     4.283965     4.283965   -494.57127   -5483.2993    -25827.17    29826.755   -5374.8582   -1738.3028    4845.6313    78.620852 
   99000    1267.6315   -106.28385    1.1469796   -105.13687   -31545.285    4.3025633    4.3025633    4.3025633   -31545.285   -73082.423   -79376.492    57823.061   -82781.286   -23129.727    1813.4855    79.649271 
   99100    2616.0954   -107.45265    2.3670981   -105.08555   -27155.196    4.3108752    4.3108752    4.3108752   -27155.196   -29067.413    -91644.46    39246.285    -36718.74    9673.6723   -2633.3513    80.111775 
   99200    1366.3577   -106.36806    1.2363091   -105.13175   -12489.099    4.2720775    4.2720775    4.2720775   -12489.099   -42561.792   -142.26999     5236.765   -6482.5413   -36756.935    7169.8563    77.968174 
   99300    2032.5964   -106.95592    1.8391359   -105.11679    39271.419     4.231995     4.231995     4.231995    39271.419    4021.2429    42100.116    71692.897   -76044.141   -25561.893    1380.6314    75.794105 
   99400    2520.0041   -107.43695    2.2801527   -105.15679    9929.0055    4.2495455    4.2495455    4.2495455    9929.0055    19080.074    7096.8585    3610.0838    22261.094    55763.393   -10390.334    76.741001 
   99500    1493.1531   -106.53604    1.3510363   -105.18501   -10762.767    4.2784865    4.2784865    4.2784865   -10762.767   -34284.632   -2577.4453    4573.7748   -46921.949   -41304.827    1879.5464    78.319605 
   99600     2337.047   -107.26422    2.1146092   -105.14962    35972.986     4.288915     4.288915     4.288915    35972.986    26569.521    61304.242    20045.196    19849.302     30213.43    5621.9082    78.893701 
   99700    1247.1526   -106.28987    1.1284498   -105.16142    -15664.86    4.2994985    4.2994985    4.2994985    -15664.86   -64494.889    506.83524    16993.473   -33738.991    23937.013   -19321.344    79.479186 
   99800    3156.7931   -107.97561    2.8563328   -105.11928   -6188.5159    4.2842702    4.2842702    4.2842702   -6188.5159    -21476.75   -12101.634    15012.836   -3919.2855   -14011.179    14143.429    78.637654 
   99900    1070.9849   -106.12497   0.96904964   -105.15592   -22629.931     4.250964     4.250964     4.250964   -22629.931   -21630.692   -5080.0099    -41179.09    12451.878    78812.683    23561.375    76.817874 
  100000    3300.6553   -108.13393    2.9865023   -105.14743    50505.148    4.2484394    4.2484394    4.2484394    50505.148    11673.832    81148.438    58693.175   -20272.221   -17262.229   -20477.851    76.681089 
Loop time of 22.4502 on 1 procs for 100000 steps with 8 atoms

Pair  time (%) = 7.06822 (31.484)
Kspce time (%) = 5.30465 (23.6285)
Neigh time (%) = 0.287845 (1.28215)
Comm  time (%) = 1.14928 (5.11923)
Outpt time (%) = 0.0193295 (0.0860997)
Other time (%) = 8.62087 (38.4)

Nlocal:    8 ave 8 max 8 min
Histogram: 1 0 0 0 0 0 0 0 0 0
Nghost:    2189 ave 2189 max 2189 min
Histogram: 1 0 0 0 0 0 0 0 0 0
Neighs:    2372 ave 2372 max 2372 min
Histogram: 1 0 0 0 0 0 0 0 0 0

Total # of neighbors = 2372
Ave neighs/atom = 296.5
Neighbor list builds = 3271
Dangerous builds = 0
unfix 20
unfix 21
print "seeds:3679589"
seeds:3679589
