LAMMPS (10 Feb 2015)
# ---- initialize simulations
clear
units metal
dimension 3
boundary p p p
atom_style charge
atom_modify map array
# ---- create atoms
read_data /Users/eugeneragasa/pyflamestk_git/pypospack/tests/tests_integration/workflow/WorkflowLammpsThermalExpansion/param_785/MgO_NaCl_unit.npt.T400/lammps.structure
  triclinic box = (0 0 0) to (4.2565 4.2565 4.2565) with tilt (0 0 0)
  1 by 1 by 1 MPI processor grid
  reading atoms ...
  8 atoms
# ---- define interatomic potential
include potential.mod
mass 1 24.305
mass 2 15.999

group Mg type 1
4 atoms in group Mg
group O type 2
4 atoms in group O

set group Mg charge 1.62294375895
  4 settings made for charge
set group O charge -1.62294375895
  4 settings made for charge

variable R_cut equal 10.0

pair_style buck/coul/long ${R_cut}
pair_style buck/coul/long 10
pair_coeff 1 1 0.0 0.5 0.0 ${R_cut}
pair_coeff 1 1 0.0 0.5 0.0 10
pair_coeff 1 2 1315.47688947 0.28024601768 0.0 ${R_cut}
pair_coeff 1 2 1315.47688947 0.28024601768 0.0 10
pair_coeff 2 2 7992.27283476 0.124296175577 7.5002562575 ${R_cut}
pair_coeff 2 2 7992.27283476 0.124296175577 7.5002562575 10

kspace_style pppm 1.0e-5

neighbor 1.0 bin
neigh_modify every 1 delay 0 check yes
# ---- define settings
compute eng all pe/atom
compute eatoms all reduce sum c_eng
# ---- run minimization
reset_timestep 0
fix 1 all box/relax iso 0.0 vmax 0.001
thermo 10
thermo_style custom step pe lx ly lz xy xz yz press pxx pyy pzz pxy pxz pyz c_eatoms
min_style cg
minimize 1e-25 1e-25 5000 10000
PPPM initialization ...
  G vector (1/distance) = 0.352546
  grid = 8 8 8
  stencil order = 5
  estimated absolute RMS force accuracy = 3.83063e-05
  estimated relative force accuracy = 2.66022e-06
  using double precision FFTs
  3d grid and FFT values/proc = 3375 512
Neighbor list info ...
  1 neighbor list requests
  update every 1 steps, delay 0 steps, check yes
  master list distance cutoff = 11
Memory usage per processor = 4.06549 Mbytes
Step PotEng Lx Ly Lz Xy Xz Yz Press Pxx Pyy Pzz Pxy Pxz Pyz eatoms 
       0   -108.88461       4.2565       4.2565       4.2565            0            0            0   -30879.056   -30879.056   -30879.056   -30879.056 -2.5133272e-10 -7.2643252e-11 5.7873381e-11   -108.88461 
      10   -108.89911    4.2290577    4.2290577    4.2290577            0            0            0   0.26053131   0.26053131   0.26053131   0.26053131 3.8284322e-11 -1.3873734e-12 -2.9889769e-10   -108.89911 
      12   -108.89911    4.2290577    4.2290577    4.2290577            0            0            0   0.25210742   0.25210742   0.25210742   0.25210742 1.3658055e-10 -3.2077679e-12 -1.3269119e-10   -108.89911 
Loop time of 0.00817013 on 1 procs for 12 steps with 8 atoms

Minimization stats:
  Stopping criterion = linesearch alpha is zero
  Energy initial, next-to-last, final = 
        -108.884606122     -108.899110632     -108.899110632
  Force two-norm initial, final = 4.45895 5.1421e-05
  Force max component initial, final = 4.45895 3.59365e-05
  Final line search alpha, max atom move = 0.5 1.79683e-05
  Iterations, force evaluations = 12 23

Pair  time (%) = 0.00233555 (28.5864)
Kspce time (%) = 0.00137663 (16.8495)
Neigh time (%) = 0 (0)
Comm  time (%) = 0.000267506 (3.27419)
Outpt time (%) = 2.00272e-05 (0.245127)
Other time (%) = 0.00417042 (51.0447)

Nlocal:    8 ave 8 max 8 min
Histogram: 1 0 0 0 0 0 0 0 0 0
Nghost:    2189 ave 2189 max 2189 min
Histogram: 1 0 0 0 0 0 0 0 0 0
Neighs:    2344 ave 2344 max 2344 min
Histogram: 1 0 0 0 0 0 0 0 0 0

Total # of neighbors = 2344
Ave neighs/atom = 293
Neighbor list builds = 0
Dangerous builds = 0
unfix 1
# ---- define output variables ----
variable natoms equal "count(all)"
variable tot_energy equal "c_eatoms"
variable length_x equal "lx"
variable length_y equal "ly"
variable length_z equal "lz"
variable tilt_xy equal "xy"
variable tilt_xz equal "xz"
variable tilt_yz equal "yz"
variable tot_press equal "press"
variable press_xx equal "pxx"
variable press_yy equal "pyy"
variable press_zz equal "pzz"
variable press_xy equal "pxy"
variable press_xz equal "pxz"
variable press_yz equal "pyz"

# ---- output ----
print "pypospack:output_section:begin"
pypospack:output_section:begin
print "tot_energy = ${tot_energy}"
tot_energy = -108.899110631848
print "num_atoms = ${natoms}"
num_atoms = 8
print "xx = ${length_x}"
xx = 4.22905766787052
print "yy = ${length_y}"
yy = 4.22905766787052
print "zz = ${length_z}"
zz = 4.22905766787052
print "xy = ${tilt_xy}"
xy = 0
print "xz = ${tilt_xz}"
xz = 0
print "yz = ${tilt_yz}"
yz = 0
print "tot_press = ${tot_press}"
tot_press = 0.252107417895481
print "pxx = ${press_xx}"
pxx = 0.252107418292273
print "pyy = ${press_yy}"
pyy = 0.252107418323333
print "pzz = ${press_zz}"
pzz = 0.252107417070837
print "pxy = ${press_xy}"
pxy = 1.36580554666579e-10
print "pxz = ${press_xz}"
pxz = -3.20776791999541e-12
print "pyz = ${press_yz}"
pyz = -1.32691186845421e-10
print "pypospack:output_section:done"
pypospack:output_section:done
print "pypospack:lammps_sim:done"
pypospack:lammps_sim:done
#------------------------------------------------------------------------------
# RUN THERMOSTAT
# running using an NPT Nose-Hoover style thermostat
#------------------------------------------------------------------------------
variable tempdamp equal 0.1
variable pressdamp equal 1.0
# set initial velocities
velocity all create 400 5118150 mom yes dist gaussian loop all
# fix for Nose-Hoover style thermostat
fix 20 all npt temp 400 400 0.1 aniso 0.0 0.0 1.0 drag 1.0 couple xyz
variable boxx equal lx
variable boxy equal ly
variable boxz equal lz
variable boxp equal press
variable boxt equal temp
# calculate averages every 10000 steps
reset_timestep 0
fix 21 all ave/time 10 10 100 v_boxx v_boxy v_boxz v_boxp v_boxt file lattice.out
thermo_style custom step temp pe ke etotal press lx ly lz press pxx pyy pzz pxy pxz pyz vol
thermo_modify flush yes
thermo 100
run 100000
PPPM initialization ...
  G vector (1/distance) = 0.352817
  grid = 8 8 8
  stencil order = 5
  estimated absolute RMS force accuracy = 3.78369e-05
  estimated relative force accuracy = 2.62763e-06
  using double precision FFTs
  3d grid and FFT values/proc = 3375 512
Memory usage per processor = 3.06549 Mbytes
Step Temp PotEng KinEng TotEng Press Lx Ly Lz Press Pxx Pyy Pzz Pxy Pxz Pyz Volume 
       0          400   -108.89911   0.36192841   -108.53718    5111.6115    4.2290577    4.2290577    4.2290577    5111.6115    3505.5874    6159.7577    5669.4894    1486.5124     62.55299    934.64547    75.636395 
     100    103.43443   -108.57891  0.093589644   -108.48532   -6557.7737    4.2500507    4.2500507    4.2500507   -6557.7737   -17003.132    12790.294   -15460.483    2534.2724    5123.2449   -2768.4344    76.768373 
     200    364.34922   -108.71836   0.32967083   -108.38869    1239.1328    4.2350124    4.2350124    4.2350124    1239.1328     -2811.41    6906.6612   -377.85278   -3711.9859    4424.7775    1190.4959    75.956344 
     300    251.83473   -108.53258   0.22786536   -108.30471    2469.0447    4.2554847    4.2554847    4.2554847    2469.0447   -12512.213    21551.978   -1632.6316    174.53913   -4455.4328   -2488.8948    77.063209 
     400    355.41952   -108.56199   0.32159105   -108.24039     4414.333     4.239255     4.239255     4.239255     4414.333   -1755.8372    10363.087    4635.7496     91.87463    5252.8847   -3293.7329    76.184849 
     500    233.18172   -108.40971   0.21098772   -108.19872    -3856.388    4.2555759    4.2555759    4.2555759    -3856.388   -29947.726    28721.686   -10343.125   -1087.9173    6816.7589      2688.59    77.068165 
     600    538.14359   -108.65928   0.48692363   -108.17235   -937.30937    4.2508105    4.2508105    4.2508105   -937.30937   -8712.9186    222.70593    5678.2846    3878.7447   -3702.6397   -2259.2761    76.809552 
     700    321.27788   -108.45914   0.29069897   -108.16844    15636.303    4.2403435    4.2403435    4.2403435    15636.303    -7348.749    51777.549    2480.1074   -1277.7154    10079.055   -71.186886    76.243553 
     800    473.30592   -108.59884   0.42825714   -108.17058    -23175.23    4.2648866    4.2648866    4.2648866    -23175.23   -39144.528   -19153.302   -11227.859   -713.18939    9586.1902   -2373.1317    77.575122 
     900    425.38927   -108.55359   0.38490115   -108.16869    21051.464    4.2360171    4.2360171    4.2360171    21051.464    3590.8474    37102.209    22461.336   -7363.9153   -3788.0043    6795.5716    76.010415 
    1000    454.14144   -108.58334   0.41091672   -108.17242   -11767.061    4.2581832    4.2581832    4.2581832   -11767.061   -26880.245    -2630.042   -5790.8969    4299.9559    3880.0112   -1635.0269    77.209907 
    1100    278.18703   -108.42629   0.25170947   -108.17458    2437.8367    4.2483259    4.2483259    4.2483259    2437.8367   -18589.776    28370.933   -2467.6472   -2133.2347     4826.019    2268.0119    76.674944 
    1200    529.62575   -108.65237   0.47921651   -108.17315    356.98855    4.2459056    4.2459056    4.2459056    356.98855   -3766.5131      101.975    4735.5037   -2612.4513   -4730.1909   -1130.7843    76.543975 
    1300    276.29562    -108.4256   0.24999808    -108.1756   -1528.7426    4.2562525    4.2562525    4.2562525   -1528.7426   -20434.389    35766.397   -19918.237    2214.1811    7229.8648    1281.2774     77.10493 
    1400    443.45477   -108.57516   0.40124719   -108.17392   -4076.7373    4.2441864    4.2441864    4.2441864   -4076.7373   -11883.787    3989.3233   -4335.7481   -4553.8956    6796.2013   -1818.1269    76.451033 
    1500    340.79335    -108.4831   0.30835698   -108.17474    5292.9252     4.253652     4.253652     4.253652    5292.9252   -15329.864    43153.722   -11945.083    248.40239   -2147.5408    2575.0969    76.963685 
    1600    486.06112   -108.61396   0.43979832   -108.17416   -3584.0949    4.2486847    4.2486847    4.2486847   -3584.0949   -17477.424   -1297.7498    8022.8895    1652.9796    10659.827    1447.7754    76.694373 
    1700     281.1826   -108.43051   0.25441992   -108.17609    5772.3018    4.2489163    4.2489163    4.2489163    5772.3018   -15547.261    41650.469   -8786.3022     4326.976    2881.3555      1999.72    76.706915 
    1800    569.61101   -108.68813   0.51539602   -108.17274   -7298.2687    4.2513861    4.2513861    4.2513861   -7298.2687   -15936.406   -9777.8742    3819.4735    -5014.818   -5374.6778     1998.659    76.840761 
    1900    285.54281   -108.43347   0.25836513    -108.1751    4064.2535    4.2472411    4.2472411    4.2472411    4064.2535   -16668.822    35046.866   -6185.2843    1721.7631    7968.2823   -3993.4672    76.616223 
    2000    475.26142   -108.60371   0.43002652   -108.17368     -16336.3    4.2530755    4.2530755    4.2530755     -16336.3   -23685.592   -5431.5437   -19891.764    617.89526      2744.59    126.85625    76.932397 
    2100    307.01838   -108.45106   0.27779668   -108.17327    5757.0633    4.2467259    4.2467259    4.2467259    5757.0633   -18784.562    34815.731    1240.0207   -4626.5117   -3467.8876   -3084.1085    76.588346 
    2200    460.66472   -108.59106   0.41681912   -108.17424   -13306.201    4.2524697    4.2524697    4.2524697   -13306.201   -19647.361   -5909.1307    -14362.11    4449.7038    8449.6313    2299.8624    76.899528 
    2300    226.40395   -108.38221   0.20485506   -108.17735    6567.6242    4.2478859    4.2478859    4.2478859    6567.6242    -13417.31    43033.885   -9913.7025   -4360.9089     6708.643   -2606.1032    76.651125 
    2400    527.11802   -108.65295   0.47694746     -108.176    -957.1248    4.2478651    4.2478651    4.2478651    -957.1248   -8233.3268    3036.3074     2325.645   -543.48487   -3325.4771    2938.5124    76.650001 
    2500     271.5173   -108.42176   0.24567456   -108.17609     3779.204    4.2550274    4.2550274    4.2550274     3779.204   -16638.819    35131.616   -7155.1849   -715.39019    7180.3811   -3592.8985    77.038368 
    2600    562.37189   -108.68031    0.5088459   -108.17146   -4470.7547    4.2444785    4.2444785    4.2444785   -4470.7547   -12105.211    1101.4904    -2408.544    2929.1524    3132.8459    2467.8634    76.466817 
    2700    328.85259   -108.47153   0.29755274   -108.17398    7730.8641    4.2529005    4.2529005    4.2529005    7730.8641   -13646.679    40447.228   -3607.9568   -416.79436   -6158.5398    2340.5693    76.922904 
    2800    536.41696   -108.66089   0.48536134   -108.17553   -14722.193    4.2509922    4.2509922    4.2509922   -14722.193   -19755.044   -7351.4647   -17060.071    474.23272    8220.1732   -1499.3286    76.819401 
    2900    222.24788    -108.3789   0.20109455   -108.17781    11125.456    4.2434371    4.2434371    4.2434371    11125.456   -6467.2704    31078.963     8764.675    1497.1855    3081.6642    3354.3053    76.410547 
    3000    544.72207   -108.66658   0.49287598   -108.17371   -15075.784    4.2575489    4.2575489    4.2575489   -15075.784   -22926.129   -10293.104   -12008.118   -1924.4209    -2199.415   -2797.2422    77.175411 
    3100    165.24322   -108.32348   0.14951553   -108.17396    15935.191    4.2425018    4.2425018    4.2425018    15935.191    -6407.878    36763.023    17450.428    3609.3156    10185.772    4357.6516    76.360035 
    3200     485.9638   -108.61359   0.43971026   -108.17388   -11746.873    4.2547188    4.2547188    4.2547188   -11746.873   -18476.092   -6754.7863   -10009.739   -942.76337    2493.0044   -3342.3475    77.021609 
    3300    320.60604   -108.46396   0.29009108   -108.17387    11387.128    4.2482882    4.2482882    4.2482882    11387.128   -5411.0353      38724.2    848.21839     3809.955   -3922.3444    2908.8208    76.672905 
    3400    553.17556   -108.67391   0.50052487   -108.17339   -3378.5739    4.2463434    4.2463434    4.2463434   -3378.5739   -7575.6385   -1568.3161   -991.76705   -552.56315    7956.5677    178.45093    76.567652 
    3500    262.00318   -108.41139   0.23706599   -108.17433    2224.5573    4.2571228    4.2571228    4.2571228    2224.5573   -23137.982    42052.991   -12241.337   -1245.0342    1264.3808    774.29615     77.15224 
    3600     582.8238   -108.69919   0.52735122   -108.17184    217.72515    4.2403069    4.2403069    4.2403069    217.72515   -5990.7749     2750.479    3893.4714    3275.7997   -7970.7608   -2353.8152    76.241579 
    3700    262.86012   -108.41473   0.23784136   -108.17689    706.94818    4.2560584    4.2560584    4.2560584    706.94818   -29344.115     34166.37    -2701.411    -5779.991    6143.6699   -474.76764    77.094381 
    3800     464.3444   -108.59424   0.42014857    -108.1741   -10856.309    4.2500344    4.2500344    4.2500344   -10856.309   -22531.103   -4997.3167   -5040.5083     2414.047    3036.9721   -570.30932    76.767492 
    3900    262.45406    -108.4108   0.23747395   -108.17333    10328.546    4.2447172    4.2447172    4.2447172    10328.546   -4914.3218    37648.344   -1748.3833   -1750.5693   -3639.9522   -8296.6104    76.479721 
    4000    491.56491    -108.6177   0.44477826   -108.17292   -16832.181    4.2573809    4.2573809    4.2573809   -16832.181   -25482.124    -6682.903   -18331.516   -750.18541    9426.9908    2359.2005    77.166274 
    4100    278.35734   -108.42649   0.25186357   -108.17462    8612.5599    4.2418153    4.2418153    4.2418153    8612.5599   -1824.5277    39032.386   -11370.178     2049.256    1743.8542   -3711.9363    76.322972 
    4200    529.18346   -108.65391   0.47881631    -108.1751   -10296.191    4.2544733    4.2544733    4.2544733   -10296.191   -8717.7824   -3430.1255   -18740.664    4218.2367   -5101.7849    1362.2555    77.008275 
    4300    354.46623   -108.49649    0.3207285   -108.17576    2294.9608    4.2499254    4.2499254    4.2499254    2294.9608   -11451.118     35133.97    -16797.97   -2401.9317    8358.0005   -2134.6901    76.761582 
    4400    430.51372    -108.5638   0.38953786   -108.17426    3840.1094    4.2444931    4.2444931    4.2444931    3840.1094   -4540.3904    14765.593    1295.1253   -1723.5346   -2905.6039    1207.1433    76.467606 
    4500    363.09749   -108.50277   0.32853824   -108.17423   -4367.5252    4.2587699    4.2587699    4.2587699   -4367.5252   -24480.129    27718.318   -16340.764    4656.1577   -7150.5685   -3874.1645    77.241827 
    4600    438.12258   -108.57039   0.39642252   -108.17397    3266.5787    4.2403628    4.2403628    4.2403628    3266.5787   -15007.282    14906.626    9900.3925   -1192.7892    9684.6713     1242.215    76.244594 
    4700    342.14722   -108.48637     0.309582   -108.17679   -5306.2602    4.2555246    4.2555246    4.2555246   -5306.2602   -27545.814    27128.954   -15501.921    3027.6289    143.17383     2694.371     77.06538 
    4800    455.27962   -108.58602   0.41194656   -108.17407   -6833.4578    4.2496548    4.2496548    4.2496548   -6833.4578   -15748.285    3548.6629   -8300.7511   -721.42316   -4161.8589   -897.38026    76.746921 
    4900     405.0629   -108.54044   0.36650943   -108.17394    2678.6212    4.2441606    4.2441606    4.2441606    2678.6212   -9613.0828     24580.14   -6931.1942   -2306.5636    10002.944     1354.357    76.449637 
    5000    421.72525   -108.55709   0.38158587    -108.1755   -7638.6861    4.2578091    4.2578091    4.2578091   -7638.6861   -12716.173     4267.524   -14467.409   -5129.3808    465.36126   -2931.6206     77.18956 
    5100    432.46126   -108.56434   0.39130004   -108.17304    9733.4522     4.240082     4.240082     4.240082    9733.4522    4899.4625    20256.089    4044.8048    2758.5609   -4069.5077    2267.2214    76.229445 
    5200    350.32866   -108.49129   0.31698473    -108.1743   -2879.3952    4.2570191    4.2570191    4.2570191   -2879.3952   -12038.276     14989.38    -11589.29    3220.6504     4978.109   -4736.8931    77.146599 
    5300    464.04452   -108.59434   0.41987724   -108.17446     4356.569    4.2440559    4.2440559    4.2440559     4356.569   -5973.5875    22036.121    -2992.827    -290.0421   -2422.6528    4932.3713     76.44398 
    5400    344.82918   -108.48983   0.31200869   -108.17782    7122.4684    4.2490544    4.2490544    4.2490544    7122.4684   -11955.357     31338.04    1984.7222   -1335.8548   -4933.4424   -2642.7817    76.714399 
    5500     420.7029   -108.55676   0.38066083    -108.1761   -5020.1502    4.2530534    4.2530534    4.2530534   -5020.1502   -16792.597     14881.88   -13149.734    -1438.025    8012.6061   -470.13928    76.931199 
    5600    368.82581   -108.50742   0.33372134    -108.1737    8233.7047    4.2441105    4.2441105    4.2441105    8233.7047   -14943.367    30653.741    8990.7403   -2256.0634    -59.97411   -2059.4168    76.446932 
    5700    545.78303   -108.66693   0.49383595    -108.1731   -11384.008    4.2537795    4.2537795    4.2537795   -11384.008   -21578.916    5370.8468   -17943.956    1528.3972   -4600.0857   -595.51656    76.970612 
    5800    274.68864   -108.42582   0.24854405   -108.17727    7885.7794    4.2451454    4.2451454    4.2451454    7885.7794   -8245.2425    29566.712    2335.8684    5383.6604    9603.8612   -1115.8985    76.502867 
    5900    526.10028   -108.65234   0.47602659   -108.17632   -9328.9616     4.251666     4.251666     4.251666   -9328.9616    -15282.83   -4486.4415   -8217.6134   -3916.1368   -2953.8926   -2965.6401    76.855937 
    6000      299.884    -108.4477   0.27134135   -108.17636    10205.109    4.2482695    4.2482695    4.2482695    10205.109   -7116.7845    40992.456   -3260.3452   -247.76684   -6533.9846    4029.3903    76.671891 
    6100     504.1552   -108.63132   0.45617022   -108.17515   -4422.9407    4.2470723    4.2470723    4.2470723   -4422.9407   -5402.1073   -3544.9677    -4321.747    237.99069    5854.2902   -5880.8068    76.607092 
    6200    228.57787   -108.38298   0.20682206   -108.17616     4282.349    4.2540901    4.2540901    4.2540901     4282.349   -20439.296    45290.715   -12004.372    -2208.621   -2041.0023    5598.4132    76.987473 
    6300    539.78116   -108.66227   0.48840534   -108.17387    1139.6068    4.2407175    4.2407175    4.2407175    1139.6068   -3382.6125    8318.0657   -1516.6326    3154.1219   -3270.9916   -755.03501    76.263725 
    6400    265.62484   -108.41821   0.24034294   -108.17787   -297.46667    4.2565942    4.2565942    4.2565942   -297.46667   -21738.797    39602.701   -18756.303   -2419.0926    6173.6054     1777.733    77.123502 
    6500    451.78139   -108.58311    0.4087813   -108.17432    -3871.073    4.2452868    4.2452868    4.2452868    -3871.073   -11951.369     6375.045    -6036.895   -936.35793    13.885234   -2931.9086    76.510513 
    6600    354.31953    -108.4952   0.32059575   -108.17461    5593.5588    4.2461558    4.2461558    4.2461558    5593.5588   -11856.148    37769.424   -9132.5997   -2381.5817   -3652.5229   -424.84277    76.557504 
    6700    496.48433   -108.62441   0.44922945   -108.17518   -18016.201    4.2575306    4.2575306    4.2575306   -18016.201   -28384.631   -11107.619   -14556.354    3121.2461    8322.7776   -849.06641    77.174411 
    6800    397.21597   -108.53627   0.35940936   -108.17686    8819.8733    4.2364771    4.2364771    4.2364771    8819.8733    -2253.469    30657.539   -1944.4498   -5891.8866   -5249.1449    2799.2245    76.035184 
    6900     396.9175    -108.5361   0.35913929   -108.17696   -12548.973    4.2628826    4.2628826    4.2628826   -12548.973   -24695.985    2872.1775    -15823.11    1737.9414    -6034.091    427.87052    77.465821 
    7000     387.2097   -108.52331   0.35035547   -108.17295    8212.7072    4.2393628    4.2393628    4.2393628    8212.7072   -1720.5812    33235.487   -6876.7842    749.55207    10518.801   -6798.4908    76.190665 
    7100     399.1471   -108.53511   0.36115669   -108.17395   -2983.9378    4.2509203    4.2509203    4.2509203   -2983.9378    -12130.11    13113.538   -9935.2411     376.7486   -1784.6078   -741.99026    76.815503 
    7200    314.93678   -108.45943   0.28496142   -108.17447   -1122.2666    4.2544592    4.2544592    4.2544592   -1122.2666   -21054.806     28731.64   -11043.634   -965.10163   -2163.6554    294.41926    77.007514 
    7300    396.99753   -108.53354   0.35921171   -108.17433    10204.613    4.2368842    4.2368842    4.2368842    10204.613   -5719.0971    33827.345    2505.5897    1381.6509    12181.731    4616.9225    76.057105 
    7400    422.35083   -108.55816   0.38215191   -108.17601   -11718.326    4.2608823    4.2608823    4.2608823   -11718.326   -24903.227    5667.2666   -15919.019   -1602.5869   -1760.5419   -5282.4273     77.35682 
    7500    370.15308   -108.50987   0.33492229   -108.17494     6287.755    4.2412899    4.2412899    4.2412899     6287.755    -6648.413     16559.61    8952.0683   -3847.4521   -3181.8169    7129.9445    76.294615 
    7600    545.63839   -108.66903   0.49370508   -108.17532   -9097.2374    4.2487611    4.2487611    4.2487611   -9097.2374   -19161.369    11028.512   -19158.855    6127.8348      6248.98   -5621.9491    76.698509 
    7700    337.61138    -108.4819   0.30547787   -108.17643   -3307.8493    4.2539299    4.2539299    4.2539299   -3307.8493   -19534.084     17107.41   -7496.8744   -1826.7929    -5525.631    3016.2944    76.978775 
    7800    481.35815   -108.61019   0.43554297   -108.17464   -608.25983    4.2401611    4.2401611    4.2401611   -608.25983    -9345.748    9556.2024   -2035.2339   -4616.7332   -2600.6127     350.5224    76.233713 
    7900    370.82284   -108.51095   0.33552829   -108.17542   -7040.4865    4.2580444    4.2580444    4.2580444   -7040.4865   -26545.769    23163.141   -17738.831    1090.7819    8791.6887    3874.9006    77.202356 
    8000    388.13654   -108.52325    0.3511941   -108.17206    10318.605    4.2415522    4.2415522    4.2415522    10318.605   -620.89885    15852.148    15724.567     60.55408   -3102.3593    2279.9666    76.308769 
    8100    293.20195   -108.43874   0.26529529   -108.17345    624.54353    4.2532244    4.2532244    4.2532244    624.54353   -19922.546     32815.58   -11019.403   -1786.8474    -1324.725   -3949.7418     76.94048 
    8200    459.61413   -108.59059   0.41586852   -108.17472   -1690.3767    4.2455912    4.2455912    4.2455912   -1690.3767   -9131.1759     3646.496     413.5497    835.34936     11453.93    4611.9956    76.526969 
    8300    352.03352   -108.49798   0.31852733   -108.17945    6208.0252    4.2468832    4.2468832    4.2468832    6208.0252    -11360.55    39489.763   -9505.1376    1499.5629    -4893.955   -3575.4496    76.596856 
    8400    440.25114   -108.57565   0.39834849    -108.1773   -11274.169    4.2546063    4.2546063    4.2546063   -11274.169   -16991.764    1142.3304   -17973.074   -5999.3089    -7984.997   -526.32872    77.015501 
    8500    377.66197   -108.51516   0.34171648   -108.17344     5819.097     4.240899     4.240899     4.240899     5819.097   -7524.4961     25486.21   -504.42317    4242.2611    7007.6968   -2246.1928    76.273519 
    8600     548.4518   -108.66807   0.49625072   -108.17182   -18930.152     4.257585     4.257585     4.257585   -18930.152   -25887.779   -7503.8416   -23398.836    2719.5751    -4972.039    325.16195    77.177372 
    8700     275.3101   -108.42467   0.24910637   -108.17556    7875.8241    4.2415448    4.2415448    4.2415448    7875.8241   -15040.304    40083.996   -1416.2197   -1825.6153   -4598.9413   -4679.3415    76.308369 
    8800    470.38668   -108.60242   0.42561575    -108.1768   -9958.8971    4.2501516    4.2501516    4.2501516   -9958.8971   -20965.018   -4324.9313   -4586.7424   -2689.2296    8762.3342    3521.2958    76.773839 
    8900     271.6065   -108.42187   0.24575527   -108.17611    1417.4563    4.2537342    4.2537342    4.2537342    1417.4563   -20494.206    46175.387   -21428.812     1584.177   -4178.3073    974.96537     76.96815 
    9000    505.84273   -108.63005   0.45769713   -108.17235    4031.2929    4.2379074    4.2379074    4.2379074    4031.2929    539.93187    6734.4414    4819.5054     -3007.45   -2074.6376   -2483.3722    76.112218 
    9100    261.46357   -108.41234   0.23657774   -108.17576   -1193.3554    4.2594563    4.2594563    4.2594563   -1193.3554   -19438.079    45476.062   -29618.049    964.01532    7630.7813    2447.5561    77.279178 
    9200    510.81738   -108.63736    0.4621983   -108.17516   -2368.7068    4.2412751    4.2412751    4.2412751   -2368.7068    -150.1888    5514.2164   -12470.148    4535.9039   -6788.7569    45.806241    76.293813 
    9300    343.93117   -108.48927   0.31119615   -108.17807    6204.3622    4.2477722    4.2477722    4.2477722    6204.3622   -7682.0512     37673.93   -11378.792    470.79038   -5207.2631     6152.159    76.644967 
    9400    470.25458   -108.60038   0.42549623   -108.17488   -14143.069    4.2557463    4.2557463    4.2557463   -14143.069   -20999.372   -7758.4858    -13671.35   -2860.4332    7066.2106   -1954.4422    77.077426 
    9500    314.91776   -108.45821    0.2849442   -108.17326    10939.119    4.2358943    4.2358943    4.2358943    10939.119   -2570.0114    31639.236    3748.1323   -2557.4688   -6141.8042    4744.9938    76.003806 
    9600    446.28511   -108.57737   0.40380814   -108.17356   -16233.421    4.2612691    4.2612691    4.2612691   -16233.421   -32054.619   -2887.2164   -13758.428     2650.505   -4949.6681    -4765.734    77.377888 
    9700      375.205   -108.51262   0.33949337   -108.17313    11661.005    4.2374074    4.2374074    4.2374074    11661.005   -8689.2136    36917.741    6754.4881   -3860.5184    7032.1905    1504.6918    76.085281 
    9800    411.25072   -108.54693   0.37210829   -108.17482    -11970.23    4.2555208    4.2555208    4.2555208    -11970.23   -25628.552    6729.8905   -17012.027    3802.3182   -3535.2218    1523.3179    77.065171 
    9900    422.06501   -108.55589   0.38189329   -108.17399    2854.8153    4.2460561    4.2460561    4.2460561    2854.8153   -16286.217    36003.052   -11152.389    -690.7825   -3527.5832    2487.8636    76.552116 
   10000     447.8385   -108.58054   0.40521369   -108.17532    11998.108    4.2415773    4.2415773    4.2415773    11998.108   -1125.7103    37003.946    116.08787   -2061.4679    6797.5958   -3346.4953    76.310126 
   10100    396.87953   -108.53536   0.35910494   -108.17625   -11265.955    4.2594249    4.2594249    4.2594249   -11265.955   -23595.838    8254.2249   -18456.252    3451.8385   -6146.7813    -535.3068    77.277469 
   10200    365.50898   -108.50519   0.33072021   -108.17447     14862.92    4.2336331    4.2336331    4.2336331     14862.92    9298.8772    30352.146    4937.7368    1150.3728   -3534.9126    2658.3208    75.882157 
   10300    450.05133   -108.58226    0.4072159   -108.17505   -8419.0614    4.2585238    4.2585238    4.2585238   -8419.0614   -19897.958   -1786.3542   -3572.8716    -1654.935     6301.221   -5034.3588    77.228433 
   10400      292.058   -108.44083   0.26426022   -108.17657    5203.4093    4.2432283    4.2432283    4.2432283    5203.4093   -10127.208    23619.683    2117.7526   -2502.9251   -8227.9578    7436.4227     76.39927 
   10500    463.51195   -108.59619   0.41939535   -108.17679   -5404.2849    4.2438717    4.2438717    4.2438717   -5404.2849   -9770.2508   -483.79395   -5958.8101    5009.0911    -4489.455   -2794.5508    76.434024 
   10600     334.1018   -108.47686   0.30230233   -108.17455   -3520.4798    4.2585305    4.2585305    4.2585305   -3520.4798   -25923.898    30088.099    -14725.64   -2013.0213    7669.0915    4032.6513    77.228801 
   10700    529.59857    -108.6504   0.47919191   -108.17121    6222.0476    4.2327121    4.2327121    4.2327121    6222.0476   -920.25368     16396.21    3190.1865   -109.63734   -4718.3972    339.91975    75.832644 
   10800    258.59531   -108.41021   0.23398247   -108.17622   -4145.9333     4.260281     4.260281     4.260281   -4145.9333    -31466.39    39329.979   -20301.389    1119.3499   -3129.1587    3908.4716    77.324073 
   10900     533.3981   -108.65677   0.48262981   -108.17414    4649.5886    4.2403917    4.2403917    4.2403917    4649.5886   -7969.1453    6655.6217    15262.289   -4172.5014    8871.8278   -2671.1115    76.246153 
   11000    328.67167   -108.47416   0.29738904   -108.17677    11544.202     4.245198     4.245198     4.245198    11544.202   -12228.193    49405.042   -2544.2442    1725.9873   -4420.6229    1432.2123    76.505708 
   11100    456.25316   -108.58704   0.41282745   -108.17421   -16541.559    4.2574832    4.2574832    4.2574832   -16541.559   -25769.938   -17514.894   -6339.8449    4162.1207   -5143.0974    2676.4593    77.171833 
   11200     293.9342   -108.43934   0.26595784   -108.17339    15482.952     4.233714     4.233714     4.233714    15482.952    5523.5815    39925.799    999.47595    4537.1579    5868.6156   -1042.9929    75.886506 
   11300    520.29286   -108.64414   0.47077192   -108.17336   -20006.284    4.2580632    4.2580632    4.2580632   -20006.284   -27765.312    -14102.16   -18151.379   -2991.7301   -7060.7494     1394.565    77.203381 
   11400    259.91703   -108.41005   0.23517839   -108.17487    4920.3042     4.243041     4.243041     4.243041    4920.3042    -10254.48    24813.905    201.48778    2593.3094   -2755.3976   -95.424538    76.389151 
   11500    464.59773   -108.59456   0.42037779   -108.17418   -7185.9932    4.2453468    4.2453468    4.2453468   -7185.9932   -13779.948   -2921.3737   -4856.6577    1399.5565    8151.0507     3165.578    76.513757 
   11600    239.28196   -108.39202   0.21650735   -108.17551    8963.9803    4.2517497    4.2517497    4.2517497    8963.9803   -16559.648     39971.78    3479.8086   -3636.4323   -3322.0107   -4225.0708    76.860476 
   11700    568.56671    -108.6879   0.51445111   -108.17345    -2293.516    4.2428904    4.2428904    4.2428904    -2293.516   -8527.0714   -296.58589    1943.1092    3078.1445   -1371.9343    3292.4289    76.381018 
   11800    268.27982   -108.41921   0.24274522   -108.17646    8046.8444    4.2497828    4.2497828    4.2497828    8046.8444   -16426.412    44425.196   -3858.2503    1210.8228    7687.2903   -2089.7929    76.753856 
   11900    554.50983   -108.67556   0.50173215   -108.17383   -4671.0916    4.2454937    4.2454937    4.2454937   -4671.0916    -13469.79   -341.18482   -202.29971   -1119.2083   -6606.3715    666.96589    76.521697 
   12000    355.14221   -108.49561   0.32134014   -108.17427    6674.6735    4.2477905    4.2477905    4.2477905    6674.6735    -15639.05    38467.779   -2804.7081    -2621.437   -7120.8924   -1657.6105    76.645962 
   12100    490.55017   -108.61775    0.4438601   -108.17389   -12688.661    4.2497168    4.2497168    4.2497168   -12688.661    -19508.95   -13903.546   -4653.4872    4553.7364    7577.4541    5859.5993    76.750278 
   12200    209.77918    -108.3658   0.18981261   -108.17599    11835.975    4.2402012    4.2402012    4.2402012    11835.975   -5932.3251    26462.382    14977.868   -365.12371   -2722.3165   -668.50388    76.235874 
   12300    540.09345   -108.66214    0.4886879   -108.17346   -19584.644    4.2577402    4.2577402    4.2577402   -19584.644   -28384.194   -15864.468    -14505.27   -1207.4211    -4725.877    58.842246    77.185811 
   12400    241.81243   -108.39402   0.21879697   -108.17522    15568.171    4.2365375    4.2365375    4.2365375    15568.171   -1248.4541    38204.477    9748.4903    3960.2517    8461.9313    4953.6583    76.038432 
   12500    476.72075   -108.60918   0.43134695   -108.17783   -13028.273     4.251775     4.251775     4.251775   -13028.273   -17400.467   -7921.2143   -13763.139   -316.43683   -4229.0775   -2747.2723    76.861848 
   12600    294.96007    -108.4433   0.26688607   -108.17642    6209.9301    4.2521909    4.2521909    4.2521909    6209.9301   -10329.932    39616.967   -10657.244   -172.05232   -5234.8514    4557.2493    76.884406 
   12700    587.93184   -108.70254   0.53197309   -108.17056    7355.8505    4.2352488    4.2352488    4.2352488    7355.8505    1364.5577    8302.5364    12400.457    1501.4846     1633.511   -1130.9059    75.969063 
   12800    225.91091   -108.37924   0.20440894   -108.17484   -2347.5093    4.2605987    4.2605987    4.2605987   -2347.5093   -28331.514    33754.981   -12465.994    2127.3989    -6197.021    2747.1608    77.341376 
   12900    476.45263   -108.60514   0.43110435   -108.17404    4495.6535    4.2361512    4.2361512    4.2361512    4495.6535   -7091.9678    7837.7267    12741.201   -3998.9046   -6212.8182   -2192.6858    76.017638 
   13000    414.67796   -108.55223   0.37520933   -108.17702   -1661.4243    4.2508042    4.2508042    4.2508042   -1661.4243   -26150.541    25990.196   -4823.9278    -3273.074    6814.9175    2709.9748    76.809209 
   13100    404.71136   -108.54066   0.36619134   -108.17447   -16199.461    4.2527238    4.2527238    4.2527238   -16199.461    -27970.21   -8307.1819    -12320.99    5290.0481    -2807.764    -904.9053    76.913315 
   13200    300.35074   -108.44422   0.27176366   -108.17245     6930.073    4.2353357    4.2353357    4.2353357     6930.073   -10586.451    29896.026    1480.6446   -6014.3213   -7394.8924   -561.74967    75.973741 
   13300    534.24042   -108.65529   0.48339196    -108.1719   -19583.413    4.2606278    4.2606278    4.2606278   -19583.413   -32648.699    -19040.89   -7060.6489    963.60389    6832.2652    286.98604    77.342961 
   13400    287.15069   -108.43484   0.25981998   -108.17502    10322.526    4.2364019    4.2364019    4.2364019    10322.526   -3718.8312     30668.08    4018.3288    725.99399   -7245.3893   -2069.5983    76.031132 
   13500    386.65651   -108.52645   0.34985494    -108.1766   -6193.2109    4.2502728    4.2502728    4.2502728   -6193.2109   -16258.303   -5633.6894    3312.3596   -3739.5884   -11825.701     866.7688     76.78041 
   13600    361.81344   -108.50088   0.32737641    -108.1735    8070.9439    4.2516457    4.2516457    4.2516457    8070.9439   -8222.5372    34268.788   -1833.4196   -3416.2015    2632.3437   -7927.6357    76.854836 
   13700    538.27701   -108.65846   0.48704435   -108.17142    4803.4298    4.2372867    4.2372867    4.2372867    4803.4298    2456.2746    11324.426    629.58873    5007.4708   -4739.0455    4443.5262     76.07878 
   13800    221.72132   -108.37589   0.20061811   -108.17527   -1181.0536    4.2574438    4.2574438    4.2574438   -1181.0536    -24423.05    37608.887   -16728.998   -1564.6601    -6215.317   -4795.0579    77.169693 
   13900    551.78016   -108.67132   0.49926228   -108.17206   -827.63772    4.2400162    4.2400162    4.2400162   -827.63772   -6351.3776   -898.11319    4766.5777   -6234.1723    3534.4573     3100.752    76.225897 
   14000       340.06    -108.4819   0.30769344    -108.1742    1470.5616    4.2488524    4.2488524    4.2488524    1470.5616   -23658.168     35942.64   -7872.7868    3083.7013   -2089.3519   -140.55841    76.703459 
   14100    423.15211   -108.55634   0.38287692   -108.17346   -17109.404    4.2530774    4.2530774    4.2530774   -17109.404   -33454.748   -15091.439   -2782.0259   -710.69566   -6495.6027   -586.11777      76.9325 
   14200    314.28128   -108.45786    0.2843683   -108.17349     12414.48    4.2349051    4.2349051    4.2349051     12414.48   -5405.0149    24805.151    17843.304   -2792.5458    1131.2343   -1139.9675    75.950573 
   14300    502.01974   -108.62703   0.45423801   -108.17279   -19692.705    4.2606796    4.2606796    4.2606796   -19692.705   -30038.225   -15029.872   -14010.019    651.43976   -8057.0381   -2201.6882    77.345779 
   14400     280.1723   -108.42748   0.25350578   -108.17398    9580.1945    4.2378611    4.2378611    4.2378611    9580.1945   -7225.5907    28784.077    7182.0969   -2555.3477   -8660.0401     1720.721    76.109723 
   14500    533.15212   -108.65691   0.48240725   -108.17451   -7737.2391    4.2475004    4.2475004    4.2475004   -7737.2391   -5874.1127      -9923.2   -7414.4048   -8789.5294    4501.4526   -2106.2309    76.630257 
   14600    308.71954   -108.45431   0.27933592   -108.17497    509.99451    4.2544868    4.2544868    4.2544868    509.99451   -16576.793    29680.397   -11573.621    3509.2866   -5035.8715    4288.9555    77.009008 
   14700    481.34978   -108.60585   0.43553539   -108.17031    10595.636    4.2321223    4.2321223    4.2321223    10595.636    4551.5995    23976.164    3259.1444    3713.6309   -7729.5376   -2688.6752    75.800948 
   14800    261.61161   -108.40906   0.23671168   -108.17235   -1745.3582    4.2598148    4.2598148    4.2598148   -1745.3582   -23366.067    29113.661   -10983.669   -4327.2531    3788.2644    2558.8889    77.298694 
   14900    446.35093   -108.57645    0.4038677   -108.17258   -423.57271    4.2383735    4.2383735    4.2383735   -423.57271   -11370.701      3274.89     6825.093   -3648.6926   -3504.1889   -4167.2598    76.137336 
   15000    354.33706   -108.49783   0.32061161   -108.17722   -1017.3057    4.2478193    4.2478193    4.2478193   -1017.3057   -22330.979    34058.098   -14779.036    -1232.213   -8400.7211    2524.4084    76.647521 
   15100    469.57488   -108.59798   0.42488122    -108.1731   -12945.752    4.2539004    4.2539004    4.2539004   -12945.752   -26366.419   -10016.701   -2454.1354   -7123.1293    1117.2355   -966.18417    76.977174 
   15200    285.72897   -108.43019   0.25853358   -108.17166    7379.9564    4.2351892    4.2351892    4.2351892    7379.9564   -3675.0689    27840.211   -2025.2726   -1988.0718   -6242.0361   -4334.2195    75.965858 
   15300    568.61809   -108.68574   0.51449759   -108.17125   -22231.388    4.2577453    4.2577453    4.2577453   -22231.388   -26790.023   -11536.841   -28367.301    6945.5142   -7119.8357   -544.99088    77.186087 
   15400    342.05298   -108.48355   0.30949672   -108.17405    11225.382    4.2394589    4.2394589    4.2394589    11225.382   -348.05501    21224.402    12799.798   -6260.5594    3656.0669   -5473.9796    76.195843 
   15500    439.60314   -108.57353   0.39776216   -108.17577   -7502.1922    4.2453622    4.2453622    4.2453622   -7502.1922   -13012.883   -340.77356   -9152.9195   -6446.8922   -6462.1014   -516.12912    76.514588 
   15600    226.40758   -108.38121   0.20485833   -108.17635    4369.3508    4.2544559    4.2544559    4.2544559    4369.3508   -18847.622    36952.324   -4996.6493    1843.1463   -5170.0399   -306.39657    77.007333 
   15700    590.95806   -108.70532   0.53471127   -108.17061    8064.2447     4.234666     4.234666     4.234666    8064.2447    958.82566    10569.288     12664.62   -5381.8876    3663.5322    1187.5456    75.937707 
   15800    200.95318   -108.35751   0.18182666   -108.17568   -1153.5611     4.255469     4.255469     4.255469   -1153.5611   -25145.944     36655.58   -14970.319     26.92387   -5108.5244   -5424.9479     77.06236 
   15900    440.66066   -108.57307   0.39871903   -108.17435   -1232.9256    4.2416271    4.2416271    4.2416271   -1232.9256    -11530.91    3890.3266    3941.8064    2460.8936   -8204.4133    2704.7532    76.312811 
   16000    443.32896   -108.57575   0.40113336   -108.17462    9166.6265    4.2436167    4.2436167    4.2436167    9166.6265   -16005.757    40276.169    3229.4675    1722.1358    3112.9692    2171.6818    76.420247 
   16100    417.31354   -108.55491   0.37759406   -108.17732   -9981.6187    4.2512805    4.2512805    4.2512805   -9981.6187   -21252.567   -10222.958    1530.6686    -8695.762   -1779.6084   -428.64562    76.835031 
   16200    287.78057   -108.43751   0.26038991   -108.17712    5491.3045    4.2383217    4.2383217    4.2383217    5491.3045   -3952.1115    11938.644    8487.3811    3366.6528   -8653.5587    1908.1659    76.134547 
   16300     614.1513   -108.72781     0.555697   -108.17211   -13124.061    4.2547718    4.2547718    4.2547718   -13124.061   -18757.237   -9559.9509   -11054.997    3486.0195    1820.3721   -2957.7753    77.024487 
   16400    296.52001   -108.44237   0.26829753   -108.17408    10698.537    4.2386267    4.2386267    4.2386267    10698.537   -4522.4101     26104.39     10513.63   -7788.2879   -3710.7107    4227.8089    76.150984 
   16500    392.98079   -108.53213   0.35557728   -108.17655   -10423.913     4.247898     4.247898     4.247898   -10423.913    -16050.73   -4384.2717   -10836.736    2176.5124   -6544.8835   -4771.5166    76.651779 
   16600    338.71227    -108.4826   0.30647398   -108.17613    4439.2122    4.2508101    4.2508101    4.2508101    4439.2122   -16114.823    33571.419   -4138.9594   -840.41246    1742.4148    6233.4105    76.809528 
   16700    499.94569    -108.6255   0.45236136   -108.17314    12638.952    4.2329933    4.2329933    4.2329933    12638.952    1018.5149    10717.314    26181.026   -1968.1585   -5888.8762   -1314.2709    75.847755 
   16800    199.32893   -108.35595   0.18035701   -108.17559   -5515.0467    4.2610498    4.2610498    4.2610498   -5515.0467   -30341.506    28320.622   -14524.256   -1819.6427   -6200.6931   -719.78715    77.365942 
   16900    463.86467   -108.59069    0.4197145   -108.17097    9410.4337    4.2359783    4.2359783    4.2359783    9410.4337   -1956.2927    5440.4165    24747.177    5139.4289    2120.8119   -1598.8701    76.008329 
   17000    476.29427   -108.60514   0.43096107   -108.17418    4245.1508    4.2438707    4.2438707    4.2438707    4245.1508   -13433.731    31222.646   -5053.4629    929.66006   -3540.7251   -1422.6701    76.433971 
   17100    410.40071    -108.5461   0.37133919   -108.17476   -16089.034    4.2556406    4.2556406    4.2556406   -16089.034   -25220.507   -12247.645   -10798.949   -2271.4817    -8718.493     570.7181    77.071679 
   17200    356.27187   -108.49488   0.32236227   -108.17252    9542.0209    4.2323945    4.2323945    4.2323945    9542.0209    111.74085    13374.743    15139.579    7021.6824    4409.0284   -8702.8969    75.815571 
   17300    504.89892   -108.62834   0.45684316    -108.1715   -11769.128    4.2562102    4.2562102    4.2562102   -11769.128   -23352.092   -12152.451    197.15941    1387.6248    -3739.043    5045.2471    77.102633 
   17400    266.29872    -108.4156   0.24095268   -108.17464    3754.9365    4.2427869    4.2427869    4.2427869    3754.9365   -13221.646    16384.109    8102.3469    346.09292    -11596.58   -6330.9895     76.37543 
   17500    421.87241   -108.55618   0.38171902   -108.17446   -3298.5064    4.2396846    4.2396846    4.2396846   -3298.5064   -8498.7132    -5074.842    3678.0361    5246.3009     1687.683    723.85755    76.208015 
   17600    369.88746   -108.50823   0.33468195   -108.17355    -4513.872    4.2567618    4.2567618    4.2567618    -4513.872   -21739.706    16274.194   -8076.1035   -836.21257   -3009.1568   -2352.4694    77.132615 
   17700    459.33121   -108.58715   0.41561253   -108.17154    7116.4343    4.2350927    4.2350927    4.2350927    7116.4343   -2672.1075    19447.516    4573.8941    1908.9509   -7485.5209    226.79449    75.960665 
   17800    297.28286   -108.44403   0.26898778   -108.17504    6189.6399    4.2492398    4.2492398    4.2492398    6189.6399   -12696.768    23107.017    8158.6706    447.37216    3319.9586   -6617.1252    76.724439 
   17900    456.12133   -108.58657   0.41270817   -108.17386   -208.46587    4.2496633    4.2496633    4.2496633   -208.46587   -13836.731    11504.319    1707.0145    4772.5797    1462.0902   -2786.0787    76.747381 
   18000    419.68111   -108.55272   0.37973628   -108.17298    16552.654    4.2339343    4.2339343    4.2339343    16552.654   -1352.2256    30545.355    20464.831   -1207.6439   -7425.0327    1897.5317     75.89835 
   18100    412.54708   -108.54643   0.37328127   -108.17315   -10067.335    4.2577989    4.2577989    4.2577989   -10067.335   -24505.586    5689.4393   -11385.859     794.1246    277.73487   -6090.9228    77.189002 
   18200    479.38983   -108.60518   0.43376199   -108.17142   -1205.2978    4.2373343    4.2373343    4.2373343   -1205.2978   -3603.1671   -588.73389     576.0075    897.40687   -3330.8455    1563.0267    76.081348 
   18300    349.88709   -108.49198    0.3165852   -108.17539   -1140.3497    4.2464026    4.2464026    4.2464026   -1140.3497   -15646.976    10566.695    1659.2318   -2961.3163   -10665.125   -86.912489    76.570857 
   18400    451.50064   -108.58249   0.40852727   -108.17396   -10867.979    4.2509783    4.2509783    4.2509783   -10867.979   -19950.778   -9547.8313   -3105.3273    4616.1939    2546.6882   -3394.7296     76.81865 
   18500     248.7239   -108.39861   0.22505061   -108.17356    6218.0904    4.2385545    4.2385545    4.2385545    6218.0904   -2920.5452    3248.1942    18326.622   -134.63535    1502.2838    -8587.391     76.14709 
   18600    397.67295   -108.53291   0.35982284   -108.17308   -8983.3934    4.2510723    4.2510723    4.2510723   -8983.3934    -21005.54   -4333.1156   -1611.5251    1071.7457   -7822.7962    2461.7958    76.823745 
   18700    382.54568   -108.51852   0.34613537   -108.17238    3521.2803    4.2449333    4.2449333    4.2449333    3521.2803   -10711.414    18473.242    2802.0131    2252.7295    3637.0394   -4344.5585      76.4914 
   18800    480.99195   -108.60767   0.43521162   -108.17246    -973.7232    4.2418294    4.2418294    4.2418294    -973.7232   -2664.1072   -8121.8178    7864.7554    615.89297    574.69689   -3153.0134    76.323729 
   18900    372.16687   -108.51064    0.3367444    -108.1739   -3142.8793    4.2528017    4.2528017    4.2528017   -3142.8793   -23423.523     19755.92   -5761.0343   -1097.6586   -14164.856    2908.4197    76.917542 
   19000     475.5193    -108.6026   0.43025986   -108.17234     6154.321    4.2397701    4.2397701    4.2397701     6154.321   -6864.8723    2229.4283    23098.407    1220.5094   -1287.8476    1896.1232    76.212627 
   19100    414.02835    -108.5481   0.37462155   -108.17348    2578.7158     4.246345     4.246345     4.246345    2578.7158   -13469.547    17361.898    3843.7959     2788.433     5613.628   -4197.6298    76.567742 
   19200    331.85931   -108.47432   0.30027328   -108.17404   -3887.3053     4.250067     4.250067     4.250067   -3887.3053    -25018.54      9714.27    3642.3538   -2725.1724   -7042.4276   -314.24193    76.769255 
   19300    482.77907   -108.60891   0.43682864   -108.17209    4454.0723    4.2350643    4.2350643    4.2350643    4454.0723     -688.143     12928.38    1121.9795    176.05227   -1863.8936    4789.4989    75.959135 
   19400    331.51883   -108.47521    0.2999652   -108.17524   -2952.5568    4.2555423    4.2555423    4.2555423   -2952.5568   -20797.064    5307.2872     6632.106    3319.9517    5114.8394   -5555.0263     77.06634 
   19500    372.29597   -108.51317   0.33686122   -108.17631   -5387.8893    4.2421086    4.2421086    4.2421086   -5387.8893   -13642.178   -8566.2859    6044.7956   -3511.7573   -10986.087    3068.7255    76.338804 
   19600    343.46831    -108.4873   0.31077734   -108.17652    9989.5656    4.2378401    4.2378401    4.2378401    9989.5656    2105.7431    13747.401    14115.552   -3076.9165   -6620.4731   -713.60418    76.108594 
   19700    485.81199   -108.61079    0.4395729   -108.17122   -12483.957    4.2607519    4.2607519    4.2607519   -12483.957   -18896.827   -21218.924    2663.8799    3585.5038    6893.5172   -2485.8234    77.349717 
   19800    402.86682   -108.53527   0.36452237   -108.17075    8844.0036    4.2296983    4.2296983    4.2296983    8844.0036    5441.7919    14170.274     6919.945    -407.7429   -5396.5564   -486.90075    75.670772 
   19900    364.21624   -108.50593   0.32955051   -108.17637   -5084.2645    4.2523301    4.2523301    4.2523301   -5084.2645   -13940.915   -14337.273    13025.395   -3487.7126   -3789.4993    2609.3012    76.891956 
   20000    517.69062   -108.64066   0.46841735   -108.17224   -10268.673    4.2519354    4.2519354    4.2519354   -10268.673    -21256.41    -12268.37    2718.7601     986.4708    847.41966   -1428.4881    76.870549 
   20100     322.6079   -108.46186   0.29190241   -108.16996    10187.361    4.2298612    4.2298612    4.2298612    10187.361    2940.3688    7369.0001    20252.714    2021.3098   -5864.0951   -13733.028    75.679519 
   20200    410.94527   -108.54354   0.37183191   -108.17171   -17443.039    4.2596369    4.2596369    4.2596369   -17443.039   -29164.812   -21927.201   -1237.1035   -1284.4957   -4261.3672    8275.6285    77.289009 
   20300    382.17274   -108.51791   0.34579793   -108.17211    4729.0773    4.2415235    4.2415235    4.2415235    4729.0773   -4473.5895    7638.4497    11022.372    254.90215    3347.9834   -3556.1947     76.30722 
   20400    404.58518   -108.53759   0.36607718   -108.17151    6503.1785    4.2355937    4.2355937    4.2355937    6503.1785     5118.288    1041.0995    13350.148   -1365.3303    40.286538   -9795.3841    75.987625 
   20500    379.86244   -108.51477   0.34370752   -108.17106   -14316.497    4.2623955    4.2623955    4.2623955   -14316.497   -24999.903   -10587.266   -7362.3229   -934.48236   -4356.2994    7169.3299    77.439267 
   20600    375.32075   -108.50871   0.33959811   -108.16911     12200.21    4.2323155    4.2323155    4.2323155     12200.21    15476.366    5476.0139    15648.251    244.52645    2714.2151   -7222.9499    75.811327 
   20700    452.98619   -108.58178   0.40987143   -108.17191   -2680.6541    4.2460226    4.2460226    4.2460226   -2680.6541   -3007.7662    -7905.565    2871.3689   -1138.7173   -4327.5637   -6416.9626    76.550302 
   20800    364.71155   -108.50129   0.32999868   -108.17129   -6736.8184    4.2557545    4.2557545    4.2557545   -6736.8184   -11293.257    -6893.605   -2023.5929   -2556.8615   -9223.9962    5300.7012    77.077872 
   20900    398.18288    -108.5282   0.36028423   -108.16791    10398.224    4.2301313    4.2301313    4.2301313    10398.224    16680.297    9893.4999    4620.8741    1334.4051    8795.2498    821.92798    75.694014 
   21000    408.68107    -108.5408   0.36978322   -108.17102   -7728.4489    4.2544437    4.2544437    4.2544437   -7728.4489   -18892.709   -11923.209    7630.5715    2691.4085      784.503   -7078.5632    77.006668 
   21100    369.31044   -108.50589   0.33415985   -108.17173    7160.7683    4.2435436    4.2435436    4.2435436    7160.7683   -7191.5333    12015.197    16658.641   -1740.6679   -4173.1055   -2149.0048    76.416302 
   21200    444.54165   -108.57413   0.40223063   -108.17189     2230.183    4.2397587    4.2397587    4.2397587     2230.183   -4802.6304    455.19322    11037.986    522.20667     1755.826    9117.4048    76.212009 
   21300    362.37886   -108.50059   0.32788801    -108.1727    982.51843    4.2517429    4.2517429    4.2517429    982.51843   -10827.319   -520.13113    14295.006   -140.86094    1965.4662   -7797.0965    76.860105 
   21400    499.43358   -108.62198     0.451898   -108.17008    8615.2455     4.239346     4.239346     4.239346    8615.2455     5694.609    9216.2027    10934.925   -802.51013   -3696.0557   -1628.3104    76.189757 
   21500    352.16636   -108.49105   0.31864752    -108.1724    4057.2293    4.2466163    4.2466163    4.2466163    4057.2293   -8052.7363   -5473.3304    25697.755   -2058.7931    962.65869    8203.4652    76.582415 
   21600    364.42315   -108.50343   0.32973772    -108.1737    2896.2962    4.2439129    4.2439129    4.2439129    2896.2962      6536.48    4674.6224   -2522.2139   -1720.0139    7963.2986   -6044.9503    76.436252 
   21700    474.97384   -108.60316   0.42976632    -108.1734    3079.9904    4.2426428    4.2426428    4.2426428    3079.9904     8341.789   -6105.3888    7003.5708    2258.7878   -2528.8445   -3480.0845    76.367649 
   21800    405.70362   -108.54025   0.36708916   -108.17316   -4529.3683    4.2492492    4.2492492    4.2492492   -4529.3683   -10728.262    396.07191   -3255.9142   -2159.5976   -3628.7696    8034.7174    76.724948 
   21900    313.93933   -108.45734   0.28405891   -108.17328    404.52848    4.2406325    4.2406325    4.2406325    404.52848    10380.084   -9600.7503    434.25179   -150.57325   -686.57359    -706.9896    76.259142 
   22000    386.17212   -108.52172   0.34941665    -108.1723   -2577.7263    4.2472983    4.2472983    4.2472983   -2577.7263   -12208.125     -3160.62    7635.5656    -15.54049   -1142.8304   -11714.316    76.619321 
   22100    421.75804   -108.55342   0.38161553   -108.17181   -4129.6237    4.2462561    4.2462561    4.2462561   -4129.6237   -14272.949   -3937.5227     5821.601   -3812.5829   -1652.5207    9903.4773    76.562931 
   22200    375.85588   -108.51395   0.34008229   -108.17387   -8082.0835    4.2417215    4.2417215    4.2417215   -8082.0835   -165.82782    -11364.45   -12715.972    3069.0274    3456.0917   -2916.6548    76.317905 
   22300    389.77803   -108.52689   0.35267936   -108.17421   -4308.7584    4.2489935    4.2489935    4.2489935   -4308.7584   -13279.902   -538.41103    892.03777   -936.05711    3125.0906   -9669.3981      76.7111 
   22400    552.32808   -108.67177   0.49975806   -108.17201    1064.8739    4.2417201    4.2417201    4.2417201    1064.8739   -3295.7505   -7965.9876     14456.36    269.18259   -440.79817    7881.3637    76.317829 
   22500     283.0448    -108.4312   0.25610489   -108.17509    5230.6632    4.2436016    4.2436016    4.2436016    5230.6632    -71.36836    8357.9782    7405.3797    1254.1912    131.55213    1179.2837    76.419431 
   22600    372.70957   -108.51116   0.33723545   -108.17392   -3533.6429      4.24942      4.24942      4.24942   -3533.6429   -7342.1061   -14211.461    10952.638   -3959.8761    975.20121   -12821.696    76.734199 
   22700    522.52701   -108.64403   0.47279342   -108.17124    12808.639    4.2370919    4.2370919    4.2370919    12808.639    4894.2549    24990.548     8541.115     2514.167    104.98822    3366.8765    76.068289 
   22800    362.77795   -108.50293   0.32824912   -108.17468   -2861.6065    4.2515252    4.2515252    4.2515252   -2861.6065   -5337.7551   -10918.272    7671.2078   -955.10941    1838.3687    6389.9209    76.848304 
   22900     330.6006   -108.47312   0.29913437   -108.17399    5341.5903    4.2411682    4.2411682    4.2411682    5341.5903    4374.0796    8693.1343     2957.557    -694.1569    5062.2253   -11129.681    76.288046 
   23000    464.14589   -108.59177   0.41996895    -108.1718    8725.6422    4.2430868    4.2430868    4.2430868    8725.6422   -4126.3499    15197.685    15105.592    1088.4422   -280.38204     1481.165    76.391626 
   23100    413.15035   -108.54602   0.37382712    -108.1722   -3056.0541    4.2482863    4.2482863    4.2482863   -3056.0541    -3535.751   -11938.476    6306.0651   -78.774268    415.52825    4405.6102      76.6728 
   23200    261.73972   -108.41078    0.2368276   -108.17395    1197.3742    4.2415637    4.2415637    4.2415637    1197.3742   -3055.9765     17722.21   -11074.111    2095.8762    2312.2752   -4692.8583    76.309389 
   23300    563.67829   -108.68226   0.51002796   -108.17224   -6463.7265    4.2456417    4.2456417    4.2456417   -6463.7265   -3441.7364   -12565.104   -3384.3386   -2973.4433   -1492.3836   -4716.9615    76.529702 
   23400    379.47527   -108.51679   0.34335719   -108.17343     2823.718    4.2444437    4.2444437    4.2444437     2823.718   -1844.5223    4021.5866    6294.0895   -333.86908   -685.43094    8704.5916    76.464938 
   23500    357.20308   -108.49764   0.32320486   -108.17444   -9974.5741    4.2458242    4.2458242    4.2458242   -9974.5741   -4455.9568    -15004.01   -10463.755    1590.2651    5863.5056   -5575.0224     76.53957 
   23600    377.08471   -108.51463   0.34119417   -108.17344    2046.8188    4.2442461    4.2442461    4.2442461    2046.8188   -1492.1269   -99.580154    7732.1636    2228.8574     1042.465   -10344.835    76.454259 
   23700    468.08395   -108.59594    0.4235322   -108.17241   -348.40303    4.2455795    4.2455795    4.2455795   -348.40303   -2609.9799   -1193.6759    2758.4467   -534.70762    227.35745    8361.2995     76.52634 
   23800    394.59584   -108.52984   0.35703861    -108.1728   -9386.0687    4.2482945    4.2482945    4.2482945   -9386.0687    -5368.692   -9926.9406   -12862.573   -2470.4187    4709.1175   -6367.0758    76.673243 
   23900    347.21141    -108.4863   0.31416418   -108.17214    5357.1232    4.2419429    4.2419429    4.2419429    5357.1232    2887.2977    2127.2693    11056.803     2527.162   -4525.2253   -8851.5773     76.32986 
   24000    531.82007   -108.65228   0.48120198   -108.17108    566.96544    4.2448434    4.2448434    4.2448434    566.96544   -8700.9486   -1685.2276    12087.073   -1456.4729   -3863.6988    5348.9254    76.486538 
   24100    254.70043   -108.40458    0.2304583   -108.17412    3098.5989    4.2482097    4.2482097    4.2482097    3098.5989   -9740.6163    1068.0731     17968.34   -1066.1669   -360.78827   -5333.2829    76.668656 
   24200    383.51687    -108.5205   0.34701412   -108.17348    -881.3873    4.2400731    4.2400731    4.2400731    -881.3873     1911.652    -4054.226   -501.58793    556.01008   -561.95884   -14058.949    76.228964 
   24300    435.29119    -108.5672   0.39386062   -108.17334    1942.9509    4.2470915    4.2470915    4.2470915    1942.9509   -14861.157    20120.404    569.60547   -1815.7593   -2891.4744    5259.3133    76.608128 
   24400    487.30769   -108.61448   0.44092624   -108.17355   -11676.988    4.2475065    4.2475065    4.2475065   -11676.988   -6595.3066   -16409.364   -12026.293     711.0895    2761.1345   -2547.5831     76.63059 
   24500    284.62586   -108.43243   0.25753546    -108.1749    4911.4016    4.2379948    4.2379948    4.2379948    4911.4016    935.98232    12333.803    1464.4191   -159.16378    3662.6652   -7629.1761    76.116929 
   24600    424.71392   -108.55599   0.38429008    -108.1717   -8014.7423    4.2549374    4.2549374    4.2549374   -8014.7423   -26563.605   -1119.9429    3639.3212   -900.22987   -7097.7978   -1148.2299     77.03348 
   24700    428.53698   -108.55785   0.38774926    -108.1701     5918.634    4.2385415    4.2385415    4.2385415     5918.634   -3546.7286    2225.1653    19077.465    1552.9487    231.89928   -2905.4156    76.146392 
   24800     336.5241    -108.4786   0.30449408    -108.1741   -4256.5359    4.2467074    4.2467074    4.2467074   -4256.5359   -9477.2422    8191.5172   -11483.883   -2284.0774   -403.79119    -11452.21    76.587347 
   24900    437.48403   -108.56963   0.39584474   -108.17379   -8156.4551    4.2497268    4.2497268    4.2497268   -8156.4551   -19947.157   -11160.763    6638.5548    1788.5253   -7781.4218    4087.4257    76.750824 
   25000    479.00567   -108.60547    0.4334144   -108.17205    7850.5676    4.2356148    4.2356148    4.2356148    7850.5676   -1576.7168    11194.158    13934.261   -1379.2081    1950.3716    1208.5832    75.988764 
   25100    364.51873   -108.50481    0.3298242   -108.17499   -1478.7397    4.2508073    4.2508073    4.2508073   -1478.7397   -5745.1126   -17444.321    18753.214    -1591.403    1731.9306   -9159.7092    76.809377 
   25200    332.46319   -108.47517   0.30081968   -108.17435   -3482.9576    4.2465029    4.2465029    4.2465029   -3482.9576   -20598.956   -2078.7228    12228.806    2716.3968    -8181.794   -3556.3014    76.576284 
   25300    441.46808   -108.57082   0.39944959   -108.17137    10614.548    4.2337451    4.2337451    4.2337451    10614.548    601.36594    14494.433    16747.846   -1177.5722    -4266.374   -171.20545    75.888179 
   25400    437.09373   -108.56736   0.39549159   -108.17186   -15480.524    4.2602641    4.2602641    4.2602641   -15480.524    -18341.31   -21284.078   -6816.1846    1348.9815     341.6799   -3595.0316    77.323154 
   25500    315.34909   -108.45744   0.28533448    -108.1721    2520.2708    4.2349732    4.2349732    4.2349732    2520.2708   -11788.177    16588.488    2760.5013   -750.00963   -8847.6626   -3830.6284    75.954237 
   25600    398.00702   -108.53356   0.36012512   -108.17343   -265.70242    4.2448318    4.2448318    4.2448318   -265.70242   -12954.287   -4914.0484    17071.228   -2552.1569   -3083.2008    5854.1686    76.485911 
   25700    443.57811   -108.57218    0.4013588   -108.17082    -8926.503    4.2538938    4.2538938    4.2538938    -8926.503   -16944.719   -8582.6801   -1252.1098    2455.8701    2085.6032   -6642.3437    76.976813 
   25800    320.30636   -108.46052   0.28981992    -108.1707    5840.6099    4.2325559    4.2325559    4.2325559    5840.6099   -6165.8976    11725.008    11962.719     1654.082   -6688.6792    -9792.205    75.824246 
   25900    429.10694   -108.56039   0.38826497   -108.17212   -8360.6608     4.252034     4.252034     4.252034   -8360.6608   -20449.905    9641.8376   -14273.915    481.24608     -3499.92   -15.080405    76.875896 
   26000    457.85791   -108.58682   0.41427946   -108.17254    4101.2222     4.243736     4.243736     4.243736    4101.2222   -6654.3489    11699.925    7258.0901    -390.7251    756.02927   -426.18476    76.426693 
   26100    408.07717   -108.54352    0.3692368   -108.17429    4013.7984    4.2379074    4.2379074    4.2379074    4013.7984    -5739.881    8189.8097    9591.4666   -298.06133   -7051.6013    89.017643     76.11222 
   26200    294.01529   -108.44069   0.26603121   -108.17465   -3478.5172     4.255035     4.255035     4.255035   -3478.5172   -23807.278    8656.8745    4714.8517   -1611.4857   -1912.7005   -509.25688    77.038782 
   26300    512.32904   -108.63345   0.46356608   -108.16989    4288.8943    4.2375755    4.2375755    4.2375755    4288.8943   -2298.7754    1891.8743    13273.584    -1481.847    2857.0382   -3080.1023    76.094337 
   26400    425.43088   -108.55693    0.3849388   -108.17199   -566.83382    4.2451771    4.2451771    4.2451771   -566.83382   -10367.193    8139.0224    527.66948    1082.0139   -3840.4302   -10163.791    76.504582 
   26500    270.11591   -108.41799   0.24440655   -108.17358   -4468.4586    4.2506715    4.2506715    4.2506715   -4468.4586   -20271.032    9201.4998   -2335.8438    176.03177   -3328.6299    2740.3885    76.802019 
   26600    449.70595   -108.57887   0.40690339   -108.17197    4132.1422    4.2337116    4.2337116    4.2337116    4132.1422   -10212.527    6775.8192    15833.134   -777.32783    4774.4702   -1410.7028    75.886378 
   26700    336.26848   -108.47773   0.30426279   -108.17346    638.10354     4.251777     4.251777     4.251777    638.10354    -13543.32   -4693.4951    20151.126    2822.5854   -2801.4922   -4270.6625    76.861958 
   26800    410.76732    -108.5446    0.3716709   -108.17293   -4273.9946    4.2433293    4.2433293    4.2433293   -4273.9946   -12201.674   -1288.6131    668.30297   -661.54237   -6719.7127    2231.9374    76.404725 
   26900    443.52851   -108.57387   0.40131391   -108.17256   -2922.1805    4.2393061    4.2393061    4.2393061   -2922.1805   -15837.091   -1606.8997    8677.4493   -4202.2292    7263.3347   -997.18079    76.187607 
   27000    442.20255   -108.57272   0.40011416    -108.1726   -6086.4467    4.2509504    4.2509504    4.2509504   -6086.4467   -10836.118   -13194.741    5771.5187   -962.44298   -708.28338   -6784.1545    76.817134 
   27100    433.00835   -108.56486   0.39179505   -108.17306   -456.71604    4.2392691    4.2392691    4.2392691   -456.71604   -12056.335    112.49533    10573.692   -541.13159    -5203.558   -3030.9541    76.185612 
   27200    296.12803   -108.44307   0.26794286   -108.17513   -797.72719    4.2464799    4.2464799    4.2464799   -797.72719   -22920.792      -4140.8     24668.41    1484.2121    5038.9062    4910.7534    76.575038 
   27300    438.42494   -108.57045    0.3966961   -108.17376   -7110.9451    4.2453378    4.2453378    4.2453378   -7110.9451   -5545.9934   -12445.563   -3341.2793    637.59191   -1647.3746   -9626.4722    76.513268 
   27400    449.04363   -108.57894   0.40630412   -108.17264   -2246.1757    4.2406572    4.2406572    4.2406572   -2246.1757   -2321.2095    -5244.854    827.53648    531.24021   -3168.8101   -4494.4284    76.260472 
   27500    254.54492   -108.40479   0.23031759   -108.17447   -3599.1559    4.2509063    4.2509063    4.2509063   -3599.1559   -19887.078    -12204.73     21294.34     931.2217    4471.5719    747.54807    76.814744 
   27600    413.40204   -108.54809   0.37405486   -108.17404    4688.6797    4.2347595    4.2347595    4.2347595    4688.6797    3535.9692   -4591.5432    15121.613   -1662.2741    10185.184   -3444.0116    75.942738 
   27700    401.10952   -108.53743   0.36293232    -108.1745   -801.70184    4.2514101    4.2514101    4.2514101   -801.70184   -13532.779   -12309.715    23437.389   -202.92258   -3298.8392   -3382.8417    76.842062 
   27800    443.08942   -108.57471   0.40091662    -108.1738   -5771.0216    4.2435211    4.2435211    4.2435211   -5771.0216   -13769.809   -3780.1453    236.88989   -3539.4437    3710.5072    2292.8329    76.415083 
   27900    385.13961   -108.52206   0.34848241   -108.17358    2824.7567    4.2361037    4.2361037    4.2361037    2824.7567   -10661.273    6219.1686    12916.374   -601.56626     7239.095   -6945.1846    76.015077 
   28000    492.44253   -108.61616   0.44557235   -108.17059   -10001.628    4.2584167    4.2584167    4.2584167   -10001.628   -18759.154   -16472.294     5226.564    3602.4012   -4437.2967   -9934.6418    77.222609 
   28100    415.78317   -108.54675   0.37620935   -108.17055    3446.9904    4.2351716    4.2351716    4.2351716    3446.9904   -10368.988    7545.6751    13164.284   -2703.8213    7865.5165    1976.1813    75.964911 
   28200    302.23782    -108.4468   0.27347113   -108.17333   -2173.5598    4.2418806    4.2418806    4.2418806   -2173.5598   -13021.629    6267.9407    233.00884    727.58598    7828.8292   -3712.3471    76.326498 
   28300    467.44212   -108.59386   0.42295145   -108.17091   -11394.475    4.2560772    4.2560772    4.2560772   -11394.475   -9497.3136   -13639.905   -11046.206     1255.414   -641.91041   -4239.7741    77.095402 
   28400    379.28179   -108.51302   0.34318213   -108.16984     15140.51    4.2297514    4.2297514    4.2297514     15140.51    11385.097     15190.98    18845.452   -1331.0498    4452.0561    3219.8702    75.673621 
   28500     265.0307   -108.41453   0.23980534   -108.17472   -5526.5421    4.2500699    4.2500699    4.2500699   -5526.5421   -19835.263    5821.0388   -2565.4018   -213.51007    2613.6936   -1256.9544    76.769413 
   28600    361.77389   -108.49956   0.32734062   -108.17221   -877.51482    4.2497268    4.2497268    4.2497268   -877.51482   -9129.3306   -6629.8637     13126.65   -351.46684   -178.40352   -7945.8646    76.750823 
   28700    575.58101    -108.6893   0.52079779    -108.1685    11558.997    4.2304412    4.2304412    4.2304412    11558.997    4515.7727    18746.477     11414.74    322.95426    4948.8109   -2054.2738     75.71065 
   28800    307.56401   -108.45237   0.27829038   -108.17408   -4405.6114    4.2550347    4.2550347    4.2550347   -4405.6114   -24486.277    8240.3727    3029.0702   -542.51658    5650.2889   -378.88759    77.038767 
   28900    447.30681   -108.57849    0.4047326   -108.17376   -26.879585    4.2417881    4.2417881    4.2417881   -26.879585     1109.808   -4169.9773    2979.5305    2393.4427   -2243.4801   -7828.3842    76.321502 
   29000    495.17895   -108.62063   0.44804832   -108.17258    17490.777    4.2348969    4.2348969    4.2348969    17490.777    13487.371    19861.201    19123.761   -341.20523   -3063.5978    4442.8542    75.950133 
   29100    340.84872   -108.48246   0.30840708   -108.17406   -4893.7456    4.2562267    4.2562267    4.2562267   -4893.7456   -8621.7739   -2579.8505   -3479.6125   -2530.1634    3414.6792   -1563.9331    77.103531 
   29200    301.52224   -108.44668   0.27282366   -108.17386    1290.2558    4.2360583    4.2360583    4.2360583    1290.2558    5345.8704   -810.88643   -664.21657    2359.7026   -2684.0477   -9603.0885    76.012633 
   29300    459.14071   -108.58943   0.41544016   -108.17399    5643.4455    4.2426577    4.2426577    4.2426577    5643.4455    3082.9871    9580.7139    4266.6354    1083.4675    51.617512    146.89869    76.368453 
   29400    560.32161   -108.67871   0.50699077   -108.17172   -17585.342    4.2532027    4.2532027    4.2532027   -17585.342   -21291.957   -14018.037   -17446.033   -2207.0625    5966.3649    285.76993    76.939304 
   29500    186.61724   -108.34335    0.1688552    -108.1745    -2066.848    4.2330201    4.2330201    4.2330201    -2066.848   -7252.1803   -1307.5132    2359.1494    4893.5265    3289.0216   -8047.1138    75.849199 
   29600    452.48039   -108.58558   0.40941377   -108.17617   -9836.6771    4.2505269    4.2505269    4.2505269   -9836.6771   -8342.7958   -15904.918   -5262.3178    2630.5961   -4590.7722   -6320.0618     76.79418 
   29700    478.97875   -108.60674   0.43339004   -108.17335    849.68019    4.2475718    4.2475718    4.2475718    849.68019   -3330.5756   -5143.1346    11022.751   -1512.9613   -15.505538    5061.0917    76.634124 
   29800    233.42398    -108.3849   0.21120692   -108.17369    5266.2527    4.2322436    4.2322436    4.2322436    5266.2527    10486.674   -487.71532    5799.7998   -1242.0785   -1750.3234   -10670.327    75.807462 
   29900    343.30951    -108.4862   0.31063366   -108.17557   -10265.005    4.2557703    4.2557703    4.2557703   -10265.005   -6558.7758   -23208.293   -1027.9457    294.20077   -6473.2751   -6416.2528    77.078729 
   30000    586.83146   -108.70231   0.53097744   -108.17133    10819.114    4.2376774    4.2376774    4.2376774    10819.114    5234.9247    15722.155    11500.263   -1126.8965   -51.222645    5241.9433    76.099827 
   30100    425.64887   -108.55999   0.38513604   -108.17485   -1984.5244    4.2404122    4.2404122    4.2404122   -1984.5244   -4245.6887   -12023.051    10315.167   -1538.4135     3414.005   -5853.6115     76.24726 
   30200    276.62209   -108.42619   0.25029348    -108.1759    -7575.023    4.2533391    4.2533391    4.2533391    -7575.023   -20809.617   -8085.0043    6169.5519    2885.9579   -2916.5496   -6298.8161    76.946702 
   30300    599.75083   -108.71348   0.54266715   -108.17081    8877.6579    4.2342934    4.2342934    4.2342934    8877.6579    -894.8952    15679.378    11848.491    37.368289   -816.38897   -1755.9541    75.917665 
   30400    387.03482   -108.52436   0.35019724   -108.17416    1995.0824    4.2443856    4.2443856    4.2443856    1995.0824   -4573.6185   -8459.8237    19018.689   -555.81467    -1472.604   -4319.0983    76.461795 
   30500    209.77048   -108.36698   0.18980474   -108.17718   -9746.7196    4.2501991    4.2501991    4.2501991   -9746.7196   -12695.164    1636.5391   -18181.534    2775.3912   -5286.2401   -8839.0665    76.776412 
   30600    396.72265   -108.53303   0.35896299   -108.17406    13224.503    4.2329163    4.2329163    4.2329163    13224.503    15259.066    15594.521    8819.9211   -1142.9756   -5095.0855    3408.8996     75.84362 
   30700    486.35303   -108.61375   0.44006245   -108.17369   -3400.9915    4.2499548    4.2499548    4.2499548   -3400.9915   -172.62382   -8864.8362   -1165.5145    262.08409     2016.104    1244.0482    76.763176 
   30800    269.75444    -108.4197   0.24407949   -108.17562   -9932.8118    4.2458781    4.2458781    4.2458781   -9932.8118   -7483.5853   -4402.5163   -17912.334    2856.4559   -3804.7003    -9451.867    76.542486 
   30900    411.73555   -108.54613   0.37254698   -108.17359    4863.5224    4.2340751    4.2340751    4.2340751    4863.5224   -4327.5881    8234.4543    10683.701    1551.3582   -7477.7111    1638.7221    75.905924 
   31000    625.29027   -108.73637   0.56577578    -108.1706   -11968.508     4.254645     4.254645     4.254645   -11968.508   -16714.426   -9962.1843   -9228.9131    215.64462    3530.3308   -2639.5403    77.017601 
   31100    349.96925   -108.49078   0.31665953   -108.17412    -157.9293    4.2375413    4.2375413    4.2375413    -157.9293    -3465.393    768.95511      2222.65    2390.8914   -7332.7597   -10653.833    76.092497 
   31200    292.88358    -108.4409   0.26500722    -108.1759    504.67561    4.2415258    4.2415258    4.2415258    504.67561    416.21662   -3906.1788    5003.9891    3321.4045   -3971.0958    1513.1154    76.307343 
   31300    491.36191   -108.61604   0.44459458   -108.17144   -1054.9277    4.2500794    4.2500794    4.2500794   -1054.9277   -1558.3758   -6035.8237    4429.4163   -3178.6574    4227.3684    3679.5809    76.769925 
   31400    328.88045   -108.47028   0.29757794    -108.1727    5888.6462    4.2378291    4.2378291    4.2378291    5888.6462     6377.176    -8726.395    20015.158    2031.8467   -4442.2942   -5358.2933    76.107999 
   31500    278.52813   -108.42747    0.2520181   -108.17545   -1072.1634    4.2435518    4.2435518    4.2435518   -1072.1634   -3769.9647   -6996.8637    7550.3383    2949.1418   -4360.6162   -2008.3417    76.416741 
   31600    478.21828   -108.60467   0.43270195   -108.17197   -1598.6385    4.2487148    4.2487148    4.2487148   -1598.6385   -15350.409   -9073.3024    19627.796   -1907.8378    517.32005    3323.0171    76.696004 
   31700    503.47955   -108.62657   0.45555888   -108.17101    2989.7152    4.2372421    4.2372421    4.2372421    2989.7152    1073.3403   -8832.1688    16727.974    2856.8938    412.79464   -3561.3552    76.076378 
   31800    307.66028    -108.4535   0.27837748   -108.17512   -559.49588    4.2452156    4.2452156    4.2452156   -559.49588   -6995.8945   -13089.973     18407.38    2704.6212    -7593.513   -6493.4665    76.506665 
   31900    392.04275   -108.52873   0.35472852     -108.174    1348.9774    4.2470794    4.2470794    4.2470794    1348.9774   -983.18233   -8564.0989    13594.213    1217.3691     3399.093     4537.716    76.607473 
   32000    538.40847   -108.65818    0.4871633   -108.17102    9301.2751    4.2356766    4.2356766    4.2356766    9301.2751    21396.932   -2997.6894    9504.5827    -664.1063    3789.6602   -1025.2112     75.99209 
   32100    257.36841   -108.40769   0.23287235   -108.17481    1300.2897     4.249756     4.249756     4.249756    1300.2897   -1302.9701   -16287.291     21491.13    857.86667   -6888.7647   -7227.0787    76.752403 
   32200     432.2412   -108.56329   0.39110092   -108.17219   -7000.5906     4.242065     4.242065     4.242065   -7000.5906    -9533.656   -6165.1104   -5303.0054    -2527.916    523.11446    4064.8115    76.336448 
   32300    419.42685   -108.55107   0.37950623   -108.17157    3492.8539    4.2399612    4.2399612    4.2399612    3492.8539   -7202.7401   -2556.6806    20237.983    164.51327    2802.0813   -3287.2207    76.222929 
   32400    471.53914   -108.59976   0.42665852   -108.17311   -12208.473    4.2485999    4.2485999    4.2485999   -12208.473   -15133.864   -17940.547   -3551.0067    3927.0829   -3686.6134   -2810.0839    76.689781 
   32500    279.08375   -108.42853   0.25252084   -108.17601    -6911.012    4.2410662    4.2410662    4.2410662    -6911.012   -16090.219    1328.8181    -5971.635    -583.2025    -1969.797    2660.5532    76.282542 
   32600    391.06289   -108.52869   0.35384192   -108.17485    2312.2103    4.2399638    4.2399638    4.2399638    2312.2103    3041.0009   -1814.3539    5709.9837    882.04065    6392.3315    1273.4657    76.223069 
   32700    491.39318   -108.61698   0.44462287   -108.17236   -9547.5756     4.250823     4.250823     4.250823   -9547.5756   -8047.3568   -19810.349   -785.02146    3080.5665   -4063.2175    427.69086    76.810232 
   32800    250.87229    -108.4011   0.22699452   -108.17411    4300.7802    4.2349766    4.2349766    4.2349766    4300.7802    3679.1582    4800.9481    4422.2345    1886.3101   -6867.2907    -797.6386    75.954421 
   32900    440.72849   -108.57442    0.3987804   -108.17564   -7888.8534    4.2472703    4.2472703    4.2472703   -7888.8534    -12353.44   -3842.6417   -7470.4783   -2834.4667    11952.968     4847.571    76.617807 
   33000    526.64055   -108.65023   0.47651544   -108.17372    1087.4387    4.2446851    4.2446851    4.2446851    1087.4387   -9761.1898    -8472.217    21495.723    1062.9797   -950.31344   -4084.4319    76.477985 
   33100    409.67157   -108.54456   0.37067944   -108.17388    1683.3249    4.2362673    4.2362673    4.2362673    1683.3249   -10457.873    11199.215    4308.6325    987.44184   -5826.6918    5332.5722    76.023884 
   33200    276.43324   -108.42479   0.25012261   -108.17467   -7559.2489    4.2519272    4.2519272    4.2519272   -7559.2489   -24658.678   -9146.7973    11127.729    -1179.192    8671.7579    4381.7204      76.8701 
   33300    536.99644   -108.65612   0.48588567   -108.17024    7675.7633    4.2369273    4.2369273    4.2369273    7675.7633    5238.0256    3150.6387    14638.625    3007.8988   -197.44143   -4107.8698    76.059424 
   33400    338.65469   -108.47968   0.30642188   -108.17326    6404.1771    4.2441032    4.2441032    4.2441032    6404.1771    5020.8343   -239.67191    14431.369    950.32751   -2535.9946    5312.0254    76.446536 
   33500    199.31553   -108.35623   0.18034488   -108.17589   -743.19161    4.2475699    4.2475699    4.2475699   -743.19161   -7907.7037   -3589.8764    9268.0052    -791.0178    8543.6896     2676.494    76.634021 
   33600    517.30209   -108.63984   0.46806581   -108.17177    4370.0782    4.2373392    4.2373392    4.2373392    4370.0782    2675.3899    1334.1081    9100.7366   -1327.2936    6257.0834    1732.6485    76.081609 
   33700    484.22013   -108.61096   0.43813255   -108.17283    2182.1502    4.2463435    4.2463435    4.2463435    2182.1502   -7147.3677   -3236.1066    16929.925    1026.4885   -3719.8592    1180.8908    76.567658 
   33800    330.72408   -108.47443    0.2992461   -108.17518   -11479.477    4.2466656    4.2466656    4.2466656   -11479.477   -24602.024   -6943.1913   -2893.2142   -4179.0879      8009.06    3506.7005    76.585084 
   33900    408.60767   -108.54406   0.36971681   -108.17434     7506.029    4.2366773    4.2366773    4.2366773     7506.029   -2766.8726    12634.557    12650.403   -1163.2197    5816.6727    445.10038    76.045962 
   34000    575.79605   -108.69317   0.52099237   -108.17217   -1526.7167    4.2488318    4.2488318    4.2488318   -1526.7167   -3469.3801   -5485.3982    4374.6281    4392.9193   -4250.7139   -5718.0503    76.702338 
   34100    202.37712   -108.35981   0.18311507    -108.1767   -600.92463    4.2423898    4.2423898    4.2423898   -600.92463   -8489.0006    5235.4284    1450.7982    1659.0765    8878.2757    1567.6752    76.353983 
   34200     285.4102   -108.43399   0.25824515   -108.17574   -661.59659    4.2408892    4.2408892    4.2408892   -661.59659   -1966.7319    7749.6434   -7767.7013    2378.0783    10585.743     983.2892    76.272989 
   34300    570.09682   -108.68625   0.51583558   -108.17041   -1540.8317    4.2483428    4.2483428    4.2483428   -1540.8317       385.58   -10147.087    5139.0115    -823.4182   -3453.7169    313.46121    76.675861 
   34400    351.74758   -108.49263    0.3182686   -108.17437   -6611.7842      4.24165      4.24165      4.24165   -6611.7842   -17628.343    4295.6721   -6502.6819    1016.4273    6434.2285    1580.8389    76.314047 
   34500    308.02344   -108.45445   0.27870608   -108.17575   -9523.8464    4.2429014    4.2429014    4.2429014   -9523.8464   -12927.789   -8.5095147   -15635.241    -4471.514    9688.0494    827.14133    76.381612 
   34600    578.66157   -108.69475   0.52358515   -108.17117   -5085.4102    4.2485535    4.2485535    4.2485535   -5085.4102   -5132.1774   -12154.905    2030.8522   -3117.0108   -4171.9505   -2523.8962    76.687272 
   34700    415.01518   -108.54823   0.37551446   -108.17272    3772.5171    4.2389623    4.2389623    4.2389623    3772.5171     9056.535    1465.4886    795.52777    31.401469    6779.0117    869.03059    76.169072 
   34800    219.82132   -108.37484   0.19889895   -108.17594   -3289.5461    4.2468367    4.2468367    4.2468367   -3289.5461   -166.85983   -1511.8772   -8189.9013   -2506.1656    9453.7828   -1713.8976    76.594339 
   34900    488.35578   -108.61363   0.44187457   -108.17176    3682.5034    4.2444622    4.2444622    4.2444622    3682.5034    3948.7127   -1200.3248    8299.1222    4598.6576   -1375.8614   -3161.4154    76.465936 
   35000    500.00642   -108.62373   0.45241632   -108.17132    1928.7381    4.2411303    4.2411303    4.2411303    1928.7381   -4318.4149    4460.2564    5644.3727     3056.629    4660.2987    972.53852    76.286001 
   35100    273.25319   -108.42368   0.24724523   -108.17644   -3190.1085    4.2450685    4.2450685    4.2450685   -3190.1085   -21643.116     9296.533    2776.2576   -1857.6274    6986.8152    1283.2722    76.498712 
   35200    416.29572   -108.55221   0.37667312   -108.17554    3068.8229    4.2426043    4.2426043    4.2426043    3068.8229   -2422.3814   -69.218968    11698.069   -5288.0446   -1880.9695   -2706.3486    76.365568 
   35300    465.90705   -108.59483   0.42156249   -108.17327    8035.1163    4.2416284    4.2416284    4.2416284    8035.1163    3979.0836    3373.4618    16752.803   -257.12114    2458.8838    -3037.291    76.312882 
   35400    320.85876    -108.4652   0.29031975   -108.17488    -1633.861    4.2463662    4.2463662    4.2463662    -1633.861   -1626.1719    552.98358   -3828.3947   -1750.7124    5586.9978    2744.7198    76.568887 
   35500    348.53742   -108.48967   0.31536398   -108.17431    1767.6731    4.2424991    4.2424991    4.2424991    1767.6731    3632.8606   -8040.9933    9711.1519   -3927.4849   -6220.6124   -2308.1858    76.359884 
   35600    506.89336   -108.62993   0.45864777   -108.17129    5413.7698    4.2424152    4.2424152    4.2424152    5413.7698    2315.1492    1985.0963    11941.064    5874.5358    1572.8203   -2508.6542    76.355354 
   35700    491.40337   -108.61706   0.44463209   -108.17242   -7017.4624    4.2469656    4.2469656    4.2469656   -7017.4624   -11963.846    -5682.805   -3405.7359    373.74046    8234.5199    4646.6041    76.601313 
   35800    272.02101    -108.4198   0.24613033   -108.17367     3280.714     4.241167     4.241167     4.241167     3280.714   -5269.4243    5760.2415    9351.3248   -2100.2336   -4211.9554   -3338.7669    76.287984 
   35900     491.5782   -108.61643   0.44479028   -108.17164    -1412.434    4.2444537    4.2444537    4.2444537    -1412.434    2894.7852   -1897.2734   -5234.8138    -2956.221   -1788.7039   -2617.7748    76.465477 
   36000    405.67711    -108.5392   0.36706517   -108.17213    1381.3762    4.2450219    4.2450219    4.2450219    1381.3762    969.87376    73.562049    3100.6929   -1741.4825    7539.3555   -2912.2352    76.496187 
   36100    241.94419   -108.39393   0.21891619   -108.17502     752.6125    4.2406242    4.2406242    4.2406242     752.6125    4050.3081    3475.2061   -5267.6767   -4037.1863   -592.54599   -228.85236    76.258694 
   36200    424.74343   -108.55812   0.38431678    -108.1738   -8193.3722    4.2454272    4.2454272    4.2454272   -8193.3722   -8368.0864   -13018.326   -3193.7041   -883.89518   -4878.8014   -3523.4853    76.518102 
   36300    515.73909   -108.63819   0.46665157   -108.17154   -3817.0796    4.2444802    4.2444802    4.2444802   -3817.0796   -11544.276     920.2412   -827.20386    3245.4978    5571.8211   -2164.7485    76.466908 
   36400    370.45579   -108.50878   0.33519618   -108.17358   -7376.2188    4.2425756    4.2425756    4.2425756   -7376.2188   -10204.132    324.03576    -12248.56   -3912.9059    2861.4573    4701.1199    76.364016 
   36500    307.61946   -108.45315   0.27834056   -108.17481   -3180.6214    4.2454761    4.2454761    4.2454761   -3180.6214    -2550.791   -7507.4347    516.36159    30.789702   -4709.3404   -6854.4159    76.520747 
   36600    549.61201   -108.66853    0.4973005   -108.17123    2049.6067    4.2426896    4.2426896    4.2426896    2049.6067     8068.831     2618.307   -4538.3179   -2600.8641    2569.3248    120.04414    76.370175 
   36700    329.15675   -108.47265   0.29782794   -108.17482    3888.2635    4.2428229    4.2428229    4.2428229    3888.2635    7744.9182    35.555257    3884.3169   -5881.1299   -660.19261    250.20034    76.377372 
   36800    276.84953   -108.42752   0.25049927   -108.17703   -7685.0829    4.2463974    4.2463974    4.2463974   -7685.0829   -4948.7103   -6888.0193   -11218.519   -2582.5043   -5467.7877   -8101.5727    76.570577 
   36900    530.94302   -108.65312    0.4804084   -108.17271    3504.2315     4.240107     4.240107     4.240107    3504.2315     1035.436   -2457.2629    11934.522    5922.1729     807.8294    2103.0865    76.230793 
   37000    494.51512   -108.62043   0.44744768   -108.17298   -3807.2978    4.2466086    4.2466086    4.2466086   -3807.2978   -13038.388    1084.3914    532.10297    560.20297    1696.7356   -1892.1466    76.582002 
   37100    242.70197   -108.39531   0.21960185   -108.17571   -6444.4014    4.2433248    4.2433248    4.2433248   -6444.4014   -16396.725    309.08112   -3245.5608   -4261.9535   -4350.5696   -5501.8325     76.40448 
   37200    406.36302   -108.54236    0.3676858   -108.17467    1227.9825    4.2425341    4.2425341    4.2425341    1227.9825   -6473.7432    -3939.332    14097.023    3963.7481   -3692.1276   -3149.8901    76.361779 
   37300    531.77415   -108.65366   0.48116042    -108.1725    2760.7114    4.2448126    4.2448126    4.2448126    2760.7114     3699.547    9698.9955   -5116.4084   -2865.5495   -964.23246     1464.991    76.484877 
   37400    192.27203   -108.35123   0.17397177   -108.17726   -756.09999    4.2437389    4.2437389    4.2437389   -756.09999     6312.017   -12792.754    4212.4369   -3883.3136   -7675.5409   -2983.6969    76.426852 
   37500    390.58045   -108.52878    0.3534054   -108.17537   -200.03724    4.2419717    4.2419717    4.2419717   -200.03724   -210.09265    -5983.299    5593.2799   -220.35162   -3417.0552   -3020.1793    76.331413 
   37600    610.13668   -108.72323   0.55206449   -108.17117    25.205046    4.2471443    4.2471443    4.2471443    25.205046    2601.8492    461.15111   -2987.3852    2492.6972    3557.8437    2894.3716    76.610987 
   37700    326.10936   -108.47033    0.2950706   -108.17526   -13.291915    4.2413204    4.2413204    4.2413204   -13.291915   -8355.5903   -558.66037    8874.3749    715.12632   -2480.9585   -3076.4752    76.296258 
   37800    358.52918    -108.4996   0.32440473    -108.1752   -6442.2409    4.2455982    4.2455982    4.2455982   -6442.2409   -12181.779    1724.1446   -8869.0887   -3510.7321   -3194.6701   -4491.3701    76.527349 
   37900     548.8092   -108.66757    0.4965741   -108.17099      4568.38    4.2455853    4.2455853    4.2455853      4568.38    3486.8573    3567.8861    6650.3966   -1917.2306     1656.168   -62.445599    76.526654 
   38000    357.26063   -108.49692   0.32325693   -108.17366     3763.313    4.2421413    4.2421413    4.2421413     3763.313    5053.8359   -679.69374    6915.7968   -4273.3544   -3859.7645   -2208.1094     76.34057 
   38100    195.16281   -108.35184   0.17658741   -108.17526   -1003.8683    4.2474388    4.2474388    4.2474388   -1003.8683   -1001.5969    4533.9312   -6543.9392    1294.4598   -6583.4425   -1337.3619    76.626922 
   38200    518.71958      -108.64   0.46934838   -108.17065    7566.9608    4.2409196    4.2409196    4.2409196    7566.9608    749.98108    3022.9526    18927.949    2114.8347   -1388.6179    2904.0386    76.274629 
   38300    400.99619   -108.53643   0.36282978    -108.1736    4270.1767    4.2434668    4.2434668    4.2434668    4270.1767    2908.0479    14153.451   -4250.9684    417.16238    707.97566   -228.01788    76.412149 
   38400    294.43642   -108.44236   0.26641226   -108.17595   -7351.3139    4.2457859    4.2457859    4.2457859   -7351.3139   -15308.678   -6442.6714   -302.59186   -34.845561   -4010.2373   -5151.6065      76.5375 
   38500    519.62624   -108.64325   0.47016874   -108.17308   -2876.6786    4.2429819    4.2429819    4.2429819   -2876.6786   -8494.9351    3603.6562   -3738.7571    660.75407    2773.9183   -2318.5764    76.385958 
   38600    486.93292   -108.61288   0.44058714   -108.17229    1625.8175    4.2429511    4.2429511    4.2429511    1625.8175    5212.2464     562.3095    -897.1034    -2566.704    1116.7746    246.96362    76.384295 
   38700     329.9329   -108.47332   0.29853023   -108.17479    -8228.684    4.2453437    4.2453437    4.2453437    -8228.684   -5880.7619   -15947.436   -2857.8536   -4930.0175   -6285.6526   -6763.7731    76.513587 
   38800    333.51817   -108.47562   0.30177425   -108.17385   -682.18944     4.244607     4.244607     4.244607   -682.18944    2110.0608    2218.4969    -6375.126    4616.9526    5003.1035    850.29243    76.473765 
   38900    491.03171     -108.615   0.44429581    -108.1707    1895.8562    4.2414339    4.2414339    4.2414339    1895.8562    712.47772    3300.4525    1674.6383    3902.4926    384.71508    4857.4742    76.302382 
   39000    260.58765   -108.41022   0.23578518   -108.17444   -5122.8018    4.2469109    4.2469109    4.2469109   -5122.8018   -9785.3814    6435.2767   -12018.301    2295.2701   -5103.3484   -6140.2187    76.598356 
   39100    379.57818   -108.51712   0.34345032   -108.17367   -5284.3812    4.2433887    4.2433887    4.2433887   -5284.3812   -16575.996     7010.538   -6287.6858   -335.94319    4317.1213   -100.25922     76.40793 
   39200    481.92335   -108.60777   0.43605438   -108.17172    2150.9616    4.2439832    4.2439832    4.2439832    2150.9616   -261.28856    13345.354    -6631.181   -1073.6577    4671.0768   -2094.6729    76.440051 
   39300    440.20476   -108.57133   0.39830652   -108.17302   -4327.9575    4.2430803    4.2430803    4.2430803   -4327.9575    5561.6237   -11644.551   -6900.9455   -468.92115   -5671.8883   -5212.8728    76.391275 
   39400    313.20655   -108.45806   0.28339587   -108.17466   -2485.4104    4.2459173    4.2459173    4.2459173   -2485.4104   -9573.1706    7004.8934   -4887.9539   -3015.6739    866.24432   -1057.4651    76.544605 
   39500    428.92864   -108.56053   0.38810365   -108.17243    9453.3982    4.2404424    4.2404424    4.2404424    9453.3982        10299    18320.383   -259.18893    6156.9683     7910.016    2770.5906    76.248889 
   39600    472.30253   -108.60049   0.42734926   -108.17314    1318.9551    4.2443079    4.2443079    4.2443079    1318.9551   -2749.3499    4852.8897    1853.3255    265.85004    -5386.473    1219.6786    76.457596 
   39700    281.68518   -108.42991   0.25487467   -108.17503    212.60211    4.2462309    4.2462309    4.2462309    212.60211   -8351.3678    13888.308   -4899.1336   -2635.8935   -356.22261   -3411.5061    76.561569 
   39800    515.42842   -108.63806   0.46637047   -108.17169   -3036.7576    4.2410833    4.2410833    4.2410833   -3036.7576   -4636.4787   -2429.0579   -2044.7364   -5255.6533     8394.752     1206.766    76.283466 
   39900    453.00697   -108.58124   0.40989022   -108.17135    37.275666    4.2458134    4.2458134    4.2458134    37.275666   -5817.2913    3785.6788    2143.4396   -1840.4702   -3911.8819   -2120.6214    76.538988 
   40000    356.97867   -108.49604    0.3230018   -108.17304    -3521.211    4.2433074    4.2433074    4.2433074    -3521.211    225.00725   -2248.9088   -8539.7315    1276.7751   -1304.7446   -1934.0855    76.403538 
   40100    315.58131   -108.46047    0.2855446   -108.17492    2319.0242     4.243669     4.243669     4.243669    2319.0242   -14184.178    18428.849    2712.4013     1580.592    8491.3786    1843.1475    76.423075 
   40200    426.56532   -108.55822   0.38596527   -108.17225    2655.9091    4.2458641    4.2458641    4.2458641    2655.9091    2001.3602    3559.1681     2407.199    4507.0567   -3505.8547   -764.36583     76.54173 
   40300    387.11717   -108.52316   0.35027175   -108.17288   -3876.2773    4.2420969    4.2420969    4.2420969   -3876.2773   -8722.8355    3320.5743   -6226.5707   -4801.3234    1956.7663    834.23136    76.338171 
   40400    310.93114   -108.45588   0.28133703   -108.17454   -1515.3043    4.2441472    4.2441472    4.2441472   -1515.3043   -9766.3242    6986.4597   -1766.0485   -2354.2825    11927.701   -2573.9508    76.448911 
   40500    551.42405   -108.66989   0.49894007   -108.17095    -2988.805    4.2453329    4.2453329    4.2453329    -2988.805    1324.6283   -6893.7885   -3397.2548   -2002.9094   -405.41342    1746.5899    76.513003 
   40600    418.43801    -108.5513   0.37861151   -108.17269   -1835.4611    4.2424029    4.2424029    4.2424029   -1835.4611    6558.6153    -3746.762   -8318.2366   -1442.1822   -106.08075   -6478.6441    76.354692 
   40700    309.88489   -108.45525   0.28039036   -108.17486    171.06418     4.243122     4.243122     4.243122    171.06418   -5603.9902    1208.3685    4908.8143    2450.8746    7651.2922    920.25942    76.393526 
   40800    447.10344   -108.57752   0.40454859   -108.17297   -1879.8898     4.248277     4.248277     4.248277   -1879.8898   -11447.744    12089.953   -6281.8785    3636.3928    594.34806    2231.7191    76.672298 
   40900    392.52432   -108.52709   0.35516426   -108.17193    8897.9352    4.2384199    4.2384199    4.2384199    8897.9352    9972.7135    10822.169    5898.9229   -181.33617   -2271.9635   -3732.9896    76.139834 
   41000    324.17203   -108.46764   0.29331766   -108.17432   -4835.1035    4.2472819    4.2472819    4.2472819   -4835.1035   -15153.968    8799.0096   -8150.3521   -6829.9949    11242.055    2200.0979    76.618434 
   41100    376.24184   -108.51398   0.34043152   -108.17354    3702.9753    4.2419889    4.2419889    4.2419889    3702.9753     11728.01      1650.51   -2269.5939    757.69773    2941.2584   -4371.0005    76.332339 
   41200     572.3086   -108.69034   0.51783685    -108.1725   -5704.9945    4.2423005    4.2423005    4.2423005   -5704.9945   -9.0614083   -10506.992   -6598.9304    2086.7972   -1401.9062    2781.7945    76.349162 
   41300    318.19847   -108.46357   0.28791266   -108.17566    -1401.494    4.2464479    4.2464479    4.2464479    -1401.494    1100.5377    6537.4095   -11842.429   -2744.5028    4785.1888   -1426.2044    76.573306 
   41400    423.80835   -108.55717   0.38347071    -108.1737   -3474.8145     4.243239     4.243239     4.243239   -3474.8145   -2630.4803    59.172373   -7853.1356    1496.7715   -1116.9328    1419.7413    76.399848 
   41500    448.92248   -108.57811    0.4061945   -108.17192    2663.4932    4.2427144    4.2427144    4.2427144    2663.4932    6140.3498    2662.1492   -812.01935    3452.4598    363.92125    5037.6561    76.371512 
   41600    307.62541    -108.4519   0.27834594   -108.17355    767.49377    4.2467015    4.2467015    4.2467015    767.49377    7904.8673      5380.32   -10982.706     -8094.18    5533.5354   -1313.6781    76.587027 
   41700    367.69486   -108.50596   0.33269804   -108.17326   -3418.4016    4.2415402    4.2415402    4.2415402   -3418.4016   -12253.129    1227.6503     770.2737   -3059.6776    6100.7284    4438.5722    76.308121 
   41800    402.66744   -108.53759   0.36434196   -108.17325    2425.4351     4.243042     4.243042     4.243042    2425.4351    13135.584   -1863.1698   -3996.1093     7133.075   -3646.7861   -1171.2174    76.389208 
   41900    513.63711   -108.63695   0.46474965    -108.1722   -11856.104    4.2490196    4.2490196    4.2490196   -11856.104   -11787.029   -9515.8421   -14265.439    533.29475    5079.4875   -1352.2676    76.712514 
   42000    321.61935   -108.46449   0.29100794   -108.17349    4070.8915    4.2373963    4.2373963    4.2373963    4070.8915    2896.3617     9428.884   -112.57125    412.67171    4919.5608    603.66143    76.084687 
   42100    430.04007   -108.56183    0.3891093   -108.17272   -8752.6251    4.2505528    4.2505528    4.2505528   -8752.6251   -7827.4654   -7436.5889   -10993.821    3222.6647   -4286.9259    1404.1118    76.795584 
   42200    408.14418   -108.54101   0.36929743   -108.17171    7606.5753     4.241018     4.241018     4.241018    7606.5753    15148.824    13795.782   -6124.8805   -2574.5534    7327.0356    795.82823     76.27994 
   42300    391.02997   -108.52783   0.35381214   -108.17402    39.751453    4.2431969    4.2431969    4.2431969    39.751453   -9816.1915    11902.287    -1966.841   -5947.2906    5835.0334    2978.1235    76.397572 
   42400    387.50591    -108.5254   0.35062349   -108.17478   -2860.1938    4.2467957    4.2467957    4.2467957   -2860.1938   -546.43971   -9993.0292    1958.8876    4486.0537   -1138.6921     3879.912    76.592125 
   42500     458.8572   -108.58819   0.41518364     -108.173    3747.5559    4.2404286    4.2404286    4.2404286    3747.5559    1992.9614    3598.5104    5651.1958    3490.1064   -646.56807   -3245.9658    76.248143 
   42600    428.54606   -108.56068   0.38775748   -108.17292   -2217.6313    4.2464656    4.2464656    4.2464656   -2217.6313   -5766.8562   -4426.6218    3540.5841    -2469.011    2957.4633   -1916.9803    76.574264 
   42700    270.06487   -108.41842   0.24436037   -108.17406    2157.6987    4.2458078    4.2458078    4.2458078    2157.6987    6619.4622      4652.03   -4798.3961    896.16476    -5784.786    -1872.166    76.538683 
   42800    470.67863   -108.59825   0.42587991   -108.17237    214.07007    4.2405483    4.2405483    4.2405483    214.07007   -3765.8255    5557.3147    -1149.279    2102.5402    2843.1961   -3366.4921    76.254597 
   42900    416.06487   -108.54918   0.37646424   -108.17271   -3455.8995    4.2477215    4.2477215    4.2477215   -3455.8995   -4039.1822    6461.9595   -12790.476   -5436.8519    4442.4151    1099.8205    76.642223 
   43000     369.5136   -108.50754   0.33434367    -108.1732   -8017.8555    4.2441754    4.2441754    4.2441754   -8017.8555   -17218.955   -4404.9208   -2429.6901     5574.215    -2304.741    2946.2665    76.450437 
   43100    433.24714   -108.56443   0.39201112   -108.17242    1957.7177    4.2418836    4.2418836    4.2418836    1957.7177    10569.251   -10039.565    5343.4669    9697.8058    595.07961    4064.0149    76.326655 
   43200    474.14863   -108.59983   0.42901964   -108.17081   -3860.1895    4.2504815    4.2504815    4.2504815   -3860.1895   -6300.4879   -799.59859   -4480.4822   -6767.4677    -2331.163    807.99156    76.791721 
   43300    279.36565   -108.42519   0.25277591   -108.17242    2310.9771    4.2403989    4.2403989    4.2403989    2310.9771    1752.3857   -11166.051    16346.597    4744.7334   -5615.6371   -953.81234    76.246542 
   43400    375.29961   -108.51176   0.33957897   -108.17218   -1376.0082    4.2472837    4.2472837    4.2472837   -1376.0082   -8663.6136   -2081.2965    6616.8855    6115.5181   -2470.5874   -3035.8074    76.618528 
   43500    517.64294   -108.63801   0.46837421   -108.16963    2038.1685    4.2456794    4.2456794    4.2456794    2038.1685   -6883.2803      11655.6    1342.1855   -4043.1643    6898.1173   -5919.2658    76.531741 
   43600    257.72924   -108.40684   0.23319883   -108.17364   -1840.5746    4.2437845    4.2437845    4.2437845   -1840.5746    620.21757   -10101.628    3959.6869    5613.0352    1582.1521    1812.0118    76.429313 
   43700     373.6629   -108.51094   0.33809805   -108.17284   -1226.1091    4.2425476    4.2425476    4.2425476   -1226.1091   -823.24893    2637.3941   -5492.4724    9664.0974   -1685.7375    793.31247    76.362503 
   43800    508.40017    -108.6303   0.46001116   -108.17029   -3207.7261    4.2498092    4.2498092    4.2498092   -3207.7261     14555.08   -9944.9918   -14233.266   -1234.1893    4100.2106    1311.0209    76.755287 
   43900    390.87884   -108.52773   0.35367539   -108.17405    -5867.045    4.2388581    4.2388581    4.2388581    -5867.045    -8506.926   -2876.1275   -6218.0816   -2190.5521   -4852.1484    6460.3745    76.163454 
   44000    282.50902   -108.43286    0.2556201   -108.17724   -3012.8532    4.2464969    4.2464969    4.2464969   -3012.8532    2685.7518   -10581.925   -1142.3861    4986.2937   -4535.8158    1219.3332    76.575958 
   44100    594.87526   -108.71065   0.53825564   -108.17239   -1892.9532    4.2478696    4.2478696    4.2478696   -1892.9532   -1680.2334    3109.5012   -7108.1273    1680.6269   -165.47894    1370.6149    76.650244 
   44200    338.61862    -108.4797   0.30638925   -108.17331    13162.183    4.2354613    4.2354613    4.2354613    13162.183    20559.031    9984.8535    8942.6653     114.0365     4803.039   -2335.9007    75.980502 
   44300    248.02638   -108.40056   0.22441948   -108.17614   -6746.4819    4.2540261    4.2540261    4.2540261   -6746.4819   -3037.3023   -18113.552    911.40869    8072.2942   -807.98032   -336.38972    76.983996 
   44400    571.42058   -108.68795   0.51703335   -108.17092    11009.562    4.2371941    4.2371941    4.2371941    11009.562    10938.722    13600.389     8489.574   -1083.8598   -2424.8901   -3734.9463    76.073795 
   44500    477.08622    -108.6059   0.43167764   -108.17422    3313.2719    4.2431817    4.2431817    4.2431817    3313.2719    3855.9903   -6072.8353    12156.661   -1464.3958    2892.2902    826.84203    76.396751 
   44600    270.34769   -108.42023   0.24461627   -108.17562   -6932.7449    4.2508623    4.2508623    4.2508623   -6932.7449   -15942.389     -4833.76    -22.08549    7561.6391   -4924.7251    1862.2041     76.81236 
   44700    447.19596   -108.57713    0.4046323    -108.1725    7376.5386    4.2371877    4.2371877    4.2371877    7376.5386    18027.991    9038.7977   -4937.1729    1623.7236   -1131.1999   -1878.0819    76.073449 
   44800    474.52397   -108.60264   0.42935926   -108.17328    1519.9285    4.2447697    4.2447697    4.2447697    1519.9285    2384.5599    5927.0783   -3751.8526    2026.7281   -482.52639    3737.7343    76.482559 
   44900    163.97096   -108.32452   0.14836437   -108.17615   -2926.4658    4.2498197    4.2498197    4.2498197   -2926.4658   -5329.6274   -2121.4694   -1328.3006    9323.1598    1328.4767   -3359.0972    76.755856 
   45000    493.21131    -108.6198   0.44626795   -108.17353   -797.45624     4.235097     4.235097     4.235097   -797.45624   -10072.234     5484.442    2195.4232    4399.8563   -5902.6287    884.17358    75.960898 
   45100     492.8833   -108.62073   0.44597117   -108.17476    106.78584    4.2485455    4.2485455    4.2485455    106.78584   -3076.0308     4747.321   -1350.9327     -6607.16   -1297.1383   -1542.2187    76.686837 
   45200    343.94736    -108.4866    0.3112108   -108.17539   -7683.8842    4.2470505    4.2470505    4.2470505   -7683.8842   -5470.0432   -14354.146   -3227.4633    10257.382   -1980.0168   -110.22612    76.605911 
   45300    306.93739   -108.45181    0.2777234   -108.17409    5598.7694    4.2360109    4.2360109    4.2360109    5598.7694    15139.586    558.88378     1097.838    4612.1255   -8158.2612    2278.9024    76.010082 
   45400    556.22089    -108.6755   0.50328035   -108.17222   -6331.5724     4.250063     4.250063     4.250063   -6331.5724     -2398.65    -941.9232   -15654.144   -974.47058     1921.156   -4098.4016    76.769041 
   45500    409.39457   -108.54413   0.37042881   -108.17371   -7707.6821    4.2446901    4.2446901    4.2446901   -7707.6821   -5142.7061   -15356.104   -2624.2357    6174.9431    -2696.114    3041.8654    76.478256 
   45600    304.91656   -108.44988   0.27589491   -108.17399   -4879.1771    4.2395572    4.2395572    4.2395572   -4879.1771   -10456.161     4634.114   -8815.4841    1637.8869   -5402.8424   -845.20788    76.201148 
   45700    530.08167   -108.65199   0.47962904   -108.17236   -8862.5136    4.2479194    4.2479194    4.2479194   -8862.5136    243.13332   -6951.9102   -19878.764   -844.37925    4636.9212     1130.361    76.652939 
   45800    282.32457   -108.43001    0.2554532   -108.17456    2291.9312     4.244753     4.244753     4.244753    2291.9312    11648.981   -9306.2832     4533.096    423.44029   -4108.6554   -465.21307    76.481654 
   45900    325.99465   -108.46992   0.29496681   -108.17495   -1414.5251    4.2367375    4.2367375    4.2367375   -1414.5251   -3344.2756   -4178.0686    3278.7691     10643.63    -5798.487   -36.064987    76.049203 
   46000    415.14687   -108.54956   0.37563362   -108.17393    -5424.149    4.2515567    4.2515567    4.2515567    -5424.149   -11982.297   -1345.5529   -2944.5968   -3482.1316    254.10104    1742.5724    76.850011 
   46100    494.13105    -108.6192   0.44710016    -108.1721    1982.2725    4.2413376    4.2413376    4.2413376    1982.2725   -7094.1379   -4329.7431    17370.699    3845.4567    2303.8132   -2446.8847    76.297187 
   46200    401.15029   -108.53687   0.36296921    -108.1739      2510.92    4.2387918    4.2387918    4.2387918      2510.92    2333.1988    1305.2373    3894.3239    5620.2072   -2311.8094    1974.4666     76.15988 
   46300    367.07468   -108.50578   0.33213688   -108.17364   -3040.6778    4.2539758    4.2539758    4.2539758   -3040.6778   -9222.7044    237.54014   -136.86906   -4559.3938    4505.7774   -2043.6278    76.981263 
   46400    434.74691   -108.56351   0.39336814   -108.17014    10079.749    4.2378751    4.2378751    4.2378751    10079.749     25202.48   -3182.3058    8219.0737    4822.4539    4774.5165    1902.7505    76.110481 
   46500    437.77567   -108.56854   0.39610863   -108.17243    3468.9444      4.24086      4.24086      4.24086    3468.9444   -770.51164    3446.0112    7731.3335    3698.7691   -9710.0817    3186.4299    76.271415 
   46600     295.9886   -108.44169   0.26781671   -108.17387   -1186.7922      4.25299      4.25299      4.25299   -1186.7922   -13600.769    3559.0134    6481.3789    2689.6491    1417.6631   -1773.8471    76.927762 
   46700    500.78195   -108.62481   0.45311803   -108.17169      3035.62    4.2347095    4.2347095    4.2347095      3035.62    1834.4341     2125.186    5147.2398   -281.15247    6005.6431    2226.5947    75.940047 
   46800    358.19164   -108.49906   0.32409933   -108.17496    8694.5244    4.2434168    4.2434168    4.2434168    8694.5244     8518.599    5654.9852    11909.989    5816.2315     691.6775   -1214.5256    76.409448 
   46900    273.86759   -108.42275   0.24780115   -108.17495   -2969.4331    4.2528802    4.2528802    4.2528802   -2969.4331    3184.0447   -7800.0386   -4292.3053    187.88109    445.14215    608.55364    76.921804 
   47000    450.03144   -108.57792    0.4071979   -108.17072    7256.4184    4.2322157    4.2322157    4.2322157    7256.4184    15443.193      8171.36   -1845.2977   -3858.3151     7463.188   -2245.3123    75.805967 
   47100    461.14424   -108.58952     0.417253   -108.17227   -1024.3046    4.2500463    4.2500463    4.2500463   -1024.3046   -2201.8533   -4864.2051    3993.1446    7563.0356   -594.17849   -1012.6223    76.768136 
   47200    477.92892   -108.60436   0.43244013   -108.17192   -9563.2849     4.247584     4.247584     4.247584   -9563.2849   -16477.892   -8233.5015   -3978.4617    1318.2772   -2587.3676    2452.3233    76.634783 
   47300    322.34183   -108.46503   0.29166166   -108.17337    5100.1223    4.2353965    4.2353965    4.2353965    5100.1223    13354.222    8565.2394   -6619.0949   -53.953905        10594   -1743.7464    75.977014 
   47400    434.81137   -108.56681   0.39342647   -108.17338   -1902.9403    4.2492186    4.2492186    4.2492186   -1902.9403    8788.6624   -15642.648    1145.1649    149.73019    787.55854    3735.3325     76.72329 
   47500    387.84158   -108.52346   0.35092721   -108.17254   -3859.4423    4.2464597    4.2464597    4.2464597   -3859.4423    8862.6237   -10558.994   -9881.9567    1954.9942    1271.5306   -450.62294    76.573947 
   47600    339.88198   -108.48072   0.30753235   -108.17319   -1632.7292    4.2356566    4.2356566    4.2356566   -1632.7292   -9094.9062    12811.065    -8614.346     -4155.18    5004.3365   -231.90252     75.99101 
   47700    493.91377   -108.62045   0.44690356   -108.17354    -14398.01    4.2508364    4.2508364    4.2508364    -14398.01   -15200.369    -18596.55   -9397.1099    1099.7247   -1205.8085    4452.7071    76.810955 
   47800    450.51596   -108.58042   0.40763631   -108.17278   -6841.3074    4.2439039    4.2439039    4.2439039   -6841.3074    -10193.41   -7244.2928   -3086.2194    7939.2693   -823.47876   -1703.2963    76.435769 
   47900    215.95511   -108.36985   0.19540072   -108.17444    5357.3676    4.2366156    4.2366156    4.2366156    5357.3676     17018.29    7836.7935    -8782.981   -2339.7428    3129.7549    24.969759    76.042641 
   48000    433.25427   -108.56585   0.39201757   -108.17383   -9650.0761    4.2514373    4.2514373    4.2514373   -9650.0761   -58.518026   -24638.284    -4253.426    1455.6952    5365.4539    76.635572    76.843538 
   48100    407.37574    -108.5409   0.36860213    -108.1723    3136.4761    4.2428563    4.2428563    4.2428563    3136.4761    7967.1811   -5109.7074    6551.9545    1609.6889   -3610.8505    658.24948    76.379174 
   48200    455.61312   -108.58547   0.41224833   -108.17322   -841.71675    4.2360123    4.2360123    4.2360123   -841.71675   -7166.4688    4806.6057   -165.28721   -1973.8103    4338.5198    227.69032    76.010157 
   48300     405.8065   -108.54166   0.36718225   -108.17448   -9657.8036     4.254889     4.254889     4.254889   -9657.8036   -13089.742   -18578.815    2695.1463    -1621.428    1378.4511   -128.85878     77.03085 
   48400    463.23211   -108.59069   0.41914215   -108.17155    8987.2033    4.2381748    4.2381748    4.2381748    8987.2033    26147.691   -4971.1909    5785.1097    1901.9325   -722.79502    4905.7213    76.126628 
   48500     370.5558   -108.50846   0.33528668   -108.17317    8253.7562    4.2381785    4.2381785    4.2381785    8253.7562    15101.573    3306.7363    6352.9598    3486.8757    6273.0093   -1518.3639    76.126826 
   48600    312.07089   -108.45679    0.2823683   -108.17442   -6930.6988    4.2547561    4.2547561    4.2547561   -6930.6988   -5807.8437   -13990.529    -993.7237   -3777.9295    2439.9623    2320.1246    77.023637 
   48700    461.38571   -108.58958   0.41747149   -108.17211    7425.8921    4.2328158    4.2328158    4.2328158    7425.8921    15254.158   -607.29613    7630.8143    1668.1758   -716.21821    3736.0191    75.838215 
   48800    460.91923   -108.59182    0.4170494   -108.17477   -4566.7436    4.2447683    4.2447683    4.2447683   -4566.7436   -13251.843   -7465.8737    7017.4859    1074.6688    772.67736   -3027.9887    76.482478 
   48900    318.64602   -108.46299   0.28831761   -108.17467   -11443.788    4.2526894    4.2526894    4.2526894   -11443.788   -12402.439   -12535.811   -9393.1132   -2189.2818    2341.8705    4514.2851     76.91145 
   49000    346.93888   -108.48519   0.31391759   -108.17128    11446.696    4.2304956    4.2304956    4.2304956    11446.696    36274.543   -8605.8477    6671.3935    927.28409   -1791.8428     402.3768    75.713571 
   49100    447.38372   -108.57755   0.40480219   -108.17275   -4436.1783    4.2516858    4.2516858    4.2516858   -4436.1783    3830.7071   -15222.527   -1916.7148    2097.9368    6761.3519   -2267.8076    76.857013 
   49200    317.80761   -108.46075   0.28755901    -108.1732    1164.5592    4.2457534    4.2457534    4.2457534    1164.5592    5337.2909   -1961.4186    117.80534       3417.9    3984.2814     2513.696    76.535744 
   49300    480.73728   -108.60595   0.43498119   -108.17097    366.79283    4.2344885    4.2344885    4.2344885    366.79283    7657.5004   -7125.5354    568.41356    -1161.232   -4716.7666   -881.69132    75.928158 
   49400    467.43572   -108.59492   0.42294566   -108.17197   -2912.6322    4.2524527    4.2524527    4.2524527   -2912.6322    6038.5491   -17414.273     2637.827     1172.837    1317.9634   -822.46418    76.898606 
   49500    426.06083   -108.55839   0.38550879   -108.17288    2887.8278     4.239888     4.239888     4.239888    2887.8278    1738.7253    5540.8634    1383.8946   -259.14783   -1649.5014   -64.755045    76.218981 
   49600    306.89706   -108.45169   0.27768691     -108.174    5283.2638    4.2387268    4.2387268    4.2387268    5283.2638    30145.082   -9540.4619   -4754.8285   -3908.6004    898.79861    3029.0802    76.156378 
   49700    416.09573   -108.55058   0.37649216   -108.17408   -4640.4613    4.2501372    4.2501372    4.2501372   -4640.4613   -9409.8619   -18548.306    14036.784   -244.46623     397.3058    1262.1206    76.773059 
   49800    416.23215   -108.55017   0.37661559   -108.17356    6213.9892    4.2356559    4.2356559    4.2356559    6213.9892    503.31201    5965.0695    12173.586     126.5646    8367.8624   -126.09103    75.990976 
   49900    341.97192   -108.48459   0.30942338   -108.17517   -6363.7567    4.2459947    4.2459947    4.2459947   -6363.7567   -6031.8411   -17666.301    4606.8725     816.4589   -1254.0284     3259.655    76.548794 
   50000    389.57048   -108.52636   0.35249156   -108.17387   -7217.8755    4.2457015    4.2457015    4.2457015   -7217.8755    124.86527   -24248.753    2470.2615    -1620.937   -3854.6961   -3759.5202    76.532933 
   50100    469.63235   -108.59695   0.42493322   -108.17202    4005.5925    4.2365988    4.2365988    4.2365988    4005.5925    5797.8929    133.41711    6085.4676    1908.0724    7327.0542   -2745.8804    76.041737 
   50200    393.62918   -108.53048   0.35616395   -108.17431   -7583.7147    4.2494582    4.2494582    4.2494582   -7583.7147   -3129.9881   -18329.989   -1291.1671   -1693.1987   -1970.7544     2010.972    76.736272 
   50300    297.98828   -108.44526   0.26962605   -108.17563    1644.0877    4.2393042    4.2393042    4.2393042    1644.0877    6771.3698    -16553.08    14713.974   -4940.8119    3281.3383   -4199.1276    76.187506 
   50400    502.98628   -108.62896   0.45511256   -108.17385    112.74896    4.2408381    4.2408381    4.2408381    112.74896   -2126.8761   -8818.6312    11283.754    2012.5764    1931.0679    2415.3119    76.270233 
   50500     449.6202   -108.58078   0.40682581   -108.17396   -3335.6077    4.2493897    4.2493897    4.2493897   -3335.6077   -2101.6165    -11783.86    3878.6537   -2370.1917   -1196.8052    1744.2475    76.732558 
   50600    349.46657   -108.49161    0.3162047   -108.17541     1763.647    4.2343736    4.2343736    4.2343736     1763.647    3691.9219   -6664.7223    8263.7413   -1263.3719   -3722.3429   -3555.6471     75.92198 
   50700    368.03083   -108.50936   0.33300203   -108.17636    112.36674    4.2462011    4.2462011    4.2462011    112.36674    11958.459   -17317.731    5696.3719    5168.1677    3490.8056    -2875.445    76.559956 
   50800    407.65035   -108.54159   0.36885061   -108.17274    6055.1854    4.2460719    4.2460719    4.2460719    6055.1854   -1225.1863   -9071.3671     28462.11   -836.85952    2743.7534   -468.63421    76.552966 
   50900    381.25647   -108.51786   0.34496886   -108.17289     5473.366    4.2323423    4.2323423    4.2323423     5473.366     17716.86   -8610.0731    7313.3116   -713.23287   -5042.9613   -1407.4355    75.812767 
   51000    285.56439   -108.43369   0.25838466    -108.1753   -6173.5536      4.25218      4.25218      4.25218   -6173.5536    8916.1937   -32959.535    5522.6802    1507.8641    799.28272   -4312.2222    76.883812 
   51100    596.14942   -108.71048   0.53940853   -108.17107    1922.3967    4.2390905    4.2390905    4.2390905    1922.3967   -3937.2637   -3955.9564     13660.41    2210.4361    675.41192    2316.6387    76.175982 
   51200    429.62499   -108.56119   0.38873372   -108.17246    3130.8098    4.2393018    4.2393018    4.2393018    3130.8098    14960.437   -8323.7108    2755.7027    -1157.893   -5493.5911   -1848.1985    76.187373 
   51300     260.4945   -108.41131    0.2357009   -108.17561    -5560.462    4.2493104    4.2493104    4.2493104    -5560.462    2820.9493   -25516.319    6013.9835    2467.2272    147.00711   -6302.4654    76.728262 
   51400    448.55444   -108.58005   0.40586149   -108.17419   -363.94928    4.2399354    4.2399354    4.2399354   -363.94928   -130.18003   -11935.824    10974.156    8454.2976    4314.8029   -830.49097    76.221539 
   51500    424.92176   -108.55801   0.38447814   -108.17353    9773.5974    4.2376363    4.2376363    4.2376363    9773.5974    16133.255    599.89918    12587.638    331.83287    1721.0772   -2248.4612    76.097614 
   51600    358.61703   -108.50001   0.32448423   -108.17553   -22825.926    4.2535516    4.2535516    4.2535516   -22825.926   -14030.551   -33080.583   -21366.645    3679.2137   -4299.4743    -509.4874    76.958238 
   51700     282.7959   -108.43026   0.25587968   -108.17438    7098.4457    4.2319149    4.2319149    4.2319149    7098.4457    1329.4578   -7623.5185    27589.398    6181.7797    1307.1804    3444.3516    75.789805 
   51800    611.65786   -108.72517   0.55344089   -108.17173   -8880.9863    4.2473175    4.2473175    4.2473175   -8880.9863   -10486.016   -14981.681   -1175.2616   -3383.3808    2917.3219   -83.537268    76.620359 
   51900    347.26428   -108.48975   0.31421202   -108.17554   -4000.4711    4.2446128    4.2446128    4.2446128   -4000.4711    3289.8673   -25787.278    10495.997    2575.8917   -257.78986   -927.13306    76.474079 
   52000     228.1349   -108.38315   0.20642125   -108.17673   -827.10321    4.2380645    4.2380645    4.2380645   -827.10321    819.28444    -25401.38    22100.786    5512.5534    3025.8238    498.97379    76.120683 
   52100    584.76512   -108.70148   0.52910777   -108.17237   -3369.7071    4.2460797    4.2460797    4.2460797   -3369.7071    5875.5105   -13228.355   -2756.2768   -1412.3383   -11.499204   -1519.3723    76.553389 
   52200    411.07737   -108.54568   0.37195144   -108.17373    2880.9127    4.2441191    4.2441191    4.2441191    2880.9127    3410.1217   -12649.091    17881.708    6097.5705   -1759.4463   -3214.6139    76.447394 
   52300    300.21336   -108.44768   0.27163936   -108.17604   -3418.4159    4.2363556    4.2363556    4.2363556   -3418.4159   -3729.6609   -14017.703    7492.1158    6552.5816    600.69404    3614.6302     76.02864 
   52400    358.85276   -108.50144   0.32469751   -108.17675    2190.7044     4.249533     4.249533     4.249533    2190.7044    7385.5436   -16523.739    15710.309   -3251.4544   -1540.2161    5352.6033    76.740323 
   52500    511.27727   -108.63583   0.46261442   -108.17321    8571.2063    4.2399168    4.2399168    4.2399168    8571.2063     9572.058   -3411.4925    19553.053    809.37608    1259.1455   -793.19106    76.220538 
   52600     339.3441    -108.4832   0.30704567   -108.17615    1053.6322    4.2357221    4.2357221    4.2357221    1053.6322     13494.98   -16740.361    6406.2774    3805.8981     2680.247    2123.0952    75.994536 
   52700    243.77385   -108.39737   0.22057171   -108.17679   -3569.7886     4.253109     4.253109     4.253109   -3569.7886    13842.197   -28888.702    4337.1384   -2327.9404    -17.75963    2055.9559    76.934218 
   52800     699.0137   -108.80287   0.63248229   -108.17039    9136.7983    4.2318416    4.2318416    4.2318416    9136.7983    14953.138    122.04167    12335.216   -1321.2815   -1818.8943   -1999.4821    75.785864 
   52900    371.13213    -108.5118   0.33580815   -108.17599    1768.5049    4.2457691    4.2457691    4.2457691    1768.5049    14923.112   -22747.754    13130.157    5882.1422   -3271.3582    1046.1986    76.536592 
   53000    225.07661   -108.38141   0.20365405   -108.17775   -4777.6267    4.2462953    4.2462953    4.2462953   -4777.6267    10816.801   -30449.254    5299.5722   -2658.6744    5555.7793    3405.9401    76.565051 
   53100     498.3507    -108.6258   0.45091818   -108.17489    6949.9575    4.2341979    4.2341979    4.2341979    6949.9575    11311.288     286.5246    9252.0603   -6110.4868   -550.13252    2448.0328    75.912529 
   53200     442.2746   -108.57507   0.40017935   -108.17489    5685.2587    4.2459294    4.2459294    4.2459294    5685.2587    18909.247    -9966.911    8113.4399    2325.3751    954.55026    54.944369    76.545261 
   53300    270.27045   -108.42147   0.24454638   -108.17692   -13307.443    4.2466152    4.2466152    4.2466152   -13307.443    -9969.217   -22156.093   -7797.0201   -2280.0084    704.27299    1476.7477    76.582356 
   53400     326.2406   -108.47106   0.29518935   -108.17587     7139.534    4.2322424    4.2322424    4.2322424     7139.534    9811.5057   -7216.2661    18823.362    -4727.857    2027.4458   -3263.5894      75.8074 
   53500    604.88087   -108.71981   0.54730893    -108.1725   -7206.8686    4.2509033    4.2509033    4.2509033   -7206.8686   -2830.2098   -16798.409   -1991.9871    3203.5985    1129.2801   -715.59287    76.814582 
   53600    345.66058   -108.48982   0.31276096   -108.17705   -5311.9192    4.2397662    4.2397662    4.2397662   -5311.9192   -780.57134   -26095.283    10940.097   -860.54818   -2145.4043     2491.932    76.212417 
   53700     202.1215   -108.36161   0.18288378   -108.17872    1240.6214    4.2387987    4.2387987    4.2387987    1240.6214    4802.5747   -19778.001     18697.29   -7269.5416    6859.9393   -989.65809    76.160252 
   53800    662.94984   -108.77134   0.59985094   -108.17149    -10838.43    4.2499667    4.2499667    4.2499667    -10838.43   -405.91482   -20656.927   -11452.448   -92.742971    839.68843    914.38031    76.763819 
   53900    390.38184   -108.52711    0.3532257   -108.17388    4235.1953    4.2366043    4.2366043    4.2366043    4235.1953    3110.0443   -10612.059      20207.6   -3678.1661    -530.8696    3588.8622     76.04203 
   54000    252.65103   -108.40615   0.22860396   -108.17755   -10398.708    4.2426573    4.2426573    4.2426573   -10398.708   -11976.917   -20139.558    920.34928   -6327.1179    538.85689   -2702.3367    76.368427 
   54100     445.5451   -108.57829   0.40313857   -108.17516   -2416.9166    4.2481799    4.2481799    4.2481799   -2416.9166    14504.225   -12720.889   -9034.0858     2539.118   -448.34655   -5779.7204    76.667038 
   54200    453.55259   -108.58236   0.41038391   -108.17198    11205.655    4.2357966    4.2357966    4.2357966    11205.655     6406.625   -388.70025    27599.041    707.05474    3905.5737   -829.76498    75.998548 
   54300     271.7768   -108.42271   0.24590936    -108.1768   -6976.3721    4.2442362    4.2442362    4.2442362   -6976.3721     5600.976   -20616.359   -5913.7332   -4481.3725    1023.3441    904.61932     76.45372 
   54400    319.73942    -108.4651   0.28930695    -108.1758   -3073.8817    4.2468311    4.2468311    4.2468311   -3073.8817    23041.408    -26890.02   -5373.0331   -479.37022    -1000.411   -3770.1811    76.594038 
   54500    666.44303   -108.77359   0.60301166   -108.17058    5240.5398    4.2346166    4.2346166    4.2346166    5240.5398    8088.0637   -2938.5372    10572.093   -2097.5889    999.33532    930.29356    75.935052 
   54600    359.90023   -108.50113   0.32564529   -108.17548   -9571.3392    4.2502349    4.2502349    4.2502349   -9571.3392    6768.8835   -30487.372   -4995.5295   -5645.3391   -925.18569    393.71296    76.778352 
   54700    250.37493    -108.4029    0.2265445   -108.17636    3700.7065    4.2385963    4.2385963    4.2385963    3700.7065    17617.752   -15727.082    9211.4493   -729.05952   -663.11682   -3733.4079    76.149344 
   54800    566.09414   -108.68551   0.51221387    -108.1733    4441.0316    4.2409324    4.2409324    4.2409324    4441.0316     14373.21   -7897.3715     6847.256    2616.6819   -1395.2454   -1035.6974    76.275323 
   54900    351.88428   -108.49356   0.31839229   -108.17517    7205.9873    4.2448567    4.2448567    4.2448567    7205.9873    16345.473    -11464.23    16736.719   -741.52077    5633.7016   -3251.5892    76.487258 
   55000    269.51017   -108.42046   0.24385847    -108.1766   -6730.9544    4.2419296    4.2419296    4.2419296   -6730.9544    1804.0242   -18879.096   -3117.7916   -529.16995    168.37545   -3489.1716    76.329141 
   55100    443.28978   -108.57503   0.40109791   -108.17393    8828.4926    4.2383929    4.2383929    4.2383929    8828.4926    13343.201   -4393.6473    17535.924    1851.7903   -1364.0197    3433.1144     76.13838 
   55200     582.8852   -108.69982   0.52740678   -108.17242   -4022.0548     4.247932     4.247932     4.247932   -4022.0548   -2595.7686   -15154.614     5684.218   -3584.9205    1711.2717   -1359.9945    76.653622 
   55300    282.44495     -108.432   0.25556212   -108.17644   -78.458043    4.2371338    4.2371338    4.2371338   -78.458043    10434.095   -18654.358    7984.8893   -3959.3411    1056.6732   -4657.3112    76.070544 
   55400    323.94963   -108.47041   0.29311643   -108.17729   -1158.6876    4.2440976    4.2440976    4.2440976   -1158.6876    5295.8923   -25479.691    16707.737    4454.6375   -480.24363    1111.6883    76.446235 
   55500      596.793   -108.71214   0.53999085   -108.17215   -2586.1624    4.2439443    4.2439443    4.2439443   -2586.1624    2914.8967    -14092.15    3418.7664   -324.02635    -828.8701    46.387038    76.437948 
   55600    269.35148   -108.41907   0.24371488   -108.17536    5385.4327    4.2376465    4.2376465    4.2376465    5385.4327    7165.3475   -12240.794    21231.744   -1872.5854    2390.2798   -4909.4824    76.098165 
   55700    305.68171   -108.45254   0.27658724   -108.17596   -11903.986     4.246311     4.246311     4.246311   -11903.986   -7538.5842   -22385.352   -5788.0227    4209.1256    1266.0949    3406.2777    76.565901 
   55800     501.8243   -108.62668   0.45406117   -108.17262    3389.3085    4.2408254    4.2408254    4.2408254    3389.3085    13337.905   -5666.5686    2496.5893   -1620.8641   -2174.1249    5246.1399    76.269551 
   55900    397.86298   -108.53303   0.35999478   -108.17304   -1236.7588    4.2426842    4.2426842    4.2426842   -1236.7588   -3022.2827   -11588.005    10900.011   -3974.7681    4547.8828   -1278.7045    76.369882 
   56000    289.39117   -108.43714   0.26184721    -108.1753   -5955.7474    4.2411269    4.2411269    4.2411269   -5955.7474    16159.221   -23347.642   -10678.822     966.6588    2111.0589    1871.7934    76.285817 
   56100    414.23163   -108.54849   0.37480549   -108.17368    162.84475    4.2447547    4.2447547    4.2447547    162.84475    21849.537   -19660.556   -1700.4463    2866.0324   -397.14774    3769.3161    76.481745 
   56200    622.01063    -108.7348   0.56280829   -108.17199   -978.35194    4.2391173    4.2391173    4.2391173   -978.35194    3962.6766   -6522.3211   -375.41138    649.08205    618.36485   -2279.5507    76.177429 
   56300    262.26055   -108.41372   0.23729886   -108.17642   -7918.1997     4.246228     4.246228     4.246228   -7918.1997    22023.001   -32339.169   -13438.432    2327.2857   -3106.9212    1914.8598     76.56141 
   56400    410.48826   -108.54611    0.3714184   -108.17469   -1390.8519    4.2377442    4.2377442    4.2377442   -1390.8519    14531.048   -15751.848    -2951.756    3875.3755    1792.4895    4084.5118    76.103426 
   56500    505.41892   -108.62992   0.45731366    -108.1726   -2805.5526    4.2465816    4.2465816    4.2465816   -2805.5526    4474.1643   -15039.064    2148.2419   -3019.4369    5094.5947   -1362.9116    76.580538 
   56600     250.6667   -108.40219    0.2268085   -108.17538     5611.426     4.239683     4.239683     4.239683     5611.426    28282.552   -15138.551    3690.2774   -1892.5683    2397.1298    4862.1459     76.20793 
   56700    329.27082   -108.47303   0.29793116    -108.1751   -6020.2095    4.2420855    4.2420855    4.2420855   -6020.2095   -2661.2578   -15474.427    75.055748    4049.3665    1290.1847    4640.3503    76.337558 
   56800    466.61147   -108.59446   0.42219986   -108.17226    2770.8896    4.2433259    4.2433259    4.2433259    2770.8896   -1507.4327   -6217.2312    16037.333    246.15077    753.43788   -1041.5096    76.404538 
   56900    444.64778   -108.57605   0.40232665   -108.17373   -3381.1252    4.2423201    4.2423201    4.2423201   -3381.1252    11742.555   -13204.743    -8681.187     2083.016    -1152.059    6333.0701     76.35022 
   57000    299.07789    -108.4471   0.27061196   -108.17649    1270.6466    4.2394411    4.2394411    4.2394411    1270.6466    10563.943   -21103.103      14351.1    5078.7214   -4568.9562    1950.8625    76.194886 
   57100    501.62711   -108.62796   0.45388275   -108.17408   -3330.6759    4.2473274    4.2473274    4.2473274   -3330.6759    4215.0514   -16902.105    2695.0257    760.86531    4267.0434   -2221.2994    76.620896 
   57200    493.96242   -108.62033   0.44694757   -108.17338    5241.8874    4.2377297    4.2377297    4.2377297    5241.8874    15798.356   -5198.8928    5126.1986    414.68358     6076.197    3116.5798    76.102645 
   57300    296.29746   -108.44436   0.26809617   -108.17627   -1537.9601    4.2425319    4.2425319    4.2425319   -1537.9601    253.36201   -24977.389    20110.147    3383.0747    -1562.403    1195.0358    76.361656 
   57400    386.81324    -108.5242   0.34999674   -108.17421   -3677.7825    4.2459122    4.2459122    4.2459122   -3677.7825    9903.0604    -14800.62   -6135.7876    72.007437   -2751.4531   -556.35444    76.544332 
   57500    461.12714   -108.58886   0.41723752   -108.17162    8486.1581    4.2354601    4.2354601    4.2354601    8486.1581    12398.997    -670.3866    13729.864    1631.8117    1054.6124    149.16977    75.980437 
   57600    315.01039   -108.45945   0.28502802   -108.17442   -2752.5895     4.246481     4.246481     4.246481   -2752.5895    7756.6213   -16707.276      692.886    5707.0936    1435.2699    3199.8452    76.575097 
   57700    362.41938    -108.5023   0.32792467   -108.17437   -2577.2156    4.2417092    4.2417092    4.2417092   -2577.2156    10498.695    -12381.75   -5848.5919   -1353.8561   -951.82814   -2671.3755    76.317242 
   57800    464.64416   -108.59331    0.4204198   -108.17289    4719.9401    4.2390271    4.2390271    4.2390271    4719.9401    5160.1266    839.36118    8160.3326   -3165.3691    8659.7276    -3359.519    76.172565 
   57900    459.87364   -108.58927   0.41610334   -108.17317   -4379.7619    4.2458854    4.2458854    4.2458854   -4379.7619    11213.493   -21782.549   -2570.2293     4961.975   -932.90862    2837.4616    76.542883 
   58000    285.72727   -108.43386   0.25853204   -108.17533   -990.24481    4.2402981    4.2402981    4.2402981   -990.24481    16411.005   -16738.579   -2643.1599     2900.368    943.37701   -5305.5145    76.241105 
   58100     491.1068   -108.61801   0.44436375   -108.17365   -162.93298     4.239641     4.239641     4.239641   -162.93298    4157.8478    -7927.321    3280.6742   -4912.1677    784.71122    1730.4144    76.205662 
   58200     489.9778   -108.61571   0.44334221   -108.17236   -5101.2031    4.2480938    4.2480938    4.2480938   -5101.2031    2239.5737   -16247.404   -1295.7786    2018.8588    730.51847     869.3404    76.662381 
   58300    284.64389   -108.43203   0.25755177   -108.17448     1953.142    4.2348349    4.2348349    4.2348349     1953.142    18981.659   -10568.695   -2553.5385    3196.5191    3150.6024    -6585.101    75.946796 
   58400    378.95434   -108.51813   0.34288585   -108.17525    -5543.266    4.2456174    4.2456174    4.2456174    -5543.266   -13350.434   -14173.804     10894.44   -4717.0498    1162.8293    1354.8141     76.52839 
   58500    435.40528   -108.56593   0.39396385   -108.17197    3222.8919    4.2447528    4.2447528    4.2447528    3222.8919    9875.3904   -9396.1659    9189.4512    209.74686    1223.0677    -4674.541    76.481645 
   58600    333.73051   -108.47482   0.30196637   -108.17285    5571.1421    4.2332814    4.2332814    4.2332814    5571.1421    5743.8585   -5057.7322      16027.3    4313.3433    -2395.063   -3929.2249    75.863244 
   58700    337.03106   -108.47956   0.30495278    -108.1746   -10717.212    4.2500323    4.2500323    4.2500323   -10717.212   -22102.705   -21214.878    11165.947   -2913.9738    3174.3171    170.63945    76.767377 
   58800    499.16051   -108.62377   0.45165092   -108.17211    8787.3248    4.2381055    4.2381055    4.2381055    8787.3248    24130.458    3817.1222   -1585.6057    117.95506    213.80963    705.68442    76.122895 
   58900     502.1309   -108.62811   0.45433859   -108.17377   -1053.4075    4.2398839    4.2398839    4.2398839   -1053.4075   -2353.5192   -16162.257    15355.554    2769.1727   -1517.8784    1277.0875    76.218761 
   59000    266.58291   -108.41717   0.24120982   -108.17596    -4208.345    4.2481814    4.2481814    4.2481814    -4208.345    10044.388   -18093.353   -4576.0694    -5332.891    1670.4946   -2322.9298    76.667122 
   59100    523.74275    -108.6461   0.47389344   -108.17221    1435.2899    4.2375944    4.2375944    4.2375944    1435.2899    3590.3351   -701.75609    1417.2906     -1387.03   -2285.8863    2309.4944    76.095354 
   59200    435.86621    -108.5673   0.39438091   -108.17292    6738.7169    4.2402817    4.2402817    4.2402817    6738.7169    16324.224   -7433.9702    11325.897     7129.901     2225.475   -1768.6323    76.240218 
   59300    268.50227   -108.41948    0.2429465   -108.17653   -12271.305    4.2486861    4.2486861    4.2486861   -12271.305    -1012.029   -20929.263   -14872.624   -1739.2207   -2476.2921    -1141.781    76.694448 
   59400     323.1007   -108.46812    0.2923483   -108.17577    4584.5979    4.2328819    4.2328819    4.2328819    4584.5979    8038.0798    4831.2491    884.46494   -4862.2761     6684.899    1594.9187    75.841771 
   59500    509.41639   -108.63456   0.46093066   -108.17363   -2951.4311    4.2468078    4.2468078    4.2468078   -2951.4311    12247.337   -13883.233   -7218.3971    5585.2023    3595.3626   -2464.7812    76.592777 
   59600    357.83419    -108.4986    0.3237759   -108.17482   -11748.313    4.2448295    4.2448295    4.2448295   -11748.313   -13960.051   -13150.503   -8134.3835   -1752.7462   -871.29377    2564.2405    76.485789 
   59700    280.64299   -108.42851   0.25393167   -108.17458    3889.5159    4.2336014    4.2336014    4.2336014    3889.5159    19619.866    647.00502   -8598.3229     -8460.28    11510.438    1304.8658    75.880451 
   59800    643.36612   -108.75332   0.58213118   -108.17119   -12001.637    4.2500415    4.2500415    4.2500415   -12001.637   -12058.188   -16337.356   -7609.3675    6158.1701   -2544.9465   -458.54176    76.767874 
   59900    368.03955    -108.5077   0.33300992   -108.17469    1686.9735    4.2372746    4.2372746    4.2372746    1686.9735    9964.5285   -7118.4367    2214.8288    3314.4634    4135.0508    995.33138    76.078129 
   60000    290.49566   -108.43922   0.26284658   -108.17637   -6190.9484    4.2411109    4.2411109    4.2411109   -6190.9484   -5692.4754   -10441.562   -2438.8081   -8538.9406    7381.0886   -75.349882    76.284955 
   60100    511.17586   -108.63543   0.46252266   -108.17291   -2608.8457    4.2460128    4.2460128    4.2460128   -2608.8457    6702.4234   -10228.232   -4300.7288    762.17199   -7706.7722    1814.2554    76.549771 
   60200    360.57295   -108.49974   0.32625398   -108.17349    7113.1151     4.237164     4.237164     4.237164    7113.1151    13904.827    1385.6854    6048.8332    3874.7592    5500.3146   -1479.7276    76.072173 
   60300    287.22895   -108.43573   0.25989079   -108.17584   -7629.7739    4.2439679    4.2439679    4.2439679   -7629.7739   -2138.3214   -16114.847    -4636.153   -7766.7391    561.64737    650.69272    76.439224 
   60400    388.39107   -108.52489    0.3514244   -108.17347    4848.1852    4.2439928    4.2439928    4.2439928    4848.1852    14822.295   -3777.3856    3499.6465   -738.05096    2013.1984    1509.1911    76.440569 
   60500    578.42739   -108.69439   0.52337326   -108.17102    4155.4928    4.2369271    4.2369271    4.2369271    4155.4928    9375.6207   -5972.3033    9063.1609    6812.2114    883.97971   -1229.1293    76.059413 
   60600    250.54218   -108.40252   0.22669583   -108.17582    1093.9312    4.2450702    4.2450702    4.2450702    1093.9312    11121.981   -10475.928    2635.7403   -6341.9187    1402.4151    524.33153    76.498802 
   60700     417.3154   -108.55218   0.37759575   -108.17458    2334.2472    4.2416832    4.2416832    4.2416832    2334.2472    6595.8584   -7516.3802    7923.2635   -3642.9759     2784.272   -1731.9653     76.31584 
   60800    553.78726   -108.67349   0.50107835   -108.17241    8558.0855    4.2378594    4.2378594    4.2378594    8558.0855    18510.975   -3214.6348    10377.916    3425.4325   -6330.0417    1048.5424    76.109635 
   60900    340.20006   -108.48361   0.30782016   -108.17579   -1179.3043    4.2448226    4.2448226    4.2448226   -1179.3043    696.36037   -11273.416    7039.1427   -3710.5884    6433.4846    1622.3142    76.485417 
   61000    348.57188   -108.48988   0.31539516   -108.17448   -2337.7302    4.2410785    4.2410785    4.2410785   -2337.7302    2415.3659   -9633.7289    205.17248   -3998.4236    3314.8802   -837.43565    76.283207 
   61100    469.38347   -108.59674   0.42470803   -108.17203    2350.1191    4.2415506    4.2415506    4.2415506    2350.1191    22132.909     -6811.39   -8271.1613    4202.9894   -503.35484    1764.7737    76.308681 
   61200    408.79884   -108.54455   0.36988978   -108.17466    -5667.169    4.2422599    4.2422599    4.2422599    -5667.169   -11095.305   -8654.5524    2748.3504   -2306.9594   -685.93092    289.00416    76.346971 
   61300    217.40293   -108.37402   0.19671074   -108.17731   -5178.2279    4.2427638    4.2427638    4.2427638   -5178.2279    10062.494   -19154.862   -6442.3165   -8569.2858    4011.4717    2617.8879    76.374181 
   61400    479.75352   -108.60793   0.43409107   -108.17384   -1604.2812    4.2399281    4.2399281    4.2399281   -1604.2812    5353.2108   -11823.648    1657.5942    4507.5003    824.33265    1508.3998    76.221148 
   61500    445.26361   -108.57655   0.40288387   -108.17366   -1649.1936     4.244354     4.244354     4.244354   -1649.1936      620.119   -11590.903    6023.2036    -1876.093   -122.40923   -1896.6138    76.460088 
   61600      256.514   -108.40841   0.23209926   -108.17631   -2297.9493    4.2418693    4.2418693    4.2418693   -2297.9493    13470.415   -13567.669   -6796.5942   -6088.4452      9837.08    4070.9823    76.325887 
   61700    474.71437   -108.60371   0.42953154   -108.17418    27.021607    4.2393825    4.2393825    4.2393825    27.021607    8933.7875   -4328.5584   -4524.1643    4593.1288    770.57234   -677.91311    76.191726 
   61800    524.80842   -108.64728   0.47485769   -108.17243   -2101.7423    4.2466763    4.2466763    4.2466763   -2101.7423    10364.664   -13920.346   -2749.5448   -3206.3424   -2249.7236   -2011.0459    76.585664 
   61900     346.0499   -108.48885   0.31311322   -108.17573   -2511.1589    4.2369454    4.2369454    4.2369454   -2511.1589    2568.5905   -10619.159      517.092   -11526.908    2668.2995    5852.1943    76.060398 
   62000    339.87161   -108.48375   0.30752298   -108.17623   -109.84049    4.2420356    4.2420356    4.2420356   -109.84049    22036.858   -13114.198   -9252.1814   -1299.9768   -1816.5415   -255.15432    76.334861 
   62100    497.80137    -108.6227   0.45042114   -108.17228   -935.46673     4.246447     4.246447     4.246447   -935.46673    1383.7763   -12165.648    7975.4712    2003.5111   -210.19913    1813.8639     76.57326 
   62200    316.42236   -108.45971   0.28630561    -108.1734    6893.0841    4.2345329    4.2345329    4.2345329    6893.0841    18354.099   -6610.7697    8935.9228   -9641.7365    123.30406    917.75612    75.930548 
   62300     279.6872   -108.42737   0.25306685    -108.1743   -3485.3477    4.2470738    4.2470738    4.2470738   -3485.3477    6661.3307   -23283.908    6166.5341   -2278.8631     3670.774   -720.98791    76.607172 
   62400    531.91798   -108.65301   0.48129057   -108.17172    982.89632    4.2405724    4.2405724    4.2405724    982.89632    3565.3535   -8508.0729    7891.4084    2895.8767   -581.49925   -1023.9721    76.255899 
   62500    373.84029   -108.51192   0.33825855   -108.17366    8832.7682    4.2379852    4.2379852    4.2379852    8832.7682    19201.799     -4779.52    12076.025   -10337.761    473.90792   -1536.5401    76.116414 
   62600    399.51004   -108.53525   0.36148508   -108.17377   -7445.0273     4.247708     4.247708     4.247708   -7445.0273   -10457.432   -20430.154    8552.5043   -4442.7964     5855.463    2108.0189    76.641495 
   62700    450.51326    -108.5795   0.40763386   -108.17187    5408.2402    4.2387659    4.2387659    4.2387659    5408.2402    16430.925    461.39894   -667.60287    800.19491   -1304.1877    -3987.697    76.158486 
   62800    467.48777   -108.59565   0.42299276   -108.17266    2540.6875    4.2403578    4.2403578    4.2403578    2540.6875   -2531.4806   -13626.528    23780.071   -6167.4662   -2452.5131    2386.7241    76.244321 
   62900    360.87547   -108.50102   0.32652771   -108.17449   -10840.152    4.2474742    4.2474742    4.2474742   -10840.152   -8916.4548   -15740.472   -7863.5284   -175.84767    5262.7025   -1946.7903    76.628838 
   63000    335.62162   -108.47733    0.3036775   -108.17365     2983.409    4.2340494    4.2340494    4.2340494     2983.409    22253.689   -3348.3194   -9955.1422   -850.02016     3686.173   -7411.7321    75.904539 
   63100    473.58536   -108.60184   0.42850999   -108.17333   -8629.2917    4.2469852    4.2469852    4.2469852   -8629.2917   -14503.801   -11396.323    12.249312   -7787.2896   -5929.0771    3155.1966    76.602377 
   63200    326.71827   -108.46979   0.29562155   -108.17417   -5610.7658    4.2433004    4.2433004    4.2433004   -5610.7658   -121.08069   -10314.204   -6397.0126   -3455.5519    9311.0449   -4865.6297    76.403165 
   63300    364.52651   -108.50218   0.32983124   -108.17235   -179.43619     4.233113     4.233113     4.233113   -179.43619    7386.7801   -6581.3595   -1343.7291    2108.5504    5450.8271   -3869.2998     75.85419 
   63400    422.94523   -108.55513   0.38268973   -108.17244   -11593.527    4.2529128    4.2529128    4.2529128   -11593.527   -19032.014   -18204.676    2456.1088   -5420.4275   -8366.7584    1245.0012    76.923572 
   63500     367.9573   -108.50602    0.3329355   -108.17308     10583.58    4.2339579    4.2339579    4.2339579     10583.58    6612.7084    5856.8139    19281.218   -4729.7689    2012.2372   -2426.3406    75.899621 
   63600     510.5985   -108.63478   0.46200025   -108.17278   -6385.1972     4.241164     4.241164     4.241164   -6385.1972   -2134.6238   -12720.871   -4300.0968    6951.4172     4611.936   -4036.1394    76.287821 
   63700    348.92733   -108.48876   0.31571678   -108.17305   -912.75468    4.2496055    4.2496055    4.2496055   -912.75468   -8398.8427   -4935.8584    10596.437   -4191.4273   -5798.0041   -2420.9882    76.744251 
   63800    488.19426   -108.61257   0.44172843   -108.17084    6553.1682    4.2324077    4.2324077    4.2324077    6553.1682    73.830546     3269.831    16315.843    -7309.271   -4943.5869    1662.5988    75.816284 
   63900    360.52944    -108.4994   0.32621462   -108.17319    2094.6846    4.2451644    4.2451644    4.2451644    2094.6846    710.26863   -9285.3483    14859.133    1416.9504    6647.8241   -3956.0314    76.503891 
   64000    325.70307   -108.46987   0.29470299   -108.17517   -4902.0716    4.2452641    4.2452641    4.2452641   -4902.0716   -5051.5541   -1898.1483   -7756.5124   -2995.6044   -5708.7663   -110.45915    76.509284 
   64100    386.14917   -108.52357   0.34939588   -108.17418     10443.09    4.2296313    4.2296313    4.2296313     10443.09   -2149.7468    10242.918    23236.099   -5307.1196   -9937.4641    1798.7094    75.667176 
   64200    477.26078    -108.6043   0.43183558   -108.17246   -13225.451    4.2547486    4.2547486    4.2547486   -13225.451    -6094.084   -20468.088   -13114.182    353.95362    7373.6751   -4349.5477    77.023228 
   64300    334.35968   -108.47514   0.30253566    -108.1726    396.05386    4.2353678    4.2353678    4.2353678    396.05386   -2422.9626    2481.2578    1129.8663   -1026.7167     -5402.25   -1328.2791     75.97547 
   64400     370.2795   -108.50906   0.33503668   -108.17403    4.4263076    4.2381467    4.2381467    4.2381467    4.4263076   -8051.9911   -6168.3053    14233.575   -7623.6113   -9914.5432    509.43217    76.125112 
   64500      497.911   -108.62181   0.45052034   -108.17129   -5191.0386    4.2517275    4.2517275    4.2517275   -5191.0386   -6795.0075   -9924.2381    1146.1299    1313.3519   -1074.4409     520.5795     76.85927 
   64600    392.98403   -108.52779   0.35558021   -108.17221    4270.6974    4.2310768    4.2310768    4.2310768    4270.6974   -2361.8101     6020.756    9153.1465   -1186.6472   -2417.9071   -1336.9971    75.744783 
   64700    312.40518   -108.45799   0.28267077   -108.17532   -8687.7591    4.2463147    4.2463147    4.2463147   -8687.7591   -14191.984   -9055.6255    -2815.668   -10509.727   -10178.259    -1072.005    76.566103 
   64800     500.1095   -108.62451   0.45250958     -108.172    2918.0718    4.2438435    4.2438435    4.2438435    2918.0718   -4116.5348   -197.21572    13067.966    2285.6818    697.45239    3290.7462    76.432504 
   64900    442.45704   -108.57258   0.40034442   -108.17223    4456.2614    4.2344869    4.2344869    4.2344869    4456.2614    3784.5638    822.75272    8761.4677   -29.466928     2820.886   -3439.0694    75.928076 
   65000    162.42691   -108.32444   0.14696728   -108.17748   -2425.4327    4.2457984    4.2457984    4.2457984   -2425.4327   -18440.807   -7527.1017    18691.611   -8840.0268   -12051.756    2168.2489    76.538175 
   65100    499.45793   -108.62617   0.45192003   -108.17425    4785.6598     4.239783     4.239783     4.239783    4785.6598    631.39524    6283.9731    7441.6111    -911.8663   -101.68466   -150.28159    76.213322 
   65200     561.5434   -108.68143   0.50809627   -108.17333    3252.5513    4.2402909    4.2402909    4.2402909    3252.5513     1211.277   -8807.6264    17354.003   -874.14542   -1240.9684   -2861.7711    76.240712 
   65300    201.61542      -108.36   0.18242587   -108.17758   -4351.5341    4.2448773    4.2448773    4.2448773   -4351.5341   -11084.769   -6063.6945    4093.8613   -7144.9586   -11575.474    90.245149    76.488375 
   65400    454.88006    -108.5867   0.41158503   -108.17511     3676.086    4.2376755    4.2376755    4.2376755     3676.086     1500.786    1411.6291    8115.8428   -3490.3298   -3996.0431   -3874.9086    76.099725 
   65500    603.76844   -108.71863   0.54630237   -108.17233    2302.3914    4.2436166    4.2436166    4.2436166    2302.3914    -1740.469   -4436.4659    13084.109    1456.2098    4045.7972     2397.533    76.420242 
   65600    235.99552   -108.39193    0.2135337   -108.17839    -4387.553    4.2402836    4.2402836    4.2402836    -4387.553   -5532.4605   -23.078929   -7607.1195   -4858.6221   -10316.351    -3087.136    76.240322 
   65700    335.54459   -108.48221    0.3036078    -108.1786   -6112.6001    4.2403257    4.2403257    4.2403257   -6112.6001   -3555.9809   -219.66136   -14562.158   -3496.0193   -7410.8353    5209.4368    76.242594 
   65800    534.10866    -108.6565   0.48327274   -108.17323    2774.5255    4.2452139    4.2452139    4.2452139    2774.5255    4170.0636   -4417.1941    8570.7071    1721.9503    5406.2653    972.93824    76.506569 
   65900    345.99092   -108.48961   0.31305985   -108.17655   -768.77019    4.2373369    4.2373369    4.2373369   -768.77019   -72.268105   -1604.8097   -629.23279   -4382.6015   -10170.775   -3585.3228    76.081486 
   66000    213.78404   -108.37254   0.19343629   -108.17911   -4375.0488     4.242861     4.242861     4.242861   -4375.0488   -15397.351    4317.2322   -2045.0273   -5194.9895   -10354.968    5052.4423     76.37943 
   66100    557.26029   -108.67735   0.50422082   -108.17313    2431.7171    4.2438463    4.2438463    4.2438463    2431.7171   -1798.4349   -7400.5539     16494.14    2730.3598    2128.3185   -5080.6282    76.432653 
   66200    514.87403   -108.63925   0.46586884   -108.17338    1124.0859    4.2380375    4.2380375    4.2380375    1124.0859   -1742.3202    4264.1462    850.43166   -3545.8097   -6667.3182   -1345.1585    76.119227 
   66300    218.91497   -108.37514   0.19807887   -108.17706   -2551.6183    4.2444732    4.2444732    4.2444732   -2551.6183   -18411.749    2920.9291    7835.9653   -7147.5921   -8838.5612    911.67049    76.466529 
   66400    491.74488   -108.61876    0.4449411   -108.17381   -259.14324    4.2427313    4.2427313    4.2427313   -259.14324    786.77981   -3237.5089    1673.2993    13.578784     6454.408    6079.6836    76.372425 
   66500    488.23267   -108.61409   0.44176318   -108.17233    6696.5655    4.2371327    4.2371327    4.2371327    6696.5655    873.94916     9441.066    9774.6812   -702.18536   -1950.8163    2849.9491    76.070489 
   66600    203.07884   -108.35995   0.18375001    -108.1762   -6655.6887    4.2479543    4.2479543    4.2479543   -6655.6887   -21291.987    253.34032    1071.5803   -6037.6415   -9695.2826   -1897.2471    76.654828 
   66700    450.42059   -108.57969   0.40755001   -108.17214   -4857.8314    4.2387929    4.2387929    4.2387929   -4857.8314   -1551.2865   -5784.6256   -7237.5822    -1107.811    4716.3181    7001.6783    76.159943 
   66800    458.72504   -108.58593   0.41506406   -108.17087    2732.3032    4.2404543    4.2404543    4.2404543    2732.3032   -2972.2099    4530.8314     6638.288      3275.01   -2191.4826   -3475.1844    76.249527 
   66900    379.28701     -108.517   0.34318686   -108.17381   -13120.579     4.245778     4.245778     4.245778   -13120.579   -18634.515   -10119.744   -10607.477   -7540.3112   -6924.0453   -931.44516    76.537074 
   67000    281.59721   -108.43066   0.25479507   -108.17587   -371.11767    4.2390862    4.2390862    4.2390862   -371.11767    4623.6781   -1747.8947   -3989.1364   -3148.8149    5186.1707    3741.2765     76.17575 
   67100    522.09692   -108.64482   0.47240426   -108.17242    3761.9506    4.2411028    4.2411028    4.2411028    3761.9506   -237.92623    1308.5692    10215.209    2063.2984    2897.4469   -1296.3885    76.284516 
   67200    439.86813   -108.57164   0.39800193   -108.17364   -7831.8899    4.2464708    4.2464708    4.2464708   -7831.8899   -8351.0096   -10367.289   -4777.3712   -9088.2451   -3907.3264    4649.2907    76.574547 
   67300    273.05936    -108.4218   0.24706985   -108.17473    1530.0856    4.2353269    4.2353269    4.2353269    1530.0856    2649.2546   -2617.3835    4558.3857   -3181.6231   -889.52686    3282.4282    75.973267 
   67400    545.61402   -108.66625   0.49368303   -108.17257   -6857.3218    4.2453215    4.2453215    4.2453215   -6857.3218   -5688.4323   -10387.434   -4496.0991    3122.5161    5945.9428    908.24223    76.512388 
   67500    395.88257   -108.53163   0.35820287   -108.17342   -39.260468     4.244519     4.244519     4.244519   -39.260468    8493.3679   -12773.251    4162.1021   -6759.8581    -4542.759   -1635.1009    76.469004 
   67600    299.42902    -108.4453   0.27092967   -108.17437    4962.2803    4.2330107    4.2330107    4.2330107    4962.2803    312.04074    374.14357    14200.657   -6100.5404   -1000.2475    3959.1197    75.848693 
   67700    363.01406   -108.50287   0.32846275   -108.17441   -1284.9386    4.2481515    4.2481515    4.2481515   -1284.9386    8507.1445   -12544.867    182.90692    2556.5461    7170.2949    2895.0436    76.665502 
   67800    470.47098   -108.59774   0.42569203   -108.17205    2672.1464    4.2405411    4.2405411    4.2405411    2672.1464     457.1475   -4867.5437    12426.835   -5605.7082   -3668.1108   -4439.1149    76.254213 
   67900     400.2369    -108.5359   0.36214275   -108.17376    3324.1972    4.2352713    4.2352713    4.2352713    3324.1972   -3582.3465    484.45011    13070.488   -8160.9036   -5211.2571    3680.3584    75.970276 
   68000    368.55844    -108.5076   0.33347942   -108.17412   -5570.2968    4.2509247    4.2509247    4.2509247   -5570.2968   -4107.4092    -14256.09    1652.6092    3947.1853    3630.0507    2805.0757    76.815743 
   68100    498.69559   -108.62308   0.45123025   -108.17185    1833.6874    4.2371626    4.2371626    4.2371626    1833.6874   -6690.6427   -4866.5519    17058.257   -7519.6204     5399.017   -3033.0848    76.072099 
   68200    381.44734   -108.51837   0.34514157   -108.17322    4488.0878    4.2387957    4.2387957    4.2387957    4488.0878    504.85247   -11115.649     24075.06   -8412.4975   -1631.3172    493.22782    76.160093 
   68300    386.71389   -108.52256   0.34990686   -108.17265   -14517.833    4.2502947    4.2502947    4.2502947   -14517.833    -11665.34   -17225.166   -14662.993    2970.7517    1227.7258    2924.6808    76.781595 
   68400    336.23577   -108.47659   0.30423319   -108.17236    2185.7182    4.2331025    4.2331025    4.2331025    2185.7182    10352.868   -5743.9697    1948.2564   -9314.6692    5323.8424    130.57565    75.853626 
   68500    483.97318   -108.61116    0.4379091   -108.17325   -8780.1423    4.2459042    4.2459042    4.2459042   -8780.1423    -12048.14   -15144.701     852.4133   -8529.0569    -5039.867    545.38733    76.543895 
   68600     355.8399   -108.49647   0.32197142    -108.1745   -6533.4384    4.2450665    4.2450665    4.2450665   -6533.4384    2980.5208   -3041.7808   -19539.055    2003.2989    30.051814    2424.1117    76.498602 
   68700    301.98041   -108.44662   0.27323823   -108.17338    2425.3347    4.2326864    4.2326864    4.2326864    2425.3347    6034.8125    2226.9392   -985.74767   -3735.9404     3963.473   -2510.7516    75.831261 
   68800    425.47564   -108.55791    0.3849793   -108.17294   -6972.9416    4.2513695    4.2513695    4.2513695   -6972.9416    459.37512   -20520.892   -857.30797    -6906.438     3622.352    -5361.572    76.839859 
   68900    417.03449   -108.54975   0.37734157   -108.17241    12067.818     4.236366     4.236366     4.236366    12067.818    18221.696    7996.5773    9985.1795    1493.8959    2314.1665    2073.7835    76.029201 
   69000    409.51427   -108.54482   0.37053711   -108.17428   -2815.3672    4.2401728    4.2401728    4.2401728   -2815.3672    3973.6649   -13681.385    1261.6185   -1750.1263    605.88725   -3588.2468    76.234343 
   69100     363.9982   -108.50308   0.32935322   -108.17373   -376.90109    4.2497709    4.2497709    4.2497709   -376.90109    12731.784   -18915.789    5053.3011   -11037.659     507.8362   -4085.0458    76.753211 
   69200    637.78862   -108.74712   0.57708455   -108.17003    4054.4867    4.2332338    4.2332338    4.2332338    4054.4867    2822.1751    4016.9183    5324.3666    1287.5952    502.98127     6619.171    75.860688 
   69300    290.13918    -108.4372   0.26252403   -108.17468    862.91882    4.2441653    4.2441653    4.2441653    862.91882    22539.987   -11096.634   -8854.5968   -515.93227    473.69771   -1425.1839     76.44989 
   69400    324.69532   -108.46798   0.29379115   -108.17419    -7931.963    4.2477993    4.2477993    4.2477993    -7931.963   -8407.4005   -14363.814   -1024.6746   -9314.1339   -443.49544    -4099.678    76.646436 
   69500    461.71821   -108.58803   0.41777234   -108.17025     16406.53    4.2302565    4.2302565    4.2302565     16406.53    15734.229    10666.239    22819.123    2946.9697    -1.392033   -1554.3226    75.700737 
   69600    346.62489   -108.48716   0.31363349   -108.17353   -5903.9833    4.2496481    4.2496481    4.2496481   -5903.9833   -3898.1686   -8731.4034   -5082.3778    -1213.075    352.00216    -2992.334    76.746558 
   69700    232.36798    -108.3869   0.21025143   -108.17665   -4827.0893    4.2398035    4.2398035    4.2398035   -4827.0893   -6819.5499   -8785.0247    1123.3067   -9302.7836    -635.2078   -6689.3107    76.214429 
   69800    504.29075   -108.63062   0.45629287   -108.17433    6742.9921    4.2353874    4.2353874    4.2353874    6742.9921    7675.2803   -5145.9655    17699.661   -3857.0121    146.00854   -2974.5347    75.976522 
   69900    549.55217   -108.66959   0.49724635   -108.17234   -9219.6708    4.2513684    4.2513684    4.2513684   -9219.6708    -12073.05   -7888.2192   -7697.7429    51.379307    599.39737    1499.7759    76.839798 
   70000    276.75956   -108.42534   0.25041786   -108.17492    -1703.038    4.2353616    4.2353616    4.2353616    -1703.038    3498.3456   -12075.732    3468.2724   -9498.0011    4250.4705   -3778.9812    75.975134 
   70100    499.46544   -108.62765   0.45192683   -108.17573   -2510.7544     4.241853     4.241853     4.241853   -2510.7544   -8183.4772    -10099.44    10750.654   -4221.8782   -1666.6592    1396.7079    76.325003 
   70200    503.40184   -108.62957   0.45548856   -108.17408    1458.2632    4.2463566    4.2463566    4.2463566    1458.2632    3453.2412   -2900.4966     3822.045    4586.4828   -457.74695   -1458.7618    76.568366 
   70300    294.12042   -108.44199   0.26612633   -108.17586   -279.73437    4.2339306    4.2339306    4.2339306   -279.73437    -4315.346   -7507.2465    10983.389   -12921.481    915.86126   -7506.2123    75.898153 
   70400    251.47117   -108.40436    0.2275364   -108.17683    505.90504     4.245668     4.245668     4.245668    505.90504     7718.903   -11931.663    5730.4751   -5956.9677   -1241.5308   -1824.7081    76.531124 
   70500    570.20267   -108.68735   0.51593136   -108.17142   -1166.1372    4.2420413    4.2420413    4.2420413   -1166.1372    9099.4751   -4004.9468   -8592.9399    4617.7885   -1523.8012     191.8284     76.33517 
   70600    282.65603   -108.43071   0.25575312   -108.17496   -660.91767    4.2371573    4.2371573    4.2371573   -660.91767    5153.2292   -4648.8617   -2487.1205   -8537.6037    -1480.206   -3429.1725    76.071812 
   70700    302.06699   -108.44938   0.27331656   -108.17606   -8010.4688     4.246229     4.246229     4.246229   -8010.4688    4291.9881    -23668.48   -4654.9141   -7520.4318     3895.027   -3372.5352    76.561466 
   70800    574.25125   -108.69202    0.5195946   -108.17243    3510.3781    4.2382768    4.2382768    4.2382768    3510.3781   -2451.3453   -246.72469    13229.204    5131.6356   -1824.6248    5845.3661    76.132122 
   70900    387.92952   -108.52519   0.35100678   -108.17418    5146.7909    4.2390645    4.2390645    4.2390645    5146.7909    7295.3078   -3658.8751     11803.94   -4278.5897   -3541.7818   -4644.4784    76.174584 
   71000     333.5572   -108.47774   0.30180957   -108.17593   -10374.978    4.2473028    4.2473028    4.2473028   -10374.978   -8584.4736   -24802.919    2262.4582   -11809.229    3372.6745   -6161.5089    76.619564 
   71100     449.5615    -108.5799    0.4067727   -108.17313    6356.3671    4.2363281    4.2363281    4.2363281    6356.3671    7009.9436    3089.6885    8969.4691    3814.7569   -4183.8465    2901.8487    76.027159 
   71200    524.98957    -108.6475   0.47502159   -108.17248   -3739.3074    4.2427822    4.2427822    4.2427822   -3739.3074     846.8821   -8493.7053   -3571.0989   -1816.2483   -3026.2017   -444.35254    76.375176 
   71300    287.38609   -108.43507   0.26003297   -108.17503   -6519.3656    4.2440843    4.2440843    4.2440843   -6519.3656   -9304.6344   -17357.883    7104.4206   -9116.3105    2545.9474    -3077.899    76.445514 
   71400    383.69596   -108.52064   0.34717616   -108.17347     711.5976    4.2362815    4.2362815    4.2362815     711.5976    7487.9358   -946.02431   -4407.1187    4831.7057    1829.7978   -229.49651    76.024648 
   71500    493.73757   -108.61877   0.44674413   -108.17203   -4372.2263    4.2446708    4.2446708    4.2446708   -4372.2263   -3306.9461   -12426.407    2616.6738    2376.1196   -1049.1276    881.24542    76.477213 
   71600    305.70073   -108.45161   0.27660445   -108.17501   -1010.6747    4.2410683    4.2410683    4.2410683   -1010.6747    2534.8978   -6543.6746    976.75283   -9255.5208    444.22172   -7225.4477    76.282654 
   71700    275.09523   -108.42478   0.24891194   -108.17586    4128.3689    4.2378778    4.2378778    4.2378778    4128.3689    11202.343   -4098.4973    5281.2606    -1968.772    6167.7555    1014.6153    76.110623 
   71800    508.88983   -108.63343   0.46045421   -108.17298   -1548.8638    4.2448767    4.2448767    4.2448767   -1548.8638    3543.8075   -9267.3804    1076.9815    4955.3181   -2252.1244      3541.42    76.488343 
   71900     406.2065   -108.54098   0.36754418   -108.17344    3264.6495      4.23968      4.23968      4.23968    3264.6495    9567.8645   -493.95434    720.03831    -6501.581   -424.43356   -4415.2899    76.207769 
   72000    362.15228   -108.50244   0.32768299   -108.17476   -2329.8657    4.2396857    4.2396857    4.2396857   -2329.8657    6021.5545   -13703.535    692.38286   -2047.9891    5463.5767    5833.2516    76.208073 
   72100    432.70128   -108.56493   0.39151721   -108.17342   -966.13678    4.2457412    4.2457412    4.2457412   -966.13678    10726.094   -11937.046   -1687.4588    9895.8475   -2676.6199    3824.7905    76.535082 
   72200    505.61279   -108.62907   0.45748908   -108.17158    7206.0541    4.2369605    4.2369605    4.2369605    7206.0541    13093.773    -2677.044    11201.433   -3482.4257     1098.404   -4652.7204    76.061214 
   72300    300.28019   -108.44652   0.27169982   -108.17482   -1200.2238     4.243516     4.243516     4.243516   -1200.2238    15192.304    -14723.94   -4069.0357   -5965.4352    385.61528   -1406.2462    76.414811 
   72400    357.33944   -108.49858   0.32332824   -108.17525   -2718.0163    4.2412627    4.2412627    4.2412627   -2718.0163    4287.0538   -9648.5628   -2792.5399    6741.8143    2114.2288    4406.6593    76.293143 
   72500    549.91304   -108.67023   0.49757287   -108.17266    -1340.456    4.2400418    4.2400418    4.2400418    -1340.456   -491.54141   -1997.6337   -1532.1928    2955.1466   -1926.9671   -1867.6599     76.22728 
   72600    321.29657   -108.46621   0.29071589    -108.1755   -201.19833    4.2432889    4.2432889    4.2432889   -201.19833    13377.708    -7636.421   -6344.8816   -5677.7364    3107.4439   -2301.6925     76.40254 
   72700    316.98811   -108.46224    0.2868175   -108.17542   -2978.8756    4.2407262    4.2407262    4.2407262   -2978.8756    721.16468   -13025.414    3367.6225    9196.2593    1654.2404    8115.4753    76.264196 
   72800    441.97181   -108.57225   0.39990538   -108.17235    2349.0818    4.2431239    4.2431239    4.2431239    2349.0818    12908.293   -11264.599    5403.5517    6059.8998   -2820.3317    1674.6151     76.39363 
   72900    457.72655   -108.58674    0.4141606   -108.17258     153.6792    4.2382566    4.2382566    4.2382566     153.6792     1148.931   -8748.7127    8060.8194   -8829.4696   -517.20022    103.70657    76.131036 
   73000    241.38323   -108.39481   0.21840862    -108.1764   -5995.6354    4.2441747    4.2441747    4.2441747   -5995.6354    -9949.341   -20557.518    12519.953     5695.714    2842.2859     4515.319    76.450397 
   73100    464.98673   -108.59453   0.42072977    -108.1738    1784.9541    4.2407852    4.2407852    4.2407852    1784.9541    8001.3073   -8438.1482    5791.7031    8053.9957   -2486.5451   -519.92828    76.267378 
   73200    539.11833   -108.66017    0.4878056   -108.17236    5978.4482    4.2398313    4.2398313    4.2398313    5978.4482    5787.3351   -175.32864    12323.338   -1802.8818    1537.0779    -1772.276    76.215926 
   73300    280.50239   -108.43064   0.25380446   -108.17684   -2966.0752    4.2421764    4.2421764    4.2421764   -2966.0752    12037.351   -12640.609   -8294.9681    5037.7121    4389.8741    3022.0689    76.342465 
   73400    357.07517   -108.50008   0.32308912   -108.17699   -838.19344    4.2412857    4.2412857    4.2412857   -838.19344     3539.065   -9783.8005    3730.1551    10117.466   -1674.4353    3147.5343    76.294386 
   73500    605.10413    -108.7196   0.54751093   -108.17209    2931.3954    4.2424025    4.2424025    4.2424025    2931.3954    10527.324   -4777.1284     3043.991   -2018.9682    2556.2431   -994.46991     76.35467 
   73600    294.21508   -108.44224   0.26621199   -108.17603    748.41646    4.2402728    4.2402728    4.2402728    748.41646    5936.3586   -10530.488    6839.3793    3539.1374    4666.1956    4581.6672     76.23974 
   73700    273.52286   -108.42402   0.24748923   -108.17653   -6125.2146    4.2424727    4.2424727    4.2424727   -6125.2146    2925.4961   -21750.498    449.35765    11033.722    2242.1772    2335.9274    76.358459 
   73800    556.16014   -108.67494   0.50322539   -108.17171    3331.8772    4.2409557    4.2409557    4.2409557    3331.8772    12042.148   -7531.6423    5485.1263   -1651.4486   -2065.6096   -1340.4241    76.276579 
   73900    376.74153   -108.51724   0.34088366   -108.17635   -3742.2402    4.2405557    4.2405557    4.2405557   -3742.2402   -1312.0154   -7233.8056   -2680.8996    5098.9777    817.91939    42.324019    76.254996 
   74000    199.48452   -108.35985   0.18049778   -108.17936   -5870.8337    4.2408513    4.2408513    4.2408513   -5870.8337   -2309.1075   -15805.719    502.32572    13266.322    1598.1476    6235.2582    76.270947 
   74100      496.392   -108.62413   0.44914591   -108.17498    1553.4345    4.2445924    4.2445924    4.2445924    1553.4345   -6536.1206   -5856.9534    17053.377      -2636.3   -2787.0239   -384.84003    76.472973 
   74200    492.02255   -108.61878   0.44519234   -108.17359    9408.2676    4.2362825    4.2362825    4.2362825    9408.2676    18776.455    3259.9364    6188.4111   -407.63009    3681.0021    1136.8385    76.024707 
   74300    230.93446   -108.38712   0.20895436   -108.17817   -5630.0649    4.2452818    4.2452818    4.2452818   -5630.0649   -3252.2375    -25364.92    11726.963    13800.998    6366.0846    6661.5453     76.51024 
   74400    513.29542   -108.63836   0.46444049   -108.17392   -595.58338    4.2413645    4.2413645    4.2413645   -595.58338    744.13204   -11197.369    8666.4873    655.10708    513.69012   -3876.8393    76.298637 
   74500    596.30501   -108.71124   0.53954931   -108.17169    6657.5118    4.2387179    4.2387179    4.2387179    6657.5118    12029.475   -4581.4175    12524.478   -2735.1158   -2324.2582   -199.51323      76.1559 
   74600    297.91887   -108.44569   0.26956325   -108.17613   -10014.372    4.2471536    4.2471536    4.2471536   -10014.372   -18155.446   -17943.802    6056.1316    12513.598    942.76292    2386.8601    76.611491 
   74700    304.68908    -108.4511   0.27568908   -108.17542    3452.6191    4.2363264    4.2363264    4.2363264    3452.6191    197.93615   -5136.5899    15296.511    1578.4371    2833.6631    5319.3298    76.027066 
   74800    485.99086    -108.6118   0.43973474   -108.17207    2463.2925    4.2440156    4.2440156    4.2440156    2463.2925   -3092.9515   -2043.4707      12526.3    -4901.304   -3448.1467   -87.702311    76.441802 
   74900    329.57813   -108.47298   0.29820922   -108.17477   -5738.7216     4.242517     4.242517     4.242517   -5738.7216   -15684.122    -5908.995    4376.9524    8772.8679    6019.1057    6056.4439    76.360854 
   75000    219.96992   -108.37623    0.1990334    -108.1772   -2006.8141    4.2370061    4.2370061    4.2370061   -2006.8141    935.29958   -10534.548    3578.8059    2467.3226    5511.2572    1948.9084    76.063667 
   75100    571.01268   -108.69023   0.51666427   -108.17357   -6066.9482    4.2454974    4.2454974    4.2454974   -6066.9482    -2417.693   -10125.477   -5657.6742   -5234.4786   -1088.9152   -8232.3668    76.521898 
   75200    477.44462   -108.60601   0.43200193   -108.17401   -4761.1133    4.2425232    4.2425232    4.2425232   -4761.1133   -4244.4163   -11086.155     1047.231    8121.2682    1855.1285    4536.2918    76.361188 
   75300    303.96973   -108.44986    0.2750382   -108.17482   -511.86864    4.2353157    4.2353157    4.2353157   -511.86864    6674.2331   -5533.3182   -2676.5208    4040.5408    3869.9743   -237.69434    75.972664 
   75400    467.54256   -108.59691   0.42304234   -108.17387   -6524.1382    4.2485136    4.2485136    4.2485136   -6524.1382   -5376.0942   -13867.567   -328.75329   -8202.4985    491.03028   -449.09685     76.68511 
   75500    491.75032   -108.61813   0.44494602   -108.17318    9240.0055     4.235442     4.235442     4.235442    9240.0055    7909.1323    7731.7243     12079.16    4050.7775    859.69188   -344.80154    75.979461 
   75600    321.53028   -108.46729   0.29092736   -108.17636   -1300.5465    4.2414328    4.2414328    4.2414328   -1300.5465   -195.96471    -8556.839    4851.1642     4887.014    3548.8076    4692.4117    76.302324 
   75700    286.87414   -108.43485   0.25956975   -108.17528   -586.44082    4.2452873    4.2452873    4.2452873   -586.44082      5128.02   -17573.855    10686.513   -10471.816   -491.43851   -388.70868    76.510538 
   75800    517.95285   -108.63946   0.46865463   -108.17081    5070.7761    4.2351693    4.2351693    4.2351693    5070.7761    3400.6005    560.65733     11251.07    625.65731    4642.8231   -4811.6093    75.964787 
   75900    390.27287   -108.52732   0.35312709   -108.17419   -1649.3555    4.2437695    4.2437695    4.2437695   -1649.3555   -6243.8417   -9582.4428    10878.218    7162.0344    96.401306    5901.8399    76.428505 
   76000    274.40395   -108.42503   0.24828646   -108.17674   -3669.4715    4.2437327    4.2437327    4.2437327   -3669.4715    6268.1514   -18000.233    723.66745   -7298.6416    3013.7307   -2131.4316    76.426516 
   76100    498.25284   -108.62483   0.45082964     -108.174    8132.8116    4.2342846    4.2342846    4.2342846    8132.8116    11010.663    4349.6976    9038.0743   -6783.2787   -792.25756   -2506.2386    75.917192 
   76200    464.51598   -108.59368   0.42030382   -108.17337   -1019.8997    4.2478883    4.2478883    4.2478883   -1019.8997    8432.0708   -11696.267    204.49712    4682.2016    1534.8236     2909.774    76.651256 
   76300    297.93883   -108.44577   0.26958132   -108.17619   -3882.9827    4.2372938    4.2372938    4.2372938   -3882.9827    4971.4113   -14156.571   -2463.7881   -5869.3046   -517.69677    1056.0517    76.079162 
   76400    405.46593   -108.54297   0.36687409   -108.17609   -3754.2135    4.2392545    4.2392545    4.2392545   -3754.2135    7591.8425   -15671.664   -3182.8191   -9350.4751   -1846.1527   -7566.0932    76.184823 
   76500    533.25457   -108.65465   0.48249994   -108.17215     443.5453    4.2463714    4.2463714    4.2463714     443.5453     12666.69   -10804.339   -531.71533    5406.3896    6360.8239      689.061     76.56917 
   76600     375.9216    -108.5148   0.34014176   -108.17466   -5476.7112    4.2379165    4.2379165    4.2379165   -5476.7112    3712.4152   -16185.211   -3957.3377   -6418.9825   -1321.4508    4886.7088     76.11271 
   76700    208.26754   -108.36536   0.18844485   -108.17692   -915.83592    4.2403222    4.2403222    4.2403222   -915.83592    18171.874   -17975.852   -2943.5294   -8429.6531    3241.6168   -10185.885    76.242405 
   76800    563.81491   -108.68147   0.51015158   -108.17132   -3395.2669     4.246087     4.246087     4.246087   -3395.2669    319.33107   -5371.3066   -5133.8252   -450.05192     1444.959   -396.12394    76.553787 
   76900    394.36267    -108.5301   0.35682763   -108.17327    2909.9106    4.2367677    4.2367677    4.2367677    2909.9106    11549.765   -2020.3479   -799.68542   -5771.1135    1418.1104    4232.7981     76.05083 
   77000    238.94825   -108.39367    0.2162054   -108.17746   -7128.8543    4.2411708    4.2411708    4.2411708   -7128.8543    6118.5829   -21945.549    -5559.597   -7730.7367    569.65278   -8246.7961    76.288188 
   77100    527.55725    -108.6519   0.47734488   -108.17456   -7723.7284    4.2455911    4.2455911    4.2455911   -7723.7284   -4607.2568   -11737.107   -6826.8215    2732.4479   -1701.5357   -2312.4473    76.526965 
   77200    477.32015   -108.60536    0.4318893   -108.17347    2508.0156    4.2374584    4.2374584    4.2374584    2508.0156      13775.2   -1882.2179   -4368.9351   -771.56701    5104.3556   -482.92016     76.08803 
   77300    266.90522   -108.41795   0.24150145   -108.17645   -11569.704    4.2425375    4.2425375    4.2425375   -11569.704     3226.221   -25483.939   -12451.394   -12263.861   -1608.1476   -7100.2096    76.361961 
   77400    352.60576   -108.49465    0.3190451   -108.17561    -2666.448    4.2447064    4.2447064    4.2447064    -2666.448    1957.6908   -4039.0563   -5917.9784    1187.0351    5331.3414     -3392.71    76.479133 
   77500    521.92419   -108.64425   0.47224797     -108.172    7628.8374    4.2365236    4.2365236    4.2365236    7628.8374    8742.6372    4903.5444    9240.3307    53.046081    3688.3157    2090.4802    76.037688 
   77600    350.52765   -108.49305   0.31716478   -108.17588   -5077.8529    4.2423752    4.2423752    4.2423752   -5077.8529   -2122.2789   -14350.985    1239.7057   -7595.0525   -2554.5275   -5099.5189    76.353198 
   77700    282.96329   -108.43219   0.25603113   -108.17616   -1599.7683    4.2456463    4.2456463    4.2456463   -1599.7683   -3708.4978   -14246.517    13155.709    1166.3434    2617.4761   -4553.9472    76.529953 
   77800    627.60819   -108.73864   0.56787308   -108.17076    6794.7421    4.2347218    4.2347218    4.2347218    6794.7421    8119.4362    3403.6616    8861.1285    5114.1038     304.5291    2925.0409    75.940713 
   77900    407.33367   -108.54177   0.36856406    -108.1732     1298.069    4.2457821    4.2457821    4.2457821     1298.069    8500.4171   -9503.9691    4897.7591   -4982.5181    604.20869   -5922.7718    76.537295 
   78000    276.28762   -108.42487   0.24999085   -108.17488    932.79888    4.2418461    4.2418461    4.2418461    932.79888    1489.3035   -11350.212    12659.305   -4565.6611    2148.4171   -5712.0696    76.324632 
   78100    465.22711   -108.59429   0.42094727   -108.17334    8857.1777    4.2353304    4.2353304    4.2353304    8857.1777    10473.237    9899.9175    6198.3786    6837.7821    2417.4728    3657.7745    75.973454 
   78200    364.03728    -108.5026   0.32938858   -108.17321    6671.7475    4.2468365    4.2468365    4.2468365    6671.7475    8731.0897    1411.9284    9872.2245   -4396.8724    421.43137   -1658.3448    76.594332 
   78300    353.51955   -108.49373   0.31987192   -108.17385   -5311.1239     4.240398     4.240398     4.240398   -5311.1239    1372.9274   -10970.484   -6335.8152   -2122.6176   -482.12987   -5955.5475    76.246494 
   78400    317.05092   -108.46136   0.28687433   -108.17449    8470.1623    4.2362648    4.2362648    4.2362648    8470.1623    13009.528    574.57184    11826.387    8568.1493    1103.7216   -785.73339    76.023752 
   78500    544.79912   -108.66401   0.49294569   -108.17106    -6075.132    4.2495462    4.2495462    4.2495462    -6075.132   -3569.7945   -11643.741   -3011.8605    -1571.106   -108.83852    -1584.381    76.741038 
   78600    410.95082   -108.54554   0.37183694   -108.17371    755.88531    4.2353865    4.2353865    4.2353865    755.88531    8387.6608   -12653.619    6533.6145   -2420.2647    1983.9849   -6986.8716    75.976477 
   78700    294.57117   -108.44386   0.26653418   -108.17733    916.80439    4.2412587    4.2412587    4.2412587    916.80439   -889.18878   -4520.6822    8160.2842    5743.6951    2434.9995    514.46242     76.29293 
   78800    534.81687    -108.6562   0.48391355   -108.17229   -6430.0573    4.2479211    4.2479211    4.2479211   -6430.0573   -7888.9548   -7468.3918   -3932.8253    2229.2042   -1286.3499    1225.4393    76.653029 
   78900    412.55402   -108.54464   0.37328755   -108.17135    7878.6827    4.2334933    4.2334933    4.2334933    7878.6827    11399.442    1064.1502    11172.455   -5371.2474   -1313.9378   -7490.3218    75.874638 
   79000    337.78311   -108.48073   0.30563326   -108.17509   -9625.7264    4.2451732    4.2451732    4.2451732   -9625.7264   -5805.1325   -16185.094   -6886.9523    9372.6094    2126.0434   -1314.7368    76.504369 
   79100     385.3626     -108.523   0.34868418   -108.17431   -4710.3232    4.2440721    4.2440721    4.2440721   -4710.3232   -8207.5062   -11029.862    5106.3991    6816.2886    2531.2828    1088.1924    76.444853 
   79200    463.71393   -108.59135    0.4195781   -108.17177    4499.5726    4.2332246    4.2332246    4.2332246    4499.5726    17277.314   -554.67979   -3223.9165   -5609.3647   -2013.0633   -7745.7305    75.860191 
   79300    299.20958   -108.44585   0.27073111   -108.17511   -7848.5638    4.2483458    4.2483458    4.2483458   -7848.5638   -9811.7486   -20961.386    7227.4429    9979.4273    1886.5157   -944.68668     76.67602 
   79400    305.47827   -108.45121   0.27640316   -108.17481   -164.98005    4.2404325    4.2404325    4.2404325   -164.98005   -4205.6462   -5898.4606    9609.1666    4516.0015    2856.4553    3865.3116    76.248353 
   79500    528.96524   -108.65013   0.47861887   -108.17151    4410.5532    4.2348882    4.2348882    4.2348882    4410.5532    7270.0718    5730.9716     230.6162   -2252.4984   -5338.2539   -4235.4682    75.949663 
   79600     379.6927   -108.51638   0.34355394   -108.17283   -7917.1494    4.2516754    4.2516754    4.2516754   -7917.1494   -11807.363   -19479.247    7535.1625    7682.5585    1840.4573   -5694.7903    76.856444 
   79700     375.6538    -108.5132   0.33989945    -108.1733    3771.1986    4.2331896    4.2331896    4.2331896    3771.1986   -4349.0054    2595.9665    13066.635    6345.2789   -2015.6021    1640.5533    75.858308 
   79800    471.26089   -108.59954   0.42640675   -108.17313   -1183.1361    4.2427544    4.2427544    4.2427544   -1183.1361   -5044.8571   -7524.1532     9019.602   -469.41323   -4102.4387   -334.06142    76.373673 
   79900    445.40852    -108.5759   0.40301499   -108.17288   -4200.1022    4.2464182    4.2464182    4.2464182   -4200.1022   -1857.4755   -15728.657    4985.8259    5771.7044    1556.2267   -5879.8798    76.571702 
   80000    362.55804   -108.50145   0.32805013    -108.1734    971.57355    4.2328482    4.2328482    4.2328482    971.57355   -921.79128   -3378.4344    7214.9463    9554.6757   -3242.4582    6237.3895    75.839958 
   80100     445.1036   -108.57637   0.40273909   -108.17363   -8508.9246    4.2456975    4.2456975    4.2456975   -8508.9246   -1793.6484   -5579.0694   -18154.056    -5290.484    653.66331   -1325.3375    76.532718 
   80200    341.07473   -108.48244   0.30861159   -108.17383    1005.5481    4.2443587    4.2443587    4.2443587    1005.5481    3835.8173   -5979.6056    5160.4325    6092.3069   -2173.3538   -7102.4255    76.460344 
   80300    373.87008   -108.51186    0.3382855   -108.17358    6625.0213    4.2316274    4.2316274    4.2316274    6625.0213    5172.5824    2830.9249    11871.556    11864.796    2923.4452   -1134.8309    75.774357 
   80400     332.5923   -108.47563    0.3009365    -108.1747   -4682.8139    4.2503636    4.2503636    4.2503636   -4682.8139   -5785.5075    101.19534   -8364.1295   -4178.1567   -2872.8583    153.51096    76.785331 
   80500     367.6369   -108.50507   0.33264559   -108.17243    6580.4085    4.2382972    4.2382972    4.2382972    6580.4085    16219.141   -241.80095    3763.8857    4792.2866   -2060.9929   -7099.0817    76.133227 
   80600    508.11469   -108.63142   0.45975285   -108.17167    518.33942    4.2365024    4.2365024    4.2365024    518.33942   -3347.9314   -3623.3048    8526.2544    6173.8266    929.52791    128.93976    76.036547 
   80700    378.02754   -108.51473   0.34204726   -108.17268   -351.98322    4.2489323    4.2489323    4.2489323   -351.98322   -1012.2981   -2416.3948    2372.7432   -3010.2621   -5258.6414    5032.3956    76.707782 
   80800    486.49187   -108.61211   0.44018807   -108.17192   -1968.5549    4.2374538    4.2374538    4.2374538   -1968.5549    2405.6726   -7563.1068   -748.23049    28.561834    2199.6281   -8686.9577    76.087781 
   80900    333.00065   -108.47472   0.30130599   -108.17341    9719.9343    4.2391316    4.2391316    4.2391316    9719.9343     6539.816   -1922.7253    24542.712    8478.3936   -1015.5318   -3798.2089    76.178201 
   81000     479.2887   -108.60574   0.43367049   -108.17207   -5192.2207    4.2469656    4.2469656    4.2469656   -5192.2207   -4152.2604   -2111.7028   -9312.6989    2394.0444   -1281.0785    1098.7885    76.601313 
   81100    326.65499   -108.46853    0.2955643   -108.17296    1214.4482    4.2377814    4.2377814    4.2377814    1214.4482    3046.4617    5181.8685   -4584.9855    168.03329   -1269.1048   -4889.9021    76.105432 
   81200    373.14185   -108.51082   0.33762658   -108.17319   -1123.5338    4.2401273    4.2401273    4.2401273   -1123.5338   -1474.2693   -3667.5634    1771.2311    11475.131   -1059.9077   -5663.7293    76.231889 
   81300    491.57744   -108.61655   0.44478959   -108.17176   -8624.7904    4.2468495    4.2468495    4.2468495   -8624.7904   -6247.2453   -6848.1954   -12778.931   -1955.9843   -1837.6078    4099.0489    76.595032 
   81400    327.32664   -108.46933   0.29617203   -108.17316   -402.31098    4.2369097    4.2369097    4.2369097   -402.31098   -3066.6604    835.01688    1024.7106   -2397.3649   -8919.1609    265.04848    76.058478 
   81500    318.98959   -108.46393   0.28862849   -108.17531   -3935.1796    4.2411386    4.2411386    4.2411386   -3935.1796     -824.918   -14599.598    3618.9771    11231.074    4192.9813   -10376.356    76.286447 
   81600      470.986   -108.59933   0.42615803   -108.17317   -5316.4243    4.2459372    4.2459372    4.2459372   -5316.4243   -17326.842     1913.786   -536.21678    163.98936   -5626.8986    1632.1361    76.545683 
   81700    454.69042   -108.58444   0.41141344   -108.17302   -119.53864    4.2352262    4.2352262    4.2352262   -119.53864   -4556.4211    9479.9405   -5282.1353   -788.83631   -3833.2136   -3696.3154    75.967849 
   81800    294.46758   -108.44282   0.26644045   -108.17638   -6988.0073    4.2438143    4.2438143    4.2438143   -6988.0073   -8115.8949   -7043.7753   -5804.3516    9753.4913    4629.0451   -4454.6756    76.430922 
   81900     459.9263   -108.58983   0.41615098   -108.17368    1066.9025    4.2426987    4.2426987    4.2426987    1066.9025   -2780.3778    7958.7231   -1977.6379    6693.2227   -1659.7316   -1047.8617    76.370664 
   82000    513.11834   -108.63603   0.46428026   -108.17175    3363.2547    4.2382726    4.2382726    4.2382726    3363.2547   -3613.6455     3111.868    10591.542   -2749.7563   -1612.8118    255.59672    76.131901 
   82100    263.46825   -108.41463   0.23839161   -108.17624   -700.11408    4.2420812    4.2420812    4.2420812   -700.11408     -4330.67    4312.9228    -2082.595    6929.3792   -409.32936   -5548.0478    76.337326 
   82200    379.37872   -108.51777   0.34326984    -108.1745   -1013.1925    4.2444456    4.2444456    4.2444456   -1013.1925   -342.55384   -1636.4109   -1060.6129    9404.0003   -748.00266   -5289.6686    76.465041 
   82300    566.48791   -108.68335   0.51257016   -108.17078     11415.69    4.2340399    4.2340399    4.2340399     11415.69    2496.8778    22006.684    9743.5084   -4489.1998   -3470.4164    4129.4132    75.904029 
   82400    289.14845   -108.43764    0.2616276   -108.17602   -2859.7531    4.2471469    4.2471469    4.2471469   -2859.7531    804.13769    1551.5215   -10934.918    5598.8839      1577.69   -6037.8854    76.611129 
   82500    303.86803   -108.45112   0.27494618   -108.17617    1705.5023     4.239586     4.239586     4.239586    1705.5023    339.71669   -10546.749    15323.539    6436.5786     1132.845    1233.5505      76.2027 
   82600    569.71039   -108.68747   0.51548593   -108.17199    7723.0844    4.2361635    4.2361635    4.2361635    7723.0844   -92.606231    14333.461    8928.3986   -3673.3284   -3185.6856    1115.8406    76.018299 
   82700     345.5003   -108.48762   0.31261593     -108.175   -3172.2659    4.2477112    4.2477112    4.2477112   -3172.2659   -9061.1874   -8375.1492    7919.5388    6634.5975    1298.6508   -5405.2758    76.641666 
   82800    286.05454   -108.43453   0.25882816    -108.1757   -926.40666    4.2381199    4.2381199    4.2381199   -926.40666    2530.5962   -5124.2955   -185.52074    8536.1061    1270.9012   -4989.3694    76.123672 
   82900    540.35833   -108.66165   0.48892758   -108.17273    5675.4485    4.2392084    4.2392084    4.2392084    5675.4485    -81.27685    11063.473    6044.1493    4.8311326   -1886.9831   -1581.0562    76.182338 
   83000    417.03722   -108.55141   0.37734404   -108.17407   -5953.8242    4.2479152    4.2479152    4.2479152   -5953.8242   -8982.2551   -4727.4985    -4151.719    5169.5781    -226.4271     4587.132    76.652708 
   83100    265.74883   -108.41564   0.24045512   -108.17519   -4917.1505    4.2363331    4.2363331    4.2363331   -4917.1505   -2077.5646   -8404.1507   -4269.7362    10062.652    5671.6752   -7818.8169    76.027431 
   83200    481.80303    -108.6095   0.43594551   -108.17356    2346.0038    4.2408661    4.2408661    4.2408661    2346.0038    1776.9126   -4863.5767    10124.676   -2262.0714   -2574.7603     497.8693    76.271746 
   83300    540.56973   -108.66212   0.48911886     -108.173    -12079.91    4.2483195    4.2483195    4.2483195    -12079.91   -14368.614   -9080.1598   -12790.955   -3008.6995   -4570.6373   -1219.2378      76.6746 
   83400    178.34976   -108.33703   0.16137461   -108.17566    3956.2695    4.2317916    4.2317916    4.2317916    3956.2695    6661.5112   -4966.6273    10173.925    11780.045    4343.8051   -13457.676    75.783179 
   83500    479.75093   -108.60834   0.43408873   -108.17425   -9473.6763    4.2467449    4.2467449    4.2467449   -9473.6763   -12844.903   -414.43171   -15161.694   -1397.5761    2095.6469    601.82472    76.589376 
   83600    417.63036    -108.5509   0.37788073   -108.17302    1516.6095    4.2432212    4.2432212    4.2432212    1516.6095   -14756.731    8044.4636    11262.096   -3638.3892   -731.81374   -865.07879    76.398884 
   83700    291.33164   -108.43833   0.26360299   -108.17472   -1981.2483    4.2342615    4.2342615    4.2342615   -1981.2483   -8543.7214   -4795.8663    7395.8427    12191.126    2249.5598   -3684.2965    75.915947 
   83800    372.98763   -108.51153   0.33748704   -108.17404    -6767.949    4.2482985    4.2482985    4.2482985    -6767.949   -9489.6917   -10811.226   -2.9289528     1020.423    4511.0855    -2136.161    76.673464 
   83900    555.82081   -108.67436   0.50291835   -108.17144    2223.9844    4.2384388    4.2384388    4.2384388    2223.9844   -6218.0886   -194.29688    13084.339   -4732.5206   -993.44133   -336.03001    76.140856 
   84000    356.19212   -108.49715   0.32229011   -108.17486    1122.8876    4.2383784    4.2383784    4.2383784    1122.8876   -7365.1321    7707.9984    3025.7964    7932.1081   -1529.5309   -4883.8832    76.137599 
   84100    333.36199   -108.47814   0.30163294   -108.17651   -2815.7513    4.2471371    4.2471371    4.2471371   -2815.7513   -9817.9401   -467.07162    1837.7578    1603.8758    1746.7314   -765.60178    76.610597 
   84200    500.39464   -108.62573   0.45276758   -108.17296    8935.9543     4.234713     4.234713     4.234713    8935.9543    570.01343    12528.024    13709.826   -6220.4356    2745.1707    4554.1088    75.940239 
   84300    412.16966   -108.54713   0.37293977   -108.17419    1375.6708    4.2417592    4.2417592    4.2417592    1375.6708   -11147.493    899.32849    14375.176    2459.3774    256.27374   -5590.9071    76.319942 
   84400    400.92929   -108.53726   0.36276924   -108.17449   -11305.212    4.2466897    4.2466897    4.2466897   -11305.212    -3873.791   -10231.281   -19810.563    3429.5669    4682.6012   -3458.1818    76.586387 
   84500    393.26556   -108.52936   0.35583495   -108.17353    7892.0808    4.2338695    4.2338695    4.2338695    7892.0808   -4758.3501    10880.838    17553.755   -11006.585   -1721.3325    -1045.933    75.894864 
   84600    437.88866   -108.56879   0.39621086   -108.17258   -8816.9498    4.2477695    4.2477695    4.2477695   -8816.9498   -22037.424   -191.61739   -4221.8081   -440.55782    1976.7511    613.27269    76.644821 
   84700    269.57225   -108.41734   0.24391464   -108.17343   -35.911354    4.2393232    4.2393232    4.2393232   -35.911354   -6298.2337    7452.2456    -1261.746    4662.0299    3102.6399   -5194.4905    76.188528 
   84800    302.27422   -108.44716   0.27350407   -108.17365    82.818501    4.2399548    4.2399548    4.2399548    82.818501   -4774.1721   -5158.3371    10180.965   -11885.059     1264.134    2005.5877    76.222584 
   84900    550.76449    -108.6699   0.49834328   -108.17155   -8634.8018    4.2444051    4.2444051    4.2444051   -8634.8018   -16708.355   -8457.5288   -738.52172   -205.08545    708.35545    396.12833    76.462849 
   85000    366.95293   -108.50585   0.33202672   -108.17382   -2234.3562    4.2388144    4.2388144    4.2388144   -2234.3562     1295.611   -2562.3496   -5436.3301    4891.1646    2958.2546   -12754.898      76.1611 
   85100    409.00024   -108.54528   0.37007201   -108.17521   -9944.5775    4.2410725    4.2410725    4.2410725   -9944.5775   -12473.186    -10160.42   -7200.1261   -11565.934      2122.09    1894.9726    76.282881 
   85200    406.93371   -108.54264   0.36820217   -108.17444     2750.942    4.2438781    4.2438781    4.2438781     2750.942   -12028.291    12555.543    7725.5739   -5999.0302   -3205.1092    1863.5196    76.434371 
   85300    497.76113   -108.62301   0.45038473   -108.17262    1716.5828      4.23753      4.23753      4.23753    1716.5828   -662.76079    13264.513   -7452.0039    3123.8001    5683.5931   -4061.4044    76.091889 
   85400    241.58246   -108.39396   0.21858888   -108.17537   -2861.2889    4.2451967    4.2451967    4.2451967   -2861.2889   -12532.163    -4288.519    8236.8155   -9750.3835    3154.4576   -2656.2362    76.505638 
   85500    476.80562   -108.60424   0.43142375   -108.17281    349.45551    4.2382492    4.2382492    4.2382492    349.45551   -10284.529    3554.4629    7778.4331   -12230.734    -2057.189    4400.2054    76.130639 
   85600    504.42522   -108.62892   0.45641454   -108.17251   -67.901676    4.2426429    4.2426429    4.2426429   -67.901676   -4878.1472     661.5991    4012.8431    4837.0442    3175.5583   -4091.2082    76.367652 
   85700    243.11659   -108.39566     0.219977   -108.17569   -862.10571    4.2429563    4.2429563    4.2429563   -862.10571   -16572.231    5928.0865    8057.8276   -7249.3324   -144.95945   -6280.8329    76.384576 
   85800    337.64743   -108.48036   0.30551049   -108.17485    6753.6226    4.2363652    4.2363652    4.2363652    6753.6226    3306.3223    6857.1341    10097.411   -11459.439   -2037.0792    5147.8434     76.02916 
   85900    478.04118   -108.60492   0.43254171   -108.17238    6445.3697    4.2437106    4.2437106    4.2437106    6445.3697   -7196.3237    10559.212    15973.221    6274.4631    800.00584   -211.21897    76.425322 
   86000    409.25625   -108.54587   0.37030366   -108.17557   -6249.8971    4.2416547    4.2416547    4.2416547   -6249.8971   -8888.1169   -5690.7804    -4170.794   -6736.8744    5504.2556   -5577.2774    76.314303 
   86100    325.33532   -108.47124   0.29437023   -108.17687    515.79127    4.2367443    4.2367443    4.2367443    515.79127   -1615.6829   -10753.095    13916.151   -10969.623    1392.9877   -5111.0667     76.04957 
   86200    594.76855   -108.71061   0.53815908   -108.17245   -4299.3623    4.2464663    4.2464663    4.2464663   -4299.3623   -8521.1361    2190.9649   -6567.9158    1165.2807   -1612.7319    6536.5721    76.574304 
   86300    409.61001   -108.54484   0.37062374   -108.17422    1574.0555    4.2378358    4.2378358    4.2378358    1574.0555   -4850.7494    10206.223   -633.30761    -5256.604    3825.0921   -5603.7456    76.108362 
   86400    227.47289   -108.38323   0.20582225    -108.1774    2328.4934    4.2396568    4.2396568    4.2396568    2328.4934    357.99937   -256.21109     6883.692   -11221.844    828.78881   -883.14673    76.206517 
   86500    521.53374   -108.64399   0.47189469    -108.1721   -11044.482    4.2483336    4.2483336    4.2483336   -11044.482   -18407.085   -3477.7106   -11248.651    1518.8057   -1008.7214    6493.8978    76.675365 
   86600    363.54162   -108.50076    0.3289401   -108.17182      7057.07    4.2322432    4.2322432    4.2322432      7057.07    1798.3122    10281.007    9091.8903   -1180.9599    3895.1532   -9017.6266    75.807442 
   86700    341.90178   -108.48335   0.30935991   -108.17399   -13907.878    4.2477085    4.2477085    4.2477085   -13907.878    -15491.77   -15555.983   -10675.881   -13277.994    896.13747   -1997.8301    76.641521 
   86800    360.25453   -108.50033   0.32596587   -108.17436    5386.0851     4.240231     4.240231     4.240231    5386.0851    88.606317    12482.275    3587.3741    2212.1792    907.62272    3402.4774    76.237483 
   86900    462.03556   -108.59083   0.41805948   -108.17277     8615.747    4.2331331    4.2331331    4.2331331     8615.747     4542.681    19896.414    1408.1464    2259.4477     1044.281    1975.0236    75.855273 
   87000    342.29424   -108.48424   0.30971502   -108.17453   -6985.1523    4.2511023    4.2511023    4.2511023   -6985.1523   -16220.147   -152.34279   -4582.9669    -15150.76   -680.32081   -2512.8689    76.825369 
   87100     452.5123   -108.58233   0.40944264   -108.17288    4786.7496     4.234792     4.234792     4.234792    4786.7496    1058.1225    2302.9788    10999.148    883.08117    1078.2594    3942.1312    75.944489 
   87200    527.72992   -108.65018   0.47750112   -108.17268    2290.9674     4.238375     4.238375     4.238375    2290.9674    648.58507    8045.1698   -1820.8526    3845.7064    2761.4288    3447.5947    76.137416 
   87300    336.56518   -108.47799   0.30453124   -108.17346   -4767.1108    4.2512342    4.2512342    4.2512342   -4767.1108   -19900.001    1511.7305     4086.938   -14163.244     3505.028    -6734.726    76.832524 
   87400     359.3973   -108.49643   0.32519023   -108.17124    11067.615    4.2303826    4.2303826    4.2303826    11067.615    6427.9437    17674.845    9100.0571   -3438.7418   -2416.6032    5387.9163    75.707505 
   87500    414.92351   -108.54811   0.37543151   -108.17267   -3149.3096    4.2446243    4.2446243    4.2446243   -3149.3096   -9436.0507    2627.3889    -2639.267    5207.7414    152.23987    5157.5565    76.474696 
   87600     346.0759   -108.48608   0.31313675   -108.17295   -6515.1495    4.2464865    4.2464865    4.2464865   -6515.1495   -18528.949   -11014.486    9997.9869   -9736.8164    2813.9119   -2454.5439    76.575395 
   87700     413.6384   -108.54585   0.37426871   -108.17159    5231.5918    4.2289216    4.2289216    4.2289216    5231.5918    8242.7889   -2880.4071    10332.394   -6290.4754   -2992.3508   -2693.1467    75.629097 
   87800    349.99451   -108.49096   0.31668239   -108.17428   -1782.0625    4.2494604    4.2494604    4.2494604   -1782.0625   -6973.4372    1292.7269     334.5228     9532.821    1095.6831    4543.4573     76.73639 
   87900    394.71707   -108.53151    0.3571483   -108.17436    4443.3972    4.2387787    4.2387787    4.2387787    4443.3972   -8147.7367    16922.794    4555.1343   -5659.3127    2269.6583    716.90035    76.159177 
   88000    430.98222   -108.56399   0.38996177   -108.17403    8184.6907    4.2345269    4.2345269    4.2345269    8184.6907    655.87279    15395.721    8502.4781   -8760.4664     1921.296   -4189.0626    75.930226 
   88100    413.79136   -108.54703   0.37440712   -108.17263   -8326.7942    4.2511406    4.2511406    4.2511406   -8326.7942   -10078.031   -7508.1063   -7394.2456    9787.0635    585.10098     5028.374    76.827446 
   88200    484.07908   -108.60883   0.43800493   -108.17082    2480.1329    4.2338787    4.2338787    4.2338787    2480.1329   -6326.9399    11961.422    1805.9162    -2170.582    1685.5475    3736.0604     75.89536 
   88300    405.26843    -108.5386   0.36669539    -108.1719    4358.9548    4.2407163    4.2407163    4.2407163    4358.9548   -4697.3803    14912.371    2861.8739   -7249.1014    646.38857   -7578.1643    76.263664 
   88400    334.46256   -108.47631   0.30262875   -108.17368   -4963.6282    4.2453457    4.2453457    4.2453457   -4963.6282   -8231.1566    5850.1495   -12509.878    5725.5843   -1541.2969   -2302.6171    76.513698 
   88500    334.56503   -108.47693   0.30272147   -108.17421   -1134.0305    4.2356682    4.2356682    4.2356682   -1134.0305   -13326.439    10222.687   -298.33951    5419.2351    3821.3473    6601.9858    75.991636 
   88600    517.33402   -108.64171   0.46809469   -108.17361   -4176.4665    4.2405254    4.2405254    4.2405254   -4176.4665   -7819.4501   -2099.6004   -2610.3489     -6367.37   -111.31029    -1360.238    76.253361 
   88700    354.74609   -108.49597   0.32098172   -108.17499   -14386.291    4.2470548    4.2470548    4.2470548   -14386.291   -10831.529   -16375.833   -15951.512    4364.7305   -1530.4299   -2800.0765    76.606142 
   88800    316.83885   -108.46094   0.28668245   -108.17425    2533.4654    4.2320418    4.2320418    4.2320418    2533.4654   -4610.5429    9854.6205    2356.3186    10696.989     3879.438    8289.3233    75.796619 
   88900     475.5579   -108.60246   0.43029478   -108.17216   -4343.2512    4.2470695    4.2470695    4.2470695   -4343.2512   -10764.355    12308.853   -14574.252   -5702.5221   -127.63178   -2852.0945    76.606936 
   89000    408.86212   -108.54359   0.36994704   -108.17364   -2912.1107    4.2391925    4.2391925    4.2391925   -2912.1107    -5028.569    3498.3893   -7206.1524    3587.8529    204.76172   -4560.3583    76.181482 
   89100    278.36935   -108.42689   0.25187444   -108.17502   -5295.3796     4.239811     4.239811     4.239811   -5295.3796   -12393.849    6126.3981   -9618.6881    8354.9154    3296.5857    8384.5195    76.214829 
   89200    588.00385   -108.70441   0.53203824   -108.17237   -4114.9502    4.2413069    4.2413069    4.2413069   -4114.9502   -9553.7535    3241.2648   -6032.3618   -2496.9307    626.75497   -1319.1599    76.295529 
   89300    366.56608   -108.50636   0.33167669   -108.17469     2501.029     4.242328     4.242328     4.242328     2501.029   -4887.4202    20683.991   -8293.4834    909.75038   -1210.0499   -4159.0196    76.350649 
   89400    253.72552   -108.40672   0.22957618   -108.17714   -1733.4402    4.2367572    4.2367572    4.2367572   -1733.4402   -10251.954    9021.7458   -3970.1126    10502.309    1332.6407    5281.0939    76.050265 
   89500    437.55746    -108.5709   0.39591118   -108.17499     36.01287    4.2424774    4.2424774    4.2424774     36.01287   -12050.074    4928.6718    7229.4407     3643.106      108.688    5010.7482    76.358716 
   89600    548.41147   -108.66861   0.49621422   -108.17239   -3459.8689    4.2425044    4.2425044    4.2425044   -3459.8689   -8561.5967    2729.6669    -4547.677   -1466.0328   -3795.1018   -6687.7162    76.360173 
   89700    267.61556   -108.41828   0.24214418   -108.17614   -548.40717    4.2354239    4.2354239    4.2354239   -548.40717   -4174.6041    -2169.665    4699.0476    13359.371    433.56033     5429.865    75.978491 
   89800    391.20048   -108.52953   0.35396642   -108.17556   -3126.0504    4.2452836    4.2452836    4.2452836   -3126.0504   -13424.941   -39.408568    4086.1985    4895.3734     3212.027    5806.8203    76.510338 
   89900     528.7787   -108.65029   0.47845008   -108.17184     5613.407    4.2397531    4.2397531    4.2397531     5613.407   -667.08073    24800.393   -7293.0914   -1344.2128   -507.22107   -8415.6961    76.211707 
   90000    278.41258   -108.42732   0.25191355    -108.1754    -113.8307    4.2376562    4.2376562    4.2376562    -113.8307   -9604.8313    294.66431    8968.6749    13734.567    2231.4039    1484.1078    76.098689 
   90100    391.46065    -108.5295   0.35420182   -108.17529   -8760.7031    4.2445227    4.2445227    4.2445227   -8760.7031   -8368.4345   -7809.6171   -10104.058    4464.2816    1011.3566    9513.5039    76.469206 
   90200    518.00873   -108.64138   0.46870518   -108.17267    3211.4366    4.2404452    4.2404452    4.2404452    3211.4366   -5556.3605    22021.938   -6831.2682   -5949.0224   -1406.6563   -731.80107    76.249037 
   90300    314.59104   -108.45982   0.28464859   -108.17517    9061.3285    4.2348935    4.2348935    4.2348935    9061.3285    226.74418    14557.998    12399.244     6287.381    1531.6159    174.41148    75.949945 
   90400     282.9199   -108.43206   0.25599187   -108.17607   -8222.0039    4.2489869    4.2489869    4.2489869   -8222.0039   -15050.576    9177.4438   -18792.879    5876.0961    -527.7224    11122.488    76.710743 
   90500    533.47214   -108.65413   0.48269681   -108.17143    5221.2903    4.2348254    4.2348254    4.2348254    5221.2903    789.56476    6779.1169    8095.1893   -4697.9104   -2412.4711   -837.69175    75.946282 
   90600    482.62119   -108.61009    0.4366858   -108.17341   -2970.2568    4.2414133    4.2414133    4.2414133   -2970.2568   -10051.396    2554.5572   -1413.9312    4187.6227    1106.4116   -3553.0012    76.301272 
   90700    304.41205   -108.45001   0.27543842   -108.17457   -9654.8711    4.2462605    4.2462605    4.2462605   -9654.8711   -3619.3288   -8436.6142    -16908.67    8296.6921    3326.4572    12516.201    76.563169 
   90800    436.42534    -108.5661   0.39488682   -108.17121    8534.2764    4.2336023    4.2336023    4.2336023    8534.2764    1897.7732    15993.091    7711.9653   -8396.6972   -1120.9952    1923.3492      75.8805 
   90900     477.5311   -108.60329   0.43208018   -108.17121    -4234.359    4.2458677    4.2458677    4.2458677    -4234.359   -10147.543    8666.2949   -11221.829   -1384.0108   -1969.0842   -1582.7815    76.541925 
   91000    278.57257   -108.42663   0.25205832   -108.17457   -7187.8291     4.239649     4.239649     4.239649   -7187.8291   -1413.4142   -11332.123   -8817.9503    8645.8412    2846.8811    12316.105    76.206096 
   91100    365.78888    -108.5048   0.33097347   -108.17382   -4935.2389    4.2374843    4.2374843    4.2374843   -4935.2389   -4303.5265    -6918.813   -3583.3772   -11074.464    1661.3293    4397.0133    76.089426 
   91200    519.34738   -108.64214   0.46991643   -108.17223   -5490.2196     4.244961     4.244961     4.244961   -5490.2196   -8458.7736    1186.7184   -9198.6036   -1704.8201   -308.40059    -3368.858    76.492897 
   91300    260.59407   -108.41161   0.23579099   -108.17582    2509.7653    4.2381074    4.2381074    4.2381074    2509.7653    3567.7399    7126.1101   -3164.5542    10362.683    2284.6205    7765.0034    76.122999 
   91400    349.11938   -108.49139   0.31589055   -108.17549   -4297.8584    4.2383003    4.2383003    4.2383003   -4297.8584   -9198.0076    2022.4626     -5718.03   -6926.4986    44.742408    7713.4148     76.13339 
   91500    497.08032   -108.62197   0.44976872    -108.1722   -3775.9672    4.2477157    4.2477157    4.2477157   -3775.9672    -10346.61    3950.0867   -4931.3783   -6926.6306   -1833.3889   -2473.9751    76.641909 
   91600    444.06254   -108.57467   0.40179712   -108.17288    6405.4678    4.2329793    4.2329793    4.2329793    6405.4678    19640.806    92.979912   -517.38303    7765.9841     1265.874    4129.2693    75.847006 
   91700    357.17779   -108.49878   0.32318197   -108.17559   -3882.0109    4.2430584    4.2430584    4.2430584   -3882.0109    -8060.384    -71.71128   -3513.9376   -392.53321   -3101.5552    8088.7215    76.390092 
   91800    423.03522   -108.55586   0.38277116   -108.17309    6328.8376    4.2436575    4.2436575    4.2436575    6328.8376    12374.287    8357.4539   -1745.2286   -10842.592    1853.7777   -4266.9328    76.422453 
   91900    514.77445   -108.63704   0.46577874   -108.17126    6003.5377    4.2331528    4.2331528    4.2331528    6003.5377    5143.6682    13993.898   -1126.9533    7850.4272    3771.5898    3233.1709    75.856331 
   92000    240.44182    -108.3919   0.21755681   -108.17434   -3503.8483    4.2460348    4.2460348    4.2460348   -3503.8483   -5301.4633    1238.3854    -6448.467   -502.19844    577.53362    7983.0527    76.550963 
   92100    394.64342   -108.52892   0.35708166   -108.17183    1050.9238    4.2400999    4.2400999    4.2400999    1050.9238     10301.17   -2870.6083   -4277.7906   -11410.322    544.19376   -2555.0171     76.23041 
   92200    502.53219   -108.62592   0.45470168   -108.17121    4076.0686     4.236361     4.236361     4.236361    4076.0686    5852.6156    6578.5139   -202.92384    3954.0483    661.27669    2109.8871    76.028931 
   92300    231.18363   -108.38371   0.20917981   -108.17453    1396.4912    4.2448616    4.2448616    4.2448616    1396.4912    6750.6275   -1354.0291   -1207.1248    3614.9268    2716.0619      7775.82    76.487523 
   92400    427.85759   -108.56014   0.38713454   -108.17301   -7800.0731    4.2404926    4.2404926    4.2404926   -7800.0731   -11757.676    -8129.138    -3513.405   -9759.5333   -3641.5287   -2026.9068    76.251593 
   92500    467.09372     -108.595   0.42263621   -108.17237    9083.6315    4.2350528    4.2350528    4.2350528    9083.6315    11085.385     8519.166    7646.3435   -4309.8161   -299.84634    -5075.065    75.958519 
   92600    422.85819   -108.55614   0.38261097   -108.17353   -6030.3995      4.24759      4.24759      4.24759   -6030.3995   -1706.8462   -10250.013    -6134.339    2912.6563    2850.0271      7992.74    76.635107 
   92700    380.41189   -108.51788   0.34420467   -108.17367   -1310.5214    4.2365508    4.2365508    4.2365508   -1310.5214    6201.8279   -13349.072    3215.6801   -11859.681    464.97958    825.58783    76.039151 
   92800    437.02755   -108.56871   0.39543171   -108.17328    4878.9587    4.2391482    4.2391482    4.2391482    4878.9587    7880.7124      638.837    6117.3268   -6025.0773   -1297.5852   -8307.4159    76.179091 
   92900    473.40349   -108.60082   0.42834542   -108.17247   -8155.3727    4.2464091    4.2464091    4.2464091   -8155.3727   -7494.5423   -7551.2378   -9420.3381    5399.4271   -858.85993     7055.263    76.571208 
   93000    265.12075   -108.41306   0.23988683   -108.17318    1490.2472    4.2344371    4.2344371    4.2344371    1490.2472    2082.6924   -2277.4335    4665.4828   -13784.835    3188.3971     2680.119    75.925397 
   93100     400.0884   -108.53488    0.3620084   -108.17287   -4918.3887    4.2426506    4.2426506    4.2426506   -4918.3887   -3753.0763   -5215.6935   -5786.3964   -4446.6095   -1195.8062   -8792.7328     76.36807 
   93200    439.85202   -108.56973   0.39798735   -108.17174   -853.22187    4.2428011    4.2428011    4.2428011   -853.22187    9341.3315   -2895.8902   -9005.1069    2358.9428    2574.7616    1714.0626    76.376194 
   93300    302.87692   -108.44825    0.2740494    -108.1742   -1280.0472    4.2362472    4.2362472    4.2362472   -1280.0472   -49.999004   -9016.3132    5226.1706   -11991.135   -1835.5207    2102.5151    76.022804 
   93400    352.44091   -108.49422   0.31889594   -108.17532   -4657.1158    4.2429737    4.2429737    4.2429737   -4657.1158    7523.4751   -14730.109   -6764.7138   -983.76049   -173.10051   -8818.9546    76.385514 
   93500     553.5738    -108.6723    0.5008852   -108.17141   -2008.6302    4.2427469    4.2427469    4.2427469   -2008.6302    3876.8078   -2637.5368   -7265.1615   -831.82444   -832.40497    -1472.816     76.37327 
   93600    425.29535    -108.5574   0.38481617   -108.17259    2919.3882    4.2353565    4.2353565    4.2353565    2919.3882   -2358.5124   -1259.6022    12376.279   -6936.1773   -2667.2882    4810.9741    75.974861 
   93700    330.72472   -108.47435   0.29924668   -108.17511   -8286.8335    4.2459121    4.2459121    4.2459121   -8286.8335     8622.616   -20442.418   -13040.698   -5903.1065    1491.7535   -13603.164    76.544324 
   93800    474.85133   -108.60151   0.42965546   -108.17186    7454.4344    4.2380197    4.2380197    4.2380197    7454.4344    12922.811    8971.4388     469.0535     699.7801    2290.9063   -5581.4669    76.118272 
   93900    466.63332   -108.59413   0.42221964   -108.17191    1765.1561    4.2379402    4.2379402    4.2379402    1765.1561    9539.8333   -1840.3138   -2404.0511   -1574.7033    3465.7965    6219.8822    76.113988 
   94000    206.25307   -108.36232   0.18662211    -108.1757   -5835.4388    4.2448056    4.2448056    4.2448056   -5835.4388    5647.0692   -6890.2165   -16263.169    -8147.995   -1611.1908   -13195.103    76.484496 
   94100    408.23746   -108.54323   0.36938183   -108.17385    3698.4508    4.2373372    4.2373372    4.2373372    3698.4508     3099.638    12748.297   -4752.5829    5912.1817    47.384318   -7703.4198    76.081503 
   94200    556.82196   -108.67578   0.50382421   -108.17195    3143.8804    4.2389045    4.2389045    4.2389045    3143.8804    2007.8408     5859.338    1564.4625   -4988.9835    91.662802     5538.995    76.165954 
   94300    196.37326   -108.35415   0.17768265   -108.17647    -2302.648    4.2454569    4.2454569    4.2454569    -2302.648   -1930.5527    2351.5716   -7328.9628   -7866.7913   -1021.2231    -11368.63    76.519709 
   94400    406.13272   -108.54208   0.36747742    -108.1746    2816.2517    4.2354508    4.2354508    4.2354508    2816.2517    16278.841   -3070.7034   -4759.3826    1408.6372     82.13696   -13955.688    75.979936 
   94500    560.77171   -108.67968   0.50739803   -108.17228      5972.54    4.2413817    4.2413817    4.2413817      5972.54    4033.2755    12608.758    1275.5867   -1794.8587    641.40871    2680.5776    76.299567 
   94600    341.69488   -108.48534   0.30917271   -108.17617   -5574.6028    4.2438444    4.2438444    4.2438444   -5574.6028   -5428.9555   -4520.2163   -6774.6366   -5548.6007    1236.6714   -8502.3441     76.43255 
   94700    354.74587   -108.49604   0.32098152   -108.17506   -2126.2043    4.2352637    4.2352637    4.2352637   -2126.2043    11576.767   -12253.183   -5702.1965   -1981.2517   -2601.2454    -12775.53    75.969866 
   94800    559.94923   -108.67877   0.50665383   -108.17211   -738.31824    4.2434314    4.2434314    4.2434314   -738.31824   -11237.991    10063.061   -1040.0248     7745.652   -1265.2762    5089.8809    76.410241 
   94900    379.50404    -108.5179   0.34338323   -108.17452   -8066.6846    4.2415057    4.2415057    4.2415057   -8066.6846   -1446.5993   -12374.046   -10379.409   -8866.9814    645.55753   -8981.4715    76.306258 
   95000    199.02983   -108.35613   0.18008637   -108.17604   -3485.3321    4.2364312    4.2364312    4.2364312   -3485.3321    6155.9719   -10373.499   -6238.4691   -4390.6845    1032.1822   -13544.867     76.03271 
   95100    446.91763   -108.57628   0.40438046    -108.1719   -2969.9013    4.2454238    4.2454238    4.2454238   -2969.9013   -7047.5803    1690.7242   -3552.8478    7335.5095   -847.23396    4780.2935    76.517918 
   95200    419.48921   -108.55185   0.37956266   -108.17229   -849.16145    4.2383532    4.2383532    4.2383532   -849.16145    6595.0232   -5014.5252   -4127.9824   -9642.5795    1417.3138   -8097.6982    76.136243 
   95300    251.52387   -108.40253   0.22758409   -108.17495   -2247.0314     4.238843     4.238843     4.238843   -2247.0314    3434.8702   -5645.2723    -4530.692   -3148.4288   -1087.8433   -13426.004    76.162643 
   95400    530.17072   -108.65154   0.47970961   -108.17183   -5709.5801    4.2450436    4.2450436    4.2450436   -5709.5801   -10723.773    3074.3162   -9479.2839    5315.1866   -1935.2594    5719.5041    76.497361 
   95500    516.84797   -108.63918    0.4676549   -108.17153    4281.3424    4.2364833    4.2364833    4.2364833    4281.3424    739.37412    4943.2262    7161.4269   -2309.0802    -2096.826   -507.94877    76.035516 
   95600    359.55476   -108.49942   0.32533271   -108.17409    207.49033    4.2412677    4.2412677    4.2412677    207.49033    1392.0755    1894.4542   -2664.0587   -2879.1539   -2574.1448   -15239.829    76.293413 
   95700    415.40796   -108.54902   0.37586985   -108.17315    442.75516    4.2439752    4.2439752    4.2439752    442.75516   -1493.0364    5075.5357   -2254.2338    4023.8046    3754.8332    2159.2038    76.439617 
   95800    405.21046   -108.53843   0.36664294   -108.17178    12033.608    4.2338652    4.2338652    4.2338652    12033.608    17781.189    11895.468    6424.1672    3560.8086    1758.2453    5240.6329    75.894636 
   95900    319.20242   -108.46278   0.28882106   -108.17396   -1793.5304     4.245084     4.245084     4.245084   -1793.5304    8470.6724    4477.3442   -18328.608   -5827.0407    2870.6857   -13995.915    76.499549 
   96000    353.84761   -108.49288   0.32016876   -108.17271    1244.7111    4.2399339    4.2399339    4.2399339    1244.7111    3664.9509     1719.912   -1650.7295    3071.3652   -311.47541    1752.0963    76.221461 
   96100    417.72485   -108.54985   0.37796622   -108.17188    4363.8447    4.2367043    4.2367043    4.2367043    4363.8447     7841.512    7961.5382    -2711.516    2600.3891   -1402.2693    8656.9324    76.047415 
   96200    421.72183   -108.55397   0.38158277   -108.17239   -5701.2232    4.2463165    4.2463165    4.2463165   -5701.2232    2280.2459   -5677.5972   -13706.318   -5274.8206   -1436.0847     -12975.1    76.566196 
   96300    428.14376    -108.5594   0.38739347   -108.17201   -294.68435    4.2374065    4.2374065    4.2374065   -294.68435   -2493.6244   -2602.2367     4211.808    810.90707   -4887.0638   -2595.3766    76.085236 
   96400    421.07989   -108.55368   0.38100194   -108.17268    80.236887    4.2389402    4.2389402    4.2389402    80.236887    5823.7624    -5544.213   -38.838769    6657.1408    1824.4828    8317.2702    76.167883 
   96500    456.16492   -108.58486   0.41274761   -108.17211   -7539.2744    4.2461343    4.2461343    4.2461343   -7539.2744    982.67983   -14570.997   -9029.5062   -1486.3133    408.49419   -8497.3696    76.556341 
   96600    363.66602   -108.50147   0.32905266   -108.17242    5678.3383    4.2335976    4.2335976    4.2335976    5678.3383    14217.668   -1831.8421    4649.1891   -6042.3354    3384.1418    -3996.033    75.880247 
   96700    398.38194   -108.53426   0.36046435    -108.1738   -8464.3842    4.2434733    4.2434733    4.2434733   -8464.3842    47.083799   -14192.646   -11247.591    8928.9662   -554.94325    10164.112    76.412501 
   96800    332.67091   -108.47424   0.30100763   -108.17324   -4687.0023    4.2432858    4.2432858    4.2432858   -4687.0023    958.78283    1511.3587   -16531.148    -127.2362   -2338.3577   -6872.1428    76.402371 
   96900    435.84347   -108.56531   0.39436033   -108.17095    1137.4523    4.2322921    4.2322921    4.2322921    1137.4523    6626.8929   -1665.5421   -1548.9939   -9040.6119    3110.8144   -7992.2555    75.810069 
   97000    348.60598   -108.48795   0.31542601   -108.17252   -11242.444    4.2485273    4.2485273    4.2485273   -11242.444   -16450.432    -4654.651   -12622.248    5604.1281   -5259.7041    8016.3498    76.685849 
   97100    342.18571   -108.48332   0.30961682    -108.1737    7567.2749    4.2348442    4.2348442    4.2348442    7567.2749    14273.585    9145.9368   -717.69668    4916.9616    488.61566    -2712.956    75.947295 
   97200     545.9303   -108.66688   0.49396921   -108.17291    871.75773    4.2387775    4.2387775    4.2387775    871.75773    1120.1928    259.80614    1235.2743   -6724.8912   -367.54986   -6186.5754    76.159108 
   97300     302.9034   -108.44913   0.27407336   -108.17506    3083.1187    4.2452957    4.2452957    4.2452957    3083.1187   -842.17167    12471.724   -2380.1962    1188.3703    2502.4218    6433.6122    76.510993 
   97400    456.11734   -108.58592   0.41270455   -108.17322     1480.182    4.2343787    4.2343787    4.2343787     1480.182    3554.6832   -5374.3739    6260.2367    14158.537   -308.14797    4303.7271    75.922252 
   97500    497.99511   -108.62291   0.45059644   -108.17231    5042.2258    4.2411106    4.2411106    4.2411106    5042.2258    2386.7658    13881.514   -1141.6027   -6377.4416   -2032.6547   -5256.3559    76.284935 
   97600    373.24103   -108.51194   0.33771633   -108.17423   -4590.7839    4.2440667    4.2440667    4.2440667   -4590.7839   -3144.9141   -4967.4752   -5659.9624   -554.90294    2013.2461    4213.7258    76.444566 
   97700    309.87942   -108.45473   0.28038541   -108.17435    2666.6328    4.2324549    4.2324549    4.2324549    2666.6328    7846.5704   -1191.7731    1345.1012    10672.228   -1884.0717    7021.7611     75.81882 
   97800    428.20934      -108.56   0.38745281   -108.17255   -2123.1911    4.2466391    4.2466391    4.2466391   -2123.1911    5029.0506    4680.7921   -16079.416   -5231.5716    3185.0862   -3518.8999    76.583648 
   97900    366.22713    -108.5046   0.33137001   -108.17323   -1343.0701    4.2382182    4.2382182    4.2382182   -1343.0701    4346.2582   -9784.9427    1409.4742   -2011.5433   -652.38735    2864.4342    76.128967 
   98000    235.66778   -108.38879   0.21323716   -108.17555    1384.6837    4.2356544    4.2356544    4.2356544    1384.6837    4721.4386   -2794.5543    2227.1667    9370.7715    548.96693    8850.1995    75.990894 
   98100    551.37389   -108.67058   0.49889468   -108.17169   -6312.0298    4.2475746    4.2475746    4.2475746   -6312.0298   -3042.1185   -6659.7012   -9234.2698    4299.1532    406.83515   -1838.0606    76.634273 
   98200    463.38878   -108.59208   0.41928391    -108.1728    7042.5774    4.2330919    4.2330919    4.2330919    7042.5774    3658.2012    5199.0823    12270.449   -6924.9915   -1867.8852   -1873.0271    75.853058 
   98300    321.00887   -108.46715   0.29045558    -108.1767   -6383.1724    4.2422632    4.2422632    4.2422632   -6383.1724   -9898.8872   -6013.4956   -3237.1344    7814.4543   -1469.7997    11684.749    76.347152 
   98400    461.44779   -108.59138   0.41752766   -108.17385    2552.3252    4.2437446    4.2437446    4.2437446    2552.3252    6956.7468    7102.8559   -6402.6272     3693.523   -1468.1277    300.45141    76.427157 
   98500    568.24756   -108.68564   0.51416234   -108.17148     8348.953    4.2321768    4.2321768    4.2321768     8348.953    6111.9205    14522.931    4412.0071   -10163.243    4576.6478   -3259.7472    75.803872 
   98600    200.08206   -108.35739   0.18103845   -108.17635   -3468.9693     4.246666     4.246666     4.246666   -3468.9693   -3710.2476    4047.4381   -10744.099    10063.831   -571.23503    9854.7337    76.585107 
   98700    390.90816     -108.528   0.35370191    -108.1743    988.00848    4.2387613    4.2387613    4.2387613    988.00848    28.200687    11629.685   -8693.8601    6110.7637    1069.8017    4291.5508    76.158236 
   98800    499.90255   -108.62384   0.45232233   -108.17152    11366.018    4.2333626    4.2333626    4.2333626    11366.018    2287.4691    28892.282    2918.3033   -3991.3801    1707.3192   -3482.6022    75.867613 
   98900    251.35016    -108.4033   0.22742691   -108.17587   -9982.4231    4.2502492    4.2502492    4.2502492   -9982.4231   -13954.292   -889.03868   -15103.939    5470.4142   -1012.8868    5783.9591    76.779131 
   99000    331.20662   -108.47447   0.29968271   -108.17479    3887.4956    4.2326035    4.2326035    4.2326035    3887.4956    6899.1557   -389.99083    5153.3219    9010.6769    -3578.115    9804.7183    75.826806 
   99100    561.30049   -108.68023   0.50787648   -108.17235    4996.3749    4.2396182    4.2396182    4.2396182    4996.3749    1009.5546    14699.068   -719.49794    212.33269   -1533.1457   -5509.7226    76.204435 
   99200    382.51611   -108.52039   0.34610861   -108.17428   -11230.028    4.2479103    4.2479103    4.2479103   -11230.028   -5617.1675   -17853.956   -10218.961    906.39682    853.39659    2486.1255    76.652446 
   99300    299.18016   -108.44499    0.2707045   -108.17429    1680.9808    4.2294767    4.2294767    4.2294767    1680.9808    2417.8258   -3625.9804     6251.097    15937.983     468.2999     11048.37     75.65888 
   99400    603.18654   -108.71729   0.54577586   -108.17151   -9873.5725    4.2470577    4.2470577    4.2470577   -9873.5725     -5221.32   -8392.5282   -16006.869   -4045.8529    2362.7634   -2335.5974    76.606298 
   99500     419.2143   -108.55225    0.3793139   -108.17294   -8050.2671    4.2416024    4.2416024    4.2416024   -8050.2671    -3733.707   -11190.924   -9226.1702   -111.14212    -1881.125    3337.0601    76.311476 
   99600    252.28842   -108.40182   0.22827587   -108.17354   -4100.7711    4.2328563    4.2328563    4.2328563   -4100.7711    1636.0502    -13348.83   -589.53301    17352.932   -54.738691    8769.1716    75.840395 
   99700    430.87685   -108.56152   0.38986643   -108.17165   -7724.4867    4.2478428    4.2478428    4.2478428   -7724.4867    573.13817   -721.77889   -23024.819   -4621.0133    1385.8109   -4895.0139    76.648789 
   99800     413.1882   -108.54606   0.37386136    -108.1722   -911.62133    4.2369853    4.2369853    4.2369853   -911.62133    5797.9535    679.21943   -9212.0369    8946.9981   -1183.3721   -567.12526    76.062549 
   99900    193.00784   -108.35011   0.17463755   -108.17547    3970.5248    4.2362885    4.2362885    4.2362885    3970.5248    13451.326   -2056.4604    516.70894     11738.17   -3545.0273     10677.63    76.025028 
  100000    470.72426   -108.59878   0.42592121   -108.17286   -9528.3323    4.2485762    4.2485762    4.2485762   -9528.3323   -9454.2124   -968.81212   -18161.972    1241.7346    1519.9985   -5727.9873    76.688499 
Loop time of 22.6023 on 1 procs for 100000 steps with 8 atoms

Pair  time (%) = 7.55128 (33.4094)
Kspce time (%) = 5.30255 (23.4602)
Neigh time (%) = 0 (0)
Comm  time (%) = 1.06366 (4.70596)
Outpt time (%) = 0.0261242 (0.115582)
Other time (%) = 8.65868 (38.3088)

Nlocal:    8 ave 8 max 8 min
Histogram: 1 0 0 0 0 0 0 0 0 0
Nghost:    2189 ave 2189 max 2189 min
Histogram: 1 0 0 0 0 0 0 0 0 0
Neighs:    2472 ave 2472 max 2472 min
Histogram: 1 0 0 0 0 0 0 0 0 0

Total # of neighbors = 2472
Ave neighs/atom = 309
Neighbor list builds = 0
Dangerous builds = 0
unfix 20
unfix 21
print "seeds:5118150"
seeds:5118150
