LAMMPS (10 Feb 2015)
# ---- initialize simulations
clear
units metal
dimension 3
boundary p p p
atom_style charge
atom_modify map array
# ---- create atoms
read_data /Users/eugeneragasa/pyflamestk_git/pypospack/tests/tests_integration/workflow/WorkflowLammpsThermalExpansion/param_6993/MgO_NaCl_unit.npt.T1700/lammps.structure
  triclinic box = (0 0 0) to (4.2565 4.2565 4.2565) with tilt (0 0 0)
  1 by 1 by 1 MPI processor grid
  reading atoms ...
  8 atoms
# ---- define interatomic potential
include potential.mod
mass 1 24.305
mass 2 15.999

group Mg type 1
4 atoms in group Mg
group O type 2
4 atoms in group O

set group Mg charge 1.61814101446
  4 settings made for charge
set group O charge -1.61814101446
  4 settings made for charge

variable R_cut equal 10.0

pair_style buck/coul/long ${R_cut}
pair_style buck/coul/long 10
pair_coeff 1 1 0.0 0.5 0.0 ${R_cut}
pair_coeff 1 1 0.0 0.5 0.0 10
pair_coeff 1 2 1169.10574889 0.285525631363 0.0 ${R_cut}
pair_coeff 1 2 1169.10574889 0.285525631363 0.0 10
pair_coeff 2 2 5328.19415446 0.197938803692 16.6059399876 ${R_cut}
pair_coeff 2 2 5328.19415446 0.197938803692 16.6059399876 10

kspace_style pppm 1.0e-5

neighbor 1.0 bin
neigh_modify every 1 delay 0 check yes
# ---- define settings
compute eng all pe/atom
compute eatoms all reduce sum c_eng
# ---- run minimization
reset_timestep 0
fix 1 all box/relax iso 0.0 vmax 0.001
thermo 10
thermo_style custom step pe lx ly lz xy xz yz press pxx pyy pzz pxy pxz pyz c_eatoms
min_style cg
minimize 1e-25 1e-25 5000 10000
PPPM initialization ...
  G vector (1/distance) = 0.352506
  grid = 8 8 8
  stencil order = 5
  estimated absolute RMS force accuracy = 3.81426e-05
  estimated relative force accuracy = 2.64886e-06
  using double precision FFTs
  3d grid and FFT values/proc = 3375 512
Neighbor list info ...
  1 neighbor list requests
  update every 1 steps, delay 0 steps, check yes
  master list distance cutoff = 11
Memory usage per processor = 4.06549 Mbytes
Step PotEng Lx Ly Lz Xy Xz Yz Press Pxx Pyy Pzz Pxy Pxz Pyz eatoms 
       0   -108.09373       4.2565       4.2565       4.2565            0            0            0    -32837.55    -32837.55    -32837.55    -32837.55 6.8800808e-12 1.9793426e-10 1.5308399e-10   -108.09373 
       9   -108.11055     4.226584     4.226584     4.226584            0            0            0    13.792758    13.792758    13.792758    13.792758 -4.4920118e-11 -8.154534e-11 2.0970287e-11   -108.11055 
Loop time of 0.0110879 on 1 procs for 9 steps with 8 atoms

Minimization stats:
  Stopping criterion = linesearch alpha is zero
  Energy initial, next-to-last, final = 
         -108.09372829     -108.110551709     -108.110551709
  Force two-norm initial, final = 4.74176 0.0024943
  Force max component initial, final = 4.74176 0.00196378
  Final line search alpha, max atom move = 0.00390625 7.67103e-06
  Iterations, force evaluations = 9 28

Pair  time (%) = 0.00310516 (28.005)
Kspce time (%) = 0.0017736 (15.9958)
Neigh time (%) = 0 (0)
Comm  time (%) = 0.000347376 (3.13293)
Outpt time (%) = 0 (0)
Other time (%) = 0.00586176 (52.8663)

Nlocal:    8 ave 8 max 8 min
Histogram: 1 0 0 0 0 0 0 0 0 0
Nghost:    2189 ave 2189 max 2189 min
Histogram: 1 0 0 0 0 0 0 0 0 0
Neighs:    2344 ave 2344 max 2344 min
Histogram: 1 0 0 0 0 0 0 0 0 0

Total # of neighbors = 2344
Ave neighs/atom = 293
Neighbor list builds = 0
Dangerous builds = 0
unfix 1
# ---- define output variables ----
variable natoms equal "count(all)"
variable tot_energy equal "c_eatoms"
variable length_x equal "lx"
variable length_y equal "ly"
variable length_z equal "lz"
variable tilt_xy equal "xy"
variable tilt_xz equal "xz"
variable tilt_yz equal "yz"
variable tot_press equal "press"
variable press_xx equal "pxx"
variable press_yy equal "pyy"
variable press_zz equal "pzz"
variable press_xy equal "pxy"
variable press_xz equal "pxz"
variable press_yz equal "pyz"

# ---- output ----
print "pypospack:output_section:begin"
pypospack:output_section:begin
print "tot_energy = ${tot_energy}"
tot_energy = -108.110551708828
print "num_atoms = ${natoms}"
num_atoms = 8
print "xx = ${length_x}"
xx = 4.22658398474032
print "yy = ${length_y}"
yy = 4.22658398474032
print "zz = ${length_z}"
zz = 4.22658398474032
print "xy = ${tilt_xy}"
xy = 0
print "xz = ${tilt_xz}"
xz = 0
print "yz = ${tilt_yz}"
yz = 0
print "tot_press = ${tot_press}"
tot_press = 13.7927584127517
print "pxx = ${press_xx}"
pxx = 13.7927584125475
print "pyy = ${press_yy}"
pyy = 13.7927584121258
print "pzz = ${press_zz}"
pzz = 13.7927584135819
print "pxy = ${press_xy}"
pxy = -4.49201179574407e-11
print "pxz = ${press_xz}"
pxz = -8.15453399591787e-11
print "pyz = ${press_yz}"
pyz = 2.09702873442201e-11
print "pypospack:output_section:done"
pypospack:output_section:done
print "pypospack:lammps_sim:done"
pypospack:lammps_sim:done
#------------------------------------------------------------------------------
# RUN THERMOSTAT
# running using an NPT Nose-Hoover style thermostat
#------------------------------------------------------------------------------
variable tempdamp equal 0.1
variable pressdamp equal 1.0
# set initial velocities
velocity all create 1700 74519 mom yes dist gaussian loop all
# fix for Nose-Hoover style thermostat
fix 20 all npt temp 1700 1700 0.1 aniso 0.0 0.0 1.0 drag 1.0 couple xyz
variable boxx equal lx
variable boxy equal ly
variable boxz equal lz
variable boxp equal press
variable boxt equal temp
# calculate averages every 10000 steps
reset_timestep 0
fix 21 all ave/time 10 10 100 v_boxx v_boxy v_boxz v_boxp v_boxt file lattice.out
thermo_style custom step temp pe ke etotal press lx ly lz press pxx pyy pzz pxy pxz pyz vol
thermo_modify flush yes
thermo 100
run 100000
PPPM initialization ...
  G vector (1/distance) = 0.352801
  grid = 8 8 8
  stencil order = 5
  estimated absolute RMS force accuracy = 3.76353e-05
  estimated relative force accuracy = 2.61363e-06
  using double precision FFTs
  3d grid and FFT values/proc = 3375 512
Memory usage per processor = 3.06549 Mbytes
Step Temp PotEng KinEng TotEng Press Lx Ly Lz Press Pxx Pyy Pzz Pxy Pxz Pyz Volume 
       0         1700   -108.11055    1.5381957   -106.57235    21774.287     4.226584     4.226584     4.226584    21774.287    16757.619    20217.825    28347.418    4095.5828    13019.518    9314.1972    75.503748 
     100    1099.4416    -107.3547   0.99479788    -106.3599     14211.14    4.2416228    4.2416228    4.2416228     14211.14    7308.3427    38172.778   -2847.7002    -3369.736   -7141.1022   -3357.2629    76.312579 
     200    949.96044   -106.80731   0.85954417   -105.94776   -21862.565    4.2700205    4.2700205    4.2700205   -21862.565   -20042.885    11164.297   -56709.108    5605.8187   -11294.689   -8785.5535    77.855605 
     300    1240.2175   -106.69535    1.1221748   -105.57317   -29101.515    4.2760939    4.2760939    4.2760939   -29101.515   -22773.994    12456.926   -76987.476    11657.117    1045.2333    10777.261    78.188287 
     400    862.85405   -106.05824   0.78072848   -105.27751    887.14551    4.2602702    4.2602702    4.2602702    887.14551   -203.33391    42345.615   -39480.844   -8314.4229   -7568.0108   -3786.1688    77.323488 
     500    2233.8603   -107.10412    2.0212438   -105.08287    11569.321    4.2582074    4.2582074    4.2582074    11569.321    6440.1866    6253.3947    22014.382    17439.078    4510.7635    3545.4373    77.211221 
     600    2566.1804   -107.31978    2.3219339   -104.99785    9848.0741    4.2633136    4.2633136    4.2633136    9848.0741   -1363.2107    4209.3742    26698.059    8686.3237   -22376.207    1638.5413    77.489315 
     700    1961.0728   -106.75324    1.7744199   -104.97882    7877.8199    4.2671464    4.2671464    4.2671464    7877.8199     22307.42    21067.547   -19741.507    -15513.22   -24738.504   -13272.999    77.698499 
     800    1396.6267   -106.23573    1.2636972   -104.97204   -18057.696     4.277005     4.277005     4.277005   -18057.696    6780.1636    17119.035   -78072.287    3233.4039    9199.4711    17476.098    78.238275 
     900    958.19571   -105.84249   0.86699561   -104.97549   -13190.148    4.2739533    4.2739533    4.2739533   -13190.148   -840.28769    33092.678   -71822.834    5796.4245   -17109.809    12595.997    78.070922 
    1000    1727.8216   -106.53916    1.5633693   -104.97579     17956.69    4.2633393    4.2633393    4.2633393     17956.69    21177.319    6942.5814    25750.169   -19452.662   -6543.5562   -14794.377    77.490721 
    1100    2465.0358   -107.21221    2.2304162   -104.98179    4526.3622    4.2612433    4.2612433    4.2612433    4526.3622   -5500.5946   -11403.836    30483.517   -343.05427   -3215.9107    5019.4048    77.376485 
    1200    2149.9647   -106.93374    1.9453332    -104.9884    11572.428    4.2651384    4.2651384    4.2651384    11572.428   -8822.8241    15367.647     28172.46   -1693.4334   -25004.338     1616.586    77.588864 
    1300    1413.2295   -106.26859    1.2787197   -104.98987    1289.8526    4.2739825    4.2739825    4.2739825    1289.8526    17909.411   -15948.635    1908.7824   -17684.594   -3439.9556    13371.083    78.072522 
    1400    940.59414   -105.83923   0.85106935   -104.98816   -27439.333    4.2772503    4.2772503    4.2772503   -27439.333   -6427.4216   -1559.6595   -74330.919    5406.7073   -12487.072    15845.543    78.251738 
    1500    1215.1626   -106.08103    1.0995047   -104.98153   -13458.105    4.2649192    4.2649192    4.2649192   -13458.105   -46011.033    24839.783   -19203.067   -8462.9953   -13558.345   -4161.4651    77.576903 
    1600    1623.9828   -106.45525    1.4694137   -104.98583    17207.248    4.2587462    4.2587462    4.2587462    17207.248   -4766.5215   -8305.1372    64693.404   -22064.387    8417.3562    10477.113    77.240534 
    1700    2084.7502   -106.87974    1.8863258   -104.99342    2783.9698    4.2742569    4.2742569    4.2742569    2783.9698   -20785.181    -6181.097    35318.187    9840.1542   -18989.794    29275.354     78.08756 
    1800    2287.9542   -107.05191     2.070189   -104.98172   -16393.104    4.2809743    4.2809743    4.2809743   -16393.104   -43942.429   -22637.517    17400.636   -14128.735   -14886.579    8437.9368    78.456307 
    1900    1616.6194   -106.44212    1.4627512   -104.97937   -6420.2733    4.2638524    4.2638524    4.2638524   -6420.2733    19218.596   -31708.478   -6770.9377   -19303.602    4469.8378    25433.459      77.5187 
    2000    1012.1489   -105.89952   0.91581362   -104.98371    5808.6704    4.2521209    4.2521209    4.2521209    5808.6704    27145.302    43004.711   -52724.002    10100.314    -26230.41    14771.899    76.880611 
    2100    1633.5096   -106.47413    1.4780338    -104.9961   -17412.625     4.266828     4.266828     4.266828   -17412.625   -48049.904    5462.6997   -9650.6714   -18521.128   -5629.4962   -1486.9557     77.68111 
    2200    1762.2224   -106.58943    1.5944959   -104.99494   -25975.195    4.2762767    4.2762767    4.2762767   -25975.195   -39572.364   -37293.621   -1059.6005   -15907.889   -7440.8054    31957.756    78.198314 
    2300    1919.3672   -106.72499    1.7366838    -104.9883    20156.999    4.2654823    4.2654823    4.2654823    20156.999    41768.657    20823.218   -2120.8795    6726.7861    -38051.35    8408.5681     77.60763 
    2400    2343.2672   -107.10346    2.1202374   -104.98323    9410.2308    4.2671786    4.2671786    4.2671786    9410.2308    16390.387    1667.7399    10172.566    2155.3231   -993.44566   -10281.028    77.700256 
    2500    1283.8982   -106.15622     1.161698   -104.99452   -2267.9573    4.2708387    4.2708387    4.2708387   -2267.9573    47412.457    643.44144    -54859.77   -14445.285   -22175.481     25762.03    77.900368 
    2600    1523.7059   -106.36245    1.3786811   -104.98377    488.05482    4.2692246    4.2692246    4.2692246    488.05482    13244.615     40763.34   -52543.791   -4236.0859   -26117.181   -662.78844    77.812079 
    2700    1762.3569   -106.57818    1.5946176   -104.98356   -7004.3827    4.2737026    4.2737026    4.2737026   -7004.3827   -43010.246    25458.609   -3461.5111   -46.037099    5312.3768   -11964.893    78.057185 
    2800    1336.1849   -106.19931    1.2090082    -104.9903   -9493.0968    4.2780157    4.2780157    4.2780157   -9493.0968   -43011.463    32718.458   -18186.285   -6236.9944   -40053.968    9698.9077    78.293757 
    2900     2097.312   -106.87344     1.897692   -104.97575    18609.538    4.2727984    4.2727984    4.2727984    18609.538    30588.843    26479.805   -1240.0352   -6353.1427    7378.5812   -5019.7313    78.007653 
    3000    1871.7743   -106.67166    1.6936207   -104.97804    5434.5027    4.2677753    4.2677753    4.2677753    5434.5027    23154.045    6101.7468   -12952.284   -14903.124   -21555.491    8379.9682    77.732858 
    3100    1089.4339   -105.97266   0.98574264   -104.98692   -10116.214    4.2731092    4.2731092    4.2731092   -10116.214    38997.414   -10815.778   -58530.278   -17900.307   -40737.422    10798.146    78.024678 
    3200    1557.3926    -106.3816    1.4091616   -104.97244   -685.85974     4.272749     4.272749     4.272749   -685.85974    6570.8636    -14054.74    5426.2968    -7631.982    20448.072    -6061.779    78.004945 
    3300    1292.0573   -106.15078    1.1690806    -104.9817    -7323.641    4.2705635    4.2705635    4.2705635    -7323.641   -34616.939    5363.9904    7282.0255   -3346.2994   -44296.331     13971.55    77.885308 
    3400    1992.0095   -106.78738    1.8024121   -104.98497   -11880.179    4.2801201    4.2801201    4.2801201   -11880.179   -8476.7602   -7455.3773     -19708.4   -7809.1657   -7418.8072    19410.792    78.409353 
    3500    2351.5605   -107.10704    2.1277413    -104.9793    2954.3078    4.2746952    4.2746952    4.2746952    2954.3078    11283.632    18200.173   -20620.882    4268.5492    11397.182    3480.6643    78.111588 
    3600    1639.5429   -106.46019    1.4834928    -104.9767    19777.088     4.258092     4.258092     4.258092    19777.088    40747.691    16690.461    1893.1115    12966.639   -42536.983    2829.5691    77.204945 
    3700    1383.5525   -106.23633    1.2518674   -104.98446   -1257.6546    4.2714064    4.2714064    4.2714064   -1257.6546    30041.182   -35286.756    1472.6108   -16063.549    6682.5081    6042.8441    77.931435 
    3800    686.36922   -105.60712    0.6210413   -104.98608   -30597.859    4.2780089    4.2780089    4.2780089   -30597.859   -53777.344    12429.434   -50445.668   -11985.373   -26771.082    2003.1468    78.293384 
    3900    1683.2747   -106.50023    1.5230623   -104.97717    12257.238     4.258146     4.258146     4.258146    12257.238   -7118.2454    59715.184   -15825.223    18407.533   -19672.103    6979.0905    77.207882 
    4000    2436.3245   -107.19304    2.2044376   -104.98861   -926.10009    4.2639317    4.2639317    4.2639317   -926.10009   -12645.294    23795.253    -13928.26   -2181.3298   -8715.0022   -2142.0288    77.523025 
    4100    2209.4417   -106.99348    1.9991493   -104.99433   -21302.289    4.2695949    4.2695949    4.2695949   -21302.289   -42992.025    43368.805   -64283.646    -20951.88    -38390.29   -7781.7567    77.832328 
    4200    2197.1277   -106.96853    1.9880073   -104.98052    20710.943    4.2573192    4.2573192    4.2573192    20710.943    36470.276    29206.556   -3544.0023    3852.7398    427.83396   -1088.4632    77.162917 
    4300    907.87725   -105.81965   0.82146642   -104.99818   -8944.9804    4.2681953    4.2681953    4.2681953   -8944.9804   -32885.443    26666.328   -20615.827   -7678.4514   -17010.632   -984.38136    77.755807 
    4400    920.01932   -105.82397   0.83245282   -104.99152   -33159.414     4.272296     4.272296     4.272296   -33159.414   -49154.602   -761.68386   -49561.957    -7787.177   -14700.756    2573.2537    77.980138 
    4500    1721.7886   -106.54209    1.5579105   -104.98418    32219.522    4.2557661    4.2557661    4.2557661    32219.522    45094.484    31185.973    20378.108    16683.871    2706.0779   -1325.7888    77.078502 
    4600    2233.3605   -107.01749    2.0207916   -104.99669    10554.139    4.2611697    4.2611697    4.2611697    10554.139   -4975.2246    55972.463   -19334.821     1328.931   -33581.642    -6121.204    77.372477 
    4700    2434.9051   -107.19854    2.2031533   -104.99538    1028.3514    4.2698943    4.2698943    4.2698943    1028.3514   -272.04336    22752.718   -19395.621    13132.736   -10571.398   -768.78656    77.848699 
    4800     1727.588   -106.55685    1.5631579   -104.99369    11806.209    4.2644471    4.2644471    4.2644471    11806.209      7691.64   -21930.691    49657.679    30401.163    5411.9865    9320.5516    77.551144 
    4900    1419.6129   -106.27229    1.2844956   -104.98779   -6055.7629    4.2625552    4.2625552    4.2625552   -6055.7629   -19790.866    827.40165     796.1758   -14570.907   -8805.5281    7340.5328    77.447971 
    5000    905.19097   -105.81287   0.81903581   -104.99383   -14861.807    4.2666016    4.2666016    4.2666016   -14861.807    15912.638   -51643.307   -8854.7508    31918.857   -1554.1228   -10837.843    77.668742 
    5100    1491.1905   -106.34381    1.3492605   -104.99455   -2660.5228    4.2638625    4.2638625    4.2638625   -2660.5228    25586.331   -28904.126   -4663.7731    32448.477   -4080.5154    1350.3178    77.519255 
    5200    2633.7803   -107.36871    2.3830998   -104.98561    20926.277    4.2592853    4.2592853    4.2592853    20926.277    43545.726    22972.601   -3739.4963   -15379.578   -10252.514    12719.621    77.269874 
    5300    2105.5137   -106.90782     1.905113    -105.0027    1311.0751    4.2683602    4.2683602    4.2683602    1311.0751    21677.048   -30934.264    13190.441    48432.452    3254.3352    6091.9081    77.764821 
    5400     2076.634   -106.87607    1.8789821   -104.99709   -21266.154    4.2694088    4.2694088    4.2694088   -21266.154   -7110.1617   -44421.559   -12266.741    17704.098     7783.977    17861.369    77.822152 
    5500    1507.5023   -106.35317    1.3640198   -104.98915    19331.039    4.2525291    4.2525291    4.2525291    19331.039    48303.534   -1964.0981    11653.682    552.72469    7493.7886   -3509.5813    76.902751 
    5600    672.67037   -105.61666   0.60864628   -105.00801   -14590.226    4.2626652    4.2626652    4.2626652   -14590.226   -3631.6533   -65638.605    25499.581    47452.061   -966.77656    48.782038    77.453965 
    5700    1459.8497   -106.31599    1.3209027   -104.99509   -33066.415    4.2733033    4.2733033    4.2733033   -33066.415    5759.9375   -40427.493   -64531.689   -5967.5766    606.31916    37083.992    78.035307 
    5800    2012.8655   -106.80858     1.821283    -104.9873    7355.1661    4.2590494    4.2590494    4.2590494    7355.1661    20657.365    30988.233   -29580.099    14883.144    3443.3592     3297.556    77.257034 
    5900    2220.5423   -107.00161    2.0091933   -104.99242    12267.992    4.2584134    4.2584134    4.2584134    12267.992     22235.08    13466.773    1102.1232    18409.098    10216.017   -925.25502    77.222431 
    6000    2015.1738   -106.81651    1.8233716   -104.99314   -3582.7023    4.2674698    4.2674698    4.2674698   -3582.7023    36710.677   -34087.535   -13371.249   -13698.441    9716.7814    32863.544    77.716166 
    6100    1787.1606   -106.60505    1.6170605   -104.98799    15611.336    4.2627982    4.2627982    4.2627982    15611.336    8746.7216    1802.6898    36284.597    19987.962    -1360.141    -11008.72    77.461216 
    6200    1273.0059     -106.143    1.1518425   -104.99115    5057.5227    4.2613501    4.2613501    4.2613501    5057.5227    12230.561   -12337.372    15279.379    6280.9402   -6984.5091    17330.184    77.382301 
    6300    1194.8408   -106.07374     1.081117   -104.99262   -24829.449    4.2678933    4.2678933    4.2678933   -24829.449   -17707.032   -25719.531   -31061.784    -1726.624   -1317.1559    37317.226    77.739306 
    6400    1628.9422   -106.45945    1.4739011   -104.98555    1131.9873     4.263691     4.263691     4.263691    1131.9873   -33665.479    25731.549    11329.892    5705.5947    3206.6034   -13749.191    77.509897 
    6500     1614.587    -106.4551    1.4609123   -104.99418    4619.5109     4.259196     4.259196     4.259196    4619.5109    20487.236    8844.6632   -15473.366    -728.6662   -10891.502    24915.723    77.265013 
    6600    2250.7769   -107.03448    2.0365503   -104.99792    -11921.23    4.2641228    4.2641228    4.2641228    -11921.23   -737.44457   -26263.051   -8763.1951   -15143.988   -2321.7592    13979.398    77.533451 
    6700    2430.0484   -107.19158    2.1987589   -104.99282   -2409.0386    4.2652108    4.2652108    4.2652108   -2409.0386   -1063.5781   -40513.205    34349.668   -12974.018   -11650.397     2131.329    77.592813 
    6800    1658.7731   -106.49765    1.5008928   -104.99676   -701.77057     4.265329     4.265329     4.265329   -701.77057     12589.55    4988.8806   -19683.742    18254.398   -16853.918    46147.874    77.599266 
    6900    1465.9108   -106.31802    1.3263869   -104.99163   -12165.768    4.2646825    4.2646825    4.2646825   -12165.768   -38719.819    2421.2047   -198.68899   -14974.608    6647.2398   -8911.0731    77.563983 
    7000    990.79072   -105.89248   0.89648827     -104.996    -7915.166    4.2621431    4.2621431    4.2621431    -7915.166   -49912.546    15011.896    11155.152   -12217.817   -3169.4081    260.18797    77.425512 
    7100    1294.3959   -106.16917    1.1711966   -104.99797   -19382.442    4.2691399    4.2691399    4.2691399   -19382.442   -24585.614    17019.259    -50580.97    4465.7113   -15137.384    35417.895    77.807446 
    7200    1996.6828   -106.79671    1.8066406   -104.99007   -13077.843    4.2732399    4.2732399    4.2732399   -13077.843   -18609.719   -11705.982   -8917.8297   -18491.849    2437.9068   -5120.1698    78.031835 
    7300    2376.4421   -107.13811    2.1502547   -104.98785    18197.608    4.2613587    4.2613587    4.2613587    18197.608    35639.839   -7827.0458     26780.03    13463.255     4579.355   -528.08837    77.382769 
    7400    2166.7983   -106.95219    1.9605646   -104.99163    14006.743    4.2627005    4.2627005    4.2627005    14006.743    11309.238    -442.8843    31153.874    -12315.86   -7513.3481    1982.1706    77.455893 
    7500    1510.1152   -106.35741     1.366384   -104.99103   -31747.694    4.2726787    4.2726787    4.2726787   -31747.694   -70928.642   -29600.678     5286.239   -39524.466    466.83048   -9868.2171    78.001096 
    7600    1263.6367   -106.12709     1.143365   -104.98373   -20128.472    4.2621472    4.2621472    4.2621472   -20128.472   -49006.681    21662.142   -33040.877    22838.982    -9269.133    17807.049    77.425734 
    7700    935.83688   -105.83877   0.84676488   -104.99201   -3393.4717     4.258898     4.258898     4.258898   -3393.4717   -23655.444    6556.2053    6918.8234   -32982.365    3961.1224     5131.507    77.248798 
    7800    1716.1846   -106.54884    1.5528399     -104.996    -17415.41    4.2680198    4.2680198    4.2680198    -17415.41   -14801.248    -33067.99   -4376.9922    -35318.38    10799.517   -9421.6575    77.746217 
    7900    2224.3426   -107.00334    2.0126319   -104.99071   -32.671186    4.2613919    4.2613919    4.2613919   -32.671186    20385.687    3947.8716   -24431.572    21842.054   -16716.442    6633.7331    77.384582 
    8000    2046.8676   -106.85387    1.8520488   -105.00182   -2309.5143    4.2623214    4.2623214    4.2623214   -2309.5143   -6182.5399   -36725.565    35979.562   -39613.958    2967.1342    20445.116    77.435229 
    8100    2337.2532   -107.10539    2.1147958   -104.99059    -6955.702    4.2717148    4.2717148    4.2717148    -6955.702   -41356.862    -22575.27    43065.025    2194.0178    17796.751    11179.593     77.94832 
    8200    1669.6333   -106.50653    1.5107193   -104.99581    5492.9865    4.2604641    4.2604641    4.2604641    5492.9865   -4812.7014   -660.66601    21952.327    3268.2614   -10427.612   -1378.7028    77.334044 
    8300    1072.0909    -105.9711   0.97005038   -105.00105    8070.3948    4.2571288    4.2571288    4.2571288    8070.3948    27086.968      11757.2   -14632.984   -38100.673   -1809.5773    9319.8006    77.152567 
    8400    1663.6066   -106.49567    1.5052662   -104.99041   -2674.6524    4.2718389    4.2718389    4.2718389   -2674.6524    20301.289    2412.6066   -30737.853    17645.748   -2738.9794   -6818.5135     77.95511 
    8500    1562.8955   -106.40514    1.4141407   -104.99099   -22572.948    4.2709968    4.2709968    4.2709968   -22572.948   -2901.4286   -24132.638   -40684.778   -21547.178   -4122.7134    6120.0735    77.909018 
    8600    2019.6928   -106.81422    1.8274605   -104.98676    8410.6785    4.2599832    4.2599832    4.2599832    8410.6785    29369.753   -10816.044    6678.3265   -16941.007    12768.876    19555.168     77.30786 
    8700    2462.7953   -107.21246    2.2283889   -104.98407    -4327.113    4.2666632    4.2666632    4.2666632    -4327.113   -7980.0712    -42384.98    37383.712   -5491.9959   -2587.5877   -11105.016     77.67211 
    8800    1849.6078    -106.6671     1.673564   -104.99353   -24100.201    4.2697682    4.2697682    4.2697682   -24100.201   -56600.138   -46991.844    31291.379   -42667.379   -15147.498   -1689.1982    77.841807 
    8900    1626.5707   -106.45668    1.4717553   -104.98493    10427.479    4.2606713    4.2606713    4.2606713    10427.479    26925.583   -1636.1542    5993.0069     7214.489    -4355.574   -3601.6264    77.345331 
    9000    1006.7722   -105.90397   0.91094865   -104.99302   -4577.2724    4.2680706    4.2680706    4.2680706   -4577.2724    28239.786   -19211.046   -22760.558   -20657.083     5877.446    -2562.466    77.748997 
    9100    1485.9371   -106.33723    1.3445072   -104.99272   -12876.182    4.2716626    4.2716626    4.2716626   -12876.182   -16558.587   -18960.758   -3109.1999   -33436.315   -13454.076    7060.9157    77.945462 
    9200    2296.8998   -107.06189    2.0782832    -104.9836    25325.656    4.2576764    4.2576764    4.2576764    25325.656    27130.965   -8171.5436    57017.546    3318.3841   -1135.7665   -7256.6403    77.182343 
    9300    1904.1395   -106.71931    1.7229055   -104.99641    2368.2986    4.2570105    4.2570105    4.2570105    2368.2986   -7171.5202   -43237.989    57514.405   -18657.053    1104.9023   -20404.478    77.146131 
    9400    1560.7456    -106.4071    1.4121954    -104.9949   -11232.671    4.2688896    4.2688896    4.2688896   -11232.671   -1972.6886   -28245.341   -3479.9835   -10281.924   -8846.4867   -4872.0877    77.793764 
    9500    1352.4067   -106.21605     1.223686   -104.99236   -1475.4497    4.2677343    4.2677343    4.2677343   -1475.4497    44640.778   -2179.7085   -46887.419    282.33483     18842.15     -2412.26    77.730618 
    9600    1382.0488   -106.24215    1.2505068   -104.99164    18500.966    4.2637937    4.2637937    4.2637937    18500.966    -9063.659     40222.96    24343.598   -24005.218   -9480.7429   -333.54842    77.515498 
    9700    2293.3983   -107.06277    2.0751149   -104.98766    2725.8056    4.2675396    4.2675396    4.2675396    2725.8056   -6588.9351    1291.0436    13475.308   -7437.9766   -1512.5498     2640.897    77.719982 
    9800    2024.5405   -106.82338    1.8318468   -104.99154    2081.8351     4.266356     4.266356     4.266356    2081.8351    19186.106   -72886.945    59946.345   -7042.2799    12265.647   -24879.398    77.655331 
    9900    1855.8768   -106.66799    1.6792363   -104.98875   -6423.1328    4.2681719    4.2681719    4.2681719   -6423.1328   -29700.971   -20926.538    31358.111   -8335.9357   -20092.737   -5492.7995     77.75453 
   10000    1449.5599   -106.29898    1.3115922   -104.98739   -21472.984    4.2699449    4.2699449    4.2699449   -21472.984   -21364.488   -5744.5628   -37309.902   -189.34719    167.33764     5113.052    77.851467 
   10100    828.69933   -105.75159   0.74982457   -105.00177   -16112.208     4.263868     4.263868     4.263868   -16112.208    10288.715   -42101.958    -16523.38   -17898.984    5636.3323   -3033.5367    77.519554 
   10200    2047.5338    -106.8439    1.8526516   -104.99125    27904.029    4.2636759    4.2636759    4.2636759    27904.029    10506.727    7547.3842    65657.975    777.49282   -2781.4964   -7512.8582    77.509077 
   10300    2311.4236   -107.08651    2.0914246   -104.99508    1925.2326    4.2677879    4.2677879    4.2677879    1925.2326   -14280.322   -36143.429    56199.448   -2685.3617    15.485382   -9311.7932    77.733545 
   10400    1676.2569   -106.52277    1.5167124   -105.00606   -3619.0871    4.2685764    4.2685764    4.2685764   -3619.0871    5482.2791   -66541.811    50202.271   -13219.509    6722.2528    1752.9336    77.776639 
   10500    2218.2344    -106.9941    2.0071051   -104.98699    1865.3141    4.2646004    4.2646004    4.2646004    1865.3141    10058.491    -20397.28    15934.731   -2694.4912    12430.971    533.61246    77.559507 
   10600    1066.0123   -105.96238   0.96455037   -104.99783   -15174.967    4.2651609    4.2651609    4.2651609   -15174.967    13583.697   -37147.348   -21961.249   -6932.9366    2830.6362    7291.2152    77.590093 
   10700    1149.2804   -106.04155    1.0398931   -105.00166   -20026.499    4.2725328    4.2725328    4.2725328   -20026.499    -12983.05   -21867.206   -25229.241    3055.8208   -3639.5058   -5342.7214    77.993104 
   10800    2043.3682   -106.84145    1.8488825   -104.99256    21161.064    4.2656577    4.2656577    4.2656577    21161.064   -46199.562    22000.037    87682.718    1800.2351    -10098.41   -2272.8945    77.617208 
   10900    2398.1518   -107.17189    2.1698982     -105.002    5064.7302    4.2585078    4.2585078    4.2585078    5064.7302    1722.1412     -28987.1    42459.149   -68.879853   -5870.3356    2136.2648    77.227563 
   11000    1816.5005   -106.65062    1.6436078   -105.00701    12103.479    4.2622332    4.2622332    4.2622332    12103.479    33854.311   -12372.656    14828.782    2562.9919    5693.3078   -152.56253    77.430421 
   11100    1324.8867   -106.19804    1.1987853   -104.99926    -27230.51    4.2706636    4.2706636    4.2706636    -27230.51   -29392.589    7520.8974    -59819.84   -681.88174   -10642.847   -4988.8666    77.890789 
   11200    1228.3343   -106.10372    1.1114227   -104.99229   -22206.815    4.2743229    4.2743229    4.2743229   -22206.815    22457.306   -23197.955   -65879.795   -1204.0304   -4495.8636    1098.3556    78.091178 
   11300    1768.6201    -106.5894    1.6002846   -104.98912    6452.0859    4.2665929    4.2665929    4.2665929    6452.0859    1775.2741   -4948.4261     22529.41    1010.2637   -11175.965   -1165.0338    77.668269 
   11400    2358.9799   -107.12903    2.1344546   -104.99457   -1897.3932    4.2595186    4.2595186    4.2595186   -1897.3932   -69701.819    22602.752    41406.888    4283.6915   -10029.491    6661.9614    77.282569 
   11500     1942.957   -106.75554    1.7580283   -104.99751    10266.636     4.260925     4.260925     4.260925    10266.636    1015.0105   -2509.5329    32294.429    -3510.533    11374.136     2081.674    77.359147 
   11600    1182.7719   -106.07284    1.0701969   -105.00264   -15174.345    4.2656193    4.2656193    4.2656193   -15174.345    17166.704   -24718.861   -37970.877   -966.10729   -17852.991   -10269.287    77.615108 
   11700    1000.5035   -105.90858   0.90527663    -105.0033   -24381.914    4.2725722    4.2725722    4.2725722   -24381.914   -13897.511    25535.593   -84783.825   -830.25405   -3127.8191    9556.3782    77.995261 
   11800    1945.1528   -106.74988    1.7600152   -104.98987   -1798.7375    4.2690269    4.2690269    4.2690269   -1798.7375   -6723.7377    10383.726   -9056.2012   -3088.4106    16022.168   -2590.8423    77.801267 
   11900     2409.247   -107.16791    2.1799373   -104.98797    7564.9917    4.2605989    4.2605989    4.2605989    7564.9917    -1232.968   -12001.497     35929.44    1836.1272   -6139.7149   -18402.115    77.341388 
   12000    1663.7797   -106.50749    1.5054229   -105.00206   -5095.0779    4.2647083    4.2647083    4.2647083   -5095.0779   -29588.881    31929.716   -17626.069   -5316.9835    19269.008    5076.1689    77.565391 
   12100    1511.1036   -106.36176    1.3672783   -104.99448    3121.0652    4.2654919    4.2654919    4.2654919    3121.0652   -2881.9573    6577.9426    5667.2103   -1536.8839    698.22338   -1001.9041    77.608153 
   12200    988.08198   -105.89146   0.89403734   -104.99742   -2942.0717     4.269936     4.269936     4.269936   -2942.0717    7287.1047   -1531.6652   -14581.654   -1135.0978    6355.0782    8168.8826    77.850982 
   12300    1602.8861   -106.45205     1.450325   -105.00173   -33104.202    4.2695215    4.2695215    4.2695215   -33104.202   -63409.234   -1062.3158   -34841.057   -4058.5288    31597.044   -756.09871    77.828312 
   12400    2903.4705    -107.6135    2.6271211   -104.98638    19964.427    4.2577371    4.2577371    4.2577371    19964.427   -623.74748   -20151.403    80668.431   -2032.5814   -15145.666   -19206.391    77.185642 
   12500    1739.6735   -106.57411    1.5740931   -105.00002   -4921.1073    4.2607708    4.2607708    4.2607708   -4921.1073   -20005.589    28085.615   -22843.348   -6265.1963    28896.563    3664.1539    77.350749 
   12600    762.78976   -105.69907    0.6901882   -105.00888   -44213.994    4.2731816    4.2731816    4.2731816   -44213.994   -40890.774    31902.776   -123653.98     4251.146    18134.111    3997.4903    78.028644 
   12700    1618.5097   -106.44956    1.4644616   -104.98509    5555.7405    4.2704351    4.2704351    4.2704351    5555.7405    38101.221    2291.8285   -23725.828    3385.7277   -11561.979   -10053.285    77.878287 
   12800    2021.6329   -106.81752     1.829216    -104.9883    4231.7876    4.2665542    4.2665542    4.2665542    4231.7876   -42253.866    14164.868     40784.36   -2237.4395    40398.968   -9789.0913    77.666154 
   12900    2021.7419   -106.82666    1.8293145   -104.99735   -4001.5893     4.267319     4.267319     4.267319   -4001.5893   -26834.851   -6607.6762     21437.76    4022.9288   -11443.133   -6637.7573     77.70793 
   13000    2029.8513   -106.82882    1.8366521   -104.99217    11578.131    4.2614168    4.2614168    4.2614168    11578.131    4073.8007   -17932.121    48592.714   -7033.2599    884.50586    13969.069    77.385938 
   13100    1181.4997   -106.06922    1.0690458   -105.00017   -12732.089     4.264939     4.264939     4.264939   -12732.089    11824.386    22237.747   -72258.401    -3176.095    25681.332     1773.046     77.57798 
   13200    1008.7117   -105.91505   0.91270352   -105.00235   -32846.088    4.2739227    4.2739227    4.2739227   -32846.088   -2940.1707    314.68717    -95912.78    9536.3726   -30719.782   -6851.8647    78.069247 
   13300    2120.9197   -106.91033    1.9190527   -104.99127    6697.8528    4.2714711    4.2714711    4.2714711    6697.8528    25298.996   -37360.423    32154.985   -3521.2597    5839.1539   -1421.3432    77.934979 
   13400    2616.3275   -107.35882    2.3673081   -104.99151    6781.5692    4.2639436    4.2639436    4.2639436    6781.5692    -21610.31   -4584.5923     46539.61   -2836.0383   -6870.1493    6462.2767    77.523674 
   13500    1495.7829   -106.35479    1.3534158   -105.00137   -12218.684    4.2593124    4.2593124    4.2593124   -12218.684   -10140.894     745.7971   -27260.956   -532.09041   -20432.879    21230.614    77.271345 
   13600    1231.0984   -106.11581    1.1139237   -105.00188    6513.6875    4.2669427    4.2669427    4.2669427    6513.6875    23180.084   -11100.663     7461.642   -1031.9011    1217.0164   -2617.1761    77.687372 
   13700    1534.6732   -106.38413    1.3886046   -104.99553   -12809.478    4.2764002    4.2764002    4.2764002   -12809.478    10502.446   -443.04784   -48487.831    1529.7668   -15064.843    2261.8037    78.205093 
   13800    1539.7566   -106.39279    1.3932041   -104.99959   -10726.976    4.2685265    4.2685265    4.2685265   -10726.976    10178.524   -9401.5362   -32957.918   -487.01297   -16900.778    9622.8911    77.773912 
   13900    2555.6068   -107.30185    2.3123667   -104.98948    17617.547     4.264604     4.264604     4.264604    17617.547   -5133.6089    -16188.92    74175.169    4226.5577    16481.324    3868.6311    77.559702 
   14000    1909.9623   -106.72079     1.728174   -104.99261   -9599.2754    4.2713512    4.2713512    4.2713512   -9599.2754     13035.83   -17479.749   -24353.907   -763.97696    5661.3389    15528.536    77.928413 
   14100     1017.957    -105.9174   0.92106884   -104.99633   -39620.871    4.2681576    4.2681576    4.2681576   -39620.871    129.05603   -8245.3604   -110746.31    7270.5918   -21486.158   -2748.8263    77.753748 
   14200    1238.5126   -106.11638    1.1206322   -104.99575     3235.707    4.2657741    4.2657741    4.2657741     3235.707    2240.5742    30860.726   -23394.179    1183.6457    29320.643      -8637.5    77.623563 
   14300    1985.7267   -106.78736    1.7967272   -104.99063    750.40693    4.2697564    4.2697564    4.2697564    750.40693   -16456.747   -17051.156    35759.125    81.956844    12292.847    8200.2125    77.841159 
   14400    1936.7919   -106.74949      1.75245   -104.99704   -4283.4929    4.2673755    4.2673755    4.2673755   -4283.4929    24951.931   -48754.996    10952.586    940.11489   -13001.761    2275.6313    77.711016 
   14500    1876.7168   -106.69877    1.6980928   -105.00068   -7445.6228    4.2634073    4.2634073    4.2634073   -7445.6228   -28160.095   -21244.781    27068.007   -7150.8726    49759.604    953.00887    77.494429 
   14600    1615.2606   -106.46063    1.4615217   -104.99911   -9097.9944    4.2653641    4.2653641    4.2653641   -9097.9944    37663.741   -19257.081   -45700.643    4810.2722    780.24904    15567.718     77.60118 
   14700    1106.6741   -106.00809     1.001342   -105.00675   -26594.772    4.2708427    4.2708427    4.2708427   -26594.772   -11748.301    2521.7738   -70557.788   -3343.6515    1456.0978    1152.7415    77.900586 
   14800    1606.4934   -106.46018     1.453589   -105.00659   -2982.3304    4.2769062    4.2769062    4.2769062   -2982.3304   -46881.103    14570.517    23363.595   -11085.785    30148.016   -13469.544    78.232853 
   14900    2591.0563   -107.33478    2.3444422   -104.99033    6290.1421     4.277344     4.277344     4.277344    6290.1421   -20760.628   -16033.022    55664.076   -709.64995   -7915.7178    10647.115    78.256882 
   15000    1496.8515   -106.35341    1.3543827   -104.99903    769.71583    4.2571687    4.2571687    4.2571687    769.71583   -17779.096    6729.6908    13358.553    3419.6876    45478.283    5219.3784    77.154735 
   15100    1136.3178   -106.03037    1.0281642   -105.00221    19289.218    4.2544257    4.2544257    4.2544257    19289.218    12349.794   -1931.6213    47449.482   -8562.5055    8366.0226   -889.83198    77.005694 
   15200    1649.8629    -106.4973    1.4928306   -105.00447   -8662.1011    4.2762193    4.2762193    4.2762193   -8662.1011   -312.90762   -9486.3879   -16187.008    3394.9522   -6806.7754    13484.975    78.195168 
   15300    1542.4348   -106.40164    1.3956274   -105.00602   -15421.781    4.2854997    4.2854997    4.2854997   -15421.781   -34336.069     19771.64   -31700.916    8110.6932    39898.922   -14155.894    78.705379 
   15400    2173.9595    -106.9644    1.9670443   -104.99735   -17073.532    4.2759742    4.2759742    4.2759742   -17073.532   -39185.048   -9404.3989   -2631.1493   -7541.6116    6771.1219   -6724.2736    78.181721 
   15500    2096.3845   -106.88509    1.8968527   -104.98824    7912.8207    4.2502366    4.2502366    4.2502366    7912.8207    10658.634   -20412.864    33492.692    1929.2894   -7253.3768    22211.254    76.778445 
   15600    1349.8932   -106.23411    1.2214117    -105.0127    11616.567    4.2505037    4.2505037    4.2505037    11616.567   -1655.8059   -11819.225    48324.733   -866.46307    36806.839   -9640.5788    76.792921 
   15700     1559.282   -106.43037    1.4108711    -105.0195    -18996.48    4.2736158    4.2736158    4.2736158    -18996.48    37932.227   -46952.921   -47968.744   -3139.9549   -3623.3292   -12002.923    78.052428 
   15800    1509.3362   -106.38883    1.3656791   -105.02315   -35106.718    4.2903835    4.2903835    4.2903835   -35106.718   -28656.193   -44531.722   -32132.239    16851.549    874.02889    18255.165    78.974766 
   15900    2037.6926   -106.84634    1.8437471    -105.0026    4440.4559    4.2767486    4.2767486    4.2767486    4440.4559    -18267.87    9647.3998    21941.838   -2817.0128    22156.561   -14093.673    78.224204 
   16000    1641.2888   -106.47716    1.4850726   -104.99209     36419.15    4.2532639    4.2532639    4.2532639     36419.15    38376.404    9498.8844    61382.163      1334.17   -27453.704    9626.0104    76.942622 
   16100    1272.5804   -106.16752    1.1514575   -105.01606   -8196.8116    4.2591561    4.2591561    4.2591561   -8196.8116   -24818.743   -39699.723    39928.031    24695.197    9856.1442    21305.422    77.262839 
   16200    2204.4156   -107.00439    1.9946016   -105.00979   -1361.1346    4.2761252    4.2761252    4.2761252   -1361.1346    11777.496   -41550.009    25689.109   -3793.9605    3879.0376    -6303.185    78.190005 
   16300    2016.6974   -106.82879    1.8247502   -105.00404    -16502.63     4.283616     4.283616     4.283616    -16502.63    36652.349   -49607.327   -36552.912   -3482.0283   -12329.594    12993.965    78.601639 
   16400    1366.0543   -106.23961    1.2360347   -105.00357   -12206.607    4.2715037    4.2715037    4.2715037   -12206.607   -7921.1996   -30970.854    2272.2308    25726.261    2423.8176    20178.741    77.936762 
   16500    1641.5902   -106.47799    1.4853453   -104.99265    24993.235    4.2581266    4.2581266    4.2581266    24993.235    26361.932    3174.7326    45443.041   -10562.291   -9818.4769   -8080.5113    77.206828 
   16600     1430.029   -106.29859    1.2939203   -105.00467    3425.3545    4.2661529    4.2661529    4.2661529    3425.3545   -14918.501   -3049.8937    28244.458   -2319.2148     3491.607    9880.4765    77.644244 
   16700    1339.2047   -106.22345    1.2117406   -105.01171   -4007.1044    4.2704537    4.2704537    4.2704537   -4007.1044    30180.674   -45464.638    3262.6506    14766.795   -6651.4874    16889.529    77.879304 
   16800    2032.4702   -106.85029    1.8390218   -105.01127   -12601.959    4.2741036    4.2741036    4.2741036   -12601.959    34439.744   -59661.847   -12583.773   -36972.989    10250.391   -9631.8429     78.07916 
   16900    2075.2909   -106.88362    1.8777668   -105.00586    4613.5968    4.2702311    4.2702311    4.2702311    4613.5968    64903.963   -26045.687   -25017.486    8429.5492     8572.332    138.66858    77.867123 
   17000    1954.8645   -106.77882    1.7688025   -105.01001    4035.4336    4.2609412    4.2609412    4.2609412    4035.4336    10134.203   -30646.122     32618.22   -253.44793   -12150.759    4451.5065    77.360031 
   17100    1287.0024   -106.18057    1.1645068   -105.01606    30238.117    4.2654847    4.2654847    4.2654847    30238.117    61269.473   -19336.908    48781.787   -32553.132   -3058.5775   -12885.227    77.607763 
   17200    2176.8571   -106.96525    1.9696661   -104.99558   -15907.836    4.2733612    4.2733612    4.2733612   -15907.836   -17311.273   -19031.072   -11381.162    4298.7852    1674.7801    835.29329    78.038482 
   17300    1265.5722   -106.14578    1.1451163   -105.00066   -15609.887    4.2747981    4.2747981    4.2747981   -15609.887    6971.8347   -56940.574     3139.079    -11314.94    3773.1107    8717.3809    78.117227 
   17400    1575.8481   -106.42039    1.4258605   -104.99453   -5249.7581    4.2691798    4.2691798    4.2691798   -5249.7581    43255.743   -45932.271   -13072.746   -16987.993    1397.8729   -14163.478    77.809626 
   17500    1995.5138   -106.79318    1.8055828    -104.9876    8163.9198    4.2699293    4.2699293    4.2699293    8163.9198    55965.146    6654.1445   -38127.531    4744.8501    6099.0576   -7318.5246    77.850614 
   17600    1447.7473   -106.31755    1.3099522    -105.0076   -17374.115    4.2757995    4.2757995    4.2757995   -17374.115    -55576.64    -18747.57    22201.864   -10418.409    4200.8366   -3770.0411     78.17214 
   17700      1788.42   -106.61849       1.6182   -105.00029    11136.752    4.2723794    4.2723794    4.2723794    11136.752    15112.437   -15788.676    34086.497   -1834.1896    7190.4164   -13348.676    77.984705 
   17800    2296.0583   -107.06134    2.0775218   -104.98382    11475.508    4.2694008    4.2694008    4.2694008    11475.508    1114.2736   -2941.3479    36253.599   -4527.1335   -4593.0566    2272.7213    77.821712 
   17900     1009.425   -105.90953   0.91334899   -104.99618   -22834.812     4.281532     4.281532     4.281532   -22834.812    -15091.79   -64759.469    11346.824   -17026.172   -10240.299   -6310.1848    78.486975 
   18000    1203.0476   -106.06821    1.0885427   -104.97966   -7120.3331     4.281531     4.281531     4.281531   -7120.3331    14318.616   -47958.108    12278.492    20947.518    7722.9271   -6317.5626     78.48692 
   18100    1848.5872   -106.64678    1.6726406   -104.97414     880.0334    4.2752822    4.2752822    4.2752822     880.0334   -5152.8028   -1961.5848    9754.4879    -15611.12   -15589.548    8491.0024     78.14377 
   18200    2069.1507    -106.8555     1.872211   -104.98328   -14300.407    4.2765644    4.2765644    4.2765644   -14300.407   -47904.039   -38774.373    43777.192   -9525.0272    -3164.186   -4871.8521    78.214098 
   18300    2094.0343   -106.88072    1.8947262   -104.98599    18891.595    4.2714307    4.2714307    4.2714307    18891.595    10494.207   -37827.165    84007.743    17221.517   -9676.3349      3022.53    77.932769 
   18400    1852.6889   -106.66699    1.6763519   -104.99064    2561.0523    4.2719639    4.2719639    4.2719639    2561.0523    20945.547   -37843.885    24581.495   -13927.311    -6054.327    4145.4891    77.961957 
   18500    1211.8028   -106.09758    1.0964647   -105.00111   -17172.013    4.2767993    4.2767993    4.2767993   -17172.013   -5996.1282   -47287.614    1767.7028     12572.55    3881.3063   -6911.5199    78.226989 
   18600    1069.8011   -105.96481   0.96797854   -104.99683     20054.43    4.2757221    4.2757221    4.2757221     20054.43    16791.967   -6606.8837    49978.206    7638.9165   -12068.356     12463.55    78.167896 
   18700    2207.1402   -106.98893    1.9970668   -104.99187   -32840.253    4.2820638    4.2820638    4.2820638   -32840.253   -36534.861   -22002.333   -39983.565    1800.4325   -2990.7257    3518.0623    78.516224 
   18800    2032.0724   -106.82652    1.8386618   -104.98786    1892.2427    4.2811226    4.2811226    4.2811226    1892.2427   -39215.887   -51391.904     96284.52    29624.169    10420.459    5550.7642    78.464464 
   18900    2176.3352   -106.94831    1.9691939   -104.97912   -7398.7068    4.2813067    4.2813067    4.2813067   -7398.7068   -30371.117   -20188.443     28363.44   -3075.6031   -22150.351    5713.6111    78.474585 
   19000    1629.2418   -106.44504    1.4741722   -104.97087   -18831.371    4.2848859    4.2848859    4.2848859   -18831.371    1256.1169   -4147.2813   -53602.948    14430.762    -18831.53   -4801.9173    78.671562 
   19100    1024.4093   -105.89881   0.92690709   -104.97191   -5464.1682    4.2796794    4.2796794    4.2796794   -5464.1682    12304.313    10304.639   -39001.457    16831.899    495.59697    2345.7569    78.385135 
   19200    1647.1933    -106.4585    1.4904151   -104.96809    15989.539    4.2813583    4.2813583    4.2813583    15989.539    3165.5434    16960.817    27842.256   -11497.578   -13496.504    10416.663    78.477423 
   19300    2107.8385   -106.87552    1.9072165    -104.9683   -8797.5193    4.2905868    4.2905868    4.2905868   -8797.5193   -12259.511   -45625.639    31492.591    28867.115   -4988.9395    2881.7201    78.985992 
   19400    2213.4944   -106.97093    2.0028163   -104.96812   -4901.6742    4.2785011    4.2785011    4.2785011   -4901.6742   -44551.005   -42382.459    72228.441    3329.1412   -781.36824   -7965.3721    78.320406 
   19500    1978.0663   -106.76823     1.789796   -104.97843   -2366.1844    4.2673554    4.2673554    4.2673554   -2366.1844    23582.784   -23497.058   -7184.2789    -3245.122   -8926.4616   -11575.967    77.709917 
   19600    1334.0659   -106.21029    1.2070908    -105.0032   -27408.123    4.2788385    4.2788385    4.2788385   -27408.123   -6013.0475   -38349.879   -37861.444    27790.597    15204.849   -4998.3211    78.338938 
   19700    1267.4017   -106.14082    1.1467717   -104.99405     -10366.4    4.2889452    4.2889452    4.2889452     -10366.4   -1385.8691    7595.8388    -37309.17   -11634.465   -23155.317    5926.1062    78.895367 
   19800    1824.5205   -106.63147    1.6508645    -104.9806   -2693.6727    4.2947293    4.2947293    4.2947293   -2693.6727   -12086.792   -20534.016     24539.79    3776.6699    12461.841   -21758.885    79.214991 
   19900    2165.5259   -106.92848    1.9594134   -104.96906   -5848.5076    4.2866083    4.2866083    4.2866083   -5848.5076   -18639.907    -7692.127    8786.5114    21961.915    3515.2306   -13444.796    78.766473 
   20000     2137.459   -106.89269    1.9340178   -104.95867    31140.827    4.2602092    4.2602092    4.2602092    31140.827     6874.018    51361.363    35187.099   -9994.2805   -18223.012    6797.3072    77.320164 
   20100    999.76749   -105.89726   0.90461064   -104.99265    13589.438    4.2639012    4.2639012    4.2639012    13589.438    70966.604    501.13683   -30699.428    28938.299    726.17149   -10659.985    77.521365 
   20200    1178.9665   -106.06351    1.0667537   -104.99676   -44529.444    4.2823266    4.2823266    4.2823266   -44529.444   -22443.484   -5471.5555   -105673.29    17425.441   -11788.964    1801.9099     78.53068 
   20300    1872.0425   -106.67737    1.6938634    -104.9835   -16440.988    4.2787242    4.2787242    4.2787242   -16440.988   -27524.691    32005.714   -53803.985   -6517.5124   -3022.8125    5491.0485     78.33266 
   20400    2095.6568   -106.88561    1.8961943   -104.98942   -12524.553    4.2793535    4.2793535    4.2793535   -12524.553   -19297.722   -29997.187    11721.249    19062.833   -1863.7999   -12625.051    78.367227 
   20500    2013.5138   -106.81036    1.8218696   -104.98849   -12976.541    4.2730654    4.2730654    4.2730654   -12976.541   -17730.943    8691.1543   -29889.835    11579.926   -11089.365    -2777.512    78.022275 
   20600    1487.1728   -106.33445    1.3456252   -104.98882   -3086.7993    4.2616199    4.2616199    4.2616199   -3086.7993    32967.085    41360.449   -83587.932   -5622.8589    2577.7667    3189.7707    77.397002 
   20700    826.66072   -105.75755   0.74797999   -105.00957   -10524.554    4.2766514    4.2766514    4.2766514   -10524.554    36890.667    21914.058   -90378.388    22679.803   -3656.1312    -2905.326    78.218875 
   20800    1956.3581    -106.7629    1.7701539   -104.99274   -28334.608     4.282417     4.282417     4.282417   -28334.608   -22939.826    4148.2202   -66212.219    4652.6429    -15344.52   -5013.4873    78.535651 
   20900    2322.9321   -107.08717    2.1018378   -104.98533    25730.441    4.2710557    4.2710557    4.2710557    25730.441    41772.701    27977.999    7440.6221    5396.3203    24365.817   -638.38045    77.912242 
   21000    1832.8891   -106.65525    1.6584366   -104.99681    11091.419      4.27385      4.27385      4.27385    11091.419   -11243.889    47158.502   -2640.3542    9590.6086    -13690.45    5261.2453    78.065261 
   21100     1379.129   -106.24291    1.2478649   -104.99505   -16223.873     4.279077     4.279077     4.279077   -16223.873    28304.737    20536.727   -97513.082   -6579.4793   -5787.4043    14614.123    78.352041 
   21200    1373.2792   -106.22929    1.2425719   -104.98671   -17344.601    4.2828614    4.2828614    4.2828614   -17344.601    12795.577    13498.668   -78328.048    16447.292     11362.95   -2057.6472    78.560107 
   21300    1677.1537   -106.50448     1.517524   -104.98695    2002.3316    4.2764448    4.2764448    4.2764448    2002.3316   -27460.407    20153.454    13313.948    18340.279   -13693.654   -11532.331    78.207536 
   21400    2511.5655    -107.2607    2.2725173   -104.98818    14494.049    4.2750816    4.2750816    4.2750816    14494.049    26366.178    12187.987    4927.9836   -8259.7253    7981.0264    15593.226    78.132769 
   21500    2076.6871   -106.87059    1.8790301   -104.99156   -2049.8323    4.2790003    4.2790003    4.2790003   -2049.8323   -25001.925    42527.251   -23674.823    13748.625    13420.786   -4391.1655    78.347825 
   21600    955.81592   -105.86616   0.86484234   -105.00132    -3598.611    4.2649317    4.2649317    4.2649317    -3598.611    13620.832    17316.342   -41733.007    5912.2335   -8362.1231    -18496.71     77.57758 
   21700    1304.6364   -106.18059    1.1804624   -105.00012    7891.6922    4.2681006    4.2681006    4.2681006    7891.6922    58097.224     42426.53   -76848.677   -9212.5774    11703.037    13083.183    77.750637 
   21800     1902.069   -106.71508     1.721032   -104.99405   -21180.417    4.2889841    4.2889841    4.2889841   -21180.417   -27354.479    15367.493   -51554.266    9482.6417   -1611.5782   -6054.0336    78.897512 
   21900    2361.5263   -107.11944    2.1367586   -104.98268     -8179.63    4.2817374    4.2817374    4.2817374     -8179.63   -39526.028     5414.964    9572.1739    4542.1309     5904.901   -11900.263    78.498271 
   22000    2205.5151   -106.97471    1.9955964   -104.97912    20913.011    4.2662116    4.2662116    4.2662116    20913.011    1348.5904     75212.85   -13822.406   -189.57439    11030.745    7287.3577    77.647449 
   22100    1055.3612   -105.95581   0.95491299   -105.00089   -10474.557    4.2610302    4.2610302    4.2610302   -10474.557    1109.2775    33452.808   -65985.756    8629.8028   -30609.048   -5084.1413    77.364875 
   22200    1197.3262    -106.0879    1.0833659   -105.00453    1599.6082    4.2639019    4.2639019    4.2639019    1599.6082   -2837.1994    61237.982   -53601.958   -626.11187    3083.2392   -3532.1426      77.5214 
   22300    1895.7781    -106.7182    1.7153398   -105.00286    6406.4419    4.2796207    4.2796207    4.2796207    6406.4419    12973.561    28579.389   -22333.624   -9169.4091   -9130.6113    3637.7341    78.381911 
   22400    2085.8871   -106.88397    1.8873545   -104.99661   -2109.2872    4.2817065    4.2817065    4.2817065   -2109.2872   -52619.714    21427.717    24864.135    8924.7868   -31084.161   -11781.168    78.496568 
   22500    2304.6528   -107.06461    2.0852983   -104.97931   -8804.7582    4.2764375    4.2764375    4.2764375   -8804.7582   -10374.418   -22062.278    6022.4216    1637.9795   -3405.6055   -7214.0477     78.20714 
   22600    810.43187   -105.71742   0.73329579   -104.98413   -1301.9443    4.2725735    4.2725735    4.2725735   -1301.9443    30035.618    61089.293   -95030.744   -1593.9271   -27247.173     4775.088    77.995334 
   22700     1260.016   -106.12037     1.140089   -104.98028   -11029.938     4.265928     4.265928     4.265928   -11029.938    8934.4533    17834.046   -59858.314    6198.6973   -17640.899   -10521.008    77.631965 
   22800    1683.5199   -106.51433    1.5232842   -104.99104    14419.474    4.2732851    4.2732851    4.2732851    14419.474    32858.669    5271.1225    5128.6293    11092.983   -1373.6139   -166.15407     78.03431 
   22900     2210.733   -106.99607    2.0003177   -104.99575   -4834.1659    4.2869533    4.2869533    4.2869533   -4834.1659    10430.789   -13436.613   -11496.673   -2727.8004    -18847.94    10193.101    78.785492 
   23000    2059.1517   -106.84184    1.8631637   -104.97868    5622.9443     4.287853     4.287853     4.287853    5622.9443    34286.493   -15978.922   -1438.7378   -6468.8961    11556.051   -5086.9581    78.835106 
   23100    820.36039   -105.72358   0.74227932    -104.9813    310.24003    4.2836928    4.2836928    4.2836928    310.24003    31995.422    41370.569   -72435.271    12694.849   -6279.7611    2924.0708    78.605867 
   23200    1402.2957   -106.24597    1.2688266   -104.97714   -19725.161    4.2757872    4.2757872    4.2757872   -19725.161    4884.2034    35441.753    -99501.44   -4358.6713   -25895.751    6397.8487    78.171465 
   23300    2036.0949   -106.82557    1.8423015   -104.98327    5392.9855    4.2718956    4.2718956    4.2718956    5392.9855    1138.3105    15583.466   -542.82036   -16228.861    8507.3845   -2709.7014    77.958218 
   23400    1848.2988   -106.66747    1.6723796   -104.99509   -2532.7389    4.2802296    4.2802296    4.2802296   -2532.7389   -37983.482     28734.69    1650.5745    14852.746   -40925.953    8868.4998    78.415368 
   23500    2155.8991   -106.93107    1.9507028   -104.98036   -20476.387    4.2803738    4.2803738    4.2803738   -20476.387   -2574.1732   -3936.3932   -54918.593   -3692.3201   -17534.519   -4655.5823    78.423298 
   23600    974.40334   -105.86626   0.88166062    -104.9846   -940.84718    4.2789158    4.2789158    4.2789158   -940.84718    51039.396    35381.045   -89242.983   -5793.7298    15725.585   -3449.7937    78.343184 
   23700    1212.0091   -106.08447    1.0966513   -104.98782   -12984.989    4.2808318    4.2808318    4.2808318   -12984.989    29920.352    7669.5262   -76544.846    9774.2511   -29602.886    6868.4254     78.44847 
   23800    2195.7657   -106.96908    1.9867749   -104.98231    12116.957    4.2803151    4.2803151    4.2803151    12116.957    49959.244   -1255.9246    -12352.45    5411.8736     12325.89   -362.88353    78.420068 
   23900    1988.7943   -106.78927    1.7995029   -104.98977   -10625.798    4.2882572    4.2882572    4.2882572   -10625.798   -5794.9827    -24972.61   -1109.8012   -1235.5087     5420.144   -6907.8751    78.857405 
   24000    1231.8641   -106.09865    1.1146165   -104.98404   -21.891881    4.2846953    4.2846953    4.2846953   -21.891881    14179.998    12790.742   -27036.416   -6226.4011   -4774.9788    1913.9248    78.661065 
   24100    1053.9408   -105.92844   0.95362781   -104.97481     10296.27    4.2791958    4.2791958    4.2791958     10296.27    42143.493    59322.841   -70577.523   -555.58909    17992.882    4666.1654    78.358565 
   24200    1709.1122   -106.52067    1.5464406   -104.97423   -10991.607    4.2841986    4.2841986    4.2841986   -10991.607    17054.774   -10647.027   -39382.566     5695.273   -8609.7564   -5857.4818    78.633712 
   24300    2397.7707   -107.13887    2.1695534   -104.96932    349.83368    4.2743376    4.2743376    4.2743376    349.83368    8425.5656   -7016.5359    -359.5287    4508.3487   -2247.0161   -10829.856    78.091987 
   24400    2077.1158   -106.85459    1.8794181   -104.97517   -3083.3378    4.2708011    4.2708011    4.2708011   -3083.3378    10426.987    386.94942    -20063.95   -7564.1421    5488.8462    4612.2289     77.89831 
   24500    1030.4555   -105.92631   0.93237781   -104.99393   -32564.906    4.2882993    4.2882993    4.2882993   -32564.906   -8488.7625   -17716.321   -71489.635   -9393.0558   -9504.5517    4128.5635    78.859726 
   24600    1375.9093   -106.22419    1.2449516   -104.97924   -40926.086    4.2859885    4.2859885    4.2859885   -40926.086    958.17806   -26662.473   -97073.964    3550.3369   -1217.5169   -12269.152    78.732313 
   24700    2023.2802   -106.81114    1.8307065   -104.98043    12760.203     4.272594     4.272594     4.272594    12760.203   -23685.281    68915.103   -6949.2132    -12231.18    25618.104   -2697.9324    77.996456 
   24800    2285.7499   -107.05502    2.0681945   -104.98683   -6366.6312    4.2777174    4.2777174    4.2777174   -6366.6312   -15720.833   -10739.556    7360.4962   -11283.384   -17020.871    7282.9505     78.27738 
   24900    1994.9414   -106.79377    1.8050649    -104.9887   -3518.6514     4.291979     4.291979     4.291979   -3518.6514    1788.5348    38333.272   -50677.761    19212.426      634.376   -14481.974    79.062904 
   25000    1111.7279   -105.98361    1.0059147    -104.9777   -27505.571    4.3019989    4.3019989    4.3019989   -27505.571    10045.436   -20947.897   -71614.253   -6562.2975    4011.6287    90.884998    79.617931 
   25100    1277.9784   -106.12383    1.1563417   -104.96748   -30113.204    4.2906926    4.2906926    4.2906926   -30113.204   -3259.6525   -57509.926   -29570.033   -13891.166   -11479.742    13653.262    78.991834 
   25200    2162.4201   -106.91366    1.9566032   -104.95706    34755.873    4.2635475    4.2635475    4.2635475    34755.873    56623.197    40112.152    7532.2683    6718.1876   -2020.2003    -882.5764    77.502071 
   25300    2094.6672   -106.88536    1.8952989   -104.99006    30649.832    4.2611705    4.2611705    4.2611705    30649.832    34202.302    19534.999    38212.196   -9000.3874    -1532.649    2979.6387    77.372519 
   25400    1837.7603   -106.66552    1.6628442   -105.00267   -1472.0334    4.2961443    4.2961443    4.2961443   -1472.0334    43699.108   -12464.282   -35650.926   -1245.9631   -8277.3178   -12320.554    79.293318 
   25500    1071.5375   -105.94659   0.96954966   -104.97704    -36242.14     4.306595     4.306595     4.306595    -36242.14     19669.64   -14720.339   -113675.72    6585.2954   -7676.0186     15237.68    79.873384 
   25600    733.97648   -105.62048   0.66411734   -104.95636    18359.509    4.2827199    4.2827199    4.2827199    18359.509    73843.543    34451.789   -53216.807   -2598.0455   -4996.1933    9662.9606    78.552317 
   25700    2287.9221   -107.01727      2.07016   -104.94711    27901.239    4.2658323    4.2658323    4.2658323    27901.239    42667.796    38646.682    2389.2392    2471.8918   -9142.2653   -11129.995    77.626738 
   25800    2039.6153   -106.82493    1.8454868   -104.97944    13255.706    4.2780407    4.2780407    4.2780407    13255.706   -858.67508    22573.721    18052.072    6341.6274   -8281.1823    -2931.946    78.295128 
   25900    1977.3769   -106.77163    1.7891722   -104.98246   -10209.296    4.2965566    4.2965566    4.2965566   -10209.296   -15441.625   -456.61388    -14729.65   -5128.8023   -4118.3425    2103.5038    79.316149 
   26000    1128.1016   -105.99549      1.02073   -104.97476   -44792.563    4.2971751    4.2971751    4.2971751   -44792.563    17800.933    -36734.74   -115443.88    3554.3299   -324.60687    19153.643    79.350406 
   26100    1209.6962   -106.06657    1.0945585   -104.97201    2052.9663    4.2624183    4.2624183    4.2624183    2052.9663    18553.269    7964.4332   -20358.803    8561.3193   -291.45445   -1850.3182    77.440511 
   26200    1778.0823   -106.58682    1.6088463   -104.97797    48773.415    4.2511643    4.2511643    4.2511643    48773.415    32526.012    30474.228    83320.006   -5675.9403   -3148.3896   -5809.5354    76.828731 
   26300     2209.285   -107.01021    1.9990075    -105.0112   -27684.886    4.2935318    4.2935318    4.2935318   -27684.886   -38437.803   -38744.909   -5871.9461    413.83541   -24463.677    16693.581    79.148748 
   26400    2248.3414   -106.99885    2.0343466    -104.9645    -14210.86    4.3059145    4.3059145    4.3059145    -14210.86    -51895.06    13321.817   -4059.3376     14147.85   -9663.9595   -6460.7422    79.835531 
   26500    1338.2891   -106.15996    1.2109121   -104.94905    30139.018    4.2767865    4.2767865    4.2767865    30139.018    21059.472    56214.576    13143.007    576.01324     3174.079   -3330.4757    78.226284 
   26600    1152.8948   -106.00818    1.0431635   -104.96502   -10040.817    4.2630098    4.2630098    4.2630098   -10040.817   -9949.1082    49449.298   -69622.639    6824.0714   -31876.956    8649.7119    77.472753 
   26700    1938.3467   -106.74208    1.7538568   -104.98822   -1497.7894    4.2705246    4.2705246    4.2705246   -1497.7894   -19592.485    9023.0646    6076.0518    11378.693   -6008.7907    3988.7236     77.88318 
   26800    2138.3205   -106.94136    1.9347973   -105.00656   -19619.744    4.2994979    4.2994979    4.2994979   -19619.744   -35590.085   -14198.388   -9070.7595   -1141.6364    -13012.17    11678.561     79.47915 
   26900    1704.2085   -106.52777    1.5420036   -104.98577   -23636.638    4.3053024    4.3053024    4.3053024   -23636.638   -46290.522    27381.635   -52001.026    9459.5613   -13800.914   -10431.303    79.801488 
   27000    1689.9426   -106.48008    1.5290956   -104.95099    16622.509    4.2675673    4.2675673    4.2675673    16622.509    22686.243    85052.833   -57871.549    10656.955    14859.014   -209.59969    77.721495 
   27100    1190.7529   -106.04215    1.0774182   -104.96474    6127.9824    4.2555635    4.2555635    4.2555635    6127.9824    34708.775    6205.1095   -22529.937    1946.1966   -29983.295    35125.986    77.067491 
   27200    1682.6765   -106.50839     1.522521   -104.98587   -1836.8411    4.2783068    4.2783068    4.2783068   -1836.8411   -18753.118   -8849.7589    22092.354    5282.6135    1445.2947   -4140.6064    78.309741 
   27300    1988.8418   -106.77162    1.7995459   -104.97208    9685.3038    4.2953399    4.2953399    4.2953399    9685.3038   -21556.241    10380.064    40232.088    9961.5513     11040.97   -8543.3857    79.248786 
   27400    1421.1522   -106.24736    1.2858884   -104.96147   -7867.3009    4.3028309    4.3028309    4.3028309   -7867.3009   -2770.9337   -17255.124   -3575.8448    2214.6113   -9435.4641    20941.685    79.664135 
   27500      1757.02   -106.52566    1.5897886   -104.93587    13082.221    4.2878716    4.2878716    4.2878716    13082.221    2724.3834     50262.88     -13740.6    5514.6567    12967.293   -3671.2183    78.836131 
   27600    1572.4232   -106.35982    1.4227615   -104.93706     2894.235    4.2723905    4.2723905    4.2723905     2894.235   -20291.751    74277.014   -45302.558   -1190.3935   -28552.798   -2382.3185    77.985312 
   27700    1514.0257   -106.33674    1.3699223   -104.96682   -6745.9293    4.2816274    4.2816274    4.2816274   -6745.9293   -30844.333    8951.3515    1655.1935   -7807.8344   -1214.7682    25838.627    78.492223 
   27800    1778.3716   -106.58017     1.609108   -104.97106   -10216.703    4.2925474    4.2925474    4.2925474   -10216.703   -15531.657    6450.4432   -21568.894   -7627.1336    -17045.89   -16665.223     79.09432 
   27900    1701.0966   -106.50956    1.5391879   -104.97037   -26723.305    4.2958858    4.2958858    4.2958858   -26723.305     19052.29   -19601.014   -79621.192    6170.8551   -29826.515    3319.1679    79.279003 
   28000    1790.8991   -106.57991    1.6204432   -104.95947    -19748.29    4.2877537    4.2877537    4.2877537    -19748.29    24847.583    4236.0378   -88328.491   -23448.137   -1182.4651    18849.558     78.82963 
   28100    1861.4948   -106.64858    1.6843196   -104.96426   -4717.5606    4.2741579    4.2741579    4.2741579   -4717.5606   -11521.228    13611.401   -16242.855   -11694.758   -28081.176   -17015.551    78.082138 
   28200    1794.6763    -106.5985    1.6238609   -104.97464    13106.416     4.268177     4.268177     4.268177    13106.416    6829.8577   -3455.7326    35945.123   -1991.8768    2930.2625    22450.625     77.75481 
   28300    1700.8024   -106.52945    1.5389218   -104.99053   -10373.826    4.2817823    4.2817823    4.2817823   -10373.826    -40238.29    11989.356   -2872.5425   -12933.439   -6198.5932     5523.991    78.500738 
   28400    1405.5515   -106.25112    1.2717725   -104.97935   -10555.726    4.2999019    4.2999019    4.2999019   -10555.726   -13150.825    40958.293   -59474.648   -11599.933   -12952.237    464.65607    79.501557 
   28500    1611.6712   -106.42349     1.458274   -104.96521   -5986.3385    4.2856593    4.2856593    4.2856593   -5986.3385    16047.529    16769.943   -50776.487   -5561.5701   -3534.2608     21885.16    78.714171 
   28600    1728.3425   -106.52291    1.5638406   -104.95907    22533.981    4.2564371    4.2564371    4.2564371    22533.981   -23825.427        94909   -3481.6297   -1082.8029   -48172.064   -13648.985    77.114963 
   28700    2242.9165   -107.00324     2.029438    -104.9738    21016.251    4.2586799    4.2586799    4.2586799    21016.251   -9243.3913    38328.835    33963.309   -23727.371    10468.998   -7865.9168    77.236928 
   28800    1212.1222   -106.09615    1.0967537   -104.99939   -8203.9332    4.2850526    4.2850526    4.2850526   -8203.9332   -36513.817    40672.171   -28770.154    43.866592   -11453.969    4081.8933    78.680748 
   28900    1624.7517   -106.43729    1.4701095   -104.96718   -26649.136    4.2997911    4.2997911    4.2997911   -26649.136   -39969.813    35193.116   -75170.711   -8959.1881    -13263.18   -12269.576    79.495411 
   29000    1351.0794   -106.18437    1.2224851   -104.96188   -30544.417    4.2894525    4.2894525    4.2894525   -30544.417    12087.838   -20623.676   -83097.413    -19656.95   -3542.7967    18905.206    78.923361 
   29100    1871.4191   -106.65228    1.6932993   -104.95898    9945.5744     4.268847     4.268847     4.268847    9945.5744    2638.8465    35007.271   -7809.3947   -12021.549   -9691.3985    749.64416    77.791433 
   29200    2707.0013   -107.41974    2.4493517   -104.97039    1532.0292    4.2670697    4.2670697    4.2670697    1532.0292    6751.2569   -12725.531    10570.361    2567.6938    7623.3333     18919.29    77.694312 
   29300    1497.4161   -106.35078    1.3548936   -104.99588   -11964.995    4.2772396    4.2772396    4.2772396   -11964.995   -1501.1106    11754.676    -46148.55   -22084.328   -11591.516    22232.325    78.251154 
   29400    1658.5121   -106.48156    1.5006566   -104.98091   -12844.463    4.2874945    4.2874945    4.2874945   -12844.463    7976.4907    32371.977   -78881.856   -14269.957    680.28268   -9188.1759    78.815338 
   29500    1072.8831   -105.94719   0.97076714   -104.97643   -27501.298    4.2940706    4.2940706    4.2940706   -27501.298    9830.4378   -3557.8015   -88776.531    1927.8181    1304.2914    25416.845    79.178549 
   29600    1700.7564   -106.50713    1.5388801   -104.96825    11010.484    4.2812029    4.2812029    4.2812029    11010.484     11383.22    25928.502   -4280.2709   -20283.042   -1881.4576    8435.6401    78.468878 
   29700    2205.9893   -106.95468    1.9960255   -104.95866     13277.85    4.2657339    4.2657339    4.2657339     13277.85    10928.757    17569.857    11334.937   -16037.207    6008.7649   -6806.2818    77.621366 
   29800    1176.8006   -106.05023     1.064794   -104.98543    6760.1617    4.2706016    4.2706016    4.2706016    6760.1617    3879.5998    72184.114   -55783.229     2606.143   -15053.514    23781.471    77.887396 
   29900    2108.0024   -106.88961    1.9073648   -104.98224   -24148.828     4.291636     4.291636     4.291636   -24148.828   -36205.034    17363.379    -53604.83   -13328.222    6147.4765   -4406.1735    79.043949 
   30000    1565.7556   -106.39537    1.4167285   -104.97864   -11286.329    4.2924419    4.2924419    4.2924419   -11286.329    -297.1222     969.6841   -34531.548    10553.434    11983.747   -9473.1527    79.088488 
   30100    2167.7452   -106.92344    1.9614215   -104.96202   -1261.5487    4.2724792    4.2724792    4.2724792   -1261.5487    12665.404   -48317.873    31867.823    17807.884   -10536.648    21420.438     77.99017 
   30200    1508.0223   -106.34242    1.3644903   -104.97793    32596.896    4.2670475    4.2670475    4.2670475    32596.896    15916.865    92969.845   -11096.023   -17212.082    6768.9476   -19806.418    77.693099 
   30300    769.07327   -105.70871   0.69587366   -105.01283   -20458.672    4.2820515    4.2820515    4.2820515   -20458.672     27042.65    11339.958   -99758.624   -9104.3188   -10815.958    4100.2383    78.515548 
   30400    1651.8481   -106.48629    1.4946269   -104.99166   -4398.3941    4.2912308    4.2912308    4.2912308   -4398.3941   -21372.756    60412.113   -52234.539    5051.2623    5942.1843    11676.705    79.021564 
   30500     2360.133   -107.11396     2.135498   -104.97847   -8192.5388    4.2896937    4.2896937    4.2896937   -8192.5388   -27783.444    2962.8399    242.98835   -4521.5958     16041.15   -3829.9087    78.936677 
   30600    2093.7937    -106.8586    1.8945085    -104.9641    5484.5168     4.279134     4.279134     4.279134    5484.5168    23563.276   -3576.2435   -3533.4817   -912.17004   -10459.185    20423.327     78.35517 
   30700    1425.4886   -106.25144    1.2898121   -104.96162    8348.2793     4.269699     4.269699     4.269699    8348.2793    40328.095    31445.388   -46728.645    3137.9509    16450.576   -2175.1567    77.838019 
   30800     1023.381   -105.90422   0.92597663   -104.97825   -4379.7376    4.2698142    4.2698142    4.2698142   -4379.7376    37018.546   -25895.588   -24262.171    804.87329   -10412.898   -3833.9674     77.84432 
   30900    1894.1594   -106.70044    1.7138752   -104.98656   -8724.7083    4.2817941    4.2817941    4.2817941   -8724.7083    -11609.12    16100.655    -30665.66    1403.6221    9977.7062    12760.713     78.50139 
   31000    1906.9985   -106.70719    1.7254923    -104.9817    4904.7061     4.284355     4.284355     4.284355    4904.7061   -14950.506    7855.6621    21808.962    9178.3006    22905.296    469.74114    78.642326 
   31100    1808.0228    -106.6034    1.6359371   -104.96746     15175.28    4.2754364    4.2754364    4.2754364     15175.28    19691.455    11678.729    14155.657    12638.775   -14104.587   -6670.8475    78.152228 
   31200    1458.0467   -106.28951    1.3192713   -104.97024    4866.4132    4.2717803    4.2717803    4.2717803    4866.4132   -11294.934    94465.891   -68571.718   -7965.2337     22501.83     1899.994    77.951902 
   31300    1630.9743   -106.44852    1.4757398   -104.97278   -4948.0576    4.2726465    4.2726465    4.2726465   -4948.0576   -13944.748    52489.384   -53388.809    5388.2709    406.26288   -15931.925    77.999335 
   31400    1544.8695   -106.38119    1.3978304   -104.98336    18651.116    4.2766963    4.2766963    4.2766963    18651.116   -26032.765    64315.055    17671.058    6975.5293    6655.3615   -9890.9614    78.221338 
   31500    1571.9361   -106.40214    1.4223208   -104.97982    155.28251    4.2873884    4.2873884    4.2873884    155.28251   -67609.632    42040.181    26035.299   -3228.5018     22706.52     4867.425    78.809485 
   31600    1641.2082   -106.45527    1.4849997   -104.97027   -11645.104    4.2783783    4.2783783    4.2783783   -11645.104   -8744.3819    13339.186   -39530.117    -3547.855   -11047.338   -3998.6335    78.313664 
   31700    1104.9859   -105.97609   0.99981446   -104.97628    51219.675    4.2618643    4.2618643    4.2618643    51219.675    16004.708    66940.062    70714.256   -4660.3042    27255.272    -12151.99    77.410318 
   31800    2200.6713   -106.98046    1.9912136   -104.98924   -16200.201    4.2799598    4.2799598    4.2799598   -16200.201   -26925.206    19051.234   -40726.633     -13531.8    5969.0204    11813.096    78.400545 
   31900    1725.2863   -106.54601    1.5610753   -104.98493   -10963.674     4.282737     4.282737     4.282737   -10963.674   -55270.512   -8881.4631    31260.952      12077.9    5711.5639    636.68725    78.553262 
   32000    1514.0572   -106.34294    1.3699508   -104.97299   -171.94043    4.2672927    4.2672927    4.2672927   -171.94043   -40600.741    12116.217    27968.702   -10889.752    25899.268   -9363.3086     77.70649 
   32100    1616.9025   -106.44784    1.4630074   -104.98483   -16166.523    4.2757902    4.2757902    4.2757902   -16166.523   -27749.978   -10131.993   -10617.599   -10116.163   -26075.077    24325.303    78.171629 
   32200     1660.112   -106.48473    1.5021042   -104.98262    2555.3546    4.2863985    4.2863985    4.2863985    2555.3546   -10317.028   -24969.033    42952.125    18393.282    5314.0824   -8977.5148     78.75491 
   32300    2154.4816   -106.92339    1.9494202   -104.97397   -10754.451    4.2878637    4.2878637    4.2878637   -10754.451    -36094.74    3254.8039    576.58238     -8792.48    5978.0772   -2861.2082      78.8357 
   32400    1669.1643   -106.48505     1.510295   -104.97476   -24910.617    4.2831148    4.2831148    4.2831148   -24910.617   -79910.168   -915.98013    6094.2971    16837.994   -9517.5564     12978.41     78.57405 
   32500    1621.6853   -106.43614     1.467335   -104.96881   -4269.1175     4.274175     4.274175     4.274175   -4269.1175   -41402.574    1703.1795    26892.042     6304.082    14284.817   -4450.5444    78.083071 
   32600    1874.4638   -106.66873    1.6960543   -104.97267     5021.527     4.273891     4.273891     4.273891     5021.527    6262.6834   -11858.363     20660.26   -376.24132   -15871.794   -1993.3364    78.067511 
   32700    1964.1234   -106.76193    1.7771802   -104.98475    -20273.09    4.2829649    4.2829649    4.2829649    -20273.09    8726.1344   -48027.738   -21517.667    38725.252      9091.12     9368.539    78.565799 
   32800    1792.9595   -106.59682    1.6223075   -104.97451    4579.6392    4.2818079    4.2818079    4.2818079    4579.6392    9133.6141   -14033.773    18639.076   -6957.9951    23095.303   -15450.447    78.502147 
   32900    1484.8924   -106.31411    1.3435618   -104.97055    19863.789     4.276623     4.276623     4.276623    19863.789    -27758.97     28918.92    58431.418     -4156.56   -18103.922    771.44119    78.217317 
   33000    1668.1255   -106.48861     1.509355   -104.97926   -28159.019    4.2794678    4.2794678    4.2794678   -28159.019   -70055.475   -18481.517    4059.9343     21937.18     9109.322     14391.56    78.373509 
   33100    1688.3398   -106.50679    1.5276453   -104.97914    10856.953    4.2735426    4.2735426    4.2735426    10856.953   -21364.548    3331.4657    50603.942   -7946.3622    8293.0851     -14958.1    78.048421 
   33200    1946.6459   -106.74698    1.7613661   -104.98561    19114.378    4.2730041    4.2730041    4.2730041    19114.378    13387.359    3181.3493    40774.426    8028.5685   -5402.2024   -4152.0967    78.018918 
   33300    2039.5683   -106.83386    1.8454443   -104.98841   -13304.807    4.2761193    4.2761193    4.2761193   -13304.807    16129.469   -28230.523   -27813.367   -6736.3388    21802.407    6997.8075    78.189679 
   33400    1235.9215   -106.10778    1.1182877   -104.98949     568.2193    4.2755207    4.2755207    4.2755207     568.2193   -33004.286    5783.6075    28925.337   -12065.872   -12751.029   -6023.4711    78.156846 
   33500    1433.1915   -106.28372    1.2967818   -104.98693   -3020.9417    4.2801117    4.2801117    4.2801117   -3020.9417   -69910.615    27975.775    32872.015    14256.964   -10967.866    1048.1616    78.408889 
   33600    1791.9781   -106.60205    1.6214194   -104.98063   -98.010077    4.2794482    4.2794482    4.2794482   -98.010077    497.00514   -7013.4116    6222.3762   -9439.3884    29270.971    8420.3059    78.372434 
   33700    1914.0814   -106.71475     1.731901   -104.98285    832.31458    4.2748725    4.2748725    4.2748725    832.31458    24100.623   -37824.594    16220.914   -17158.944   -18782.178   -14556.125    78.121308 
   33800    2206.9853   -106.98565    1.9969266   -104.98873   -7252.8554    4.2785438    4.2785438    4.2785438   -7252.8554    10673.007    6754.3066    -39185.88   -404.45859   -1421.1431   -5491.0364    78.322755 
   33900    1604.3841   -106.43843    1.4516805   -104.98675   -21186.566    4.2903034    4.2903034    4.2903034   -21186.566     -19445.1    -16499.89   -27614.707   -3537.7985   -2554.0877    3502.5441    78.970339 
   34000    1464.5066   -106.29894    1.3251163   -104.97382   -15795.592    4.2972125    4.2972125    4.2972125   -15795.592   -31014.991   -2212.0043   -14159.782   -10147.803   -12552.358   -27580.441    79.352479 
   34100    1948.5547   -106.71742    1.7630932   -104.95433    4236.1907    4.2947053    4.2947053    4.2947053    4236.1907   -12763.014    10880.847    14590.738     13716.84   -4563.6291    6851.3124    79.213663 
   34200    1828.3682   -106.60477     1.654346   -104.95043   -3296.4039    4.2894807    4.2894807    4.2894807   -3296.4039     24801.51   -46088.532     11397.81    7140.8395   -33967.765     945.6383    78.924921 
   34300    1664.9573   -106.45457    1.5064883   -104.94808    10536.111    4.2787409    4.2787409    4.2787409    10536.111      50660.1   -43286.062    24234.293    9324.9218   -32179.443   -15461.294    78.333579 
   34400    1256.0703     -106.099    1.1365188   -104.96248    6636.6332    4.2817802    4.2817802    4.2817802    6636.6332    3930.3425    10046.756    5932.8011    1283.9577   -8794.3667    15955.307    78.500622 
   34500    1139.1661   -106.00866    1.0307415   -104.97792   -20738.882    4.2935207    4.2935207    4.2935207   -20738.882   -47327.809   -14519.939   -368.89807   -8185.6741   -32459.368   -17534.324    79.148133 
   34600    2037.0428   -106.80864    1.8431591   -104.96548    1496.6057    4.2891221    4.2891221    4.2891221    1496.6057    27813.632   -30212.973     6889.158    12652.731   -8337.5512     26374.16     78.90513 
   34700    2172.0356   -106.92826    1.9653034   -104.96296   -916.21872    4.2837538    4.2837538    4.2837538   -916.21872     14433.94    6126.6618   -23309.258    1834.1145   -7584.2359    24704.774    78.609223 
   34800    1514.7076   -106.34214    1.3705392    -104.9716    3365.8336    4.2799901    4.2799901    4.2799901    3365.8336    21339.546    10957.907   -22199.952   -3533.3089   -3113.4731   -27747.206    78.402209 
   34900    1692.9543   -106.50159    1.5318207   -104.96977   -9861.1743    4.2740928    4.2740928    4.2740928   -9861.1743    6426.8974   -10573.204   -25437.216    11104.698    10130.856    14954.041    78.078568 
   35000    1226.4021    -106.0914    1.1096744   -104.98172   -35603.407    4.2779996    4.2779996    4.2779996   -35603.407   -32739.665   -22949.576   -51120.979   -24646.325   -13942.757    -4408.724    78.292873 
   35100    1580.4099   -106.41359    1.4299881   -104.98361   -32880.562    4.2810196    4.2810196    4.2810196   -32880.562    -61731.18   -31252.659   -5657.8454   -861.71628   -9215.6221   -13174.332    78.458797 
   35200    2306.1852    -107.0625    2.0866849   -104.97582   -2603.7082    4.2814093    4.2814093    4.2814093   -2603.7082   -23008.199   -20727.984    35925.059     39503.72    6728.9418    10975.116    78.480225 
   35300    1979.4791   -106.76934    1.7910743   -104.97827   -13814.306    4.2824052    4.2824052    4.2824052   -13814.306    21079.615   -45621.473   -16901.059   -20685.453    9917.1323   -38570.402    78.535003 
   35400    1536.0264   -106.36607     1.389829   -104.97624    2804.4843    4.2690912    4.2690912    4.2690912    2804.4843   -5406.6643    1370.2091    12449.908   -9565.5583    5931.6084   -10008.844    77.804783 
   35500    1331.1732   -106.18554    1.2044735   -104.98107   -5570.0682    4.2643696    4.2643696    4.2643696   -5570.0682   -22924.766   -1778.2788    7992.8404    24820.578   -2389.0989    12021.263    77.546916 
   35600    1048.4957   -105.95227   0.94870098   -105.00357   -20128.875     4.278382     4.278382     4.278382   -20128.875   -27206.915    11009.306   -44189.016   -22621.434   -641.87694   -7834.3105    78.313868 
   35700    1570.5883   -106.41928    1.4211013   -104.99818    1777.0517     4.278311     4.278311     4.278311    1777.0517   -8636.5834     18812.86   -4845.1218    13813.933    8205.4533   -2836.3053    78.309967 
   35800    2192.4053   -106.98053    1.9837343   -104.99679    7423.7733    4.2787574    4.2787574    4.2787574    7423.7733   -14154.144    12935.451    23490.013    6910.2943     27038.02    17388.581    78.334485 
   35900    2494.1851   -107.24695    2.2567911   -104.99015   -6307.1735    4.2749688    4.2749688    4.2749688   -6307.1735   -17612.822   -15060.078     13751.38     -22388.1   -10002.591    3342.5584    78.126587 
   36000    1420.7221   -106.27678    1.2854992   -104.99128    7387.6352    4.2595847    4.2595847    4.2595847    7387.6352   -51112.253    49657.731    23617.427    37623.141    2633.0962   -21117.297    77.286167 
   36100    1165.5975   -106.05551    1.0546571   -105.00086   -14464.782    4.2713302    4.2713302    4.2713302   -14464.782   -59650.783    64443.863   -48187.425    7987.0535    25027.491    11511.944    77.927265 
   36200    1447.1355   -106.30325    1.3093986   -104.99385   -27765.196    4.2869058    4.2869058    4.2869058   -27765.196   -28151.449   -18486.417   -36657.723    8645.7238     1472.471    42.900697    78.782873 
   36300    1320.0769   -106.19096    1.1944333   -104.99652    13889.874    4.2692037    4.2692037    4.2692037    13889.874    5216.2325   -386.18463    36839.573    36669.753    6242.2415   -2959.9839    77.810933 
   36400    2325.3353   -107.09922    2.1040122   -104.99521    532.96917    4.2632707    4.2632707    4.2632707    532.96917   -15087.163    31408.747   -14722.677   -4779.6528    18658.898   -7954.2083     77.48698 
   36500    2146.3812   -106.94246    1.9420908   -105.00036    5021.4802    4.2778618    4.2778618    4.2778618    5021.4802    12676.491   -35414.305    37802.255    11850.591   -4747.3592    5377.5183    78.285307 
   36600    1509.6489   -106.35359    1.3659621   -104.98763    2440.6947    4.2832455    4.2832455    4.2832455    2440.6947   -44612.814    2602.2725    49332.626    21767.833    21817.506    15707.958    78.581244 
   36700    1469.5841   -106.31209    1.3297106   -104.98238   -22211.361    4.2813592    4.2813592    4.2813592   -22211.361   -51516.873    18074.815   -33192.023   -10984.899    334.84204   -1718.3457    78.477472 
   36800    1732.8724    -106.5497    1.5679394   -104.98176   -7457.2916    4.2759986    4.2759986    4.2759986   -7457.2916   -3154.0334   -13704.017   -5513.8241    5650.7533   -22564.814    9647.9472    78.183058 
   36900    1626.9944   -106.45599    1.4721388   -104.98385    26811.253    4.2682131    4.2682131    4.2682131    26811.253    56754.864   -27769.835     51448.73    8187.9789    35483.754    6263.4538    77.756781 
   37000    1831.2864   -106.65801    1.6569865   -105.00103   -14617.157    4.2791963    4.2791963    4.2791963   -14617.157   -26673.665   -23221.321    6043.5163   -8147.1431    1525.4893    11768.117    78.358595 
   37100    1523.0587   -106.37397    1.3780955   -104.99587    6904.8419    4.2836988    4.2836988    4.2836988    6904.8419    2157.1991   -3719.0474    22276.374    14448.615   -16480.785    8239.6406    78.606194 
   37200    2033.6438   -106.82421    1.8400837   -104.98413    9788.2584    4.2721556    4.2721556    4.2721556    9788.2584   -4946.0613    17339.669    16971.168    606.22317    33144.901    4783.2299    77.972453 
   37300    1585.6875   -106.43473    1.4347634   -104.99997   -29979.071    4.2745259    4.2745259    4.2745259   -29979.071   -21247.181   -19052.429   -49637.602   -5237.8021   -4291.0743    17188.585    78.102308 
   37400    1688.7123   -106.52885    1.5279823   -105.00086   -3589.3053     4.272173     4.272173     4.272173   -3589.3053    2838.5565   -2603.5905   -11002.882    6070.5166   -17275.233   -5233.5194    77.973402 
   37500    1758.3026    -106.5903    1.5909491   -104.99935    10002.228    4.2740811    4.2740811    4.2740811    10002.228    9666.6316    -30221.67    50561.724    -1456.935    22588.654   -4336.5234    78.077926 
   37600    1268.5469   -106.15614    1.1478079   -105.00833   -14647.297    4.2809836    4.2809836    4.2809836   -14647.297   -20891.488    -68320.55    45270.146   -4585.4611   -9928.4617    12690.174    78.456816 
   37700    1495.0244   -106.35818    1.3527295   -105.00546    23642.091    4.2834803    4.2834803    4.2834803    23642.091     12346.33   -11534.818    70114.761    1506.8788   -6096.9239   -14404.595    78.594168 
   37800    1878.5093   -106.69266    1.6997147   -104.99295    9566.9458    4.2937129    4.2937129    4.2937129    9566.9458    12838.786   -19130.023    34992.074   -2907.1684    21515.276   -3312.5088    79.158762 
   37900     1751.065     -106.565    1.5844004    -104.9806   -15112.764    4.2891917    4.2891917    4.2891917   -15112.764    10130.159   -58604.192    3135.7417   -7254.7536   -11184.633    18333.996    78.908971 
   38000    1528.8475   -106.35595    1.3833333   -104.97262    17774.411    4.2766313    4.2766313    4.2766313    17774.411     97679.47   -61743.617    17387.381    -10378.98    8250.2936   -18171.486    78.217771 
   38100    1670.9848   -106.49738    1.5119422   -104.98544    452.05484    4.2839139    4.2839139    4.2839139    452.05484    20726.734   -53623.606    34253.037    -17868.39   -8226.4384     665.0673    78.618037 
   38200    1860.4129   -106.66826    1.6833407   -104.98492   -34713.201    4.2884643    4.2884643    4.2884643   -34713.201   -73695.694   -9939.2113   -20504.698   -6059.2448   -15243.968    17893.354    78.868829 
   38300    1479.6316     -106.323    1.3388018   -104.98419    10852.739     4.279367     4.279367     4.279367    10852.739    -41340.19    3765.2546    70133.154   -5791.2906   -16590.572   -11540.701    78.367968 
   38400    1927.4138   -106.73188    1.7439645   -104.98791    6986.0623    4.2887343    4.2887343    4.2887343    6986.0623    541.58265   -47612.225    68028.829    5101.7999   -3642.9371    4409.4838    78.883728 
   38500    1738.4415   -106.55859    1.5729784   -104.98562    2193.4547    4.2923191    4.2923191    4.2923191    2193.4547    3089.8823   -45936.982    49427.464    9085.3186   -28465.515   -317.16702      79.0817 
   38600    1494.1102   -106.34911    1.3519024    -104.9972   -21570.445     4.278244     4.278244     4.278244   -21570.445   -29014.428   -43682.897    7985.9905   -13515.304   -743.52859    -43437.04    78.306289 
   38700    1841.7546   -106.66052    1.6664582   -104.99406    15706.185    4.2683999    4.2683999    4.2683999    15706.185    -38589.88    1540.4281    84168.006    4898.9271   -9320.9119    -8108.602    77.766995 
   38800    1690.9913   -106.55793    1.5300445   -105.02788   -15723.585    4.2932341    4.2932341    4.2932341   -15723.585   -62441.962   -10695.728    25966.937   -11477.072    -18269.66   -3099.4358    79.132283 
   38900    1466.5145   -106.32316    1.3269331   -104.99623   -41161.077    4.3161919    4.3161919    4.3161919   -41161.077   -38185.221   -72151.629    -13146.38   -9468.5906    17197.582   -41641.601    80.408553 
   39000     1915.608   -106.69669    1.7332824   -104.96341    5296.8832    4.2855851    4.2855851    4.2855851    5296.8832    8145.2737   -20401.958    28147.334    5540.2069    -8768.524    1486.6437    78.710083 
   39100    1520.6259   -106.33235    1.3758943   -104.95646    26560.357     4.260341     4.260341     4.260341    26560.357    -27.18394    50405.689    29302.565   -12215.899   -32903.781   -7334.7247     77.32734 
   39200    1474.4372   -106.32956    1.3341017   -104.99546   -3180.7997    4.2866403    4.2866403    4.2866403   -3180.7997   -48436.651    16804.968    22089.284     -6383.72   -11195.973   -32269.581    78.768237 
   39300    1740.1473   -106.55179    1.5745218   -104.97727    -28545.39    4.3149765    4.3149765    4.3149765    -28545.39   -33505.599   -18838.179   -33292.391    6941.0825    6334.6935    15181.879    80.340644 
   39400    1461.8295   -106.27769     1.322694     -104.955   -17716.027    4.3127461    4.3127461    4.3127461   -17716.027     -7258.41    4336.5606   -50226.232   -6923.6581    -10903.87   -15932.764    80.216122 
   39500    2095.3559   -106.83375     1.895922   -104.93783    15733.678    4.2824226    4.2824226    4.2824226    15733.678   -7601.0419    306.15935    54495.916    12037.406    3589.8232   -3735.8086     78.53596 
   39600    1709.5966    -106.4981    1.5468789   -104.95122    49494.135    4.2612232    4.2612232    4.2612232    49494.135    51128.991    42032.995    55320.419   -5742.3628   -10134.146    7258.7589    77.375387 
   39700    1776.1071     -106.611     1.607059   -105.00394   -4678.4453    4.2839009    4.2839009    4.2839009   -4678.4453   -48231.678    29993.172    4203.1708   -5774.6741   -23169.598   -17768.749     78.61732 
   39800    1582.3717   -106.42237    1.4317632   -104.99061   -14038.118    4.3070113    4.3070113    4.3070113   -14038.118   -77737.573   -25915.231    61538.449    4860.0738    5009.1684     15815.29    79.896554 
   39900    1342.1663    -106.1932    1.2144203   -104.97878    2779.5723    4.2941568    4.2941568    4.2941568    2779.5723    2848.6206    401.61248    5088.4838   -10930.484   -11288.195    23120.796    79.183316 
   40000    2121.7191   -106.88127     1.919776   -104.96149     16331.49    4.2708287    4.2708287    4.2708287     16331.49    13348.776    28413.464    7232.2304   -2078.6101   -14220.432   -19446.916    77.899819 
   40100    1781.7874   -106.58594    1.6121987   -104.97374    24981.159     4.269749     4.269749     4.269749    24981.159     39810.07    -7114.678    42248.086    10470.858    10735.828    15491.936    77.840752 
   40200    1804.8776   -106.63545    1.6330912   -105.00236   -18871.328    4.2874335    4.2874335    4.2874335   -18871.328   -67431.245    -21886.46    32703.721   -4875.8713   -19093.246    22761.683    78.811972 
   40300     1842.423   -106.64594     1.667063   -104.97887   -12300.545    4.3049763    4.3049763    4.3049763   -12300.545    -37386.94   -16622.014    17107.321    -12248.72   -13025.952   -5728.4846    79.783355 
   40400    1205.6361   -106.05739    1.0908848    -104.9665    3096.8115    4.2941012    4.2941012    4.2941012    3096.8115    58077.711   -15288.399   -33498.878   -207.90734    9539.8127    13204.417    79.180243 
   40500    1837.3339   -106.62166    1.6624584    -104.9592    12859.807    4.2670924    4.2670924    4.2670924    12859.807    6733.2666   -9276.3547    41122.509   -4217.6019   -12945.894    11941.834    77.695549 
   40600    2199.3973    -106.9704    1.9900609   -104.98034    38163.539    4.2641102    4.2641102    4.2641102    38163.539    90737.349    2241.5468    21511.722     4413.999    5298.0896     10647.37     77.53276 
   40700    1521.6251   -106.38761    1.3767984   -105.01081   -22990.127    4.2945704    4.2945704    4.2945704   -22990.127   -54844.763   -25451.409     11325.79     19221.57   -4420.6932    19990.576    79.206202 
   40800     1446.804    -106.2804    1.3090987    -104.9713   -36331.741    4.3144837    4.3144837    4.3144837   -36331.741   -91323.286   -47637.247     29965.31   -16422.301   -2983.8053    3518.7164    80.313123 
   40900    1447.4501   -106.25749    1.3096833   -104.94781   -20230.817    4.2981431    4.2981431    4.2981431   -20230.817   -7884.4225    -18425.05   -34382.977   -8370.5387   -28728.201    5932.9446    79.404043 
   41000    1340.4837   -106.15814    1.2128978   -104.94524    22430.126    4.2696381    4.2696381    4.2696381    22430.126    78235.538    39919.186   -50864.347    1788.3679   -33801.007    5772.0179    77.834688 
   41100    2557.0541   -107.27482    2.3136763   -104.96114    24646.865     4.269186     4.269186     4.269186    24646.865    29138.437    18260.268    26541.891   -6390.2034    18335.734   -14489.806    77.809968 
   41200    1106.5226   -105.99937    1.0012049   -104.99817   -31598.101    4.3045485    4.3045485    4.3045485   -31598.101   -17126.604   -16183.859    -61483.84    14391.819   -24620.814    -1033.662     79.75957 
   41300    1404.6417   -106.23851    1.2709493   -104.96756   -37626.512    4.3051151    4.3051151    4.3051151   -37626.512   -56360.883   -10120.798   -46397.854    9130.9533   -8554.0251    8483.2415     79.79107 
   41400    2061.7564   -106.81541    1.8655205   -104.94989   -4037.3014    4.2670493    4.2670493    4.2670493   -4037.3014   -3816.3636    916.23838    -9211.779    2672.7976   -5968.8081   -10747.042    77.693195 
   41500    1404.8043   -106.25765    1.2710965   -104.98655    29172.882    4.2584504    4.2584504    4.2584504    29172.882    76726.785    12931.526    -2139.665     21848.76   -19903.508    11286.684    77.224443 
   41600     2412.517   -107.18882    2.1828961   -105.00592    13610.598     4.288768     4.288768     4.288768    13610.598    36338.616   -21160.096    25653.273   -4427.2179    3521.9887    2830.0203    78.885588 
   41700    1688.7507   -106.51721    1.5280171   -104.98919   -48293.767    4.3036418    4.3036418    4.3036418   -48293.767   -39171.618   -59790.384   -45919.298   -21100.801   -10187.896   -3031.9743    79.709179 
   41800     1299.269   -106.14323    1.1756059   -104.96762   -16044.124    4.2750299    4.2750299    4.2750299   -16044.124   -49141.707    1510.6312   -501.29528    17423.204   -11162.066    9865.5375    78.129938 
   41900    1525.4278   -106.34332    1.3802392   -104.96309    3391.8077    4.2634774    4.2634774    4.2634774    3391.8077    -52949.04    32188.877    30935.586   -17979.368    16911.222   -8746.9457    77.498252 
   42000    1243.1522   -106.12095    1.1248303   -104.99612   -11563.981    4.2802495    4.2802495    4.2802495   -11563.981     15419.13    4297.1998   -54408.275   -1223.2497   -21256.297   -1600.4226    78.416463 
   42100     2395.626   -107.14964    2.1676128   -104.98203   -7071.3096    4.2956253    4.2956253    4.2956253   -7071.3096    3134.1146   -27058.258    2710.2148   -12701.512    17570.578   -9325.6749    79.264581 
   42200    1568.6906   -106.39781    1.4193843   -104.97842   -10234.792    4.3027647    4.3027647    4.3027647   -10234.792   -46936.926    36544.714   -20312.164    -13435.28    13094.048   -5500.6601    79.660454 
   42300    1380.0595   -106.20666    1.2487069   -104.95795    113.96357    4.2958189    4.2958189    4.2958189    113.96357   -36904.389    53740.113   -16493.833    13109.862   -18436.265   -8418.4246    79.275299 
   42400    1289.0766   -106.11867    1.1663836   -104.95229    18519.484    4.2875031    4.2875031    4.2875031    18519.484   -58586.305    115027.62   -882.85901   -2773.5496    24801.078   -7760.2213    78.815808 
   42500    1665.3832   -106.47694    1.5068737   -104.97007    22589.241    4.2980875    4.2980875    4.2980875    22589.241    4162.5092    84622.381   -21017.167    5512.4086     -9805.21     784.1309    79.400962 
   42600    1991.1662   -106.75414     1.801649    -104.9525   -500.96649     4.313318     4.313318     4.313318   -500.96649   -13405.857    53671.276   -41768.318    22089.033    4981.9648   -1945.9381    80.248039 
   42700    802.84771   -105.66844   0.72643348     -104.942    5330.3186     4.310317     4.310317     4.310317    5330.3186   -70828.681    131722.21   -44902.571     13471.21   -5903.8128    2807.3647    80.080658 
   42800    1294.9774   -106.09472    1.1717227     -104.923    32074.769    4.2961044    4.2961044    4.2961044    32074.769   -14175.276    126327.33   -15927.748    4934.9636    1487.6676    14471.524    79.291108 
   42900     1342.002   -106.17201    1.2142717   -104.95773    11102.361    4.2970035    4.2970035    4.2970035    11102.361   -38541.947    104238.46   -32389.435    38473.335   -9887.5583    8198.4404    79.340899 
   43000    2354.2866   -107.08358     2.130208   -104.95337   -6793.1122     4.306492     4.306492     4.306492   -6793.1122    2526.6549    3717.1433   -26623.135     25976.27     437.9415    10634.952    79.867657 
   43100    1843.9291   -106.62914    1.6684258   -104.96071   -3958.5942    4.3120693    4.3120693    4.3120693   -3958.5942   -32045.125     22887.55   -2718.2079    5667.9666    12684.956     7133.413    80.178364 
   43200    1251.8579   -106.09597    1.1327074   -104.96327    -36605.59    4.3074859    4.3074859    4.3074859    -36605.59   -65115.676   -25878.064   -18823.029    29836.142   -6300.4624    -4652.703    79.922968 
   43300    1926.7842   -106.69599    1.7433949   -104.95259    4983.0448    4.2945024    4.2945024    4.2945024    4983.0448   -12488.311    6244.9025    21192.543    9916.3285    12479.397    11053.013    79.202438 
   43400    2216.1992   -106.96463    2.0052636   -104.95937   -22846.329    4.3044464    4.3044464    4.3044464   -22846.329   -38999.313    16871.165   -46410.838    9939.5356   -7897.9582   -417.89891    79.753896 
   43500    1898.8174   -106.68547    1.7180899   -104.96738   -33450.933    4.2964543    4.2964543    4.2964543   -33450.933   -52247.479    -35530.55   -12574.771    21519.224   -4598.4817   -10580.471    79.310483 
   43600    1443.8968   -106.28027    1.3064681    -104.9738    36195.766    4.2875658    4.2875658    4.2875658    36195.766    -967.7224    82108.743    27446.278    911.03847    -552.3008   -3186.9003    78.819267 
   43700    2010.0452   -106.79226    1.8187311   -104.97353   -16516.273    4.3049571    4.3049571    4.3049571   -16516.273   -49514.727    27861.189    -27895.28    6784.5572   -6613.4395   -2599.8578    79.782287 
   43800    1308.7615   -106.16825    1.1841949   -104.98405   -22798.695    4.2946806    4.2946806    4.2946806   -22798.695   -16190.948   -46859.053    -5346.086    10155.211   -7905.1886    8088.0739    79.212296 
   43900    1864.4597   -106.66097    1.6870023   -104.97397    19424.168    4.2684974    4.2684974    4.2684974    19424.168    36406.419    36330.189   -14464.104   -2760.9821   -9836.6283    3272.7888    77.772322 
   44000    1823.4206   -106.65192    1.6498692   -105.00205      25269.7    4.2840394    4.2840394    4.2840394      25269.7    40414.972    62328.513   -26934.384   -4716.4683   -9000.8852   -13400.416    78.624947 
   44100    1526.6141   -106.38294    1.3813125   -105.00163   -55116.827    4.3052984    4.3052984    4.3052984   -55116.827   -93071.541   -63038.399   -9240.5402   -5714.7083    1421.6853    5406.7378    79.801262 
   44200    1831.1187    -106.6368    1.6568347   -104.97996   -18725.252    4.2891855    4.2891855    4.2891855   -18725.252   -59271.568    18595.928   -15500.115   -4396.5817     7784.222     10817.68    78.908627 
   44300     1813.407   -106.62206    1.6408088   -104.98125    52470.594    4.2817795    4.2817795    4.2817795    52470.594    83563.331    112755.77   -38907.321   -20433.866    2855.4589   -4603.4863    78.500587 
   44400     1908.951   -106.74118     1.727259   -105.01392   -13484.343    4.2845933    4.2845933    4.2845933   -13484.343   -30102.993    12160.846   -22510.884   -3984.8071    3951.6598   -4000.2454     78.65545 
   44500    1115.9965   -106.04423    1.0097771   -105.03445    19935.936     4.280083     4.280083     4.280083    19935.936    13010.639    64173.116   -17375.947   -2617.1033   -953.32367   -3439.1726    78.407314 
   44600    1719.8285   -106.59537     1.556137   -105.03923   -23931.131    4.2977816    4.2977816    4.2977816   -23931.131   -23861.455    4156.0188   -52087.958    5202.9343   -7666.5659   -4037.2434    79.384011 
   44700    2042.0352   -106.85873    1.8476763   -105.01106    -10683.28    4.2983371    4.2983371    4.2983371    -10683.28   -64501.682    63173.774   -30721.933   -19931.508    3003.0176    2090.3147    79.414794 
   44800    1642.9308   -106.49412    1.4865583   -105.00756   -10185.159    4.2908503    4.2908503    4.2908503   -10185.159   -57674.585    81162.413   -54043.306   -9139.0582   -6601.5473   -9566.3567    79.000544 
   44900    1863.9258   -106.69597    1.6865192   -105.00945    12423.791     4.286231     4.286231     4.286231    12423.791    18511.158    67448.831   -48688.617    18746.392    5999.5874   -5794.2703    78.745674 
   45000    1643.8735   -106.51418    1.4874113   -105.02677    5737.8887    4.2996028    4.2996028    4.2996028    5737.8887    -4867.824    60909.323   -38827.833    5760.2272   -7436.0312     3440.225    79.484971 
   45100    1491.5477    -106.3538    1.3495837   -105.00422   -35282.922    4.3053499    4.3053499    4.3053499   -35282.922   -58908.491    -30072.85   -16867.424    17336.873   -9893.0318   -3811.7259    79.804126 
   45200     1426.634   -106.27451    1.2908484   -104.98367    16406.688    4.2809982    4.2809982    4.2809982    16406.688    -29705.63    83406.539   -4480.8465    5337.1645    2047.8773    548.59196    78.457622 
   45300    2123.0141   -106.91802    1.9209478   -104.99707    6933.3698    4.2790495    4.2790495    4.2790495    6933.3698   -336.19353    68122.262   -46985.959   -24485.241   -13746.911    16999.985     78.35053 
   45400    2098.4149   -106.90062    1.8986899   -105.00193    26355.653    4.2825353    4.2825353    4.2825353    26355.653    20195.695     112703.2   -53831.938    -2231.586    -11821.01    7159.9525     78.54216 
   45500    1816.7842   -106.66607    1.6438645    -105.0222   -34989.277    4.2887624    4.2887624    4.2887624   -34989.277   -21675.678   -30111.698   -53180.455    23729.308    -1765.964    10055.481    78.885279 
   45600    1364.7633   -106.25593    1.2348666   -105.02106   -49876.732    4.2997937    4.2997937    4.2997937   -49876.732   -49234.287   -33029.807   -67366.103   -6183.6894   -23528.095   -4250.6369    79.495557 
   45700    1696.2383   -106.52449    1.5347921    -104.9897    7891.8458    4.2925076    4.2925076    4.2925076    7891.8458   -33658.308    70521.707   -13187.862   -13289.673    10335.967    7345.3428    79.092123 
   45800    1564.2186   -106.40374    1.4153378    -104.9884   -21848.828    4.3021162    4.3021162    4.3021162   -21848.828   -46461.023   -196.42269   -18889.039    29905.874     14075.26    11432.248    79.624445 
   45900    1615.7555   -106.44041    1.4619695   -104.97844   -27950.706    4.2959164    4.2959164    4.2959164   -27950.706   -13995.055   -17791.031   -52066.031    2077.8912   -16375.688   -10750.724      79.2807 
   46000    1986.9776   -106.76593    1.7978591   -104.96807     36720.64    4.2741146    4.2741146    4.2741146     36720.64    4668.1856    88796.737    16696.998   -11850.382    27746.826   -12192.877    78.079762 
   46100    2264.4357   -107.06346     2.048909   -105.01455   -17132.247    4.2984218    4.2984218    4.2984218   -17132.247   -45368.181    15937.071   -21965.631    1212.7067   -9549.2292    2924.3336     79.41949 
   46200     1387.498   -106.27211    1.2554374   -105.01667   -17419.996    4.3209975    4.3209975    4.3209975   -17419.996   -80000.537    82483.891   -54743.342   -10436.729    13538.628   -2109.0369    80.677428 
   46300    1613.4108   -106.46861     1.459848   -105.00876   -28632.929    4.3133286    4.3133286    4.3133286   -28632.929   -31771.539   -6609.2372   -47518.009   -7718.4475    11583.562   -5520.2312     80.24863 
   46400    1592.7318   -106.44133    1.4411372   -105.00019    69414.105    4.2855815    4.2855815    4.2855815    69414.105   -18848.646    214805.59    12285.373    30766.701   -4798.6331     15200.26    78.709884 
   46500    1376.6667   -106.31428     1.245637   -105.06864     4764.528    4.2977695    4.2977695    4.2977695     4764.528   -36043.587     105380.7   -55043.532   -14623.553    14557.513   -9078.3803    79.383337 
   46600    1467.7355   -106.39924     1.328038    -105.0712   -1991.5526    4.3239343    4.3239343    4.3239343   -1991.5526   -15368.128    78796.561    -69403.09    2158.5077   -5739.3114    12299.947    80.842037 
   46700    1416.2354   -106.32671    1.2814396   -105.04527   -5907.6953    4.3331877    4.3331877    4.3331877   -5907.6953   -70787.703    128824.82   -75760.206    6626.6438    18074.938   -19760.738    81.362168 
   46800    1729.8703    -106.6047     1.565223   -105.03948    3834.0401    4.3070856    4.3070856    4.3070856    3834.0401   -10691.503    92196.358   -70002.734   -24858.949   -1710.9408    6998.1496    79.900688 
   46900    1343.2172   -106.24868    1.2153711   -105.03331    52837.381      4.27843      4.27843      4.27843    52837.381    11229.484    144834.99    2447.6689     6764.962    4691.6466   -9994.9991    78.316504 
   47000    1645.6105   -106.56084     1.488983   -105.07185    18739.205    4.2954271    4.2954271    4.2954271    18739.205   -39385.171    105613.42   -10010.633    4783.2001    5803.4658    4236.3402     79.25361 
   47100    1210.9483   -106.18227    1.0956914   -105.08658    11617.735    4.3286719    4.3286719    4.3286719    11617.735   -73929.439    161315.59   -52532.948   -16435.107   -5917.6745   -15231.278    81.108061 
   47200    1471.4532   -106.40233    1.3314018   -105.07093   -18672.264    4.3278751    4.3278751    4.3278751   -18672.264   -27275.739    28964.923   -57705.975    21146.545    23429.476    4567.8439    81.063276 
   47300    1758.1681   -106.62333    1.5908275    -105.0325    15038.728    4.3152342    4.3152342    4.3152342    15038.728   -21054.085    116726.72   -50556.452    6500.7341   -4988.0298   -3482.0155    80.355037 
   47400    2181.1812   -107.00794    1.9735786   -105.03436     -32744.3     4.313925     4.313925     4.313925     -32744.3    -57617.56    34838.342   -75453.682   -5750.7691    21381.033   -19138.322    80.281926 
   47500    1943.2604   -106.79478    1.7583029   -105.03648   -3217.1242     4.298671     4.298671     4.298671   -3217.1242    -43927.25    64773.259   -30497.381    12130.532    631.46234    1485.7093    79.433303 
   47600    1879.6647   -106.76479    1.7007601   -105.06403   -20656.258    4.3090828    4.3090828    4.3090828   -20656.258   -44329.311    15269.984   -32909.449   -15734.331    4104.8391    4734.0836    80.011888 
   47700    2075.2489   -106.93354    1.8777288   -105.05581   -20734.511    4.3343346    4.3343346    4.3343346   -20734.511   -56554.639    62967.628   -68616.521   -6074.3536    1028.1264   -1456.1328     81.42679 
   47800    893.42471    -105.8243   0.80838945   -105.01591    25794.604    4.3298947    4.3298947    4.3298947    25794.604   -6935.9662    99125.374   -14805.596    -6521.316   -9495.2744    19240.666    81.176812 
   47900    1379.1314   -106.24136     1.247867   -104.99349     9580.142    4.3132741    4.3132741    4.3132741     9580.142    7393.2085    39579.767    -18232.55   -8625.9425   -13039.876    6166.0346    80.245589 
   48000    2083.3143   -106.88438    1.8850265   -104.99935   -13937.842    4.3150015    4.3150015    4.3150015   -13937.842    24532.086        22662   -89007.612   -1168.3574   -1435.8001   -4612.1508    80.342042 
   48100    1294.7221   -106.16494    1.1714917   -104.99345    226.32574    4.3306596    4.3306596    4.3306596    226.32574    6633.5403    56471.307    -62425.87   -13308.577   -5430.1997    26941.493    81.219845 
   48200     2213.834   -106.94869    2.0031235   -104.94557   -29677.979    4.3269768    4.3269768    4.3269768   -29677.979   -55851.575   -13383.277   -19799.085    7759.6116   -83.263353   -5014.2436    81.012811 
   48300     1820.049   -106.59515    1.6468185   -104.94833   -18045.603    4.3135738    4.3135738    4.3135738   -18045.603   -54829.267    79491.444   -78798.986   -23673.416    3793.3143    16924.546     80.26232 
   48400    1807.5689   -106.62155    1.6355263   -104.98602    6950.0825    4.3029833    4.3029833    4.3029833    6950.0825   -22755.792    82106.466   -38500.426    8200.3393   -1447.0506    19428.528    79.672599 
   48500    1398.4068    -106.2912    1.2653079    -105.0259   -4701.9605    4.3110852    4.3110852    4.3110852   -4701.9605   -63660.509    65774.906   -16220.278    1052.2608    19018.247   -9614.4853    80.123483 
   48600    2242.5563   -107.02426    2.0291121   -104.99515   -9550.4762    4.3103885    4.3103885    4.3103885   -9550.4762   -18491.043    24263.446   -34423.832   -29955.596    1363.7466     -647.505    80.084642 
   48700    1246.7208   -106.11627    1.1280592   -104.98821    216.05317    4.3195695    4.3195695    4.3195695    216.05317   -14317.183    67401.603    -52436.26    9757.0229    17918.708   -16297.009     80.59747 
   48800    1205.3095   -106.06592    1.0905894   -104.97533   -32102.541     4.327755     4.327755     4.327755   -32102.541   -29860.359    19241.073   -85688.337    8530.0115    758.25351    -9129.513    81.056528 
   48900    2365.9635   -107.09202    2.1407735   -104.95125   -8649.1587     4.312688     4.312688     4.312688   -8649.1587    2350.2017     10480.57   -38778.248   -27588.469    7191.3338    2549.3362    80.212885 
   49000    1831.9374   -106.63086    1.6575755   -104.97329   -20645.175    4.3032046    4.3032046    4.3032046   -20645.175   -43189.945   -4034.9675   -14710.613    26994.023    24763.482   -4836.0782    79.684892 
   49100    1151.9277    -106.0319    1.0422884   -104.98962    29491.083    4.2992926    4.2992926    4.2992926    29491.083    86420.544     7361.626     -5308.92    22113.816   -6728.8363   -1661.8061    79.467768 
   49200     1746.927   -106.56644    1.5806563   -104.98579   -16379.119    4.3130463    4.3130463    4.3130463   -16379.119    15903.226    23833.645   -88874.227   -17386.627   -3513.4342    13023.699    80.232874 
   49300     1850.225   -106.63643    1.6741225   -104.96231     -40475.6    4.3230259    4.3230259    4.3230259     -40475.6   -21833.549   -36348.545   -63244.707    17071.127    35642.825   -24663.522      80.7911 
   49400    1965.1992   -106.72416    1.7781535   -104.94601    44062.813    4.2958747    4.2958747    4.2958747    44062.813    99804.653    1969.8611    30413.926    374.02274   -16970.818   -2631.2184    79.278392 
   49500     1864.873   -106.65885    1.6873763   -104.97147   -3239.4072    4.2872172    4.2872172    4.2872172   -3239.4072   -21775.448    25128.603   -13071.376   -3530.2709   -3398.4451    3944.2854    78.800043 
   49600    981.57635   -105.89952   0.88815091   -105.01137   -11476.287    4.3113716    4.3113716    4.3113716   -11476.287    23839.338   -31528.624   -26739.576    27159.387    37540.131   -3469.7588    80.139453 
   49700    1937.0227   -106.74303    1.7526588   -104.99038    1512.9365    4.3254137    4.3254137    4.3254137    1512.9365    27150.125    3941.0749   -26552.391    1499.4249   -15764.615    8256.5378    80.925047 
   49800    1696.7151   -106.51189    1.5352235   -104.97667   -37481.155    4.3273609    4.3273609    4.3273609   -37481.155    28259.918   -61779.087   -78924.296    9534.9469    9957.2082   -6574.1525    81.034387 
   49900    1495.9607   -106.30663    1.3535766   -104.95305    21428.232    4.3022223    4.3022223    4.3022223    21428.232    41485.819   -23710.728    46509.606    14475.768    17798.962    5709.7682    79.630335 
   50000    1244.5812   -106.09424    1.1261233   -104.96812    33350.108    4.3015528    4.3015528    4.3015528    33350.108    165006.82   -39196.112    -25760.39   -13484.537   -14965.575   -2418.7497    79.593163 
   50100      1210.11   -106.08871     1.094933   -104.99378   -22233.843    4.3311047    4.3311047    4.3311047   -22233.843    25483.516   -40671.582   -51513.465    25412.052    17957.761    1332.7185    81.244886 
   50200    1575.3043   -106.37921    1.4253685   -104.95384   -7804.4374    4.3312352    4.3312352    4.3312352   -7804.4374    76994.145   -54066.769   -46340.688    12432.534    7213.0599   -11431.979    81.252235 
   50300    2193.2049   -106.92199    1.9844578   -104.93753   -22843.553    4.3075445    4.3075445    4.3075445   -22843.553    9202.3437   -40084.116   -37648.885   -5197.2491   -3511.4446   -15825.305    79.926227 
   50400    1711.5508   -106.51215    1.5486471    -104.9635    -3394.263    4.2950072    4.2950072    4.2950072    -3394.263    6213.0266    19216.378   -35612.194    16346.484    14558.555    6276.5563    79.230369 
   50500    1479.0208   -106.35361    1.3382491   -105.01536    11792.323     4.307794     4.307794     4.307794    11792.323    98685.257   -27855.588   -35452.701    10259.866   -10397.856    -5190.501     79.94012 
   50600    2247.9846   -107.02414    2.0340237   -104.99012    -10598.02    4.3172596    4.3172596    4.3172596    -10598.02    12276.977   -35292.797   -8778.2414    11895.641    225.15786    6745.3981    80.468237 
   50700    1036.8376    -105.9178   0.93815244   -104.97965    35905.332    4.3066655    4.3066655    4.3066655    35905.332    73354.793    23827.272    10533.931    9797.5384    28520.332    5830.3885    79.877308 
   50800    1695.6327   -106.50775    1.5342441    -104.9735   -40.088548    4.3037972    4.3037972    4.3037972   -40.088548    11267.165     21596.11    -32983.54   -10436.925   -26033.009    922.53758    79.717815 
   50900    2118.4525   -106.87481    1.9168203   -104.95799   -4986.3955    4.3073163    4.3073163    4.3073163   -4986.3955    14145.277   -52944.142    23839.679     4928.504   -8372.9193     8147.567    79.913523 
   51000    1308.0872   -106.15272    1.1835848   -104.96914    40894.426    4.3079809    4.3079809    4.3079809    40894.426    103553.16    26848.838   -7718.7159    13803.728    6436.6788    1068.6829    79.950522 
   51100    1824.8893   -106.63663    1.6511982   -104.98543   -43571.566    4.3266047    4.3266047    4.3266047   -43571.566   -53723.706   -25059.723   -51931.269   -31440.955   -17820.381    10961.867    80.991913 
   51200     1795.478   -106.58671    1.6245862   -104.96212   -26208.268    4.3119764    4.3119764    4.3119764   -26208.268    18260.972   -68420.743   -28465.031   -3527.5987   -4472.3585   -1156.7283    80.173181 
   51300    1635.5172   -106.41436    1.4798504   -104.93451    38642.616    4.2765951    4.2765951    4.2765951    38642.616     101869.9    11977.361    2080.5822    26842.381   -7589.8639    1332.3059    78.215783 
   51400    1339.5985   -106.21444    1.2120969   -105.00234   -12316.319    4.2998322    4.2998322    4.2998322   -12316.319   -9794.1452     10447.66   -37602.472   -22764.387   -13149.399    17043.411    79.497694 
   51500     2134.555   -106.91013    1.9313902   -104.97874   -15468.802    4.3170863    4.3170863    4.3170863   -15468.802    3473.3104   -41927.435   -7952.2809    14447.345   -12253.727   -20461.598    80.458546 
   51600    1789.4773   -106.58489    1.6191567   -104.96573    17158.386    4.3083472    4.3083472    4.3083472    17158.386    51127.299    23928.194   -23580.335   -6195.9006   -5789.4421    23439.578    79.970921 
   51700    1347.5462   -106.19469    1.2192881    -104.9754   -13018.912    4.3155015    4.3155015    4.3155015   -13018.912    27773.559   -24517.338   -42312.958   -2291.0263   -16743.106    6251.4013     80.36997 
   51800    1214.7456   -106.08285    1.0991273   -104.98372    7569.2085    4.3238543    4.3238543    4.3238543    7569.2085    73215.545   -48607.363   -1900.5563    14621.834   -10577.203    2178.2169    80.837551 
   51900    1450.3793   -106.28135    1.3123336   -104.96902    23926.707    4.3284764    4.3284764    4.3284764    23926.707    105821.84   -54341.497    20299.776    1908.3465   -34183.865    27704.028     81.09707 
   52000     1752.703   -106.54122    1.5858825   -104.95533    1873.7446    4.3236349    4.3236349    4.3236349    1873.7446    4721.0575   -41571.802    42471.978   -16517.126   -21873.816    18851.065    80.825249 
   52100    1030.9213   -105.89012   0.93279926   -104.95732    43373.471    4.3221075    4.3221075    4.3221075    43373.471    73838.991   -40650.897    96932.319    1300.6617   -22860.307    336.76771     80.73962 
   52200    1778.9981   -106.55925    1.6096749   -104.94958    7769.6101    4.3272788    4.3272788    4.3272788    7769.6101    65436.877   -68628.933    26500.887    -12937.08   -31708.044    4375.6528    81.029777 
   52300    1540.8544   -106.35119    1.3941975     -104.957   -29598.922    4.3270623    4.3270623    4.3270623   -29598.922   -47467.121   -53034.967    11705.321   -2684.5192    11844.952   -14095.261    81.017613 
   52400    1837.6336   -106.61083    1.6627295    -104.9481   -6780.6799    4.3009008    4.3009008    4.3009008   -6780.6799   -10762.406   -40627.681    31048.048    24387.472   -11093.797   -16000.133    79.556977 
   52500    1535.3137    -106.3537    1.3891841   -104.96452    67626.563    4.2782545    4.2782545    4.2782545    67626.563    86931.126   -10756.447    126705.01   -19288.413    128.70644   -5402.0977    78.306868 
   52600    1493.1259   -106.39608    1.3510117   -105.04506     -52247.1    4.3203206    4.3203206    4.3203206     -52247.1   -67013.814   -93985.553     4258.066    10185.067    17776.518   -24847.521     80.63952 
   52700    2062.5107   -106.85359     1.866203   -104.98739   -45608.806    4.3338052    4.3338052    4.3338052   -45608.806   -69814.042   -49817.115    -17195.26    14030.407    455.21622   -5388.9227    81.396956 
   52800    2110.3512   -106.85602    1.9094901   -104.94652    29539.377    4.2931841    4.2931841    4.2931841    29539.377    46149.472    -44219.65    86688.308    7602.7272    -24437.56   -17576.909    79.129519 
   52900    1734.5543   -106.54629    1.5694612   -104.97683   -2081.1025    4.2887117    4.2887117    4.2887117   -2081.1025    6366.5431    -26399.75      13789.9    20181.593    12198.004   -2862.1429    78.882482 
   53000    1304.7501   -106.20254    1.1805653   -105.02197    1701.4966    4.3281701    4.3281701    4.3281701    1701.4966   -49355.478   -67601.969    122061.94   -5080.6695     3221.312   -5780.4945    81.079857 
   53100    2113.0865   -106.88944     1.911965   -104.97747    -41354.16    4.3475738    4.3475738    4.3475738    -41354.16   -23037.894    -89366.45   -11658.136    9354.4853   -1634.3632   -13338.075    82.175223 
   53200    2272.8554   -107.00989    2.0565273   -104.95336   -19226.533    4.3109086    4.3109086    4.3109086   -19226.533   -50473.152   -25999.382    18792.934    -7948.568    5276.5535    7358.3714    80.113635 
   53300    895.66754    -105.7784   0.81041881   -104.96798    48694.645    4.2760259    4.2760259    4.2760259    48694.645      15159.4    17394.465    113530.07    358.49987    45769.806    2073.1929    78.184558 
   53400    1866.1482   -106.72293    1.6885301    -105.0344    10323.239    4.2992251    4.2992251    4.2992251    10323.239    -11168.28   -31043.259    73181.255    2510.5832   -24618.489    3074.3602    79.464026 
   53500    1656.7121   -106.50573    1.4990279    -105.0067   -60745.821    4.3384993    4.3384993    4.3384993   -60745.821   -72024.714   -56411.929   -53800.819   -18492.917    37979.709    18710.649    81.661736 
   53600    1779.6827   -106.57975    1.6102943   -104.96946    -16625.63     4.313208     4.313208     4.313208    -16625.63    11336.757   -48901.036    -12312.61   -6797.8549    6290.5014    17649.854    80.241899 
   53700    2290.8684   -107.00665    2.0728258   -104.93383    12077.979    4.2842565    4.2842565    4.2842565    12077.979    51396.912   -35196.705    20033.729    3996.9178    9707.1838   -9073.9906    78.636904 
   53800    1039.2956   -105.93649   0.94037651   -104.99612    1596.7287     4.307158     4.307158     4.307158    1596.7287    6862.6078   -70716.227    68643.805   -7453.2898    16548.854    4416.7765    79.904715 
   53900    2416.8724   -107.16434    2.1868369   -104.97751   -23547.129    4.3228938    4.3228938    4.3228938   -23547.129    21716.029    -79131.25   -13226.165    13175.588    1413.2714   -4624.8515    80.783692 
   54000     1505.451   -106.33692    1.3621637   -104.97475    28582.573    4.3110064    4.3110064    4.3110064    28582.573    40501.771    2816.8198    42429.128     6789.168    15451.441    7361.5092     80.11909 
   54100    1986.9725   -106.76589    1.7978545   -104.96804   -11254.511    4.3119896    4.3119896    4.3119896   -11254.511    14440.573   -19637.941   -28566.165    8384.4137    19401.652   -4263.2903    80.173919 
   54200    1712.7457   -106.51495    1.5497283   -104.96522   -19568.252    4.3180539    4.3180539    4.3180539   -19568.252    25402.839   -76134.123   -7973.4722   -8735.6982   -18261.956   -19869.338    80.512659 
   54300    1167.0266   -106.02756    1.0559502   -104.97161    14463.837    4.2983628    4.2983628    4.2983628    14463.837    95174.245   -24455.894   -27326.841   -2078.0922    8451.2583    23050.636     79.41622 
   54400    2051.2406   -106.85118    1.8560056   -104.99518    15158.519    4.2966452    4.2966452    4.2966452    15158.519   -12947.078    604.79084    57817.844    10909.702    2215.0737   -25580.394    79.321056 
   54500    2191.3983   -106.99807    1.9828232   -105.01525    -39822.13    4.3233714    4.3233714    4.3233714    -39822.13   -33821.185   -51444.704   -34200.502    17654.415   -19786.591   -4544.0328    80.810471 
   54600    1382.6544   -106.22947    1.2510548   -104.97841   -6595.5136    4.3303078    4.3303078    4.3303078   -6595.5136    2677.7852    -13712.46   -8751.8658    8327.4673   -2262.1046    14816.779    81.200053 
   54700    1976.4867   -106.72934    1.7883667   -104.94097   -15242.435    4.3156085    4.3156085    4.3156085   -15242.435     2513.949   -12758.938   -35482.315   -11224.917    6062.4357    -11126.79    80.375952 
   54800    1558.3647   -106.35195    1.4100411    -104.9419    15245.526    4.3176872    4.3176872    4.3176872    15245.526    27146.134    29935.931   -11345.487    1005.4446   -496.14181    16311.638    80.492149 
   54900    1399.8827   -106.19995    1.2666433   -104.93331    25155.656    4.3233475    4.3233475    4.3233475    25155.656     44267.85    44048.617   -12849.499    18258.162   -9654.1247   -29563.591    80.809133 
   55000    1728.1715   -106.50295    1.5636859   -104.93926   -7504.2614    4.3135138    4.3135138    4.3135138   -7504.2614    10209.749    854.29649   -33576.829   -15159.642    -4715.214    4049.3187    80.258969 
   55100    1685.4462   -106.48403    1.5250272     -104.959     29484.31    4.3086661    4.3086661    4.3086661     29484.31   -15598.204     22918.34    81132.793    12304.485   -10742.162   -26679.197    79.988676 
   55200    1547.6406   -106.39521    1.4003378   -104.99488   -21866.514    4.3362392    4.3362392    4.3362392   -21866.514    20818.383   -46294.721   -40123.203    5187.4172    1405.7972    10508.883    81.534178 
   55300    1766.8698   -106.55539    1.5987009   -104.95669   -38695.001    4.3355141    4.3355141    4.3355141   -38695.001   -4809.3507   -29815.715   -81459.939    2815.3442     20075.56    32222.939    81.493281 
   55400    1662.3404   -106.44602    1.5041206    -104.9419    8132.2705    4.2952504    4.2952504    4.2952504    8132.2705   -13622.316    8790.0695    29229.058   -5435.1519   -5811.7692   -31231.104    79.243828 
   55500    2294.6869   -107.04237    2.0762809   -104.96609    7916.4223     4.279596     4.279596     4.279596    7916.4223    36281.387    -7594.061   -4938.0596   -7653.9659    8984.1586    9496.7285    78.380554 
   55600    988.88691   -105.91955   0.89476566   -105.02478    24860.039    4.3140853    4.3140853    4.3140853    24860.039    35943.936    24583.742     14052.44   -8253.1861    19874.647   -9442.9778    80.290872 
   55700    2098.2591   -106.89321    1.8985489   -104.99466   -64900.221    4.3381215    4.3381215    4.3381215   -64900.221   -28107.397   -87732.137   -78861.128    5265.5383    777.81542   -31785.011    81.640404 
   55800    2042.8646   -106.80495    1.8484268   -104.95652    26117.408    4.3141139    4.3141139    4.3141139    26117.408    8860.0123    60290.704    9201.5069    8532.8117    8870.2577    16180.274    80.292469 
   55900    1359.9934   -106.19559    1.2305506   -104.96504    4334.2101    4.3051752    4.3051752    4.3051752    4334.2101    35725.591   -34092.122    11369.161    -19975.94    8085.4725    -34399.26    79.794416 
   56000    2027.2689   -106.80311    1.8343155   -104.96879   -16925.996    4.3100633    4.3100633    4.3100633   -16925.996    41754.334   -64724.221   -27808.102    1402.4276    10421.276   -8102.8542    80.066519 
   56100    1487.0619   -106.31953    1.3455249   -104.97401    26968.311    4.3122156    4.3122156    4.3122156    26968.311    35909.533    6529.3754    38466.025   -1222.9403     800.3976   -10183.968    80.186525 
   56200    2017.3837    -106.7959    1.8253711   -104.97053   -26974.262    4.3357026    4.3357026    4.3357026   -26974.262    23038.051   -49628.345   -54332.491   -10885.636     16402.65   -30479.054    81.503914 
   56300     1643.162   -106.43159    1.4867675   -104.94482   -29497.972    4.3324027    4.3324027    4.3324027   -29497.972   -14866.766   -48426.854   -25200.295   -37162.096      24221.8    5436.5962    81.317957 
   56400    1484.4408   -106.26207    1.3431533   -104.91892    6445.5343    4.2880524    4.2880524    4.2880524    6445.5343    48224.743   -28982.576    94.436601   -13273.778    19829.741   -10488.136    78.846104 
   56500    2245.0553   -107.00499    2.0313732   -104.97362    5912.6607    4.2879963    4.2879963    4.2879963    5912.6607    22237.018    21226.088   -25725.125   -958.41071   -14068.702   -1544.7279    78.843014 
   56600    1196.7941   -106.10696    1.0828844   -105.02408   -10242.012     4.322392     4.322392     4.322392   -10242.012   -6584.7063    23240.136   -47381.466   -45814.748    21164.997   -6833.9776    80.755561 
   56700    2138.7017   -106.92471    1.9351422   -104.98957   -41814.077    4.3261548    4.3261548    4.3261548   -41814.077   -52121.075    4130.1583   -77451.313    6131.2138    15044.891   -2017.1501    80.966652 
   56800    2005.4363    -106.7811    1.8145609   -104.96654   -35176.089     4.322497     4.322497     4.322497   -35176.089   -30173.843   -28928.265   -46426.159   -19108.586   -5850.1112     1078.229    80.761446 
   56900    1423.9886   -106.26017    1.2884548   -104.97171   -31333.037    4.3092913    4.3092913    4.3092913   -31333.037   -25840.093   -26402.539    -41756.48   -20442.756    16164.052    2164.7892    80.023503 
   57000    1858.6597   -106.62791    1.6817544   -104.94616    62571.889    4.2883118    4.2883118    4.2883118    62571.889    66994.915    108720.81    11999.946    -48136.05   -11044.782     8031.829    78.860416 
   57100    1399.0619   -106.29795    1.2659006   -105.03205   -12778.342    4.3141631    4.3141631    4.3141631   -12778.342   -41998.123    70974.072   -67310.975   -188.28863    22802.919   -917.72874    80.295218 
   57200    1840.8475   -106.67726    1.6656375   -105.01162   -40177.657    4.3447183    4.3447183    4.3447183   -40177.657   -64053.983    35388.565   -91867.551   -10478.542     20938.01    6115.8767    82.013412 
   57300    1970.7167   -106.77535    1.7831458    -104.9922    -7920.116    4.3305391    4.3305391    4.3305391    -7920.116   -20318.885    44624.798   -48066.261   -8631.2921    7367.1623   -8141.9955    81.213062 
   57400    1597.1872   -106.42105    1.4451686   -104.97588    2199.1144    4.3008238    4.3008238    4.3008238    2199.1144    28955.544    16523.837   -38882.038   -13641.665      21555.3   -10778.296    79.552702 
   57500    1855.5009   -106.66367    1.6788962   -104.98477    9792.8131    4.3028394    4.3028394    4.3028394    9792.8131    42414.363    13873.905   -26909.829   -23221.259   -10189.791    7472.9781    79.664608 
   57600    1758.9571   -106.60858    1.5915413   -105.01704   -20187.941    4.3189452    4.3189452    4.3189452   -20187.941    61297.388   -60471.272   -61389.939   -12976.725    3253.9585     5713.731    80.562526 
   57700    1200.1966   -106.11703    1.0859631   -105.03106    14503.213     4.325942     4.325942     4.325942    14503.213    122436.34   -53979.581   -24947.121    4502.7169    16772.582   -6757.2939      80.9547 
   57800    1926.2721   -106.75422    1.7429315   -105.01129   -10828.708    4.3172978    4.3172978    4.3172978   -10828.708    2677.5381   -34556.848   -606.81328    7298.4179    -4057.802    7744.3956    80.470376 
   57900     1762.949   -106.59484    1.5951533   -104.99969   -24020.089     4.323144     4.323144     4.323144   -24020.089    41646.125   -49410.213   -64296.178   -29300.707     22931.04   -3364.6897    80.797719 
   58000    1621.8604    -106.4398    1.4674933   -104.97231   -12402.699    4.3359409    4.3359409    4.3359409   -12402.699     7299.781   -15542.039   -28965.839    38329.027    20915.486   -3008.8785    81.517354 
   58100    1339.7076   -106.15923    1.2121956   -104.94703    25910.197    4.3241306    4.3241306    4.3241306    25910.197    87433.543   -6071.7185   -3631.2319    9165.5201   -772.57246    17703.011    80.853047 
   58200    1855.4633    -106.6257    1.6788621   -104.94684   -12247.685    4.3113261    4.3113261    4.3113261   -12247.685   -990.39536    9364.8249   -45117.483   -9191.3058    45267.483   -14513.894    80.136916 
   58300    1855.8346   -106.65445    1.6791981   -104.97525    2986.8425    4.3192743    4.3192743    4.3192743    2986.8425    63635.047   -5638.7527   -49035.767   -6282.1276   -2010.0318    7758.3888    80.580944 
   58400    1706.9495   -106.54123    1.5444837   -104.99675   -12994.096    4.3333543    4.3333543    4.3333543   -12994.096    22937.923   -46818.686   -15101.524    5938.4022    332.01523    15663.484    81.371554 
   58500    1306.1658   -106.17061    1.1818463   -104.98876   -10266.785      4.33476      4.33476      4.33476   -10266.785    90408.092   -49440.852   -71767.596    -3883.118    35751.586   -9005.2273    81.450765 
   58600    1885.5649   -106.67181    1.7060987   -104.96571    26713.369    4.3081442    4.3081442    4.3081442    26713.369    44606.316    7555.7102    27978.082    9458.8993   -4286.8105   -18406.837    79.959613 
   58700    1948.7731   -106.76356    1.7632909   -105.00027   -11791.003    4.3126616    4.3126616    4.3126616   -11791.003   -19133.696   -24500.671    8261.3571    12450.121     7020.689    7512.3798     80.21141 
   58800    1305.0584   -106.18265    1.1808442   -105.00181   -16373.492    4.3332816    4.3332816    4.3332816   -16373.492   -9498.1616   -35342.628   -4279.6859   -20487.903    17610.077   -6614.6227    81.367454 
   58900    2390.8026   -107.14744    2.1632485    -104.9842   -29827.269     4.305412     4.305412     4.305412   -29827.269   -19467.959   -33019.056    -36994.79    22006.078    9063.0016    29347.935    79.807582 
   59000    830.50186    -105.7658   0.75145554   -105.01435     52829.65    4.2947199    4.2947199    4.2947199     52829.65    52397.214    79476.472    26615.265    327.22239    17219.163   -11095.087    79.214471 
   59100    2359.2193   -107.16488    2.1346712   -105.03021   -34106.301    4.3263183    4.3263183    4.3263183   -34106.301   -18936.064   -42880.881   -40501.959   -22860.192   -12052.308    24921.006    80.975829 
   59200    1673.9806   -106.49635    1.5146528    -104.9817   -50227.174    4.3507978    4.3507978    4.3507978   -50227.174   -62624.097   -36184.877   -51872.549    36377.387    30580.154    7593.8435     82.35817 
   59300     1249.606   -106.07051    1.1306697   -104.93984    -15381.46    4.3323313    4.3323313    4.3323313    -15381.46     15389.18     -40751.5   -20782.061    12331.956    15185.786   -10569.046    81.313935 
   59400    1815.3167   -106.56676    1.6425367   -104.92422     39189.15    4.2958146    4.2958146    4.2958146     39189.15    65564.541    39014.131    12988.778   -26902.376   -11885.323   -4739.6603     79.27506 
   59500    1672.7239   -106.53034    1.5135158   -105.01682    5673.2698    4.3053031    4.3053031    4.3053031    5673.2698    43069.643    14395.024   -40444.858    17998.458    20089.117    15534.435    79.801527 
   59600    2022.6801    -106.8485    1.8301635   -105.01834   -64806.626     4.350855     4.350855     4.350855   -64806.626   -57922.284   -61751.545   -74746.048   -1638.8145   -3216.1642   -8210.9846    82.361421 
   59700    2103.9888   -106.86995    1.9037332   -104.96622   -20417.249    4.3291675    4.3291675    4.3291675   -20417.249    17822.358   -13566.498   -65507.607   -5495.5768    8747.5971   -22859.106    81.135922 
   59800    1487.0683   -106.26867    1.3455306   -104.92314    37277.073    4.2799109    4.2799109    4.2799109    37277.073    15436.696    80564.204    15830.318    7408.1701    9496.4191    7271.5989    78.397857 
   59900     1530.916   -106.35705    1.3852049   -104.97184    22248.227    4.2879446    4.2879446    4.2879446    22248.227    106986.17    -9844.614    -30396.88    22163.075   -27569.717   -14253.261    78.840158 
   60000    2016.6365   -106.82063    1.8246951   -104.99593   -16179.368    4.3224208    4.3224208    4.3224208   -16179.368    29250.465   -2063.0815   -75725.487   -9085.3591    3060.5866   -11604.314    80.757177 
   60100    1233.7627   -106.08811    1.1163344   -104.97177    21945.127     4.332792     4.332792     4.332792    21945.127    135629.76   -55800.991   -13993.394    24901.286   -19880.924     1341.248    81.339881 
   60200    1670.9519   -106.45988    1.5119124   -104.94797    248.59334    4.3194974    4.3194974    4.3194974    248.59334    57114.176   -21996.697     -34371.7    20907.597   -20227.671   -9911.9693    80.593431 
   60300    1880.9735    -106.6486    1.7019444   -104.94666    11798.076    4.3130011    4.3130011    4.3130011    11798.076    10433.936    37099.721    -12139.43    6017.6194    6782.6692   -290.79286    80.230352 
   60400     1531.433   -106.35245    1.3856728   -104.96677   -24876.194    4.3222712    4.3222712    4.3222712   -24876.194    42980.413   -50899.307   -66709.689    25733.559   -5548.0359    -6893.235    80.748795 
   60500    2298.0991   -107.03575    2.0793683   -104.95638   -26913.716     4.319776     4.319776     4.319776   -26913.716   -21805.973   -28898.153   -30037.022   -9769.6549    1190.2815    16311.063    80.609029 
   60600    1609.0127   -106.40577    1.4558685    -104.9499    52606.052    4.2900762    4.2900762    4.2900762    52606.052    150480.29   -15189.918    22527.782    6912.1434    13992.473   -12249.629    78.957798 
   60700    1656.9941   -106.48566     1.499283   -104.98638   -31803.011    4.2957166    4.2957166    4.2957166   -31803.011   -18623.651   -30501.107   -46284.277    11407.829   -31409.909    12873.187    79.269634 
   60800    1605.2182    -106.4472    1.4524351   -104.99477   -2207.5163    4.3138459    4.3138459    4.3138459   -2207.5163     41500.97   -18051.949    -30071.57   -13898.284   -19233.629     4678.814    80.277507 
   60900    1376.3894   -106.22845    1.2453861   -104.98306    15162.226    4.3121497    4.3121497    4.3121497    15162.226    81576.022   -34718.308   -1371.0373     22351.56   -7078.7888   -9769.2186    80.182848 
   61000      1526.26   -106.35298    1.3809922   -104.97199    30567.352    4.3155428    4.3155428    4.3155428    30567.352    105714.25   -26098.967    12086.768   -7705.4743   -37234.785    13956.316    80.372279 
   61100     2056.253   -106.81435    1.8605409   -104.95381   -29119.128     4.319657     4.319657     4.319657   -29119.128   -53639.183   -4978.2994   -28739.901    3092.0886    7656.3672   -16861.517    80.602367 
   61200    1514.4652   -106.32943    1.3703199   -104.95911   -40335.461    4.3048507    4.3048507    4.3048507   -40335.461   -32245.651   -50332.278   -38428.454    28544.179    8635.9197    21516.353    79.776371 
   61300    1755.2712   -106.54043    1.5882063   -104.95223    63495.232    4.2859435    4.2859435    4.2859435    63495.232    110518.18    27075.967     52891.55    5512.8584    1698.4652   -9360.3119     78.72983 
   61400    1805.5381   -106.62834    1.6336888   -104.99465   -13602.424    4.3144928    4.3144928    4.3144928   -13602.424   -16685.176    5609.9961   -29732.093    11919.456    14587.015   -18730.345    80.313626 
   61500    1712.7461   -106.51442    1.5497287   -104.96469   -28603.756    4.3377202    4.3377202    4.3377202   -28603.756        25278   -48449.478   -62639.791    23147.014   -12614.774    4028.0339    81.617745 
   61600      2057.56   -106.78429    1.8617236   -104.92257   -10507.551      4.31918      4.31918      4.31918   -10507.551   -1728.3695   -9218.2772   -20576.006   -12205.227   -4791.3706   -32317.432    80.575669 
   61700    1796.8225   -106.54945    1.6258027   -104.92365     -9696.73    4.3028304    4.3028304    4.3028304     -9696.73   -43396.432   -12854.053    27160.295    28457.603    78.517065   -2600.6191    79.664107 
   61800    1126.9165    -105.9801    1.0196577   -104.96044    9893.8218    4.3114358    4.3114358    4.3114358    9893.8218    93517.333    -26933.87   -36901.998    3928.0629    509.49709   -33595.034    80.143033 
   61900    2259.5603   -107.00398    2.0444977   -104.95948   -12737.761    4.3350379    4.3350379    4.3350379   -12737.761    -7174.094   -2845.3757   -28193.814   -2515.2444    3197.6048   -9243.0601    81.466435 
   62000    1703.5592   -106.48287    1.5414162   -104.94146   -39654.419    4.3375444    4.3375444    4.3375444   -39654.419   -49681.582   -44533.432   -24748.243    4235.7425   -16135.554   -13453.517    81.607824 
   62100    2199.3032   -106.89526    1.9899758   -104.90529   -48714.871    4.3000957    4.3000957    4.3000957   -48714.871   -24960.493   -61659.029   -59525.091   -5258.0299   -1642.8258   -36727.162    79.512306 
   62200    1393.6381   -106.18386    1.2609931   -104.92287    79313.143    4.2783625    4.2783625    4.2783625    79313.143    69506.751    107702.12    60730.555    26419.743   -1627.9831    13896.046    78.312798 
   62300    1517.8955   -106.36425    1.3734238   -104.99082   -23840.216    4.3143784    4.3143784    4.3143784   -23840.216   -17359.172   -19155.485    -35005.99   -8944.7016    -11137.15    6967.5755    80.307241 
   62400    2020.2237   -106.77357    1.8279408   -104.94563   -19704.861    4.3279871    4.3279871    4.3279871   -19704.861   -17666.718    15151.421   -56599.287    12695.701    20689.857    2374.2688     81.06957 
   62500    1555.9151   -106.33986    1.4078247   -104.93204    24502.876    4.3203116    4.3203116    4.3203116    24502.876    29363.162    13348.348    30797.117    16105.891   -13960.146    4679.8969    80.639015 
   62600    1833.1392   -106.59114    1.6586629   -104.93248   -33961.602     4.315682     4.315682     4.315682   -33961.602   -45603.417   -3929.2779   -52352.111    -380.9653    220.50496   -22121.646    80.380059 
   62700    1858.9434   -106.62931     1.682011    -104.9473    10400.354    4.2902554    4.2902554    4.2902554    10400.354   -35962.148    9402.2975    57760.912    28290.559     16228.04   -2617.9293    78.967693 
   62800    2050.7541   -106.83715    1.8555654   -104.98158    9898.9154    4.2983757    4.2983757    4.2983757    9898.9154    15612.779    4695.5545    9388.4124   -1114.5758   -20313.061    10883.452    79.416932 
   62900    1755.1702    -106.5708    1.5881149   -104.98268   -53168.059    4.3297525    4.3297525    4.3297525   -53168.059   -56122.896   -76347.102   -27034.179    51013.776    12482.022   -15569.982    81.168816 
   63000    1502.9079   -106.30835    1.3598627   -104.94849    2395.6042    4.3264066    4.3264066    4.3264066    2395.6042   -58674.101    18988.328    46872.585   -3750.0195    6247.1769    3916.9164    80.980789 
   63100    1942.9262   -106.69301    1.7580005   -104.93501   -12449.788    4.3029817    4.3029817    4.3029817   -12449.788   -13546.937   -25121.011    1318.5843    9578.5777    -24130.18   -2114.0232    79.672509 
   63200    1865.1088   -106.64781    1.6875897   -104.96022    2931.1213    4.2827762    4.2827762    4.2827762    2931.1213    -26580.91   -22131.325    57505.599    41544.114    24752.498   -8423.5208     78.55542 
   63300    1549.9348   -106.41615    1.4024136   -105.01373    14105.616     4.295058     4.295058     4.295058    14105.616    13657.948   -3026.1677    31685.067   -12363.499   -27038.194     6734.299    79.233182 
   63400    1201.2699   -106.11642    1.0869342   -105.02949   -18125.443    4.3279544    4.3279544    4.3279544   -18125.443   -60249.946   -68341.498    74215.113    17230.703   -10693.776    1672.4585    81.067734 
   63500    1427.6046   -106.27591    1.2917266   -104.98418   -12709.194    4.3308108    4.3308108    4.3308108   -12709.194    32169.312   -57491.509   -12805.384   -3895.3968    2824.0868   -12779.628    81.228349 
   63600    1534.8865   -106.35009    1.3887975    -104.9613    22003.586    4.3066073    4.3066073    4.3066073    22003.586    7109.4267    37062.149    21839.183    11512.614   -11624.649    8495.5187    79.874071 
   63700    2102.4085   -106.85586    1.9023034   -104.95355    46087.866    4.2846645    4.2846645    4.2846645    46087.866    21044.317    11124.039    106095.24     14457.26    17732.689   -33038.752    78.659372 
   63800    1889.2759   -106.73229    1.7094566   -105.02283   -14387.137    4.3122312    4.3122312    4.3122312   -14387.137    4418.9161   -25475.043   -22105.285   -354.80809   -19274.193   -26299.929    80.187394 
   63900     1601.447   -106.45367    1.4490229   -105.00464    2220.8193    4.3428063    4.3428063    4.3428063    2220.8193    8806.1221   -49171.523    47027.859    2928.7144    -17891.68    -6630.055    81.905182 
   64000    1582.0011    -106.3952    1.4314279   -104.96378    11042.347    4.3458021    4.3458021    4.3458021    11042.347     35503.77   -38783.905    36407.178   -1682.3823    1475.1574   -36983.089    82.074803 
   64100    1782.8374   -106.53749    1.6131487   -104.92434   -10576.176    4.3356847    4.3356847    4.3356847   -10576.176   -21259.486    49137.164   -59606.208    -9930.643   -20795.723      16798.5      81.5029 
   64200    2126.3223   -106.83254    1.9239411    -104.9086    5496.1146     4.300503     4.300503     4.300503    5496.1146   -11528.504   -6968.2886    34985.136   -7714.5645   -3834.8777    3893.5963    79.534903 
   64300    1296.8631   -106.12269     1.173429   -104.94926     51710.99    4.2948486    4.2948486    4.2948486     51710.99   -6992.4348    159931.76    2193.6404   -1600.1052   -8890.1369   -31011.397    79.221592 
   64400    1867.0083   -106.68093    1.6893083   -104.99163   -30102.761    4.3322276    4.3322276    4.3322276   -30102.761   -31206.149    -31754.52   -27347.614   -4553.3523    292.68611   -13759.358    81.308094 
   64500    1193.3095   -106.05094    1.0797315    -104.9712    1231.7857    4.3436662    4.3436662    4.3436662    1231.7857     11140.72     83869.98   -91315.343   -6146.5403   -5866.1766   -12343.799    81.953844 
   64600    1979.1838   -106.73505    1.7908071   -104.94425   -27629.421    4.3225178    4.3225178    4.3225178   -27629.421    -31246.93   -14679.053   -36962.279   -8178.1236   -12216.548    13315.777    80.762616 
   64700    2037.1732    -106.7767    1.8432771   -104.93342    25658.371    4.2937872    4.2937872    4.2937872    25658.371     48872.14    13503.897    14599.076   -12844.612    11.815913   -36712.203    79.162873 
   64800    1497.4677   -106.34191    1.3549402   -104.98697    14741.205    4.3079145    4.3079145    4.3079145    14741.205    14936.947     95246.81   -65960.141    1280.5952   -21665.799     -5816.74    79.946828 
   64900    2017.8146   -106.78899    1.8257611   -104.96323   -3202.0773    4.3304851    4.3304851    4.3304851   -3202.0773    48520.977   -42313.265   -15813.944   -17871.711   -4120.2434    20634.307    81.210024 
   65000    1751.5176   -106.52049    1.5848099   -104.93568    15514.597    4.3202728    4.3202728    4.3202728    15514.597    83162.434   -54559.281    17940.636   -15043.918    7387.5961   -23392.129    80.636844 
   65100    1586.0459   -106.37528    1.4350877    -104.9402    24322.824     4.316597     4.316597     4.316597    24322.824    100556.88    -25272.01   -2316.3973    -85.31635   -5114.4854   -905.43475    80.431196 
   65200    1862.4591   -106.64769    1.6851921    -104.9625   -26874.146    4.3228952    4.3228952    4.3228952   -26874.146    24684.969    -58111.18   -47196.227   -21297.079   -6707.6361   -30484.083    80.783772 
   65300    1957.0268   -106.73462     1.770759   -104.96386   -4694.5784    4.3121514    4.3121514    4.3121514   -4694.5784    20079.321    15160.639   -49323.696   -8619.9977   -9328.0469   -10241.536    80.182945 
   65400    1587.9699   -106.39879    1.4368286   -104.96197    16929.083     4.298369     4.298369     4.298369    16929.083      93454.3   -47619.756    4952.7044   -13876.802   -13199.865   -22991.059    79.416562 
   65500    1960.5515   -106.75483    1.7739482   -104.98088   -31233.126    4.3115204    4.3115204    4.3115204   -31233.126   -5510.0941   -38455.787   -49733.496   -13509.417    6661.6142   -31147.599    80.147752 
   65600     1739.298   -106.54792    1.5737533   -104.97416    5341.9664    4.3252426    4.3252426    4.3252426    5341.9664    45383.774   -586.31304   -28771.562   -12972.459    5482.1098    9298.4392    80.915442 
   65700    1434.5148   -106.27174    1.2979791   -104.97376   -22150.074    4.3182426    4.3182426    4.3182426   -22150.074   -27397.092   -53504.241    14451.109    20955.249   -15107.465   -22991.965    80.523218 
   65800    1423.8649   -106.24763    1.2883429   -104.95929    43060.067    4.2947965    4.2947965    4.2947965    43060.067    137295.05   -13131.958    5017.1126    16128.789    8137.6947    817.18712    79.218709 
   65900    2124.1262   -106.90443     1.921954   -104.98247     -17206.3    4.3045388    4.3045388    4.3045388     -17206.3    9172.3767   -52945.455   -7845.8224   -15440.343   -8625.2826   -22793.021    79.759032 
   66000    1278.9645   -106.14326     1.157234   -104.98603    -30491.84    4.3153397    4.3153397    4.3153397    -30491.84   -28691.925   -86911.984     24128.39     34425.95   -9918.3438   -16615.459    80.360934 
   66100    1785.1666    -106.5853    1.6152563   -104.97005    12397.642    4.3019643    4.3019643    4.3019643    12397.642    45293.831    372.08609   -8472.9925    7499.5075   -9487.4823     937.0946    79.616011 
   66200    2080.1838   -106.86857     1.882194   -104.98637   -1788.0274    4.2986895    4.2986895    4.2986895   -1788.0274   -25712.001   -36459.113    56807.031    7514.5998    4141.6373   -23253.076    79.434327 
   66300    1707.3521   -106.54339    1.5448481   -104.99854   -43168.886    4.3166931    4.3166931    4.3166931   -43168.886   -76069.118   -68401.196    14963.657    28347.764    -8690.189    1316.2237    80.436566 
   66400    1873.0519   -106.65786    1.6947767   -104.96308   -1402.7809    4.3148202    4.3148202    4.3148202   -1402.7809    5281.4107    28112.064   -37601.818   -5648.0459    3134.3548   -10691.266    80.331911 
   66500    1551.6402   -106.36861    1.4039566   -104.96465   -1932.1601    4.3155363    4.3155363    4.3155363   -1932.1601   -58058.647      8334.36    43927.807    31796.433   -20637.299   -13403.408    80.371916 
   66600    2238.5219   -106.97222    2.0254617   -104.94676   -42540.965     4.331951     4.331951     4.331951   -42540.965   -50309.455   -2777.3995    -74536.04   -8959.0319   -5203.5611    7210.8905    81.292524 
   66700    2069.3277   -106.80184    1.8723712   -104.92947   -13962.247    4.3128832    4.3128832    4.3128832   -13962.247   -23819.394   -22360.992    4293.6462    20264.327   -5808.8111    22300.237    80.223774 
   66800    1339.2975   -106.13056    1.2118245   -104.91873    65256.222     4.281605     4.281605     4.281605    65256.222    79316.316    77583.251    38869.099    25739.289    9045.4417    -11521.92    78.490991 
   66900    2131.0346   -106.90044    1.9282049   -104.97223    11922.923    4.3031172    4.3031172    4.3031172    11922.923    10619.035   -14977.506     40127.24    26.053287    10000.564   -4344.7067    79.680039 
   67000    1680.3589   -106.49925     1.520424   -104.97882   -12983.679    4.3241863    4.3241863    4.3241863   -12983.679   -36800.428    20420.385   -22570.994    35395.561   -16292.266     5753.721    80.856172 
   67100    1853.7511   -106.61122     1.677313   -104.93391    5430.5459    4.3222743    4.3222743    4.3222743    5430.5459   -32451.532    42917.183    5825.9869   -5589.4588   -8365.4134   -2552.3094    80.748965 
   67200    1751.3384    -106.5007    1.5846478   -104.91606   -1789.8412    4.3225767    4.3225767    4.3225767   -1789.8412   -15906.738   -39656.349    50193.564     45213.86   -5667.9512    14882.057    80.765914 
   67300    2086.2151   -106.79418    1.8876513   -104.90653   -26239.192    4.3196045    4.3196045    4.3196045   -26239.192   -42680.087   -1885.5545   -34151.934    20252.461   -4708.6985   -1851.6975    80.599426 
   67400    1376.7829   -106.17836    1.2457421   -104.93262   -2375.4636    4.3221289    4.3221289    4.3221289   -2375.4636   -67944.481   -31967.074    92785.164    9496.7322   -3569.5617   -22326.465    80.740816 
   67500    1933.0079   -106.68506    1.7490262   -104.93603   -64345.728    4.3301111    4.3301111    4.3301111   -64345.728   -78050.025   -83797.524   -31189.636    36586.865   -4740.7966   -447.61599    81.188986 
   67600    1868.7292   -106.63359    1.6908654   -104.94273    2709.7736     4.288099     4.288099     4.288099    2709.7736    13823.087   -33013.479    27319.712   -10356.419   -19040.341   -39354.263    78.848678 
   67700    1635.6043   -106.43542    1.4799291   -104.95549    32553.734    4.2563521    4.2563521    4.2563521    32553.734        25890    17529.877    54241.325    56458.933    5974.9996   -1883.4883    77.110345 
   67800     2247.059   -107.06205    2.0331862   -105.02886   -15810.592    4.2990006    4.2990006    4.2990006   -15810.592    12941.918   -38486.671   -21887.023   -7599.2948    4360.8893   -15366.777    79.451579 
   67900    1265.9555    -106.1234    1.1454632   -104.97794   -51005.911    4.3388569    4.3388569    4.3388569   -51005.911   -64897.586   -75842.068   -12278.081    34080.139   -6426.6397   -11100.371    81.681928 
   68000    1808.4439   -106.56793     1.636318   -104.93161   -3660.6416    4.3098568    4.3098568    4.3098568   -3660.6416   -6179.5325   -44479.759    39677.366    29960.479     3481.381    5082.9227    80.055009 
   68100     2174.224   -106.87493    1.9672836   -104.90764    50882.175    4.2695537    4.2695537    4.2695537    50882.175    73560.598    48243.772    30842.154   -29594.982   -6276.5393   -30104.375    77.830071 
   68200    1293.9825   -106.17011    1.1708226   -104.99928    25426.681    4.2870245    4.2870245    4.2870245    25426.681     47648.18     29915.61   -1283.7478    52271.506    2003.0213     10953.56    78.789421 
   68300    2338.2854   -107.10347    2.1157298   -104.98774    -37795.65    4.3244965    4.3244965    4.3244965    -37795.65   -32128.232   -27804.053   -53454.664   -6881.9439    12013.594    3625.0066    80.873575 
   68400    1859.7223   -106.63731    1.6827158    -104.9546   -4873.3262     4.308219     4.308219     4.308219   -4873.3262     26378.58   -42817.263    1818.7046     9701.947    7320.7678     -7269.64    79.963777 
   68500    1297.8204   -106.12428    1.1742952   -104.94998    28307.232    4.2839486    4.2839486    4.2839486    28307.232   -29083.495    78155.852     35849.34    19206.707    5243.6254    11464.218    78.619948 
   68600    1924.6085   -106.70895    1.7414262   -104.96752    20798.068    4.2987741    4.2987741    4.2987741    20798.068    5559.3812    19573.087    37261.735     10331.85    20992.645    5070.2783    79.439021 
   68700    1808.3727   -106.60881    1.6362536   -104.97256   -21303.574    4.3137977    4.3137977    4.3137977   -21303.574   -46188.125    -41014.89    23292.293    52999.564   -4779.2629     3716.829    80.274819 
   68800    1718.0973   -106.49769    1.5545705   -104.94312   -11943.372    4.3190591    4.3190591    4.3190591   -11943.372   -31952.323     29420.14   -33297.934       -19417    14744.286   -6051.5767    80.568902 
   68900    1382.5441   -106.18331    1.2509549   -104.93236   -12736.087    4.3020528    4.3020528    4.3020528   -12736.087   -66618.077    -25945.21    54355.025     59510.27    8799.7786   -861.39775    79.620921 
   69000    1822.8999   -106.56812    1.6493982   -104.91872    56514.183    4.2880192    4.2880192    4.2880192    56514.183    72092.794   -1994.3914    99444.147   -8857.5019    10077.532    17564.229    78.844275 
   69100    1198.3393   -106.04815    1.0842826   -104.96386   -18388.477    4.3062096    4.3062096    4.3062096   -18388.477   -49279.838   -74987.077    69101.483    46548.214    -6440.089   -14527.486    79.851945 
   69200    1842.4394   -106.60973    1.6670779   -104.94265   -114.97968    4.3049283    4.3049283    4.3049283   -114.97968   -58858.217   -34794.211    93307.489    6703.6179    8738.8464   -4956.4792    79.780684 
   69300    1612.1861    -106.4232    1.4587398   -104.96446    3499.3212    4.2948252    4.2948252    4.2948252    3499.3212   -50978.548    1172.2469    60304.264    19717.611    16944.723    8755.9074      79.2203 
   69400    1522.9498   -106.36402     1.377997   -104.98602   -8196.8701    4.3044478    4.3044478    4.3044478   -8196.8701   -46904.566   -34517.584     56831.54    6854.5827    11843.331   -7627.0415    79.753976 
   69500    2206.6355    -106.9667    1.9966102   -104.97009   -18374.441    4.3088173    4.3088173    4.3088173   -18374.441   -40278.599   -62363.323      47518.6    3554.2551   -6206.7951   -11269.502    79.997097 
   69600    1556.1288   -106.39029     1.408018   -104.98228    33096.445    4.3069512    4.3069512    4.3069512    33096.445   -26203.924    8553.8555     116939.4    17842.293    12590.576    -1087.224    79.893209 
   69700    1441.0479    -106.3053    1.3038904   -105.00141    19209.005    4.3231873    4.3231873    4.3231873    19209.005   -34937.205    -4128.702    96692.921    16851.775    2864.5231   -28362.435    80.800145 
   69800    1577.3266   -106.40065    1.4271983   -104.97345   -37220.222    4.3316657    4.3316657    4.3316657   -37220.222    -90106.25   -46827.191    25272.775    36418.425    22287.524    9.7376293    81.276465 
   69900    2218.0448   -106.94814    2.0069336   -104.94121   -20150.425    4.3006959    4.3006959    4.3006959   -20150.425   -51481.149   -6987.9345   -1982.1928    -20102.33    25851.302    16954.774    79.545607 
   70000    1743.0634   -106.54769    1.5771604   -104.97053    9639.5824    4.2907267    4.2907267    4.2907267    9639.5824    -20645.13   -27532.974    77096.851    24250.247   -11633.312    -21464.94    78.993719 
   70100    1780.9894      -106.63    1.6114766   -105.01852    18933.865    4.3053132    4.3053132    4.3053132    18933.865   -55981.514   -3192.4307    115975.54    -2096.303    5962.5644    10072.944    79.802085 
   70200    1688.3348   -106.56789    1.5276408   -105.04025   -52699.482    4.3225673    4.3225673    4.3225673   -52699.482     -89146.5   -65399.852   -3552.0953    15467.219    10162.305   -17862.124    80.765387 
   70300    2141.6449   -106.95026    1.9378053   -105.01246   -14896.006    4.2998783    4.2998783    4.2998783   -14896.006   -38970.721   -65713.706    59996.409    13342.922   -4247.9935   -35916.045    79.500248 
   70400    1496.8846   -106.37012    1.3544126   -105.01571    39006.225    4.2894791    4.2894791    4.2894791    39006.225   -38284.012   -14426.224    169728.91   -13668.013    14178.283    4505.0679    78.924835 
   70500    1505.8503   -106.38577     1.362525   -105.02325   -15254.147    4.3253862    4.3253862    4.3253862   -15254.147   -57033.792   -40012.097    51283.446    28507.781   -2618.3981    -9284.149    80.923504 
   70600     2054.236   -106.84262    1.8587159   -104.98391   -54737.393    4.3248948    4.3248948    4.3248948   -54737.393   -52805.861   -66492.425   -44913.894   -12322.945    10558.998   -6249.3474    80.895925 
   70700    1187.9979   -106.05686    1.0749255   -104.98194    14401.674    4.2944215    4.2944215    4.2944215    14401.674   -18656.353    41301.199    20560.175   -14481.165    53195.066    12919.598    79.197961 
   70800    1957.2783     -106.756    1.7709865   -104.98502    22419.367    4.2837367    4.2837367    4.2837367    22419.367   -14297.185   -39681.287    121236.57    6640.9775   -24468.849   -19251.583    78.608281 
   70900    1703.7866   -106.57616    1.5416219   -105.03454    328.98342    4.3035545    4.3035545    4.3035545    328.98342   -46878.257   -7777.6129     55642.82   -21739.409    36147.088   -14506.671    79.704329 
   71000    1966.5946   -106.80378    1.7794162   -105.02436   -12964.558    4.3316851    4.3316851    4.3316851   -12964.558   -47243.398   -11987.717    20337.442    6906.3321    19929.836    4080.8738    81.277552 
   71100    1301.4953   -106.16103    1.1776203   -104.98341    15261.716    4.3141491    4.3141491    4.3141491    15261.716   -57010.608   -31984.146     134779.9   -18346.337   -7774.4381   -3111.8448    80.294433 
   71200    1428.0753   -106.25381    1.2921525   -104.96166     12404.72    4.2753727    4.2753727    4.2753727     12404.72   -3223.5821    40157.773    279.96939    6193.8478     48211.27    -17397.36    78.148731 
   71300    2049.6602   -106.83264    1.8545756   -104.97806    -6706.759     4.271205     4.271205     4.271205    -6706.759   -29615.233   -17462.874    26957.829    -9569.586   -14430.395    3467.0636    77.920413 
   71400    1443.2033   -106.33336    1.3058407   -105.02752    5490.1751    4.2983518    4.2983518    4.2983518    5490.1751   -34653.743   -7818.7618     58943.03   -15359.289    19046.579    3132.2499    79.415608 
   71500    1688.0548   -106.53043    1.5273875   -105.00304   -24646.489    4.3235114    4.3235114    4.3235114   -24646.489   -25524.354   -39577.685   -8837.4286    8291.1507    466.76935   -33533.445    80.818324 
   71600    1674.4365   -106.47103    1.5150653   -104.95596    2391.7189    4.3046186    4.3046186    4.3046186    2391.7189    29684.593   -46688.422    24178.986    -17285.17   -19728.603   -4190.3654    79.763472 
   71700    1904.3181   -106.66994    1.7230671   -104.94687    4020.6449    4.2966587    4.2966587    4.2966587    4020.6449   -4653.4078    25716.046    -9000.703    -1631.077   -1386.4634    4268.0888    79.321801 
   71800    1263.7791   -106.11843    1.1434939   -104.97493    6812.2043    4.3126918    4.3126918    4.3126918    6812.2043    -22449.73    24970.558    17915.785   -16728.282    218.94646   -46049.366    80.213095 
   71900    1661.1653   -106.46276    1.5030573    -104.9597   -5905.1302    4.3159418    4.3159418    4.3159418   -5905.1302   -43546.514    56175.702   -30344.579   -4600.2185    1002.4527   -19710.651    80.394571 
   72000    1717.6747   -106.50093    1.5541882   -104.94674    7843.5475     4.316072     4.316072     4.316072    7843.5475   -35818.342    94152.952   -34803.968    21678.224     6245.818   -18578.745    80.401849 
   72100    955.04327   -105.81232   0.86414322   -104.94817    23582.403    4.3254058    4.3254058    4.3254058    23582.403   -6166.8621    87934.915   -11020.845   -1698.2079   -10886.245   -52932.258    80.924603 
   72200    1702.5664   -106.45415    1.5405179   -104.91363   -22510.689    4.3422374    4.3422374    4.3422374   -22510.689   -61592.689    53420.643   -59360.021   -16418.698    6027.4245    12996.024    81.872999 
   72300    1713.3938   -106.43623    1.5503147   -104.88592   -56978.048    4.3453863    4.3453863    4.3453863   -56978.048   -13806.095   -45221.717   -111906.33   -16886.753   -8028.8427     -46514.3    82.051242 
   72400    1810.5109   -106.51923    1.6381883   -104.88104     5778.869    4.3097541    4.3097541    4.3097541     5778.869   -36633.959    48346.322    5624.2431   -18407.637    8261.7578    26627.981    80.049289 
   72500    1607.7218    -106.3682    1.4547005    -104.9135    11220.941    4.2841709    4.2841709    4.2841709    11220.941    29791.147    33137.738   -29266.061   -3531.7138    17154.977   -39770.652    78.632188 
   72600    1554.5262   -106.37752     1.406568   -104.97095    30583.576    4.2893125    4.2893125    4.2893125    30583.576    37435.573     40195.77    14119.385    5793.9462    22407.866   -25242.353    78.915636 
   72700    1808.5949   -106.62688    1.6364547   -104.99043    17380.238    4.3054433    4.3054433    4.3054433    17380.238    54354.726    36027.216   -38241.229   -13189.547   -2925.3312   -2189.0809    79.809321 
   72800    1213.0197    -106.0798    1.0975657   -104.98223   -27073.741    4.3214036    4.3214036    4.3214036   -27073.741    21829.739    -40259.13   -62791.833    6279.9822   -381.74737   -55821.615    80.700178 
   72900    2559.6306   -107.26041    2.3160076    -104.9444   -676.02698    4.2988903    4.2988903    4.2988903   -676.02698    6480.9903    6733.9375   -15243.009    7891.2967    2635.5963    29012.302    79.445462 
   73000    1164.9668   -106.01023    1.0540864   -104.95615    19781.438    4.2782749    4.2782749    4.2782749    19781.438    33050.612    44537.857   -18244.154   -14772.151    3940.7218   -71795.658    78.307988 
   73100    2009.0335    -106.8075    1.8178157   -104.98968   -18347.824    4.2916132    4.2916132    4.2916132   -18347.824   -9356.9412    532.41765   -46218.948    6491.9027    8997.5205    5333.7686     79.04269 
   73200    1577.4652   -106.41969    1.4273237   -104.99236    16302.943    4.3090526    4.3090526    4.3090526    16302.943    14263.344   -3756.1701    38401.655    15049.601   -10811.329   -2193.2791    80.010206 
   73300    1378.1358   -106.22948    1.2469662   -104.98252   -25714.484    4.3132614    4.3132614    4.3132614   -25714.484   -20059.852    -814.5339   -56269.065   -7498.6054    7231.1149   -65038.803     80.24488 
   73400    2227.2072   -106.96977    2.0152239   -104.95455   -16223.607    4.2977862    4.2977862    4.2977862   -16223.607   -26175.262   -36557.639    14062.082    6922.1551    15847.748    44300.369    79.384264 
   73500    1637.6567   -106.43631    1.4817862   -104.95452    14853.587    4.2821592    4.2821592    4.2821592    14853.587    75471.438    19024.398   -49935.077    11835.733   -3279.3993   -48598.427    78.521474 
   73600     1743.648   -106.56916    1.5776894   -104.99147    4189.6101    4.3030012    4.3030012    4.3030012    4189.6101   -22109.049     5323.723    29354.156    -6857.418    33423.076   -15409.682    79.673594 
   73700    1418.5324   -106.25993    1.2835179   -104.97641   -10302.656    4.3165265    4.3165265    4.3165265   -10302.656    23692.358   -28749.416   -25850.911    1633.4611    1507.2827   -7036.5677    80.427252 
   73800    1849.5116    -106.6125     1.673477   -104.93902   -20463.518    4.3119641    4.3119641    4.3119641   -20463.518    13071.034   -49867.715   -24593.874    -292.0057     4422.048   -29996.139    80.172496 
   73900    2417.4054   -107.10953    2.1873192   -104.92221   -35231.052    4.3240131    4.3240131    4.3240131   -35231.052    -37454.99   -47122.338   -21115.828    -10364.56   -7070.1627    8610.4643    80.846458 
   74000    1196.5811     -106.013    1.0826917   -104.93031   -45500.441    4.3214702    4.3214702    4.3214702   -45500.441    8262.2733   -70039.423   -74724.174   -3934.6409    18321.892   -69493.907    80.703909 
   74100    2321.4543    -107.0126    2.1005007    -104.9121    11648.057    4.2910498    4.2910498    4.2910498    11648.057    22292.521    7785.2423    4866.4067   -5330.8378    20697.979     16787.85    79.011565 
   74200    1667.4196    -106.4617    1.5087163   -104.95298    11824.226    4.2834714    4.2834714    4.2834714    11824.226     35984.43   -32780.917    32269.164    8571.0856   -12396.347   -45324.132    78.593681 
   74300     1438.331   -106.29682    1.3014321   -104.99539   -18489.501    4.3034606    4.3034606    4.3034606   -18489.501    6574.8376   -62357.324    313.98317    7712.1098    15030.748   -14531.736    79.699113 
   74400    2304.7185   -107.05227    2.0853577   -104.96692   -42983.053    4.3251835    4.3251835    4.3251835   -42983.053   -27180.523   -62216.566   -39552.069   -2144.9912    18578.873    17515.665    80.912125 
   74500     1456.595   -106.26562    1.3179578   -104.94766   -13860.159    4.3153238    4.3153238    4.3153238   -13860.159    38724.254    -49286.42   -31018.311    -20819.42    3596.7249   -30023.765    80.360046 
   74600    1259.7246   -106.05103    1.1398253   -104.91121    62318.752    4.2803932    4.2803932    4.2803932    62318.752    42050.431    9154.7884    135751.04   -21663.896    -11376.62    33944.683    78.424364 
   74700    1916.7529   -106.66522    1.7343183    -104.9309    6385.6016    4.2852622    4.2852622    4.2852622    6385.6016    59332.665   -32754.179   -7421.6813    1824.9216   -12958.077   -32008.954    78.692292 
   74800    1522.6886   -106.33729    1.3777607   -104.95953   -10836.007    4.3109419    4.3109419    4.3109419   -10836.007    47688.277   -69774.882   -10421.417    3882.2476    12529.439    22977.807    80.115495 
   74900    2020.2737   -106.76819    1.8279861   -104.94021     -3097.99    4.3189266    4.3189266    4.3189266     -3097.99   -28292.608   -56967.714    75966.352    12829.426   -4138.3279     17174.19    80.561484 
   75000    1523.1656    -106.3188    1.3781922    -104.9406   -32718.162    4.3161832    4.3161832    4.3161832   -32718.162   -760.02323   -32417.878   -64976.586    5483.8886   -5650.0294   -49213.679    80.408066 
   75100    1802.2243   -106.56844    1.6306904   -104.93775   -35782.161    4.3017769    4.3017769    4.3017769   -35782.161    16039.975   -55054.849   -68331.609   -754.89319   -11768.817    50436.499    79.605603 
   75200    1725.6178   -106.49941    1.5613753   -104.93803    18422.458    4.2900298    4.2900298    4.2900298    18422.458     53730.85   -15181.422    16717.944   -1753.2907    30875.486   -36587.761    78.955236 
   75300    1128.7324   -105.97227    1.0213008   -104.95097    17125.252    4.2872378    4.2872378    4.2872378    17125.252    33991.856   -14667.013    32050.914   -2146.8057    11799.688   -15615.808    78.801181 
   75400    2129.6181   -106.87245    1.9269232   -104.94553    1148.6884    4.3054518    4.3054518    4.3054518    1148.6884     2578.892   -44427.345    45294.518   -2429.4334    -13136.29    20187.688    79.809797 
   75500    1199.5021   -106.02075    1.0853347   -104.93542   -29631.703    4.3258785    4.3258785    4.3258785   -29631.703   -15178.141    -56058.82   -17658.147    -15440.36   -5294.5366   -42346.829    80.951139 
   75600    2137.3206    -106.8377    1.9338926    -104.9038   -802.99827    4.3038445    4.3038445    4.3038445   -802.99827   -23467.619    10211.774     10846.85   -8975.4885   -7257.7083    27809.125    79.720445 
   75700    1718.8667   -106.47293    1.5552667   -104.91766     27887.01    4.2802621    4.2802621    4.2802621     27887.01    36403.158    27141.618    20116.254    4747.0062    38355.124   -24488.125    78.417158 
   75800    1747.5418   -106.53528    1.5812125   -104.95406    8613.0366    4.2886504    4.2886504    4.2886504    8613.0366     2676.157   -4314.2572     27477.21   -6453.1903   -5890.7077   -16962.101    78.879099 
   75900    1549.2995   -106.37006    1.4018387   -104.96822    26573.155     4.305864     4.305864     4.305864    26573.155   -18119.175    38764.868    59073.771    2993.7356    13289.102    41207.112    79.832718 
   76000    1281.2187   -106.12417    1.1592736    -104.9649   -26636.572    4.3181418    4.3181418    4.3181418   -26636.572   -36622.397   -5454.1031   -37833.216    -4912.986    24243.966   -19769.697     80.51758 
   76100    2092.6577   -106.83301    1.8934807   -104.93953    -26818.62    4.3027651    4.3027651    4.3027651    -26818.62   -30912.067   -38976.216   -10567.578   -7645.2842   -17086.068   -15061.263    79.660479 
   76200     1748.207   -106.51865    1.5818144   -104.93684    6875.9538    4.2856865    4.2856865    4.2856865    6875.9538    -27320.56    59597.425   -11649.004   -5870.9883    58047.989    15440.537    78.715668 
   76300    1729.5371   -106.52646    1.5649215   -104.96154   -3834.3088    4.2980398    4.2980398    4.2980398   -3834.3088   -4605.5612    32672.841   -39570.206   -17509.748   -3310.8452   -4840.1509    79.398317 
   76400    1331.3347   -106.16543    1.2046196   -104.96081    2488.6205    4.3109546    4.3109546    4.3109546    2488.6205   -4285.6939    17835.682   -6084.1271   -7739.9141    39161.257    7586.1054    80.116201 
   76500     2121.412    -106.8533    1.9194982    -104.9338   -5120.9139    4.3273874    4.3273874    4.3273874   -5120.9139   -28416.529   -9583.9167    22637.704   -2661.6453    18774.877   -12569.312    81.035878 
   76600    1773.4164   -106.51321    1.6046245   -104.90859   -65584.136    4.3275294    4.3275294    4.3275294   -65584.136    -90030.84   -27180.438    -79541.13    1518.7521    31333.169   -19594.124    81.043851 
   76700    1646.3394   -106.38374    1.4896424   -104.89409   -19961.465    4.2853796    4.2853796    4.2853796   -19961.465   -68812.021    56307.529   -47379.902    10374.026    27726.394    2001.2576     78.69876 
   76800    2094.0988   -106.79824    1.8947846   -104.90345    47961.324    4.2745997    4.2745997    4.2745997    47961.324    20759.187    57506.319    65618.465   -7193.1705   -1073.8434    2505.2647    78.106349 
   76900    1012.0353   -105.88384    0.9157108   -104.96813    -33475.82    4.3114644    4.3114644    4.3114644    -33475.82   -91489.817    43263.551   -52201.193   -6186.9523    90475.909   -24343.864    80.144627 
   77000    1762.9754   -106.52663    1.5951772   -104.93145    6811.7999    4.3093434    4.3093434    4.3093434    6811.7999    62168.465   -17456.414   -24276.652   -1822.7029   -8591.8378   -8986.1303    80.026404 
   77100    2068.6677   -106.81339     1.871774   -104.94161   -25645.034    4.3039446    4.3039446    4.3039446   -25645.034   -16639.857    4289.1483   -64584.394   -17027.329      47794.6   -8851.7449    79.726008 
   77200    2031.3352   -106.79205    1.8379948   -104.95405   -52923.423    4.3132323    4.3132323    4.3132323   -52923.423   -38954.907     -32813.8    -87001.56   -6422.8014    10864.138   -13353.249    80.243258 
   77300    1905.4546    -106.6688    1.7240954   -104.94471    1672.4499    4.3087078    4.3087078    4.3087078    1672.4499    32661.379   -12880.727   -14763.303   -993.10058    19613.416   -5087.6362    79.991001 
   77400    2087.9687   -106.83128     1.889238   -104.94204   -35003.678    4.3185149    4.3185149    4.3185149   -35003.678   -61133.686   -20575.036    -23302.31    -24910.96     20372.55   -941.86112    80.538451 
   77500    1429.1219   -106.21763    1.2930995   -104.92453    5548.1375    4.3232271    4.3232271    4.3232271    5548.1375    20320.224   -1424.2045   -2251.6069    9481.4743   -7264.5071   -1319.7123    80.802377 
   77600    1785.3192   -106.51266    1.6153943   -104.89727    7918.5457    4.3143281    4.3143281    4.3143281    7918.5457   -6370.4592    31395.156   -1269.0596   -7905.2093    9143.4052    18458.593     80.30443 
   77700    1672.6623   -106.41267      1.51346   -104.89921   -24703.051    4.3062829    4.3062829    4.3062829   -24703.051   -42504.672   -10325.199   -21279.283    3191.2233   -29476.468    -14783.05    79.856025 
   77800    1344.8796   -106.14327    1.2168753   -104.92639    21716.105    4.2992329    4.2992329    4.2992329    21716.105   -3315.1817    13096.152    55367.345    25669.581     17113.87    4329.1925    79.464457 
   77900    2163.4861   -106.89037    1.9575677    -104.9328    769.43092    4.2974668    4.2974668    4.2974668    769.43092   -7766.1675   -3497.3731    13571.833   -3514.5952    -14572.27    6080.0553    79.366564 
   78000    947.45521    -105.8384   0.85727738   -104.98112    -16175.01    4.2984788    4.2984788    4.2984788    -16175.01   -2493.3414   -52535.081    6503.3918    -4166.578   -38490.231   -37162.152    79.422647 
   78100    2282.7192   -107.03214    2.0654523   -104.96668    4774.4626    4.2980178    4.2980178    4.2980178    4774.4626    -5727.989   -24585.987    44637.364    616.80547   -6551.8296    16632.641    79.397096 
   78200    1270.1372   -106.13635    1.1492468   -104.98711    12813.604    4.2957259    4.2957259    4.2957259    12813.604    65608.803     -52308.8     25140.81    -10577.07   -871.35217    7101.0552    79.270153 
   78300    1946.8054   -106.76199    1.7615104   -105.00048   -18685.539    4.3012334    4.3012334    4.3012334   -18685.539   -10568.824   -52446.142    6958.3495    11272.599   -18403.765   -14862.023    79.575435 
   78400    1777.4203   -106.59398    1.6082472   -104.98574    41447.484    4.2929078    4.2929078    4.2929078    41447.484    13666.812   -34024.131    144699.77   -23696.619   -2661.3427    17236.075    79.114245 
   78500    1288.0418   -106.16478    1.1654473   -104.99933   -18236.083    4.2941196    4.2941196    4.2941196   -18236.083     36588.23   -77039.306   -14257.173    10584.498    2777.9142   -43431.017    79.181262 
   78600    2589.1218   -107.31988    2.3426918   -104.97719   -35917.598    4.2978574    4.2978574    4.2978574   -35917.598   -46602.769   -55469.104   -5680.9218   -16990.399   -34665.138   -2084.2259    79.388211 
   78700    1079.0923   -105.97404   0.97638541   -104.99765   -2101.9027    4.2949101    4.2949101    4.2949101   -2101.9027    32372.659   -74146.484    35468.117   -15468.708   -5669.6662   -19101.837    79.224999 
   78800    2238.9068   -107.00214      2.02581   -104.97633   -29167.478    4.2902416    4.2902416    4.2902416   -29167.478    14078.523   -68316.296   -33264.661    3692.2379   -11747.607   -51498.073    78.966927 
   78900    1706.7158   -106.52124    1.5442723   -104.97697    32447.257       4.2963       4.2963       4.2963    32447.257    10723.977   -1540.1074      88157.9    -9083.947   -16748.372    13391.586    79.301939 
   79000    1329.9455   -106.18533    1.2033627   -104.98196   -13584.744    4.3082572    4.3082572    4.3082572   -13584.744    32000.945   -61997.969   -10757.209   -7339.4889    9936.5727   -71153.339     79.96591 
   79100    2399.4515   -107.13028    2.1710741   -104.95921   -2085.5315    4.3034022    4.3034022    4.3034022   -2085.5315    37876.493   -45708.953    1575.8657   -7866.2121    -20470.31    28976.865    79.695872 
   79200    1107.2603   -105.99034    1.0018724   -104.98847   -3963.0978    4.2753088    4.2753088    4.2753088   -3963.0978    25417.223   -74443.619    37137.103   -6488.9134   -1677.6197   -75041.491    78.145231 
   79300    2228.2378   -107.00394    2.0161564   -104.98778    30810.286     4.267859     4.267859     4.267859    30810.286    46706.386    20043.386    25681.086    686.88564    6678.6123    13345.846     77.73743 
   79400    1299.8453   -106.17592    1.1761274    -104.9998    7381.6613    4.2912599    4.2912599    4.2912599    7381.6613    25165.565   -35901.299    32880.718    10587.282    7378.0952   -46961.362    79.023172 
   79500     1569.221   -106.39559    1.4198641   -104.97572   -22983.062    4.3124771    4.3124771    4.3124771   -22983.062   -18901.105   -61366.874    11318.794   -9488.8043   -13062.224   -35579.408    80.201112 
   79600    2061.9862    -106.8038    1.8657285   -104.93808   -35351.185    4.3187462    4.3187462    4.3187462   -35351.185    4506.1449   -68639.026   -41920.673   -7886.2253    9574.3902    4538.0173    80.551392 
   79700    1093.0507   -105.92482   0.98901524   -104.93581   -13395.357    4.2880024    4.2880024    4.2880024   -13395.357    72164.496   -101974.97   -10375.598   -14852.891   -3941.5971   -62208.641    78.843348 
   79800    2675.3182     -107.338    2.4206841   -104.91732    25268.151    4.2561368    4.2561368    4.2561368    25268.151     8121.118    14468.491    53214.845    342.27316   -26293.538    19635.519    77.098644 
   79900    1050.6782   -105.94048   0.95067569   -104.98981    2664.2011    4.2841245    4.2841245    4.2841245    2664.2011    99079.935   -51720.243   -39367.089   -2537.7581    10538.708   -52429.043    78.629632 
   80000    1880.4615    -106.6676    1.7014811   -104.96612   -27688.046    4.3091844    4.3091844    4.3091844   -27688.046    14945.854   -84052.661   -13957.331   -4739.3505   -17071.344   -4551.8524     80.01755 
   80100    2049.7316   -106.79949    1.8546402   -104.94485   -2158.0148    4.2959236    4.2959236    4.2959236   -2158.0148    15832.149   -30513.061    8206.8679    934.88376   -18750.739   -25817.999    79.281096 
   80200    1319.7889   -106.15097    1.1941728    -104.9568    744.39921    4.2872024    4.2872024    4.2872024    744.39921    82700.532   -63658.627   -16808.707   -11135.144    3105.2918   -27196.313    78.799228 
   80300    2061.9718   -106.81871    1.8657154     -104.953    1851.2627    4.2761069    4.2761069    4.2761069    1851.2627    57044.285   -38603.268   -12887.229    -5834.642     8497.995    19382.429    78.188998 
   80400    1487.4474   -106.32133    1.3458737   -104.97546    7036.7128    4.2712568    4.2712568    4.2712568    7036.7128    24658.046   -6750.6526    3202.7455    512.11736   -26881.941   -66246.455    77.923248 
   80500    2082.2884   -106.85648    1.8840983   -104.97238    18622.395    4.2877227    4.2877227    4.2877227    18622.395    74637.688   -298.55805   -18471.943   -2043.2318   -6898.7129    30499.299    78.827922 
   80600    1363.0236   -106.21629    1.2332924   -104.98299   -40525.553    4.2961352    4.2961352    4.2961352   -40525.553    44578.231   -93193.977   -72960.912   -207.82581    6660.9579   -59936.197    79.292812 
   80700    1699.3839    -106.5046    1.5376383   -104.96696   -1332.8261    4.2899405    4.2899405    4.2899405   -1332.8261    19548.076   -12824.446   -10722.108    3281.7754   -10873.723   -4307.3654    78.950302 
   80800    1634.5458   -106.43452    1.4789714   -104.95555   -9852.9068    4.2930166    4.2930166    4.2930166   -9852.9068    18084.232     10233.12   -57876.072   -17173.268   -5849.7821   -42948.723    79.120257 
   80900    1260.4416   -106.10127    1.1404741    -104.9608   -20257.579    4.2866581    4.2866581    4.2866581   -20257.579    13012.689   -5593.1126   -68192.314   -6148.5844   -3052.3546   -59653.989    78.769217 
   81000    2220.0063   -106.96146    2.0087084   -104.95275   -7779.9483    4.2885301    4.2885301    4.2885301   -7779.9483    339.09113   -26907.233    3228.2972   -11075.471   -10111.712    2179.9152    78.872461 
   81100    1547.2439   -106.35582    1.3999788   -104.95584   -41840.722    4.3068918    4.3068918    4.3068918   -41840.722    17066.891   -76563.972   -66025.085   -2277.6963     16165.27   -64972.806    79.889903 
   81200    2026.6912   -106.75857    1.8337928   -104.92478    8180.5074    4.2879006    4.2879006    4.2879006    8180.5074   -5269.5101    42940.509   -13129.477   -1613.3582   -5153.0388    37241.508    78.837735 
   81300    1545.7611   -106.33656    1.3986371   -104.93792   -2512.3336    4.2797292    4.2797292    4.2797292   -2512.3336    3648.0692   -28289.547    17104.477    4141.8073    11860.155   -64058.386    78.387869 
   81400    2221.9299   -106.96365    2.0104489    -104.9532   -14291.781    4.3018136    4.3018136    4.3018136   -14291.781    -35452.98   -39209.618    31787.256   -9420.0003    2719.0769    -403.8677    79.607643 
   81500    806.58054   -105.67988   0.72981102   -104.95007    5085.3317    4.3115459    4.3115459    4.3115459    5085.3317    33960.727    20241.747   -38946.479    5829.8483    5271.0054   -11172.038    80.149171 
   81600    1475.9011   -106.25111    1.3354263   -104.91568    20702.697    4.3033204    4.3033204    4.3033204    20702.697    60291.247    3808.5021   -1991.6591    16163.325   -9979.3715    -23875.66    79.691323 
   81700    2263.6343   -106.94703    2.0481839   -104.89885   -7389.8549    4.2936052    4.2936052    4.2936052   -7389.8549    2525.7926   -30954.344    6258.9864     235.5203   -15026.286    14966.251     79.15281 
   81800    1232.9267    -106.0458     1.115578   -104.93022   -15553.284    4.2919851    4.2919851    4.2919851   -15553.284    21124.298   -28760.352   -39023.798   -4458.4663    5544.7216   -71613.129    79.063244 
   81900    2377.1214   -107.07707    2.1508694    -104.9262    1243.6165    4.2919926    4.2919926    4.2919926    1243.6165   -24164.471    4725.5584    23169.762    4543.9025   -297.14811     31257.35    79.063654 
   82000    1242.2489   -106.07244    1.1240129   -104.94843   -22793.771    4.3059697    4.3059697    4.3059697   -22793.771    19056.494   -69857.294   -17580.512    537.53665    5954.4928   -70446.252    79.838597 
   82100    2450.4908   -107.12848    2.2172556   -104.91123   -3669.3654    4.3163105    4.3163105    4.3163105   -3669.3654   -3063.8511     5349.859   -13294.104    3700.1716    8208.3748    16443.117    80.415179 
   82200     1212.009   -106.01545    1.0966512    -104.9188   -21396.601    4.3125759    4.3125759    4.3125759   -21396.601    50080.851   -61870.229   -52400.426   -4894.1129   -10500.921   -59135.818     80.20663 
   82300    2224.5951   -106.90974    2.0128604   -104.89688    18046.943    4.2945681    4.2945681    4.2945681    18046.943    35376.536   -23913.212    42677.505   -4230.8171     6729.488   -7017.7927    79.206074 
   82400    1254.4411   -106.07192    1.1350447   -104.93687    10945.052    4.2932102    4.2932102    4.2932102    10945.052     98468.32   -25988.016   -39645.148   -15963.429   -1238.7926   -46605.227    79.130967 
   82500    1703.4037     -106.492    1.5412754   -104.95073   -20174.293      4.30673      4.30673      4.30673   -20174.293    14157.962   -22910.164   -51770.677   -9771.6097    5069.0654   -23459.279    79.880899 
   82600    1864.6482   -106.62609    1.6871729   -104.93892   -6329.4711    4.3101223    4.3101223    4.3101223   -6329.4711     34752.16   -34744.949   -18995.624   -6015.3922   -3942.7232   -11418.366    80.069804 
   82700    1450.5619   -106.24718    1.3124989   -104.93468    -32897.81    4.3097669    4.3097669    4.3097669    -32897.81    63329.646   -92705.181   -69317.895   -3913.9242   -234.56327   -47625.004    80.050003 
   82800    2309.0886   -107.00159    2.0893119   -104.91228    11041.436    4.2907578    4.2907578    4.2907578    11041.436    22550.774   -18475.416    29048.949   -731.48873   -1298.2217    10459.894    78.995435 
   82900    1784.0767   -106.54865    1.6142701   -104.93438   -13062.737    4.2838387    4.2838387    4.2838387   -13062.737    18233.705   -50495.181   -6926.7368   -993.50489   -15171.982   -73241.792    78.613897 
   83000    2326.0368   -107.04828     2.104647   -104.94364   -29565.737    4.3014725    4.3014725    4.3014725   -29565.737   -28830.189   -33621.638   -26245.383    4543.4262    1538.8348    8292.8462    79.588705 
   83100    1756.4424   -106.52549     1.589266   -104.93622   -26576.958    4.3087565    4.3087565    4.3087565   -26576.958     19677.44   -60892.037   -38516.275    5717.7873    5399.6323    -36355.42    79.993714 
   83200    1487.5708   -106.27068    1.3459853   -104.92469    15352.633    4.3097265    4.3097265    4.3097265    15352.633    132448.48   -46939.292   -39451.291   -9217.8315    7548.2815   -19487.844    80.047749 
   83300     1429.975   -106.21244    1.2938714   -104.91857    45144.289    4.3165615    4.3165615    4.3165615    45144.289    108010.18     10331.82    17090.866   -30601.186    20042.074    19641.889    80.429209 
   83400    1338.1492   -106.11454    1.2107855   -104.90375    6967.9828    4.3241051    4.3241051    4.3241051    6967.9828     91439.55   -58907.592   -11628.009   -13848.869    25587.847   -27195.084    80.851618 
   83500    2213.9554   -106.87178    2.0032334   -104.86855   -31061.625    4.3201024    4.3201024    4.3201024   -31061.625    -39629.83   -62044.239    8489.1938    1651.9892   -5388.6767    20407.254    80.627301 
   83600    1618.2703   -106.32394     1.464245   -104.85969   -29749.747     4.307116     4.307116     4.307116   -29749.747   -18563.846   -29896.178   -40789.217    13847.623   -4966.2998   -70799.663     79.90238 
   83700    2080.7957   -106.75981    1.8827477   -104.87706    6161.2399    4.3121895    4.3121895    4.3121895    6161.2399    58231.113   -34000.753   -5746.6398   -7346.2995   -8202.8723    14655.682    80.185071 
   83800    1478.2247   -106.23442    1.3375288   -104.89689   -18201.921    4.3205527    4.3205527    4.3205527   -18201.921    97079.245   -76240.793   -75444.216     -11081.9    6398.2772   -54350.362    80.652517 
   83900    1388.0182   -106.14377     1.255908   -104.88786     28681.11     4.294027     4.294027     4.294027     28681.11    99676.818   -6685.9093   -6947.5802   -7931.3601    19389.442   -9687.6401    79.176136 
   84000    1290.3346    -106.0633    1.1675219   -104.89577    57551.732    4.2747829    4.2747829    4.2747829    57551.732    91171.352    23036.847    58446.997   -24202.876    17509.331   -460.29967    78.116394 
   84100    1619.3261    -106.4147    1.4652002    -104.9495   -18449.305    4.3132755    4.3132755    4.3132755   -18449.305    9613.7865   -25339.815   -39621.886    7484.1037    7215.7089   -46284.347    80.245669 
   84200    2445.7873   -107.09359    2.2129998   -104.88059   -55099.145    4.3427526    4.3427526    4.3427526   -55099.145   -38890.143   -52246.658   -74160.635    5453.9488   -15861.134    14272.771    81.902141 
   84300    879.46064   -105.64372   0.79575446   -104.84797    6506.0455    4.3233594    4.3233594    4.3233594    6506.0455    71937.142    13636.244    -66055.25   -23852.565    18605.094   -39508.218    80.809799 
   84400    1912.8216   -106.55933    1.7307611   -104.82857    42949.879     4.287801     4.287801     4.287801    42949.879     33859.99    91444.421    3545.2249   -26290.389     12468.95    36743.859     78.83224 
   84500    1178.4323   -105.95423    1.0662704   -104.88796    29746.964    4.2749883    4.2749883    4.2749883    29746.964    117050.87   -3123.4034   -24686.577   -7120.3775    5646.0492   -51184.226    78.127653 
   84600    1918.1503   -106.66222    1.7355827   -104.92664    26289.066    4.2928797    4.2928797    4.2928797    26289.066    89096.865    5622.5692   -15852.236   -9889.6351    17665.659    21120.171    79.112691 
   84700    1270.6428   -106.09172    1.1497044   -104.94201   -4112.2893    4.3009649    4.3009649    4.3009649   -4112.2893     64541.97   -2653.0629   -74225.775    7180.8219   -187.14313   -52495.849    79.560536 
   84800    1762.7584   -106.53311    1.5949808   -104.93813   -3478.4211    4.3113292    4.3113292    4.3113292   -3478.4211    68558.861   -14454.689   -64539.435    944.05493   -4229.0443   -10731.502    80.137089 
   84900    1666.9346   -106.44079    1.5082775   -104.93251   -32234.331    4.3050448    4.3050448    4.3050448   -32234.331    16563.558   -17856.663    -95409.89    23349.582    27724.316    -34136.44    79.787164 
   85000    1665.9793   -106.42462    1.5074131    -104.9172    37301.344    4.2741801    4.2741801    4.2741801    37301.344    81593.986    60062.188   -29752.142    14106.942   -15809.259   -32110.036    78.083353 
   85100      2196.96   -106.91722    1.9878556   -104.92936   -7636.5414    4.2833553    4.2833553    4.2833553   -7636.5414    33091.618   -19519.307   -36481.934    13424.529    4948.3855   -9638.2628    78.587288 
   85200    1048.1432   -105.90662   0.94838203   -104.95824   -31800.597    4.3007323    4.3007323    4.3007323   -31800.597    10606.627   -7881.2888    -98127.13    10877.384    10361.177   -68634.097    79.547628 
   85300    2553.9286     -107.239    2.3108483   -104.92815   -7260.4092    4.3028765    4.3028765    4.3028765   -7260.4092   -48849.048    30178.481   -3110.6603    11813.327   -9590.0979    18832.283    79.666666 
   85400    1490.3649   -106.28357    1.3485135   -104.93506   -16859.205    4.2936931    4.2936931    4.2936931   -16859.205    65558.182   -68188.708   -47947.091   -1460.9888    7815.1915   -81578.509    79.157667 
   85500    2071.0542   -106.79448    1.8739334   -104.92055    14174.131    4.2824703    4.2824703    4.2824703    14174.131    73214.312   -7253.1244   -23438.795   -198.37508   -15479.005    11076.443    78.538587 
   85600    1484.9345   -106.29826    1.3435999   -104.95466   -22965.925    4.2835263    4.2835263    4.2835263   -22965.925     56929.49   -54493.264       -71334    5668.7987   -6495.7322   -66166.516    78.596702 
   85700    2252.5019   -106.99696     2.038111   -104.95885   -18203.341    4.3019004    4.3019004    4.3019004   -18203.341    5341.6638   -28972.892   -30978.795    2332.3104    4549.8475   -3234.9804    79.612461 
   85800      1421.04   -106.22723    1.2857868   -104.94145   -20886.181     4.315208     4.315208     4.315208   -20886.181    22684.897   -23402.033   -61941.408   -7353.5512   -16932.848   -50712.508    80.353577 
   85900    1792.8064   -106.53066    1.6221689   -104.90849    607.29589    4.3005322    4.3005322    4.3005322    607.29589    23319.577    211.74184   -21709.431   -4586.2074    3130.5453    5756.3683    79.536522 
   86000    1401.4198   -106.17742    1.2680341   -104.90938    36609.364    4.2720026    4.2720026    4.2720026    36609.364    51079.643    35908.859     22839.59   -16105.041    17057.976   -21966.803    77.964073 
   86100    1151.5754   -105.99832    1.0419696   -104.95635    35307.792    4.2824108    4.2824108    4.2824108    35307.792    65933.364    59401.012       -19411   -27639.708    1975.7473   -34923.171    78.535313 
   86200    2067.4383   -106.80853    1.8706617   -104.93787    22206.809     4.309245     4.309245     4.309245    22206.809    24254.998    34564.483    7800.9448   -14212.891    10829.729    21488.643    80.020922 
   86300    1012.0579   -105.85606   0.91573125   -104.94033    8208.3425    4.3047264    4.3047264    4.3047264    8208.3425    46080.331   -20830.788   -624.51611   -20108.628    6701.3896   -53055.097     79.76946 
   86400    1784.7299   -106.51955    1.6148611   -104.90469    24278.903    4.2930904    4.2930904    4.2930904    24278.903   -12110.544    75287.446    9659.8086   -543.95791    6934.3317    36702.802    79.124338 
   86500    1211.1916   -106.01979    1.0959116   -104.92388   -7595.0308    4.2881145    4.2881145    4.2881145   -7595.0308    28676.087   -40141.342   -11319.838    -11440.16    791.18341   -70362.449    78.849532 
   86600    1829.4795   -106.59005    1.6553515    -104.9347    28947.862    4.2829709    4.2829709    4.2829709    28947.862    5926.0306    14457.011    66460.545   -3175.7163    4254.6348    8918.2031    78.566132 
   86700    1516.8748   -106.32795    1.3725002   -104.95545     15119.98    4.2822872    4.2822872    4.2822872     15119.98    22871.253    33202.384   -10713.696    10219.144   -10427.291   -19740.233    78.528515 
   86800    1353.3932   -106.19092    1.2245787   -104.96634   -21798.628    4.2909846    4.2909846    4.2909846   -21798.628    42523.446   -72537.001   -35382.328    11646.566   -14981.739    -60848.88    79.007963 
   86900    2455.5955   -107.16366    2.2218744   -104.94179   -7921.4781    4.2940934    4.2940934    4.2940934   -7921.4781     -23058.8    670.68095   -1376.3149    18091.379    14058.596    6268.6025     79.17981 
   87000    971.57669    -105.8436   0.87910301    -104.9645   -38254.909    4.2978199    4.2978199    4.2978199   -38254.909    7179.7306   -35295.886   -86648.573   -11531.242   -20424.072   -96628.055    79.386132 
   87100    2333.7871    -107.0537    2.1116596   -104.94204    27467.026    4.2799981    4.2799981    4.2799981    27467.026    23269.779    25590.095    33541.205    1847.8585   -2444.4386    21623.154    78.402646 
   87200     1579.811   -106.39172    1.4294462   -104.96228    10980.093    4.2684337    4.2684337    4.2684337    10980.093    21725.648   -2668.7291    13883.361    4486.9664    963.58034    -78054.85    77.768842 
   87300    1142.2074   -106.01939    1.0334932    -104.9859   -4946.4179    4.2900382    4.2900382    4.2900382   -4946.4179   -9201.2507    9407.2538   -15045.257   -9349.0229   -19470.998   -32863.179    78.955696 
   87400    2094.8276   -106.85006     1.895444   -104.95462   -12291.283     4.306199     4.306199     4.306199   -12291.283   -30032.249   -26342.554    19500.953     8767.843     11711.66   -10404.802    79.851357 
   87500    1224.1505   -106.07284    1.1076371    -104.9652   -42514.499    4.2933336    4.2933336    4.2933336   -42514.499    1325.0437   -53024.267   -75844.274   -2477.7619   -25554.418   -95117.067     79.13779 
   87600     2291.565   -107.00442    2.0734562   -104.93097    42906.041    4.2563506    4.2563506    4.2563506    42906.041    9979.6109    52617.656    66120.855    5163.0119   -19229.918    29751.497    77.110265 
   87700    1306.8166   -106.16036    1.1824351   -104.97792    11926.274    4.2589294    4.2589294    4.2589294    11926.274    25323.125   -38135.537    48591.234   -263.32479    8029.2667   -94673.609    77.250503 
   87800    1628.4824   -106.45543    1.4734851   -104.98194   -10106.576    4.2915624    4.2915624    4.2915624   -10106.576    2273.9792    9874.8035   -42468.511   -5492.1471    -28093.09   -10763.649    79.039881 
   87900    1149.4358   -106.00348    1.0400336   -104.96345    41885.767    4.2909952    4.2909952    4.2909952    41885.767     33020.38    23495.816    69141.104    -8669.102    574.19848   -34902.392     79.00855 
   88000    2038.5849   -106.78696    1.8445544    -104.9424    3385.8323    4.2919494    4.2919494    4.2919494    3385.8323   -5138.5213    32904.691   -17608.673   -17507.813     414.1594   -52134.462    79.061267 
   88100    2162.6993     -106.893    1.9568558   -104.93614    12665.128    4.2856249    4.2856249    4.2856249    12665.128   -23588.822    86325.007   -24740.801    626.67837    -16552.52    8264.1798    78.712278 
   88200    1082.7556   -105.93499   0.97969998   -104.95529    15336.487     4.275146     4.275146     4.275146    15336.487    41156.847     3438.505    1414.1089     814.9632    9661.3665   -89987.324    78.136302 
   88300    2121.1068   -106.87714     1.919222   -104.95791    4060.7837    4.2933313    4.2933313    4.2933313    4060.7837   -41377.628    27462.518    26097.461   -5818.9474   -6718.6496    27244.249    79.137659 
   88400    985.97081   -105.86316    0.8921271   -104.97104   -40532.825    4.2876205    4.2876205    4.2876205   -40532.825    10023.621   -72983.498   -58638.599    2413.5626    4087.3144   -92842.744    78.822287 
   88500    2205.4154   -106.93203    1.9955062   -104.93652    43633.905    4.2667397    4.2667397    4.2667397    43633.905    6132.9403    65981.287    58787.488    5829.0149    12771.294    17686.032    77.676283 
   88600    1403.0279   -106.23748    1.2694891   -104.96799   -43917.294    4.2951576    4.2951576    4.2951576   -43917.294    11134.107   -60911.142   -81974.846    13976.938   -655.41394   -70830.483    79.238692 
   88700    1267.2851   -106.08961    1.1466662   -104.94294   -21382.949    4.2954597    4.2954597    4.2954597   -21382.949    38897.018    -39965.62   -63080.244    7390.4407   -1801.6827   -68540.583    79.255414 
   88800    2400.6053   -107.08696    2.1721181   -104.91484    9768.7586    4.2747145    4.2747145    4.2747145    9768.7586   -5871.6535    13530.085    21647.844   -7643.4023   -8060.9777   -3267.5896    78.112642 
   88900    895.00585   -105.77593    0.8098201   -104.96611   -48981.702    4.2956733    4.2956733    4.2956733   -48981.702    3074.5789   -77267.944   -72751.741    6836.1335   -2637.3436   -99009.423    79.267239 
   89000    2387.9853   -107.09421    2.1606993   -104.93351    18907.312    4.2839355    4.2839355    4.2839355    18907.312   -20398.735    39530.479    37590.191   -1000.0579    7690.8484    14053.631    78.619227 
   89100     1055.046   -105.91557   0.95462775   -104.96094    36786.288    4.2747985    4.2747985    4.2747985    36786.288    66917.372    5774.7816    37666.712    -5255.946   -4481.2149   -86592.948     78.11725 
   89200    2738.1555   -107.41337    2.4775407   -104.93583   -18999.269    4.3012102    4.3012102    4.3012102   -18999.269   -7096.2554   -21175.609   -28725.944     1609.473   -20068.826    29690.903    79.574148 
   89300    1851.7331   -106.60958     1.675487   -104.93409   -16967.747    4.2865526    4.2865526    4.2865526   -16967.747    11834.549   -43328.109   -19409.681   -13087.773   -12857.955   -58517.702    78.763403 
   89400    1764.6516   -106.51685    1.5966939   -104.92016    51460.279    4.2656333    4.2656333    4.2656333    51460.279   -2229.6173    61474.552    95135.902    6528.9829    -2649.271   -22354.031    77.615873 
   89500    1512.3269   -106.32249    1.3683852    -104.9541   -26035.919    4.2863675    4.2863675    4.2863675   -26035.919   -19666.009   -4253.7391   -54188.008    8620.6265   -18129.716   -36147.372    78.753197 
   89600    1584.1378   -106.39091    1.4333612   -104.95755   -36651.106    4.2919668    4.2919668    4.2919668   -36651.106    8999.8752   -69093.731   -49859.463    -7122.296   -288.44837   -71384.011    79.062229 
   89700    2728.3171   -107.41198    2.4686386   -104.94334   -26979.974    4.2981794    4.2981794    4.2981794   -26979.974   -60749.313    9875.4246   -30066.034   -7227.4553   -20841.006    27427.813    79.406052 
   89800    927.64529   -105.80691   0.83935295   -104.96755   -74046.972    4.3001363    4.3001363    4.3001363   -74046.972    1619.6916   -99001.368   -124759.24   -4796.6556   -11606.216   -114125.51    79.514559 
   89900    2318.1399   -107.04474    2.0975017   -104.94724    27432.727    4.2545483    4.2545483    4.2545483    27432.727    5647.6781    34256.976    42393.526    7961.5542    6571.3118   -1642.2524    77.012349 
   90000    1175.0967   -106.04198    1.0632522   -104.97873    34420.419    4.2497586    4.2497586    4.2497586    34420.419    32286.103    809.68233    70165.471    546.93823   -23262.338   -61657.512    76.752542 
   90100    1510.3418   -106.37057     1.366589   -105.00399   -45137.429    4.3011185    4.3011185    4.3011185   -45137.429   -28227.428    -70196.45   -36988.408     8063.109   -8234.2391   -53520.249    79.569061 
   90200    1930.6844    -106.6734    1.7469238   -104.92647    21771.096    4.3064594    4.3064594    4.3064594    21771.096    40597.495   -3060.8812    27776.675    1932.5207    5202.1876   -10358.037    79.865844 
   90300    1066.8753   -105.86611   0.96533119   -104.90078    38478.508    4.3002179    4.3002179    4.3002179    38478.508    81689.677   -640.03829    34385.886    1753.1442   -5139.7759   -50918.019    79.519085 
   90400    2406.0568   -107.07161    2.1770508   -104.89455   -33798.226    4.2980353    4.2980353    4.2980353   -33798.226   -29326.509   -31971.127   -40097.042   -3716.6099    4917.3439    15267.689    79.398066 
   90500    1455.0494    -106.2488    1.3165593   -104.93224    18744.631    4.2578214    4.2578214    4.2578214    18744.631     32376.91   -27631.652    51488.634   -5671.7209    12856.117   -71482.242    77.190227 
   90600    2171.9123   -106.92361    1.9651919   -104.95841    32750.867     4.259477     4.259477     4.259477    32750.867    8224.5825    72596.793    17431.225    5204.7518   -32739.206     9098.388    77.280307 
   90700    1552.5843   -106.38155    1.4048109   -104.97674   -31774.757     4.290098     4.290098     4.290098   -31774.757   -8277.5145   -45254.796   -41791.961   -8778.6551    10313.434    -44731.33    78.959001 
   90800    1571.2284   -106.39082    1.4216805   -104.96914    4761.7821    4.2801468    4.2801468    4.2801468    4761.7821     8155.364   -12712.821    18842.803   -7178.0269   -2587.9197   -28580.445    78.410822 
   90900    1802.4423   -106.60333    1.6308877   -104.97244     3069.146    4.2828215    4.2828215    4.2828215     3069.146    23473.464    26469.199   -40735.226   -1452.5951    -51769.66    3931.8591     78.55791 
   91000    1746.3142   -106.55004    1.5801018   -104.96994   -17907.551    4.2857873    4.2857873    4.2857873   -17907.551    24462.881   -53687.977   -24497.559    1605.0317    36997.468   -42607.452    78.721223 
   91100    1470.0777   -106.29681    1.3301572   -104.96666    37337.481    4.2635428    4.2635428    4.2635428    37337.481    27148.852    10426.073    74437.518   -21770.555   -18836.959    9461.4736    77.501815 
   91200    2054.7075   -106.83788    1.8591426   -104.97873    2310.3648    4.2647716    4.2647716    4.2647716    2310.3648    38267.741   -28735.772   -2600.8748   -4244.1436   -36159.122   -19903.984    77.568849 
   91300     1485.366   -106.33448    1.3439904   -104.99049    5925.8094    4.2869924    4.2869924    4.2869924    5925.8094      87013.5   -65219.715   -4016.3562    1456.8138    21594.641   -11860.942     78.78765 
   91400    1576.5209   -106.40183    1.4264692   -104.97536   -3393.5009    4.2988697    4.2988697    4.2988697   -3393.5009   -5023.6632   -24893.572    19736.733   -12056.032   -28554.686    9995.6131    79.444321 
   91500    1434.0466   -106.26244    1.2975555   -104.96489    2445.2631    4.2918121    4.2918121    4.2918121    2445.2631    51976.277   -34305.531   -10334.957    20185.919    -6494.934   -46986.878    79.053681 
   91600    2545.3589   -107.24586    2.3030942   -104.94276    13046.541    4.2760327    4.2760327    4.2760327    13046.541    58948.382   -22255.007    2446.2491   -4434.5954    600.00179    27791.381     78.18493 
   91700     1479.977    -106.3115    1.3391143   -104.97239   -30039.608     4.274539     4.274539     4.274539   -30039.608    411.61454    -55965.16   -34565.279   -3847.9001   -20971.403   -35777.253    78.103027 
   91800    1238.9586   -106.11097    1.1210358   -104.98994   -6393.9095    4.2784701    4.2784701    4.2784701   -6393.9095    21763.056    -9872.517   -31072.268    11199.938   -13432.091   -25239.925    78.318705 
   91900     2122.851   -106.89187    1.9208002   -104.97107   -9869.3153    4.2926883    4.2926883    4.2926883   -9869.3153    41820.623   -31560.367   -39868.202    9256.0251    22574.575    33614.457     79.10211 
   92000    1429.2324   -106.26109    1.2931996   -104.96789   -30402.815    4.2937451    4.2937451    4.2937451   -30402.815    9825.1622   -56391.026   -44642.581    1658.1243   -26294.326   -64820.115    79.160547 
   92100    1666.0866   -106.46925    1.5075102   -104.96174   -12572.516    4.2658709    4.2658709    4.2658709   -12572.516   -1205.0607   -26863.829   -9648.6587    28356.065   -12296.563    16395.459    77.628843 
   92200     1780.815   -106.58768    1.6113189   -104.97636    29240.245       4.2527       4.2527       4.2527    29240.245    49102.407   -13084.383    51702.712   -7894.4256    13835.023    9956.1038    76.912026 
   92300    1909.7735   -106.73295    1.7280032   -105.00494   -28229.888    4.2748148    4.2748148    4.2748148   -28229.888   -3299.9743   -39560.678   -41829.011    14462.173   -32805.751   -43077.449    78.118144 
   92400    1252.1339   -106.13915    1.1329571    -105.0062   -41380.333    4.2936847    4.2936847    4.2936847   -41380.333   -55559.221   -62425.446   -6156.3326    23589.911   -3240.4238    30474.751    79.157206 
   92500    1871.9072   -106.69154    1.6937409    -104.9978    -13665.18    4.2876115    4.2876115    4.2876115    -13665.18   -23947.338   -9904.2207    -7143.981   -16409.926   -3135.8828    1461.0385    78.821787 
   92600     2436.236    -107.1903    2.2043575   -104.98594    664.20572    4.2698857    4.2698857    4.2698857    664.20572    -11317.19    24191.089   -10881.282    25897.406   -14567.935   -13728.085    77.848229 
   92700    491.33763   -105.46332   0.44457261   -105.01875    9575.0908     4.265535     4.265535     4.265535    9575.0908   -18953.363    34384.751    13293.885    20131.652    1621.3143    38606.652    77.610509 
   92800     2024.189   -106.84949    1.8315288   -105.01796   -4035.0496    4.2808613    4.2808613    4.2808613   -4035.0496    9886.1067   -34596.134    12604.878   -15921.326    -7945.443     4551.629    78.450094 
   92900    2199.5428   -106.99566    1.9901926   -105.00547   -21657.638    4.2997196    4.2997196    4.2997196   -21657.638   -30265.081   -18929.511   -15778.323    20442.683    3810.8467   -5550.4413    79.491445 
   93000    1203.2605   -106.09949    1.0887354   -105.01076   -33935.023     4.286188     4.286188     4.286188   -33935.023    -48155.01   -43388.822   -10261.236   -5339.0945   -4902.6714    40438.598    78.743306 
   93100    2232.7221   -106.98593    2.0202139   -104.96572    12223.395    4.2622029    4.2622029    4.2622029    12223.395    7416.6612    37396.857   -8143.3332   -8214.8753    13892.689   -18254.066    77.428771 
   93200    1502.2619   -106.34931    1.3592782   -104.99003   -19419.437    4.2883059    4.2883059    4.2883059   -19419.437    -16726.86   -41655.749    124.29747    18023.374   -3019.8929    10195.381    78.860093 
   93300    1130.7696    -105.9981    1.0231441   -104.97496   -37082.088    4.3025626    4.3025626    4.3025626   -37082.088   -38658.316   -60117.261   -12470.686   -22187.079    4590.7155    58359.988    79.649233 
   93400    1986.5507   -106.75445    1.7974728   -104.95697    25157.476    4.2665952    4.2665952    4.2665952    25157.476    43657.688    19183.517    12631.223   -10676.756    471.94698   -42193.175    77.668393 
   93500    1408.6672   -106.25523    1.2745917   -104.98064    51477.318    4.2614491    4.2614491    4.2614491    51477.318    45660.736    47300.024    61471.196    17169.988   -14143.596    38413.582    77.387693 
   93600    1646.0068    -106.4927    1.4893416   -105.00336   -10457.132     4.298472     4.298472     4.298472   -10457.132   -48749.832    15814.314    1564.1206   -10207.278    15601.312    48679.434    79.422271 
   93700     1571.452   -106.38839    1.4218828   -104.96651   -16754.558    4.3110331    4.3110331    4.3110331   -16754.558   -37161.574   -25554.222    12452.124   -3295.5481    19239.131   -27138.057    80.120577 
   93800    1271.7134   -106.10509     1.150673   -104.95442    8206.5957    4.2952552    4.2952552    4.2952552    8206.5957    27720.111   -3458.8421    358.51797    18759.926   -1298.2214    62050.156    79.244094 
   93900    1995.2528   -106.74493    1.8053467   -104.93959    22713.363    4.2903664    4.2903664    4.2903664    22713.363   -41556.649    80267.731    29429.008   -12016.152    16776.959    13374.821    78.973823 
   94000    1372.4455   -106.19731    1.2418176   -104.95549   -7889.3816    4.2907668    4.2907668    4.2907668   -7889.3816   -15886.855    -7713.628   -67.661668    3548.7392    -1105.148    30747.654    78.995935 
   94100    1398.0057   -106.23732    1.2649449   -104.97237    -6239.596    4.2772129    4.2772129    4.2772129    -6239.596    36498.529    2703.2432    -57920.56    6166.8536    1807.2206    55231.664    78.249684 
   94200    1862.2363   -106.65806    1.6849905   -104.97307    45397.462    4.2674943    4.2674943    4.2674943    45397.462    28603.769    71793.908    35794.709   -21609.657   -4829.6183     1308.917    77.717507 
   94300    1590.9342    -106.4382    1.4395107   -104.99869   -14987.581    4.2943397    4.2943397    4.2943397   -14987.581   -7750.6615    -54619.33    17407.249    5621.3156    4272.8244    34974.973    79.193434 
   94400    1756.1402   -106.55319    1.5889926    -104.9642    -11292.38    4.3048152    4.3048152    4.3048152    -11292.38    26444.251   -42274.157   -18047.234    -14832.65    14358.809   -17452.992    79.774399 
   94500    1643.5582   -106.43681     1.487126   -104.94968    18503.093    4.2824287    4.2824287    4.2824287    18503.093    51682.128   -29126.825    32953.975   -31435.954    3288.8631    25623.527    78.536298 
   94600    1833.1534   -106.61917    1.6586757   -104.96049   -8093.3333    4.2737179    4.2737179    4.2737179   -8093.3333    53275.916   -39991.799   -37564.118    19041.822    6503.1303    38889.747    78.058023 
   94700    1312.7821   -106.17323    1.1878328    -104.9854    11673.578    4.2727108    4.2727108    4.2727108    11673.578    28593.542    -32020.54    38447.733   -28204.384     10606.56   -19546.948    78.002852 
   94800    2314.4072   -107.07868    2.0941243   -104.98455   -13479.932    4.2806401    4.2806401    4.2806401   -13479.932   -11750.366   -14037.865   -14651.564   -14165.481    13308.086    33362.745    78.437936 
   94900    1814.5368   -106.62825    1.6418311   -104.98642   -14027.689    4.2806691    4.2806691    4.2806691   -14027.689   -15510.571   -10877.082   -15695.413   -2564.2775   -13306.818   -4526.1789    78.439526 
   95000    572.20686   -105.51709   0.51774479   -104.99934    30300.161    4.2767323    4.2767323    4.2767323    30300.161     53543.82   -12872.798    50229.461   -25172.073   -12212.571   -15805.336    78.223311 
   95100    2922.2148   -107.60665    2.6440814   -104.96256    -6016.974    4.2909127    4.2909127    4.2909127    -6016.974    4783.5519    6454.9789   -29289.453    1741.6284    12049.642    10723.602    79.003994 
   95200    697.98096   -105.61203   0.63154784   -104.98049   -2774.4205     4.306215     4.306215     4.306215   -2774.4205    4010.5844   -45367.796     33033.95   -41280.474    4432.6315   -25701.989    79.852245 
   95300    2002.9534   -106.74225    1.8123143   -104.92993    2848.7157    4.3000243    4.3000243    4.3000243    2848.7157    15439.307   -27199.873    20306.713    27204.238     4526.532   -8698.6203    79.508346 
   95400    1363.0176   -106.17436     1.233287   -104.94107    -10530.74     4.289707     4.289707     4.289707    -10530.74   -23256.573   -11025.129    2689.4812   -40079.745   -118.20089    11438.513    78.937414 
   95500    1732.1507   -106.51757    1.5672863   -104.95028   -22956.027    4.2840262    4.2840262    4.2840262   -22956.027   -39623.296   -1623.9454   -27620.839   -6718.5281   -4777.3768   -23285.609    78.624221 
   95600    2322.0822   -107.03953    2.1010688   -104.93846   -7747.0806    4.2787381    4.2787381    4.2787381   -7747.0806    15911.436   -19839.751   -19312.926   -5808.2537     20725.91    21207.068    78.333424 
   95700    1594.2032   -106.40856    1.4424685   -104.96609   -18267.044    4.2916973    4.2916973    4.2916973   -18267.044   -14345.158   -45308.309    4852.3343   -46487.123    601.49114    1480.0935     79.04734 
   95800    1783.8746   -106.56993    1.6140872   -104.95584   -13834.778    4.3061754    4.3061754    4.3061754   -13834.778   -24364.685    7745.6488   -24885.299    26096.009    -3089.144     -9549.47    79.850042 
   95900    1085.5269   -105.94123   0.98220756   -104.95903   -20604.161    4.2872054    4.2872054    4.2872054   -20604.161   -57417.212   -39717.543    35322.273   -68395.644   -2990.1574    17764.574    78.799392 
   96000    2100.9139   -106.83807     1.900951   -104.93712    37233.382    4.2610617    4.2610617    4.2610617    37233.382    9200.5597    39516.445    62983.141   -2942.0345   -2710.0973   -12114.156    77.366591 
   96100    1430.2771    -106.2774    1.2941448   -104.98326    2231.5997    4.2856851    4.2856851    4.2856851    2231.5997   -59063.596    1966.9874    63791.408   -43569.587   -3471.2801    2187.0799    78.715593 
   96200    1249.0847   -106.08006    1.1301981   -104.94986   -43858.417    4.3072137    4.3072137    4.3072137   -43858.417   -60376.234   -98345.613    27146.597   -44542.624    553.91564    18893.309    79.907817 
   96300    1854.1915    -106.6009    1.6777114   -104.92319    42358.084    4.2810704    4.2810704    4.2810704    42358.084     38572.62    51003.667    37497.965    4965.1699      100.893   -5777.2828    78.461588 
   96400    1407.8542   -106.22845    1.2738561   -104.95459    7480.6889    4.2824235    4.2824235    4.2824235    7480.6889   -19604.638    22443.851    19602.854   -49347.077    3079.9589    9704.4642     78.53601 
   96500    2314.3946   -107.02915    2.0941129   -104.93503   -43520.468    4.2939913    4.2939913    4.2939913   -43520.468   -6936.9068   -44906.356   -78718.139    17978.341    18578.488    41432.608    79.174163 
   96600    1509.7925   -106.30638     1.366092   -104.94028    18808.026    4.2731696    4.2731696    4.2731696    18808.026   -14006.986    32918.303    37512.761   -48049.407    -845.2916   -8783.1455    78.027984 
   96700    2047.2638   -106.81807    1.8524073   -104.96566   -6002.4554    4.2854063    4.2854063    4.2854063   -6002.4554    19154.951   -14044.305   -23118.012    -8257.552    9943.1025    15203.978    78.700233 
   96800    1245.5917   -106.09873    1.1270375    -104.9717    -7752.702    4.3027602    4.3027602    4.3027602    -7752.702   -26152.111    27666.853   -24772.848   -6128.6953   -5336.5881    31627.407    79.660205 
   96900    1819.2916   -106.60902    1.6461332   -104.96289     2492.066    4.2891424    4.2891424    4.2891424     2492.066   -48166.816    12635.084     43007.93   -43043.307   -4596.3509   -23916.699    78.906251 
   97000     1824.235   -106.60929    1.6506061   -104.95869    16455.719    4.2800059    4.2800059    4.2800059    16455.719    11478.554    73248.387   -35359.785    6445.5008    10352.469    21622.491    78.403076 
   97100    1207.9783   -106.07897    1.0930042   -104.98596   -13373.746    4.2909684    4.2909684    4.2909684   -13373.746    29952.987   -67807.207   -2267.0173   -49819.862   -4472.8891    1413.1996    79.007068 
   97200    2483.2582   -107.21346    2.2469042   -104.96656    -30047.59    4.2959484    4.2959484    4.2959484    -30047.59    -9891.087   -42386.325   -37865.357   -16823.325    13155.086   -5249.1046    79.282469 
   97300    1812.3625   -106.62562    1.6398637   -104.98575    25955.344    4.2619957    4.2619957    4.2619957    25955.344    84904.637    17061.364    -24099.97   -12052.643    15341.334    42449.833    77.417479 
   97400    1300.8009   -106.16642     1.176992   -104.98943    45790.831    4.2548211    4.2548211    4.2548211    45790.831    48073.011    62438.783    26860.699   -61820.822   -5703.2717   -19213.955    77.027163 
   97500    2377.6356   -107.13986    2.1513346   -104.98852   -3327.1419    4.2852249    4.2852249    4.2852249   -3327.1419    14309.406    17091.117   -41381.949    30830.781    124.63943     26817.89     78.69024 
   97600    1500.1038   -106.33677    1.3573255   -104.97944   -14432.868    4.2912568    4.2912568    4.2912568   -14432.868    24249.627   -29278.216   -38270.015   -30581.648    14336.486    34297.978    79.023002 
   97700    1411.6976   -106.23462    1.2773336   -104.95729    26436.847    4.2875058    4.2875058    4.2875058    26436.847    71954.457    55629.258   -48273.174    -22451.59   -21778.725   -28281.624    78.815958 
   97800    1791.9415    -106.5725    1.6213863   -104.95111   -28715.815    4.2899036    4.2899036    4.2899036   -28715.815   -32649.876    5265.6032   -58763.172   -10475.282   -4679.9182    24822.919    78.948268 
   97900    1219.2907    -106.0711    1.1032398   -104.96786   -4888.3878    4.2575024    4.2575024    4.2575024   -4888.3878   -440.12035   -30189.202    15964.159   -83602.261   -180.29039    400.88058    77.172882 
   98000    1901.3477   -106.70074    1.7203793   -104.98036    44835.012    4.2461193    4.2461193    4.2461193    44835.012    55849.399    101337.71   -22682.078    21620.116   -13496.995   -23292.687    76.555533 
   98100    1440.0573   -106.30498    1.3029941   -105.00198   -38744.509    4.2958337    4.2958337    4.2958337   -38744.509   -59582.393   -57844.176    1193.0411   -75629.459    660.28122    12690.355    79.276117 
   98200    1676.5509   -106.47167    1.5169785   -104.95469    -29827.87    4.2980738    4.2980738    4.2980738    -29827.87   -2129.2227   -75093.044   -12261.344    -49184.78   -4095.5151   -10535.317      79.4002 
   98300    1839.5243   -106.58208    1.6644403   -104.91764    29913.444    4.2748795    4.2748795    4.2748795    29913.444    29259.074    63364.192   -2882.9343    7674.4416    9710.0113   -8285.8224    78.121688 
   98400    1348.7208    -106.1693    1.2203509   -104.94895   -22345.627    4.2863651    4.2863651    4.2863651   -22345.627   -32882.294    -44232.14    10077.553   -56254.284    18900.431    557.93234    78.753069 
   98500    2223.8469   -106.96113    2.0121834   -104.94895   -14730.078    4.3002851    4.3002851    4.3002851   -14730.078     10402.34      4796.68   -59389.254    36026.915   -10072.504   -40236.179    79.522816 
   98600    1768.9033   -106.54609    1.6005408   -104.94555    -32842.13    4.3114832    4.3114832    4.3114832    -32842.13   -86389.206    2942.0149   -15079.198   -40367.547   -2402.6719    1768.9016    80.145678 
   98700     1991.227   -106.72093    1.8017041   -104.91922   -24561.458    4.3021572    4.3021572    4.3021572   -24561.458   -5333.8658   -18251.269   -50099.239    2857.6933    7972.8047   -34237.473    79.626721 
   98800    1798.6593      -106.54    1.6274648   -104.91253    19455.592    4.2720989    4.2720989    4.2720989    19455.592    6858.3666    67422.145   -15913.734    19725.041   -6506.1908   -22.982237    77.969348 
   98900      1379.07   -106.18216    1.2478115   -104.93435    27582.716    4.2601924    4.2601924    4.2601924    27582.716    26771.698     41117.27     14859.18   -28486.157   -1345.4074   -18382.805    77.319251 
   99000    1679.2682   -106.48053    1.5194372   -104.96109     19593.14    4.2769689    4.2769689    4.2769689     19593.14    63169.077    31383.542   -35773.199    3140.6753   -7060.0087   -51391.694    78.236294 
   99100    2035.0598   -106.80092    1.8413649   -104.95956    31641.968    4.2876306    4.2876306    4.2876306    31641.968   -4372.0567    102791.96   -3493.9962   -7576.9128    3938.5323     17921.19    78.822843 
   99200    1410.3458   -106.25122    1.2761105   -104.97511   -28050.067    4.2976444    4.2976444    4.2976444   -28050.067    5755.6687   -33504.622   -56401.248   -22710.392    1191.1346   -47375.635    79.376407 
   99300    2385.9163    -107.1061    2.1588272   -104.94727   -12138.529    4.2812436    4.2812436    4.2812436   -12138.529   -9580.0972    20307.994   -47143.485    7971.8979    5049.9056    24260.241    78.471113 
   99400    1441.3677   -106.24973    1.3041798   -104.94555    35404.659    4.2575635    4.2575635    4.2575635    35404.659    29592.687     80665.33   -4044.0402   -31173.993    6823.4516   -25868.379    77.176203 
   99500    1504.9539   -106.34026    1.3617139   -104.97855   -12771.226    4.2761385    4.2761385    4.2761385   -12771.226    42162.375   -56425.231   -24050.821   -18535.933   -11882.863    -27094.96    78.190735 
   99600    1787.0592   -106.60183    1.6169687   -104.98487   -9162.4407    4.2711723    4.2711723    4.2711723   -9162.4407    9635.8264   -5776.7088    -31346.44    18948.518   -22379.565    47982.721    77.918621 
   99700    1575.8575   -106.41824     1.425869   -104.99237    34135.561    4.2627202    4.2627202    4.2627202    34135.561    65739.415    16975.779    19691.489   -36408.004    18121.891   -23739.443    77.456968 
   99800    1656.7082   -106.49643    1.4990244    -104.9974    -15413.98    4.2823502    4.2823502    4.2823502    -15413.98    14658.961    -34770.27   -26130.632   -8295.9736   -17867.378    2856.1547    78.531977 
   99900    1750.6215    -106.5668    1.5839992   -104.98281    18342.174    4.2685315    4.2685315    4.2685315    18342.174    20166.679    35565.097   -705.25291    7271.4778    -7265.323    19786.758    77.774185 
  100000    1115.6846   -106.00338    1.0094949   -104.99389    30295.651    4.2642985    4.2642985    4.2642985    30295.651    59160.249    7195.1184    24531.587   -37441.155    20464.657   -14092.863    77.543035 
Loop time of 22.8067 on 1 procs for 100000 steps with 8 atoms

Pair  time (%) = 7.39136 (32.4087)
Kspce time (%) = 5.36514 (23.5244)
Neigh time (%) = 0.138816 (0.608661)
Comm  time (%) = 1.13538 (4.97828)
Outpt time (%) = 0.0249257 (0.109291)
Other time (%) = 8.75111 (38.3707)

Nlocal:    8 ave 8 max 8 min
Histogram: 1 0 0 0 0 0 0 0 0 0
Nghost:    2147 ave 2147 max 2147 min
Histogram: 1 0 0 0 0 0 0 0 0 0
Neighs:    2308 ave 2308 max 2308 min
Histogram: 1 0 0 0 0 0 0 0 0 0

Total # of neighbors = 2308
Ave neighs/atom = 288.5
Neighbor list builds = 1586
Dangerous builds = 0
unfix 20
unfix 21
print "seeds:74519"
seeds:74519
