LAMMPS (10 Feb 2015)
# ---- initialize simulations
clear
units metal
dimension 3
boundary p p p
atom_style charge
atom_modify map array
# ---- create atoms
read_data /Users/eugeneragasa/pyflamestk_git/pypospack/tests/tests_integration/workflow/WorkflowLammpsThermalExpansion/param_5378/MgO_NaCl_unit.npt.T1400/lammps.structure
  triclinic box = (0 0 0) to (4.2565 4.2565 4.2565) with tilt (0 0 0)
  1 by 1 by 1 MPI processor grid
  reading atoms ...
  8 atoms
# ---- define interatomic potential
include potential.mod
mass 1 24.305
mass 2 15.999

group Mg type 1
4 atoms in group Mg
group O type 2
4 atoms in group O

set group Mg charge 1.67557694923
  4 settings made for charge
set group O charge -1.67557694923
  4 settings made for charge

variable R_cut equal 10.0

pair_style buck/coul/long ${R_cut}
pair_style buck/coul/long 10
pair_coeff 1 1 0.0 0.5 0.0 ${R_cut}
pair_coeff 1 1 0.0 0.5 0.0 10
pair_coeff 1 2 1405.50211521 0.282257384366 0.0 ${R_cut}
pair_coeff 1 2 1405.50211521 0.282257384366 0.0 10
pair_coeff 2 2 19860.1058829 0.143671361936 6.84969713079 ${R_cut}
pair_coeff 2 2 19860.1058829 0.143671361936 6.84969713079 10

kspace_style pppm 1.0e-5

neighbor 1.0 bin
neigh_modify every 1 delay 0 check yes
# ---- define settings
compute eng all pe/atom
compute eatoms all reduce sum c_eng
# ---- run minimization
reset_timestep 0
fix 1 all box/relax iso 0.0 vmax 0.001
thermo 10
thermo_style custom step pe lx ly lz xy xz yz press pxx pyy pzz pxy pxz pyz c_eatoms
min_style cg
minimize 1e-25 1e-25 5000 10000
PPPM initialization ...
  G vector (1/distance) = 0.352969
  grid = 8 8 8
  stencil order = 5
  estimated absolute RMS force accuracy = 4.01483e-05
  estimated relative force accuracy = 2.78815e-06
  using double precision FFTs
  3d grid and FFT values/proc = 3375 512
Neighbor list info ...
  1 neighbor list requests
  update every 1 steps, delay 0 steps, check yes
  master list distance cutoff = 11
Memory usage per processor = 4.06549 Mbytes
Step PotEng Lx Ly Lz Xy Xz Yz Press Pxx Pyy Pzz Pxy Pxz Pyz eatoms 
       0   -115.02334       4.2565       4.2565       4.2565            0            0            0    14836.064    14836.064    14836.064    14836.064 5.7083842e-11 -5.8546636e-11 3.613515e-11   -115.02334 
       4   -115.02629     4.268627     4.268627     4.268627            0            0            0   -3.7663252   -3.7663252   -3.7663252   -3.7663252 5.5364648e-11 -5.1262271e-11 1.3911233e-11   -115.02629 
Loop time of 0.00717211 on 1 procs for 4 steps with 8 atoms

Minimization stats:
  Stopping criterion = linesearch alpha is zero
  Energy initial, next-to-last, final = 
        -115.023341276       -115.0262927       -115.0262927
  Force two-norm initial, final = 2.14234 0.00179672
  Force max component initial, final = 2.14234 0.000546963
  Final line search alpha, max atom move = 0.00390625 2.13657e-06
  Iterations, force evaluations = 4 21

Pair  time (%) = 0.00192952 (26.9031)
Kspce time (%) = 0.00117302 (16.3553)
Neigh time (%) = 0 (0)
Comm  time (%) = 0.000220537 (3.07493)
Outpt time (%) = 0 (0)
Other time (%) = 0.00384903 (53.6666)

Nlocal:    8 ave 8 max 8 min
Histogram: 1 0 0 0 0 0 0 0 0 0
Nghost:    2189 ave 2189 max 2189 min
Histogram: 1 0 0 0 0 0 0 0 0 0
Neighs:    2344 ave 2344 max 2344 min
Histogram: 1 0 0 0 0 0 0 0 0 0

Total # of neighbors = 2344
Ave neighs/atom = 293
Neighbor list builds = 0
Dangerous builds = 0
unfix 1
# ---- define output variables ----
variable natoms equal "count(all)"
variable tot_energy equal "c_eatoms"
variable length_x equal "lx"
variable length_y equal "ly"
variable length_z equal "lz"
variable tilt_xy equal "xy"
variable tilt_xz equal "xz"
variable tilt_yz equal "yz"
variable tot_press equal "press"
variable press_xx equal "pxx"
variable press_yy equal "pyy"
variable press_zz equal "pzz"
variable press_xy equal "pxy"
variable press_xz equal "pxz"
variable press_yz equal "pyz"

# ---- output ----
print "pypospack:output_section:begin"
pypospack:output_section:begin
print "tot_energy = ${tot_energy}"
tot_energy = -115.026292700229
print "num_atoms = ${natoms}"
num_atoms = 8
print "xx = ${length_x}"
xx = 4.26862697136346
print "yy = ${length_y}"
yy = 4.26862697136346
print "zz = ${length_z}"
zz = 4.26862697136346
print "xy = ${tilt_xy}"
xy = 0
print "xz = ${tilt_xz}"
xz = 0
print "yz = ${tilt_yz}"
yz = 0
print "tot_press = ${tot_press}"
tot_press = -3.7663252179344
print "pxx = ${press_xx}"
pxx = -3.76632521787482
print "pyy = ${press_yy}"
pyy = -3.76632521789834
print "pzz = ${press_zz}"
pzz = -3.76632521803003
print "pxy = ${press_xy}"
pxy = 5.53646482695888e-11
print "pxz = ${press_xz}"
pxz = -5.12622707696674e-11
print "pyz = ${press_yz}"
pyz = 1.39112332535826e-11
print "pypospack:output_section:done"
pypospack:output_section:done
print "pypospack:lammps_sim:done"
pypospack:lammps_sim:done
#------------------------------------------------------------------------------
# RUN THERMOSTAT
# running using an NPT Nose-Hoover style thermostat
#------------------------------------------------------------------------------
variable tempdamp equal 0.1
variable pressdamp equal 1.0
# set initial velocities
velocity all create 1400 7972664 mom yes dist gaussian loop all
# fix for Nose-Hoover style thermostat
fix 20 all npt temp 1400 1400 0.1 aniso 0.0 0.0 1.0 drag 1.0 couple xyz
variable boxx equal lx
variable boxy equal ly
variable boxz equal lz
variable boxp equal press
variable boxt equal temp
# calculate averages every 10000 steps
reset_timestep 0
fix 21 all ave/time 10 10 100 v_boxx v_boxy v_boxz v_boxp v_boxt file lattice.out
thermo_style custom step temp pe ke etotal press lx ly lz press pxx pyy pzz pxy pxz pyz vol
thermo_modify flush yes
thermo 100
run 100000
PPPM initialization ...
  G vector (1/distance) = 0.352845
  grid = 8 8 8
  stencil order = 5
  estimated absolute RMS force accuracy = 4.03767e-05
  estimated relative force accuracy = 2.80401e-06
  using double precision FFTs
  3d grid and FFT values/proc = 3375 512
Memory usage per processor = 3.06549 Mbytes
Step Temp PotEng KinEng TotEng Press Lx Ly Lz Press Pxx Pyy Pzz Pxy Pxz Pyz Volume 
       0         1400    -115.0263    1.2667494   -113.75955    17391.604     4.268627     4.268627     4.268627    17391.604    17048.916    19555.794    15570.103   -4114.4207   -8768.4533    7660.3153    77.779404 
     100    552.25218   -114.09586   0.49968938   -113.59617   -9680.5053    4.2877092    4.2877092    4.2877092   -9680.5053   -8478.1475   -9947.7013   -10615.667    10838.409    11432.581   -14213.473    78.827177 
     200    714.15363   -113.88884   0.64618122   -113.24266   -22693.684    4.2962438    4.2962438    4.2962438   -22693.684   -23417.544   -34709.727   -9953.7823    23023.564     15209.44   -25295.296    79.298823 
     300     1596.637   -114.38373    1.4446707   -112.93906    30899.922    4.2993492    4.2993492    4.2993492    30899.922    49458.372    30259.718    12981.676   -6109.9228   -345.69298    9940.6489    79.470905 
     400    1274.8335   -113.87575    1.1534961   -112.72225   -9190.6086    4.3034564    4.3034564    4.3034564   -9190.6086    -12797.63   -16926.105    2151.9091   -1604.4752   -2213.5318     7938.718    79.698883 
     500    909.77599   -113.37087   0.82318443   -112.54769    27576.258    4.2922159    4.2922159    4.2922159    27576.258    62904.235    9425.7296     10398.81     26196.62    14810.408   -29652.867    79.075996 
     600    1722.2979   -114.02641    1.5583713   -112.46804    5584.0516    4.3112824    4.3112824    4.3112824    5584.0516   -3857.7257    16669.241    3940.6397    -2420.328    4090.0402    21890.034    80.134479 
     700    1591.9611   -113.87655    1.4404398   -112.43611   -7570.8353    4.3113731    4.3113731    4.3113731   -7570.8353    11154.549   -30559.032   -3308.0227   -11772.546   -4684.6985    20464.133    80.139534 
     800    1310.5271   -113.61526    1.1857925   -112.42947    19891.191    4.2984767    4.2984767    4.2984767    19891.191    38030.941    24316.211   -2673.5783    12542.726    16900.906    -38325.56    79.422532 
     900    1509.4188   -113.80403    1.3657539   -112.43827   -42566.175    4.3197444    4.3197444    4.3197444   -42566.175   -10552.572   -52697.936   -64448.016   -7186.7601     17944.01    28089.848    80.607259 
    1000    1652.2325   -113.92479    1.4949747   -112.42981   -18274.166    4.3140186    4.3140186    4.3140186   -18274.166    14188.903   -20310.197   -48701.205   -456.69477    3126.4729    34190.694    80.287152 
    1100    1658.2337   -113.92582    1.5004047   -112.42541    3398.0927    4.2949228    4.2949228    4.2949228    3398.0927    14136.673    1391.0199   -5333.4151    5684.7578    5480.7255   -43479.933    79.225699 
    1200    1019.0789   -113.36803   0.92208399   -112.44594   -33037.937    4.3060215    4.3060215    4.3060215   -33037.937    15709.371   -55640.686   -59182.496    5106.0658    21738.335     42676.07    79.841483 
    1300    1945.2334   -114.19559    1.7600881    -112.4355   -11282.313    4.3140352    4.3140352    4.3140352   -11282.313   -7523.5669   -3791.3608   -22532.011   -20097.639    6587.4169    25535.384    80.288078 
    1400    1579.0267   -113.86828    1.4287365   -112.43955   -28651.466    4.3168273    4.3168273    4.3168273   -28651.466   -18104.323   -29713.191   -38136.884    8593.0908   -3219.8205   -19301.529    80.444068 
    1500    892.81249   -113.25786    0.8078355   -112.45002   -15549.186    4.3024418    4.3024418    4.3024418   -15549.186    39801.216   -42172.764   -44276.009     15026.15     6595.522    56975.009    79.642521 
    1600    1671.6407   -113.95457    1.5125356   -112.44204    23491.495    4.2914199    4.2914199    4.2914199    23491.495    -14136.61    58567.684     26043.41   -25705.828   -992.55553    18749.946    79.032011 
    1700    1307.4917   -113.64111     1.183046   -112.45806   -3983.8013    4.3112423    4.3112423    4.3112423   -3983.8013    -33185.38    12084.707    9149.2696   -7503.0505   -4322.2827    11767.274    80.132244 
    1800    1055.8284   -113.39736   0.95533568   -112.44202   -17586.419    4.3275928    4.3275928    4.3275928   -17586.419    330.17599   -26846.748   -26242.685    14696.248    3722.8887    44908.692    81.047416 
    1900    1226.6194   -113.53248     1.109871   -112.42261   -1749.9934    4.3177609    4.3177609    4.3177609   -1749.9934    -19574.81   -8777.9199    23102.749    -40758.07    7085.7932    4524.9404    80.496272 
    2000    1125.8913   -113.43496    1.0187301   -112.41623    12375.692    4.2995728    4.2995728    4.2995728    12375.692   -10065.623   -4958.3588    52151.058    -29358.93   -3751.3327    13887.024    79.483307 
    2100    1199.2608   -113.51276    1.0851164   -112.42764    11310.985    4.3016585    4.3016585    4.3016585    11310.985    37334.535   -11019.758    7618.1792    11987.326    1984.0269    51967.161    79.599031 
    2200    1033.8967   -113.37801   0.93549146   -112.44252    788.27922    4.3202584    4.3202584    4.3202584    788.27922   -5446.7427   -24809.285    32620.865    -37329.99    13241.753   -5781.5454    80.636033 
    2300    1440.6295   -113.72717    1.3035118   -112.42365   -18826.768    4.3258785    4.3258785    4.3258785   -18826.768   -7083.4894   -37581.044    -11815.77   -30752.187    12018.125   -1202.6342    80.951138 
    2400     1122.868   -113.44822    1.0159945   -112.43222    12725.291    4.2970167    4.2970167    4.2970167    12725.291    55172.374   -11440.114   -5556.3857    6824.7971   -10150.918    45494.121    79.341631 
    2500    1278.8046   -113.59866    1.1570893   -112.44157    5437.7173    4.2821104    4.2821104    4.2821104    5437.7173   -10514.513   -20569.839    47397.504   -50393.865    2957.2935   -828.57891    78.518788 
    2600     1554.222    -113.8676    1.4062927   -112.46131   -127.41424    4.3065848    4.3065848    4.3065848   -127.41424    15479.877   -14635.171    -1226.949   -12189.899   -124.75684   -8546.3765    79.872819 
    2700    1724.0264   -114.01484    1.5599354    -112.4549   -30798.856    4.3193718    4.3193718    4.3193718   -30798.856    -13413.88   -31811.556   -47171.132    16317.386   -2535.1867    27554.726    80.586399 
    2800    1067.7463   -113.42461   0.96611926   -112.45849   -3387.5471     4.292259     4.292259     4.292259   -3387.5471   -21029.416   -21765.913    32632.688    -67268.24   -16394.671    13039.504    79.078381 
    2900    1580.6157   -113.88692    1.4301743   -112.45675    15536.471    4.2856287    4.2856287    4.2856287    15536.471     4105.798    -1414.832    43918.448   -12023.358   -8536.4465   -7862.9653    78.712483 
    3000    1831.8489   -114.11459    1.6574954   -112.45709   -11470.439    4.3114838    4.3114838    4.3114838   -11470.439    7102.3291   -26266.773   -15246.873    17597.643    5300.2241   -8947.4027    80.145707 
    3100    874.87546    -113.2577    0.7916057    -112.4661   -7644.4748    4.3128097    4.3128097    4.3128097   -7644.4748    17123.332   -58142.214    18085.458   -60898.516    -14476.58    4459.0373    80.219671 
    3200    1377.6616   -113.70934    1.2465372    -112.4628    13628.082    4.2930701    4.2930701    4.2930701    13628.082   -20888.327    42824.047    18948.526   -28591.671   -21741.192   -6732.6321    79.123217 
    3300    1949.8166   -114.21548    1.7642351   -112.45125    35465.147    4.2809016    4.2809016    4.2809016    35465.147     35907.87    31567.847    38919.725    8844.9607   -4241.9438   -15677.918    78.452309 
    3400    731.98615   -113.15124   0.66231645   -112.48892    541.22668    4.3058391    4.3058391    4.3058391    541.22668   -37453.529   -20468.946    59546.155   -56133.528   -541.71267   -5777.2898    79.831333 
    3500    1175.1941   -113.51193    1.0633403   -112.44859    -24890.77    4.3277623    4.3277623    4.3277623    -24890.77   -30645.808   -30780.684   -13245.818   -8756.2346   -28625.756    7174.9422    81.056937 
    3600    1771.5345   -114.02739    1.6029216   -112.42447    15158.213    4.2974368    4.2974368    4.2974368    15158.213   -621.02849    23096.992    22998.676   -9036.9723   -12135.348    2083.5164    79.364906 
    3700    1220.3634   -113.53605    1.1042104   -112.43184     15701.84    4.2867372    4.2867372    4.2867372     15701.84    -10756.87   -27577.269    85439.657   -58528.068    2530.1506   -13685.061    78.773578 
    3800      1352.78   -113.66673    1.2240238    -112.4427   -12177.776    4.3041328    4.3041328    4.3041328   -12177.776   -22686.634   -14542.063    695.37037    8289.2184   -30778.188    14325.719    79.736466 
    3900    1064.3423   -113.41555   0.96303931   -112.45251    16237.539    4.3057707    4.3057707    4.3057707    16237.539    3455.5523    7853.4933     37403.57    -527.9032   -25767.927    25113.563    79.827529 
    4000     1469.119   -113.77685    1.3292897   -112.44756    4113.6576    4.3109705    4.3109705    4.3109705    4113.6576   -13602.613   -31017.127    56960.712   -45626.724    7109.5962   -1806.1134    80.117086 
    4100    1358.9016   -113.66822    1.2295627   -112.43865    9129.1172     4.305707     4.305707     4.305707    9129.1172    5605.0724    9357.9651    12424.314    16650.157   -40042.351   -2217.9301    79.823986 
    4200    1005.1974    -113.3502   0.90952369   -112.44067    21673.166    4.2961562    4.2961562    4.2961562    21673.166   -4849.2306    43520.927      26347.8   -9192.2867    -19839.03    22438.537    79.293974 
    4300    1640.0723   -113.91843    1.4839719   -112.43446   -10725.268    4.3150263    4.3150263    4.3150263   -10725.268   -27291.406   -22333.922    17449.523   -29111.841    6214.8724    9814.5531    80.343427 
    4400    1244.2532   -113.56816    1.1258264   -112.44234   -11002.174    4.3071151    4.3071151    4.3071151   -11002.174   -15802.608    14484.667    -31688.58    13073.407   -37624.802   -8998.0012    79.902328 
    4500    1192.6559   -113.51947    1.0791401   -112.44033    15449.983    4.2831981    4.2831981    4.2831981    15449.983    22370.549    27615.218   -3635.8179    2763.2593   -25582.757    4327.7276    78.578638 
    4600    2031.6955   -114.28219    1.8383208   -112.44387   -4791.4727    4.3013917    4.3013917    4.3013917   -4791.4727   -13151.431   -5346.7341    4123.7474   -15006.687    14546.229    8223.3662    79.584224 
    4700    1088.3879   -113.43832   0.98479628   -112.45352   -35950.067    4.3154801    4.3154801    4.3154801   -35950.067   -49743.017    11809.446   -69916.629   -4594.6277   -3608.6575   -14255.187    80.368776 
    4800    1182.3716    -113.5203    1.0698347   -112.45046    5819.1851    4.2983494    4.2983494    4.2983494    5819.1851    18323.853    18095.368   -18961.665    29946.137   -20842.209   -3196.2486    79.415474 
    4900      2370.82   -114.58656    2.1451678   -112.44139    17514.347    4.2913039    4.2913039    4.2913039    17514.347    34688.221    20434.469   -2579.6491   -1209.9147     16618.64   -5687.9318    79.025602 
    5000    1269.2885   -113.61757    1.1484789   -112.46909    14431.314    4.2916906    4.2916906    4.2916906    14431.314    43018.522     42848.95    -42573.53   -10034.967   -19315.708   -10520.634    79.046966 
    5100    1330.5833    -113.6845    1.2039397   -112.48056   -26197.843    4.3097422    4.3097422    4.3097422   -26197.843   -22278.918   -9547.6604    -46766.95    15215.013   -11412.117   -12331.287    80.048628 
    5200    1912.5956   -114.18878    1.7305567   -112.45822   -528.57012     4.305584     4.305584     4.305584   -528.57012    8162.8891   -4786.0514    -4962.548     9174.821    7947.2858    7426.7854    79.817148 
    5300    1149.0907   -113.49752    1.0397214    -112.4578    11394.887    4.2795422    4.2795422    4.2795422    11394.887     15070.03    32519.427   -13404.797   -15534.313   -17012.851    6566.7636    78.377596 
    5400    1175.6321   -113.53842    1.0637367   -112.47468   -5288.1536    4.2969898    4.2969898    4.2969898   -5288.1536    -3526.938     17962.27   -30299.793    3168.5751   -10608.244   -19406.743    79.340142 
    5500    1972.5711   -114.22959    1.7848238   -112.44477   -10717.135    4.3139674    4.3139674    4.3139674   -10717.135   -10319.316   -171.10866   -21660.982    16545.413    2598.5035    15004.254    80.284289 
    5600    642.67092    -113.0395   0.58150215   -112.45799   -21300.629     4.309087     4.309087     4.309087   -21300.629   -39186.863   -6216.8119   -18498.211   -18874.887   -7151.0063    27487.726    80.012123 
    5700    1213.7431   -113.55297    1.0982203   -112.45475   -13939.995    4.2966611    4.2966611    4.2966611   -13939.995   -44156.556    13712.541   -11375.971   -109.17227   -20968.739    -3854.552    79.321934 
    5800    2009.5273   -114.26636    1.8182626   -112.44809    26722.203      4.28042      4.28042      4.28042    26722.203    31158.929    18553.396    30454.284    12976.468    10281.358    3540.0351    78.425836 
    5900    989.49652   -113.37614   0.89531724   -112.48082   -8093.9796     4.297498     4.297498     4.297498   -8093.9796   -11249.163    5822.0858   -18854.861    1465.4723    -17414.31    25317.832    79.368294 
    6000     1322.459   -113.66502    1.1965887   -112.46843   -16896.502    4.3138147    4.3138147    4.3138147   -16896.502   -33225.618    14849.431   -32313.319   -26356.339   -26969.731    -1777.103    80.275765 
    6100    1707.1856   -113.99351    1.5446974   -112.44881    -8292.776    4.3069994    4.3069994    4.3069994    -8292.776   -22395.343   -28630.128    26147.144    40304.827    13840.358   -3746.2273     79.89589 
    6200    954.41095   -113.31868   0.86357109   -112.45511   -10477.169    4.2923117    4.2923117    4.2923117   -10477.169    5788.7561    -6078.483   -31141.782    18238.863   -28011.259    24691.678    79.081291 
    6300    1711.3365   -114.00075    1.5484532   -112.45229    1022.1104    4.2811832    4.2811832    4.2811832    1022.1104    26514.931    9491.9549   -32940.554    -12292.85    -25711.23    17205.311    78.467791 
    6400    1621.5768   -113.93127    1.4672368   -112.46403   -14467.748    4.3012474    4.3012474    4.3012474   -14467.748   -36035.652   -22664.209    15296.618    49263.134    19604.784    -7636.274    79.576212 
    6500    898.52095   -113.27952   0.81300064   -112.46652   -49965.016    4.3100073    4.3100073    4.3100073   -49965.016   -58535.632   -42493.614   -48865.802    32750.671   -16351.615    28481.613    80.063397 
    6600    1255.6124   -113.59317    1.1361045   -112.45706    9199.1984    4.2888891    4.2888891    4.2888891    9199.1984   -2128.1343    62679.057   -32953.328   -18325.906   -27443.252    20116.732    78.892268 
    6700    1687.5013    -113.9795    1.5268866   -112.45261   -321.47227    4.2935738    4.2935738    4.2935738   -321.47227   -37797.851      19246.6    17586.834    21014.061    11445.882   -6500.8771    79.151073 
    6800    752.07198   -113.14379   0.68049053   -112.46329   -7883.7802    4.3102123    4.3102123    4.3102123   -7883.7802   -36698.924    36961.829   -23914.245     21349.27    5041.8861    18081.852    80.074823 
    6900    1829.1592   -114.09636    1.6550617    -112.4413   -16608.269     4.312202     4.312202     4.312202   -16608.269   -12733.195   -5570.1529    -31521.46   -9994.3513   -17426.083    18839.239    80.185767 
    7000    1215.1741   -113.55144    1.0995151   -112.45193    13797.883    4.2859337    4.2859337    4.2859337    13797.883   -33792.462    29222.424    45963.688   -8235.1682    9014.6215   -9091.5166    78.729293 
    7100    947.33133   -113.32808   0.85716529   -112.47091    15205.173    4.2817597    4.2817597    4.2817597    15205.173     -5594.23    45995.422    5214.3277    33127.595    22896.334   -4480.1678    78.499495 
    7200    1997.8483   -114.27093    1.8076951   -112.46324    6731.3184    4.3026561    4.3026561    4.3026561    6731.3184    8773.6944    22628.036   -11207.775   -431.22149   -1189.9538    6787.3326    79.654424 
    7300    1526.9832   -113.84669    1.3816465   -112.46505   -4833.4616    4.3041731    4.3041731    4.3041731   -4833.4616   -30748.736    3252.4434    12995.908   -20804.189    6411.2685    3313.8982    79.738704 
    7400    998.38712   -113.36659   0.90336165   -112.46323   -28800.465    4.3067334    4.3067334    4.3067334   -28800.465   -24764.466   -55406.138   -6230.7914    34792.109    24108.784   -13319.769    79.881086 
    7500    1973.0249   -114.23204    1.7852344    -112.4468    10253.808    4.2902652    4.2902652    4.2902652    10253.808    8365.8948    25323.626   -2928.0959     10628.67    -4858.207   -673.74848    78.968231 
    7600    1361.8017   -113.68929    1.2321868    -112.4571    24065.861    4.2842454    4.2842454    4.2842454    24065.861    2614.5811    65738.669    3844.3331   -33315.713   -25638.383    7117.2234    78.636289 
    7700    1069.6541   -113.43684   0.96784549   -112.46899   -8732.2526     4.305727     4.305727     4.305727   -8732.2526   -37613.502    15105.363   -3688.6192    38959.519    21743.094    1332.2461    79.825102 
    7800    1483.8653   -113.79608    1.3426325   -112.45345    204.80147    4.3073232    4.3073232    4.3073232    204.80147   -23556.864    56531.023   -32359.754    20368.426   -18085.199   -3465.4599    79.913909 
    7900    1498.8203   -113.80925    1.3561641   -112.45309   -4441.7521     4.293521     4.293521     4.293521   -4441.7521   -21465.261     28214.09   -20074.085   -17157.544   -39037.997     5200.841    79.148153 
    8000    1569.5273   -113.87712    1.4201413   -112.45698   -2090.1306    4.2864017    4.2864017    4.2864017   -2090.1306   -43756.214    17750.962     19734.86     30072.32    31778.471    5289.7861    78.755088 
    8100    716.13281   -113.12315   0.64797201   -112.47518    9829.5736    4.2961587    4.2961587    4.2961587    9829.5736   -35581.271    62394.592       2675.4    24626.118    -37547.53   -2381.7937    79.294115 
    8200    1437.3076   -113.77131    1.3005061    -112.4708   -18040.314    4.3141497    4.3141497    4.3141497   -18040.314   -67797.424    46442.543   -32766.062   -9974.6046   -43887.098   -3664.9568    80.294469 
    8300    2097.5705   -114.34872    1.8979258    -112.4508     15913.22    4.2971449    4.2971449    4.2971449     15913.22    -4490.409     25620.87    26609.199    2815.7569     16268.61     -5063.79    79.348731 
    8400    949.61098   -113.32912   0.85922797    -112.4699   -5604.4418    4.2881067    4.2881067    4.2881067   -5604.4418   -47227.075    43784.469    -13370.72    29957.495    -61939.51    3590.7149    78.849102 
    8500    1104.6177   -113.47422   0.99948134   -112.47474   -15063.953    4.2986346    4.2986346    4.2986346   -15063.953   -32600.545    6043.0677   -18634.382    -3489.675   -33446.491    -4722.663    79.431285 
    8600    1919.9093   -114.20389    1.7371743   -112.46672    9929.2299    4.2964007    4.2964007    4.2964007    9929.2299   -1206.6784    4179.3673    26815.001   -32049.761    22616.655   -653.53742    79.307514 
    8700    1235.7305   -113.59577     1.118115   -112.47765   -11376.155    4.2983348    4.2983348    4.2983348   -11376.155    -47882.36    36085.597   -22331.701    12030.313   -50291.609    -11097.89    79.414669 
    8800     1227.883   -113.58467    1.1110143   -112.47366    -3176.999    4.2946355    4.2946355    4.2946355    -3176.999   -13621.761   -6688.9709    10779.735    39965.662   -32390.245    3370.0863    79.209802 
    8900    1723.0277    -114.0244    1.5590316   -112.46537    3204.8501    4.2950389    4.2950389    4.2950389    3204.8501   -10186.945   -6002.4581    25803.953   -14687.316    28834.567   -8767.4036    79.232123 
    9000     1235.853   -113.58383    1.1182258    -112.4656    12642.473    4.2986476    4.2986476    4.2986476    12642.473    11283.743    44632.358   -17988.683   -16236.987   -22387.546   -5002.8355    79.432008 
    9100    767.96891    -113.1714   0.69487441   -112.47652   -21264.854    4.3015762    4.3015762    4.3015762   -21264.854   -47875.552   -23142.012    7223.0006     44509.45   -39177.487    6677.5963    79.594461 
    9200    1519.0836   -113.83824    1.3744988   -112.46374    7931.9379    4.2950052    4.2950052    4.2950052    7931.9379   -11834.343   -1489.8356    37119.993    28968.542    7295.6221   -4069.8424    79.230258 
    9300     2071.679   -114.33083    1.8744987   -112.45633    15412.445    4.2941779    4.2941779    4.2941779    15412.445    53287.156    6546.5745   -13596.396   -18252.612   -14142.925     1516.509    79.184483 
    9400    652.36351    -113.0784   0.59027221   -112.48813   -38043.183    4.3045951    4.3045951    4.3045951   -38043.183   -67140.615   -27518.374    -19470.56    55809.076   -30370.111    1086.5986    79.762163 
    9500    1145.6047   -113.51696    1.0365672   -112.48039   -3197.0108     4.295424     4.295424     4.295424   -3197.0108    5663.2618   -15110.214   -144.08052    26985.331    5538.0506    6572.6684    79.253439 
    9600    2117.2059   -114.38296    1.9156924   -112.46726    10882.141    4.2938527    4.2938527    4.2938527    10882.141    33340.121    1097.5879   -1791.2845   -40461.036    18753.159   -4564.8918    79.166495 
    9700    1352.1404   -113.70392    1.2234451   -112.48048   -6602.7604    4.2923382    4.2923382    4.2923382   -6602.7604   -4537.5934   -29262.463    13991.775    43106.884   -9181.3398    -434.9206    79.082755 
    9800    1305.5928   -113.66589    1.1813278   -112.48456    7637.7376    4.2938244    4.2938244    4.2938244    7637.7376    9739.1378    17096.242   -3922.1668    44198.428   -28492.291    3959.1279     79.16493 
    9900    1846.2716   -114.14041    1.6705454   -112.46986   -18319.569    4.3055805    4.3055805    4.3055805   -18319.569   -30083.092     3035.571   -27911.187   -41484.114    5378.7635   -9236.9725    79.816954 
   10000     1297.711   -113.64572    1.1741961   -112.47152    1817.5959    4.2906867    4.2906867    4.2906867    1817.5959   -25830.609    5811.0555    25472.341    11825.019    15582.275    4386.0222     78.99151 
   10100    941.01871   -113.33316   0.85145351   -112.48171    -3718.709    4.2898733    4.2898733    4.2898733    -3718.709   -40503.228    36879.173   -7532.0725    48843.606   -45062.183   -550.79686    78.946595 
   10200    1730.2287   -114.04127    1.5655473   -112.47572   -8197.5155    4.3000843    4.3000843    4.3000843   -8197.5155   -29277.705     33067.67   -28382.512   -13312.914   -35255.676    3923.3882    79.511679 
   10300     1949.725   -114.23529    1.7641522   -112.47114    11869.119    4.2957483    4.2957483    4.2957483    11869.119   -6302.5072    18139.074     23770.79   -2076.3265    16172.709    3446.4348    79.271394 
   10400    832.22974   -113.24589   0.75301896   -112.49287   -21838.472    4.2964598    4.2964598    4.2964598   -21838.472   -63570.559    9288.9067   -11233.764    36704.623   -44536.094   -3660.9231    79.310787 
   10500     833.2839   -113.24663   0.75397278   -112.49266   -15507.678    4.2965114    4.2965114    4.2965114   -15507.678   -38373.376    26989.078   -35138.737    12725.059   -33477.363    10382.318    79.313645 
   10600    2049.2479   -114.32319    1.8542026   -112.46899    9661.1199    4.2991271    4.2991271    4.2991271    9661.1199   -3812.7501   -1552.6645    34348.774   -9919.5617     29711.48   -8249.8538    79.458591 
   10700    1234.7466   -113.59037    1.1172247   -112.47315   -14734.114    4.3093831    4.3093831    4.3093831   -14734.114    -33679.33   -14234.382    3711.3687    22185.338   -39088.641    5407.8914    80.028614 
   10800    989.07512   -113.37222   0.89493595   -112.47729   -12380.061    4.2939276    4.2939276    4.2939276   -12380.061   -32267.158    4917.2463    -9790.271    23227.321   -56418.221    1643.2522     79.17064 
   10900    1800.8783   -114.09213    1.6294725   -112.46266     35044.43    4.2817697    4.2817697    4.2817697     35044.43    52426.713     11332.77    41373.807   -10892.121      15401.5    5036.0315    78.500044 
   11000    1475.0434   -113.81453    1.3346503   -112.47988   -4502.5512    4.3010167    4.3010167    4.3010167   -4502.5512     -34867.8    22701.567   -1341.4201   -18915.826    -5081.093    4980.4885    79.563409 
   11100    1056.4934   -113.43043   0.95593743   -112.47449   -31569.271    4.3074086    4.3074086    4.3074086   -31569.271   -49541.236   -2849.9731   -42316.604    25132.565   -57549.437    2819.4608    79.918665 
   11200    1864.7443   -114.14702    1.6872599   -112.45976    8826.2615    4.3012458    4.3012458    4.3012458    8826.2615    48437.179   -23202.485      1244.09     17327.49    7658.1829    1693.4187    79.576127 
   11300    2048.3699    -114.3169    1.8534081   -112.46349    5897.8713     4.286947     4.286947     4.286947    5897.8713    13641.624    21546.055   -17494.065   -19269.345   -11979.777   -8462.2734    78.785143 
   11400    939.75824   -113.33195   0.85031301   -112.48164   -854.40166    4.2819432    4.2819432    4.2819432   -854.40166   -10310.783    13538.064   -5790.4853    24355.392   -58261.345    4624.0841    78.509587 
   11500    890.23741   -113.30051   0.80550551     -112.495   -34287.768    4.3031991    4.3031991    4.3031991   -34287.768   -50992.839   -50662.324   -1208.1396    36829.495    10117.429   -717.88513    79.684585 
   11600    1671.3634   -113.97507    1.5122847   -112.46279   -12639.006    4.3060243    4.3060243    4.3060243   -12639.006   -25558.379    6173.2503   -18531.888   -13787.997    27182.787   -6168.2844    79.841636 
   11700    1523.3927   -113.83051    1.3783977   -112.45211   -14122.374    4.3004147    4.3004147    4.3004147   -14122.374   -32749.286    3447.0958   -13064.932    15878.549   -38435.626   -1224.0845    79.530004 
   11800    994.33391   -113.35601   0.89969422   -112.45632   -23588.941    4.3008638    4.3008638    4.3008638   -23588.941   -46085.686   -28088.627    3407.4887    40839.352    1671.2585    6706.9492    79.554927 
   11900    1382.0749   -113.70862    1.2505304   -112.45809    5340.6785    4.2925032    4.2925032    4.2925032    5340.6785    30583.729    6595.0641   -21156.757   -7372.9276    33632.802    3802.1041    79.091875 
   12000    2046.1576   -114.31146    1.8514064   -112.46005    7000.0279     4.293643     4.293643     4.293643    7000.0279    7648.0841    5274.8667    8077.1329   -8138.3518    2719.5548    -7971.232    79.154897 
   12100    1537.6523   -113.86648    1.3913001   -112.47518    2451.6059    4.2974701    4.2974701    4.2974701    2451.6059    22053.621   -28434.394    13735.591     46951.87   -9199.2412    11067.034    79.366752 
   12200    974.21082   -113.36275   0.88148642   -112.48126    192.01895    4.3005657    4.3005657    4.3005657    192.01895    19150.773     2541.879   -21116.595    13269.493    39794.447     8708.816    79.538382 
   12300    1588.6998   -113.90234     1.437489   -112.46485   -2978.5396    4.3035891    4.3035891    4.3035891   -2978.5396   -12734.966    16486.602   -12687.254   -13042.819    24338.051   -11600.438    79.706253 
   12400    1572.0259   -113.87218    1.4224021   -112.44978    12425.516    4.2999124    4.2999124    4.2999124    12425.516    26778.114   -8265.1344    18763.568    24166.988   -10638.087    5164.5585    79.502139 
   12500     867.0822    -113.2417    0.7845542   -112.45715    -6022.539    4.2987604    4.2987604    4.2987604    -6022.539   -21372.995   -8644.4992    11949.878    13252.858    49968.932    5065.7179    79.438259 
   12600    1146.3841   -113.49673    1.0372724   -112.45946    397.73572     4.293019     4.293019     4.293019    397.73572   -12435.154    13326.201    302.16031   -16124.772    28344.443   -3216.1545     79.12039 
   12700    1557.3277   -113.87012    1.4091028   -112.46102    21468.048    4.2927603    4.2927603    4.2927603    21468.048    24310.772    19521.019    20572.353   -5630.0857   -32749.204   -3058.0842    79.106091 
   12800    1284.7819   -113.63254    1.1624977   -112.47004    2216.2334    4.2996297    4.2996297    4.2996297    2216.2334   -27006.294    21394.451    12260.544    18654.376    42086.549    7059.5501    79.486463 
   12900    1550.7836   -113.87536    1.4031816   -112.47218   -4816.5902    4.2986468    4.2986468    4.2986468   -4816.5902   -10847.473    9448.2423    -13050.54   -5005.5292    46000.016    6185.5748    79.431961 
   13000    2164.2581   -114.42019    1.9582663   -112.46192    15635.314    4.2909244    4.2909244    4.2909244    15635.314    1243.6851    21124.895    24537.361   -17435.727   -32708.045   -2737.7863    79.004636 
   13100    1102.3827   -113.47806   0.99745901    -112.4806   -5395.5679    4.2937262    4.2937262    4.2937262   -5395.5679   -27089.653    29099.889   -18196.941    9604.1434    27471.777    5480.2914    79.159501 
   13200    872.25912   -113.27677   0.78923838   -112.48754    -17705.19     4.305803     4.305803     4.305803    -17705.19   -62583.575    1787.8115     7680.194    16896.363    52144.331   -1053.5137    79.829328 
   13300    2050.3743   -114.32121    1.8552218   -112.46599     19194.41     4.295125     4.295125     4.295125     19194.41    16620.442   -13713.146    54675.934   -4471.7121   -14251.791    20077.653    79.236888 
   13400    1455.1552   -113.78887     1.316655   -112.47222     15319.06    4.2826281    4.2826281    4.2826281     15319.06   -5967.5667    44841.964    7082.7822   -5961.3255    54361.974    964.42127    78.547271 
   13500    766.05905   -113.17461   0.69314633   -112.48147   -31444.167     4.299427     4.299427     4.299427   -31444.167   -62887.123    9283.3527   -40728.731    26544.776    44473.042   -2075.2256    79.475222 
   13600    1469.5685   -113.79356    1.3296964   -112.46387   -18447.404    4.2980607    4.2980607    4.2980607   -18447.404   -7249.8812   -41278.815   -6813.5157    11738.693   -30535.706    20714.974    79.399476 
   13700    1576.1553   -113.88738    1.4261385   -112.46124   -17146.117    4.2944564    4.2944564    4.2944564   -17146.117   -24651.607   -1699.4956   -25087.247    -23638.83    30095.057   -3415.9301    79.199893 
   13800    1499.7842    -113.8203    1.3570363   -112.46326   -26742.857    4.2953401    4.2953401    4.2953401   -26742.857   -53195.464   -5408.4767    -21624.63    27764.826    35215.369   -6542.5715    79.248796 
   13900    1206.9726   -113.56444    1.0920941   -112.47234   -12778.687    4.2919157    4.2919157    4.2919157   -12778.687     2687.433   -42836.926    1813.4324    40628.452   -15623.258    13654.734    79.059407 
   14000    1756.1252   -114.06073    1.5889789   -112.47175    8436.2386     4.292895     4.292895     4.292895    8436.2386    27588.406   -10161.734    7882.0434   -20386.487   -10622.053    15782.883    79.113536 
   14100    1615.2621   -113.93107    1.4615231   -112.46955    14360.521     4.297887     4.297887     4.297887    14360.521    29193.805   -8058.7303    21946.489     10143.16    29927.173   -5444.0523    79.389851 
   14200    1159.3523   -113.52408    1.0490063   -112.47508    -15276.59    4.2995201    4.2995201    4.2995201    -15276.59   -14670.038     -46668.1    15508.369    60318.784    7410.9385    7961.0304    79.480385 
   14300    1572.5604   -113.88964    1.4228857   -112.46676    9453.8816    4.2928034    4.2928034    4.2928034    9453.8816    23875.342   -7960.5303    12446.833   -10760.211   -7769.1282    28998.485    79.108473 
   14400    1768.1859   -114.06822    1.5998917   -112.46833    13254.738    4.2859877    4.2859877    4.2859877    13254.738    9241.0353   -4.1932655    30527.371    10635.597   -9071.0025    1326.2574    78.732269 
   14500    1181.1967   -113.54903    1.0687716   -112.48026    6474.0804    4.2892056    4.2892056    4.2892056    6474.0804   -23212.905   -815.56803    43450.714    51852.261   -8210.9316    2319.1011    78.909738 
   14600    1150.0085   -113.51839    1.0405519   -112.47784   -3227.1902    4.3040004    4.3040004    4.3040004   -3227.1902    47852.031   -40549.519   -16984.083   -7960.1863     8031.556    31127.574    79.729107 
   14700    1341.3318   -113.67547    1.2136652    -112.4618   -5948.0477     4.306394     4.306394     4.306394   -5948.0477    15973.776   -11887.597   -21930.322    5506.4354    -23308.21    1308.5051    79.862202 
   14800    1094.8273   -113.45173   0.99062272   -112.46111    10263.049    4.2888798    4.2888798    4.2888798    10263.049    13030.191   -4521.8941    22280.852     49610.99   -2779.9799   -7567.0831    78.891755 
   14900    1458.9053   -113.78083    1.3200482   -112.46078    7598.7307    4.2857915    4.2857915    4.2857915    7598.7307    47747.123   -14766.002   -10184.929    17072.791    2400.2634    39810.674    78.721457 
   15000    1613.9228   -113.92771    1.4603113    -112.4674    -7180.609    4.2983234    4.2983234    4.2983234    -7180.609    13796.115    5588.1458   -40926.088   -16307.705   -7360.3459    7034.1198    79.414034 
   15100     1018.873   -113.39964   0.92189774   -112.47775   -13274.842    4.3008523    4.3008523    4.3008523   -13274.842   -19642.966   -8459.7145   -11721.846    40564.769    -12962.37   -18486.439    79.554286 
   15200    1202.6818   -113.56691    1.0882118    -112.4787   -7359.3426     4.296017     4.296017     4.296017   -7359.3426    37978.227    -50229.34   -9826.9141    25978.509   -2087.7004    35567.289    79.286266 
   15300    1941.0062   -114.22133    1.7562632   -112.46507    15716.529    4.2899228    4.2899228    4.2899228    15716.529    58409.044    2890.7699   -14150.227   -17180.318   -660.16409     12641.55    78.949329 
   15400    1367.0582   -113.71712     1.236943   -112.48018   -5902.1383    4.2940016    4.2940016    4.2940016   -5902.1383   -14324.471    5409.0447   -8790.9884    23546.076   -30195.683    -16826.61    79.174732 
   15500     1347.793   -113.69805    1.2195114   -112.47854   -26089.475    4.3031535    4.3031535    4.3031535   -26089.475   -32617.508   -47375.756    1724.8394    46772.774   -7330.9232     16678.41    79.682051 
   15600    1720.7229   -114.02225    1.5569463    -112.4653    7821.7219    4.3033033    4.3033033    4.3033033    7821.7219    36305.208   -13951.755     1111.712   -21783.486    5062.7689     6972.914    79.690375 
   15700     1219.376   -113.57156    1.1033171   -112.46824   -4304.6431    4.3012289    4.3012289    4.3012289   -4304.6431    10818.661   -13410.129   -10322.462   -12271.323   -16849.483   -178.49513    79.575185 
   15800    1398.9146    -113.7307    1.2657673   -112.46494     3666.185    4.2923131    4.2923131    4.2923131     3666.185   -145.40194   -16004.121    27148.078    51879.921   -13820.823   -2739.4761    79.081367 
   15900    1705.6712   -114.00613    1.5433272    -112.4628     1747.597    4.2922377    4.2922377    4.2922377     1747.597   -8722.6229   -15906.906     29872.32   -25498.485    11248.369   -1756.9943    79.077202 
   16000    1083.2866   -113.45335   0.98018052   -112.47317   -19409.141    4.3017272    4.3017272    4.3017272   -19409.141   -34166.269   -18698.758   -5362.3963    -45486.73   -11866.551     4005.449    79.602849 
   16100     1389.723   -113.71809    1.2574506   -112.46064    21003.743    4.3023242    4.3023242    4.3023242    21003.743    35508.523   -4413.6518    31916.357    20950.303    -30869.61   -4824.9469    79.635995 
   16200    1426.1853   -113.74719    1.2904424   -112.45675    7307.5029    4.3023157    4.3023157    4.3023157    7307.5029    24933.862   -22577.193     19565.84    -22498.04    12526.448   -5155.8583     79.63552 
   16300    867.54387   -113.24789   0.78497192   -112.46292    3514.0683     4.291039     4.291039     4.291039    3514.0683    -23156.67    2396.9904    31301.885   -52598.687   -2404.4535    4895.3433    79.010969 
   16400    1567.4038   -113.87853    1.4182199   -112.46031    8129.9506    4.2977787    4.2977787    4.2977787    8129.9506   -21714.077    33332.716    12771.213    10954.297   -15135.538    324.00707    79.383848 
   16500    1571.8623   -113.87681     1.422254   -112.45456   -10128.474    4.3085158    4.3085158    4.3085158   -10128.474   -18385.894   -7113.2927   -4886.2345    -12400.29    940.43887   -26126.852    79.980309 
   16600    1156.5695   -113.50352    1.0464884   -112.45704    9331.0047    4.2981331    4.2981331    4.2981331    9331.0047    6247.3738   -27887.221    49632.861   -39855.794    11409.979   -8055.3519     79.40349 
   16700    1680.1421   -113.97179    1.5202278   -112.45157    4158.3188    4.2924053    4.2924053    4.2924053    4158.3188    -4953.425    24359.346   -6930.9645    16937.936   -19262.374    3748.3967    79.086464 
   16800    1386.3391   -113.71355    1.2543887   -112.45916    7234.5391    4.2932867    4.2932867    4.2932867    7234.5391    49126.951    -18676.03   -8747.3036   -6931.9438       -11031   -15407.379    79.135197 
   16900    1524.0506   -113.84527     1.378993   -112.46627   -17552.306    4.3056158    4.3056158    4.3056158   -17552.306   -12472.069   -65365.053    25180.204   -41162.268    1078.6812   -5809.7229    79.818915 
   17000    1566.0099    -113.8766    1.4169587   -112.45964   -11065.691    4.3039691    4.3039691    4.3039691   -11065.691   -40803.264    3034.4611    4571.7304   -8051.7333   -20267.264    14234.255    79.727372 
   17100    1447.8468   -113.76676    1.3100422   -112.45672    9717.4119    4.2879476    4.2879476    4.2879476    9717.4119   -9363.2092   -6960.1387    45475.584   -994.81568    -11908.74   -14632.512    78.840328 
   17200    1558.8901   -113.87065    1.4105165   -112.46013   -4543.0669    4.2983939    4.2983939    4.2983939   -4543.0669   -38459.436    -37374.37    62204.605   -38785.652    6054.0295   -10901.775    79.417942 
   17300    1145.3954   -113.49144    1.0363778   -112.45506   -14421.832    4.3097061    4.3097061    4.3097061   -14421.832   -22501.506   -19592.144   -1171.8458   -13045.719   -1628.1381    15425.379    80.046615 
   17400    1158.5294   -113.49927    1.0482617     -112.451   -21769.943    4.3065611    4.3065611    4.3065611   -21769.943   -38387.024    12944.542   -39867.348    3734.0852     9599.411    3934.1816    79.871501 
   17500    1837.0127   -114.09821    1.6621677   -112.43605    7026.2771    4.2977205    4.2977205    4.2977205    7026.2771   -6534.3763   -15814.944    43428.152   -13821.811    8693.5086   -7519.5455    79.380621 
   17600    1419.6456   -113.73562    1.2845252   -112.45109   -2111.1071    4.2945333    4.2945333    4.2945333   -2111.1071    10607.715   -3581.0209   -13360.015   -5165.0505    -16259.58    5850.3014    79.204149 
   17700    904.09145   -113.28545   0.81804094   -112.46741   -97.387906    4.2954568    4.2954568    4.2954568   -97.387906   -44172.465    31791.083    12089.217    17287.225   -21330.632    14361.793    79.255257 
   17800    1513.3989   -113.83959    1.3693551   -112.47023    6971.0597    4.2967868    4.2967868    4.2967868    6971.0597    -1793.902   -18546.255    41253.336    18293.066    11938.516   -19384.495    79.328895 
   17900    1884.5048   -114.17042    1.7051396   -112.46528    17029.629    4.2888236    4.2888236    4.2888236    17029.629    27735.893   -2341.8152     25694.81   -8424.6064    -20368.34   -22416.542    78.888654 
   18000    1395.7545   -113.73851     1.262908    -112.4756   -10958.095     4.298873     4.298873     4.298873   -10958.095     -52106.9    25040.056   -5807.4403    7030.3766   -22572.997    11650.961    79.444504 
   18100    1287.8145   -113.62923    1.1652416   -112.46399   -17422.161    4.3073541    4.3073541    4.3073541   -17422.161   -20693.852    -24437.63   -7135.0023    23632.231    9775.3679   -13565.653    79.915628 
   18200    1495.2554    -113.8003    1.3529385   -112.44736    17852.657      4.29426      4.29426      4.29426    17852.657    32306.197   -36804.855    58056.628   -5959.4028    13542.593   -37444.713    79.189029 
   18300    1621.2781   -113.91473    1.4669665   -112.44777   -11155.574     4.301081     4.301081     4.301081   -11155.574   -50863.983    2636.6642    14760.597    6712.4307   -22080.722    6133.2055     79.56698 
   18400    1234.6347   -113.57723    1.1171234   -112.46011   -11031.132    4.2938979    4.2938979    4.2938979   -11031.132   -25913.218   -10424.954    3244.7774    21543.287   -5216.7531    -11325.53    79.168998 
   18500    1182.2995   -113.53545    1.0697694   -112.46568    12412.345    4.2833532    4.2833532    4.2833532    12412.345    43139.605   -28550.388    22647.817   -6285.3166    9685.7018   -56855.662    78.587174 
   18600    1553.5706   -113.87157    1.4057033   -112.46587    -15130.58    4.3053523    4.3053523    4.3053523    -15130.58   -45255.286   -21482.267    21345.813   -14315.622   -14868.885     10067.42    79.804264 
   18700    1142.0416   -113.49393    1.0333432   -112.46059   -6268.4695    4.3050438    4.3050438    4.3050438   -6268.4695   -46356.477   -6495.1961    34046.264    22763.797   -15552.505      3624.88    79.787109 
   18800    1179.1702   -113.52653     1.066938    -112.4596   -7319.8292     4.293181     4.293181     4.293181   -7319.8292    32292.823   -29631.361   -24620.949     2439.355    3173.9597   -55493.695     79.12935 
   18900    1546.8369   -113.85555    1.3996105   -112.45594   -13040.354    4.2935107    4.2935107    4.2935107   -13040.354    -21988.11   -33717.541     16584.59   -35848.561    2901.0583    624.21398    79.147583 
   19000    1381.7835   -113.71323    1.2502667   -112.46297   -24881.989    4.2971184    4.2971184    4.2971184   -24881.989   -44248.451   -48593.907     18196.39    25802.936   -12672.887    7575.5121    79.347266 
   19100    1686.0771   -113.98984    1.5255979   -112.46425   -5777.1799    4.3012124    4.3012124    4.3012124   -5777.1799    19725.903   -13780.617   -23276.826    16933.911    2202.5272   -33597.396     79.57427 
   19200    1701.1242   -114.00327     1.539213   -112.46406   -7776.5838    4.3023844    4.3023844    4.3023844   -7776.5838   -6385.5797    -5302.012    -11642.16   -32903.511    3137.7649   -6822.8323    79.639337 
   19300    885.78885   -113.27924   0.80148037   -112.47776    3792.5626    4.2865137    4.2865137    4.2865137    3792.5626   -5620.1948   -25364.128    42362.011    22246.076    2985.0487    18276.312    78.761259 
   19400     1587.465   -113.92048    1.4363717   -112.48411    12903.034    4.2942941    4.2942941    4.2942941    12903.034     35354.24   -16634.776    19989.639    36337.059   -10603.003     12879.04    79.190913 
   19500    2209.4796   -114.46159    1.9991836   -112.46241    -8580.104    4.3107856    4.3107856    4.3107856    -8580.104    8755.1271   -22047.235   -12448.205   -13013.651    3632.0949   -4146.2192    80.106781 
   19600    791.97397   -113.19052   0.71659469   -112.47392   -4682.9361    4.2978472    4.2978472    4.2978472   -4682.9361    3477.3529   -60911.994    43385.833    33344.666    13329.038    11446.343    79.387643 
   19700    1200.3537    -113.5558    1.0861053    -112.4697   -19431.582     4.291529     4.291529     4.291529   -19431.582   -4588.2454   -69747.126    16040.626    21948.977    -6251.914    15331.944    79.038038 
   19800     1725.651   -114.02243    1.5614053   -112.46102    551.38802    4.2908381    4.2908381    4.2908381    551.38802    49326.114   -34222.304   -13449.646   -14744.572   -2023.2077   -10957.359    78.999873 
   19900    1055.6446   -113.42837   0.95516944    -112.4732   -17126.299    4.2973604    4.2973604    4.2973604   -17126.299   -38186.664   -53300.446    40108.215    43712.404    11779.882   -13050.104    79.360673 
   20000    1372.0071   -113.70752    1.2414209   -112.46609    -12232.25    4.3092284    4.3092284    4.3092284    -12232.25   -49130.551   -48815.918    61249.719   -11366.849   -5609.5511    1379.9974    80.020001 
   20100    1707.4495   -113.99627    1.5449362   -112.45133   -2722.5044    4.2983585    4.2983585    4.2983585   -2722.5044    45295.274   -46922.554   -6540.2325   -15488.125   -1176.5806   -26444.674    79.415982 
   20200    1131.1803   -113.48198    1.0235157   -112.45846    13745.537    4.2796343    4.2796343    4.2796343    13745.537    9044.8877   -14554.952    46746.675    43313.758    6969.0079   -22762.482    78.382659 
   20300    1204.0134   -113.56929    1.0894166   -112.47987    400.10226    4.2878187    4.2878187    4.2878187    400.10226   -9645.1979   -28052.091    38897.596    7286.2835    2184.5828    15418.712    78.833213 
   20400    2025.9807   -114.30048    1.8331499   -112.46733    16648.153    4.2990285    4.2990285    4.2990285    16648.153    31132.356   -5051.3014    23863.404   -29520.045    1786.6892   -10428.383    79.453121 
   20500    1440.6978   -113.77528    1.3035736    -112.4717   -3993.0177    4.3070087    4.3070087    4.3070087   -3993.0177   -16725.446    322.83119    4423.5619     42007.05    5304.7682   -20161.197    79.896409 
   20600     1016.494   -113.38161    0.9197451   -112.46187   -5648.5074    4.3000864    4.3000864    4.3000864   -5648.5074   -4021.6838   -27568.806    14644.967    25594.989   -3363.5664    1950.7196    79.511791 
   20700    1962.4532   -114.21852    1.7756689   -112.44285     23592.74    4.2828343    4.2828343    4.2828343     23592.74    39674.104   -263.93428    31368.049   -29376.746    1070.3928    10142.097    78.558615 
   20800    1135.8858   -113.48985    1.0277733   -112.46208    3256.3214    4.2921149    4.2921149    4.2921149    3256.3214   -2862.9111   -17657.824      30289.7    36068.779    4343.2318    6215.6528    79.070414 
   20900    981.72575   -113.35821   0.88828609   -112.46992   -27959.719    4.3065423    4.3065423    4.3065423   -27959.719   -58960.364   -39856.134    14937.342    32959.426    12193.286   -15067.987    79.870453 
   21000    1545.3117   -113.85461    1.3982305   -112.45638    16933.868      4.29506      4.29506      4.29506    16933.868    41971.556   -10206.788    19036.834   -16361.777   -3596.3547    18261.129    79.233292 
   21100    1283.1554    -113.6244     1.161026   -112.46337   -8726.2078    4.2887543    4.2887543    4.2887543   -8726.2078    -17325.12   -48051.421    39197.917    32310.345    2603.1621    22128.738    78.884828 
   21200    853.34038   -113.24373   0.77212031   -112.47161   -19579.987    4.2960109    4.2960109    4.2960109   -19579.987   -47470.875   -39290.623    28021.536    47228.928    11223.105   -9214.9175     79.28593 
   21300    1973.7711     -114.242    1.7859096   -112.45609    2466.4472    4.3002233    4.3002233    4.3002233    2466.4472    4187.6864    1747.9214    1463.7337   -14627.395   -5718.1889    16402.857    79.519387 
   21400    1219.6577   -113.56541    1.1035719   -112.46183   -30029.043    4.3095719    4.3095719    4.3095719   -30029.043    -26472.24    -82979.69      19364.8    46807.738    2595.7434    19657.468    80.039138 
   21500    1050.9861   -113.41553   0.95095431   -112.46457   -23809.543    4.2873732    4.2873732    4.2873732   -23809.543     -46760.7   -38754.043    14086.113    42282.567   -2203.0615    270.16325    78.808646 
   21600    1788.4056   -114.07704     1.618187   -112.45885    28673.192    4.2781945    4.2781945    4.2781945    28673.192     31931.82    36072.657    18015.097   -17847.569    7623.9299   -17801.844    78.303572 
   21700    1640.7926   -113.94991    1.4846236   -112.46529   -18695.053    4.3025162    4.3025162    4.3025162   -18695.053   -31735.472   -48191.789    23842.102    58948.399   -2441.7221    8779.8926    79.646658 
   21800    1431.5752   -113.75899    1.2953193   -112.46367    176.47607    4.2988813    4.2988813    4.2988813    176.47607   -13450.951    -22190.38     36170.76    32465.218   -668.32097    5932.2372     79.44496 
   21900    1590.3969   -113.89339    1.4390245   -112.45436   -2673.9024    4.2977144    4.2977144    4.2977144   -2673.9024   -3238.3235    15135.829   -19919.213   -20770.102    8506.8027   -16438.341    79.380285 
   22000    855.01736    -113.2418   0.77363768   -112.46816   -37935.107    4.2974158    4.2974158    4.2974158   -37935.107   -62628.715   -63128.683    11952.078    74164.311     10295.83   -16611.218     79.36374 
   22100    1793.0245   -114.08227    1.6223662    -112.4599    20690.181    4.2830585    4.2830585    4.2830585    20690.181    7509.3171    7923.6839    46637.543     23869.11   -4987.3789    -3876.113    78.570955 
   22200    1955.5818   -114.23039    1.7694515   -112.46094   -1033.5728    4.3060026    4.3060026    4.3060026   -1033.5728   -14729.857   -465.52232     12094.66   -1327.6538    7404.7382   -5779.6486    79.840431 
   22300    393.57235   -112.82751   0.35611254    -112.4714   -33954.504    4.3115699    4.3115699    4.3115699   -33954.504    -84408.21   -75781.716    58326.412    86364.872    6120.0466   -17975.104     80.15051 
   22400    1646.2646   -113.93061    1.4895748   -112.44104    17835.657    4.2865325    4.2865325    4.2865325    17835.657    -6809.403    7600.2114    52716.163   -5971.1894   -5943.4772   -4462.9964    78.762297 
   22500    1659.4941   -113.94599    1.5015451   -112.44444    -5896.769    4.2916045    4.2916045    4.2916045    -5896.769    -39228.79   -28429.667     49968.15    30026.178   -13415.793    15453.144    79.042211 
   22600    999.58059   -113.36413   0.90444152   -112.45969    -19576.56    4.2937762    4.2937762    4.2937762    -19576.56    -60914.99   -67182.965    69368.276      75899.9    3708.6776   -11994.617    79.162266 
   22700    1521.1887   -113.83466    1.3764035   -112.45826   -17747.533    4.2927628    4.2927628    4.2927628   -17747.533    -18582.55   -984.02759    -33676.02   -22987.322    12524.265   -17537.644    79.106228 
   22800    1013.3118   -113.38181   0.91686583   -112.46494   -42238.286     4.302127     4.302127     4.302127   -42238.286   -82982.782   -25416.741   -18315.334    32226.622   -15587.935    1294.3641    79.625046 
   22900    1310.6028   -113.64448     1.185861   -112.45862   -1897.4869    4.2899985    4.2899985    4.2899985   -1897.4869   -40494.694   -25077.212    59879.445    55700.852   -9832.5457    8206.3083    78.953507 
   23000    1729.6698   -114.01923    1.5650416   -112.45419   -1109.1583    4.2902625    4.2902625    4.2902625   -1109.1583   -19484.161    5725.9276    10430.758   -28933.039     13826.79   -6523.0792    78.968082 
   23100    908.96037   -113.28979   0.82244644   -112.46735   -18313.079    4.2992754    4.2992754    4.2992754   -18313.079    -66843.13   -19847.562    31751.456    22640.546   -5720.3318   -17080.909    79.466811 
   23200    1599.5349   -113.90552    1.4472928   -112.45823    1143.7764    4.2922447    4.2922447    4.2922447    1143.7764   -20217.495   -13037.532    36686.356    37212.055   -11212.071    15432.882    79.077591 
   23300    1591.2141   -113.89768    1.4397639   -112.45791   -6577.5134    4.2936686    4.2936686    4.2936686   -6577.5134   -4863.5226   -20765.362    5896.3447   -35589.254    13314.493    17713.779    79.156316 
   23400    1377.6156   -113.70573    1.2464955   -112.45923   -21622.928    4.2990883    4.2990883    4.2990883   -21622.928   -60809.764   -27046.132    22987.114    13589.745    1141.2452   -5963.5657    79.456438 
   23500    1545.0263   -113.85302    1.3979722   -112.45504    1370.9128    4.2936802    4.2936802    4.2936802    1370.9128   -9781.5733   -11618.638     25512.95    26713.226   -4512.6346     15049.08    79.156954 
   23600    1116.5304   -113.47504    1.0102602   -112.46478   -1123.4975    4.2891604    4.2891604    4.2891604   -1123.4975    2663.1901   -45873.169    39839.486   -40204.657   -7818.5006    46820.721    78.907243 
   23700    1643.3226   -113.94912    1.4869129    -112.4622   -3264.5408    4.2986229    4.2986229    4.2986229   -3264.5408   -23382.429   -33643.525    47232.332   -4126.2631   -4576.8856   -17850.085    79.430639 
   23800    1528.7298   -113.83894    1.3832268   -112.45571   -18746.922    4.3056117    4.3056117    4.3056117   -18746.922   -30.469301   -27909.061   -28301.236        15628   -3294.9377    11677.871    79.818689 
   23900    850.61413   -113.23163   0.76965354   -112.46198    -18038.56    4.2941205    4.2941205    4.2941205    -18038.56    3499.1717   -76152.113     18537.26   -37246.298   -2001.4376    56799.166    79.181308 
   24000    1838.2787   -114.11981    1.6633132    -112.4565    5812.3549    4.2925443    4.2925443    4.2925443    5812.3549   -11411.628   -21985.576    50834.268   -14791.045   -12052.471   -18818.219    79.094146 
   24100    1884.3468   -114.16249    1.7049966    -112.4575    12742.482     4.290708     4.290708     4.290708    12742.482    37072.283   -18407.726    19562.889    19340.948    4155.7306    12804.258    78.992687 
   24200    852.73323   -113.25439   0.77157094   -112.48282   -16075.362    4.2952866    4.2952866    4.2952866   -16075.362    999.52227   -52571.822    3346.2135   -30666.937    6340.1531      59094.2    79.245836 
   24300    1577.0583   -113.89444    1.4269555   -112.46748   -18513.836    4.3093228    4.3093228    4.3093228   -18513.836   -45097.432   -1891.2232   -8552.8533   -28798.368   -20257.443    -3938.686    80.025256 
   24400    1903.4878    -114.1669    1.7223158   -112.44458    7957.5025    4.2971945    4.2971945    4.2971945    7957.5025    19466.251    12396.157   -7989.9011    13292.498   -13112.787    11171.246    79.351479 
   24500    1137.5794   -113.47713    1.0293057   -112.44782   -14985.558    4.2929585    4.2929585    4.2929585   -14985.558    39.028972   -29515.618   -15480.086   -32051.455    11201.467    45071.917    79.117046 
   24600    1523.7986   -113.83384     1.378765   -112.45507    -14850.29    4.2969815    4.2969815    4.2969815    -14850.29   -47763.432   -16754.165    19966.727   -28377.579   -13989.783   -7687.5803    79.339682 
   24700    1892.7887   -114.16378     1.712635   -112.45115    12968.991    4.2889347    4.2889347    4.2889347    12968.991    32775.913    13185.801   -7054.7408    14116.135   -14641.066    17697.333    78.894784 
   24800    1092.2889   -113.45825   0.98832593   -112.46992   -10012.101    4.3014114    4.3014114    4.3014114   -10012.101    9370.0319    -52613.16    13206.825   -28745.176    7297.8885     56847.84    79.585316 
   24900    1526.4526   -113.83603    1.3811664   -112.45486   -7955.7818    4.3076669    4.3076669    4.3076669   -7955.7818   -34007.299   -24049.114    34189.067   -38599.962    6316.2437   -803.54904    79.933044 
   25000    1818.5268   -114.08033    1.6454413   -112.43489    15422.925    4.2992345    4.2992345    4.2992345    15422.925    27732.919    28523.383   -9987.5264    15579.517   -21167.738    13711.507    79.464547 
   25100    956.88698   -113.31594   0.86581145   -112.45013   -18599.402    4.2989068    4.2989068    4.2989068   -18599.402    3143.8192   -45002.518   -13939.508   -26671.915   -495.09997    50685.856    79.446377 
   25200    1101.5581   -113.45146    0.9967129   -112.45474   -373.86068    4.2947976    4.2947976    4.2947976   -373.86068    13355.744   -30253.117     15775.79   -45531.059    17703.939   -3778.5254    79.218774 
   25300    1648.6444   -113.94397    1.4917281   -112.45224    4995.0456    4.2988893    4.2988893    4.2988893    4995.0456    40757.706   -2252.2122   -23520.357    5883.5105    1037.6764    6553.2975    79.445404 
   25400    1077.4632   -113.43395   0.97491135   -112.45904    4886.6945    4.3009151    4.3009151    4.3009151    4886.6945    62852.047   -30688.221   -17503.743   -25273.763   -5785.8095    30420.471    79.557772 
   25500    1229.6072   -113.56799    1.1125744   -112.45542   -6184.5202    4.3053546    4.3053546    4.3053546   -6184.5202   -9515.9826   -30637.088     21599.51    -57063.05     18586.13   -364.55261     79.80439 
   25600    1970.4738   -114.21764    1.7829261   -112.43472   -9359.7079    4.3132546    4.3132546    4.3132546   -9359.7079     5246.335   -15461.352   -17864.107     22366.06    9555.1304    3636.0209    80.244501 
   25700    1127.2967   -113.47056    1.0200017   -112.45056   -1040.1574    4.2919271    4.2919271    4.2919271   -1040.1574    6874.4865   -7455.5454   -2539.4131     -33434.9    3272.4009    30181.893    79.060038 
   25800    1069.9051   -113.42892   0.96807265   -112.46085    12046.723    4.2851574    4.2851574    4.2851574    12046.723     6400.145    1198.1564    28541.869   -53923.542    5117.2482    3880.7494    78.686517 
   25900    2265.6498   -114.49984    2.0500075   -112.44983    2943.7351    4.3028668    4.3028668    4.3028668    2943.7351    5191.3348    26892.716   -23252.845    26031.004    19566.283    1386.4737     79.66613 
   26000    1182.9086   -113.52961    1.0703206   -112.45929    7684.9622    4.3023523    4.3023523    4.3023523    7684.9622    13255.923   -5638.0759    15437.039   -55257.947   -2089.6593    20439.749    79.637554 
   26100    1187.6223   -113.52912    1.0745856   -112.45453   -4608.4042    4.3014059    4.3014059    4.3014059   -4608.4042    7425.0053   -26391.502    5141.2842   -37197.659    2291.0387    20774.173    79.585009 
   26200    1960.6564   -114.21914    1.7740431    -112.4451    1415.9804    4.2909072    4.2909072    4.2909072    1415.9804    15066.582    9208.9296    -20027.57    28104.688    19815.324   -5543.0946    79.003687 
   26300     848.2242   -113.22652   0.76749108   -112.45903     33194.25    4.2797822    4.2797822    4.2797822     33194.25    45356.499    20450.818    33775.434   -60702.709   -1138.4272   -7181.9361    78.390785 
   26400    1108.1808   -113.47298    1.0027052   -112.47028   -25078.223    4.3061193    4.3061193    4.3061193   -25078.223   -3689.4575   -52301.017   -19244.196   -28099.489    7442.1873    42233.889    79.846918 
   26500    1714.5143   -113.99687    1.5513286   -112.44554   -3858.0834    4.3054501    4.3054501    4.3054501   -3858.0834    3592.9172    -9677.751   -5489.4164    14611.016    8397.4214    8472.2043    79.809698 
   26600    1127.7822   -113.46856    1.0204411   -112.44812    1043.6326     4.286136     4.286136     4.286136    1043.6326   -353.94891   -18563.472    22048.318   -70559.151    9863.5618   -14281.964    78.740441 
   26700    987.85986   -113.35305   0.89383636   -112.45921   -5710.5313    4.2942056    4.2942056    4.2942056   -5710.5313    34088.553   -39318.878   -11901.268   -20088.805    3744.1905    33883.892    79.186018 
   26800    1771.4219   -114.05282    1.6028197      -112.45   -8856.6694    4.2967233    4.2967233    4.2967233   -8856.6694    18122.718   -25748.712   -18944.014    19172.081    -7257.242    15779.736    79.325379 
   26900    1205.1453    -113.5478    1.0904408   -112.45735    9643.3953    4.2959864    4.2959864    4.2959864    9643.3953   -15639.821   -10992.424     55562.43   -52305.402    12775.081   -7708.5268    79.284576 
   27000    1322.2231   -113.65399    1.1963752   -112.45761   -27148.512    4.3010039    4.3010039    4.3010039   -27148.512   -9263.1542   -36629.071   -35553.312   -18191.032    416.90891    29804.109      79.5627 
   27100    1311.3393   -113.64443    1.1865274    -112.4579    9161.6877    4.2855079    4.2855079    4.2855079    9161.6877    29277.936   -9334.5895    7541.7168    25113.617    -1840.393    35688.838    78.705828 
   27200    1616.9914    -113.9241    1.4630878   -112.46101     19322.15    4.2841813    4.2841813    4.2841813     19322.15   -17576.719     4600.205    70942.965   -20271.667    -5250.835   -17820.669    78.632763 
   27300    1294.5688   -113.63396    1.1713531    -112.4626   -12620.253    4.3044478    4.3044478    4.3044478   -12620.253   -9465.9207   -29789.836    1394.9989   -25434.176     2352.744    41542.019    79.753975 
   27400    1316.9577   -113.65173     1.191611   -112.46012   -3018.3645    4.2946022    4.2946022    4.2946022   -3018.3645    13125.376    -21534.75   -645.71936    16775.259     7686.758    46474.154    79.207959 
   27500    1669.8853   -113.96087    1.5109473   -112.44992    12258.762    4.2938614    4.2938614    4.2938614    12258.762     -10766.6    9872.5581    37670.328   -2596.3608   -11252.207   -25952.865    79.166976 
   27600    1065.2534   -113.42484   0.96386364   -112.46098   -25198.341    4.2954443    4.2954443    4.2954443   -25198.341    16053.303   -58197.646   -33450.682   -18265.894    5857.6066    67434.005    79.254561 
   27700      1354.43   -113.68831    1.2255167   -112.46279    18129.841    4.2833122    4.2833122    4.2833122    18129.841    23455.686    43902.473   -12968.637    6801.7106    2829.4651    50263.657    78.584914 
   27800    2242.7973   -114.47998    2.0293301   -112.45065    2856.1886    4.3004537    4.3004537    4.3004537    2856.1886   -18942.986    21042.234    6469.3177    -1074.552    5391.1596   -20685.184    79.532168 
   27900     806.5628   -113.20778   0.72979497   -112.47798   -16861.643    4.2980541    4.2980541    4.2980541   -16861.643    38546.134   -41633.245   -47497.818   -9328.6789    2879.0503    79302.677    79.399109 
   28000    1170.7717   -113.52616    1.0593389   -112.46682    19311.313     4.291992     4.291992     4.291992    19311.313    33426.058    5739.9133    18767.969   -9394.8014    8483.9506    22143.702    79.063626 
   28100    2205.8109   -114.43843     1.995864   -112.44256   -10341.131    4.3018179    4.3018179    4.3018179   -10341.131   -3464.8893    -12083.56   -15474.944   -3703.2034    4279.7623   -15833.744    79.607882 
   28200    912.66099   -113.28699   0.82579484    -112.4612    12288.084    4.2892127    4.2892127    4.2892127    12288.084    80969.483    -29244.47   -14860.761   -1031.0264   -4249.1932    82023.431    78.910127 
   28300    1694.8664   -113.98353    1.5335507   -112.44997     10524.31    4.2932541    4.2932541    4.2932541     10524.31    20264.835   -7268.0641    18576.158   -30816.914     10703.84    6872.6483    79.133393 
   28400    1558.9741   -113.85497    1.4105925   -112.44438   -8749.4976    4.3093687    4.3093687    4.3093687   -8749.4976    11020.205   -20823.179   -16445.519   -10915.809   -7861.4794    3778.4885    80.027816 
   28500    1167.8343    -113.5012     1.056681   -112.44452     1528.082     4.299487     4.299487     4.299487     1528.082    86046.078    -51744.76   -29717.072   -1175.8348    4369.8982    60499.454    79.478546 
   28600    1675.7197   -113.95513    1.5162264    -112.4389    7888.4254    4.2924492    4.2924492    4.2924492    7888.4254   -7346.0326     4224.431    26786.878   -39530.803   -8182.3536   -9913.3236     79.08889 
   28700    1258.5488   -113.58579    1.1387614   -112.44703   -6768.6211     4.298618     4.298618     4.298618   -6768.6211    26007.793   -44285.016   -2028.6407   -23750.857   -177.89192    24469.876    79.430364 
   28800    1341.4902   -113.65837    1.2138086   -112.44456   -1596.8634    4.3024708    4.3024708    4.3024708   -1596.8634    63347.091   -34667.227   -33470.454    14151.246    5708.9413    47347.634    79.644135 
   28900    1719.8901   -113.99236    1.5561927   -112.43617   -4242.0828    4.3047947    4.3047947    4.3047947   -4242.0828    -35267.26   -15700.819     38241.83   -34020.716    478.50289   -25180.685    79.773261 
   29000    992.64161   -113.34783   0.89816299   -112.44967    -7710.673    4.2926749    4.2926749    4.2926749    -7710.673    19152.089   -33582.846   -8701.2614   -25999.793    11.700927    55125.336    79.101366 
   29100    1356.4796   -113.67696    1.2273712   -112.44959    15725.713    4.2851978    4.2851978    4.2851978    15725.713    66973.406   -5575.3994   -14220.868    15067.634     4220.994     45546.49    78.688745 
   29200     2013.815   -114.26914    1.8221421     -112.447   -14053.988    4.3017709    4.3017709    4.3017709   -14053.988   -28961.532   -16523.323    3322.8908   -20566.735    -2890.468   -25759.618     79.60527 
   29300    567.66488   -112.97709   0.51363511   -112.46345   -15796.219    4.3010328    4.3010328    4.3010328   -15796.219     11880.72   -43244.826   -16024.549   -37101.361    5172.3575    73164.933    79.564302 
   29400    1613.4348   -113.91465    1.4598698   -112.45478    13710.559    4.2905896    4.2905896    4.2905896    13710.559    38324.517    845.71529    1961.4447    2553.0953    -10443.04    21447.001    78.986146 
   29500    1966.3459    -114.2274    1.7791911   -112.44821    4463.6346    4.2987907    4.2987907    4.2987907    4463.6346   -13320.862    25707.526    1004.2398    3298.7307   -8446.3465   -7833.7316    79.439941 
   29600    714.52357    -113.1053   0.64651594   -112.45878    -11503.47    4.3025921    4.3025921    4.3025921    -11503.47    21165.144    -47019.42   -8656.1341    -24693.74    9473.1876    82447.171    79.650871 
   29700    1871.2193   -114.13121    1.6931186    -112.4381    14275.105     4.304121     4.304121     4.304121    14275.105    1978.1371     18988.96    21858.218    -9548.592    1627.8615   -2413.8901    79.735812 
   29800    1816.7855   -114.08907    1.6438657    -112.4452    -1023.817    4.2958762    4.2958762    4.2958762    -1023.817    6790.0722    842.68305   -10704.206    15890.256   -9981.3447    23679.914    79.278472 
   29900     550.7205   -112.96154   0.49830348   -112.46323    22566.415      4.27968      4.27968      4.27968    22566.415    34651.021    14035.455     19012.77   -24438.863    3001.7353    69346.853    78.385169 
   30000    1618.4459   -113.92854    1.4644039   -112.46414   -1317.6027    4.2966087    4.2966087    4.2966087   -1317.6027   -16601.129    850.73513    11797.585   -25236.786   -186.84532   -19940.458    79.319033 
   30100     1565.658   -113.86273    1.4166403   -112.44609   -19669.088    4.3110995    4.3110995    4.3110995   -19669.088    11219.654   -16002.925   -54223.993    10580.033    -1830.232     34618.24    80.124282 
   30200    831.74958   -113.19507    0.7525845   -112.44249    570.97045    4.3046237    4.3046237    4.3046237    570.97045    37070.864    13456.177   -48814.129   -7756.1694   -1938.0284    51819.083    79.763754 
   30300    1722.6961   -113.98374    1.5587317   -112.42501    3998.2155    4.2966025    4.2966025    4.2966025    3998.2155   -8392.5584   -2785.7491    23172.954   -23138.497    653.14924   -23075.854    79.318688 
   30400    1039.7789   -113.38175   0.94081379   -112.44094    1111.3984    4.2880678    4.2880678    4.2880678    1111.3984    49137.921    9264.1837    -55067.91    1426.9786   -1441.3052     53577.44    78.846955 
   30500    1362.9851    -113.6826    1.2332576   -112.44934   -6548.9395    4.2956643    4.2956643    4.2956643   -6548.9395    24852.877   -11742.744   -32756.952    8259.8627    -12887.91    28192.283    79.266739 
   30600    1687.0918   -113.96743    1.5265161   -112.44091    -15263.18    4.3066942    4.3066942    4.3066942    -15263.18   -29347.544   -12652.633   -3789.3639    -24616.77    291.76818   -9853.5385    79.878904 
   30700    1069.5984   -113.42033   0.96779509   -112.45253   -5760.9754    4.2975825    4.2975825    4.2975825   -5760.9754    73177.211   -34180.723   -56279.414   -6960.0238    2075.2248    60506.437    79.372975 
   30800    1894.4185   -114.15751    1.7141097    -112.4434    23117.964    4.2837281    4.2837281    4.2837281    23117.964    48247.418    775.15777    20331.316     7547.647   -2059.6981    4469.6818    78.607811 
   30900    1274.1476   -113.61083    1.1528755   -112.45796    23664.158    4.2911935    4.2911935    4.2911935    23664.158    82591.372    -22894.11    11295.213    2091.8577   -3530.1144    10203.643    79.019505 
   31000    1115.7606   -113.47306    1.0095637   -112.46349   -35494.222     4.308334     4.308334     4.308334   -35494.222    13336.661   -80086.642   -39732.685   -12660.385    4964.6316    71668.517    79.970181 
   31100    2113.0374   -114.34819    1.9119206   -112.43627    14721.318    4.2984514    4.2984514    4.2984514    14721.318    38800.748   -2594.0075    7957.2121   -1901.0392    17555.766    -16599.61    79.421128 
   31200     1169.709   -113.51155    1.0583773   -112.45317   -25039.903     4.295349     4.295349     4.295349   -25039.903      4055.49   -47408.645   -31766.555    5455.6309    1608.8102    46108.308    79.249288 
   31300    893.52944   -113.26978   0.80848421   -112.46129   -11020.793    4.2913058    4.2913058    4.2913058   -11020.793    30831.124   -61234.101   -2659.4011   -5971.2501   -5735.8298    66461.909    79.025707 
   31400    1834.3103   -114.10842    1.6597225    -112.4487     16956.08    4.2913109    4.2913109    4.2913109     16956.08     15824.05    26033.286    9010.9032   -1989.5198    2101.6713    -31345.36    79.025987 
   31500    862.99501   -113.24332   0.78085602   -112.46246   -32246.849    4.3099794    4.3099794    4.3099794   -32246.849    33845.283   -42718.267   -87867.565    4893.4424    10402.041    39047.461    80.061842 
   31600    1198.5938   -113.53287    1.0845129   -112.44835     5623.518    4.3021474    4.3021474    4.3021474     5623.518    57221.071   -20885.548   -19464.969    5829.6852   -8688.8245     44329.76    79.626175 
   31700    1953.4083   -114.20166    1.7674849   -112.43418    5680.2705    4.2935368    4.2935368    4.2935368    5680.2705    17140.455    13710.898   -13810.541     6821.927    972.89084   -33412.429    79.149023 
   31800    831.41931   -113.20427   0.75228566   -112.45198   -14009.763    4.2997232    4.2997232    4.2997232   -14009.763    81430.047   -55813.509   -67645.827   -7131.6275    14084.415     34623.41    79.491645 
   31900    1642.1835   -113.93194    1.4858822   -112.44605    3474.6758    4.2988025    4.2988025    4.2988025    3474.6758    37743.458   -19430.669   -7888.7612    12455.053    5931.7072    26510.222    79.440595 
   32000    1879.0705   -114.14252    1.7002225   -112.44229    -16797.62    4.3058177    4.3058177    4.3058177    -16797.62   -26841.966   -1824.0585   -21726.837    12423.028   -11873.405   -14786.972    79.830145 
   32100    938.89325   -113.30425   0.84953035   -112.45472   -10157.669    4.2974067    4.2974067    4.2974067   -10157.669    59976.866   -48666.319   -41783.554   -7255.9021    7424.9627    31179.448    79.363237 
   32200    1757.4676   -114.03459    1.5901936    -112.4444    17564.925    4.2836741    4.2836741    4.2836741    17564.925    22845.588    23219.437    6629.7511    10292.588   -3237.2234    26673.297    78.604838 
   32300    1463.7314   -113.77869    1.3244149   -112.45427   -3963.2093     4.297806     4.297806     4.297806   -3963.2093   -38893.414    18792.722     8211.064    3285.9078   -11838.778    -9006.498    79.385359 
   32400    995.51731   -113.35793   0.90076498   -112.45717   -15237.135    4.3011698    4.3011698    4.3011698   -15237.135    21433.599    -22732.79   -44412.213    7460.5207    -6057.114    47048.406    79.571906 
   32500    1469.7804   -113.77653    1.3298882   -112.44664    8571.9208    4.2969207    4.2969207    4.2969207    8571.9208    3277.4855    40922.491   -18484.214    -17337.36    8282.9879    11681.044    79.336316 
   32600    1376.8699   -113.69468    1.2458209   -112.44886   -5924.1925     4.296651     4.296651     4.296651   -5924.1925   -15902.211    9461.0839   -11331.451    5823.1006   -5131.3246   -6785.1918    79.321377 
   32700    1025.0082   -113.38498   0.92744893   -112.45753    5972.4562    4.2847717    4.2847717    4.2847717    5972.4562    41738.163    36451.947   -60272.742     6118.732   -4843.8213    58004.801    78.665273 
   32800    1393.3313   -113.72076    1.2607154   -112.46004   -2020.5208    4.2978743    4.2978743    4.2978743   -2020.5208    9321.9547    9636.9732    -25020.49   -8941.4675    3797.5939    6064.7443    79.389143 
   32900    1489.5065   -113.80039    1.3477367   -112.45265   -17710.309    4.3022776    4.3022776    4.3022776   -17710.309   -40734.927    10702.906   -23098.906   -1414.2753      12424.7   -3591.1189    79.633406 
   33000    986.86903   -113.34914   0.89293983    -112.4562    23208.831      4.28854      4.28854      4.28854    23208.831    72386.587    27242.529   -30002.624    7299.6399   -4052.8813    67185.662    78.873007 
   33100    1911.7407   -114.17732    1.7297831   -112.44753   -1619.1291      4.30083      4.30083      4.30083   -1619.1291    3271.2139   -18887.039    10758.438   -1218.0644   -7467.0578    5022.6172    79.553047 
   33200    1478.4002   -113.79396    1.3376876   -112.45627    5187.9392    4.2943531    4.2943531    4.2943531    5187.9392   -19963.515    26063.024    9464.3085   -23336.043      36036.6    1560.9126    79.194176 
   33300    759.94744   -113.15828   0.68761642   -112.47066    21410.103    4.2865143    4.2865143    4.2865143    21410.103    86240.306   -18990.755   -3019.2431    2450.3891    8398.1212    76882.602    78.761293 
   33400    2198.8376   -114.44562    1.9895545   -112.45607   -4919.6084    4.3019162    4.3019162    4.3019162   -4919.6084   -7976.0231   -6959.5139    176.71181   -6792.8216   -6611.3798   -16071.246    79.613341 
   33500    1280.1071   -113.61932    1.1582678   -112.46105    12897.318    4.2976703    4.2976703    4.2976703    12897.318    34867.516     16467.13   -12642.693   -1994.3008   -416.29082    23719.205    79.377839 
   33600    978.43667   -113.34766   0.88531006   -112.46235   -13590.067    4.3021799    4.3021799    4.3021799   -13590.067    26465.344   -11692.352   -55543.193   -17542.058    19470.413    73753.616    79.627979 
   33700    2299.5361   -114.52386    2.0806686   -112.44319    4451.1106    4.2971987    4.2971987    4.2971987    4451.1106    7865.6804    24629.057   -19141.406    3217.8599    815.25115   -31576.942    79.351713 
   33800    1151.7921   -113.50256    1.0421657   -112.46039    29701.244    4.2824652    4.2824652    4.2824652    29701.244    73796.702    44404.809   -29097.778    5947.2097    -7733.606    42288.559    78.538308 
   33900    888.00827   -113.28029   0.80348854    -112.4768   -23934.599    4.2983381    4.2983381    4.2983381   -23934.599    24829.902   -18415.702   -78217.998   -4316.4612    19072.581    56569.178    79.414851 
   34000    2059.5967   -114.30975    1.8635663   -112.44619    3565.3922    4.3031613    4.3031613    4.3031613    3565.3922   -4449.2939    51852.378   -36706.908    3667.8661    6507.2658    -20998.48    79.682488 
   34100    1147.7035   -113.48793    1.0384663   -112.44946    3670.7005    4.3056595    4.3056595    4.3056595    3670.7005    72164.459   -1483.3155   -59669.042    5264.9414   -3201.0672    68112.551    79.821343 
   34200    1508.0933     -113.805    1.3645545   -112.44045   -23111.313    4.3038387    4.3038387    4.3038387   -23111.313    21778.885     -30184.4   -60928.425   -5599.8046    10735.258    14548.824    79.720121 
   34300    1695.6584   -113.96979    1.5342673   -112.43552    39272.511    4.2765841    4.2765841    4.2765841    39272.511    52307.282    67489.051   -1978.8009    2004.2172     7195.706   -19309.038    78.215183 
   34400    1385.0094   -113.71566    1.2531856   -112.46247   -8441.1331    4.2939059    4.2939059    4.2939059   -8441.1331    53120.371   -40091.559   -38352.211    3986.0337    -14259.97    65886.997    79.169439 
   34500    1578.8872   -113.87591    1.4286103    -112.4473   -11205.142    4.3075715    4.3075715    4.3075715   -11205.142    31243.516   -16108.482   -48750.458   -6570.6828    7977.1767   -9888.0141     79.92773 
   34600    1412.8421   -113.71933    1.2783692   -112.44096    26377.532    4.2930765    4.2930765    4.2930765    26377.532    69272.004    13466.171   -3605.5797   -10624.346    10474.764   -22978.002    79.123572 
   34700    1592.2674   -113.88176     1.440717   -112.44104   -19417.606    4.3027768    4.3027768    4.3027768   -19417.606    12575.757   -35627.615    -35200.96    3248.6068   -16390.081     60367.32    79.661131 
   34800    1496.8308   -113.80134     1.354364   -112.44698    13826.105    4.2850056    4.2850056    4.2850056    13826.105    61810.381    1700.4445   -22032.511   -1773.3417    3979.2204    -31117.55    78.678159 
   34900    1191.0505   -113.53792    1.0776876   -112.46023    20325.498    4.2839354    4.2839354    4.2839354    20325.498    47330.174    21499.161   -7852.8407   -6753.9064     8501.451   -41800.268    78.619222 
   35000    1690.4178   -113.97667    1.5295255   -112.44714    -26689.29     4.313216     4.313216     4.313216    -26689.29   -40329.252    1777.6317    -41516.25    -667.2435   -15639.097    35674.923    80.242348 
   35100    1203.6507   -113.54036    1.0890885   -112.45127    14347.919    4.2907046    4.2907046    4.2907046    14347.919     58215.66    26778.681   -41950.585    5153.2118   -3295.3838   -48689.134    78.992498 
   35200    1195.8266   -113.53087    1.0820091   -112.44886    8356.9957     4.284256     4.284256     4.284256    8356.9957    24404.671    4373.5017   -3707.1861   -6367.8793    10365.919   -39399.448    78.636875 
   35300    1572.1803   -113.86303    1.4225418   -112.44049   -27683.937    4.3045235    4.3045235    4.3045235   -27683.937    -59386.91    22316.712   -45981.612   -7479.8162   -20753.133    18704.196    79.758181 
   35400    955.33679   -113.31674    0.8644088   -112.45233   -1507.5149    4.2909091    4.2909091    4.2909091   -1507.5149    38588.666    167.66777   -43278.878    6321.1141   -7377.1001   -68291.537    79.003795 
   35500    1443.4928   -113.75798    1.3061027   -112.45187    3897.9252    4.2934838    4.2934838    4.2934838    3897.9252    23113.464   -9704.5573   -1715.1314   -17427.435     6322.767   -15755.628    79.146094 
   35600    1384.2974   -113.70513    1.2525413   -112.45259   -14107.541    4.2989523    4.2989523    4.2989523   -14107.541   -30497.306    12662.979   -24488.297   -6344.2329   -6303.6929    8378.2214    79.448899 
   35700    1007.0858   -113.36541   0.91123238   -112.45418   -3736.2069    4.2875107    4.2875107    4.2875107   -3736.2069    8464.2299   -1555.5255   -18117.325    1780.8048   -17646.745   -76636.639    78.816229 
   35800    1573.9174   -113.87027    1.4241136   -112.44616    7536.1609    4.3007838    4.3007838    4.3007838    7536.1609    43485.197   -6195.7075   -14681.007   -7110.0129    6804.7668    18800.706    79.550485 
   35900    1316.0302   -113.63887    1.1907717    -112.4481    -18330.02    4.3006141    4.3006141    4.3006141    -18330.02   -20287.746   -33606.526   -1095.7875   -6729.8228    1130.6339    9626.4361    79.541067 
   36000    1332.6536   -113.64986     1.205813   -112.44405     9594.705     4.286707     4.286707     4.286707     9594.705    31918.493    1524.0679   -4658.4455      1517.55    -13439.28   -55185.029    78.771912 
   36100    1540.3219   -113.84109    1.3937156   -112.44738    5250.6353    4.2965874    4.2965874    4.2965874    5250.6353    32748.377   -5223.5762   -11772.895   -3434.0686    9514.5552     35751.45    79.317854 
   36200    1379.2356   -113.69996    1.2479614     -112.452   -1168.8892    4.2933699    4.2933699    4.2933699   -1168.8892    2839.3669   -32056.979    25710.944   -12553.436   -2756.2256    20966.244    79.139797 
   36300     1548.686    -113.8539    1.4012836   -112.45261    15047.866     4.292401     4.292401     4.292401    15047.866    27178.706    28169.268   -10204.375    286.14517   -12987.682   -44322.906    79.086225 
   36400    1449.6611   -113.76577    1.3116839   -112.45408   -14357.588    4.3013107    4.3013107    4.3013107   -14357.588    18241.232   -14717.824   -46596.173   -9731.6557   -2786.3994    43082.926    79.579724 
   36500    1301.9801   -113.63333    1.1780589   -112.45527    15662.068    4.2871904    4.2871904    4.2871904    15662.068    27164.553    11398.915    8422.7366    754.31319    7314.0082    34814.232    78.798569 
   36600    1831.9905   -114.10652    1.6576235   -112.44889     13335.15    4.2916328    4.2916328    4.2916328     13335.15    1512.3181     33479.46    5013.6715    7854.6972   -10365.378   -27000.424    79.043773 
   36700     981.0258   -113.35138   0.88765276   -112.46372   -11505.336    4.2984363    4.2984363    4.2984363   -11505.336    44274.818   -17990.879   -60799.946   -1064.9858    3266.7172    67032.451    79.420292 
   36800    1658.6015   -113.95658    1.5007375   -112.45584    21613.054    4.2917747    4.2917747    4.2917747    21613.054     29714.21    36875.886   -1750.9333    7067.5712   -1016.3339    28177.299    79.051614 
   36900    2014.3727   -114.27694    1.8226467   -112.45429   -183.16324     4.298901     4.298901     4.298901   -183.16324    -1218.546     17653.65   -16984.594   -15029.221    1610.3088   -3218.6037    79.446052 
   37000     605.8311   -113.02354   0.54816871   -112.47537   -17231.066    4.2913887    4.2913887    4.2913887   -17231.066     48876.84    -51185.19   -49384.849    14144.079   -11861.966    81250.694    79.030287 
   37100     1745.674   -114.04503    1.5795225    -112.4655    18805.757    4.2869021    4.2869021    4.2869021    18805.757     21028.13    47232.286   -11843.144   -4896.6407    7808.9902   -21243.973    78.782673 
   37200    1811.4539   -114.09472    1.6390416   -112.45568   -14911.197      4.30319      4.30319      4.30319   -14911.197     13958.28   -16717.933   -41973.939   -9366.0352   -3871.3748    16726.966    79.684083 
   37300    1282.2105   -113.61811    1.1601711   -112.45794    5502.9018    4.2903065    4.2903065    4.2903065    5502.9018    30064.411    9226.0641    -22781.77    5796.9687   -220.39826    79536.486    78.970511 
   37400    1639.7107   -113.93188    1.4836447   -112.44823    19760.148    4.2928776    4.2928776    4.2928776    19760.148    10718.347     30184.39    18377.708    2255.2443    9569.2236   -29875.125    79.112573 
   37500    1313.4162   -113.64331    1.1884065    -112.4549   -20931.864    4.2973168    4.2973168    4.2973168   -20931.864    12381.895     -55550.4   -19627.089   -2920.2588   -986.52901    6927.5051    79.358256 
   37600    1483.2284   -113.79343    1.3420563   -112.45137    32186.101    4.2865902    4.2865902    4.2865902    32186.101    27918.068    25184.053    43456.183    892.97273   -2476.2917    56272.909    78.765477 
   37700    1659.3736    -113.9523    1.5014361   -112.45086   -2208.3133     4.303607     4.303607     4.303607   -2208.3133   -34073.144   -8889.4145    36337.618     12791.75   -8057.2174   -16702.955    79.707246 
   37800    958.24665   -113.32527   0.86704171   -112.45823   -12304.285    4.2987926    4.2987926    4.2987926   -12304.285   -7449.7115   -39871.267    10408.124   -8416.3372    5428.8952   -5054.7672    79.440047 
   37900    1551.8433     -113.848    1.4041404   -112.44386    25200.997     4.288708     4.288708     4.288708    25200.997    22497.189    20463.398    32642.403   -1383.9101   -919.20895    33186.399    78.882277 
   38000    1422.6165   -113.73329    1.2872133   -112.44608   -16095.279    4.3002197    4.3002197    4.3002197   -16095.279   -51627.296   -29069.842    32411.301    34647.681   -179.84417   -8968.2101    79.519189 
   38100    827.33331   -113.20763   0.74858857   -112.45905   -9036.9602    4.2928304    4.2928304    4.2928304   -9036.9602   -3756.7586   -34695.034    11340.912   -3851.8146    4771.2906    -20461.42    79.109964 
   38200    1883.4794   -114.14954    1.7042117   -112.44533    13593.068      4.29426      4.29426      4.29426    13593.068    -437.9945    26068.637    15148.561   -7964.9399   -6399.2863    8553.2686    79.189027 
   38300    1249.4896   -113.58414    1.1305644   -112.45357   -31119.421    4.3052916    4.3052916    4.3052916   -31119.421   -60187.105   -36756.909    3585.7501    45491.167    1407.5856    273.84052    79.800885 
   38400    484.86263   -112.90558    0.4387139   -112.46686   -10340.151    4.2893378    4.2893378    4.2893378   -10340.151   -21000.199    -13034.54    3014.2863   -5175.9777   -860.14328    -25656.29    78.917035 
   38500    2037.0809    -114.2936    1.8431936    -112.4504    9898.4825    4.2873953    4.2873953    4.2873953    9898.4825   -16409.668    36976.567    9128.5486   -24732.421    3058.8659    490.98216    78.809864 
   38600    1325.4011   -113.65629    1.1992507   -112.45704   -6843.3331    4.3007947    4.3007947    4.3007947   -6843.3331    444.76526   -11915.372   -9059.3924    43106.016     1409.826    10862.221    79.551091 
   38700    983.96672   -113.35086   0.89031376   -112.46054   -5409.5255    4.3029954    4.3029954    4.3029954   -5409.5255   -22088.426    1518.7954    4341.0537     8272.009    -4393.903   -18452.136    79.673273 
   38800    2137.9798   -114.37771     1.934489   -112.44322    4287.3952    4.2960816    4.2960816    4.2960816    4287.3952   -7444.0272    21680.645   -1374.4321   -15065.358    7488.5537    4004.7565    79.289847 
   38900    1009.6519   -113.37094   0.91355427   -112.45739     16231.51    4.2872906    4.2872906    4.2872906     16231.51    54785.895    7359.4618   -13450.827    30438.145    11928.302    24417.578    78.804091 
   39000    1441.6099   -113.76802     1.304399   -112.46362   -4477.0711    4.2954552    4.2954552    4.2954552   -4477.0711   -7003.1355   -13522.519    7094.4416    25337.245   -2056.1765   -11481.391    79.255164 
   39100    2221.4101   -114.45887    2.0099785   -112.44889     17377.66    4.2986673    4.2986673    4.2986673     17377.66     33309.87    14974.183     3848.928   -19321.002   -6890.7696    6418.7699    79.433096 
   39200    866.74725   -113.25277   0.78425112   -112.46852   -2262.1356    4.2983521    4.2983521    4.2983521   -2262.1356    38246.399   -24539.626    -20493.18    28225.024    11055.359    34106.812    79.415624 
   39300    1218.0621   -113.56456    1.1021282   -112.46243   -14958.814    4.3018983    4.3018983    4.3018983   -14958.814   -14925.896   -30911.433    960.88758    37696.777    8663.3245    -839.0807    79.612346 
   39400    2026.1172   -114.27879    1.8332734   -112.44552     24483.76    4.2881637    4.2881637    4.2881637     24483.76    41006.333    25595.341    6849.6049   -19650.677   -1770.2849   -5392.6345    78.852247 
   39500    885.65618   -113.26677   0.80136032   -112.46541    7514.5019    4.2882069    4.2882069    4.2882069    7514.5019    33804.698   -2110.9703   -9150.2219    15033.698    83.034037    31993.983    78.854632 
   39600     1021.519   -113.38998   0.92429183   -112.46568   -21942.583    4.3038898    4.3038898    4.3038898   -21942.583   -36225.558   -20266.471   -9335.7204    43075.632    22265.459    9741.1386    79.722962 
   39700    1831.8954   -114.10092    1.6575375   -112.44338    7577.2421    4.2984924    4.2984924    4.2984924    7577.2421   -6317.6285    22680.197     6369.158   -10030.311   -18315.078   -19219.455    79.423401 
   39800    954.37557   -113.31802   0.86353908   -112.45448    9052.5534    4.2954696    4.2954696    4.2954696    9052.5534    19385.641     16940.03   -9168.0109   -316.87256   -3654.1284    33109.069    79.255964 
   39900    1372.0269   -113.69332    1.2414388   -112.45188   -13111.319    4.2945565    4.2945565    4.2945565   -13111.319   -4793.2084   -22783.162   -11757.586    43157.527    19377.333     24988.44    79.205431 
   40000    1736.5014   -114.01877    1.5712229   -112.44755     21714.39    4.2897198    4.2897198    4.2897198     21714.39    241.06914    46938.114    17963.988   -10176.057   -22032.006   -18246.501    78.938122 
   40100    1317.2076    -113.6525    1.1918371   -112.46066   -9496.0036    4.3003139    4.3003139    4.3003139   -9496.0036   -2608.1135   -582.52004   -25297.377    -10890.39   -11307.813    32385.768    79.524413 
   40200    1482.5919   -113.79445    1.3414803   -112.45297   -2991.5381    4.2975884    4.2975884    4.2975884   -2991.5381    3041.9221    3056.1268   -15072.663    17263.665    15769.524    28597.647    79.373303 
   40300    1682.7092   -113.97059    1.5225507   -112.44804    20959.436    4.2884789    4.2884789    4.2884789    20959.436    12709.073    49711.838    457.39596   -4434.7697   -17424.928   -28987.448    78.869637 
   40400    1283.5033   -113.61986    1.1613407   -112.45852   -3257.2012     4.297005     4.297005     4.297005   -3257.2012    9967.4499    4139.9357   -23878.989   -9304.9215   -14527.136    126.57123    79.340982 
   40500    1600.8923   -113.89878     1.448521   -112.45026    17285.328    4.2982988    4.2982988    4.2982988    17285.328    19885.693    34808.331   -2838.0392    5825.3926    9140.0248    35108.311    79.412669 
   40600    1373.5287   -113.69509    1.2427977   -112.45229    4046.0137    4.2991531    4.2991531    4.2991531    4046.0137   -5841.8726    13748.991    4230.9224    2117.4703   -31754.378    -37642.85    79.460034 
   40700    1027.4699   -113.38385   0.92967633   -112.45417   -7869.6967    4.2999358    4.2999358    4.2999358   -7869.6967    21868.164   -75.940295   -45401.314      -7268.3   -23007.221   -30010.758    79.503439 
   40800    1904.4549   -114.16475    1.7231908   -112.44156     15649.72     4.293177     4.293177     4.293177     15649.72    45563.293   -10299.727    11685.595    9230.6166    11097.348    38829.542    79.129129 
   40900    1214.9378   -113.55618    1.0993013   -112.45687   -17922.569     4.298838     4.298838     4.298838   -17922.569    30153.878   -17483.435   -66438.151    617.70796   -25996.039   -38731.935    79.442561 
   41000    948.03756   -113.32025   0.85780431   -112.46245   -25016.695    4.2975785    4.2975785    4.2975785   -25016.695    24820.732   -17841.011   -82029.807    3650.6829   -14697.951   -38546.773    79.372754 
   41100    2021.3731   -114.27555    1.8289809   -112.44657    16964.793    4.2925685    4.2925685    4.2925685    16964.793    37790.756    13586.151   -482.52889   -5633.5796    19737.726      22476.3    79.095484 
   41200    1108.4429   -113.46206    1.0029424   -112.45911   -35998.525    4.3054293    4.3054293    4.3054293   -35998.525    97.388635   -34691.959   -73401.004   -5108.2485   -19537.369   -54177.163    79.808545 
   41300    1104.5627   -113.45232    0.9994315   -112.45289   -21351.598    4.2936476    4.2936476    4.2936476   -21351.598    1621.2946   -10036.057   -55640.032    8421.8638   -23576.822   -28850.402    79.155151 
   41400    1934.9514   -114.18391    1.7507847   -112.43312    15612.884    4.2934034    4.2934034    4.2934034    15612.884    41149.292    10921.471    -5232.112   -1549.6437    25348.804    11983.408    79.141648 
   41500    1069.3649    -113.4141   0.96758384   -112.44651   -34105.256    4.3044724    4.3044724    4.3044724   -34105.256     10106.31   -46049.029    -66373.05   -13616.054   -17315.378   -72744.817    79.755344 
   41600     1544.792   -113.84065    1.3977602   -112.44289    10342.323    4.2857414    4.2857414    4.2857414    10342.323    28524.724    20450.336   -17948.092    9332.6199   -32467.782   -15019.041    78.718693 
   41700    1811.8969   -114.08639    1.6394424   -112.44695    19127.683     4.293962     4.293962     4.293962    19127.683    29242.926    41221.327   -13081.205   -284.01001    7234.5319    1292.0699    79.172545 
   41800     1146.126   -113.49603    1.0370389   -112.45899   -5317.8396    4.3021656    4.3021656    4.3021656   -5317.8396    26032.742    2157.6777   -44143.939    9753.7553    5949.9775   -62385.449    79.627184 
   41900    1484.9619   -113.78989    1.3436247   -112.44626    27655.723    4.2995654    4.2995654    4.2995654    27655.723    23736.842     63981.68   -4751.3521   -10867.062   -41771.811    3336.4285    79.482895 
   42000     1642.603   -113.91687    1.4862617   -112.43061   -6361.9867    4.3065989    4.3065989    4.3065989   -6361.9867    24431.214     6123.507   -49640.681    4890.2259    7423.2131   -20581.376    79.873601 
   42100    1195.0024   -113.51794    1.0812633   -112.43667   -8722.6699    4.2936915    4.2936915    4.2936915   -8722.6699    22895.965   -4968.1361   -44095.838   -5662.1245      8108.07   -65532.904     79.15758 
   42200      1651.33   -113.93287    1.4941581   -112.43871    30835.308    4.2858487    4.2858487    4.2858487    30835.308    9090.5852    82070.281    1345.0575    238.47032   -32968.671    18937.089    78.724605 
   42300    1609.1037    -113.9053    1.4559509   -112.44935   -19126.318    4.2994939    4.2994939    4.2994939   -19126.318     4816.212   -17442.993   -44752.173    8231.3017   -9008.8515    -40072.13    79.478932 
   42400    971.38959   -113.33813   0.87893372    -112.4592    13242.216    4.2976843    4.2976843    4.2976843    13242.216    28788.423    34504.469   -23566.244   -2249.1536    6108.2168   -48448.785    79.378619 
   42500     1867.235    -114.1321    1.6895135   -112.44259    5396.6496    4.3018559    4.3018559    4.3018559    5396.6496    15842.205    26238.045   -25890.302   -1119.2739   -12394.104    27488.139     79.60999 
   42600    1374.4077   -113.69179    1.2435929    -112.4482   -25321.028    4.2965375    4.2965375    4.2965375   -25321.028     16383.03   -39285.514   -53060.599   -2204.5813   -6398.0843   -66294.695    79.315092 
   42700    1208.5708   -113.54091    1.0935403   -112.44737    24505.078    4.2882843    4.2882843    4.2882843    24505.078    61965.601    9357.3164    2192.3174    1893.2341    12814.862   -23048.527      78.8589 
   42800    1966.2784   -114.21839      1.77913   -112.43926   -11589.231    4.2999273    4.2999273    4.2999273   -11589.231   -3710.5434   -6798.6387    -24258.51   -3611.6746   -6863.3405    18114.608    79.502968 
   42900    686.81293   -113.08609   0.62144277   -112.46465   -12066.699    4.2951533    4.2951533    4.2951533   -12066.699    44077.053   -47873.683   -32403.468   -2854.7147   -9459.6816   -87960.504    79.238455 
   43000    1834.1491   -114.11336    1.6595766   -112.45378    15844.113    4.2948904    4.2948904    4.2948904    15844.113    20403.692    7248.0241    19880.623   -5093.3659   -20896.935   -2527.8442    79.223908 
   43100    1699.9373   -113.98912     1.538139   -112.45098   -6141.3476    4.3011563    4.3011563    4.3011563   -6141.3476    13056.382     -32963.4    1482.9751    17350.051    13614.384   -23613.593    79.571158 
   43200    756.59642   -113.14585   0.68458434   -112.46126   -14502.885    4.2935596    4.2935596    4.2935596   -14502.885    43367.014   -36167.374   -50708.296   -3707.9429    -10581.18    -80210.67    79.150284 
   43300    1852.0966    -114.1213    1.6758159   -112.44548   -14206.745    4.2988974    4.2988974    4.2988974   -14206.745    -34145.95    17861.632   -26335.916    10291.686   -849.47357    26872.423    79.445856 
   43400    1178.1982   -113.51389    1.0660585   -112.44783     -28110.8    4.3064529    4.3064529    4.3064529     -28110.8    18053.687   -44848.021   -57538.066    424.47543    17977.845   -49255.388    79.865478 
   43500    1376.3927   -113.68773     1.245389   -112.44234   -2.6184847    4.2930304    4.2930304    4.2930304   -2.6184847    34403.259   -10930.327   -23480.788    -1419.831   -6447.0961   -54712.521    79.121022 
   43600    1674.6615   -113.95568    1.5152689   -112.44041   -10187.811    4.2930421    4.2930421    4.2930421   -10187.811   -29632.434    21293.277   -22224.276    6968.4528   -26958.783    28849.293    79.121672 
   43700    999.94034   -113.35971   0.90476703   -112.45494   -13644.873    4.2988603    4.2988603    4.2988603   -13644.873    3865.1442   -11537.026   -33262.737   -4012.1812    2914.0447   -46021.234    79.443799 
   43800    1618.6293     -113.911    1.4645698   -112.44643     15012.86     4.299945     4.299945     4.299945     15012.86    19061.476   -2447.9524    28425.057    6047.2816    5193.2968   -26534.565    79.503948 
   43900    1477.5455   -113.78854    1.3369142   -112.45162   -20046.398    4.3016153    4.3016153    4.3016153   -20046.398   -28945.283   -4348.6237   -26845.288   -5832.1569   -27536.552    38205.971    79.596634 
   44000    865.70437   -113.24504   0.78330751   -112.46174    11774.798    4.2896773    4.2896773    4.2896773    11774.798    8203.6608    3317.6102    23803.122   -2577.2968    7304.6388   -25424.489    78.935772 
   44100    1918.8184   -114.18421    1.7361872   -112.44802    11207.457    4.2991204    4.2991204    4.2991204    11207.457    13947.348    14114.466    5560.5564    -4355.843    6457.8103   -20151.017    79.458219 
   44200    948.95834   -113.31052   0.85863745   -112.45189   -5388.3976    4.3087725    4.3087725    4.3087725   -5388.3976   -4270.3674     1722.643   -13617.468   -3432.9401   -25546.236    45965.546    79.994602 
   44300    904.18463   -113.26473   0.81812525   -112.44661    18290.674    4.2996366    4.2996366    4.2996366    18290.674    29653.267    35227.184   -10008.428   -15912.487    3008.3372    -10377.99    79.486846 
   44400    1873.2774   -114.12339    1.6949808   -112.42841     22040.11    4.2991592    4.2991592    4.2991592     22040.11     25945.62    24809.796    15364.913   -8523.6965    6686.6608   -2575.5069    79.460367 
   44500    722.19293   -113.10214   0.65345534   -112.44868    3276.8304    4.3029609    4.3029609    4.3029609    3276.8304    26238.516    10593.481   -27001.507    -3871.301   -19646.983    54642.719    79.671357 
   44600    1337.4264   -113.65427    1.2101315   -112.44414    15518.334     4.305419     4.305419     4.305419    15518.334    4574.4517    55332.005   -13351.453   -14213.663    4580.6303   -10863.094    79.807971 
   44700    1944.9014   -114.19308    1.7597877   -112.43329    9480.3405    4.3043824    4.3043824    4.3043824    9480.3405   -9548.2607     35452.51     2536.772   -3013.7486    14573.336    21178.531     79.75034 
   44800    771.01358   -113.15009   0.69762929   -112.45246    953.03242    4.2996202    4.2996202    4.2996202    953.03242    9857.6811    26324.867   -33323.451    12582.653   -26670.253    49979.271    79.485933 
   44900    1728.0135   -114.00306    1.5635429   -112.43951    7752.0973    4.2960658    4.2960658    4.2960658    7752.0973   -15386.718    43393.303    -4750.293   -58.094832   -20853.098   -10925.865     79.28897 
   45000    2010.6176   -114.25999    1.8192491   -112.44074   -6197.9751    4.3002211    4.3002211    4.3002211   -6197.9751    13979.193   -20511.445   -12061.674    5558.0738    7067.7086    28571.291    79.519267 
   45100    842.51319   -113.21957   0.76232364   -112.45724   -30496.304    4.3029489    4.3029489    4.3029489   -30496.304   -5985.7301    -20736.55   -64766.632    3237.6413   -34181.869    38032.536    79.670687 
   45200    1591.2429   -113.89109      1.43979    -112.4513    14957.445     4.292206     4.292206     4.292206    14957.445   -7095.6148    73750.535   -21782.585    9603.6326    -37225.51   -14968.405    79.075448 
   45300    1747.7911   -114.03108    1.5814381   -112.44964    1369.4855    4.2951321    4.2951321    4.2951321    1369.4855    21661.777    11506.286   -29059.606    -13196.28    19010.802    18618.454    79.237284 
   45400    429.65318   -112.85478   0.38875922   -112.46602   -6713.4245    4.3006134    4.3006134    4.3006134   -6713.4245    20518.372    27407.516   -68066.161   -10228.605   -34364.685    36439.048    79.541032 
   45500      1946.52   -114.20546    1.7612522   -112.44421    -4428.696     4.299988     4.299988     4.299988    -4428.696    -23577.18    28192.474   -17901.382    4125.6562   -26102.326   -15461.865    79.506333 
   45600    1492.6687   -113.79465     1.350598   -112.44405    3753.8254    4.2969238    4.2969238    4.2969238    3753.8254    14813.292    30662.982   -34214.798   -3665.4164    35739.407    24492.699    79.336486 
   45700    809.65674   -113.18897   0.73259443   -112.45638   -4246.9226    4.2960538    4.2960538    4.2960538   -4246.9226    14536.643    6413.3559   -33690.766   -11579.221   -19828.296    34317.716    79.288306 
   45800    2090.6378   -114.33112     1.891653   -112.43947   -2676.5861    4.2990192    4.2990192    4.2990192   -2676.5861   -26377.517    16610.678    1737.0805    30.199509   -30353.428   -14882.701    79.452605 
   45900    1106.5266   -113.45659    1.0012085   -112.45538   -4334.2603    4.2959529    4.2959529    4.2959529   -4334.2603    34207.699   -694.46088   -46516.019     7676.599    33182.482    17374.993    79.282718 
   46000    1040.7298   -113.41016   0.94167416   -112.46848    784.16366    4.2947553    4.2947553    4.2947553    784.16366    22407.571    8596.3924   -28651.472    8263.2389     16664.13    29873.102    79.216432 
   46100     2446.134    -114.6606    2.2133134   -112.44729    8646.3814     4.303404     4.303404     4.303404    8646.3814   -2603.7557    30730.234    -2187.334   -1895.0315   -3194.3679   -8105.2827    79.695971 
   46200    725.25929   -113.12223   0.65622984     -112.466    1891.4437    4.3019789    4.3019789    4.3019789    1891.4437    18107.124    36392.538   -48825.331    10131.019    26139.929    5225.5908    79.616817 
   46300    935.19212   -113.30406   0.84618148   -112.45788   -3901.1178    4.2977532    4.2977532    4.2977532   -3901.1178    20028.769   -4458.9368   -27273.185    1512.2329    20790.291    29818.597    79.382433 
   46400    2157.9007   -114.39169    1.9525139   -112.43918    8741.4631    4.2958513    4.2958513    4.2958513    8741.4631    5520.2042     43888.41   -23184.225   -1480.2948   -24624.109   -9784.9201    79.277091 
   46500    992.23282   -113.35771   0.89779311   -112.45991    2527.6749    4.2935747    4.2935747    4.2935747    2527.6749    9225.7946     16512.35    -18155.12   -845.98556    86.779007    18800.989    79.151123 
   46600    1305.4777   -113.63893    1.1812237   -112.45771   -5709.1699    4.2979852    4.2979852    4.2979852   -5709.1699    34918.295    -23345.81   -28699.995    2435.7951    30320.657    31048.172    79.395289 
   46700    1852.4957   -114.11967    1.6761771   -112.44349    6609.3214    4.2988599    4.2988599    4.2988599    6609.3214    8816.9968    16520.973   -5510.0061   -7508.4808   -40897.593   -7803.2504    79.443774 
   46800    862.53128   -113.23399   0.78043643   -112.45355    2851.7061     4.300474     4.300474     4.300474    2851.7061   -8729.7502    13846.105    3438.7636     2990.667   -24413.614    17836.789    79.533295 
   46900    1774.6298   -114.04654    1.6057224   -112.44081   -17436.643    4.3005721    4.3005721    4.3005721   -17436.643    3459.3668    -30671.51   -25097.786   -5625.9782    36195.505    34404.737     79.53874 
   47000    1468.0489   -113.76952    1.3283215   -112.44119    9341.7251    4.2918988    4.2918988    4.2918988    9341.7251   -10401.182    20106.972    18319.384    1079.5115   -41899.723   -14955.898    79.058474 
   47100    1074.9138   -113.42645   0.97260463   -112.45385   -21850.997    4.3000843    4.3000843    4.3000843   -21850.997    -14222.75   -9220.7452   -42109.496     4274.988   -41122.218    14532.535    79.511674 
   47200    1718.2456   -113.99755    1.5547048   -112.44284   -16019.425     4.302084     4.302084     4.302084   -16019.425    13605.128   -27439.509   -34223.895   -8665.2204    18392.878     45826.65    79.622655 
   47300    1553.9511   -113.84692    1.4060476   -112.44087   -492.93998    4.2995475    4.2995475    4.2995475   -492.93998   -9567.7751    28772.056   -20683.101    8312.7007   -48777.813   -20203.284    79.481904 
   47400    1092.4896   -113.43786   0.98850753   -112.44935   -23998.389    4.3014696    4.3014696    4.3014696   -23998.389   -3484.7748   -8781.6196   -59728.774     8259.492   -25112.719    23096.702    79.588547 
   47500    1633.5744   -113.92035    1.4780925   -112.44226   -6805.3337    4.2939253    4.2939253    4.2939253   -6805.3337    20006.355   -20480.161   -19942.195   -12796.149    17138.264    37903.446    79.170514 
   47600    1062.1188   -113.40552   0.96102737    -112.4445    839.17322    4.3015309    4.3015309    4.3015309    839.17322   -21983.871    72052.704   -47551.313     6600.526   -66042.019    -6124.986    79.591952 
   47700    1306.1157   -113.61789    1.1818009   -112.43609   -7869.3059    4.3083622    4.3083622    4.3083622   -7869.3059    6362.7324    31826.203   -61796.853    -10234.43   -8142.7688    10487.038    79.971755 
   47800    1146.0192   -113.47133    1.0369422   -112.43439    7056.4778    4.2967039    4.2967039    4.2967039    7056.4778    9747.0962    58420.236   -46997.899    5692.1086   -7242.5983    37822.939    79.324306 
   47900    1097.3597   -113.43689   0.99291412   -112.44398    10748.057    4.2966427    4.2966427    4.2966427    10748.057    -13408.57    99914.126   -54261.384   -10205.979   -61355.009   -8104.0789    79.320915 
   48000    1906.9343   -114.15765    1.7254342   -112.43222    386.35675    4.3052435    4.3052435    4.3052435    386.35675      26800.7   -4698.1045   -20943.525    6084.4962    10580.885    10891.411    79.798211 
   48100    1099.6687   -113.44605   0.99500338   -112.45105   -7134.8585    4.2948682    4.2948682    4.2948682   -7134.8585    18613.475    10050.854   -50068.904    1437.5578   -40545.261    34779.118    79.222677 
   48200    1537.5337   -113.84563    1.3911928   -112.45444    2747.3605     4.295379     4.295379     4.295379    2747.3605    6042.7133    39883.741   -37684.373    9388.0455   -51223.002    8038.2148    79.250946 
   48300    2144.6869   -114.38367    1.9405577   -112.44311   -7392.7562    4.3041087    4.3041087    4.3041087   -7392.7562    1887.9313   -5686.5379   -18379.662     4019.895    32328.422   -4389.1921    79.735127 
   48400    1009.2279   -113.36835   0.91317065   -112.45518    -4755.886    4.2924742    4.2924742    4.2924742    -4755.886    29227.073    5476.9649   -48971.696    2644.8103   -31747.667    33449.884    79.090274 
   48500    1466.8561   -113.78157    1.3272423   -112.45432   -5.4974348    4.2973437    4.2973437    4.2973437   -5.4974348   -4039.8137    46680.578   -42657.256    1675.8519   -32486.645    3307.9521    79.359744 
   48600    1549.3623   -113.85038    1.4018956   -112.44849   -1559.8851    4.3014492    4.3014492    4.3014492   -1559.8851   -7112.9821    31197.939   -28764.612   -739.02169    45129.521   -11456.377    79.587415 
   48700    856.10534    -113.2325    0.7746221   -112.45788    7654.6775    4.2911878    4.2911878    4.2911878    7654.6775    30518.886    38160.515   -45715.368   -2691.7478   -21562.637    30431.833    79.019188 
   48800    1385.6873   -113.70652     1.253799   -112.45272   -13305.066    4.3039336    4.3039336    4.3039336   -13305.066    407.57141    17677.153   -57999.923   -2768.8867   -32478.773    14171.791    79.725394 
   48900    1336.4598    -113.6602    1.2092569   -112.45095   -6343.6306    4.2967993    4.2967993    4.2967993   -6343.6306   -14957.341    18325.693   -22399.244    3799.4481    41382.845   -18159.368    79.329589 
   49000    1147.7565   -113.49745    1.0385142   -112.45894   -8312.3243    4.2916945    4.2916945    4.2916945   -8312.3243    1994.2946    551.43013   -27482.698    760.26579   -260.94666    41225.296    79.047181 
   49100    1634.0573   -113.92951    1.4785294   -112.45098   -5522.9198    4.3013021    4.3013021    4.3013021   -5522.9198    15458.372    4377.8798   -36405.011    733.19797   -21848.374    16869.805     79.57925 
   49200    1532.1132    -113.8377    1.3862882   -112.45141   -552.56609    4.2917254    4.2917254    4.2917254   -552.56609   -12923.744    23388.566    -12122.52     1666.092    37557.345   -31922.406    79.048892 
   49300     1211.476   -113.55435    1.0961689   -112.45818   -10827.783    4.3005356    4.3005356    4.3005356   -10827.783    42766.129   -40082.528   -35166.948    -412.1816    2509.1575    46957.285    79.536713 
   49400    1838.5642   -114.11202    1.6635715   -112.44845   -8706.0975    4.3025106    4.3025106    4.3025106   -8706.0975    27973.085   -20592.101   -33499.276    808.62339   -7739.5581    17348.675    79.646342 
   49500    1356.0467   -113.68099    1.2269795   -112.45401    25230.213    4.2830534    4.2830534    4.2830534    25230.213    35749.033    49603.277   -9661.6712   -8859.5974    24583.543   -39566.053    78.570673 
   49600    1013.3701   -113.38377   0.91691858   -112.46685    -8911.909    4.3007457    4.3007457    4.3007457    -8911.909    14370.539   -71.788849   -41034.477   -75.194688    10458.315    33863.703    79.548371 
   49700    1632.7676   -113.91692    1.4773624   -112.43956    936.04673    4.3071531    4.3071531    4.3071531    936.04673    7791.2284    14176.692    -19159.78   -7325.7301   -8870.5451     13953.54    79.904442 
   49800    998.47709   -113.34872   0.90344305   -112.44527    454.16853     4.296588     4.296588     4.296588    454.16853   -829.56905     19148.69   -16956.616   -270.26215    22473.579   -49055.811    79.317887 
   49900     1285.131   -113.61538    1.1628136   -112.45256   -19554.529    4.2958088    4.2958088    4.2958088   -19554.529   -17177.655    -3989.092   -37496.841    -1150.906    28009.275    17309.122    79.274743 
   50000     2065.463   -114.31448    1.8688743   -112.44561    32657.085    4.2807845    4.2807845    4.2807845    32657.085     26692.48    21684.933    49593.844     5074.894   -9575.6456    9064.8223    78.445872 
   50100    969.22631    -113.3565   0.87697634   -112.47952   -27078.995    4.3004565    4.3004565    4.3004565   -27078.995   -25889.725   -2286.5111   -53060.749    6135.5378      20530.8   -39806.717    79.532326 
   50200    1216.4617   -113.56618    1.1006801    -112.4655   -35120.562    4.3087441    4.3087441    4.3087441   -35120.562   -54161.489     2419.861   -53620.058    1878.8353    34381.253   -1958.5543    79.993024 
   50300    2329.1409   -114.54558    2.1074556   -112.43812    18574.741    4.2901498    4.2901498    4.2901498    18574.741   -1338.8646    4351.0322    52712.057    4359.5239   -3025.8874    6574.3512     78.96186 
   50400    1244.0346   -113.58389    1.1256287   -112.45826   -19746.376    4.2954675    4.2954675    4.2954675   -19746.376   -17272.775    -6508.765   -35457.589    810.16728    30812.636   -28187.777    79.255846 
   50500    1281.5531   -113.61876    1.1595762   -112.45918   -17312.596    4.2964207    4.2964207    4.2964207   -17312.596   -41252.264    14857.237   -25542.762    3407.4759     26845.54   -28065.608    79.308621 
   50600    1798.3679   -114.07873    1.6272011   -112.45153    2771.6309    4.3086737    4.3086737    4.3086737    2771.6309   -611.36376    1649.1074    7277.1491    443.76641   -12619.162     34429.61    79.989103 
   50700     1041.964   -113.40091   0.94279092   -112.45812   -27718.612    4.3060229    4.3060229    4.3060229   -27718.612   -15568.973    9324.6095   -76911.473     5606.514    36805.262    13484.199    79.841559 
   50800    1191.3757   -113.52515    1.0779818   -112.44717    7638.2242    4.2809812    4.2809812    4.2809812    7638.2242    1808.0325    49136.909   -28030.269    752.57708    35690.819   -34013.731    78.456684 
   50900    1542.5565   -113.84504    1.3957376   -112.44931    2172.8477    4.2916066    4.2916066    4.2916066    2172.8477    44969.621   -11747.262   -26703.816   -8213.1695   -14395.047    32901.571    79.042327 
   51000    1222.6044   -113.56276    1.1062382   -112.45652   -11653.508    4.3022605    4.3022605    4.3022605   -11653.508     6857.438     12987.84   -54805.803    5535.0931    30052.251    23881.611    79.632457 
   51100    1018.0353    -113.3836   0.92113971   -112.46246    9067.1001    4.2973793    4.2973793    4.2973793    9067.1001    51814.295    28399.622   -53012.616   -2137.5563    51833.673   -35161.748    79.361719 
   51200    1714.4724   -114.00759    1.5512907    -112.4563    9599.1329    4.2957222    4.2957222    4.2957222    9599.1329    51701.285   -6671.7633   -16232.123    1756.9963   -24063.623    6930.2692    79.269944 
   51300    1408.7103   -113.73582    1.2746307   -112.46119    10200.266    4.2935345    4.2935345    4.2935345    10200.266    27322.181    16004.405   -12725.788   -5852.9998    23125.564     20394.95    79.148897 
   51400    1397.7308   -113.72467    1.2646962   -112.45997   -8338.0133    4.2997036    4.2997036    4.2997036   -8338.0133   -31473.669    13271.073   -6811.4443    12745.542    57018.641   -18589.775    79.490559 
   51500    1937.9739   -114.20199    1.7535195   -112.44847   -5659.8261    4.2993553    4.2993553    4.2993553   -5659.8261   -4658.9445   -9401.4411   -2919.0926    -2205.666   -46430.211     14612.87    79.471244 
   51600    1235.9902   -113.57182    1.1183499   -112.45347     2369.128    4.2974322    4.2974322    4.2974322     2369.128   -20816.789    40814.953   -12890.779   -2187.7228    15639.494    13461.067    79.364651 
   51700    1478.7613    -113.7859    1.3380143   -112.44789   -18857.643    4.3074207    4.3074207    4.3074207   -18857.643   -37899.717    1388.3118   -20061.523    12267.326    53116.262   -5830.3783    79.919337 
   51800    1976.8738   -114.23109    1.7887169   -112.44237    9817.6344     4.290467     4.290467     4.290467    9817.6344    17508.667    3763.9564    8180.2802   -166.24111   -36920.971    1017.2771    78.979375 
   51900    703.56293   -113.10029   0.63659853    -112.4637    18112.117     4.283748     4.283748     4.283748    18112.117   -6270.6289    66319.739   -5712.7595    1520.4427    21563.766     10185.71    78.608907 
   52000      1242.91    -113.5907    1.1246111   -112.46609   -7885.2532    4.3053296    4.3053296    4.3053296   -7885.2532   -25029.178    20592.976   -19219.557    3390.1247    53094.396    5331.1817    79.802998 
   52100    1943.0814    -114.2042    1.7581408   -112.44606   -5109.8268     4.303633     4.303633     4.303633   -5109.8268    9519.3595   -17126.563   -7722.2767   -6325.6922   -17544.652   -22515.433    79.708695 
   52200    861.75654   -113.24125   0.77973543   -112.46152   -7782.5237    4.2910649    4.2910649    4.2910649   -7782.5237   -32923.663    59242.658   -49666.566    5329.9192    18461.195    7238.5028    79.012398 
   52300     1564.226   -113.86637    1.4153446   -112.45102   -8482.1069    4.2898197    4.2898197    4.2898197   -8482.1069   -26177.228     29388.85   -28657.942   -10071.145    20860.165    7910.3913    78.943634 
   52400    1525.7489    -113.8324    1.3805297   -112.45187   -39.612707    4.2992828    4.2992828    4.2992828   -39.612707     30653.29   -39218.929    8446.8008    9650.2227   -1523.4452   -59866.326    79.467223 
   52500    1556.3162   -113.86166    1.4081876   -112.45347   -3303.0864    4.3014046    4.3014046    4.3014046   -3303.0864   -29668.879    28882.508   -9122.8879   -7059.9354    12872.077   -6783.1181    79.584936 
   52600    1604.1573   -113.89754    1.4514752   -112.44607   -4389.4285    4.2953272    4.2953272    4.2953272   -4389.4285    -16189.86    2725.3432    296.23138   -5600.5272     22387.35   -7534.4076    79.248079 
   52700    1032.1753   -113.39235   0.93393388   -112.45842   -6493.4097    4.2922139    4.2922139    4.2922139   -6493.4097     36127.58   -44900.231   -10707.579    10149.921    166.88641   -78109.667    79.075888 
   52800    1801.4631   -114.07926    1.6300016   -112.44926    10832.151     4.294504     4.294504     4.294504    10832.151    13894.181    7415.5899    11186.682   -3408.6449   -1980.1475    12687.344    79.202526 
   52900    1475.2192   -113.78952    1.3348093   -112.45471   -7279.7242    4.2971516    4.2971516    4.2971516   -7279.7242     8748.024   -16836.651   -13750.546   -750.03086    28126.769   -20379.697    79.349104 
   53000    601.69402   -113.01468    0.5444254   -112.47026   -9585.2619    4.2985984    4.2985984    4.2985984   -9585.2619    58024.927   -24801.463    -61979.25   -3095.8251   -3669.1397    -74445.79    79.429277 
   53100    1862.2254   -114.13448    1.6849807    -112.4495    3339.8593    4.2956142    4.2956142    4.2956142    3339.8593    18443.818   -9319.0104    894.77008    17117.271   -1675.6386    21548.323    79.263968 
   53200    970.42707   -113.33823    0.8780628   -112.46017    17829.483    4.2961688    4.2961688    4.2961688    17829.483    57612.818    12624.907   -16749.277   -9493.4769    2566.1522   -20772.741    79.294675 
   53300    1081.5078   -113.43313     0.978571   -112.45456   -19195.006    4.3057274    4.3057274    4.3057274   -19195.006    27827.248   -19026.675   -66385.591    2895.1592     5784.403   -56307.166    79.825122 
   53400    1783.5174   -114.05068     1.613764   -112.43691    10764.891    4.2982141    4.2982141    4.2982141    10764.891    30582.534    6134.8142    -4422.674    21016.956    2253.3938    28829.656    79.407979 
   53500    1084.9872   -113.43061   0.98171922   -112.44889    10713.283    4.2929959    4.2929959    4.2929959    10713.283    48598.752    16433.693   -32892.596     8305.355   -8110.9448   -25314.298    79.119115 
   53600    1336.9039   -113.66492    1.2096587   -112.45526   -7711.6629    4.2978226    4.2978226    4.2978226   -7711.6629    23247.667   -4470.8878   -41911.768   -3442.1681    11571.639   -50998.403    79.386283 
   53700    2000.9696   -114.25726    1.8105193   -112.44675    17514.273    4.2900858    4.2900858    4.2900858    17514.273    8867.8082    41304.726    2370.2855    1009.6045    9259.1536    22957.225    78.958324 
   53800    1127.4844   -113.48302    1.0201716   -112.46285   -33531.378    4.3031672    4.3031672    4.3031672   -33531.378    33159.455   -79261.528   -54492.062    16609.041   -1812.8029   -56823.977    79.682812 
   53900    1526.5601    -113.8325    1.3812636   -112.45124   -3561.8359    4.2985354    4.2985354    4.2985354   -3561.8359    13876.825    2523.0587   -27085.392   -7988.3493    660.75429   -42008.429    79.425785 
   54000    1878.9365   -114.14407    1.7001012   -112.44397    23932.876    4.2875357    4.2875357    4.2875357    23932.876    16081.088      60431.4   -4713.8591   -7305.2305    12516.326    26007.164    78.817607 
   54100    664.28524   -113.07274   0.60105924   -112.47168   -19804.848    4.2963422    4.2963422    4.2963422   -19804.848    29763.849   -19035.962   -70142.431    11154.085    -3141.413   -52317.487    79.304272 
   54200     1393.347   -113.72655    1.2607297   -112.46582     3215.588    4.3026485    4.3026485    4.3026485     3215.588    13591.652    38016.258   -41961.146    6560.2326    1152.8314   -26754.363    79.654004 
   54300    1940.6275   -114.20479    1.7559205   -112.44887    9483.0795     4.301682     4.301682     4.301682    9483.0795    17196.073    23904.385   -12651.219   -17256.182    4804.5189    12448.821    79.600337 
   54400    628.46256   -113.03249   0.56864614   -112.46384   -24363.118    4.2972461    4.2972461    4.2972461   -24363.118    15203.839   -23199.574   -65093.619   -2426.5662   -671.69174   -63608.706    79.354341 
   54500    1421.0867    -113.7456    1.2858291   -112.45977    5449.1538    4.2841004    4.2841004    4.2841004    5449.1538    20675.464    17825.155   -22153.158    13643.006   -8725.7017   -18071.192    78.628304 
   54600    1815.3092   -114.10292    1.6425299   -112.46039    13510.928    4.2865442    4.2865442    4.2865442    13510.928    11097.839    32816.992   -3382.0475   -18023.316   -7060.5281    4712.4229    78.762942 
   54700    870.98725   -113.25617   0.78808757   -112.46808   -50296.456    4.3130485    4.3130485    4.3130485   -50296.456    1110.1425   -81869.906   -70129.605   -23671.431    5975.0423   -63465.899    80.232997 
   54800    1686.3393   -113.97939    1.5258353   -112.45355    2141.3101    4.2952454    4.2952454    4.2952454    2141.3101    5676.6331     -8888.43    9635.7271    11956.249   -4666.3355   -7514.9353    79.243556 
   54900    1832.0524    -114.1042    1.6576795   -112.44652    22055.632    4.2787123    4.2787123    4.2787123    22055.632    16660.208    42371.317    7135.3715   -3129.1998   -24102.911    3788.6598    78.332007 
   55000    617.70948   -113.03388   0.55891652   -112.47497   -21288.489    4.2958927    4.2958927    4.2958927   -21288.489    9236.8407   -56125.395   -16976.913   -22378.487    2477.4874   -55132.541    79.279387 
   55100    1817.6344   -114.10042    1.6446338   -112.45579   -6051.1458    4.3032483    4.3032483    4.3032483   -6051.1458   -11248.751   -8654.1331    1749.4467    5140.2944   -899.72235   -10429.747    79.687319 
   55200    1748.8825   -114.03051    1.5824257   -112.44809   -9451.5981    4.3082074    4.3082074    4.3082074   -9451.5981   -12290.106   -1694.1025   -14370.586   -140.30424   -8716.9744   -18.001651    79.963136 
   55300     597.9242   -112.99951   0.54101438   -112.45849    -33007.19     4.298358     4.298358     4.298358    -33007.19   -5012.1157   -70608.232   -23401.221   -20638.177   -2120.9385   -63058.095    79.415954 
   55400     1483.943   -113.79328    1.3427028   -112.45057     29873.42     4.280803     4.280803     4.280803     29873.42    8437.0272    48203.135    32980.099   -2734.2759    19623.907   -6344.1156    78.446888 
   55500    1821.4111   -114.10384    1.6480511   -112.45579    7551.4176    4.2911293    4.2911293    4.2911293    7551.4176    9737.6544    21240.694   -8324.0952    5416.3775    10391.241     7650.551    79.015955 
   55600    666.15422    -113.0746   0.60275034   -112.47185    735.17957    4.3030179    4.3030179    4.3030179    735.17957    1370.6125    752.92781    81.998389   -11955.358   -11324.653   -49757.923     79.67452 
   55700    1442.1197    -113.7606    1.3048602   -112.45574    -11424.81    4.3075448    4.3075448    4.3075448    -11424.81   -17280.171    9124.2245   -26118.484   -15250.338    22016.688   -8175.4498    79.926242 
   55800    1766.6571   -114.04146    1.5985085   -112.44295    8197.2181    4.2938264    4.2938264    4.2938264    8197.2181    17590.402    30365.276   -23364.023    1919.8575    22036.592    10081.008     79.16504 
   55900    1338.8183    -113.6608    1.2113909   -112.44941    7839.3525    4.2829374    4.2829374    4.2829374    7839.3525    51686.496   -21669.762   -6498.6765   -15361.605   -6737.8509   -37085.233    78.564289 
   56000    1293.9014   -113.63164    1.1707492   -112.46089    3957.7877    4.2955717    4.2955717    4.2955717    3957.7877    24305.574    1650.8006   -14083.011   -27509.936    25371.725   -17836.349    79.261616 
   56100    1835.7536   -114.10828    1.6610284   -112.44725   -12373.132    4.3088106    4.3088106    4.3088106   -12373.132    9154.1603    1249.4847   -47523.042     9870.788    24560.329    15542.672    79.996728 
   56200     1086.269   -113.43162     0.982879   -112.44874   -27357.238    4.3081249    4.3081249    4.3081249   -27357.238    33849.039   -51468.731   -64452.021    3572.0841    -11281.05   -42161.014    79.958538 
   56300    1567.5985    -113.8578    1.4183961    -112.4394     4624.787    4.2930949    4.2930949    4.2930949     4624.787     8639.185    27979.597   -22744.421   -12432.382    14042.681   -10229.216    79.124591 
   56400    1801.1065   -114.06888     1.629679    -112.4392    9703.1267    4.2910595    4.2910595    4.2910595    9703.1267    7904.4381    48915.167   -27710.225    20365.903    17559.783    3756.7949    79.012101 
   56500    504.90217   -112.92215   0.45684609    -112.4653   -33828.659    4.3075158    4.3075158    4.3075158   -33828.659    16786.171   -56926.301   -61345.846    11497.841    -4836.206   -42285.103    79.924628 
   56600    1658.6926   -113.95378    1.5008199   -112.45296    1885.5748    4.2955512    4.2955512    4.2955512    1885.5748    20059.816     4651.028    -19054.12    2638.4129   -17052.065   -6392.6729     79.26048 
   56700    1866.0125   -114.13658    1.6884073   -112.44817    14144.419     4.289771     4.289771     4.289771    14144.419     27143.81    14758.705     530.7415   -8344.9735    8457.9917   -6295.8001    78.940946 
   56800    614.42604   -113.02534   0.55594559   -112.46939   -31292.007    4.3024947    4.3024947    4.3024947   -31292.007     23656.11   -69742.656   -47789.476     7540.301    1098.7006   -37788.452     79.64546 
   56900     1547.124   -113.85119    1.3998703   -112.45132    18121.047     4.295939     4.295939     4.295939    18121.047    53677.643    6878.6669     -6193.17    7690.1995   -13751.409    8193.5657    79.281949 
   57000     1735.978   -114.02348    1.5707494   -112.45273   -21819.106    4.2984934    4.2984934    4.2984934   -21819.106   -29774.779   -21551.793   -14130.744   -27349.633    5836.1379    -12962.96    79.423461 
   57100    571.24849   -112.98775   0.51687764   -112.47087   -25409.373    4.2906878    4.2906878    4.2906878   -25409.373    13272.688   -70260.992   -19239.816    10558.326   -5197.1048   -55137.871    78.991571 
   57200    2080.3254    -114.3355    1.8823222   -112.45317    22071.027    4.2878651    4.2878651    4.2878651    22071.027    42265.328    12035.733     11912.02    11349.439    450.31079    6038.5779    78.835773 
   57300    1346.6515   -113.67464    1.2184786   -112.45616   -28655.397    4.3103765    4.3103765    4.3103765   -28655.397    9793.5362   -60037.159   -35722.569   -30644.729    2338.4538    -14291.66    80.083976 
   57400    691.56687   -113.08921   0.62574424   -112.46346   -16617.047    4.2922106    4.2922106    4.2922106   -16617.047     25349.75   -44534.111   -30666.779   -9385.1457    3206.2694   -42341.752    79.075707 
   57500    1990.5188   -114.24167    1.8010632   -112.44061    43256.049    4.2863193    4.2863193    4.2863193    43256.049    59909.645    44426.379    25432.123    14280.854    14534.937    12351.934    78.750546 
   57600    1108.4362   -113.46218    1.0029364   -112.45925   -14062.543    4.3029645    4.3029645    4.3029645   -14062.543    10289.346   -17903.675     -34573.3   -21540.366   -17038.987   -25356.379    79.671554 
   57700    669.75142   -113.06726   0.60600516   -112.46126   -11209.191     4.298984     4.298984     4.298984   -11209.191    37594.692   -15617.093   -55605.172   -18580.583    950.30335    -36208.78    79.450655 
   57800    2311.4342   -114.52275    2.0914342   -112.43131    5199.8869    4.3020899    4.3020899    4.3020899    5199.8869    20273.911     25612.63   -30286.881    2951.1181   -2523.7326    11525.746    79.622983 
   57900    739.05413   -113.12362   0.66871171    -112.4549   -21880.415    4.3075083    4.3075083    4.3075083   -21880.415    21410.438   -33971.132    -53080.55   -1362.9342   -13475.851    -31679.97    79.924215 
   58000    1177.5536   -113.51515    1.0654753   -112.44968   -15180.156    4.2969294    4.2969294    4.2969294   -15180.156    27797.069   -26269.311   -47068.227   -22834.611   -10956.952   -24393.221    79.336798 
   58100    2120.7972   -114.36109    1.9189419   -112.44215     10833.19    4.2951607    4.2951607    4.2951607     10833.19    25202.977    27423.015   -20126.422     18510.09    16486.455    11814.982    79.238866 
   58200    1065.5438   -113.43208   0.96412639   -112.46796    2854.4921    4.2874103    4.2874103    4.2874103    2854.4921     46952.54   -6582.0478   -31807.016   -2986.7522    17098.884   -32989.083    78.810694 
   58300    1376.3735   -113.71937    1.2453716     -112.474    9387.6444    4.2917361    4.2917361    4.2917361    9387.6444    51495.413   -1954.6797     -21377.8   -18517.743   -6333.1819   -18760.557    79.049479 
   58400    1855.4458   -114.13122    1.6788464   -112.45238    423.30181    4.3104792    4.3104792    4.3104792    423.30181    -10874.98     24884.72   -12739.835    5896.5284    23389.832    10576.589    80.089697 
   58500    1118.4184   -113.46807    1.0119685    -112.4561   -3795.5888    4.2980365    4.2980365    4.2980365   -3795.5888    12410.412    13017.133   -36814.311    5425.5009     17128.77   -31076.117    79.398137 
   58600      1486.51   -113.79991    1.3450255   -112.45488    5831.4085    4.2897476    4.2897476    4.2897476    5831.4085    54628.455    -17688.28    -19445.95   -15526.479    -7465.084   -15815.002    78.939654 
   58700     2141.429   -114.38638      1.93761   -112.44877     14796.53    4.2887405    4.2887405    4.2887405     14796.53   -8986.3212    40968.065    12407.848   -12957.887    5551.1362    4005.1394    78.884068 
   58800    979.37552   -113.35984   0.88615956   -112.47368   -247.06554    4.2945585    4.2945585    4.2945585   -247.06554    18035.828    6513.5009   -25290.525    32792.943    20691.413   -29892.216    79.205542 
   58900    1215.0296   -113.57239    1.0993843     -112.473    -20415.59    4.3041795    4.3041795    4.3041795    -20415.59    15221.127   -21633.154   -54834.743   -6569.3012   -14631.523   -17555.695    79.739062 
   59000    1863.2922   -114.13494    1.6859459   -112.44899    14145.119    4.2978798    4.2978798    4.2978798    14145.119    7497.6632    51029.652   -16091.958   -4243.6972   -8050.4729     12255.15     79.38945 
   59100    970.53869   -113.34351   0.87816381   -112.46535    -11703.49     4.291802     4.291802     4.291802    -11703.49   -2695.4283   -25436.539   -6978.5032    33344.045    13323.532   -36277.666    79.053125 
   59200    1177.4507   -113.53275    1.0653821   -112.46737   -4186.9071    4.2892795    4.2892795    4.2892795   -4186.9071    27219.619   -18220.895   -21559.445    13933.398    8006.1379   -41093.928    78.913816 
   59300    1887.4984   -114.16859    1.7078482   -112.46074     2862.498    4.2979523    4.2979523    4.2979523     2862.498   -2441.5619    41855.217   -30826.161   -6631.3765    -25460.76     16735.54    79.393469 
   59400    1238.6416   -113.59063    1.1207489   -112.46988   -16815.152    4.3019067    4.3019067    4.3019067   -16815.152   -16506.436   -6726.4112   -27212.607    18408.719   -11517.513   -23654.723     79.61281 
   59500    1030.2859   -113.40108   0.93222431   -112.46886    6893.9353     4.290515     4.290515     4.290515    6893.9353    7334.7155    1625.7233    11721.367    28021.439    15353.036   -36445.482    78.982027 
   59600    1713.0298   -114.01105    1.5499854   -112.46106    15210.946    4.2904629    4.2904629    4.2904629    15210.946    -9805.411    51500.808    3937.4409    -10507.06   -41227.075    12244.177    78.979148 
   59700     1575.316   -113.88555     1.425379   -112.46017   -1659.1505    4.3021635    4.3021635    4.3021635   -1659.1505   -31695.829    11189.221    15529.157     11367.63   -11585.906    572.43115    79.627069 
   59800    1082.7115    -113.4441   0.97966008   -112.46444   -27527.017    4.3071381    4.3071381    4.3071381   -27527.017   -24451.919       -53406   -4723.1324    33515.225    6330.0528   -50997.234    79.903611 
   59900    1340.3911   -113.67031    1.2128141    -112.4575   -8546.2434    4.2952787    4.2952787    4.2952787   -8546.2434   -28870.863     4799.722   -1567.5894    3718.9184   -39256.617   -13998.519    79.245398 
   60000    1826.5283   -114.10643    1.6526812   -112.45375    10589.461       4.2904       4.2904       4.2904    10589.461   -30084.232    31439.333    30413.283   -1277.4762   -21155.669    3744.4907    78.975678 
   60100    1429.3487   -113.75527    1.2933048   -112.46197   -8896.9479    4.3012472    4.3012472    4.3012472   -8896.9479    -18863.78   -19903.029    12075.966    19997.889    12158.737   -34976.765    79.576203 
   60200    841.38605   -113.22649   0.76130378   -112.46519    2915.7535    4.3077167    4.3077167    4.3077167    2915.7535   -26207.829    16124.829    18830.261    10819.179   -39829.739   -22745.465    79.935812 
   60300     1938.098   -114.20362    1.7536318   -112.44999    2296.0883    4.3053967    4.3053967    4.3053967    2296.0883   -29968.883    53583.424   -16726.276   -10773.626   -18206.649     15444.89    79.806731 
   60400    1527.4831   -113.83447    1.3820988   -112.45237     36236.85    4.2867767    4.2867767    4.2867767     36236.85    15703.173    38418.522    54588.855    5909.8268    26519.946   -3414.6776    78.775759 
   60500     580.2098    -113.0077   0.52498602   -112.48272   -7135.2025    4.2932077    4.2932077    4.2932077   -7135.2025   -13610.854    21925.859   -29720.612    16112.361   -40193.849   -26024.173    79.130827 
   60600    1399.1262   -113.73572    1.2659588   -112.46976   -10995.832    4.3049516    4.3049516    4.3049516   -10995.832   -11685.976    9369.3764   -30670.896   -2213.4464    -27791.18   -5135.4718    79.781982 
   60700    1940.5403   -114.20849    1.7558416   -112.45265    11850.106    4.2974455    4.2974455    4.2974455    11850.106   -1061.4847    648.31778    35963.485    -15311.02    19185.538     5501.997    79.365387 
   60800    639.35715     -113.049   0.57850378    -112.4705   -40125.653    4.3056738    4.3056738    4.3056738   -40125.653   -38645.685   -19955.045   -61776.227    16452.301   -42619.889   -34329.419    79.822143 
   60900    1050.9824   -113.42034   0.95095092   -112.46939   -16653.814    4.2937834    4.2937834    4.2937834   -16653.814   -8745.5434    -14467.66   -26748.238    7465.7564   -27332.829     -24887.3    79.162664 
   61000    2057.4928   -114.32102    1.8616627   -112.45935    24697.096    4.2907605    4.2907605    4.2907605    24697.096    4432.1966     15623.56     54035.53   -15713.289    10716.688     12903.03    78.995584 
   61100    1413.2958   -113.75886    1.2787797   -112.48008   -13784.739    4.2974646    4.2974646    4.2974646   -13784.739   -32695.081   -3628.1991   -5030.9379     7433.421   -33459.933   -12676.385    79.366443 
   61200    725.21151   -113.14688   0.65618661   -112.49069    7672.9505    4.2930404    4.2930404    4.2930404    7672.9505   -26282.418    40204.848    9096.4211    17073.454   -37205.195   -29466.904    79.121574 
   61300    2297.5342   -114.54972    2.0788572   -112.47086   -5244.7386    4.3046926    4.3046926    4.3046926   -5244.7386   -5162.5236   -14508.077    3936.3851    4985.6118    3409.1952    13537.368    79.767581 
   61400    1761.4727   -114.06399    1.5938175   -112.47018    7468.3589    4.2962927    4.2962927    4.2962927    7468.3589   -17872.674    37537.391    2740.3597   -6111.8875   -11139.764    3986.4808    79.301534 
   61500    749.82614   -113.15907   0.67845845   -112.48062   -14435.756    4.2937885    4.2937885    4.2937885   -14435.756   -1741.5615   -22754.614   -18811.092    19264.467   -37193.634   -36518.558    79.162947 
   61600     1561.154   -113.88646    1.4125649    -112.4739   -14930.823    4.3057043    4.3057043    4.3057043   -14930.823   -17920.319   -32914.599    6042.4495    9104.1652    335.36441   -12370.873    79.823839 
   61700    1989.9005   -114.25522    1.8005038   -112.45471    17233.148    4.2954293    4.2954293    4.2954293    17233.148    1716.6547   -7457.2422    57440.031   -16354.541    4059.4115    10110.906     79.25373 
   61800    809.32743   -113.20713   0.73229647   -112.47484   -17374.344    4.3016068    4.3016068    4.3016068   -17374.344   -4872.2802   -31594.897   -15655.854    12851.919   -30749.075   -45557.456    79.596162 
   61900    1094.2784   -113.45991   0.99012612   -112.46979   -18859.892    4.3034692    4.3034692    4.3034692   -18859.892   -6195.5446   -31336.689   -19047.441    17479.364   -13074.849   -23697.225     79.69959 
   62000    2025.4064   -114.28622    1.8326303   -112.45359    26279.948    4.2912811    4.2912811    4.2912811    26279.948    11442.164    33428.007    33969.673   -11832.338    14369.549    20284.126    79.024343 
   62100    1360.2907   -113.70761    1.2308196   -112.47679   -5711.8721    4.2945577    4.2945577    4.2945577   -5711.8721   -13654.612     22610.98   -26091.984    7360.2252   -15382.721   -32099.628    79.205499 
   62200    729.92258   -113.14993   0.66044929   -112.48948   -9605.8534    4.2926743    4.2926743    4.2926743   -9605.8534   -11889.158       5518.1   -22446.502    18539.993   -24492.188   -46188.387    79.101334 
   62300    2158.3771   -114.42769     1.952945   -112.47475    3793.1979    4.2995293    4.2995293    4.2995293    3793.1979   -9503.0199    -887.2074    21769.821    13757.181    5517.9402    15451.291    79.480892 
   62400    1635.6716   -113.94977      1.47999   -112.46978   -25719.695    4.3118859    4.3118859    4.3118859   -25719.695   -23057.683   -14379.734   -39721.668   -6023.7813   -5158.6101   -12305.207    80.168133 
   62500    409.02383   -112.84357   0.37009335   -112.47348   -11830.501    4.2968031    4.2968031    4.2968031   -11830.501    3543.2816   -11759.292   -27275.492    23298.765   -12037.517   -53355.147    79.329802 
   62600    1682.3089   -113.98692    1.5221884   -112.46473     5862.374    4.2908302    4.2908302    4.2908302     5862.374    20451.942    568.67824   -3433.4977    17254.565   -1041.1718     2859.742    78.999435 
   62700    1882.1991   -114.16502    1.7030533   -112.46197    9896.0644    4.2971315    4.2971315    4.2971315    9896.0644    13105.941    1875.5755    14706.676   -10804.219   -2511.0383    6993.8197    79.347991 
   62800    823.50866   -113.22597   0.74512794   -112.48085   -3808.8338    4.3009174    4.3009174    4.3009174   -3808.8338    14597.525   -710.00304   -25314.023    9814.5881   -13792.437    -53147.91      79.5579 
   62900     1093.167   -113.46141   0.98912043   -112.47229   -5613.2091    4.3099096    4.3099096    4.3099096   -5613.2091   -28446.443    5576.4256      6030.39    25883.381   -12168.265   -12134.961    80.057956 
   63000    1837.7065   -114.10596    1.6627954   -112.44316    2471.2923      4.30743      4.30743      4.30743    2471.2923   -10789.767   -9591.1337    27794.778   -1071.0049    10438.719    9441.3569    79.919855 
   63100    835.31539   -113.21336   0.75581092   -112.45755   -8059.1443    4.3005872    4.3005872    4.3005872   -8059.1443    5349.4111   -24684.453   -4842.3915    4232.1492   -17613.248   -58554.961    79.539579 
   63200    982.47992   -113.35224   0.88896848   -112.46327     4504.656    4.2918417    4.2918417    4.2918417     4504.656   -29054.165    8694.5909    33873.542    27464.383   -20651.835   -34650.039     79.05532 
   63300    1981.0653   -114.24975    1.7925095   -112.45724    3561.0182    4.2965367    4.2965367    4.2965367    3561.0182   -23202.864   -11755.169    45641.087    -14040.24    3778.4584    8079.3776    79.315045 
   63400    1287.4224   -113.63456    1.1648868   -112.46967   -25994.084    4.3096929    4.3096929    4.3096929   -25994.084    1453.9268   -60434.401   -19001.777   -4249.9208   -10288.503    -38595.06    80.045876 
   63500    921.59536   -113.29642   0.83387885   -112.46254   -15215.689    4.3030561    4.3030561    4.3030561   -15215.689   -22848.193   -27023.343    4224.4692    20006.303   -18851.131   -22336.033    79.676645 
   63600    1743.7369   -114.02542    1.5777698   -112.44765    4043.3727    4.3026862    4.3026862    4.3026862    4043.3727   -31737.205    12598.108    31269.215   -7343.2286    7710.9787    10450.853    79.656098 
   63700     1919.581   -114.18086    1.7368773   -112.44398   -11224.988     4.305088     4.305088     4.305088   -11224.988   -4371.2704   -22725.643   -6578.0499   -12235.314   -2038.3505   -18222.994    79.789565 
   63800    958.70206   -113.32308   0.86745377   -112.45562    -16479.15    4.3037197    4.3037197    4.3037197    -16479.15   -30610.214    3774.3527   -22601.589    23584.668   -27116.524   -21498.729    79.713511 
   63900    1781.4193   -114.06817    1.6118656    -112.4563   -15357.962    4.3024397    4.3024397    4.3024397   -15357.962   -39961.816    7586.8159   -13698.886    4563.8532   -1093.9193     19115.68    79.642407 
   64000    2100.4402   -114.35377    1.9005225   -112.45325    9608.1714    4.2936987    4.2936987    4.2936987    9608.1714    3090.9869    13837.255    11896.272   -6260.7764    1671.0039     13836.61    79.157981 
   64100    1074.8602    -113.4458   0.97255608   -112.47325    13324.561     4.294245     4.294245     4.294245    13324.561   -13722.414    1873.7838    51822.312    29260.926   -24609.141   -20614.588    79.188195 
   64200    1279.8109   -113.63116    1.1579998   -112.47316    4406.0139    4.3094562    4.3094562    4.3094562    4406.0139    -37376.25    9345.1633    41249.129    5386.0896   -26721.263   -16579.591    80.032688 
   64300    1661.0418   -113.96858    1.5029456   -112.46564    8158.6228    4.3010922    4.3010922    4.3010922    8158.6228    6481.9393    17228.725    765.20405    -8149.807    10411.592    19883.948    79.567601 
   64400    1021.5697    -113.3944   0.92433769   -112.47006    14444.143    4.2812108    4.2812108    4.2812108    14444.143    34256.385   -16332.554    25408.599    21831.488   -7256.5414    13728.069    78.469309 
   64500    1015.7385   -113.40054   0.91906152   -112.48147   -20628.439    4.2983012    4.2983012    4.2983012   -20628.439   -31092.399   -4804.8407   -25988.077    19565.237   -38253.464   -21946.635    79.412807 
   64600    1707.0851   -114.00662    1.5446064   -112.46201   -10179.145     4.307722     4.307722     4.307722   -10179.145    25659.623   -25302.418    -30894.64   -14860.468   -236.28793    2712.4171    79.936112 
   64700    1506.4989   -113.82733    1.3631119   -112.46421   -24740.535    4.3023887    4.3023887    4.3023887   -24740.535     1041.378   -54230.842   -21032.142    22764.809    3116.1631    36739.736    79.639576 
   64800    845.22432   -113.24448   0.76477673    -112.4797   -23429.051    4.2875617    4.2875617    4.2875617   -23429.051   -38341.891   -17298.411   -14646.852    38901.445   -23964.744   -10907.254    78.819039 
   64900    1464.6474   -113.80453    1.3252437   -112.47929    8860.8556    4.2790507    4.2790507    4.2790507    8860.8556    20789.177    10070.081   -4276.6911   -5147.9265    -18773.51   -24040.408    78.350597 
   65000    2032.6038   -114.31737    1.8391426   -112.47823    5976.3967    4.3037417    4.3037417    4.3037417    5976.3967      37573.7   -17888.483   -1756.0266    3164.0824    8703.5755    11404.663    79.714734 
   65100    1296.1612    -113.6545    1.1727939   -112.48171    -10674.73    4.3063803    4.3063803    4.3063803    -10674.73   -14501.302    9553.0433   -27075.932    17313.079   -20700.205    5214.0555    79.861442 
   65200    587.66555   -113.00747   0.53173214   -112.47573    9110.7547    4.2882462    4.2882462    4.2882462    9110.7547    38114.683    25514.606   -36297.025    17161.579   -26035.789   -41700.517    78.856796 
   65300     1656.386   -113.96572    1.4987329   -112.46699   -8902.3406    4.2951458    4.2951458    4.2951458   -8902.3406   -6905.4522    -7849.287   -11952.283   -21022.894    12035.402   -22563.086    79.238043 
   65400    1554.6806   -113.87494    1.4067077   -112.46823    19619.342    4.2911675    4.2911675    4.2911675    19619.342   -5219.4801    15359.722    48717.786   -21064.448   -12913.393     12174.75    79.018069 
   65500    785.97632    -113.1955    0.7111679   -112.48433   -9732.9028    4.2971093    4.2971093    4.2971093   -9732.9028   -4471.8026   -3036.9653    -21689.94    17973.617   -33080.336    -48264.73    79.346758 
   65600    1265.6766   -113.61929    1.1452108   -112.47408   -30832.005    4.3084972    4.3084972    4.3084972   -30832.005    -36620.31    -17792.39   -38083.314    -1574.417   -5144.4514   -28989.226    79.979274 
   65700    1964.2991   -114.23401    1.7773391   -112.45667    11266.992    4.2917878    4.2917878    4.2917878    11266.992   -14368.874     21557.41     26612.44   -19423.475    9643.2033    23091.378    79.052337 
   65800    1243.0253   -113.59566    1.1247154   -112.47094   -5928.7963    4.2908583    4.2908583    4.2908583   -5928.7963   -1569.1096     15365.35   -31582.629     9406.905   -14800.429   -33557.876    79.000988 
   65900    1004.5944   -113.38925   0.90897813   -112.48027   -21642.022    4.3018174    4.3018174    4.3018174   -21642.022   -15285.785   -40459.025   -9181.2571    8558.8956   -27873.933    -33792.94    79.607855 
   66000    2081.5464   -114.34836     1.883427   -112.46493    3131.2767    4.2955877    4.2955877    4.2955877    3131.2767   -282.60176   -16885.887    26562.319    -9525.163    16744.643    17770.696    79.262499 
   66100    1408.6007   -113.74407    1.2745315   -112.46954   -14571.641    4.3004299    4.3004299    4.3004299   -14571.641    6389.9006   -28575.553   -21529.271    2825.4551   -11106.813   -24323.449    79.530851 
   66200    701.73041   -113.11417   0.63494042   -112.47923   -16947.835     4.298365     4.298365     4.298365   -16947.835    -7226.207   -13939.717    -29677.58    16744.034   -42098.732   -47578.134     79.41634 
   66300    1897.6967   -114.18056    1.7170758   -112.46348    9243.1324    4.2942731    4.2942731    4.2942731    9243.1324   -6672.8364     13096.78    21305.453   -2289.3074   -1106.6084    3703.8413    79.189751 
   66400     1688.924   -113.99122    1.5281739   -112.46305   -4169.8366    4.3036656    4.3036656    4.3036656   -4169.8366   -659.51011    7585.2626   -19435.262   -18569.092    4252.6714   -7758.1613    79.710504 
   66500    630.43787   -113.04801   0.57043344   -112.47758   -912.79705    4.2986991    4.2986991    4.2986991   -912.79705   -2701.2243    36998.508   -37035.675    13634.097   -19348.594   -37376.068    79.434859 
   66600    1470.2031   -113.80166    1.3302707   -112.47139   -3911.5364    4.2963201    4.2963201    4.2963201   -3911.5364   -25264.146   -4142.1813    17671.718    26380.725   -15084.111    14440.007     79.30305 
   66700    2100.9459    -114.3614      1.90098   -112.46042   -267.37361    4.2949434    4.2949434    4.2949434   -267.37361   -9062.8523    2470.9627    5789.7688    397.44785    4732.3853    16053.741    79.226841 
   66800    1275.0178     -113.628    1.1536629   -112.47433   -6239.2052    4.2952525    4.2952525    4.2952525   -6239.2052   -13709.978   -3973.9073     -1033.73    2313.2422   -11504.786   -38115.096    79.243945 
   66900    1124.6561   -113.49812    1.0176125   -112.48051   -22790.372    4.3031377    4.3031377    4.3031377   -22790.372     -54327.9   -5490.2021   -8553.0154    35644.856   -14821.455    -17875.63    79.681177 
   67000    1652.9019   -113.96138    1.4955804    -112.4658    8448.7367     4.297732     4.297732     4.297732    8448.7367    -2427.172    11983.631    15789.751    4746.3044   -2195.3118    43724.794    79.381259 
   67100    1406.6169    -113.7407    1.2727365   -112.46797    8927.5056    4.2891919    4.2891919    4.2891919    8927.5056    10051.499     29357.62   -12626.603   -6072.2558   -2527.2103    -3683.224    78.908978 
   67200    695.70566   -113.11117    0.6294891   -112.48168   -24423.711    4.2982564    4.2982564    4.2982564   -24423.711   -40302.605   -25880.958   -7087.5697    33686.268   -20704.425   -46474.173    79.410323 
   67300    1591.3337   -113.90877    1.4398722   -112.46889   -21210.106    4.3000943    4.3000943    4.3000943   -21210.106    -27629.78   -19573.975   -16426.564    16332.289   -3613.1056    20279.906    79.512232 
   67400    1685.0646   -113.98858    1.5246818    -112.4639   -2446.3582    4.2976286    4.2976286    4.2976286   -2446.3582    10914.921    4716.8596   -22970.855   -16699.438    6878.3675   -3004.7599    79.375531 
   67500    716.80692   -113.12841   0.64858196   -112.47983   -2217.5987    4.2923515    4.2923515    4.2923515   -2217.5987   -17643.026    25140.436   -14150.206    27421.509   -16740.373   -44062.189    79.083492 
   67600    1212.4941   -113.58136    1.0970901   -112.48427   -1543.3093    4.2873613    4.2873613    4.2873613   -1543.3093   -30680.007    22911.192     3138.887    30883.892   -16092.079   -11968.677    78.807988 
   67700     1955.977   -114.24531    1.7698091    -112.4755    7310.2599    4.2987012    4.2987012    4.2987012    7310.2599   -12156.895    10647.093    23440.581   -12578.319    5546.5517     12457.03    79.434976 
   67800     1270.061   -113.62561    1.1491779   -112.47643   -22435.211    4.3086503    4.3086503    4.3086503   -22435.211   -5109.0593   -24044.999   -38151.575    3355.0558    5.9044518   -43909.359      79.9878 
   67900    1110.3087   -113.47476    1.0046306   -112.47013   -24719.135    4.2995396    4.2995396    4.2995396   -24719.135   -34014.397   -31952.986   -8190.0213    29496.362   -26469.706   -11751.072    79.481467 
   68000    1828.4736   -114.10926    1.6544413   -112.45482     9428.024    4.2940224    4.2940224    4.2940224     9428.024   -3140.4495    11977.691    19446.831   -4561.0839    8721.2922    19396.604    79.175881 
   68100    1529.9383   -113.84558    1.3843203   -112.46126    1770.0052     4.299021     4.299021     4.299021    1770.0052    21156.113    19705.971   -35552.068    -11354.19    2894.8332   -23006.538     79.45271 
   68200    864.70706    -113.2543   0.78240512   -112.47189    10448.813     4.297959     4.297959     4.297959    10448.813    495.59517      39596.4   -8745.5563    39556.931   -19765.487   -17919.739    79.393842 
   68300    1621.6207   -113.93042    1.4672765   -112.46315   -3357.6875     4.309669     4.309669     4.309669   -3357.6875   -25343.621    7450.9935    7819.5648    23734.914    -1586.532    6133.3789    80.044548 
   68400    1874.8325   -114.15505    1.6963879   -112.45866    6957.2262    4.2986669    4.2986669    4.2986669    6957.2262    30887.313    10230.316   -20245.951   -11890.381    2542.1444    7228.2839    79.433078 
   68500     1031.134   -113.40255   0.93299167   -112.46956    13061.613    4.2860153    4.2860153    4.2860153    13061.613    15687.453   -1541.7406    25039.126    34089.902   -3107.2687   -24771.573    78.733791 
   68600    1406.7463   -113.75239    1.2728536   -112.47954   -24475.793     4.305318     4.305318     4.305318   -24475.793    -26100.01   -50568.557    3241.1879    29130.162    -6042.766   -1552.4911    79.802355 
   68700    2190.8771   -114.44008    1.9823516   -112.45772    14590.762    4.3045152    4.3045152    4.3045152    14590.762     35990.49    9738.9058   -1957.1089   -19690.168    7842.5898    15269.772    79.757719 
   68800    1253.9347    -113.6041    1.1345864   -112.46952    561.66644    4.2982374    4.2982374    4.2982374    561.66644   -19971.242    9853.1446    11803.097    39257.313    -5353.174   -12933.203    79.409269 
   68900    887.17047   -113.27721   0.80273049   -112.47448   -28518.526    4.2994072    4.2994072    4.2994072   -28518.526   -45616.151    -48320.68    8381.2531    43067.042   -12600.705    -12066.05    79.474125 
   69000    1583.4308   -113.89307    1.4327215   -112.46034    34588.675     4.286144     4.286144     4.286144    34588.675    48750.904    51212.103    3803.0184   -26688.863    2539.3978    10627.078    78.740882 
   69100    1430.9797   -113.76398    1.2947805    -112.4692    2934.1031    4.2980065    4.2980065    4.2980065    2934.1031    7315.6956   -1218.0227    2704.6365    21164.153    11836.112   -6523.8548    79.396473 
   69200    984.14556    -113.3538   0.89047558   -112.46332   -28357.232    4.3144543    4.3144543    4.3144543   -28357.232   -28551.397   -48566.486    -7953.813    41385.912   -7301.5403   -20077.578    80.311478 
   69300    1567.1785   -113.86127    1.4180161   -112.44326   -14743.167    4.3019158    4.3019158    4.3019158   -14743.167    -26404.35    6366.0452   -24191.196   -32123.495   -16473.913    9968.7894    79.613317 
   69400    1420.7095   -113.72673    1.2854878   -112.44124   -2817.7389    4.2945803    4.2945803    4.2945803   -2817.7389     3578.521   -1618.3815   -10413.356    3324.5304    26200.728   -3455.3041    79.206749 
   69500    1723.3408   -114.00751     1.559315   -112.44819   -7071.3748    4.3002882    4.3002882    4.3002882   -7071.3748    3862.0546   -20683.942   -4392.2366    14696.991   -15603.232   -12160.011    79.522986 
   69600    1273.2524   -113.61545    1.1520655   -112.46339     515.4882    4.2948982    4.2948982    4.2948982     515.4882    11045.122    27694.438   -37193.096   -12464.431   -31136.342    10500.792    79.224336 
   69700    929.92933   -113.31882    0.8414196    -112.4774   -9965.6634    4.3007895    4.3007895    4.3007895   -9965.6634    17463.504    3481.9652   -50842.459   -9587.0209     35832.72    4776.2435    79.550802 
   69800    2046.0228   -114.31063    1.8512844   -112.45934   -5400.6259    4.3009532    4.3009532    4.3009532   -5400.6259    15740.057   -5834.4822   -26107.452    -2443.715    28472.275   -388.52704    79.559886 
   69900    1557.2334   -113.87455    1.4090175   -112.46554    3364.0239    4.2888289    4.2888289    4.2888289    3364.0239     19924.29    7594.2685   -17426.487    9296.9066   -43050.852    1038.9832    78.888946 
   70000    654.43549   -113.06596   0.59214699   -112.47381   -29343.922    4.3029768    4.3029768    4.3029768   -29343.922   -57763.793    2298.8672   -32566.839   -26397.843    28445.112    16290.028    79.672235 
   70100    1549.8552   -113.85989    1.4023415   -112.45755   -3149.6296    4.3059167    4.3059167    4.3059167   -3149.6296     27929.16   -15786.279   -21591.769    9175.6508    16377.441   -1001.7018    79.835654 
   70200    1502.2548   -113.81731    1.3592717   -112.45804    7016.1856    4.2943294    4.2943294    4.2943294    7016.1856    40364.011   -8420.6636   -10894.791    21557.706   -24768.917   -15715.972    79.192866 
   70300    1234.7544   -113.58072    1.1172318   -112.46349    2682.6747    4.2968365    4.2968365    4.2968365    2682.6747    4311.0484    18073.345   -14336.369   -27250.649     3413.562     12315.07     79.33165 
   70400    1383.8543   -113.71547    1.2521405   -112.46333   -18686.507    4.3041996    4.3041996    4.3041996   -18686.507   -17539.553   -18443.226   -20076.743    10672.705     24418.87   -12438.571    79.740179 
   70500    1282.7335   -113.62871    1.1606442   -112.46807    17298.093    4.2889779    4.2889779    4.2889779    17298.093    49772.648    -15480.13    17601.761     48503.77    1189.0641   -17636.967    78.897168 
   70600    2029.3372   -114.29832    1.8361869   -112.46213    18839.971    4.2930686    4.2930686    4.2930686    18839.971    32902.548    23593.734    23.630596   -12094.792   -508.26218    7340.7941    79.123132 
   70700    1508.9494   -113.83784    1.3653291   -112.47251   -5883.4462    4.3033852    4.3033852    4.3033852   -5883.4462   -859.56927   -11246.646   -5544.1228    -166.7729    13509.205   -3361.0967    79.694927 
   70800    825.48281   -113.23259    0.7469142   -112.48567   -2356.7746    4.2898828    4.2898828    4.2898828   -2356.7746   -1507.3042   -6878.6085    1315.5888     51525.77    13617.217   -39644.986    78.947117 
   70900    1859.2114   -114.15721    1.6822535   -112.47495    21809.659    4.2950246    4.2950246    4.2950246    21809.659    29112.842    17570.711    18745.423   -940.11002   -10011.017    2390.0057    79.231336 
   71000    1942.8862   -114.22478    1.7579643   -112.46682   -12407.595    4.3098742    4.3098742    4.3098742   -12407.595   -20022.807   -2416.5444   -14783.434    8459.4581   -6072.7786    21188.759    80.055979 
   71100    429.07007   -112.86083   0.38823162    -112.4726   -4681.7813    4.3060153    4.3060153    4.3060153   -4681.7813   -30004.119     3490.379    12468.397     47426.08    6567.2516   -34134.905    79.841133 
   71200    1660.3283   -113.95357       1.5023   -112.45127   -1113.7003    4.3044593    4.3044593    4.3044593   -1113.7003    34115.449     -17336.7    -20119.85   -8990.1629   -9905.2102   -9064.3785    79.754615 
   71300    1971.3124     -114.236    1.7836849   -112.45231    23210.245    4.2884503    4.2884503    4.2884503    23210.245    22002.364    19423.959     28204.41    4580.0748   -4894.5653     12464.47    78.868057 
   71400    1106.2445    -113.4767    1.0009533   -112.47575    16573.888     4.281976     4.281976     4.281976    16573.888    44489.045   -6813.4035    12046.024    48360.255    11756.217   -19508.615    78.511394 
   71500    1177.9299   -113.54772    1.0658157   -112.48191   -15133.454    4.3094688    4.3094688    4.3094688   -15133.454    12326.508   -8558.3569   -49168.513    1149.6873    1573.6901   -16000.345     80.03339 
   71600    1763.9477   -114.05127     1.596057   -112.45521   -4703.8111    4.3101062    4.3101062    4.3101062   -4703.8111   -31265.566    37083.493    -19929.36   -7175.6672    -15533.14     14343.28    80.068911 
   71700    1407.9662   -113.72528    1.2739574   -112.45132    2632.7377    4.2976443    4.2976443    4.2976443    2632.7377    19198.309    -15236.61    3936.5139    41713.612    4204.9636   -12597.888    79.376401 
   71800    1530.9035   -113.83757    1.3851936   -112.45238   -1105.3803    4.2950735    4.2950735    4.2950735   -1105.3803   -675.95241    17688.314   -20328.503   -6434.1557    24412.797    -20898.03    79.234042 
   71900     1207.603   -113.55537    1.0926646    -112.4627    -201.4728    4.2937114    4.2937114    4.2937114    -201.4728   -25625.569    28525.614   -3504.4631    4637.2075   -8157.2014   -4777.0812    79.158679 
   72000     1126.118   -113.48945    1.0189353   -112.47052   -2864.2509    4.3050749    4.3050749    4.3050749   -2864.2509   -3102.6286   -36989.781    31499.657    33860.456   -19469.454    17457.825    79.788839 
   72100    1435.3257   -113.75736    1.2987128   -112.45865   -11545.737    4.3071392    4.3071392    4.3071392   -11545.737    -38641.33    20852.608   -16848.489   -8125.7544    43871.468   -493.42432    79.903668 
   72200    1165.1919   -113.50671    1.0542901   -112.45242   -4071.7511    4.2992794    4.2992794    4.2992794   -4071.7511   -36644.969    2373.8446    22055.872   -133.65806    20911.306   -6985.2056    79.467036 
   72300    1225.1292   -113.56031    1.1085226   -112.45179   -19340.692    4.3022054    4.3022054    4.3022054   -19340.692    346.01222   -51976.893   -6391.1958    30830.885   -27192.947    16506.772    79.629395 
   72400    1472.5594   -113.78795    1.3324027   -112.45555   -7096.0217    4.2940427    4.2940427    4.2940427   -7096.0217   -14455.898    4337.8401   -11170.007    147.43516     36148.65    13844.402    79.177007 
   72500    1480.2868   -113.80245    1.3393946   -112.46305     12104.33    4.2955321    4.2955321    4.2955321     12104.33    12465.186    10469.832    13377.971   -4510.7034    26521.526   -3174.2545    79.259422 
   72600    1584.4124   -113.89895    1.4336096   -112.46534   -18129.205    4.3053978    4.3053978    4.3053978   -18129.205   -16880.135   -48889.894    11382.413    25575.918   -34302.457    5207.7872    79.806789 
   72700    1317.4136   -113.65982    1.1920235   -112.46779    8081.7996      4.29522      4.29522      4.29522    8081.7996    8031.2394   -2172.0812    18386.241    8338.2038    19816.663    23546.974    79.242148 
   72800    1944.2983   -114.21804    1.7592419    -112.4588    7759.3415    4.2933781    4.2933781    4.2933781    7759.3415     14363.21     30073.12   -21158.305   -7873.0208    38435.472   -306.70978    79.140247 
   72900    1138.7823   -113.49875    1.0303942   -112.46835   -14764.895    4.3002737    4.3002737    4.3002737   -14764.895   -5295.5193   -41928.326    2929.1612    19358.029   -16737.336   -18202.147    79.522186 
   73000    1176.8494    -113.5349    1.0648381   -112.47006   -10830.216    4.2953266    4.2953266    4.2953266   -10830.216    13075.544   -7434.9976   -38131.193    16077.327   -20970.011    16404.044    79.248046 
   73100    2117.7252   -114.36977    1.9161622    -112.4536    5937.5041    4.3066448    4.3066448    4.3066448    5937.5041    34838.465   -726.82001   -16299.133   -8172.6324    11067.139   -16.190724    79.876154 
   73200    943.17248    -113.3208   0.85340228   -112.46739   -23222.649    4.3088818    4.3088818    4.3088818   -23222.649   -21677.602   -37527.856   -10462.488    21740.469   -11277.751   -23652.012     80.00069 
   73300    991.87014   -113.35821   0.89746494   -112.46075   -12341.227     4.290769     4.290769     4.290769   -12341.227    12892.053   -21129.914    -28785.82    31842.643   -27885.727    9452.6625    78.996057 
   73400    1815.4901   -114.09646    1.6426936   -112.45377    5792.0193    4.2966335    4.2966335    4.2966335    5792.0193    25430.254   -466.52152   -7587.6741   -14952.112    6031.3635    -2777.544    79.320404 
   73500    1306.8558   -113.64715    1.1824706   -112.46468    8131.6373    4.2952829    4.2952829    4.2952829    8131.6373    13001.571   -13030.946    24424.287     2179.161    12040.874   -13560.102     79.24563 
   73600    1195.5231   -113.55126    1.0817344   -112.46953    5371.6638    4.3014838    4.3014838    4.3014838    5371.6638    40382.643   -27516.094    3248.4427    36780.003   -21802.974    4668.9674    79.589333 
   73700    1875.4505    -114.1524     1.696947   -112.45546    -8678.579    4.3045653    4.3045653    4.3045653    -8678.579   -25069.276    25581.102   -26547.563    -2753.488    11014.214    6203.9083    79.760509 
   73800    1173.4806   -113.52318    1.0617899   -112.46139      30922.2    4.2800595    4.2800595    4.2800595      30922.2    41749.234    24326.987    26690.378   -7592.1708     32147.15   -7685.2178    78.406019 
   73900    1489.7504   -113.81847    1.3479575   -112.47051    9676.6036    4.2964349    4.2964349    4.2964349    9676.6036      24302.3   -3669.4506    8396.9616    36669.817   -22665.418   -13711.056    79.309407 
   74000    1954.9181    -114.2161     1.768851   -112.44725    6034.0281    4.3092206    4.3092206    4.3092206    6034.0281    4236.0937    20664.303   -6798.3124   -2091.7302    20047.497    4304.1132    80.019566 
   74100    1243.9191   -113.57713    1.1255241    -112.4516    5265.1346    4.2991113    4.2991113    4.2991113    5265.1346    6788.6149    13386.273   -4379.4846   -1841.6743        42843   -8406.2517    79.457713 
   74200    1474.8838   -113.78676    1.3345059   -112.45226   -23238.487    4.3037215    4.3037215    4.3037215   -23238.487   -39489.093   -42812.276    12585.908    9748.9534   -4250.2767   -7036.1239    79.713609 
   74300    1853.1169   -114.11907    1.6767391   -112.44233    9587.4646    4.2946674    4.2946674    4.2946674    9587.4646    5642.3914    16312.598     6807.404   -1751.1909   -2253.8805   -5806.5401    79.211568 
   74400    1107.1866   -113.45807    1.0018057   -112.45626   -14948.144    4.3090645    4.3090645    4.3090645   -14948.144   -10025.991   -15127.721   -19690.718   -13500.087    17618.582    1895.8544    80.010867 
   74500    1590.8525   -113.87611    1.4394367   -112.43667   -10544.318    4.3148097    4.3148097    4.3148097   -10544.318   -11188.966   -27575.041    7131.0548   -15267.801     2406.906   -15167.449    80.331327 
   74600    1265.6985   -113.58079    1.1452306   -112.43556    6129.1935    4.2946209    4.2946209    4.2946209    6129.1935    13202.329    16153.374   -10968.123    7388.4233   -31763.413     1094.605    79.208994 
   74700    983.10987   -113.33493   0.88953847   -112.44539   -8600.1035     4.297727     4.297727     4.297727   -8600.1035   -7845.9588    -12231.08   -5723.2717       -10037    156.36334    11828.501    79.380982 
   74800    1711.5339   -113.98892    1.5486318   -112.44029   -14580.384    4.3069631    4.3069631    4.3069631   -14580.384   -27083.852   -27625.892    10968.592   -21718.305    9331.3081   -12817.365    79.893866 
   74900    1104.8942    -113.4462    0.9997315   -112.44647   -6072.8717    4.3044381    4.3044381    4.3044381   -6072.8717   -18006.933    25218.137   -25429.819    10795.313   -55947.836    2860.1491    79.753438 
   75000    1354.7572   -113.67352    1.2258128   -112.44771   -9961.8559     4.302099     4.302099     4.302099   -9961.8559   -26471.831   -4517.3229    1103.5859   -6523.2226   -12293.867     2269.375    79.623491 
   75100    1669.8918   -113.95765    1.5109532    -112.4467    21669.754    4.2897777    4.2897777    4.2897777    21669.754    41977.932   -11899.778    34931.106   -16411.364        17399    911.66707    78.941318 
   75200    928.75577   -113.30756   0.84035774    -112.4672   -1861.2535    4.2908346    4.2908346    4.2908346   -1861.2535    608.91257    6806.2106   -12998.884   -14649.078   -58781.872   -1583.6531     78.99968 
   75300    1712.0974   -114.01206    1.5491417   -112.46292   -5915.4421    4.3048076    4.3048076    4.3048076   -5915.4421    10802.926     7596.318    -36145.57     11838.96   -12049.637    5660.9865    79.773974 
   75400    1888.1106    -114.1561    1.7084022    -112.4477   -6400.2734    4.3086645    4.3086645    4.3086645   -6400.2734   -5281.9999   -39183.501    25264.681   -34243.274    4092.4822    4114.9034    79.988591 
   75500    952.48473   -113.31985    0.8618282   -112.45802   -26738.202    4.2978117    4.2978117    4.2978117   -26738.202   -42546.312   -3904.0125   -33764.281    -25902.58   -66917.802    1580.8653    79.385677 
   75600    1695.0077   -113.98272    1.5336786   -112.44904    26447.001    4.2853485    4.2853485    4.2853485    26447.001    57593.565    25458.254   -3710.8149    14913.001   -12927.439    9083.4151    78.697049 
   75700    1746.3285   -114.03604    1.5801148   -112.45592   -11622.351    4.3038341    4.3038341    4.3038341   -11622.351   -27679.701   -33212.026    26024.674   -28239.247    16118.992    3618.3588    79.719866 
   75800    734.40119   -113.13539   0.66450163   -112.47089   -10474.925    4.2969045    4.2969045    4.2969045   -10474.925   -31294.154    3820.0594   -3950.6787   -31827.063   -50437.224   -8197.1823    79.335416 
   75900    1677.3111   -113.97336    1.5176664   -112.45569    13326.652    4.2907121    4.2907121    4.2907121    13326.652    31223.898    22624.776   -13868.717    14663.682   -24067.376   -5388.2223    78.992911 
   76000    1469.0766   -113.78097    1.3292514   -112.45172   -20949.243     4.310532     4.310532     4.310532   -20949.243   -44460.399   -32067.866    13680.537    -20596.72     18221.24    6077.4845    80.092641 
   76100    730.64096   -113.11558   0.66109929   -112.45448    1790.7399    4.2973002    4.2973002    4.2973002    1790.7399   -30254.813    16839.237    18787.796   -42178.179   -26026.324    3144.1881    79.357339 
   76200    1763.6646   -114.03988    1.5958008   -112.44408     3590.752    4.2950625    4.2950625    4.2950625     3590.752    26735.889   -16292.533    328.89894    20736.087   -18700.427   -12325.245    79.233431 
   76300    1434.5872    -113.7533    1.2980447   -112.45526   -14005.658    4.2988934    4.2988934    4.2988934   -14005.658   -28436.672   -28438.232    14857.931   -9122.7773    10568.498   -15465.108    79.445634 
   76400    1416.8864    -113.7382    1.2820286   -112.45617    10330.384    4.2891948    4.2891948    4.2891948    10330.384    -5184.006    9238.3377    26936.821   -32746.106   -23257.838    7439.6412    78.909142 
   76500    1702.7273   -113.99127    1.5406634   -112.45061   -11193.073    4.3093985    4.3093985    4.3093985   -11193.073   -4435.4688   -14587.788   -14555.962    11269.162   -12906.992   -19474.707    80.029477 
   76600    1256.5502   -113.59476     1.136953   -112.45781   -10401.168    4.3024559    4.3024559    4.3024559   -10401.168   -27055.865   -16309.105    12161.467    26589.885     13504.22   -8909.4772    79.643306 
   76700    1548.9905   -113.84537    1.4015591   -112.44381    37350.227    4.2847606    4.2847606    4.2847606    37350.227    47052.989    29064.797    35932.896   -14837.795   -10531.091    7012.6879    78.664662 
   76800    1539.7501   -113.84316    1.3931982   -112.44997    116.38009    4.3003177    4.3003177    4.3003177    116.38009    12935.626   -4783.5891   -7802.8967    7267.8046    1868.8147   -14109.794    79.524626 
   76900    852.34888    -113.2312   0.77122318   -112.45998   -778.10793    4.2978589    4.2978589    4.2978589   -778.10793    42381.146   -43502.114   -1213.3549    56807.242    4940.7646   -7212.7565    79.388291 
   77000    1723.3345   -114.00819    1.5593092   -112.44888    8777.7733    4.3038424    4.3038424    4.3038424    8777.7733    6503.0696    9092.4124    10737.838   -12607.329   -269.75983    2877.8725    79.720328 
   77100    1614.3795   -113.91439    1.4607245   -112.45367   -15909.541    4.3015303    4.3015303    4.3015303   -15909.541    2745.4299   -32753.457   -17720.595     4676.772    3391.8124   -15794.883    79.591916 
   77200    622.47558   -113.02676   0.56322898   -112.46353    29197.213    4.2765015    4.2765015    4.2765015    29197.213    52572.105    -194.5308    35214.064    53867.794   -367.91852    -5474.186     78.21065 
   77300    1750.9109   -114.04938     1.584261   -112.46512   -1070.1655    4.3004576    4.3004576    4.3004576   -1070.1655   -2098.2699    13996.882   -15109.109   -10712.959    15825.311    -3685.196    79.532386 
   77400    1595.1527   -113.89146    1.4433277   -112.44813   -9901.2828    4.3130578    4.3130578    4.3130578   -9901.2828    5195.0385   -24244.327    -10654.56    -7700.535   -7835.0889   -5659.9557    80.233516 
   77500    1018.1216   -113.36885    0.9212178   -112.44763    16720.071    4.2976687    4.2976687    4.2976687    16720.071     50962.61    5931.6231   -6734.0204    49843.962    7214.8055   -11036.298    79.377753 
   77600    1875.9945    -114.1384    1.6974393   -112.44096    316.87775    4.2922536    4.2922536    4.2922536    316.87775    1717.4572    9251.1607   -10017.985   -4392.3333    12978.706   -6916.3336     79.07808 
   77700    1399.7512   -113.72055    1.2665243   -112.45403    28065.395    4.2787743    4.2787743    4.2787743    28065.395    42784.049    23942.558    17469.576   -32283.127   -10295.433    4984.8948    78.335412 
   77800    1325.4094   -113.67481    1.1992583   -112.47556   -20413.246    4.3043337    4.3043337    4.3043337   -20413.246   -9423.4792   -47465.896   -4350.3623    30106.591    9726.2625   -17654.734    79.747634 
   77900    1696.6856   -113.98229    1.5351968   -112.44709   -17610.062    4.3140163    4.3140163    4.3140163   -17610.062   -21417.911    11951.845   -43364.122    10589.405   -8583.4668   -4591.7478     80.28702 
   78000    1282.6636   -113.60613     1.160581   -112.44555   -6685.9433    4.2894054    4.2894054    4.2894054   -6685.9433   -11281.451   -11211.063    2434.6837    -57432.64   -9310.9745    5932.5714    78.920765 
   78100    1538.2026   -113.84446     1.391798   -112.45266    7242.2088    4.2857053    4.2857053    4.2857053    7242.2088   -9176.5206   -7841.0338    38744.181   -9374.3451    5362.9455   -6875.6253    78.716704 
   78200     1803.029   -114.08843    1.6314185   -112.45701    15510.083    4.2898532    4.2898532    4.2898532    15510.083    -75.01808    45578.237    1027.0312    22638.879   -8984.7628   -3490.6604    78.945485 
   78300    595.36931   -113.02184   0.53870266   -112.48313   -32937.572    4.3084602    4.3084602    4.3084602   -32937.572   -75385.052   -33218.017    9790.3538   -48776.969   -2367.4201    10562.016    79.977212 
   78400    1278.6633   -113.62539    1.1569614   -112.46843   -12958.492    4.3077911    4.3077911    4.3077911   -12958.492   -39457.361    -32179.29    32761.177   -31448.817    809.00253    4474.5992    79.939958 
   78500    2154.3493   -114.39681    1.9493006   -112.44751    27196.024    4.2764191    4.2764191    4.2764191    27196.024    7610.4327     30926.27    43051.371    24756.786   -5323.7998    1005.1624     78.20613 
   78600    932.04637   -113.31824   0.84333515    -112.4749   -13001.704    4.2887655    4.2887655    4.2887655   -13001.704   -56595.681   -4328.7651    21919.335   -50220.759    1977.6896   -490.58902     78.88545 
   78700    1357.6728   -113.69235    1.2284509    -112.4639   -12063.629    4.3042153    4.3042153    4.3042153   -12063.629   -21542.238   -20409.313    5760.6647   -30980.535    3769.4341    5618.7548    79.741051 
   78800    1734.8126   -114.02423    1.5696949   -112.45454    7733.5958     4.298697     4.298697     4.298697    7733.5958   -7256.7756     15730.19    14727.373    45659.785   -6103.9457    9746.3379    79.434742 
   78900    1152.3929     -113.506    1.0427094   -112.46329    -8868.814    4.2983716    4.2983716    4.2983716    -8868.814   -54709.541    -1527.228    29630.327   -16711.934   -9690.3771   -3908.5045    79.416705 
   79000    1849.4834   -114.12687    1.6734515   -112.45342    16954.831    4.2860158    4.2860158    4.2860158    16954.831    15012.159    21019.408    14832.925   -37329.322    6696.1582    8000.4261    78.733818 
   79100    1471.5832   -113.80157    1.3315194   -112.47006   -7517.3434     4.296965     4.296965     4.296965   -7517.3434   -21050.867   -14408.681    12907.518    62157.809     -4376.15    8727.4708    79.338768 
   79200    1237.3632   -113.58711    1.1195922   -112.46751   -11403.022    4.3074769    4.3074769    4.3074769   -11403.022   -16126.576   -24417.469    6334.9784     22133.72   -7868.7445    3397.9658    79.922463 
   79300    1985.9568   -114.24061    1.7969355   -112.44368     14894.63    4.3000577    4.3000577    4.3000577     14894.63    1087.9124    43382.633    213.34544    -38033.82   -5536.7303     7177.352    79.510202 
   79400    828.41484   -113.20621   0.74956716   -112.45664   -11088.218    4.3028303    4.3028303    4.3028303   -11088.218    -52417.05   -10990.431    30142.827    67835.321    4701.8861    11931.912    79.664102 
   79500    1013.6428   -113.37285   0.91716533   -112.45569    4586.2717    4.2959631    4.2959631    4.2959631    4586.2717   -15666.092    35243.696   -5818.7889     21560.21   -9664.7134    9274.9355    79.283285 
   79600    2047.9809   -114.29789    1.8530561   -112.44483    9104.3676    4.2989834    4.2989834    4.2989834    9104.3676    6871.4504    27369.902   -6928.2494   -12305.987   -5304.7161   -3760.2064    79.450623 
   79700    1061.6155    -113.4334   0.96057199   -112.47282   -32640.921    4.3017692    4.3017692    4.3017692   -32640.921   -66393.709   -48064.981    16535.928    82248.023    6798.3928    4694.0371     79.60518 
   79800     968.2207   -113.34398   0.87606644   -112.46791    23589.237    4.2792394    4.2792394    4.2792394    23589.237   -10030.519    58487.436    22310.793      25489.8   -9512.3317    13019.634     78.36096 
   79900    1750.5431   -114.05219    1.5839282   -112.46826    1017.5416    4.3016466    4.3016466    4.3016466    1017.5416   -5657.6845    17669.237   -8958.9277   -12087.005   -4781.3574   -14245.834    79.598373 
   80000    1227.7676   -113.57574      1.11091   -112.46483   -6955.2923     4.304117     4.304117     4.304117   -6955.2923    -36593.38    -18220.75    33948.253    31375.096   -540.87219   -7615.5836    79.735588 
   80100    1306.0944   -113.63723    1.1817817   -112.45545    12170.087    4.2861674    4.2861674    4.2861674    12170.087    15259.202    2319.1793    18931.879    23899.318   -5263.4892    20534.814    78.742172 
   80200    1683.9135    -113.9762    1.5236404   -112.45256   -7695.4672    4.3050267    4.3050267    4.3050267   -7695.4672    8834.6219   -21254.307   -10666.716   -22304.644    3250.9149    13582.704    79.786159 
   80300    1172.6479   -113.51459    1.0610365   -112.45356   -11034.458    4.3027532    4.3027532    4.3027532   -11034.458   -40856.612   -38330.419    46083.657    7874.4912   -293.46555    2933.4322    79.659817 
   80400    1096.8732   -113.44927   0.99247393    -112.4568    1143.3835    4.2930838    4.2930838    4.2930838    1143.3835    13879.832   -8964.5189   -1485.1631    36185.374    802.48682     17577.88    79.123976 
   80500    1726.0972   -114.01305    1.5618091   -112.45124    950.26936    4.3013237    4.3013237    4.3013237    950.26936    30071.994   -8616.1948   -18604.991   -24422.404   -7627.3654     27111.91    79.580451 
   80600    1120.7229   -113.47651    1.0140537   -112.46245    -5604.963     4.297902     4.297902     4.297902    -5604.963   -7657.1528   -48317.125    39159.389   -19951.047    1578.3916   -7061.3654    79.390679 
   80700    1097.8748   -113.45931   0.99338018   -112.46593   -5983.5605    4.2976135    4.2976135    4.2976135   -5983.5605    24046.943   -69433.916    27436.291    41112.838     8012.423    7974.1209    79.374697 
   80800     2085.706   -114.33681    1.8871906   -112.44962   -4134.8523    4.2989035    4.2989035    4.2989035   -4134.8523    27699.869    -24850.12   -15254.306    -1202.283   -6858.6376    16074.155    79.446192 
   80900    945.80529   -113.32182    0.8557845   -112.46604    13993.251    4.2911205    4.2911205    4.2911205    13993.251    26274.082   -11305.129      27010.8    -25169.12    6835.5469   -10003.948     79.01547 
   81000     1040.643   -113.41427   0.94159565   -112.47268   -8974.0391    4.2952914    4.2952914    4.2952914   -8974.0391   -14879.495   -48109.845    36067.223    37130.237   -1009.8129   -10327.958      79.2461 
   81100    2019.0916   -114.28207    1.8269165   -112.45516    9534.2553    4.3044322    4.3044322    4.3044322    9534.2553    5864.5285    18414.602    4323.6358     9379.326    -5221.104    -4722.164     79.75311 
   81200    1291.6391    -113.6338    1.1687022    -112.4651    6837.4614    4.2989974    4.2989974    4.2989974    6837.4614    10977.244   -14108.049    23643.189   -21010.492     9150.099   -4268.5356    79.451399 
   81300    989.07939   -113.36296   0.89493982   -112.46802   -7357.6703    4.2894835    4.2894835    4.2894835   -7357.6703   -29612.338   -40866.143     48405.47    22584.444    -8375.109   -6250.3268    78.925076 
   81400    1807.4927   -114.09239    1.6354574   -112.45693    26695.593    4.2908066    4.2908066    4.2908066    26695.593    21905.566   -9196.3559    67377.568    10320.634    2807.6626   -8371.0702    78.998134 
   81500     1538.705   -113.85781    1.3922527   -112.46555   -10909.509    4.3037296    4.3037296    4.3037296   -10909.509   -18372.889   -14838.075    482.43702    1602.1302    9056.0678    7167.3118    79.714059 
   81600    1087.5901   -113.44826   0.98407434   -112.46419   -20868.629    4.3063466    4.3063466    4.3063466   -20868.629   -43379.692   -59022.987    39796.791    19061.633    8786.7177    2651.6695    79.859564 
   81700    2067.5335   -114.31379    1.8707478   -112.44304    16076.169    4.2884064    4.2884064    4.2884064    16076.169    19413.685   -8600.1388    37414.959    4166.7592   -3115.3866   -8782.4665    78.865636 
   81800     1149.174   -113.49989    1.0397968   -112.46009   -22109.002    4.2938537    4.2938537    4.2938537   -22109.002   -44116.721    11343.671   -33553.956   -1096.2403   -25550.346    12753.378    79.166551 
   81900    974.60612   -113.34496   0.88184409   -112.46311   -11835.115    4.2968513    4.2968513    4.2968513   -11835.115   -32454.395   -34991.666    31940.717    15118.564    7387.7694    4866.0621    79.332468 
   82000    1925.6997   -114.19245    1.7424135   -112.45003     17927.61    4.2960421    4.2960421    4.2960421     17927.61    5805.4577   -24693.043    72670.415    3093.9434   -7475.1614   -2262.8199    79.287655 
   82100    735.54683   -113.13646   0.66553823   -112.47092   -22414.953    4.3036317    4.3036317    4.3036317   -22414.953   -70591.912   -6446.4227    9793.4771   -2178.6738   -24566.021   -3415.4185    79.708619 
   82200    1079.6465   -113.43874   0.97688684   -112.46185   -7944.1461    4.2926122    4.2926122    4.2926122   -7944.1461   -47360.235    4736.4861     18791.31     23220.07    11373.641   -786.65566    79.097902 
   82300    2047.9281   -114.29782    1.8530084   -112.44481    9199.1567    4.2973686    4.2973686    4.2973686    9199.1567    3868.7572   -9407.6823    33136.395   -2875.8332    717.42775    8178.7617    79.361128 
   82400    873.76845   -113.25376   0.79060405   -112.46316   -39707.188    4.3016342    4.3016342    4.3016342   -39707.188   -83422.809   -26733.417   -8965.3388   -13812.418   -34714.919   -6369.3618    79.597684 
   82500    1110.8625   -113.46265    1.0051317   -112.45752    30665.249    4.2783713    4.2783713    4.2783713    30665.249   -3535.5601    26458.523    69072.784    17308.897     11451.26   -1401.4256    78.313279 
   82600     1796.648   -114.08454    1.6256448    -112.4589    11211.573    4.2943825    4.2943825    4.2943825    11211.573     2775.195    -11811.17    42670.695   -15259.449    3855.3294    23601.017    79.195804 
   82700    1177.6145   -113.52441    1.0655303   -112.45888   -13957.229    4.3068278    4.3068278    4.3068278   -13957.229   -38360.623   -26799.756    23288.692   -30348.596   -16675.147   -1981.8561    79.886341 
   82800    1900.1462   -114.15907    1.7192922   -112.43978    6345.9969    4.3004851    4.3004851    4.3004851    6345.9969     17779.45    14078.856   -12820.316    18503.632   -13615.243   -5561.1683    79.533914 
   82900    1666.1003   -113.95351    1.5075226   -112.44599    263.13613    4.2928527    4.2928527    4.2928527    263.13613   -3899.6153   -20781.755    25470.779   -29171.009    14532.037    27604.748    79.111199 
   83000    1201.5708   -113.54812    1.0872065   -112.46092     4278.483    4.2821362    4.2821362    4.2821362     4278.483    15774.826   -28340.604    25401.227   -43924.097   -10811.655    6228.8527    78.520207 
   83100     1775.217   -114.06734    1.6062536   -112.46109    15487.406    4.2946673    4.2946673    4.2946673    15487.406   -9460.9606    26424.481    29498.698    18961.503   -24931.337   -4517.2365     79.21156 
   83200    1365.9469   -113.69576    1.2359375   -112.45982   -17050.942     4.308761     4.308761     4.308761   -17050.942   -19301.059   -51001.822    19150.054    -23624.32    4172.0169    11720.767    79.993964 
   83300    886.94953   -113.26138   0.80253057   -112.45885    9555.2904    4.2908949    4.2908949    4.2908949    9555.2904    12784.855   -25950.155    41831.171   -48504.613   -3671.0477    23645.855    79.003011 
   83400    1683.4866   -113.97042     1.523254   -112.44717    12059.305     4.282823     4.282823     4.282823    12059.305   -19853.283    28003.231    28027.966    13943.697   -30277.048   -4527.1703    78.557991 
   83500    1227.9789      -113.57    1.1111011    -112.4589   -20331.234    4.2965866    4.2965866    4.2965866   -20331.234   -29555.508    -26911.25   -4526.9432   -17329.515   -17747.775    4159.6269     79.31781 
   83600    1051.9727   -113.41365   0.95184698   -112.46181   -9988.1013    4.2968398    4.2968398    4.2968398   -9988.1013    468.08999   -50646.838    20214.444   -38344.848    11563.507    39609.128    79.331834 
   83700     1450.147   -113.76643    1.3121235    -112.4543   -3322.6059    4.2985423    4.2985423    4.2985423   -3322.6059   -25497.779    18672.719   -3142.7575    9940.9001   -40824.406   -8582.8218    79.426167 
   83800    1259.2518   -113.59926    1.1393975   -112.45986   -3667.3506    4.2928384    4.2928384    4.2928384   -3667.3506   -31707.158    664.06184    20041.044   -339.09632   -13848.762   -4391.7501    79.110408 
   83900    1401.0751   -113.72551    1.2677222   -112.45779    12648.656    4.2851934    4.2851934    4.2851934    12648.656    626.66055   -11349.928    48669.236   -31673.057    15304.749     24503.59    78.688504 
   84000     1548.315   -113.86172     1.400948   -112.46077   -25168.949    4.3022446    4.3022446    4.3022446   -25168.949   -46017.468    1482.9158   -30972.294    10495.436   -47492.377    5613.9612    79.631572 
   84100    1110.4732   -113.46427    1.0047795   -112.45949   -11963.778    4.3004432    4.3004432    4.3004432   -11963.778   -42156.372    31545.899   -25280.863    4491.9704   -29093.304   -798.50525    79.531588 
   84200    1934.4653   -114.19486    1.7503449   -112.44452    3692.2745    4.2888653    4.2888653    4.2888653    3692.2745   -1454.7473   -3594.5125    16126.083   -30056.471    33430.215   -13244.387    78.890959 
   84300    1362.5162   -113.68911    1.2328333   -112.45628   -5683.6375    4.2953216    4.2953216    4.2953216   -5683.6375   -30643.935    24750.359   -11157.336     14110.65    -54483.21     7815.949    79.247773 
   84400    1009.6327   -113.38078   0.91353689   -112.46724   -3989.4054    4.2899433    4.2899433    4.2899433   -3989.4054   -47551.407    26627.735    8955.4556    21237.627   -25325.992   -7061.3825    78.950461 
   84500    1498.2563    -113.8198    1.3556538   -112.46415    3176.2063    4.2980288    4.2980288    4.2980288    3176.2063    -18404.79    10295.662    17637.746   -4079.6565    37621.473   -13699.142    79.397707 
   84600    1388.8323    -113.7168    1.2566446   -112.46016   -22578.828    4.3037204    4.3037204    4.3037204   -22578.828   -48946.455     23224.42   -42014.449   -2693.7872   -54384.261   -2151.7683    79.713551 
   84700    1111.2224   -113.46021    1.0054574   -112.45475   -1305.3121    4.2909384    4.2909384    4.2909384   -1305.3121   -14420.189    29969.874   -19465.622    8512.0171   -36590.147   -1643.7309    79.005413 
   84800    1351.9592   -113.67465    1.2232811   -112.45137    637.50111     4.294555     4.294555     4.294555    637.50111    2727.6196    11870.063   -12685.179   -713.45049    40540.467   -12110.008    79.205346 
   84900    1251.9655   -113.58926    1.1328047   -112.45645   -13525.426    4.3009213    4.3009213    4.3009213   -13525.426   -26848.379    24595.867   -38323.765   -7230.5148   -37950.694   -8559.9472    79.558116 
   85000    1507.4185    -113.8144    1.3639439   -112.45046    8628.3443    4.2973583    4.2973583    4.2973583    8628.3443   -3037.5585    37405.845   -8483.2538    1413.2857   -32513.382     9222.621    79.360558 
   85100    1510.6413   -113.81693      1.36686   -112.45007    6492.5403    4.2918448    4.2918448    4.2918448    6492.5403    18374.441    9559.9138   -8456.7344    7616.0187    32612.099    -8607.324     79.05549 
   85200    942.59962     -113.317   0.85288394   -112.46412    3605.1445    4.2888566    4.2888566    4.2888566    3605.1445    26839.861    17637.673   -33662.101   -370.65247   -37886.802   -16386.178    78.890476 
   85300    1882.4258   -114.15582    1.7032584   -112.45256    15139.247    4.2996923    4.2996923    4.2996923    15139.247    8845.5788     32854.46    3717.7012    3963.1409    -26958.37    6351.1875    79.489932 
   85400    1564.1869   -113.86856    1.4153091   -112.45325   -4192.6107     4.305643     4.305643     4.305643   -4192.6107    41828.095   -27188.455   -27217.472    3032.8543    28293.427   -4907.5916    79.820427 
   85500    1238.7165   -113.57562    1.1208167   -112.45481   -28822.894     4.297199     4.297199     4.297199   -28822.894   -8363.1382   -12952.542   -65153.001   -3069.4749   -26650.549   -15415.187    79.351731 
   85600    1930.4812   -114.19154      1.74674    -112.4448    18531.976    4.2825151    4.2825151    4.2825151    18531.976    20748.203    13128.695    21719.031   -5616.1153   -16739.203    2033.2713    78.541053 
   85700    1439.5351   -113.76491    1.3025217   -112.46239   -10997.795    4.2924418    4.2924418    4.2924418   -10997.795    23767.543   -31134.212   -25626.716   -10997.606    24241.202    -6908.029    79.088484 
   85800    992.74471     -113.368   0.89825627   -112.46974    -22396.76    4.3055556    4.3055556    4.3055556    -22396.76    29321.147   -41077.878   -55433.549   -992.98934   -6109.7361   -29022.096    79.815568 
   85900    2137.6983    -114.3798    1.9342343   -112.44556    12915.733    4.2972938    4.2972938    4.2972938    12915.733    13676.755    1791.3108    23279.134    2055.4704   -24864.946    119.79355    79.356981 
   86000    945.56038   -113.31581    0.8555629   -112.46025    2264.2432    4.2956031    4.2956031    4.2956031    2264.2432    53561.562   -36677.944   -10090.888   -10823.152    22542.395     4391.174    79.263354 
   86100    872.88098   -113.25416   0.78980105   -112.46436   -33342.479    4.3015221    4.3015221    4.3015221   -33342.479    10747.803   -53011.265   -57763.974    5896.3983    12261.183   -33423.028    79.591459 
   86200    2124.6487    -114.3729    1.9224268   -112.45048    9124.9521    4.2881321    4.2881321    4.2881321    9124.9521   -3368.3903   -12330.633     43073.88    11985.574   -8172.4636    4137.7552    78.850501 
   86300    1295.9942   -113.64227    1.1726428   -112.46963   -18439.308     4.289545     4.289545     4.289545   -18439.308    3294.6799   -34910.442   -23702.161    12023.641    17100.248    3373.6508    78.928473 
   86400    995.38109   -113.37466   0.90064172   -112.47402   -15701.677    4.2947787    4.2947787    4.2947787   -15701.677    49846.485   -47441.272   -49510.243   -9358.4768    22866.511    -20164.64    79.217725 
   86500    1923.8856   -114.19311    1.7407721   -112.45233     9706.257    4.2985151    4.2985151    4.2985151     9706.257    7963.7839   -16391.926    37546.914    15806.105   -10794.379    2653.6791    79.424659 
   86600    1091.8939   -113.44751   0.98796854   -112.45954   -16883.434     4.303759     4.303759     4.303759   -16883.434    12231.613   -24057.635    -38824.28     10710.69    -22461.68   -6171.9703    79.715695 
   86700    1382.9999   -113.70226    1.2513674   -112.45089    9585.1032    4.2899763    4.2899763    4.2899763    9585.1032    60372.488   -21323.962   -10293.216    -8625.428    22749.995   -13599.297    78.952279 
   86800    1872.2954   -114.13852    1.6940922   -112.44442    14806.827    4.2866735    4.2866735    4.2866735    14806.827   -1758.3114    1734.2703    44444.522   -7394.6568   -14740.556    2663.6584    78.770069 
   86900    986.77046    -113.3557   0.89285065   -112.46285   -33329.286    4.3032968    4.3032968    4.3032968   -33329.286   -26763.448   -22028.682   -51195.727    4621.5386   -44687.666   -2322.6944    79.690013 
   87000    1781.2604   -114.06368    1.6117218   -112.45196   -10318.952    4.3020205    4.3020205    4.3020205   -10318.952    30477.657   -24494.527   -36939.986    4925.5388   -1176.9563   -12993.102    79.619132 
   87100    1628.4956   -113.92134     1.473497   -112.44785    9145.6942    4.2948235    4.2948235    4.2948235    9145.6942    25322.813   -11888.034    14002.304   -8958.4744    9622.9113    4250.9084    79.220207 
   87200    701.01611    -113.0989   0.63429411    -112.4646   -16772.703    4.2960991    4.2960991    4.2960991   -16772.703   -5439.9127     -11002.1   -33876.096    18003.122   -38821.033   -10511.089    79.290812 
   87300    1797.1516   -114.07589    1.6261006   -112.44979     10403.41    4.2931074    4.2931074    4.2931074     10403.41    30034.849    33089.901   -31914.519     12694.78   -4868.3013   -13709.192    79.125281 
   87400    1420.8315   -113.73993    1.2855982   -112.45433   -14166.973     4.306049     4.306049     4.306049   -14166.973   -46370.043    24457.174    -20588.05   -17211.582    22262.612     1657.038    79.843013 
   87500    986.62204   -113.34443   0.89271635   -112.45172   -35122.524    4.3115973    4.3115973    4.3115973   -35122.524   -57535.074   -22314.568   -25517.931    4508.7744   -25025.608   -9229.3016    80.152042 
   87600    1804.6653     -114.066    1.6328991   -112.43311    32837.913    4.2837625    4.2837625    4.2837625    32837.913    75487.045    21193.539    1833.1565   -318.78406   -298.69481   -4069.2781    78.609703 
   87700    812.15069   -113.19006   0.73485101   -112.45521    17614.877    4.2849882    4.2849882    4.2849882    17614.877      6514.43     28459.74     17870.46   -30618.963    29238.501   -4231.8874    78.677197 
   87800    1104.4947   -113.45801   0.99937003   -112.45864   -21021.689     4.313996     4.313996     4.313996   -21021.689   -36555.166   -11692.644   -14817.257    -11724.73   -12703.093    4226.2747    80.285887 
   87900    2047.6682   -114.28659    1.8527733   -112.43382    2963.2391    4.3055631    4.3055631    4.3055631    2963.2391   -5920.2215    12574.273    2235.6663    1143.5041   -9376.9809   -3347.6312    79.815984 
   88000    750.18116    -113.1312   0.67877968   -112.45242   -11789.525    4.2863205    4.2863205    4.2863205   -11789.525    -68117.25    33295.675    -547.0007   -24649.898     56673.49   -2452.7815     78.75061 
   88100    1257.6581   -113.59938    1.1379555   -112.46143    6753.5506    4.2899462    4.2899462    4.2899462    6753.5506   -2437.8502    1144.6723     21553.83   -17735.746    13436.108    3637.5034    78.950617 
   88200    2118.9255   -114.36631    1.9172483   -112.44906    15248.769     4.297937     4.297937     4.297937    15248.769    43898.417    13746.308    -11898.42    14474.787   -4599.1442   -12858.551    79.392622 
   88300    629.15118   -113.03843   0.56926921   -112.46916   -24804.941     4.308712     4.308712     4.308712   -24804.941   -53235.041    8465.2723   -29645.053   -20582.348    54846.998    7676.0364    79.991236 
   88400    1769.3667   -114.05133    1.6009602   -112.45037   -16812.178    4.2992415    4.2992415    4.2992415   -16812.178   -22968.645   -7673.6176    -19794.27   -18613.849    19672.127   -8448.2478    79.464934 
   88500     1842.813   -114.10698    1.6674159   -112.43957    34150.359     4.282838     4.282838     4.282838    34150.359    56641.915    12598.509    33210.653    14134.485   -22666.458    3498.7887    78.558821 
   88600    729.28904   -113.12909   0.65987605   -112.46922   -13664.637    4.2993343    4.2993343    4.2993343   -13664.637   -12003.342    143.60945   -29134.179   -6000.8213    28325.208   -3900.4819    79.470077 
   88700    1811.0944   -114.08342    1.6387162    -112.4447   -1116.4321    4.3068164    4.3068164    4.3068164   -1116.4321    27964.573   -1770.6698     -29543.2   -13926.904    13990.074   -1518.1277    79.885707 
   88800    1530.6394   -113.82665    1.3849547    -112.4417   -12327.759     4.301543     4.301543     4.301543   -12327.759   -26502.096   -4956.6919   -5524.4877    6958.8939   -28162.048    9456.9076     79.59262 
   88900    1059.9598   -113.40948    0.9590739   -112.45041   -25572.153    4.2947003    4.2947003    4.2947003   -25572.153    -69997.61    13460.852   -20179.702    747.10997    21765.941   -3502.3113    79.213388 
   89000    2014.2607   -114.25975    1.8225454    -112.4372    23002.045    4.2880311    4.2880311    4.2880311    23002.045    30172.182    11228.155    27605.799   -6907.5954    20467.746    3783.3467    78.844931 
   89100    847.57846   -113.22748    0.7669068   -112.46057   -16447.014    4.3061335    4.3061335    4.3061335   -16447.014   -30058.289   -22587.814    3305.0615    24295.605   -41793.344    6254.6667    79.847713 
   89200     1308.492   -113.63277    1.1839511   -112.44882   -2357.8498    4.3064211    4.3064211    4.3064211   -2357.8498   -19231.243    6738.4103    5419.2835    5326.2711   -16900.071   -11007.806     79.86371 
   89300    1946.1165   -114.19113    1.7608871   -112.43025    21029.398     4.292898     4.292898     4.292898    21029.398    6685.1207   -9859.8015    66262.876    -3386.527    7658.7817    3878.2608    79.113705 
   89400    676.78634   -113.07595    0.6123705   -112.46358   -22499.649    4.2906132    4.2906132    4.2906132   -22499.649   -57342.066   -24895.074    14738.194    22898.584   -39076.578    13386.051    78.987447 
   89500    1616.5533   -113.92345    1.4626914   -112.46076     4518.528    4.2868075    4.2868075    4.2868075     4518.528   -31261.865     18865.48     25951.97    13573.471   -38149.613    1938.2625    78.777455 
   89600    1985.3973   -114.25747    1.7964292   -112.46104   -7116.6765    4.3009405    4.3009405    4.3009405   -7116.6765   -8709.1602   -17068.878    4428.0089   -1629.2157    27369.533    2433.8812    79.559181 
   89700    963.26787   -113.33431   0.87158501   -112.46272   -37675.493    4.3086588    4.3086588    4.3086588   -37675.493   -45363.294   -44319.749   -23343.434     25532.05   -5885.6439   -43.030513    79.988273 
   89800    1840.1793   -114.10515    1.6650329   -112.44012    19855.838    4.2836452    4.2836452    4.2836452    19855.838   -7371.5896    20875.771    46063.332     5551.718   -24695.148    8510.6613    78.603243 
   89900    1316.5706   -113.64512    1.1912608   -112.45386   -5442.8608    4.2844039    4.2844039    4.2844039   -5442.8608   -26773.256    497.21041    9947.4631   -22442.848    49007.818   -6854.7982    78.645019 
   90000    923.56459   -113.30181   0.83566065   -112.46614   -3813.6861    4.2968536    4.2968536    4.2968536   -3813.6861   -31723.727   -13969.747    34252.416    21639.113    15113.792    5797.3499      79.3326 
   90100    1917.2394   -114.18387    1.7347585   -112.44911   -11101.081     4.310682     4.310682     4.310682   -11101.081   -12872.985   -23966.365    3536.1082   -1137.1551    -14194.44   -14.858126    80.101004 
   90200    1142.2043   -113.49603    1.0334904   -112.46254   -12241.357    4.2965493    4.2965493    4.2965493   -12241.357   -40597.294   -1361.8507    5235.0744   -28743.903    28865.694   -3631.1018    79.315743 
   90300     1085.729   -113.43709   0.98239038    -112.4547    23144.335    4.2776105    4.2776105    4.2776105    23144.335   -5454.0071    17001.756    57885.257     7358.606    23248.421    3762.0515    78.271512 
   90400    1701.7584   -113.99549    1.5397867   -112.45571    918.97822    4.2916747    4.2916747    4.2916747    918.97822    10824.531   -17.750043   -8049.8464    4022.5741   -16600.887    13750.121    79.046091 
   90500    980.97161   -113.35537   0.88760373   -112.46777   -17949.477    4.3001812    4.3001812    4.3001812   -17949.477   -52175.865    285.87017   -1958.4352   -31113.874   -1660.7299   -6434.7743    79.517049 
   90600    1635.3768   -113.93813    1.4797233   -112.45841   -11863.404    4.2999072    4.2999072    4.2999072   -11863.404   -24027.845    7217.4611   -18779.827   -3901.1334    41522.413      898.688     79.50185 
   90700    1681.0936   -113.97728    1.5210889   -112.45619   -16335.127    4.2905907    4.2905907    4.2905907   -16335.127    5390.8857   -22961.637   -31434.628    11847.515   -17571.022    7111.1133    78.986207 
   90800    1106.3422    -113.4671    1.0010417   -112.46606    1252.0683    4.2816568    4.2816568    4.2816568    1252.0683   -44599.151    11861.598    36493.758    -37333.71   -28759.672     4920.271    78.493838 
   90900     2082.393   -114.34866    1.8841929   -112.46447     1165.824    4.2963121    4.2963121    4.2963121     1165.824   -15241.278    -4528.984    23267.734   -2262.0592    3820.2953     2467.571    79.302608 
   91000     1612.268   -113.92595    1.4588139   -112.46713    4105.4843    4.2979225    4.2979225    4.2979225    4105.4843   -5104.9631   -13157.853    30579.269    17865.613    1682.0803   -5809.6951    79.391816 
   91100    1153.5873   -113.51596    1.0437901   -112.47217   -6722.1074    4.2924051    4.2924051    4.2924051   -6722.1074   -35357.109   -7573.7242    22764.511   -17208.975    -38952.29    6427.0743    79.086452 
   91200    2017.1969   -114.27884    1.8252021   -112.45364    6995.7568    4.2927244    4.2927244    4.2927244    6995.7568   -16458.597    28118.725    9327.1418   -12661.471   -9165.2508   -2766.1156    79.104104 
   91300    1389.2503   -113.71624    1.2570228   -112.45922    644.43081     4.292023     4.292023     4.292023    644.43081   -2789.9105   -16049.718    20772.921    15702.594    27045.334   -14285.404    79.065337 
   91400    1311.7931   -113.64877     1.186938   -112.46183   -18586.117    4.2985626    4.2985626    4.2985626   -18586.117   -14568.783   -28615.367   -12574.199   -930.28977   -28102.014    6489.0727    79.427296 
   91500    1773.3303   -114.05564    1.6045465   -112.45109    4113.2219    4.2882577    4.2882577    4.2882577    4113.2219   -18764.805    25044.043    6060.4277   -5999.7885    9161.2065    5510.0042    78.857432 
   91600    925.57678    -113.3032   0.83748132   -112.46572   -6718.2246    4.2861946    4.2861946    4.2861946   -6718.2246   -8946.2408    4218.4708   -15426.904    9849.1754    54315.199    769.73969    78.743672 
   91700    1346.9263   -113.68606    1.2187272   -112.46733   -23085.732    4.2960084    4.2960084    4.2960084   -23085.732    14202.488   -60671.883     -22787.8     2028.404    -18985.34    14236.451    79.285789 
   91800    1622.1832   -113.92341    1.4677854   -112.45563   -2122.1271     4.291818     4.291818     4.291818   -2122.1271   -19580.827    26668.779   -13454.333   -649.09675    34208.398   -705.86315    79.054006 
   91900    1121.3301   -113.47906     1.014603   -112.46446   -11465.108     4.290082     4.290082     4.290082   -11465.108   -26782.663    12766.818   -20379.479   -89.078902    56264.644    880.08795    78.958115 
   92000    1087.5455   -113.44917   0.98403406   -112.46513   -3439.1996    4.2881689    4.2881689    4.2881689   -3439.1996    29340.475   -46495.236    6837.1618    17316.088   -18494.951     5701.882    78.852534 
   92100    1480.3781   -113.80057    1.3394772   -112.46109   -4140.3708    4.2922906    4.2922906    4.2922906   -4140.3708   -11884.378    2475.8066   -3012.5412    2629.0495    9473.5931   -1533.4861    79.080125 
   92200    1536.9956   -113.84887    1.3907059   -112.45816   -12476.494     4.296951     4.296951     4.296951   -12476.494    -45549.24    6034.6708    2085.0882   -12093.764    19122.342     -714.972    79.337989 
   92300    1231.5885    -113.5759    1.1143672   -112.46154    918.75031    4.2914096    4.2914096    4.2914096    918.75031    38737.165   -49900.084    13919.169    4232.9263     6350.833   -5534.4352    79.031441 
   92400     1337.112   -113.67223    1.2098471   -112.46239   -3739.6373    4.2908442    4.2908442    4.2908442   -3739.6373    2212.8068    12.207762   -13443.927    2961.3379   -38895.147    722.47959     79.00021 
   92500     1573.512   -113.88435    1.4237467    -112.4606    345.99776    4.2957934    4.2957934    4.2957934    345.99776   -36800.896    2456.0925    35382.797   -10793.901   -24959.193    5578.6785     79.27389 
   92600    1634.3447   -113.93561    1.4787894   -112.45682    1380.3593    4.2971072    4.2971072    4.2971072    1380.3593   -9899.6008   -37672.888    51713.566   -17739.212     14122.67    3973.5646    79.346646 
   92700    995.84662   -113.36308   0.90106295   -112.46202   -13693.295    4.2984901    4.2984901    4.2984901   -13693.295    2328.6817   -19668.223   -23740.345    5136.4347   -43140.288   -4052.6672    79.423274 
   92800    1531.8294   -113.84371    1.3860315   -112.45768   -3695.4884    4.2882339    4.2882339    4.2882339   -3695.4884   -27188.353   -8951.9943    25053.882   -10644.806   -20075.957    967.98408    78.856119 
   92900      1449.23   -113.77417    1.3112937   -112.46287   -16180.569    4.2912125    4.2912125    4.2912125   -16180.569   -21007.426   -27270.035    -264.2448   -15041.175    31951.605   -3328.2718    79.020552 
   93000    1303.9348   -113.64656    1.1798276   -112.46673   -13686.607    4.2930255    4.2930255    4.2930255   -13686.607    1151.1233   -19344.731   -22866.213    5248.1397     4781.882   -6693.6102    79.120752 
   93100    1833.6073   -114.11942    1.6590864   -112.46033    10387.978    4.2872772    4.2872772    4.2872772    10387.978   -4526.4654   -13693.072    49383.472   -16764.105   -13757.377   -4503.8295    78.803352 
   93200    1216.3827     -113.572    1.1006086   -112.47139   -10732.976    4.2957248    4.2957248    4.2957248   -10732.976   -53864.174   -6638.9977    28304.243   -19128.593    29357.404    3383.7233    79.270092 
   93300    1331.8163   -113.66773    1.2050554   -112.46267    -9679.309    4.2953937    4.2953937    4.2953937    -9679.309   -8076.4977   -1446.7508   -19514.678    8794.8091     29204.37   -11240.197     79.25176 
   93400    1670.3982   -113.96509    1.5114114   -112.45368   -11440.774      4.29519      4.29519      4.29519   -11440.774   -15092.592   -30960.615    11730.884   -9709.9318   -16962.332   -6449.4655    79.240486 
   93500     1340.569   -113.66703     1.212975   -112.45405   -22236.861    4.2979085    4.2979085    4.2979085   -22236.861   -54726.599   -16144.856    4160.8729   -15166.277    2099.1386    191.63374    79.391043 
   93600    1541.0707   -113.84001    1.3943932   -112.44562    11688.039    4.2884425    4.2884425    4.2884425    11688.039     12774.24    4050.9918    18238.885    -306.9904    16263.176   -8437.4202    78.867625 
   93700    936.18724   -113.30456   0.84708189   -112.45748   -4808.0595    4.2955899    4.2955899    4.2955899   -4808.0595   -19879.842   -26244.235    31699.899   -10353.103   -15063.401   -21405.897    79.262624 
   93800    1276.4613   -113.60652     1.154969   -112.45155    -789.8982    4.3019736    4.3019736    4.3019736    -789.8982   -52498.312    4232.6446    45895.973   -8392.1962   -22238.412    10874.911    79.616527 
   93900    1858.1531   -114.12249    1.6812959   -112.44119    14070.829    4.2893209    4.2893209    4.2893209    14070.829    10515.597   -14446.076    46142.965    3858.7797    9028.2951   -28614.667    78.916099 
   94000    881.73468   -113.26214   0.79781207   -112.46433   -17099.198    4.2858528    4.2858528    4.2858528   -17099.198   -4448.6259   -46101.749   -747.21981   -6283.7888   -8197.7572   -15522.046    78.724835 
   94100     1499.026   -113.82299    1.3563502   -112.46664   -7078.0952    4.2870289    4.2870289    4.2870289   -7078.0952   -40869.852   -9978.0336      29613.6   -7704.9692   -30590.309    14507.347    78.789661 
   94200    1702.4686    -114.0049    1.5404294   -112.46447    1860.6261    4.2946379    4.2946379    4.2946379    1860.6261   -17953.356   -15929.985    39465.219    5725.8484    19893.716   -15066.611    79.209935 
   94300    723.07826   -113.12693    0.6542564   -112.47268   -14734.912    4.3010863    4.3010863    4.3010863   -14734.912    5752.3205   -59140.963    9183.9052   -4696.2378    9909.5252   -23188.599    79.567273 
   94400    1767.9634   -114.04938    1.5996904   -112.44969   -6703.4027    4.2982352    4.2982352    4.2982352   -6703.4027   -16632.671   -25543.862    22066.325   -10966.472   -9159.3852    26776.675    79.409148 
   94500    1675.4506   -113.96737    1.5159829   -112.45139    10850.923    4.2846348    4.2846348    4.2846348    10850.923   -13573.213    8699.4566    37426.526     7675.982    31411.063    -20163.52    78.657736 
   94600    704.89544   -113.11199   0.63780421   -112.47419    110.73692     4.283576     4.283576     4.283576    110.73692    4408.8244    -22381.57    18304.956    2803.7787     14251.15   -30216.159    78.599438 
   94700    1739.6461   -114.04517    1.5740683    -112.4711   -11497.789    4.2964435    4.2964435    4.2964435   -11497.789    8572.6734   -25827.473   -17238.567   -4414.8076   -4300.2839    18118.258    79.309882 
   94800    1642.7515   -113.95596    1.4863961   -112.46956    23349.805    4.2905705    4.2905705    4.2905705    23349.805    11375.768    18700.981    39972.667    11473.267   -14761.399     8391.149    78.985095 
   94900     974.3456   -113.35647   0.88160838   -112.47487   -22302.154    4.2981938    4.2981938    4.2981938   -22302.154    7009.2991   -31864.268   -42051.492    20986.372    14683.683   -43805.973     79.40685 
   95000    1672.3625   -113.96926    1.5131888   -112.45608   -9219.6501    4.2984591    4.2984591    4.2984591   -9219.6501    20617.419   -16341.969     -31934.4   -7993.4016    3129.4355   -23206.496    79.421559 
   95100    1474.4859   -113.78785    1.3341458   -112.45371    16802.872    4.2871128    4.2871128    4.2871128    16802.872    6344.7948    19364.181    24699.641    6803.2427   -33637.856    18151.889    78.794287 
   95200    805.73913   -113.20071    0.7290497   -112.47166   -11185.122    4.2944166    4.2944166    4.2944166   -11185.122   -10449.149   -31861.882    8755.6636    18685.397    9169.5431   -36672.042    79.197689 
   95300     1402.447   -113.73446    1.2689635    -112.4655    -124.6672    4.2966115    4.2966115    4.2966115    -124.6672    13680.553   -27678.171    13623.616   -1508.6041    10108.965   -25014.274     79.31919 
   95400    1810.1401   -114.09362    1.6378528   -112.45577    636.68504    4.2990642    4.2990642    4.2990642    636.68504    5309.9769    985.06999   -4384.9917    -25.20588   -36013.429    17895.619    79.455103 
   95500    1048.4766   -113.40976   0.94868363   -112.46108   -18167.021    4.3050053    4.3050053    4.3050053   -18167.021   -19173.654   -13659.392   -21668.016    14296.299   -13400.398   -38070.895    79.784966 
   95600    1447.5735   -113.76489    1.3097949    -112.4551    2385.4935    4.2957545    4.2957545    4.2957545    2385.4935    10075.504   -22847.113     19928.09    2182.5499    13591.015   -24377.402    79.271737 
   95700    1900.8158   -114.17258    1.7198981   -112.45268    28045.674    4.2823352    4.2823352    4.2823352    28045.674    11205.395    35941.844    36989.784   -5031.3654   -10026.206    34621.734    78.531156 
   95800    1368.8943   -113.70965    1.2386043   -112.47104    3160.8798    4.2926961    4.2926961    4.2926961    3160.8798   -1476.0825    2239.9709    8718.7508    13453.297   -12546.741   -42711.315    79.102541 
   95900    1357.3151   -113.69558    1.2281273   -112.46745   -22494.759    4.3071785    4.3071785    4.3071785   -22494.759   -10350.602   -5972.9284   -51160.748    7157.0127    10516.994   -43534.273    79.905854 
   96000    1914.5062   -114.18721    1.7322855   -112.45493    5576.0185    4.2961301    4.2961301    4.2961301    5576.0185   -3178.7879    9059.0553    10847.788   -7585.7684    8737.1013    44763.604     79.29253 
   96100    1159.2686   -113.51071    1.0489306   -112.46178    707.11379    4.2899704    4.2899704    4.2899704    707.11379     11120.59    -21347.46    12348.211     20816.43   -2004.8344   -20046.017    78.951952 
   96200    802.17692    -113.1976   0.72582654   -112.47177   -15211.547    4.2955208    4.2955208    4.2955208   -15211.547    1161.6722   -61100.853    14304.538     10168.36   -5706.3221   -65360.771    79.258797 
   96300    1904.0016     -114.179    1.7227807   -112.45622    4926.7037    4.2970696    4.2970696    4.2970696    4926.7037    1244.3715   -11417.025    24952.765   -9049.3407    7752.7467     22247.73    79.344562 
   96400       1184.9   -113.53483    1.0721224   -112.46271   -9710.0103    4.3056611    4.3056611    4.3056611   -9710.0103      31377.8   -29204.484   -31303.347     10859.34    -2310.481   -37369.658    79.821435 
   96500     981.9852   -113.35135   0.88852085   -112.46283   -10638.432     4.297712     4.297712     4.297712   -10638.432     12253.16   -20199.199   -23969.255    17734.465       -11666    -54171.25    79.380151 
   96600    1725.6391   -114.00971    1.5613945   -112.44832    28370.931    4.2856581    4.2856581    4.2856581    28370.931    27133.604    18250.787      39728.4   -15192.348   -12849.705    25189.437    78.714107 
   96700    1418.8626    -113.7475    1.2838167   -112.46369   -7470.0529    4.2945441    4.2945441    4.2945441   -7470.0529    46680.621   -44073.647   -25017.133   -10043.607    9499.4688   -51179.629    79.204743 
   96800    1346.7589    -113.6866    1.2185758   -112.46802   -6365.0816     4.295019     4.295019     4.295019   -6365.0816    32857.807   -35943.867   -16009.185    16173.974    6422.4511   -39896.016    79.231023 
   96900    1881.1929   -114.16124    1.7021429    -112.4591    9424.3819    4.2956424    4.2956424    4.2956424    9424.3819    5481.0754    10013.318    12778.753    188.90762   -14436.413    18632.441    79.265531 
   97000    943.37476    -113.3239   0.85358531   -112.47031   -13516.615    4.3025438    4.3025438    4.3025438   -13516.615    16756.267   -8958.3708   -48347.741    -30082.14   -3126.3385   -55192.467     79.64819 
   97100    1210.5157   -113.55744    1.0953001   -112.46214   -229.84657    4.2919053    4.2919053    4.2919053   -229.84657    14327.417     31696.54   -46713.497    3614.5555    24562.689   -45147.505    79.058831 
   97200    2061.4515   -114.31854    1.8652447    -112.4533   -5439.3042    4.2946074    4.2946074    4.2946074   -5439.3042   -28196.822    27501.535   -15622.625    971.27262   -11445.901    17421.959    79.208249 
   97300    1092.9815   -113.46217   0.98895263   -112.47321   -12973.736    4.2941235    4.2941235    4.2941235   -12973.736    2196.3505   -18258.119   -22859.438    2387.6092   -11190.037   -50424.126    79.181476 
   97400    1070.4297   -113.44934   0.96854725   -112.48079    -12166.27    4.2868378    4.2868378    4.2868378    -12166.27    3182.2808    6188.9448   -45870.037   -11392.826    32445.588   -46916.007    78.779127 
   97500    2006.8314   -114.28243    1.8158233   -112.46661   -5800.0292    4.3014535    4.3014535    4.3014535   -5800.0292   -21236.182     19169.29   -15333.196    7654.5822    17848.057    21045.261    79.587655 
   97600    1445.0443   -113.77355    1.3075064   -112.46605   -19998.139    4.3014255    4.3014255    4.3014255   -19998.139    19117.248   -39278.736    -39832.93    10858.047    -19669.56   -55456.133      79.5861 
   97700    935.53859   -113.31468   0.84649497   -112.46818    9377.2758    4.2880565    4.2880565    4.2880565    9377.2758     11041.83    103.47881    16986.519    -9805.323    20110.985   -41733.792    78.846333 
   97800    1896.4331   -114.17686    1.7159326   -112.46092    2028.7113    4.2910752    4.2910752    4.2910752    2028.7113   -14806.389    9041.2587    11851.264   -2347.8163    36668.587    21231.082    79.012967 
   97900    1500.2907   -113.82223    1.3574945   -112.46473    16641.554    4.2898529    4.2898529    4.2898529    16641.554    45658.665   -22907.448    27173.444   -2811.2572   -12086.638   -44160.171     78.94547 
   98000    1198.5324   -113.55761    1.0844573   -112.47315    5985.5419     4.300551     4.300551     4.300551    5985.5419    40515.054    -14834.61   -7723.8184    -4689.199   -3159.4256   -36073.549    79.537569 
   98100    1678.7374   -113.97438    1.5189569   -112.45543     739.6171    4.3023408    4.3023408    4.3023408     739.6171   -23470.705     3332.078    22357.478   -15996.505    425.20907    16035.668    79.636916 
   98200    1067.0614   -113.42558   0.96549959   -112.46008    2802.6273    4.2893713    4.2893713    4.2893713    2802.6273    41878.252   -29315.511   -4154.8585   -4840.2669    3501.5653   -62263.928    78.918883 
   98300    1404.9741   -113.73272    1.2712501   -112.46147   -15802.246     4.293569     4.293569     4.293569   -15802.246    30433.593   -42055.161    -35785.17   -1210.8367   -2442.4373   -16519.455    79.150807 
   98400    1708.7955   -113.99765    1.5461541    -112.4515    2541.8696    4.3006411    4.3006411    4.3006411    2541.8696    11056.333    6051.2379   -9481.9621   -9148.9398   -9426.5696     34445.31    79.542565 
   98500    993.29253    -113.3523   0.89875195   -112.45355   -24166.559    4.3117641    4.3117641    4.3117641   -24166.559    37962.295   -43853.001   -66608.972   -5894.4224    5081.3847   -72144.432     80.16134 
   98600     1498.654   -113.80322    1.3560136    -112.4472   -19167.764    4.3004963    4.3004963    4.3004963   -19167.764    16591.263   -30977.319   -43117.236   -10119.198   -3512.3912   -8885.8299    79.534532 
   98700    1754.9921   -114.02635    1.5879537    -112.4384    25135.613    4.2751675    4.2751675    4.2751675    25135.613    46412.222    34108.729   -5114.1111   -5149.9045   -5684.0861    31197.112     78.13748 
   98800    805.28262   -113.19892   0.72863663   -112.47028   -16517.528    4.2954714    4.2954714    4.2954714   -16517.528    32614.715   -8347.1917   -73820.107   -9064.3936   -407.55734   -81815.083    79.256065 
   98900    1657.3751   -113.95154    1.4996278   -112.45191   -11152.635    4.3089033    4.3089033    4.3089033   -11152.635   -1580.3783    18330.299   -50207.826   -7922.5499     9167.612   -14298.655    80.001891 
   99000    1735.9992   -114.01161    1.5707685   -112.44084    4348.8387    4.3050053    4.3050053    4.3050053    4348.8387    33108.002    10342.527   -30404.013    -1427.673    3032.2112   -7852.8813    79.784969 
   99100    1090.9253   -113.44133   0.98709217   -112.45424   -23854.418    4.2998324    4.2998324    4.2998324   -23854.418     37807.97   -42544.356   -66826.868    10236.234    -2067.953   -73859.117    79.497705 
   99200    1610.4818   -113.90281    1.4571977   -112.44561    24668.109    4.2781411    4.2781411    4.2781411    24668.109    37067.317      46168.6   -9231.5906   -3199.6462    12513.155    7827.3313    78.300642 
   99300    1236.7291   -113.58908    1.1190185   -112.47006   -6686.9041    4.3002719    4.3002719    4.3002719   -6686.9041    31594.289   -14182.268   -37472.734   -6624.3314    12999.076   -35555.656    79.522081 
   99400    1449.1742   -113.76366    1.3112433   -112.45242   -38331.301     4.315029     4.315029     4.315029   -38331.301    17497.474   -73865.114   -58626.263     13744.14   -6978.5163    -43686.94    80.343576 
   99500    1609.4157   -113.90547    1.4562332   -112.44924    19808.623    4.2782697    4.2782697    4.2782697    19808.623    68217.144    947.51274   -9738.7877    5741.3437    10671.533    34215.213    78.307702 
   99600    1209.4109   -113.55931    1.0943004   -112.46501    4400.9822    4.2794248    4.2794248    4.2794248    4400.9822        25432    9224.4504   -21453.504   -21997.669    12577.692   -19415.143    78.371144 
   99700    1177.5779   -113.53736    1.0654972   -112.47186   -18370.906    4.2961742    4.2961742    4.2961742   -18370.906    13723.745   -33214.749   -35621.714    -9994.943   -1259.2455   -28957.109    79.294971 
   99800     1353.005   -113.69046    1.2242273   -112.46623    8326.8183    4.3019492    4.3019492    4.3019492    8326.8183    50732.082   -566.70636   -25184.921     31878.73    3465.8642    34744.844    79.615173 
   99900    1526.1204   -113.83679    1.3808658   -112.45593   -20641.391    4.3110945    4.3110945    4.3110945   -20641.391   -9945.9495    -21938.37   -30039.854   -33642.559    2809.9925   -5020.9014    80.123999 
  100000    1322.5575   -113.66049    1.1966778   -112.46381    9909.2066    4.2788796    4.2788796    4.2788796    9909.2066    33186.169   -3554.2519    95.702682   -28766.193     2308.512   -17443.745    78.341198 
Loop time of 22.706 on 1 procs for 100000 steps with 8 atoms

Pair  time (%) = 7.20027 (31.7108)
Kspce time (%) = 5.45937 (24.0437)
Neigh time (%) = 0.0904808 (0.398488)
Comm  time (%) = 1.12616 (4.95974)
Outpt time (%) = 0.0267937 (0.118003)
Other time (%) = 8.80296 (38.7693)

Nlocal:    8 ave 8 max 8 min
Histogram: 1 0 0 0 0 0 0 0 0 0
Nghost:    2189 ave 2189 max 2189 min
Histogram: 1 0 0 0 0 0 0 0 0 0
Neighs:    2275 ave 2275 max 2275 min
Histogram: 1 0 0 0 0 0 0 0 0 0

Total # of neighbors = 2275
Ave neighs/atom = 284.375
Neighbor list builds = 1035
Dangerous builds = 0
unfix 20
unfix 21
print "seeds:7972664"
seeds:7972664
