LAMMPS (10 Feb 2015)
# ---- initialize simulations
clear
units metal
dimension 3
boundary p p p
atom_style charge
atom_modify map array
# ---- create atoms
read_data /Users/eugeneragasa/pyflamestk_git/pypospack/tests/tests_integration/workflow/WorkflowLammpsThermalExpansion/param_8221/MgO_NaCl_unit.npt.T100/lammps.structure
  triclinic box = (0 0 0) to (4.2565 4.2565 4.2565) with tilt (0 0 0)
  1 by 1 by 1 MPI processor grid
  reading atoms ...
  8 atoms
# ---- define interatomic potential
include potential.mod
mass 1 24.305
mass 2 15.999

group Mg type 1
4 atoms in group Mg
group O type 2
4 atoms in group O

set group Mg charge 1.65389423724
  4 settings made for charge
set group O charge -1.65389423724
  4 settings made for charge

variable R_cut equal 10.0

pair_style buck/coul/long ${R_cut}
pair_style buck/coul/long 10
pair_coeff 1 1 0.0 0.5 0.0 ${R_cut}
pair_coeff 1 1 0.0 0.5 0.0 10
pair_coeff 1 2 1300.0678519 0.288744572517 0.0 ${R_cut}
pair_coeff 1 2 1300.0678519 0.288744572517 0.0 10
pair_coeff 2 2 40472.9144105 0.202420171096 26.2679081719 ${R_cut}
pair_coeff 2 2 40472.9144105 0.202420171096 26.2679081719 10

kspace_style pppm 1.0e-5

neighbor 1.0 bin
neigh_modify every 1 delay 0 check yes
# ---- define settings
compute eng all pe/atom
compute eatoms all reduce sum c_eng
# ---- run minimization
reset_timestep 0
fix 1 all box/relax iso 0.0 vmax 0.001
thermo 10
thermo_style custom step pe lx ly lz xy xz yz press pxx pyy pzz pxy pxz pyz c_eatoms
min_style cg
minimize 1e-25 1e-25 5000 10000
PPPM initialization ...
  G vector (1/distance) = 0.352799
  grid = 8 8 8
  stencil order = 5
  estimated absolute RMS force accuracy = 3.93787e-05
  estimated relative force accuracy = 2.7347e-06
  using double precision FFTs
  3d grid and FFT values/proc = 3375 512
Neighbor list info ...
  1 neighbor list requests
  update every 1 steps, delay 0 steps, check yes
  master list distance cutoff = 11
Memory usage per processor = 4.06549 Mbytes
Step PotEng Lx Ly Lz Xy Xz Yz Press Pxx Pyy Pzz Pxy Pxz Pyz eatoms 
       0   -110.27609       4.2565       4.2565       4.2565            0            0            0    110960.29    110960.29    110960.29    110960.29 9.3314123e-11 1.6239754e-10 5.8891323e-11   -110.27609 
      10   -110.39349     4.299065     4.299065     4.299065            0            0            0    52923.265    52923.265    52923.265    52923.265 1.8718586e-11 -3.674075e-11 -9.001309e-11   -110.39349 
      20   -110.43343      4.34163      4.34163      4.34163            0            0            0    2089.5567    2089.5567    2089.5567    2089.5567 6.9298069e-11 -1.296578e-10 -9.997383e-11   -110.43343 
      22   -110.43352     4.343513     4.343513     4.343513            0            0            0   -5.7193123   -5.7193123   -5.7193123   -5.7193123 4.586585e-11 9.062077e-11 2.6249224e-10   -110.43352 
Loop time of 0.0136399 on 1 procs for 22 steps with 8 atoms

Minimization stats:
  Stopping criterion = linesearch alpha is zero
  Energy initial, next-to-last, final = 
        -110.276087498     -110.433524975     -110.433524975
  Force two-norm initial, final = 16.0227 0.00180648
  Force max component initial, final = 16.0227 0.000859982
  Final line search alpha, max atom move = 0.00390625 3.35931e-06
  Iterations, force evaluations = 22 39

Pair  time (%) = 0.00363851 (26.6754)
Kspce time (%) = 0.00225306 (16.5181)
Neigh time (%) = 0 (0)
Comm  time (%) = 0.000431299 (3.16203)
Outpt time (%) = 3.29018e-05 (0.241217)
Other time (%) = 0.00728416 (53.4033)

Nlocal:    8 ave 8 max 8 min
Histogram: 1 0 0 0 0 0 0 0 0 0
Nghost:    2189 ave 2189 max 2189 min
Histogram: 1 0 0 0 0 0 0 0 0 0
Neighs:    2344 ave 2344 max 2344 min
Histogram: 1 0 0 0 0 0 0 0 0 0

Total # of neighbors = 2344
Ave neighs/atom = 293
Neighbor list builds = 0
Dangerous builds = 0
unfix 1
# ---- define output variables ----
variable natoms equal "count(all)"
variable tot_energy equal "c_eatoms"
variable length_x equal "lx"
variable length_y equal "ly"
variable length_z equal "lz"
variable tilt_xy equal "xy"
variable tilt_xz equal "xz"
variable tilt_yz equal "yz"
variable tot_press equal "press"
variable press_xx equal "pxx"
variable press_yy equal "pyy"
variable press_zz equal "pzz"
variable press_xy equal "pxy"
variable press_xz equal "pxz"
variable press_yz equal "pyz"

# ---- output ----
print "pypospack:output_section:begin"
pypospack:output_section:begin
print "tot_energy = ${tot_energy}"
tot_energy = -110.433524975286
print "num_atoms = ${natoms}"
num_atoms = 8
print "xx = ${length_x}"
xx = 4.34351296178449
print "yy = ${length_y}"
yy = 4.34351296178449
print "zz = ${length_z}"
zz = 4.34351296178449
print "xy = ${tilt_xy}"
xy = 0
print "xz = ${tilt_xz}"
xz = 0
print "yz = ${tilt_yz}"
yz = 0
print "tot_press = ${tot_press}"
tot_press = -5.71931225965551
print "pxx = ${press_xx}"
pxx = -5.71931225981032
print "pyy = ${press_yy}"
pyy = -5.71931225968463
print "pzz = ${press_zz}"
pzz = -5.71931225947158
print "pxy = ${press_xy}"
pxy = 4.5865850341772e-11
print "pxz = ${press_xz}"
pxz = 9.06207702771322e-11
print "pyz = ${press_yz}"
pyz = 2.62492238241466e-10
print "pypospack:output_section:done"
pypospack:output_section:done
print "pypospack:lammps_sim:done"
pypospack:lammps_sim:done
#------------------------------------------------------------------------------
# RUN THERMOSTAT
# running using an NPT Nose-Hoover style thermostat
#------------------------------------------------------------------------------
variable tempdamp equal 0.1
variable pressdamp equal 1.0
# set initial velocities
velocity all create 100 6517193 mom yes dist gaussian loop all
# fix for Nose-Hoover style thermostat
fix 20 all npt temp 100 100 0.1 aniso 0.0 0.0 1.0 drag 1.0 couple xyz
variable boxx equal lx
variable boxy equal ly
variable boxz equal lz
variable boxp equal press
variable boxt equal temp
# calculate averages every 10000 steps
reset_timestep 0
fix 21 all ave/time 10 10 100 v_boxx v_boxy v_boxz v_boxp v_boxt file lattice.out
thermo_style custom step temp pe ke etotal press lx ly lz press pxx pyy pzz pxy pxz pyz vol
thermo_modify flush yes
thermo 100
run 100000
PPPM initialization ...
  G vector (1/distance) = 0.351923
  grid = 8 8 8
  stencil order = 5
  estimated absolute RMS force accuracy = 4.10067e-05
  estimated relative force accuracy = 2.84776e-06
  using double precision FFTs
  3d grid and FFT values/proc = 3375 512
Memory usage per processor = 3.06549 Mbytes
Step Temp PotEng KinEng TotEng Press Lx Ly Lz Press Pxx Pyy Pzz Pxy Pxz Pyz Volume 
       0          100   -110.43354  0.090482101   -110.34305    1171.5983     4.343513     4.343513     4.343513    1171.5983    1165.4719    1650.0128    699.31011   -868.03858   -207.35999   -87.865904    81.945171 
     100    16.387053   -110.34459   0.01482735   -110.32976    5302.2777    4.3432169    4.3432169    4.3432169    5302.2777     3773.564    8900.1876    3233.0816    1892.1405    93.391901   -16.766555    81.928415 
     200    98.784483   -110.39571  0.089382276   -110.30632   -439.40428     4.345534     4.345534     4.345534   -439.40428   -874.74312    467.12872   -910.59843    294.85442    944.31775   -355.60718    82.059614 
     300    72.571607   -110.35007  0.065664315    -110.2844    3122.3618    4.3471173    4.3471173    4.3471173    3122.3618    1717.8761    7706.7063   -57.497049    636.01187   -241.04361    232.78569    82.149337 
     400    88.434389   -110.34894  0.080017294   -110.26892   -210.74332    4.3477255    4.3477255    4.3477255   -210.74332   -445.06043    1427.4142   -1614.5837    922.80087    91.008862    419.94657    82.183823 
     500    88.646974   -110.33784  0.080209645   -110.25763   -1546.2006    4.3496579    4.3496579    4.3496579   -1546.2006   -3341.1287     3194.357   -4491.8302   -379.88692    950.93214    403.22978    82.293455 
     600    87.834324   -110.33186  0.079474342   -110.25239    1287.5284    4.3499663    4.3499663    4.3499663    1287.5284    2860.2992    3870.2145   -2867.9283    1917.3277   -393.58455    393.78354     82.31096 
     700    132.51368     -110.371   0.11990116    -110.2511   -3474.6374     4.350519     4.350519     4.350519   -3474.6374   -5139.0866    -1184.244   -4100.5817   -1303.9007    693.28554    32.982801    82.342338 
     800    46.378992   -110.29416  0.041964687    -110.2522    808.97616    4.3509354    4.3509354    4.3509354    808.97616    1687.2175    6248.2359   -5508.5249    2112.0679    502.49772    556.00091    82.365986 
     900    153.02929    -110.3902   0.13846411   -110.25174   -2843.4776    4.3505292    4.3505292    4.3505292   -2843.4776   -390.82438   -3596.3968   -4543.2115   -411.63138    155.56067   -671.50823     82.34292 
    1000    81.347503   -110.32625  0.073604931   -110.25264    378.43069     4.350506     4.350506     4.350506    378.43069   -2014.3331    8524.0052   -5374.3801    1004.0624    985.17771    6.3630097      82.3416 
    1100     100.0007   -110.34346  0.090482737   -110.25298   -2037.1796      4.35094      4.35094      4.35094   -2037.1796    4006.0692   -4895.9894   -5221.6186   -57.072589    896.33947    515.24891     82.36625 
    1200    106.05439   -110.34857   0.09596024   -110.25261    1103.0457    4.3490027    4.3490027    4.3490027    1103.0457   -2278.2424    9380.2057   -3792.8262   -552.60262   -141.19836   -433.94979    82.256276 
    1300    117.56712   -110.35911    0.1063772   -110.25273   -1073.1689    4.3501828    4.3501828    4.3501828   -1073.1689    3172.4045   -2838.5707   -3553.3406    1472.9666    325.39496    230.15093    82.323253 
    1400    62.819035   -110.31011  0.056839983   -110.25327    357.91217    4.3493834    4.3493834    4.3493834    357.91217   -240.90236    6186.8266   -4872.1877   -924.51014    1488.5437   -437.11544    82.277878 
    1500    127.85432   -110.36826   0.11568528   -110.25258   -544.68694    4.3482661    4.3482661    4.3482661   -544.68694   -887.48621    1543.5918   -2290.1664    1167.4373   -326.57697     234.4302    82.214484 
    1600    85.633125   -110.33002  0.077482651   -110.25254    1401.7974    4.3492516    4.3492516    4.3492516    1401.7974    3209.0181    3796.2406   -2799.8666   -1210.9871   -36.526847   -530.71681    82.270396 
    1700    86.516751   -110.33095  0.078282174   -110.25267   -928.00172     4.348715     4.348715     4.348715   -928.00172   -4162.0036    4685.2627   -3307.2643    1640.8628    1462.9038    -501.1168    82.239951 
    1800    107.52213   -110.34969   0.09728828    -110.2524    681.64834    4.3480066    4.3480066    4.3480066    681.64834    2404.5199    749.79476   -1109.3696   -1212.1279   -430.09198    184.42636    82.199766 
    1900    98.545028   -110.34153  0.089165612   -110.25237    880.58511     4.349013     4.349013     4.349013    880.58511   -1817.3548    8437.9033   -3978.7932   -292.41095     105.1147   -627.57905    82.256857 
    2000     112.1377   -110.35412   0.10146455   -110.25266   -2527.9917    4.3488048    4.3488048    4.3488048   -2527.9917   -1712.3572   -2736.3641   -3135.2538    1308.9625    406.87252    118.72664    82.245043 
    2100     67.02592   -110.31348  0.060646461   -110.25283    3011.3342    4.3484338    4.3484338    4.3484338    3011.3342    570.28087    9956.6385   -1492.9168   -1922.6007    282.55095   -123.92404    82.223998 
    2200     174.1163   -110.40986   0.15754409   -110.25232   -3699.6582    4.3496092    4.3496092    4.3496092   -3699.6582   -3384.6894   -2897.3129   -4816.9722    458.39732    598.03013     583.8078    82.290691 
    2300    21.171648   -110.27283  0.019156552   -110.25367    3018.0133     4.348536     4.348536     4.348536    3018.0133    660.70851    9538.8443    -1145.513   -2093.6869    386.83834      698.932    82.229797 
    2400    159.91435   -110.39755   0.14469386   -110.25286   -4308.4138    4.3501786    4.3501786    4.3501786   -4308.4138    -5084.756   -2725.7113    -5114.774    1272.3336   -65.756959   -159.89376    82.323016 
    2500    69.041339   -110.31574  0.062470055   -110.25327    2707.7809    4.3488651    4.3488651    4.3488651    2707.7809    2188.4772     7855.432   -1920.5663   -1972.3331    -261.8966    335.11884    82.248465 
    2600    100.14121   -110.34373  0.090609875   -110.25312   -2313.5797    4.3497571    4.3497571    4.3497571   -2313.5797   -3774.2338    9.4067874   -3175.9122    3.6542399    1181.6484    480.58084    82.299089 
    2700    95.316922   -110.33911  0.086244754   -110.25287   -396.07862    4.3501074    4.3501074    4.3501074   -396.07862   -789.56523    2659.4969   -3058.1675    285.69648   -261.47302   -364.05027    82.318973 
    2800    92.003011    -110.3356  0.083246258   -110.25235    1813.1322    4.3488319    4.3488319    4.3488319    1813.1322    2899.1985    4636.4612   -2096.2632   -1272.2306    -302.8614   -121.88696    82.246582 
    2900    121.27657   -110.36221   0.10973359   -110.25248   -2825.9138    4.3499943    4.3499943    4.3499943   -2825.9138   -3862.7248   -124.57129   -4490.4453    893.24305    1290.5493    506.79155    82.312554 
    3000    53.339975   -110.30117   0.04826313   -110.25291    3066.0911    4.3494745    4.3494745    4.3494745    3066.0911    5543.6703    6021.4441   -2366.8411   -1597.6155    192.80185   -422.05842    82.283048 
    3100    168.50703   -110.40451   0.15246871   -110.25204    -1951.791    4.3490199    4.3490199    4.3490199    -1951.791   -1425.0239   -1220.8607   -3209.4885    1479.5289   -98.229302   -165.86539     82.25725 
    3200    51.808288   -110.29992  0.046877228   -110.25305    2894.8998    4.3491347    4.3491347    4.3491347    2894.8998    2033.3456     9300.934   -2649.5801   -1503.9039    739.07401    389.38193    82.263764 
    3300    130.63199   -110.37095   0.11819857   -110.25275   -1831.8661    4.3496892    4.3496892    4.3496892   -1831.8661    2593.6537   -3804.9852   -4284.2669    122.08012    869.40643    211.81951    82.295234 
    3400    94.102352   -110.33808  0.085145785   -110.25293    2592.4319     4.348278     4.348278     4.348278    2592.4319   -1487.3537    11351.145    -2086.495   -742.96992    221.53158    431.14257    82.215157 
    3500    104.85826   -110.34798  0.094877958   -110.25311   -789.58597    4.3494476    4.3494476    4.3494476   -789.58597    4159.6689    -2339.683   -4188.7438   -156.56003    617.80508   -21.013751    82.281519 
    3600    73.694249   -110.31974  0.066680105   -110.25306    988.21037    4.3489666    4.3489666    4.3489666    988.21037   -2057.6355     8047.015   -3024.7484    834.51494    483.26553    642.01599    82.254227 
    3700    122.13716   -110.36288   0.11051227   -110.25237   -160.99239    4.3488014    4.3488014    4.3488014   -160.99239    771.49099    974.63676   -2229.1049    -1619.008   -303.20349   -30.143733     82.24485 
    3800    77.545524   -110.32286  0.070164819   -110.25269    204.80536    4.3494074    4.3494074    4.3494074    204.80536    481.77945    4556.6077   -4423.9711    1978.1602    906.23438    665.43312     82.27924 
    3900    97.634375   -110.34093  0.088341634   -110.25259   -1537.2868    4.3491329    4.3491329    4.3491329   -1537.2868   -3388.4058    3120.4169   -4343.8713   -1384.7289   -101.34343    358.87583    82.263662 
    4000    110.71721    -110.3524   0.10017926   -110.25222   -114.10115    4.3492174    4.3492174    4.3492174   -114.10115    1068.4047    222.76148   -1633.4696    932.10525   -307.22344    328.29145    82.268459 
    4100    99.977352   -110.34282  0.090461609   -110.25236   -1313.1997    4.3497317    4.3497317    4.3497317   -1313.1997   -4472.1505    6255.4053    -5722.854   -545.11449    1721.1841    913.39348    82.297648 
    4200    104.03587   -110.34663  0.094133841    -110.2525   -2237.2251    4.3491962    4.3491962    4.3491962   -2237.2251   -968.82083   -3318.5894   -2424.2652    892.39512    108.64722   -428.98581    82.267251 
    4300     93.73575   -110.33728  0.084814076   -110.25247    521.48205    4.3495402    4.3495402    4.3495402    521.48205   -2961.9135    8046.6855   -3520.3258    1365.8568   -366.92656    180.54261    82.286779 
    4400    138.20601   -110.37762    0.1250517   -110.25257   -3634.0832    4.3499242    4.3499242    4.3499242   -3634.0832   -2440.7315    -3610.591   -4850.9272   -1248.2557    480.06656    496.73842    82.308573 
    4500    37.164485   -110.28703  0.033627207   -110.25341    2127.1203      4.34861      4.34861      4.34861    2127.1203   -645.31895     8362.773   -1336.0931    3293.8504    690.96318   -415.06133    82.233994 
    4600    158.23186   -110.39564   0.14317151   -110.25247   -3512.4748    4.3502739    4.3502739    4.3502739   -3512.4748   -3953.5963   -3000.5795   -3583.2486   -835.47617   -94.815117   -588.59682    82.328423 
    4700    51.272607   -110.29954  0.046392532   -110.25315    2835.4243     4.348773     4.348773     4.348773    2835.4243    1581.0061    8472.2668   -1546.9999    2299.5749   -20.257493   -122.37858    82.243243 
    4800    113.88174   -110.35599   0.10304259   -110.25295   -2258.0479    4.3493315    4.3493315    4.3493315   -2258.0479   -3851.9947   -397.56624   -2524.5829    177.33717    497.72741    4.0176854    82.274934 
    4900    93.613962   -110.33761   0.08470388   -110.25291    1518.2507    4.3495505    4.3495505    4.3495505    1518.2507    2123.1184    4863.2934   -2431.6597    728.23798   -250.41829   -576.23261    82.287358 
    5000    99.325104    -110.3425  0.089871441   -110.25263    1285.3123     4.348639     4.348639     4.348639    1285.3123   -500.24828    4808.9659   -452.78062    856.67821     585.5909    284.65358    82.235639 
    5100    115.54827   -110.35712   0.10455051   -110.25257   -1158.7108    4.3495123    4.3495123    4.3495123   -1158.7108   -1567.9059    983.03376   -2891.2603    -963.6058    324.77275    277.88274    82.285192 
    5200    70.386468   -110.31621  0.063687155   -110.25253    3918.2133    4.3489098    4.3489098    4.3489098    3918.2133    5028.9406    7665.3956   -939.69636    1757.0197    49.856651    58.793169    82.251001 
    5300    163.79831    -110.4003   0.14820816   -110.25209   -2238.7579    4.3489145    4.3489145    4.3489145   -2238.7579   -2960.4047   -563.60052   -3192.2684   -485.70464    1214.1555   -344.68325    82.251269 
    5400    35.479129   -110.28525  0.032102261   -110.25315    4037.7324    4.3491129    4.3491129    4.3491129    4037.7324    4704.8783     9077.464   -1669.1449     1502.959    618.53711    58.090653    82.262525 
    5500    153.40344    -110.3912   0.13880265    -110.2524   -2106.5777    4.3492131    4.3492131    4.3492131   -2106.5777    270.38488   -2849.6393   -3740.4788   -849.23889   -385.73445    23.844658    82.268212 
    5600     66.08716   -110.31279  0.059797051   -110.25299    3350.3705    4.3483938    4.3483938    4.3483938    3350.3705   0.49244754    10875.629   -825.00973    1097.2141    350.85044   -783.15728    82.221728 
    5700    110.16896   -110.35268  0.099683192   -110.25299   -1973.9246     4.350059     4.350059     4.350059   -1973.9246     2205.691   -3265.7223   -4861.7423     794.0052    805.73304    236.40347    82.316222 
    5800    79.487908   -110.32498  0.071922329   -110.25305    1219.9342    4.3484637    4.3484637    4.3484637    1219.9342   -1592.5965    8006.9914   -2754.5921   -572.21025   -350.01717   -1216.7987    82.225694 
    5900    118.38512   -110.35973   0.10711734   -110.25261   -1113.3669    4.3494061    4.3494061    4.3494061   -1113.3669    528.18032   -445.49553   -3422.7856    1081.0013    97.511839    128.17132    82.279166 
    6000    80.491599    -110.3256  0.072830491   -110.25277   -714.71426     4.349886     4.349886     4.349886   -714.71426   -2042.7027     4136.753   -4238.1931   -373.36602    1330.0906   -636.81023    82.306406 
    6100    106.45419   -110.34879  0.096321991   -110.25246    -1126.936    4.3487671    4.3487671    4.3487671    -1126.936   -1792.8254     1690.698   -3278.6805    1276.8086   -32.041335   -608.10315    82.242904 
    6200    112.16954   -110.35372   0.10149336   -110.25223    -1026.671    4.3498295    4.3498295    4.3498295    -1026.671   -429.81029    1135.9382    -3786.141   -1666.3628    317.13997    271.59654    82.303196 
    6300    91.432149   -110.33517   0.08272973   -110.25244   -1562.1522    4.3497663    4.3497663    4.3497663   -1562.1522   -3664.2403    4819.6116    -5841.828    1462.9556    447.28581   -854.18861    82.299611 
    6400    108.49322   -110.35051  0.098166941   -110.25235   -1668.1653    4.3491153    4.3491153    4.3491153   -1668.1653   -199.24496   -2911.2861   -1893.9648     205.2089   -182.37356   -322.67683    82.262664 
    6500    97.013682   -110.34009  0.087780018   -110.25231    22.926058    4.3498201    4.3498201    4.3498201    22.926058   -3828.2458    8634.8772   -4737.8533   -546.23697     1181.525    -506.2377    82.302664 
    6600    114.34732   -110.35593   0.10346386   -110.25247   -2692.9431    4.3494296    4.3494296    4.3494296   -2692.9431   -1522.5196   -3602.8795   -2953.4304    433.60215    150.07186    364.64758    82.280502 
    6700    60.351527   -110.30755   0.05460733   -110.25295    1218.1647    4.3490833    4.3490833    4.3490833    1218.1647   -2607.9943    8406.6816   -2144.1932   -1497.1744   -490.17485    19.879196    82.260848 
    6800    146.41498   -110.38495   0.13247935   -110.25247   -2776.4878    4.3499447    4.3499447    4.3499447   -2776.4878   -2409.1159   -2082.4285   -3837.9191    942.14983    264.46054   -377.93419    82.309737 
    6900    50.858148   -110.29921  0.046017521   -110.25319     2533.286    4.3484169    4.3484169    4.3484169     2533.286    298.07702     7857.317    -555.5361   -2198.7245     799.7148    1421.0146    82.223039 
    7000    126.93927   -110.36757   0.11485732   -110.25271   -2289.1061    4.3498732    4.3498732    4.3498732   -2289.1061   -4478.7031   -714.77676   -1673.8385    763.22197   -196.54706   -322.35601    82.305676 
    7100    84.096708   -110.32895  0.076092469   -110.25286    2505.6439     4.348899     4.348899     4.348899    2505.6439     3586.903    4690.0275   -759.99883    -920.1221   -3.9144927     461.7905    82.250392 
    7200    110.05561   -110.35223   0.09958063   -110.25265    155.87308    4.3486384    4.3486384    4.3486384    155.87308   -1932.7405    3993.3416   -1592.9819   -255.28539    1294.5086    318.56959    82.235604 
    7300    102.27714   -110.34525  0.092542508   -110.25271    188.01909    4.3497458    4.3497458    4.3497458    188.01909     896.8603     157.4568   -490.25983   -227.10953    153.92504    341.47444    82.298445 
    7400    88.392812   -110.33239  0.079979674   -110.25241    2949.4014     4.348519     4.348519     4.348519    2949.4014    3066.1223    6557.6781   -775.59637   -988.72511   -80.896209   -365.18527    82.228834 
    7500    141.91394   -110.38056   0.12840671   -110.25215   -1405.8782    4.3490556    4.3490556    4.3490556   -1405.8782   -3086.4388    -273.2246   -857.97129    1199.0268     336.5931   -299.91893    82.259274 
    7600    45.853927   -110.29436  0.041489597   -110.25287    3523.6815    4.3493006    4.3493006    4.3493006    3523.6815    3786.1831    7142.2242   -357.36283   -1503.7881    96.523188    120.05649    82.273175 
    7700    155.02534   -110.39253   0.14027019   -110.25226   -2302.5182    4.3490234    4.3490234    4.3490234   -2302.5182   -2502.9214   -1854.6432   -2549.9899     569.8763     403.7414   -386.25223    82.257447 
    7800     56.35585   -110.30409  0.050991958    -110.2531    3428.1557    4.3486601    4.3486601    4.3486601    3428.1557    247.02313    10326.369   -288.92511   -1353.3003    417.66159    962.98887    82.236834 
    7900    118.44196   -110.36004   0.10716877   -110.25287   -1946.1208     4.349838     4.349838     4.349838   -1946.1208    222.43748   -3098.4827   -2962.3172     262.9135     47.57948   -638.67544    82.303679 
    8000    81.911577   -110.32706  0.074115317   -110.25294    1506.7329    4.3485826    4.3485826    4.3485826    1506.7329   -3316.2596    8651.0367   -814.57846   -681.53409    267.28927    938.55193    82.232441 
    8100    108.03967   -110.35046  0.097756564    -110.2527   -445.84928    4.3493381    4.3493381    4.3493381   -445.84928    1001.7058    746.67942   -3085.9331   -1120.0906    851.45223    182.96616    82.275304 
    8200    94.788937   -110.33852  0.085767022   -110.25275   -997.43252    4.3496337    4.3496337    4.3496337   -997.43252   -2803.8283    4021.5732   -4210.0424    1126.3559     -321.608    232.47883    82.292083 
    8300    96.228015   -110.33967   0.08706913    -110.2526    -171.7705    4.3489766    4.3489766    4.3489766    -171.7705   -1909.5504    2713.6077   -1319.3688    -2099.035   -250.20246    192.55112    82.254792 
    8400     122.5129   -110.36315   0.11085225    -110.2523   -1883.1954    4.3498538    4.3498538    4.3498538   -1883.1954   -2280.7103    1230.2752    -4599.151    764.43804    1723.5922    541.66239    82.304575 
    8500    81.825636   -110.32648  0.074037555   -110.25244   -633.50053     4.349366     4.349366     4.349366   -633.50053   -3586.1775    4256.8559   -2571.1799   -1262.8104    39.186896    672.86007     82.27689 
    8600    121.63635   -110.36223   0.11005912   -110.25217   -2948.7051    4.3495516    4.3495516    4.3495516   -2948.7051    -3142.528   -2668.0717   -3035.5156    820.93945   -263.23865    -1044.778    82.287423 
    8700    85.847349   -110.33011  0.077676486   -110.25244   -236.82013     4.349825     4.349825     4.349825   -236.82013   -4354.6171    7049.4978   -3405.3411   -197.82436    510.49421    1207.7208    82.302941 
    8800    115.09902   -110.35657   0.10414402   -110.25242    -3003.146    4.3493084    4.3493084    4.3493084    -3003.146   -2365.4729   -3873.4952     -2770.47   -1011.4114    192.81363     263.1791    82.273619 
    8900    65.637571   -110.31223  0.059390254   -110.25284    576.29008    4.3492739    4.3492739    4.3492739    576.29008   -4654.8775     6595.515   -211.76725    1900.6545    480.73689   -427.29875    82.271664 
    9000    131.09165   -110.37094   0.11861448   -110.25232   -2569.4753    4.3500254    4.3500254    4.3500254   -2569.4753   -2383.6013   -2326.2175    -2998.607   -1385.3459    234.95525    566.12033    82.314315 
    9100    60.175947    -110.3074  0.054448461   -110.25295    1899.2022    4.3482881    4.3482881    4.3482881    1899.2022   -1006.4699    6746.8118   -42.735177    1584.5391    309.66352   -576.76581    82.215733 
    9200    126.71481   -110.36737   0.11465423   -110.25272   -1976.6772    4.3498251    4.3498251    4.3498251   -1976.6772     -3491.99   -1400.7855    -1037.256   -377.09645    167.24387    130.45663    82.302945 
    9300    83.271537   -110.32822  0.075345837   -110.25288    2569.5051    4.3490665    4.3490665    4.3490665    2569.5051    1804.2175     4856.477    1047.8208    1400.6253    769.68148   -1278.9388    82.259895 
    9400    120.99082   -110.36206   0.10947504   -110.25258   -58.504663    4.3485122    4.3485122    4.3485122   -58.504663   -3623.6614     3155.981    292.16646    358.07639   -390.81938    632.39623    82.228446 
    9500    93.341081   -110.33706  0.084456971    -110.2526    1296.6341    4.3496501    4.3496501    4.3496501    1296.6341    1453.8534    381.36989     2054.679   -591.62268    -172.5771    -651.2007    82.293012 
    9600    102.95167   -110.34539  0.093152831   -110.25224    1993.3156    4.3486485    4.3486485    4.3486485    1993.3156   -1239.0744    7706.1507   -487.12938    1351.3998    1261.9854    478.42201    82.236178 
    9700    123.24149   -110.36376   0.11151149   -110.25225    70.958642    4.3488123    4.3488123    4.3488123    70.958642   -1601.2125   -469.09817    2283.1866   -575.75171    74.235968   -180.16243     82.24547 
    9800    60.341648    -110.3073  0.054598391    -110.2527    2988.7623    4.3493975    4.3493975    4.3493975    2988.7623    1665.1215    6992.4399    308.72562    756.46933    -189.5215   -101.20461    82.278678 
    9900    137.32249   -110.37642   0.12425227   -110.25217   -1208.1202    4.3487551    4.3487551    4.3487551   -1208.1202   -3703.9124   -195.09165    274.64347   -750.17427    300.84259    875.29204    82.242228 
   10000    64.787041   -110.31134  0.058620676   -110.25272    2653.1133    4.3489655    4.3489655    4.3489655    2653.1133    647.75512    7093.9642    217.62051     981.2745    447.59936   -758.33928    82.254166 
   10100    117.83269   -110.35932   0.10661749    -110.2527   -2069.1383    4.3497879    4.3497879    4.3497879   -2069.1383   -1294.7432   -1769.5583   -3143.1134   -171.31608   -374.71278    536.45662    82.300836 
   10200    79.417685   -110.32512   0.07185879   -110.25326    1474.4061    4.3483363    4.3483363    4.3483363    1474.4061   -2291.8201    6744.7106   -29.672143    170.90884    254.42012   -1546.0611    82.218467 
   10300    117.22468   -110.35907   0.10606735     -110.253   -1311.9156    4.3500564    4.3500564    4.3500564   -1311.9156   -1189.9718    234.39539   -2980.1705     1320.677    902.75884    528.15328    82.316078 
   10400    92.240814   -110.33644  0.083461427   -110.25298   -926.55835    4.3492327    4.3492327    4.3492327   -926.55835   -2780.6191    2613.8861    -2612.942   -316.33254     31.28557   -1482.1317    82.269322 
   10500    96.300468   -110.33974  0.087134687   -110.25261   -452.75705    4.3489034    4.3489034    4.3489034   -452.75705   -2766.8436    3829.5266   -2420.9541    1278.4984    1023.5245   -690.68019     82.25064 
   10600    128.57102   -110.36852   0.11633376   -110.25219   -2538.7202    4.3505876    4.3505876    4.3505876   -2538.7202   -3570.1309     48.77786   -4094.8075   -1218.4851   -174.98358    769.60486    82.346235 
   10700    73.924646   -110.31943  0.066888573   -110.25254    51.279207    4.3486103    4.3486103    4.3486103    51.279207   -2918.1496    4770.9212    -1698.934    1059.6648   -65.731718   -2064.2609    82.234011 
   10800    122.89896   -110.36342   0.11120156   -110.25222    -2750.703     4.349684     4.349684     4.349684    -2750.703   -4516.4714   -975.74758   -2759.8901   -25.324301    1536.8112    182.72745     82.29494 
   10900    88.053132     -110.332  0.079672324   -110.25233   -205.48278    4.3501007    4.3501007    4.3501007   -205.48278   -4112.4464    6148.7335   -2652.7355   -112.51045    99.223641   -1351.8409    82.318594 
   11000    102.68503   -110.34531  0.092911573    -110.2524    -2018.015    4.3486064    4.3486064    4.3486064    -2018.015   -3083.6901   -1114.4552   -1855.8997    582.17916   -94.331871   -146.51877    82.233788 
   11100    77.972321   -110.32335  0.070550995    -110.2528    303.23538    4.3497136    4.3497136    4.3497136    303.23538   -4370.9077    7484.3481   -2203.7343   -753.80213    451.05041    -937.5302    82.296619 
   11200    118.72776      -110.36   0.10742738   -110.25258   -1039.5426    4.3495204    4.3495204    4.3495204   -1039.5426    -2558.552   -432.68305   -127.39285    1201.3429    752.63787   -727.51509    82.285652 
   11300    80.594152   -110.32608  0.072923282   -110.25316    568.00021     4.348405     4.348405     4.348405    568.00021   -3605.3997    5906.8597   -597.45934   -2246.6578   -410.37522    760.33316    82.222361 
   11400    105.12202     -110.348  0.095116616   -110.25289   -577.30194    4.3500686    4.3500686    4.3500686   -577.30194   -3513.9103    505.61129    1276.3932    602.39327     214.0617    -1560.233    82.316769 
   11500    115.76828   -110.35726   0.10474957   -110.25252    508.35494    4.3486901    4.3486901    4.3486901    508.35494   -1590.2928    3880.4019   -765.04429   -597.08417    879.60515    1097.6264    82.238538 
   11600    96.835188   -110.34019  0.087618513   -110.25257    755.00413    4.3489598    4.3489598    4.3489598    755.00413   -3899.4793    3104.4236    3060.0682   -1343.0458   -139.69901    -1042.942    82.253838 
   11700    102.56866   -110.34538  0.092806277   -110.25257    437.01662    4.3497085    4.3497085    4.3497085    437.01662   -1241.5102    621.25887    1931.3012   -204.84723    710.11318    1046.2143    82.296326 
   11800    106.06441   -110.34833  0.095969308   -110.25236    1672.2943    4.3481553    4.3481553    4.3481553    1672.2943   -2583.1412    7025.9313    574.09267   -1075.6267   -310.95405   -736.15143    82.208199 
   11900    102.11432    -110.3448  0.092395179   -110.25241    123.09563     4.349717     4.349717     4.349717    123.09563   -2991.4089   -652.27314     4012.969    746.70511   -210.36344   -428.51586    82.296811 
   12000    75.065176   -110.32042  0.067920549    -110.2525     1517.817    4.3490481    4.3490481    4.3490481     1517.817   -605.32616    6457.9418   -1299.1647   -1013.5304    540.07352    -232.2121    82.258849 
   12100    129.03531   -110.36888   0.11675386   -110.25212   -389.55854    4.3484846    4.3484846    4.3484846   -389.55854   -2912.8024    67.559996    1676.5667    597.97034    178.55109   -731.34732    82.226881 
   12200    69.224975   -110.31542  0.062636212   -110.25278    1909.6037     4.349849     4.349849     4.349849    1909.6037   -1917.7162    6079.7944    1566.7331   -391.87018    99.095493    527.26825    82.304305 
   12300    118.52767   -110.36004   0.10724632    -110.2528     -2037.43    4.3490079    4.3490079    4.3490079     -2037.43   -2118.4438    -830.3801   -3163.4662   -448.61234    606.23651   -1650.6363    82.256571 
   12400    81.766756   -110.32694  0.073984279   -110.25296    1870.6221    4.3486998    4.3486998    4.3486998    1870.6221   -2977.8421    7323.9425    1265.7659   -188.29456    1293.8652    1841.3294    82.239089 
   12500    124.93847   -110.36569   0.11304695   -110.25264   -1847.7533     4.350341     4.350341     4.350341   -1847.7533   -2315.4893    769.33895   -3997.1095   -934.63135   -715.39172   -1075.1074    82.332237 
   12600    76.749397   -110.32245  0.069444467   -110.25301    600.07865    4.3483683    4.3483683    4.3483683    600.07865    -2301.819    3673.9654    428.08962    741.75428    668.55004     423.4872    82.220282 
   12700    119.87548   -110.36108   0.10846586   -110.25262   -1025.3888    4.3495542    4.3495542    4.3495542   -1025.3888   -4467.4785    4664.8091   -3273.4969   -1521.4589    1514.1072    733.94865    82.287569 
   12800    110.67998   -110.35276   0.10014557   -110.25262   -1401.8361    4.3500299    4.3500299    4.3500299   -1401.8361   -2350.7226   -205.95471   -1648.8311    375.79177   -216.98217    534.84586    82.314571 
   12900    73.916934   -110.31969  0.066881595   -110.25281   -308.58942    4.3485973    4.3485973    4.3485973   -308.58942   -4541.7997    5167.0399   -1551.0085   -729.25241    917.00936    1006.2603    82.233274 
   13000    132.49004   -110.37205   0.11987977   -110.25217   -2668.9474    4.3500725    4.3500725    4.3500725   -2668.9474   -4014.6212   -461.05472   -3531.1662    142.00697    322.08803   -986.03419    82.316989 
   13100    65.196747   -110.31143  0.058991387   -110.25244    1739.1526    4.3490476    4.3490476    4.3490476    1739.1526   -2661.2186    6108.1967    1770.4798   -151.98391    135.46651    2223.2217    82.258823 
   13200    123.56203   -110.36435   0.11180152   -110.25254   -3643.2842    4.3493567    4.3493567    4.3493567   -3643.2842   -5822.3598   -1243.8907   -3863.6021   -976.90684    514.01762   -888.56178    82.276363 
   13300    62.942819   -110.31015  0.056951985    -110.2532    1820.4449    4.3494095    4.3494095    4.3494095    1820.4449   -3325.6674    6497.0968    2289.9052    1557.1565    530.44977    1457.8458     82.27936 
   13400    132.96234   -110.37298   0.12030712   -110.25267   -1900.7968     4.349062     4.349062     4.349062   -1900.7968   -3425.2616   -184.66368   -2092.4652   -1768.5495   -1.0267515    494.70254     82.25964 
   13500    77.954964    -110.3237  0.070535289   -110.25317    461.96994    4.3493027    4.3493027    4.3493027    461.96994   -4619.2656    4068.1874     1936.988    883.22621    423.10326      658.723    82.273295 
   13600     108.0313   -110.35056  0.097748994   -110.25282     306.0365     4.349281     4.349281     4.349281     306.0365   -3072.5264     1437.375    2553.2609    94.342844    1290.1053    997.01406    82.272065 
   13700    123.36625   -110.36446   0.11162438   -110.25283   -17.153298    4.3485776    4.3485776    4.3485776   -17.153298   -3269.2857    4308.1568    -1090.331    728.61116   -981.24102   -796.24679    82.232154 
   13800    78.803793   -110.32454  0.071303328   -110.25323    749.90335    4.3496485    4.3496485    4.3496485    749.90335   -4800.9059    1978.0146    5072.6014    591.14908    350.35571    1297.1327    82.292924 
   13900    116.57226   -110.35817   0.10547703   -110.25269   -275.99039    4.3490825    4.3490825    4.3490825   -275.99039   -2555.9064     3113.611   -1385.6758   -447.63599    733.67734   -751.79757    82.260801 
   14000    92.848612   -110.33635  0.084011375   -110.25234     2351.323    4.3483204    4.3483204    4.3483204     2351.323   -2880.6035    7076.2582    2858.3142    1721.9191   -346.76329    990.94034    82.217565 
   14100    101.21092   -110.34403  0.091577766   -110.25246   -883.26185    4.3501522    4.3501522    4.3501522   -883.26185   -4016.2377   -1565.2936    2931.7457   -900.59228    415.45727    -938.9804    82.321513 
   14200    84.810964   -110.32935  0.076738743   -110.25261     833.3517    4.3486383    4.3486383    4.3486383     833.3517    -2429.286    8426.8463   -3497.5052       952.18    716.25664    690.67955    82.235599 
   14300    114.30912   -110.35572    0.1034293   -110.25229      78.1969    4.3488734    4.3488734    4.3488734      78.1969   -3158.5173   -335.92241    3729.0304   -151.60024    534.47326    468.51184    82.248936 
   14400    90.964461   -110.33493  0.082306556   -110.25262   -587.18117    4.3500815    4.3500815    4.3500815   -587.18117   -2973.5137    4371.1658   -3159.1957   -69.325914   -414.12844    -590.4123      82.3175 
   14500    94.564302   -110.33821  0.085563768   -110.25265    23.752428    4.3486461    4.3486461    4.3486461    23.752428   -2068.6195    1845.6944    294.18239    208.46806    1522.8731    1133.5734    82.236039 
   14600    112.17008   -110.35404   0.10149385   -110.25255    252.97597     4.349133     4.349133     4.349133    252.97597    -3385.506    4439.2087   -294.77478   -942.52017    229.94049   -1138.4196    82.263668 
   14700    106.20303   -110.34903  0.096094734   -110.25293    -1707.253    4.3498948    4.3498948    4.3498948    -1707.253   -2586.9808    622.33247   -3157.1106    975.59535    321.17605    895.83739    82.306901 
   14800     80.30467   -110.32593  0.072661353   -110.25326    109.68709    4.3487754    4.3487754    4.3487754    109.68709   -2812.6722    3069.2524    72.481149   -569.96285    1608.4902   -2447.1919    82.243378 
   14900    129.91832   -110.37007   0.11755282   -110.25252   -1113.1945    4.3495666    4.3495666    4.3495666   -1113.1945   -3958.0362    3030.8391   -2412.3863    676.07968     -847.235    707.82607    82.288274 
   15000    87.731089   -110.33201  0.079380933   -110.25263   -178.33737    4.3493084    4.3493084    4.3493084   -178.33737   -886.75073   -492.97139    844.71002   -789.60328    666.06581   -450.23683    82.273621 
   15100    89.336959   -110.33337  0.080833958   -110.25254   -948.72101    4.3492642    4.3492642    4.3492642   -948.72101   -5393.6999    5701.3134   -3153.7764     731.1006    775.96015     -1301.45    82.271113 
   15200    116.37512   -110.35755   0.10529865   -110.25225   -579.03577     4.349489     4.349489     4.349489   -579.03577   -2595.9854   -173.59522    1032.4733    48.679721   -35.426793    522.58645    82.283873 
   15300    80.066584   -110.32497  0.072445928   -110.25253    759.48315    4.3487258    4.3487258    4.3487258    759.48315   -2374.6948    6316.6296   -1663.4854   -735.09446    24.925333   -1337.1955     82.24056 
   15400     102.7056   -110.34536  0.092930187   -110.25243   -1241.2682    4.3497692    4.3497692    4.3497692   -1241.2682   -5167.7942    809.53468    634.45489    1134.6906    1031.7496    689.48882    82.299771 
   15500    94.546757   -110.33795  0.085547893    -110.2524    1894.1992    4.3489566    4.3489566    4.3489566    1894.1992   -1826.4868    6195.3637    1313.7206   -839.97492    772.70935   -1659.4329     82.25366 
   15600    121.70542   -110.36268   0.11012163   -110.25256   -1003.2431    4.3486672    4.3486672    4.3486672   -1003.2431   -3803.8242    2089.3188    -1295.224    564.69538   -944.14332    584.40845    82.237239 
   15700    78.665814   -110.32456  0.071178482   -110.25338    363.66775    4.3498561    4.3498561    4.3498561    363.66775   -5067.9204    3862.0359    2296.8877    -1556.512    1560.4122    -733.7959    82.304705 
   15800      120.704   -110.36216   0.10921552   -110.25295    227.49406    4.3489493    4.3489493    4.3489493    227.49406   -2683.5431    3929.7828   -563.75749    869.33184   -184.70293   -831.17106    82.253245 
   15900    112.71157   -110.35491    0.1019838   -110.25292   -52.571096      4.34867      4.34867      4.34867   -52.571096   -4386.4149    2799.9573    1428.7443   -584.02233   -328.75585   -154.44221    82.237397 
   16000    65.918788   -110.31274  0.059644705   -110.25309    903.98715    4.3499258    4.3499258    4.3499258    903.98715   -4226.7664    4834.9664    2103.7614   -1197.5455    1284.1463   -911.80856    82.308663 
   16100    134.36276   -110.37393   0.12157425   -110.25236   -1655.9597    4.3489917    4.3489917    4.3489917   -1655.9597   -3814.6874    2141.1463   -3294.3379    397.02678   -529.28639    792.60815    82.255649 
   16200     73.92039   -110.31953  0.066884722   -110.25265    1639.8423    4.3487202    4.3487202    4.3487202    1639.8423   -4065.5859    5641.2935    3343.8193   -1752.5144    376.91155   -1214.5929    82.240245 
   16300    102.65086   -110.34547  0.092880651   -110.25259   -2049.1759    4.3500979    4.3500979    4.3500979   -2049.1759   -4022.5709     215.2663   -2340.2231    463.90226    276.35961    69.907515    82.318434 
   16400     93.64841   -110.33714  0.084735049   -110.25241    861.50574    4.3487736    4.3487736    4.3487736    861.50574   -2880.2493    5959.5836   -494.81705   -1530.0146    566.62889   -532.18619    82.243274 
   16500    112.62248   -110.35409   0.10190318   -110.25218   -638.87706    4.3493426    4.3493426    4.3493426   -638.87706    -3637.822    13.273663    1707.9171    228.01788   -66.182082   -453.72189    82.275561 
   16600    85.117773   -110.32975   0.07701635   -110.25274   -785.09572    4.3494112    4.3494112    4.3494112   -785.09572   -3401.7587    5520.6669   -4474.1953    215.14426    1082.0011   -493.91467    82.279456 
   16700    110.88512   -110.35297   0.10033118   -110.25264   -370.01785    4.3491596    4.3491596    4.3491596   -370.01785   -2926.3967    1034.4454    781.89774    -694.9981    1000.7998    -1032.715    82.265176 
   16800    113.37979    -110.3553   0.10258841   -110.25271   -43.705932    4.3493851    4.3493851    4.3493851   -43.705932   -3961.5679    4500.4157   -669.96564    744.05773   -1326.1363    1072.5273    82.277973 
   16900    84.205148   -110.32919  0.076190588     -110.253   -62.826199    4.3488816    4.3488816    4.3488816   -62.826199   -1517.6019    3195.5988   -1866.4756   -520.11565    1642.8149   -2125.4152    82.249401 
   17000    112.27627   -110.35417   0.10158993   -110.25258   -788.91627    4.3495944    4.3495944    4.3495944   -788.91627   -4281.3453    1909.1896    5.4068218    1309.6097    204.22186    717.63523    82.289854 
   17100    104.28335   -110.34687  0.094357765   -110.25251    149.52032    4.3492558    4.3492558    4.3492558    149.52032    -3159.076    4829.2059    -1221.569    -1060.307   -680.31198   -570.10527    82.270638 
   17200    87.303941   -110.33187  0.078994441   -110.25287   -500.85228    4.3487199    4.3487199    4.3487199   -500.85228    -1778.609    422.58205   -146.52991    617.44195    1019.4038    675.93525     82.24023 
   17300    93.083959   -110.33687  0.084224322   -110.25264    416.99629    4.3497199    4.3497199    4.3497199    416.99629   -5023.5069    6258.7616    15.734195    -200.6575    319.82262   -47.363261    82.296975 
   17400    117.27691   -110.35838   0.10611461   -110.25227   -206.69821    4.3491823    4.3491823    4.3491823   -206.69821   -1251.9893   -120.37819    752.27284   -590.33416    418.68048   -3.7768665    82.266463 
   17500    68.864837   -110.31491  0.062310352    -110.2526    1007.6044    4.3486122    4.3486122    4.3486122    1007.6044   -3285.8984     6564.666    -255.9545    256.24833    148.79475     836.1946    82.234116 
   17600    125.90276   -110.36618   0.11391947   -110.25226   -1807.5424    4.3499734    4.3499734    4.3499734   -1807.5424   -5019.0113    368.99851    -772.6143   -336.83115    1141.6451   -986.39136    82.311366 
   17700    91.807275   -110.33558  0.083069152   -110.25251    1784.0125    4.3488144    4.3488144    4.3488144    1784.0125   -1511.1392    4643.8305    2219.3462    1146.0472   -471.30936    672.47843    82.245592 
   17800    113.70268   -110.35556   0.10288058   -110.25268   -1468.7348    4.3492373    4.3492373    4.3492373   -1468.7348   -5225.2415    2127.1809   -1308.1437   -1532.3647    870.01856   -432.54771    82.269585 
   17900    92.143112   -110.33628  0.083373024   -110.25291    468.72612    4.3493827    4.3493827    4.3493827    468.72612   -3709.6233    2676.1378    2439.6639    1016.1135    1103.1316    1098.0564    82.277838 
   18000    114.93844    -110.3565   0.10399872    -110.2525   -283.33478    4.3491766    4.3491766    4.3491766   -283.33478   -3365.7938    4141.9457   -1626.1563   -319.69538   -1383.2817   -227.67421    82.266142 
   18100    92.707681   -110.33685  0.083883858   -110.25297   -632.03045    4.3492527    4.3492527    4.3492527   -632.03045   -5500.2972    1868.9909     1735.215   -59.478574    1431.9237    191.02941    82.270463 
   18200    80.211196   -110.32564  0.072576776   -110.25307    1059.9647     4.348943     4.348943     4.348943    1059.9647   -3610.5776    6693.7953    96.676394    496.71563    259.41864    1035.3837    82.252884 
   18300    127.17878   -110.36763   0.11507403   -110.25255   -1092.5935    4.3495941    4.3495941    4.3495941   -1092.5935   -3454.0002    1046.7213   -870.50153   -445.42483   -699.75928    57.122503    82.289834 
   18400    61.892589   -110.30887  0.056001715   -110.25287     1271.136    4.3491259    4.3491259    4.3491259     1271.136   -4883.0574    6686.1007    2010.3649      1385.75    993.10169    800.86283    82.263263 
   18500    124.41437    -110.3649   0.11257274   -110.25232   -2018.6996    4.3491261    4.3491261    4.3491261   -2018.6996    -2671.839    868.65114   -4252.9109   -724.06391    801.06255   -465.07284    82.263278 
   18600    93.153193   -110.33665  0.084286967   -110.25236    1435.0404    4.3493521    4.3493521    4.3493521    1435.0404    -3952.535    6714.0037    1543.6526    1051.8669    49.898016    1450.5367    82.276098 
   18700    109.96859   -110.35212  0.099501892   -110.25262    -1192.251    4.3493817    4.3493817    4.3493817    -1192.251   -3901.9057    650.20174   -325.04901    153.55379   -123.12133   -502.94183    82.277783 
   18800    96.295412   -110.33997  0.087130112   -110.25284     244.2024    4.3488451    4.3488451    4.3488451     244.2024   -2228.9151    5779.3573    -2817.835    256.32923    1171.1556    808.92438    82.247333 
   18900     107.2856   -110.34955  0.097074261   -110.25247    454.30931    4.3494443    4.3494443    4.3494443    454.30931   -3745.9696    2734.7485    2374.1491    186.58702   -300.05934    1153.2491    82.281332 
   19000    106.57376   -110.34916  0.096430179   -110.25273   -1468.5342    4.3493639    4.3493639    4.3493639   -1468.5342   -3463.1877    2460.6845   -3403.0994   -1637.9582    433.01233    682.46629    82.276772 
   19100    76.289946   -110.32211  0.069028746   -110.25308    822.94062    4.3488903    4.3488903    4.3488903    822.94062   -2652.8575    4535.2858    586.39352    874.55109    737.32139     1334.596    82.249897 
   19200    124.76614   -110.36571   0.11289102   -110.25282   -1035.8644    4.3493353    4.3493353    4.3493353   -1035.8644    -3761.819    917.14233    -262.9165   -1489.4497   -579.75691   -1021.4444    82.275146 
   19300    79.111476    -110.3247  0.071581726   -110.25312    -158.7569    4.3495239    4.3495239    4.3495239    -158.7569    -2504.258    3356.4647   -1328.4774   -294.63374    1118.2414    1819.1529    82.285851 
   19400    100.00228   -110.34328  0.090484169    -110.2528   -1378.5576    4.3493071    4.3493071    4.3493071   -1378.5576   -3022.1247    31.514508   -1145.0626   -92.614694    786.68803   -1367.2728    82.273545 
   19500    105.93367    -110.3482  0.095851011   -110.25235    256.53919    4.3489101    4.3489101    4.3489101    256.53919    -3164.482    6107.8202   -2173.7206   -247.92897   -271.40823    481.63597    82.251021 
   19600    98.110954   -110.34123  0.088772853   -110.25246   -706.71931    4.3498354    4.3498354    4.3498354   -706.71931   -2351.2415   -1560.6151    1791.6987   -563.89891    402.78427   -202.47056    82.303531 
   19700    95.271425   -110.33878  0.086203588   -110.25258   -217.86251    4.3490838    4.3490838    4.3490838   -217.86251   -3565.1852    6932.8588   -4021.2611   -435.67085    1830.6969   -266.20089    82.260877 
   19800    110.31507   -110.35208  0.099815391   -110.25226    840.05095      4.34873      4.34873      4.34873    840.05095   -2227.2171    1242.9031    3504.4668     827.6116   -28.016649    290.71882      82.2408 
   19900    105.10171   -110.34741  0.095098232   -110.25231   -610.89892    4.3498442    4.3498442    4.3498442   -610.89892   -3094.1975    3925.8594   -2664.3586   -1161.6243   -400.24778   -1139.4068    82.304028 
   20000    90.033644     -110.334  0.081464334   -110.25253    267.64116    4.3489722    4.3489722    4.3489722    267.64116   -4240.5231    3958.7896     1084.657    171.20779    1763.2287    1320.4712    82.254544 
   20100    114.14645   -110.35577    0.1032821   -110.25249    790.41765    4.3488512    4.3488512    4.3488512    790.41765   -2882.3601    3261.8239    1991.7892   -596.92679   -325.32399   -1401.0327    82.247677 
   20200    96.009043   -110.33972  0.086870999   -110.25285    27.750702    4.3495823    4.3495823    4.3495823    27.750702    -3394.416    5171.7849   -1694.1168   -59.625934    290.81859    402.12768    82.289163 
   20300    88.470574   -110.33317  0.080050035   -110.25312   -235.69767    4.3491349    4.3491349    4.3491349   -235.69767   -4592.5717    1631.0474    2254.4313   -361.95138    1202.7559   -1242.2481    82.263773 
   20400    99.464902   -110.34261  0.089997934   -110.25261    1159.5914    4.3489193    4.3489193    4.3489193    1159.5914   -2083.4891    8220.2722    -2658.009   -290.30107   -197.31545   -190.72847    82.251543 
   20500    112.15062    -110.3541   0.10147624   -110.25263   -943.93665    4.3492784    4.3492784    4.3492784   -943.93665   -4018.8703   -561.16379    1748.2242    279.71119    835.89879   -136.50558    82.271918 
   20600    68.923561   -110.31541  0.062363487   -110.25305    933.40204    4.3493131    4.3493131    4.3493131    933.40204   -4285.0532    6926.8475    158.41173     -860.511    851.58001   -1131.4095    82.273889 
   20700      137.214    -110.3766   0.12415411   -110.25244   -1283.2025    4.3492089    4.3492089    4.3492089   -1283.2025   -1729.4154   -33.023595   -2087.1687    -86.78671   -282.63536     1020.983    82.267975 
   20800    82.070221   -110.32691   0.07425886   -110.25265    1093.8467    4.3487639    4.3487639    4.3487639    1093.8467   -4030.4776    4457.2431    2854.7747   -1494.7465     709.0416   -1294.8972    82.242727 
   20900    110.61693   -110.35249   0.10008852    -110.2524   -2238.3321    4.3501289    4.3501289    4.3501289   -2238.3321   -3909.8218    671.29749    -3476.472    146.92685     1641.093     612.8378    82.320192 
   21000    98.728702   -110.34171  0.089331804   -110.25238    1048.1358    4.3488001    4.3488001    4.3488001    1048.1358   -2309.6396    4212.4768    1241.5703    -74.18745   -363.90747   -1824.2407    82.244781 
   21100    106.47289    -110.3489  0.096338906   -110.25256   -359.76459    4.3488859    4.3488859    4.3488859   -359.76459   -4249.4073    2905.7203    264.39331   -1343.5494   -241.53702     279.3338    82.249644 
   21200    90.657515   -110.33508  0.082028825   -110.25305   -1372.7768    4.3501587    4.3501587    4.3501587   -1372.7768   -3358.8427    1993.6508   -2753.1384    913.68651    1582.2653   -590.98389    82.321885 
   21300    85.293151   -110.33003  0.077175035   -110.25285    1308.7121     4.348599     4.348599     4.348599    1308.7121   -2163.9004    5711.8345    378.20215   -383.88777    2.1270104   -1980.4652    82.233371 
   21400     136.0406   -110.37561   0.12309239   -110.25252   -2333.9724    4.3493013    4.3493013    4.3493013   -2333.9724   -4009.4138   -8.6065301    -2983.897    431.95225    -298.1635    553.15942    82.273218 
   21500    45.903867   -110.29471  0.041534783   -110.25318    1754.7716    4.3495662    4.3495662    4.3495662    1754.7716   -2364.2824    6594.4045    1034.1927   -130.21328    950.91276   -1850.1884    82.288251 
   21600    148.10981   -110.38662   0.13401287    -110.2526   -2580.1583    4.3491547    4.3491547    4.3491547   -2580.1583   -3365.5411   -581.12375   -3793.8102    924.93317    645.95589    589.50017    82.264897 
   21700    73.708592   -110.31965  0.066693083   -110.25296    2229.1763    4.3489204    4.3489204    4.3489204    2229.1763   -2033.6377    7300.3068    1420.8598    133.61563    331.57148   -1099.0081    82.251606 
   21800    113.10278   -110.35508   0.10233777   -110.25274   -2400.7304    4.3497347    4.3497347    4.3497347   -2400.7304   -3335.6509    -381.8551   -3484.6853   -721.98587     714.8091    577.27069    82.297814 
   21900    93.134919   -110.33679  0.084270432   -110.25252     883.6999    4.3491279    4.3491279    4.3491279     883.6999   -3139.6775    6134.0964   -343.31921    749.31542     292.3244    362.69543    82.263379 
   22000    114.94025   -110.35617   0.10400035   -110.25217   -144.38729    4.3492576    4.3492576    4.3492576   -144.38729   -2764.9349    1022.1244    1309.6486   -442.55556    23.583309   -1264.0677     82.27074 
   22100    93.415995   -110.33706  0.084524755   -110.25253   -962.62294    4.3491319    4.3491319    4.3491319   -962.62294   -3609.9992    3260.7229   -2538.5925    492.97848    1757.0665    799.31169    82.263602 
   22200    88.995951   -110.33301  0.080525407   -110.25249    463.92887    4.3496362    4.3496362    4.3496362    463.92887   -3169.6915    3129.1654    1432.3128   -262.66882    99.031871   -625.44215    82.292224 
   22300    130.82292   -110.37058   0.11837132    -110.2522   -1491.3769    4.3492427    4.3492427    4.3492427   -1491.3769    -3418.064     181.6895   -1237.7563    190.14822   -615.07581     918.0353    82.269895 
   22400    56.502786   -110.30396  0.051124908   -110.25283    1673.0012    4.3485508    4.3485508    4.3485508    1673.0012   -2361.3544    6682.4275    697.93063      191.071    2122.5585   -1137.8289    82.230635 
   22500    124.85262   -110.36539   0.11296927   -110.25242   -1548.1157    4.3500583    4.3500583    4.3500583   -1548.1157   -5070.8618   -1445.7619    1872.2764   -407.20696     239.1315    683.91354    82.316183 
   22600    88.693449   -110.33295  0.080251696    -110.2527     1953.053    4.3485046    4.3485046    4.3485046     1953.053   -1138.7925    7970.0443   -972.09284    474.21193   -380.38808   -98.496143    82.228015 
   22700    100.40579   -110.34378  0.090849271   -110.25293   -643.37151    4.3489907    4.3489907    4.3489907   -643.37151   -3503.6222   -506.90282    2080.4105   -276.16535    1866.3705   -174.38992    82.255594 
   22800    95.239592   -110.33885  0.086174784   -110.25268    647.16109    4.3497159    4.3497159    4.3497159    647.16109   -4138.9209    6704.0172   -623.61305    734.70715    884.38986    261.23133     82.29675 
   22900    121.92776   -110.36253    0.1103228   -110.25221    330.32027    4.3487411    4.3487411    4.3487411    330.32027   -803.27663   -207.64574    2001.8832   -480.11906    133.86164   -129.32918    82.241429 
   23000    87.292232   -110.33143  0.078983846   -110.25245    580.21725    4.3490966    4.3490966    4.3490966    580.21725   -5315.2851    6185.3394    870.59738    133.85837    708.62145    813.16197      82.2616 
   23100    105.51227   -110.34779  0.095469722   -110.25232   -499.29841    4.3495791    4.3495791    4.3495791   -499.29841   -2187.2632    1586.9187   -897.55066    924.38973     314.5317   -1249.5863    82.288986 
   23200    108.69432   -110.35055  0.098348907    -110.2522    276.78249     4.348969     4.348969     4.348969    276.78249   -2581.0929    2821.6881    589.75225   -434.60425    21.592298    498.84013    82.254362 
   23300    85.530972   -110.32993  0.077390221   -110.25254   -134.42504    4.3493778    4.3493778    4.3493778   -134.42504   -4738.4382    5840.3009   -1505.1378    916.72808    819.51137   -434.26345    82.277561 
   23400    99.958376   -110.34292  0.090444439   -110.25247    -864.3425     4.349223     4.349223     4.349223    -864.3425   -1546.9869   -1077.1582    31.117664   -553.38536   -92.572595    880.68598    82.268773 
   23500    96.402087   -110.33968  0.087226634   -110.25245    271.99391    4.3493548    4.3493548    4.3493548    271.99391   -4704.1329    7430.5056   -1910.3909    936.53827    -544.2043    228.55175    82.276255 
   23600    108.23612   -110.35083  0.097934314   -110.25289   -2166.7381    4.3495328    4.3495328    4.3495328   -2166.7381   -2412.5538   -2807.1511   -1280.5094   -994.11741    1409.8182    334.85232    82.286358 
   23700    71.975465   -110.31831  0.065124913   -110.25318    424.99792    4.3488302    4.3488302    4.3488302    424.99792    -2721.618    7181.2358    -3184.624   -349.53654    262.53107    2068.2819    82.246485 
   23800    141.99734   -110.38104   0.12848218   -110.25256   -2572.9246    4.3501105    4.3501105    4.3501105   -2572.9246   -4028.9557   -2497.8698   -1191.9484    679.03293   -1136.1192    -558.6781    82.319149 
   23900     65.98459   -110.31253  0.059704244   -110.25282    1435.2436    4.3489275    4.3489275    4.3489275    1435.2436   -1974.9982    6758.0761   -477.34725    -1667.525    1164.1396    1249.7174    82.252009 
   24000    123.59236   -110.36417   0.11182896   -110.25234   -2398.4211    4.3491317    4.3491317    4.3491317   -2398.4211   -3601.9992    47.397085   -3640.6611    261.18935    1017.2404    421.05431    82.263596 
   24100    94.071203   -110.33752  0.085117601    -110.2524    751.73036    4.3497424    4.3497424    4.3497424    751.73036   -2232.9545    4964.0906   -475.94496   -1080.9306   -439.21831    816.22804    82.298253 
   24200    99.780469   -110.34281  0.090283466   -110.25253   -418.59742    4.3490271    4.3490271    4.3490271   -418.59742   -2829.0801    2799.4287   -1226.1408    149.63807    135.84814    -1.041669    82.257659 
   24300    105.66469   -110.34817   0.09560763   -110.25256   -842.44606    4.3491297    4.3491297    4.3491297   -842.44606   -2220.8111    2809.9723   -3116.4994   -347.81279    862.28764   -266.28034    82.263478 
   24400    77.099765   -110.32222  0.069761487   -110.25246    2337.5166    4.3493217    4.3493217    4.3493217    2337.5166   -2377.7156    6149.2734    3240.9919   -445.92201   -141.29334    1362.3404    82.274376 
   24500    139.18279    -110.3784   0.12593551   -110.25247   -2622.2431    4.3492113    4.3492113    4.3492113   -2622.2431   -3122.8259   -25.040788   -4718.8627    509.83755    693.20873   -358.14733    82.268109 
   24600    37.523093   -110.28734  0.033951683   -110.25339    3623.8063    4.3486928    4.3486928    4.3486928    3623.8063   -289.11636    9999.9097    1160.6257   -890.78424     1106.131    1320.7234    82.238689 
   24700    159.76589   -110.39718   0.14455954   -110.25262   -2612.9307    4.3495473    4.3495473    4.3495473   -2612.9307   -4255.7726   -2110.8654   -1472.1542    103.12723    -369.5614    -317.4712    82.287181 
   24800    52.190747   -110.30037  0.047223285   -110.25315    3766.7526    4.3486511    4.3486511    4.3486511    3766.7526    204.42107     10748.14    347.69712   -990.31926    1681.7354    1078.4199    82.236324 
   24900    131.61513   -110.37168   0.11908814   -110.25259   -2092.2305     4.349556     4.349556     4.349556   -2092.2305   -4091.9466   -2318.8219     134.0769    520.87467    734.49034   -398.55807    82.287673 
   25000    87.882882   -110.33205  0.079518278   -110.25253    2035.7385    4.3486568    4.3486568    4.3486568    2035.7385   -898.57278    8205.6049   -1199.8166   -443.30822   -1038.2304     30.47983    82.236647 
   25100     114.0555   -110.35563   0.10319981   -110.25243    -647.0643    4.3495529    4.3495529    4.3495529    -647.0643   -1477.0389   -682.30471    218.15071   -729.50837    1336.7466    819.98153      82.2875 
   25200    95.560008   -110.33901  0.086464703   -110.25254   -304.48138    4.3493853    4.3493853    4.3493853   -304.48138   -3866.1969    4115.1097   -1162.3569    221.66593    937.90085    -254.8249    82.277984 
   25300    91.356795   -110.33503  0.082661548   -110.25237    1283.8757    4.3486409    4.3486409    4.3486409    1283.8757    1014.7167    3024.7681   -187.85779   -407.94959   -707.76203    1075.4155    82.235747 
   25400    119.65257   -110.36044   0.10826416   -110.25218   -1706.2443    4.3499227    4.3499227    4.3499227   -1706.2443   -4856.5185    953.12893   -1215.3432    240.13836    17.265509   -958.31473    82.308488 
   25500    63.594535   -110.31022  0.057541672   -110.25267    691.80663    4.3490994    4.3490994    4.3490994    691.80663    -1363.813    5810.0671   -2370.8342   -1356.3148    936.20363    1689.5877    82.261761 
   25600    126.00386   -110.36641   0.11401094    -110.2524   -1961.1227    4.3490365    4.3490365    4.3490365   -1961.1227   -1353.0637   -1470.8606   -3059.4437    859.38874   -268.53157   -517.30427    82.258193 
   25700    78.987536   -110.32424  0.071469582   -110.25277    853.44783    4.3496325    4.3496325    4.3496325    853.44783   -4170.4919    8103.0112   -1372.1758   -1290.4805   -377.77338   -365.18336    82.292017 
   25800    118.22998   -110.35958   0.10697697   -110.25261   -2556.7616    4.3494821    4.3494821    4.3494821   -2556.7616   -1683.7518   -3813.1844   -2173.3486   -320.37977    804.47553    581.51939    82.283481 
   25900    76.789074   -110.32217  0.069480368   -110.25269    1403.3793    4.3487182    4.3487182    4.3487182    1403.3793   -2409.5798    10041.598     -3421.88   -19.187722   -291.03799   -1504.9994     82.24013 
   26000     140.7383   -110.37969   0.12734297   -110.25235   -2752.1378    4.3499176    4.3499176    4.3499176   -2752.1378   -2982.7805   -3236.0604   -2037.5725    19.056797    785.45792    52.980749    82.308196 
   26100     59.06022   -110.30645  0.053438929   -110.25301    1646.3077    4.3489326    4.3489326    4.3489326    1646.3077   -1793.1002    8363.5745   -1631.5511    1254.5359    375.96489   -1918.7897    82.252294 
   26200    135.34788     -110.375   0.12246561   -110.25254   -2078.2144    4.3493496    4.3493496    4.3493496   -2078.2144   -2723.6435    342.24448   -3853.2441   -602.01142   -1113.6492    739.53694     82.27596 
   26300    77.566901   -110.32284  0.070184162   -110.25265    1852.2471     4.349152     4.349152     4.349152    1852.2471   -1261.7415    4541.7627    2276.7201    1517.3678     772.1709   -806.43139    82.264747 
   26400    111.30052   -110.35312   0.10070705   -110.25241   -1946.9022    4.3493942    4.3493942    4.3493942   -1946.9022   -4088.2551    3507.3698   -5259.8212   -380.24306    1108.9384   -837.60404     82.27849 
   26500    90.694756   -110.33464  0.082062521   -110.25257    121.39361    4.3492745    4.3492745    4.3492745    121.39361   -480.49491    878.04248   -33.366754    630.32569   -200.52213    279.51713    82.271696 
   26600    93.987314   -110.33747  0.085041696   -110.25243    755.77787    4.3490089    4.3490089    4.3490089    755.77787   -3058.6668    6584.4598   -1258.4595    96.038098   -206.80546   -659.71211    82.256624 
   26700    118.58473   -110.35991   0.10729795   -110.25261   -1867.6328    4.3494947    4.3494947    4.3494947   -1867.6328   -2931.1424   -832.05104    -1839.705    28.899075     1759.048    134.14004    82.284192 
   26800    55.127362   -110.30279  0.049880396   -110.25291    2833.2822    4.3490527    4.3490527    4.3490527    2833.2822   -1102.5464    8065.1355    1537.2575    1251.0492   -118.66054   -889.09368    82.259113 
   26900    158.26022   -110.39544   0.14319717   -110.25224   -2845.4372    4.3490786    4.3490786    4.3490786   -2845.4372   -3867.3957   -1792.9907   -2875.9252   -953.60691   -448.22852    714.97101     82.26058 
   27000    48.517333   -110.29694  0.043899502   -110.25304    3311.7174    4.3489439    4.3489439    4.3489439    3311.7174   -290.68372    9590.5967    635.23917      1665.56    1424.6203   -749.75915    82.252936 
   27100    140.21344   -110.37944   0.12686807   -110.25257   -2179.9104    4.3498728    4.3498728    4.3498728   -2179.9104   -3886.2726   -3100.9069    447.44824   -89.296217   -191.82169   -236.50044    82.305656 
   27200    83.419774   -110.32834  0.075479965   -110.25286    2777.1235    4.3481736    4.3481736    4.3481736    2777.1235   -13.731003    9168.5377   -823.43612     1020.899    618.64541   -210.87916    82.209236 
   27300     106.2942   -110.34886  0.096177226   -110.25268   -238.96158    4.3496337    4.3496337    4.3496337   -238.96158   -2108.5713   -276.91452    1668.6011  -0.98615473    531.54471    192.22492    82.292082 
   27400    104.00635   -110.34663  0.094107127   -110.25252   -693.37782    4.3495819    4.3495819    4.3495819   -693.37782   -3560.7306    4345.4899   -2864.8927    -181.8564   -751.43006    807.98996    82.289142 
   27500    77.478255   -110.32257  0.070103953   -110.25246    2219.7995    4.3481961    4.3481961    4.3481961    2219.7995    1685.2984    5171.5126   -197.41247    1225.4264    423.74841   -962.04512    82.210515 
   27600    131.70592   -110.37139   0.11917029   -110.25222   -2407.0375     4.350106     4.350106     4.350106   -2407.0375   -5563.3021     214.1111   -1871.9214   -1083.7534    582.16708    529.34936     82.31889 
   27700    51.918862   -110.29972  0.046977277   -110.25275    2088.5083    4.3490123    4.3490123    4.3490123    2088.5083   -70.212079    7190.0151   -854.27803    1768.2776   -590.62176   -571.71153     82.25682 
   27800    142.16403   -110.38082     0.128633   -110.25219    -2877.226    4.3490967    4.3490967    4.3490967    -2877.226   -2662.3403   -2559.5002   -3409.8375    -456.7054    -475.7547     519.1532     82.26161 
   27900    70.319874   -110.31623    0.0636269   -110.25261    1096.7133    4.3495442    4.3495442    4.3495442    1096.7133   -2864.8073     8339.468   -2184.5207    1603.0068     1524.551   -936.61979    82.287005 
   28000    121.68426   -110.36267   0.11010247   -110.25257   -2871.9694    4.3493616    4.3493616    4.3493616   -2871.9694   -716.00674   -4754.5623   -3145.3392   -262.29195   -331.97637    818.55362     82.27664 
   28100    84.378786   -110.32922  0.076347699   -110.25287    798.86157    4.3492028    4.3492028    4.3492028    798.86157   -2955.7342     7631.922   -2279.6032    317.46071   -1187.7774    1313.1696    82.267629 
   28200    121.59781   -110.36266   0.11002426   -110.25264    -1592.458    4.3495757    4.3495757    4.3495757    -1592.458   -723.71881   -3096.8832   -956.77202    1163.8457    1137.5014   -1136.7438    82.288791 
   28300    79.615245   -110.32488  0.072037547   -110.25284   -114.70055    4.3488825    4.3488825    4.3488825   -114.70055   -2311.2611    5569.7954    -3602.636   -1354.9619    167.20784    1763.4777    82.249455 
   28400     113.0175   -110.35467   0.10226061   -110.25241   -1489.7438    4.3500398    4.3500398    4.3500398   -1489.7438   -1547.9462   -1122.0311   -1799.2542    1285.5952    159.70984    205.04817    82.315133 
   28500    95.427459   -110.33868   0.08634477   -110.25234    537.40887    4.3487053    4.3487053    4.3487053    537.40887    -1168.836         3904   -1122.9374   -1457.3448    171.13997    1232.9026    82.239399 
   28600    95.266627    -110.3386  0.086199246    -110.2524   -608.07643    4.3491696    4.3491696    4.3491696   -608.07643   -2854.4981    3447.8233   -2417.5545    733.76102   -23.130079   -241.08873    82.265742 
   28700    101.71798   -110.34431   0.09203657   -110.25227   -458.27062    4.3501458    4.3501458    4.3501458   -458.27062   -963.95473   -831.42593    420.56881   -568.88737   -26.889498    480.54867    82.321155 
   28800     90.63953   -110.33421  0.082012552    -110.2522     1434.146    4.3480414    4.3480414    4.3480414     1434.146    -2892.016    9284.0882   -2089.6342   -346.48621    540.57966    389.44546    82.201741 
   28900    120.80123   -110.36156   0.10930349   -110.25225   -1732.0496    4.3496431    4.3496431    4.3496431   -1732.0496     -222.481    -2746.619   -2227.0487    821.57748    65.592828   -512.70569    82.292617 
   29000    56.135333   -110.30351  0.050792429   -110.25271    3303.7709    4.3494262    4.3494262    4.3494262    3303.7709   -2127.8594    9777.4211     2261.751   -1268.0151   -596.53724    905.97891    82.280304 
   29100    163.07968   -110.39994   0.14755792   -110.25239   -2040.4334    4.3483522    4.3483522    4.3483522   -2040.4334   -1594.0041   -1503.4571    -3023.839    605.58971    1795.1027   -242.80514    82.219367 
   29200     38.62946   -110.28824  0.034952747   -110.25329    4310.7549    4.3492297    4.3492297    4.3492297    4310.7549     995.5602    9117.6437    2819.0608   -1550.4106   -161.13478    1312.1902    82.269153 
   29300    153.63051   -110.39163   0.13900812   -110.25263   -3401.9747     4.349728     4.349728     4.349728   -3401.9747   -4574.3938   -2065.5429   -3565.9874    950.37388   -1130.0616   -576.12828    82.297438 
   29400    65.807129   -110.31252  0.059543673   -110.25297    3519.8139    4.3480543    4.3480543    4.3480543    3519.8139    2244.2302     7780.654    534.55751   -1170.1203    1065.5264    413.00545    82.202469 
   29500    120.96203   -110.36205   0.10944899   -110.25261   -1701.4883    4.3501328    4.3501328    4.3501328   -1701.4883   -4276.8554      427.701   -1255.3105   -333.72745     96.78606    701.90933    82.320412 
   29600    86.681769    -110.3311  0.078431486   -110.25267    197.01039    4.3487823    4.3487823    4.3487823    197.01039   -526.11446    2996.1421   -1878.9965    158.69248   -584.85662    201.95935    82.243766 
   29700    94.401986   -110.33778    0.0854169   -110.25236    435.51109    4.3492397    4.3492397    4.3492397    435.51109    -1689.565    4453.8689   -1457.7707   -927.37057     114.7619    867.68258    82.269722 
   29800    121.37094   -110.36203   0.10981897   -110.25222   -2660.4814    4.3498961    4.3498961    4.3498961   -2660.4814   -3103.8695   -885.05071   -3992.5239    560.96619    261.92007   -471.66813    82.306974 
   29900    54.331923   -110.30183  0.049160665   -110.25267    1659.3432    4.3482399    4.3482399    4.3482399    1659.3432    1463.5833    6943.6884   -3429.2421   -1497.1695   -477.62073    2333.8542    82.212996 
   30000    149.99042   -110.38786   0.13571449   -110.25214   -3144.1808    4.3504823    4.3504823    4.3504823   -3144.1808   -3891.9241   -3415.1171    -2125.501    1108.8249    10.027405    -741.8809     82.34026 
   30100    59.911785   -110.30715  0.054209442   -110.25294    2190.3641     4.348622     4.348622     4.348622    2190.3641    1400.7104    8473.9707   -3303.5889    -1350.785    10.583909    1151.1947    82.234676 
   30200    125.76979   -110.36657   0.11379915   -110.25277   -2764.0026     4.349019     4.349019     4.349019   -2764.0026   -940.34174   -3822.5814   -3529.0847   -77.185405   -481.88998    1395.7199    82.257197 
   30300    90.061536   -110.33441  0.081489571   -110.25292    664.22999    4.3502608    4.3502608    4.3502608    664.22999   -1133.2135    7173.4674    -4047.564   -856.71359    1405.2051   -254.62122    82.327679 
   30400    112.53595   -110.35462    0.1018249   -110.25279   -825.22498    4.3483754    4.3483754    4.3483754   -825.22498    519.65164    -1284.284   -1711.0426   -565.67335   -194.89846     901.5642    82.220687 
   30500    89.221439   -110.33364  0.080729433   -110.25291    -326.1882    4.3493026    4.3493026    4.3493026    -326.1882   -1382.6534    5084.9268    -4680.838    452.52434   -1037.2223   -1300.5434     82.27329 
   30600    102.63826   -110.34532   0.09286925   -110.25245   -91.913255    4.3500831    4.3500831    4.3500831   -91.913255   -675.45821    1228.8183   -829.09983   -1444.2213    658.47286    1259.7978    82.317592 
   30700    110.44894   -110.35228  0.099936523   -110.25235   -949.35034    4.3483306    4.3483306    4.3483306   -949.35034   -2104.0455    2550.7926   -3294.7982    1228.3832    363.91552   -1051.6144    82.218142 
   30800    71.086556   -110.31688   0.06432061   -110.25256    440.64364    4.3496544    4.3496544    4.3496544    440.64364    1244.2729    4519.5791   -4441.9211   -877.42911   -594.21579   -80.464939     82.29326 
   30900    122.98784   -110.36338   0.11128198   -110.25209   -1049.9897    4.3495207    4.3495207    4.3495207   -1049.9897    -2503.537   -1182.1173    535.68526    657.75024   -223.57256    393.34392    82.285667 
   31000    80.574813   -110.32526  0.072905784   -110.25236    1922.4721    4.3483548    4.3483548    4.3483548    1922.4721    159.26178    8165.3847   -2557.2302   -70.621478    1336.3756   -678.99926    82.219519 
   31100    112.29638   -110.35408   0.10160812   -110.25247   -1452.7049    4.3500632    4.3500632    4.3500632   -1452.7049   -63.533132   -3805.9872   -488.59429     159.0834   -545.22754    360.03427    82.316463 
   31200    83.489194   -110.32818  0.075542777   -110.25264    2035.7772    4.3483497    4.3483497    4.3483497    2035.7772   -2111.7463    8558.6835   -339.60568    807.75298   -67.566444   -936.67251    82.219229 
   31300    135.99267   -110.37546   0.12304903   -110.25241   -1474.2195    4.3494827    4.3494827    4.3494827   -1474.2195    54.015949   -2201.5298   -2275.1446   -1271.8453     513.8616    1042.5946    82.283514 
   31400    65.741754   -110.31243   0.05948452   -110.25294    1766.9708     4.349394     4.349394     4.349394    1766.9708   -2091.5725    5551.2762    1841.2087    1358.7026   -572.72001   -542.15732    82.278477 
   31500    131.35571   -110.37127   0.11885341   -110.25241   -1072.4937    4.3484415    4.3484415    4.3484415   -1072.4937   -1741.6608    1157.3301   -2633.1504    -975.8886    752.88607   -78.729923    82.224437 
   31600    90.287564   -110.33433  0.081694086   -110.25263    959.21703    4.3498373    4.3498373    4.3498373    959.21703   -1749.5494    4015.3776    611.82292    1275.8438   -126.32801   -589.51254    82.303637 
   31700    92.365405   -110.33627  0.083574159    -110.2527    -791.8365    4.3491663    4.3491663    4.3491663    -791.8365   -2402.6381    2682.8436    -2655.715   -518.34389   -1058.9632    90.936097    82.265558 
   31800    103.86683   -110.34653  0.093980887   -110.25255   -89.870004    4.3484388    4.3484388    4.3484388   -89.870004    319.85791    3021.2296   -3610.6975    469.15829    70.844896     319.6406    82.224284 
   31900    87.657437   -110.33168  0.079314291   -110.25236    1138.3146    4.3500397    4.3500397    4.3500397    1138.3146   -2419.7228    5611.6034    223.06329    602.37449    232.78369    -1384.493    82.315126 
   32000    111.52232   -110.35328   0.10090774   -110.25237   -1715.3642    4.3489386    4.3489386    4.3489386   -1715.3642   -274.25613   -644.47768   -4227.3587   -896.03121   -1143.4731    944.92134    82.252638 
   32100    67.562323   -110.31375   0.06113181   -110.25261    2316.8122    4.3486153    4.3486153    4.3486153    2316.8122    210.89866    8737.1649   -1997.6269    1063.2195   -119.28255   -1093.0472    82.234294 
   32200     150.3316   -110.38816   0.13602319   -110.25214   -2743.9153    4.3502978    4.3502978    4.3502978   -2743.9153   -1835.6277   -2281.9628   -4114.1555   -840.37415    1226.3359   -455.22956    82.329779 
   32300    56.149356   -110.30377  0.050805117   -110.25297    1901.2995    4.3483115    4.3483115    4.3483115    1901.2995    392.02515    8013.9244   -2702.0512    1362.2144    -752.7057   -1678.6091    82.217059 
   32400    140.29396   -110.37954   0.12694092    -110.2526   -2711.1118    4.3497682    4.3497682    4.3497682   -2711.1118   -1583.5757    -1843.258   -4706.5018    -876.9245   -401.24539    384.87878    82.299716 
   32500    85.958668   -110.33069  0.077777209   -110.25291    1343.0563    4.3492793    4.3492793    4.3492793    1343.0563   -257.59625    6148.0566   -1861.2914     893.6924    328.98991   -297.73639    82.271967 
   32600    111.81566   -110.35409   0.10117316   -110.25291   -2584.1547    4.3491833    4.3491833    4.3491833   -2584.1547   -2013.0942   -599.23672   -5140.1331    727.23758   -436.47134   -1973.1922    82.266521 
   32700    80.415345   -110.32577  0.072761494   -110.25301    25.123519    4.3496307    4.3496307    4.3496307    25.123519    1686.8352    3401.2453     -5012.71    49.922038    107.53693    1379.4681    82.291911 
   32800    114.81415   -110.35633   0.10388625   -110.25244   -701.39905    4.3489292    4.3489292    4.3489292   -701.39905   -1928.1474    2608.0802     -2784.13    1429.3559    -119.0496   -1109.9475    82.252102 
   32900    84.537754   -110.32919  0.076491537    -110.2527   -542.36097    4.3493598    4.3493598    4.3493598   -542.36097    986.28612     970.4278   -3583.7968   -580.33551    -125.5627    634.04689    82.276538 
   33000    85.372299   -110.32981   0.07724665   -110.25256    207.73738    4.3496044    4.3496044    4.3496044    207.73738   -160.23003    4197.9244   -3414.4822    1555.1321   -138.72311    95.977885    82.290421 
   33100    125.99474   -110.36611   0.11400269    -110.2521   -478.05046    4.3485452    4.3485452    4.3485452   -478.05046   -1106.4449     525.1569   -852.86337   -713.35525    736.26795     358.1741    82.230319 
   33200    75.214488    -110.3206   0.06805565   -110.25254    934.72457    4.3495323    4.3495323    4.3495323    934.72457    629.73569      6781.06    -4606.622    475.06409   -665.96831    643.97431    82.286328 
   33300     121.5402    -110.3623   0.10997213   -110.25233   -1282.1299    4.3496039    4.3496039    4.3496039   -1282.1299   -2869.7533   -2023.3258    1046.6896    496.80589   -398.00868   -770.15801     82.29039 
   33400      96.9103   -110.34013  0.087686476   -110.25245    2505.3945    4.3480531    4.3480531    4.3480531    2505.3945   -806.45986    10165.993   -1843.3494   -487.74586     1418.793     806.7253    82.202406 
   33500    118.97506   -110.36031   0.10765113   -110.25266   -1418.3071    4.3499792    4.3499792    4.3499792   -1418.3071   -1731.6443   -1660.0858   -863.19134    812.21516   -679.47023    -349.6958    82.311694 
   33600    76.299267    -110.3221   0.06903718   -110.25306    1037.8064    4.3490454    4.3490454    4.3490454    1037.8064   -2868.7872    6755.7987   -773.59216   -929.10652   -686.35333    1384.8896    82.258696 
   33700    124.01536    -110.3648   0.11221171   -110.25259   -89.577427     4.348506     4.348506     4.348506   -89.577427   -276.61039    3308.3412    -3300.463    1407.3012    147.86056   -693.45261    82.228093 
   33800    84.736102   -110.32969  0.076671005   -110.25302    293.68812    4.3497048    4.3497048    4.3497048    293.68812   -2010.8046    2767.1425    124.72651   -896.92549   -312.94021    560.77031    82.296119 
   33900    79.284805   -110.32477  0.071738557   -110.25303    335.36785     4.349015     4.349015     4.349015    335.36785   -1705.7715    4774.0077   -2062.1326     763.4637   -937.80252    614.71074    82.256974 
   34000    123.95336   -110.36464    0.1121556   -110.25249   -483.44044    4.3489457    4.3489457    4.3489457   -483.44044    -573.1274     1532.358   -2409.5519   -144.94613    112.98015   -275.13647     82.25304 
   34100    72.443156   -110.31818   0.06554809   -110.25263    1000.9385    4.3494486    4.3494486    4.3494486    1000.9385   -930.31637    5214.6368    -1281.505   -258.89539   -106.76371    642.20093    82.281575 
   34200    119.95622   -110.36095   0.10853891   -110.25241   -2574.2094    4.3493164    4.3493164    4.3493164   -2574.2094   -2252.5145     -796.057   -4674.0567    214.22749   -758.63371    29.425677    82.274072 
   34300     90.21296   -110.33403  0.081626582    -110.2524    1953.7946     4.349068     4.349068     4.349068    1953.7946   -144.54684    6912.0254   -906.09469   -898.82038    595.94093    1791.6978    82.259977 
   34400    131.21469   -110.37104   0.11872581   -110.25231   -2170.7599    4.3495554    4.3495554    4.3495554   -2170.7599    -1857.971   -1416.8117   -3237.4969    1293.0455   -1056.1618   -1286.1226    82.287636 
   34500    70.119418    -110.3163  0.063445523   -110.25286    517.08543    4.3489558    4.3489558    4.3489558    517.08543    -717.8517    6689.9642   -4420.8562   -805.92639   -512.30693    1655.0276    82.253615 
   34600    127.97484   -110.36809   0.11579432   -110.25229   -1116.3599    4.3497664    4.3497664    4.3497664   -1116.3599    620.56966   -351.10963   -3618.5397    550.80465    896.12682    981.75009    82.299614 
   34700    90.184226    -110.3343  0.081600583    -110.2527      300.839    4.3487058    4.3487058    4.3487058      300.839   -720.14004      6455.05    -4832.393   -436.91468   -733.45334    98.720304    82.239428 
   34800    84.099261   -110.32911  0.076094779   -110.25302   -697.11273    4.3492504    4.3492504    4.3492504   -697.11273    1646.3956    823.31674   -4561.0505    265.93675   -408.09416     1609.908    82.270327 
   34900    106.78751   -110.34934  0.096623586   -110.25271    66.782195    4.3497979    4.3497979    4.3497979    66.782195   -317.33205    4009.7559   -3492.0773   -471.14112    71.680593   -842.50236    82.301404 
   35000    95.983615   -110.33957  0.086847992   -110.25272    191.94945    4.3483804    4.3483804    4.3483804    191.94945    229.01312    4421.1678   -4074.3326    -1161.533    351.42788    1688.1204    82.220971 
   35100    90.313991   -110.33446  0.081717997   -110.25274   -1229.1893    4.3496615    4.3496615    4.3496615   -1229.1893     1948.021    192.26666   -5827.8556    403.28561   -890.63697   -1507.5791     82.29366 
   35200    104.55381   -110.34687  0.094602483   -110.25227    441.23652    4.3496341    4.3496341    4.3496341    441.23652   -2838.4583    6311.8464   -2149.6785   -1481.5698    41.505152     406.4387    82.292105 
   35300    125.96356   -110.36614   0.11397447   -110.25217   -837.33812    4.3485033    4.3485033    4.3485033   -837.33812    427.28632   -270.47992   -2668.8208       315.32    679.07331    396.54936    82.227943 
   35400    69.042521   -110.31516  0.062471124   -110.25269     787.3574     4.349609     4.349609     4.349609     787.3574   -141.41974    6006.2153   -3502.7234   -1012.2831   -815.97931   -1397.0808    82.290682 
   35500    140.47151   -110.37917   0.12710158   -110.25207   -1993.1393      4.34963      4.34963      4.34963   -1993.1393   -3849.9901   -710.38277   -1419.0449    502.68879    696.34563    470.06416    82.291873 
   35600    76.334915   -110.32159  0.069069435   -110.25252    1927.2642    4.3484361    4.3484361    4.3484361    1927.2642    1727.8395    6752.7539   -2698.8008    156.81342   -645.53293   -1726.2098    82.224127 
   35700    114.62139   -110.35637   0.10371185   -110.25266    -2715.681     4.350018     4.350018     4.350018    -2715.681    -3295.957   -1471.5186   -3379.5676   -675.34404   -530.21315    1095.1306    82.313899 
   35800    70.224794   -110.31664   0.06354087    -110.2531    2393.2442     4.348565     4.348565     4.348565    2393.2442   -1067.8123    6867.1206    1380.4245    545.30438    270.32196   -1267.7009     82.23144 
   35900    129.11821   -110.36965   0.11682887   -110.25282   -1512.0032    4.3494052    4.3494052    4.3494052   -1512.0032   -1704.0577    733.13816   -3565.0901   -1184.8571   -393.12685   -28.973189    82.279116 
   36000     63.29127   -110.31056  0.057267271   -110.25329    638.36852    4.3493069    4.3493069    4.3493069    638.36852    -2040.984    3770.2368    185.85269    897.89084   -560.61815   -100.19786    82.273533 
   36100    108.88589   -110.35116   0.09852224   -110.25264   -127.11415    4.3486636    4.3486636    4.3486636   -127.11415   -2438.7034    4780.5248   -2723.1639    -1144.905   -366.41285   -419.12645    82.237035 
   36200    122.98703   -110.36371   0.11128125   -110.25243   -497.01159     4.349874     4.349874     4.349874   -497.01159    -2527.612    659.11235     377.4649    931.25428    606.05236    -426.8762    82.305724 
   36300    70.819464    -110.3169   0.06407894   -110.25282    1279.3479    4.3487424    4.3487424    4.3487424    1279.3479    -2312.855    6790.8323   -639.93367   -66.249294   -1711.2579   -895.69892    82.241504 
   36400    134.03985   -110.37356   0.12128208   -110.25228   -1216.3912    4.3490196    4.3490196    4.3490196   -1216.3912   -1850.1098    38.893732   -1837.9576   -329.47594   -126.79297    1304.9282    82.257233 
   36500    94.282842   -110.33759  0.085309097   -110.25229    1435.7614    4.3497984    4.3497984    4.3497984    1435.7614   -1278.7186    6549.0774   -963.07458    979.46233    711.50636   -1138.7275    82.301433 
   36600    100.78033   -110.34374  0.091188164   -110.25255   -1126.0668     4.348707     4.348707     4.348707   -1126.0668   -1359.8565    549.39001   -2567.7338   -748.37808    -1389.585   -192.02552    82.239498 
   36700     89.67052   -110.33385  0.081135771   -110.25272    1053.3023    4.3489935    4.3489935    4.3489935    1053.3023    312.94702    6228.9865   -3382.0265    1040.3324     582.8594   -390.85306    82.255753 
   36800    110.85682   -110.35287   0.10030558   -110.25256    35.025063    4.3497697    4.3497697    4.3497697    35.025063    -826.1577    1116.3482   -185.11531   -1364.4734   -586.77354   -19.920702    82.299802 
   36900    83.217333   -110.32839  0.075296791    -110.2531   -710.83865    4.3486701    4.3486701    4.3486701   -710.83865   -923.06441      4029.87   -5239.3215    1101.1248   -501.37179   -727.95179    82.237401 
   37000    87.527595   -110.33212  0.079196808   -110.25292    118.07058    4.3494509    4.3494509    4.3494509    118.07058    1818.2716     2453.813   -3917.8729   -394.37166    -45.07149   -1102.1927    82.281707 
   37100     129.4029   -110.36955   0.11708646   -110.25247   -1529.8593    4.3495389    4.3495389    4.3495389   -1529.8593   -2930.2978    1393.7362   -3053.0164    231.92175   -598.95394    1129.7959    82.286701 
   37200    74.241941   -110.32004  0.067175668   -110.25287    137.05885    4.3489376    4.3489376    4.3489376    137.05885    592.23249    3341.7658   -3522.8218    949.98837   -223.51784   -2118.8916    82.252578 
   37300    115.08211   -110.35669   0.10412871   -110.25256   -1191.6433    4.3496841    4.3496841    4.3496841   -1191.6433    584.80938   -279.30474   -3880.4345   -122.49049   -480.84922    808.34115    82.294942 
   37400    113.36676   -110.35486   0.10257663   -110.25228    220.24674    4.3488597    4.3488597    4.3488597    220.24674   -2313.8742    4903.2984    -1928.684     1720.331    1017.2055    -686.7585    82.248159 
   37500    93.285124   -110.33697  0.084406341   -110.25257   -1203.5964    4.3496893    4.3496893    4.3496893   -1203.5964    2371.6975    -1300.583   -4681.9038   -923.07445   -1226.1363    388.63452    82.295237 
   37600    93.350595   -110.33691   0.08446558   -110.25245   -53.458048    4.3492934    4.3492934    4.3492934   -53.458048   -1819.7351    5117.3173   -3457.9564    1178.5359   -163.90328    1183.1561    82.272772 
   37700    119.53867   -110.36019    0.1081611   -110.25203    141.06245    4.3486489    4.3486489    4.3486489    141.06245    220.75391    625.58757   -423.15412    38.105249    878.86362   -1308.0605      82.2362 
   37800    76.348321   -110.32171  0.069081565   -110.25263    72.548045     4.349855     4.349855     4.349855    72.548045   -149.81929    4152.4627   -3784.9993    244.24372   -1025.0602    1439.8355    82.304643 
   37900    100.71271   -110.34371  0.091126977   -110.25258   -837.45948    4.3490499    4.3490499    4.3490499   -837.45948   -2543.7713     1851.485   -1820.0922    427.33905    236.21688   -821.26321    82.258951 
   38000    105.72404   -110.34809   0.09566133   -110.25242    909.38107    4.3485975    4.3485975    4.3485975    909.38107   -380.25298    4658.5451   -1550.1489   -730.71459   -438.67546    963.92775    82.233285 
   38100    93.219706   -110.33708  0.084347149   -110.25273    -723.5145    4.3500695    4.3500695    4.3500695    -723.5145   -3102.6451    3009.7185   -2077.6169    1239.3581    -127.2063   -770.81094    82.316819 
   38200    97.535227   -110.34105  0.088251923    -110.2528    -56.89228    4.3487521    4.3487521    4.3487521    -56.89228   -2619.8594    1855.2598    593.92273   -1353.7458   -775.59732    888.77537    82.242054 
   38300    110.83357   -110.35274   0.10028454   -110.25245     1343.879    4.3488107    4.3488107    4.3488107     1343.879   -1108.6157    6122.7601   -982.50739    1167.4072   -199.96447    279.89721    82.245382 
   38400    114.07795   -110.35594   0.10322013   -110.25272    -1669.709    4.3499523    4.3499523    4.3499523    -1669.709   -2597.7767   -1157.8477   -1253.5028   -594.43369   -63.641372   -1087.1963    82.310165 
   38500    68.357447   -110.31475  0.061851254    -110.2529    1362.1126    4.3487201    4.3487201    4.3487201    1362.1126   -1820.0462    5892.2725    14.111543    201.61521   -876.44137    1026.6326    82.240238 
   38600    147.00817     -110.385   0.13301609   -110.25199   -1305.9843    4.3493574    4.3493574    4.3493574   -1305.9843   -1052.8578   -344.83932   -2520.2559    22.715597    1181.8671   -263.98049    82.276401 
   38700    63.952014   -110.31037  0.057865126   -110.25251    1787.0988    4.3490927    4.3490927    4.3490927    1787.0988   -884.24201    4900.3835     1345.155   -802.38577   -1514.2508    659.59073    82.261381 
   38800    108.50113   -110.35066  0.098174107   -110.25248    -1946.464     4.349532     4.349532     4.349532    -1946.464   -2550.3522    418.63016     -3707.67    1268.7883    -553.3369   -963.33829    82.286311 
   38900    99.409238   -110.34242  0.089947567   -110.25248    1117.6626    4.3490018    4.3490018    4.3490018    1117.6626    1575.5101    3996.9284   -2219.4506   -1457.2287    478.06118    929.95783    82.256221 
   39000    92.570445   -110.33649  0.083759684   -110.25273    -360.4622    4.3490288    4.3490288    4.3490288    -360.4622   -2617.9754    3265.4986   -1728.9098    1210.3236   -1627.0292    138.62437    82.257753 
   39100    99.385164   -110.34276  0.089925785   -110.25283   -1423.6509     4.349795     4.349795     4.349795   -1423.6509   -227.57878    148.05362   -4191.4274   -817.34873   -308.65118   -499.95633    82.301239 
   39200    95.876806   -110.33926  0.086751349   -110.25251    2029.3353     4.348781     4.348781     4.348781    2029.3353    1109.1964     5991.279   -1012.4697    718.70069   -163.67317    1648.3792    82.243696 
   39300    128.42857   -110.36883   0.11620487   -110.25262   -1678.1913     4.349072     4.349072     4.349072   -1678.1913   -1640.3648   -500.31175   -2893.8973   -268.38784   -20.763136   -388.50156    82.260205 
   39400    63.703498   -110.31087  0.057640264   -110.25323    912.65713      4.34959      4.34959      4.34959    912.65713    2629.6911    5347.4336   -5239.1533   -206.87121    -786.3133    1877.3974    82.289603 
   39500    137.63334   -110.37696   0.12453353   -110.25242   -1063.9761    4.3491229    4.3491229    4.3491229   -1063.9761   -1377.4315   -540.81086   -1273.6861     922.8649   -18.104317   -1351.7557    82.263094 
   39600    87.506436    -110.3317  0.079177662   -110.25252    1023.8827    4.3488209    4.3488209    4.3488209    1023.8827    1225.2613    6052.9074   -4206.5206   -1425.6769    180.99825    1473.4317    82.245959 
   39700    89.668896   -110.33369  0.081134302   -110.25255   -1226.9874     4.349871     4.349871     4.349871   -1226.9874    567.82539   -1253.5547    -2995.233    529.76043   -640.50552    377.08579     82.30555 
   39800    115.40836   -110.35661   0.10442391   -110.25219   -685.82596    4.3491645    4.3491645    4.3491645   -685.82596   -2201.5717    4086.3324   -3942.2386    -1673.256    921.12077   -704.79345    82.265457 
   39900    87.575202   -110.33168  0.079239883   -110.25244    22.099922    4.3490707    4.3490707    4.3490707    22.099922    1078.5465    1999.3525   -3011.5993    385.45188    -876.1612    1494.2448     82.26013 
   40000    101.33939   -110.34424  0.091694014   -110.25254   -2691.9644    4.3498757    4.3498757    4.3498757   -2691.9644   -2781.6522   -101.58022   -5192.6608   -633.40761   -301.09796   -1581.2144    82.305817 
   40100    85.079941   -110.32931  0.076982118   -110.25233    1325.5511    4.3490495    4.3490495    4.3490495    1325.5511   -1609.0595    5148.2168    437.49606   -946.58345    498.63138    1416.6337    82.258931 
   40200    130.16869   -110.37006   0.11777936   -110.25228   -1667.1475    4.3492895    4.3492895    4.3492895   -1667.1475   -1212.0392    -966.2121   -2823.1911    957.21621    -686.7691   -1475.5088     82.27255 
   40300    60.647077   -110.30796   0.05487475   -110.25308    915.34668    4.3490782    4.3490782    4.3490782    915.34668   -1236.4029    6220.5215   -2238.0786    -1197.037   -218.25869     510.5597    82.260555 
   40400    134.84917   -110.37469   0.12201437   -110.25267   -1478.8754    4.3495851    4.3495851    4.3495851   -1478.8754   -3334.5861   -1354.7586    252.71869     1061.951     233.8365    248.56754    82.289322 
   40500     88.57351   -110.33293  0.080143173   -110.25279    1810.7564    4.3488077    4.3488077    4.3488077    1810.7564   -267.64811    7333.0196   -1633.1024   -1720.0143    602.23553   -508.93695     82.24521 
   40600    106.48872   -110.34908  0.096353233   -110.25272   -1230.6734    4.3492671    4.3492671    4.3492671   -1230.6734   -2445.7239   -1467.8533    221.55712    1140.2413   -1248.7398    246.95047    82.271277 
   40700    92.276458   -110.33593  0.083493678   -110.25243    1522.1438    4.3493163    4.3493163    4.3493163    1522.1438   -2616.0612    7198.7025   -16.209756   -1026.8149    42.995213   -1092.9556    82.274068 
   40800    120.77071    -110.3615   0.10927587   -110.25222    -469.8851    4.3490659    4.3490659    4.3490659    -469.8851    219.87711    640.53564    -2270.068   -452.22435   -117.44019    1435.3721    82.259862 
   40900    73.978251   -110.31956  0.066937076   -110.25262    313.25337    4.3490372    4.3490372    4.3490372    313.25337   -3839.4873    4969.7325   -190.48515    455.25952   -1388.2937    -1358.247    82.258231 
   41000     100.3777   -110.34305   0.09082385   -110.25223     579.9807    4.3494367    4.3494367    4.3494367     579.9807    269.83963     3643.534   -2173.4316   -1155.8791    362.61985    372.11985    82.280904 
   41100    118.51289   -110.35926   0.10723295   -110.25203    57.065034    4.3490563    4.3490563    4.3490563    57.065034     -1644.52    1432.9039    382.81126    1649.9212   -823.81963    59.876207    82.259317 
   41200    63.252197   -110.30992  0.057231918   -110.25269    1278.6407    4.3489208    4.3489208    4.3489208    1278.6407   -935.14874    6581.3859   -1810.3149   -1571.6251   -534.64098   -492.36141    82.251629 
   41300    133.75269   -110.37357   0.12102225   -110.25255   -1805.8578    4.3494766    4.3494766    4.3494766   -1805.8578     770.3696   -2249.9884   -3937.9546    1625.8626    106.54672   -332.29075    82.283169 
   41400    79.769679   -110.32505  0.072177282   -110.25287    2313.6761    4.3489593    4.3489593    4.3489593    2313.6761   -2148.2847    8084.4642    1004.8489   -1395.7421   -860.54248      -1040.8    82.253811 
   41500    127.77707   -110.36849   0.11561538   -110.25288   -2894.8569    4.3495472    4.3495472    4.3495472   -2894.8569    267.54442   -3765.9054   -5186.2096    155.13892   -617.45771    1369.4516    82.287175 
   41600    63.829703   -110.31077  0.057754457   -110.25302    2618.4597    4.3487508    4.3487508    4.3487508    2618.4597    467.08988     8050.276   -661.98687   -114.68765    376.34715    -2577.298    82.241981 
   41700    155.43841   -110.39292   0.14064394   -110.25228   -3162.2836    4.3499452    4.3499452    4.3499452   -3162.2836   -2967.1069   -2716.3612   -3803.3827   -760.29458    511.51962      338.524    82.309764 
   41800    49.439737   -110.29773  0.044734113     -110.253    1139.4415    4.3489674    4.3489674    4.3489674    1139.4415    1398.9358    5874.8795   -3855.4906     1765.753   -1167.3215   -1666.7708    82.254269 
   41900    121.52213   -110.36235   0.10995577    -110.2524   -2279.3605     4.349406     4.349406     4.349406   -2279.3605   -2293.5217   -135.48968     -4409.07   -1716.5601    349.92279   -333.55181    82.279161 
   42000     99.80806   -110.34258   0.09030843   -110.25227    233.69407    4.3495769    4.3495769    4.3495769    233.69407   -1169.7026    3035.4195   -1164.6347    2416.2865    287.08223   -344.04993    82.288861 
   42100    77.252699   -110.32244  0.069899865   -110.25254   -499.42261    4.3492256    4.3492256    4.3492256   -499.42261   -389.66849    2770.9935   -3879.5928   -485.18204    -804.9108   -1499.5441    82.268924 
   42200    115.37943   -110.35677   0.10439773   -110.25237   -1767.2149     4.349268     4.349268     4.349268   -1767.2149   -1386.5438     62.59102   -3977.6918    928.50192    336.72268    1505.2521    82.271327 
   42300    83.898687   -110.32833  0.075913295   -110.25241    1572.9428    4.3492616    4.3492616    4.3492616    1572.9428   -1825.0233    6833.2486   -289.39685    849.63531    48.083743   -1379.7985    82.270964 
   42400    127.20728    -110.3677   0.11509982    -110.2526   -3055.5631    4.3495928    4.3495928    4.3495928   -3055.5631   -1878.0839   -3041.1629   -4247.4424   -471.20346    41.593451    502.11897    82.289761 
   42500    59.623594   -110.30696  0.053948681   -110.25301    2774.3858    4.3486652    4.3486652    4.3486652    2774.3858   -909.96055    9405.4566   -172.33872     2154.484   -151.51496   -664.83853    82.237128 
   42600    161.69375   -110.39855   0.14630391   -110.25224   -2542.6769    4.3496261    4.3496261    4.3496261   -2542.6769    -3685.896    -3329.195   -612.93959   -1797.2835   -169.26476    1036.5954    82.291651 
   42700    55.212496   -110.30299  0.049957427   -110.25303    1815.1197    4.3490057    4.3490057    4.3490057    1815.1197    147.84427    8731.2117    -3433.697    2405.2007   -1026.8134    108.13416    82.256445 
   42800    122.15874   -110.36318    0.1105318   -110.25265   -1775.3884     4.349361     4.349361     4.349361   -1775.3884   -4085.0419   -1623.1602      382.037   -727.87693    75.463292    -978.9049    82.276606 
   42900     97.26564   -110.34056  0.088007995   -110.25256    1642.7951    4.3488646    4.3488646    4.3488646    1642.7951    19.853825    6984.1227   -2075.5913    1431.1732    373.16329    1341.1601    82.248439 
   43000    86.944118   -110.33137  0.078668865    -110.2527    108.76509    4.3494317    4.3494317    4.3494317    108.76509   -1357.1637    1312.2777    371.18126     146.4399   -1530.9249   -886.15139    82.280618 
   43100    97.320994   -110.34053  0.088058081   -110.25247   -106.47142    4.3491891    4.3491891    4.3491891   -106.47142   -2173.7386    3005.3549   -1151.0305   -248.23297    231.57121     919.6246    82.266851 
   43200    93.497774   -110.33671   0.08459875   -110.25211    1993.4142     4.348572     4.348572     4.348572    1993.4142    2307.9887    5482.2412   -1809.9874    1821.2415    57.171953   -733.89657    82.231839 
   43300     116.8592   -110.35803   0.10573666   -110.25229   -1725.3796    4.3497863    4.3497863    4.3497863   -1725.3796   -4230.9666   -729.36977   -215.80249   -1539.3892    -1425.165    1169.6933    82.300744 
   43400    66.562494   -110.31297  0.060227144   -110.25274    2110.0939    4.3489404    4.3489404    4.3489404    2110.0939    1261.0182     6851.761   -1782.4976    2006.5768   -340.15247   -499.87555    82.252737 
   43500    151.97046   -110.38969   0.13750607   -110.25218   -1240.4752    4.3489289    4.3489289    4.3489289   -1240.4752   -468.77468   -1985.7033   -1266.9476   -1067.2913     310.0958   -566.81606    82.252088 
   43600    68.336881   -110.31458  0.061832646   -110.25275     1548.528    4.3494346    4.3494346    4.3494346     1548.528   -2351.1181    8065.4985   -1068.7965     1239.228   -145.85224    825.16531    82.280785 
   43700    122.26812   -110.36322   0.11063076   -110.25259   -2483.4426    4.3495646    4.3495646    4.3495646   -2483.4426    1414.7205   -4187.8784   -4677.1701    -457.0785   -105.54844    -783.9618    82.288163 
   43800    87.306194   -110.33164  0.078996479   -110.25264    2000.4897    4.3485219    4.3485219    4.3485219    2000.4897   -1890.0811    9553.3749   -1661.8246   -42.788112    230.76638    2025.2974    82.228994 
   43900     115.4797   -110.35715   0.10448846   -110.25267   -1833.2027    4.3498575    4.3498575    4.3498575   -1833.2027     84.02902   -3009.3357   -2574.3013    1296.7075   -492.68108   -1280.6777    82.304784 
   44000    64.922251   -110.31168  0.058743017   -110.25294    631.89761    4.3492234    4.3492234    4.3492234    631.89761    153.07703    5387.6061   -3644.9904   -1145.1495    314.89418    2043.9777    82.268799 
   44100      121.307   -110.36197   0.10976113   -110.25221   -928.68998    4.3490583    4.3490583    4.3490583   -928.68998   -1221.3655    1484.8673   -3049.5717    1587.3046    501.71265    100.22391    82.259429 
   44200     90.40035   -110.33408  0.081796137   -110.25228     -668.063    4.3495693    4.3495693    4.3495693     -668.063    8.4422786    1193.4449   -3206.0762   -1683.3702   -831.20027    284.71189    82.288428 
   44300    81.549512   -110.32621  0.073787712   -110.25243   -729.62583    4.3494526    4.3494526    4.3494526   -729.62583   -2569.1223    4322.0057    -3941.761     1298.305    521.92225    1476.0382    82.281807 
   44400    134.00439   -110.37327   0.12124998   -110.25202   -1345.6839    4.3493877    4.3493877    4.3493877   -1345.6839   -591.74392   -1666.1336   -1779.1741   -1374.9988    369.83095   -565.83359    82.278124 
   44500    75.421998    -110.3207  0.068243409   -110.25246    1206.7976    4.3490735    4.3490735    4.3490735    1206.7976   -2085.8628    7308.2035   -1601.9478   -486.68922   -904.54963    1970.4581     82.26029 
   44600    130.50088   -110.37049   0.11807994   -110.25241   -3943.1632    4.3498946    4.3498946    4.3498946   -3943.1632   -1785.6908   -4398.4801   -5645.3186    550.09874    -573.3095    -1662.327    82.306894 
   44700    68.886561     -110.315  0.062330008   -110.25267    2368.4885    4.3491435    4.3491435    4.3491435    2368.4885   -1477.4376    7891.6077    691.29537    -1710.026    633.95142    915.15937     82.26426 
   44800    149.47306   -110.38766   0.13524637   -110.25241   -3323.2683    4.3493058    4.3493058    4.3493058   -3323.2683   -2035.1397   -3198.4634   -4736.2018    1000.5761   -166.62476    518.61826    82.273472 
   44900    37.278515   -110.28709  0.033730384   -110.25336    2619.0505     4.349017     4.349017     4.349017    2619.0505     1120.739    6644.2253    92.187238   -2214.6163   -870.76874   -977.37219    82.257087 
   45000    142.48678   -110.38137   0.12892504   -110.25244   -2251.4125     4.349903     4.349903     4.349903   -2251.4125   -3291.4989   -1742.5878   -1720.1509    1686.9427    584.96715    624.12475    82.307367 
   45100    72.851559   -110.31866  0.065917621   -110.25274    1959.0606    4.3482474    4.3482474    4.3482474    1959.0606    2602.6188    5753.7142   -2479.1513   -1755.6452   -1153.8169    -769.8287    82.213424 
   45200    93.703699    -110.3374  0.084785076   -110.25262   -821.13701    4.3496416    4.3496416    4.3496416   -821.13701   -2686.4219    1384.9229    -1161.912    97.285157   -572.68383    917.28712    82.292532 
   45300    116.25471   -110.35739   0.10518971    -110.2522    256.03498    4.3495209    4.3495209    4.3495209    256.03498   -353.69356    1367.0657   -245.26722   -419.16125   -163.23191   -1596.6512     82.28568 
   45400    88.557976    -110.3324  0.080129118   -110.25227    2467.6032    4.3481476    4.3481476    4.3481476    2467.6032    1402.7884     6941.445   -941.42376    -1363.289   -946.62925    1077.9077    82.207761 
   45500    122.41364   -110.36302   0.11076244   -110.25226   -1779.4909    4.3499402    4.3499402    4.3499402   -1779.4909   -2865.9382   -2232.8457    -239.6888    910.31412    261.25763    70.168691    82.309479 
   45600    75.799211   -110.32111  0.068584719   -110.25252    2985.4708    4.3488119    4.3488119    4.3488119    2985.4708    2465.8377    8355.1203   -1864.5456   -2425.1475    433.32706   -165.13769    82.245447 
   45700    145.72433   -110.38412   0.13185444   -110.25227   -1418.4314    4.3489259    4.3489259    4.3489259   -1418.4314   -2272.2181    -1516.544   -466.53201    1703.5781    -327.1804    184.11496    82.251917 
   45800     52.33163   -110.30042  0.047350758   -110.25306    2732.4096    4.3492436    4.3492436    4.3492436    2732.4096    1959.6105    7287.3749   -1049.7566   -1388.4917   -538.32707    -410.7124    82.269943 
   45900     129.9557   -110.37017   0.11758665   -110.25258   -1148.4078    4.3491122    4.3491122    4.3491122   -1148.4078   -92.202734    -1277.676   -2075.3446    351.87064    1193.8396    1229.7831    82.262485 
   46000    87.593532   -110.33206  0.079256468    -110.2528    1128.0111    4.3490778    4.3490778    4.3490778    1128.0111   -1204.8709    5913.6945   -1324.7904   -491.62432     -5.73558   -790.52524    82.260536 
   46100    87.331579    -110.3319  0.079019448   -110.25288   -1066.2241    4.3495102    4.3495102    4.3495102   -1066.2241    936.09851   -167.28993   -3967.4808   -1123.1488   -594.03288    1162.5776    82.285074 
   46200    107.98841   -110.35021  0.097710184    -110.2525   -1028.8844      4.34903      4.34903      4.34903   -1028.8844    -2929.523    2781.1732   -2938.3034    1101.6713    981.99327    -870.1312    82.257825 
   46300    96.037362   -110.33918  0.086896623   -110.25228     139.8182    4.3498363    4.3498363    4.3498363     139.8182    -896.5133    2443.0766   -1127.1087    -2852.176   -430.90265     443.4666    82.303584 
   46400    105.97493   -110.34824  0.095888344   -110.25235   -2268.9938    4.3493472    4.3493472    4.3493472   -2268.9938   -1914.5522   -756.85404   -4135.5751    1741.1817   -308.50938   -717.03798     82.27582 
   46500    88.686699   -110.33264  0.080245589   -110.25239   -109.61694    4.3490447    4.3490447    4.3490447   -109.61694   -2076.0372    4911.5502   -3164.3638   -2009.9563   -38.215979   -1502.0968    82.258655 
   46600    128.77443   -110.36857   0.11651781   -110.25206   -2339.6275    4.3505158    4.3505158    4.3505158   -2339.6275   -2463.4133   -2711.1635   -1844.3056    372.98569   -186.53637    1265.7074    82.342161 
   46700    74.606284   -110.32012  0.067505334   -110.25262    153.69031    4.3485403    4.3485403    4.3485403    153.69031   -1941.3955    6415.5317   -4013.0653    35.417996    231.08399   -1473.2155    82.230041 
   46800    116.13524   -110.35744    0.1050816   -110.25235   -1375.9251    4.3495167    4.3495167    4.3495167   -1375.9251   -347.16004   -1959.0251     -1821.59   -821.05508      165.932    -342.1474    82.285441 
   46900    95.619568   -110.33903  0.086518595   -110.25251    278.45482    4.3499481    4.3499481    4.3499481    278.45482   -3371.2713    5918.1168    -1711.481    1468.6693   -87.978311    -551.7628    82.309928 
   47000    97.586471   -110.34117  0.088298289   -110.25288   -1424.9796    4.3484753    4.3484753    4.3484753   -1424.9796    188.29689    575.56603   -5038.8016   -2024.2925   -1238.2675    516.99518    82.226353 
   47100    88.292151   -110.33273  0.079888594   -110.25284    155.63944    4.3496847    4.3496847    4.3496847    155.63944   -1653.5867    4437.6084   -2317.1033     1647.621    493.54016   -303.78161    82.294976 
   47200    114.71946   -110.35615   0.10380058   -110.25235   -322.90336    4.3494488    4.3494488    4.3494488   -322.90336   -2038.0535    3322.7179   -2253.3745   -1315.3834   -779.04202   -657.95188    82.281587 
   47300    88.207402    -110.3324  0.079811911   -110.25259    176.66766    4.3486404    4.3486404    4.3486404    176.66766    1101.2825    2410.7837   -2982.0632     954.5589   -1348.0272    1526.1971    82.235717 
   47400    98.287392   -110.34134  0.088932498   -110.25241    370.37562    4.3498158    4.3498158    4.3498158    370.37562   -1817.8458    4381.8073   -1452.8347   -281.96839     870.8793   -1455.2936     82.30242 
   47500     121.0528    -110.3617   0.10953112   -110.25217    53.860291    4.3486716    4.3486716    4.3486716    53.860291    1610.3988    1170.2356   -2619.0536    180.04671   -593.50722    544.74835    82.237489 
   47600    81.382609   -110.32617  0.073636695   -110.25253    1053.5475    4.3492282    4.3492282    4.3492282    1053.5475   -682.77172    5125.1383   -1281.7242    1253.8727   -384.60905   -694.90246    82.269067 
   47700    115.62425   -110.35686   0.10461925   -110.25224   -69.322785    4.3495614    4.3495614    4.3495614   -69.322785    2036.9891   -619.27276   -1625.6847   -1053.9622     106.2299    538.80746     82.28798 
   47800    91.884315   -110.33546  0.083138859   -110.25232    2618.5608    4.3479383    4.3479383    4.3479383    2618.5608    1350.3716    6865.6029   -360.29197    1629.8896    170.64962   -37.573263    82.195891 
   47900      114.519   -110.35616    0.1036192   -110.25254   -1552.6054    4.3502775    4.3502775    4.3502775   -1552.6054   -660.88362   -1317.7612   -2679.1715    -625.8426    126.20647   -359.63155    82.328627 
   48000    70.991617   -110.31718  0.064234707   -110.25294    1789.5949    4.3486582    4.3486582    4.3486582    1789.5949    2436.5561    5201.2389   -2269.0102    1455.0805    111.60384   -20.899523    82.236729 
   48100    131.79239   -110.37168   0.11924852   -110.25243   -846.02428    4.3485361    4.3485361    4.3485361   -846.02428   -1453.1675    2126.9325   -3211.8379   -753.07803    492.89108   -940.03405    82.229801 
   48200    75.913286   -110.32158  0.068687936    -110.2529    669.25386    4.3503633    4.3503633    4.3503633    669.25386     678.3073    2395.4564   -1066.0021    246.20412    -744.8184    675.77082    82.333501 
   48300     102.2793   -110.34525   0.09254446   -110.25271   -400.38889      4.34858      4.34858      4.34858   -400.38889    -724.5127    3354.8278   -3831.4818    798.20801    542.42187   -1775.3208    82.232289 
   48400    113.97617   -110.35562   0.10312803   -110.25249     46.45661    4.3489854    4.3489854    4.3489854     46.45661   -176.42129    2591.5965   -2275.8054    -672.1693   -82.012602    947.55216    82.255289 
   48500    86.201449   -110.33073  0.077996883   -110.25273   -318.27878    4.3502339    4.3502339    4.3502339   -318.27878   -1673.8159    3725.0714   -3006.0918    1397.8116   -866.55237   -352.44452    82.326151 
   48600    108.93996   -110.35107  0.098571163    -110.2525   -1112.5699    4.3486125    4.3486125    4.3486125   -1112.5699   -978.67286    705.68744   -3064.7243   -814.03149    1329.8805   -730.12833    82.234137 
   48700    96.541924   -110.33956  0.087353162   -110.25221    1309.1091    4.3493772    4.3493772    4.3493772    1309.1091   -365.01048    6255.5718    -1963.234    1842.0133    18.518716    1037.5416    82.277527 
   48800    114.33125   -110.35571   0.10344931   -110.25226   -2145.0444    4.3498352    4.3498352    4.3498352   -2145.0444   -3466.2154   -912.19443   -2056.7234   -862.09592   -242.20082    44.222427    82.303519 
   48900     74.90236   -110.32042  0.067773229   -110.25265   -91.062102    4.3487581    4.3487581    4.3487581   -91.062102   -201.83831    5687.9714   -5759.3193    635.33485    100.70519    1560.4767    82.242394 
   49000    124.70814   -110.36516   0.11283855   -110.25232   -1860.2117    4.3501185    4.3501185    4.3501185   -1860.2117   -3224.1805    312.98701   -2669.4415     596.7412   -25.745168   -727.61813    82.319604 
   49100    88.991132    -110.3333  0.080521046   -110.25277   -847.31495    4.3488551    4.3488551    4.3488551   -847.31495   -1397.2625    3714.5013   -4859.1837   -532.14674   -503.84197      1771.27    82.247897 
   49200    86.305194   -110.33104  0.078090753   -110.25295   -1023.1684    4.3496025    4.3496025    4.3496025   -1023.1684   -944.38234    1770.6594   -3895.7821    774.32878   -504.17828    399.42753    82.290313 
   49300    124.08752     -110.365   0.11227699   -110.25273   -1489.4608    4.3498754    4.3498754    4.3498754   -1489.4608   -2013.6474    1091.1511    -3545.886   -1177.4025    431.59527   -611.49094    82.305804 
   49400    75.906637   -110.32173   0.06868192   -110.25305    565.60695     4.348176     4.348176     4.348176    565.60695    978.51112    4959.6076   -4241.2979    1192.0114    -1118.192    1701.8801    82.209376 
   49500    114.89208   -110.35682   0.10395677   -110.25287    -2522.075    4.3504408    4.3504408    4.3504408    -2522.075   -2020.9146   -1440.8934    -4104.417   -942.99961    216.71145   -507.87666    82.337903 
   49600    89.967469   -110.33398  0.081404457   -110.25258    2113.0913    4.3489308    4.3489308    4.3489308    2113.0913    2364.2869    5557.4505   -1582.4635    725.96733    69.832385    823.21807    82.252196 
   49700    121.59905   -110.36242   0.11002538   -110.25239   -662.20059    4.3484033    4.3484033    4.3484033   -662.20059   -249.55707     532.3711   -2269.4158   -163.79741   -930.70236    -864.3309    82.222267 
   49800    74.714614   -110.32022  0.067603353   -110.25262    1017.3206    4.3501879    4.3501879    4.3501879    1017.3206    1406.9813    4389.3271   -2744.3466   -161.29041    953.45414    503.76735    82.323544 
   49900    123.27272   -110.36357   0.11153975   -110.25203    114.98171    4.3487285    4.3487285    4.3487285    114.98171     1129.736    974.11902   -1758.9099    117.36534   -115.06964    102.04194    82.240719 
   50000    95.914459   -110.33907  0.086785418   -110.25229     1154.315    4.3484665    4.3484665    4.3484665     1154.315    1050.7533    5943.4643   -3531.2725   -1540.1512   -278.13998   -87.632743    82.225851 
   50100    83.014917   -110.32765  0.075113641   -110.25253    815.40464    4.3499977    4.3499977    4.3499977    815.40464    2856.3446    1212.8484   -1622.9791    1016.3152    246.20555    171.98265    82.312745 
   50200    118.64273   -110.35967   0.10735044   -110.25232    768.45594    4.3484858    4.3484858    4.3484858    768.45594   -108.38193     3765.594   -1351.8442   -1360.3034    119.07953   -534.80696    82.226948 
   50300    88.332514   -110.33258  0.079925115   -110.25266    1531.8573     4.348959     4.348959     4.348959    1531.8573    2554.6813    5142.0115   -3101.1207     307.5937   -426.62188    776.24537    82.253795 
   50400    100.97966   -110.34418  0.091368519   -110.25281   -882.48812     4.349562     4.349562     4.349562   -882.48812   -519.17098   -457.71451   -1670.5789   -743.08111   -317.50692   -1042.7849    82.288011 
   50500    98.358696   -110.34168  0.088997015   -110.25269    1458.1908    4.3486206    4.3486206    4.3486206    1458.1908   -257.53737    6935.3743   -2303.2644    281.97023    1113.0314    636.08811    82.234593 
   50600    119.43604   -110.36063   0.10806824   -110.25257   -540.68469    4.3496762    4.3496762    4.3496762   -540.68469    410.21807   -907.62452   -1124.6476   -6.7078031   -281.76798    304.46937    82.294492 
   50700    73.649133   -110.31947  0.066639283   -110.25284    692.48923      4.34881      4.34881      4.34881    692.48923   -2425.7655    5543.3145   -1040.0814   -1169.7975    217.90996    348.98959    82.245341 
   50800    128.87171   -110.36881   0.11660583   -110.25221   -1740.0604    4.3494307    4.3494307    4.3494307   -1740.0604   -829.94463   -299.43055   -4090.8061    1301.3861    808.50423   -305.25547    82.280559 
   50900    87.059094   -110.33108  0.078772898   -110.25231    108.85879    4.3498267    4.3498267    4.3498267    108.85879   -2610.9735    4108.3351   -1170.7852   -1679.3401   -817.05661   -438.12753    82.303036 
   51000    99.188188   -110.34208  0.089747557   -110.25234   -1978.8413     4.348805     4.348805     4.348805   -1978.8413   -1456.2108    1008.6715   -5488.9846    474.39503     733.7162    1222.3017    82.245058 
   51100    94.227225   -110.33757  0.085258774   -110.25231    31.218858    4.3495758    4.3495758    4.3495758    31.218858    -1176.839    3561.6825   -2291.1869   -1116.1607     102.3208   -1948.5685    82.288796 
   51200    109.61277   -110.35153  0.099179938   -110.25235   -1508.2074    4.3499753    4.3499753    4.3499753   -1508.2074   -2866.5585    1633.0611   -3291.1248   -97.255833   -443.23342    477.47943    82.311475 
   51300     82.50872   -110.32747  0.074655624   -110.25282    -1282.199    4.3485143    4.3485143    4.3485143    -1282.199   -503.10763    2454.6895   -5798.1788    378.94041    278.30487   -695.14218    82.228566 
   51400    102.61431   -110.34542  0.092847584   -110.25258   -859.84661    4.3500171    4.3500171    4.3500171   -859.84661    -2430.436    3535.2468   -3684.3507   -1017.0347     59.62476   -1006.2691    82.313844 
   51500     120.9358   -110.36203   0.10942525    -110.2526   -1372.2011     4.349625     4.349625     4.349625   -1372.2011   -1329.2197     114.3667   -2901.7502    950.98834   -354.12716   -492.32855    82.291592 
   51600    72.003448   -110.31831  0.065150233   -110.25316    649.36998    4.3484446    4.3484446    4.3484446    649.36998   -754.76553    6526.7969   -3823.9214   -1195.3683   -629.28238    -854.0687     82.22461 
   51700     127.5599   -110.36814   0.11541888   -110.25272   -1562.1959    4.3500307    4.3500307    4.3500307   -1562.1959   -417.66523   -2082.9334   -2185.9891    838.23706    952.27321    1068.8501    82.314618 
   51800    91.063032   -110.33491  0.082395745   -110.25252    915.10784    4.3489877    4.3489877    4.3489877    915.10784    -1071.268    7075.6514   -3259.0599    -1156.753   -599.86138    -1276.833    82.255421 
   51900    101.02603   -110.34397  0.091410477   -110.25256   -1336.3077    4.3491892    4.3491892    4.3491892   -1336.3077    1620.6895   -1463.6368   -4165.9759     377.9706   -267.37826    410.16386    82.266859 
   52000     93.59647   -110.33704  0.084688053   -110.25235    1151.0661    4.3493383    4.3493383    4.3493383    1151.0661    1517.9309    5072.5364   -3137.2688   -69.753456    772.59774   -259.05247    82.275319 
   52100    108.20396   -110.34997  0.097905213   -110.25206    679.91447    4.3488365    4.3488365    4.3488365    679.91447     564.0008    1729.1927   -253.45005   -1071.7295   -844.49979    155.11816    82.246842 
   52200     93.17327    -110.3367  0.084305133   -110.25239   -650.89048    4.3496099    4.3496099    4.3496099   -650.89048     2439.904    1183.6446     -5576.22    834.55865    131.26383    353.94196    82.290731 
   52300    81.453561   -110.32611  0.073700893   -110.25241    1874.6882    4.3487358    4.3487358    4.3487358    1874.6882    1077.1357    4322.5982    224.33082   -1076.9741   -44.533734   -488.61744    82.241131 
   52400    139.69376   -110.37862   0.12639785   -110.25222    -1003.054    4.3489901    4.3489901    4.3489901    -1003.054     358.4979    -80.14777   -3287.5123    1336.9831   -157.51748    1291.6722     82.25556 
   52500    57.232985   -110.30483  0.051785608   -110.25304    2337.2355    4.3496341    4.3496341    4.3496341    2337.2355    1905.3293    5170.2614   -63.884322   -1061.4538    329.78083   -250.99769    82.292106 
   52600    136.06951   -110.37583   0.12311855   -110.25271   -1024.6863     4.348624     4.348624     4.348624   -1024.6863   -1301.0511     -1841.74    68.732139    883.10716    184.49602    129.42583     82.23479 
   52700    83.742623   -110.32856  0.075772085   -110.25278    2743.5608    4.3486512    4.3486512    4.3486512    2743.5608    1349.0964    8150.3875   -1268.8016    83.460494   -112.14498   -254.80743    82.236328 
   52800    118.46757   -110.35984   0.10719195   -110.25265   -2477.5173     4.350493     4.350493     4.350493   -2477.5173   -2263.8033   -4446.5367   -722.21201   -743.26673   -659.23464    977.76778    82.340866 
   52900    69.306711   -110.31546  0.062710168   -110.25275     2428.077    4.3479587    4.3479587    4.3479587     2428.077    892.25186    8454.9489   -2062.9699    970.50389    1215.8998   -301.09446     82.19705 
   53000    138.46976   -110.37737   0.12529035   -110.25208   -1137.5402    4.3494174    4.3494174    4.3494174   -1137.5402   -946.45655   -947.75067   -1518.4133   -961.77439   -204.32412   -727.68078    82.279804 
   53100     66.37608   -110.31264  0.060058472   -110.25258    415.71436    4.3500111    4.3500111    4.3500111    415.71436   -1895.8286    3669.5056   -526.53399    1576.5109   -344.74598    835.17698    82.313506 
   53200    103.38912    -110.3459  0.093548647   -110.25235   -1114.4736     4.348572     4.348572     4.348572   -1114.4736    -1086.984    2969.1095   -5225.5463   -1204.2546    1320.6097   -1160.0413    82.231839 
   53300    117.66342   -110.35852   0.10646434   -110.25205   -755.18369    4.3496111    4.3496111    4.3496111   -755.18369   -1815.1343     897.4966   -1347.9134     1086.737   -495.14348    790.63149    82.290802 
   53400    71.587768   -110.31732  0.064774117   -110.25255   -174.63598    4.3496681    4.3496681    4.3496681   -174.63598   -2514.1654    5378.5321   -3388.2747    529.67352     8.009079   -733.23038    82.294033 
   53500    125.72182    -110.3662   0.11375574   -110.25244   -2563.9178    4.3492157    4.3492157    4.3492157   -2563.9178   -1950.6196   -2157.4448    -3583.689   -20.497489   -124.99772    1339.9107    82.268361 
   53600    76.516244   -110.32182  0.069233506   -110.25259    2373.9133    4.3491699    4.3491699    4.3491699    2373.9133   -486.80366    8231.1088   -622.56514    1224.4879   -57.508488    162.39335     82.26576 
   53700    139.48735   -110.37883   0.12621108   -110.25262   -4484.7325    4.3497089    4.3497089    4.3497089   -4484.7325   -4064.7958   -3823.5361   -5565.8657   -794.73432   -79.953977   -292.51617    82.296348 
   53800     44.30114   -110.29334  0.040084603   -110.25326    2020.8573    4.3492563    4.3492563    4.3492563    2020.8573    2058.2511    7100.8782   -3096.5573    1730.6957    114.77414    1838.1635    82.270662 
   53900      160.294   -110.39726   0.14503738   -110.25222   -2934.7047    4.3495513    4.3495513    4.3495513   -2934.7047   -1853.9852   -2368.1018    -4582.027   -1128.8536    56.518568   -361.23318    82.287405 
   54000    56.045169    -110.3036  0.050710846   -110.25289    1740.4439    4.3485601    4.3485601    4.3485601    1740.4439    925.04901    6664.8349   -2368.5522     1126.059   -704.69725    1785.6906    82.231164 
   54100    109.32976   -110.35143  0.098923866   -110.25251   -2283.7266    4.3504281    4.3504281    4.3504281   -2283.7266     983.1983   -2246.2604   -5588.1177    95.204642    1019.9283   -471.56799    82.337179 
   54200    108.57903   -110.35054  0.098244586    -110.2523     533.9664     4.348658     4.348658     4.348658     533.9664   -883.91083    4952.1503   -2466.3403    784.98753   -495.11285    700.25676    82.236715 
   54300    83.701349   -110.32827   0.07573474   -110.25253    456.81773    4.3487471    4.3487471    4.3487471    456.81773    2764.6096    2544.0996    -3938.256    749.06949   -453.89072    835.73757     82.24177 
   54400    110.79252   -110.35266    0.1002474   -110.25242   -1703.6285    4.3505866    4.3505866    4.3505866   -1703.6285   -850.52222   -1033.5477   -3226.8156   -727.08643    1028.4657   -958.99669    82.346182 
   54500    88.021867   -110.33192  0.079644035   -110.25228    3146.6651    4.3480425    4.3480425    4.3480425    3146.6651    999.26763    7291.8258     1148.902    1809.3413   -365.10889    1076.6356    82.201805 
   54600    129.22015   -110.36925    0.1169211   -110.25233   -1334.5392    4.3491236    4.3491236    4.3491236   -1334.5392    1505.3933   -2428.9171   -3080.0936   -1278.2401   -602.47389    2.9606992    82.263137 
   54700    61.402046   -110.30849  0.055557862   -110.25293    1679.1693    4.3498592    4.3498592    4.3498592    1679.1693   -1508.6312    7167.6945   -621.55551    1198.3614   -292.11328    643.39165    82.304881 
   54800    137.88498   -110.37704   0.12476123   -110.25228   -284.34025    4.3485212    4.3485212    4.3485212   -284.34025     1795.406   -2553.8633   -94.563529   -781.94855    508.68992   -960.74327    82.228956 
   54900    84.708852   -110.32923  0.076646349   -110.25259    1739.9493    4.3489359    4.3489359    4.3489359    1739.9493   -615.74622    8278.1428   -2442.5488    360.36435   -61.502748    452.29751    82.252484 
   55000    92.462422   -110.33626  0.083661943    -110.2526   -520.46773    4.3497124    4.3497124    4.3497124   -520.46773   -725.10962   -3136.5289    2300.2354    71.299132    263.33499    458.60092    82.296549 
   55100    108.67965   -110.35062  0.098335634   -110.25229    563.04035    4.3488525    4.3488525    4.3488525    563.04035   -1139.8415    6086.2824   -3257.3198        -1315    660.30767   -559.35721    82.247753 
   55200    100.00928   -110.34293  0.090490494   -110.25244   -226.18985    4.3493529    4.3493529    4.3493529   -226.18985   -1233.8304    288.63697    266.62392    1719.6996   -421.11021    666.80836    82.276145 
   55300    82.959528   -110.32773  0.075063525   -110.25267   -744.80088    4.3492456    4.3492456    4.3492456   -744.80088   -1469.1563    1038.2938   -1803.5401   -2012.3608    866.36669   -64.134934    82.270055 
   55400    110.39137   -110.35207  0.099884435   -110.25218    34.956713    4.3495489    4.3495489    4.3495489    34.956713   -2480.3037    3396.5894   -811.41552    1366.2902   -622.56806     1157.415    82.287269 
   55500     108.2552   -110.35014   0.09795158   -110.25219   -397.74688    4.3493014    4.3493014    4.3493014   -397.74688   -267.31146   -1838.5277    912.59851   -1519.0239   -575.65928   -782.12264    82.273222 
   55600    72.247318   -110.31801  0.065370891   -110.25264   -113.46626    4.3488417    4.3488417    4.3488417   -113.46626   -3140.2832    5952.9684    -3153.084    16.319229    847.32444    1424.4727     82.24714 
   55700    135.34733   -110.37471    0.1224651   -110.25225   -2251.3935    4.3502807    4.3502807    4.3502807   -2251.3935    30.256692    -4611.755   -2172.6821     37.81747   -41.550378    483.28522     82.32881 
   55800    75.457004   -110.32091  0.068275083   -110.25263    1684.4647    4.3488193    4.3488193    4.3488193    1684.4647   -1451.8584    7636.5992   -1131.3467   -1859.9336   -442.92443    114.54986     82.24587 
   55900    125.13377   -110.36575   0.11322366   -110.25252   -3362.9263    4.3491827    4.3491827    4.3491827   -3362.9263   -1452.2138   -3742.7525   -4893.8126    1291.0071    -73.65257    210.47614    82.266488 
   56000    66.311343   -110.31273  0.059999896   -110.25273    2125.7209     4.349835     4.349835     4.349835    2125.7209    1514.9908    5755.0448   -892.87292   -2009.3273    985.11697   -1241.4617    82.303508 
   56100    148.24415   -110.38641   0.13413442   -110.25227   -3311.4507     4.349343     4.349343     4.349343   -3311.4507   -3988.1806   -831.25448   -5114.9171    1099.1995   -475.45583    1191.4093    82.275584 
   56200    46.416362    -110.2952    0.0419985    -110.2532     1480.313    4.3486731    4.3486731    4.3486731     1480.313    3957.7676     3809.936   -3326.7646   -1693.9014    208.61494   -1481.3747    82.237571 
   56300     123.4796   -110.36418   0.11172693   -110.25245   -1429.0654    4.3501041    4.3501041    4.3501041   -1429.0654   -2401.8732    1851.0076   -3736.3307    618.66148    673.05997    192.96295    82.318782 
   56400    107.09918   -110.34925   0.09690559   -110.25234    481.08594    4.3489196    4.3489196    4.3489196    481.08594    118.35542    1381.5236   -56.621205   -34.165141   -598.04312   -174.67408    82.251556 
   56500    62.233976   -110.30902   0.05631061   -110.25271    1440.7681    4.3489164    4.3489164    4.3489164    1440.7681    2801.6198    5318.8514   -3798.1669   -1436.6681    78.173995   -499.90606    82.251379 
   56600    145.43787   -110.38368   0.13159524   -110.25209   -2356.1889     4.349707     4.349707     4.349707   -2356.1889   -3895.6655    -1802.817   -1370.0843     847.4711   -562.09279   -479.46771    82.296246 
   56700    67.520462   -110.31358  0.061093933   -110.25249    3375.1788    4.3488186    4.3488186    4.3488186    3375.1788     3313.779    7113.0635   -301.30604   -2294.1591   -388.41192   -1563.4457     82.24583 
   56800    136.69012   -110.37623   0.12368009   -110.25255   -3078.7043    4.3496644    4.3496644    4.3496644   -3078.7043   -2857.2856   -2456.3585    -3922.469    826.90181    781.00532    1150.8651    82.293825 
   56900    65.791214   -110.31263  0.059529273    -110.2531    3190.4973    4.3484826    4.3484826    4.3484826    3190.4973   -129.94288    6592.9151    3108.5197   -2033.5122    436.68255   -1251.0741    82.226764 
   57000    140.57979   -110.37969   0.12719955   -110.25249   -1684.6397    4.3497554    4.3497554    4.3497554   -1684.6397   -1119.6977   -641.59704   -3292.6245     167.9803   -307.13139   -208.67114    82.298991 
   57100     68.48437   -110.31518  0.061966097   -110.25321    470.01937    4.3491651    4.3491651    4.3491651    470.01937   -2661.1341    4317.5318   -246.33958   -180.19124    142.36527   -507.67512     82.26549 
   57200    97.552473   -110.34126  0.088267528   -110.25299    248.80998    4.3486633    4.3486633    4.3486633    248.80998    73.122291    1212.8219   -539.51427   -1314.0293    958.16971    415.94588    82.237018 
   57300    121.62975   -110.36271   0.11005315   -110.25266   -504.73432    4.3498333    4.3498333    4.3498333   -504.73432   -3136.7055    2600.0614   -977.55887    844.34766   -708.86349   -283.29807     82.30341 
   57400     64.36958   -110.31117  0.058242949   -110.25292    1034.9187    4.3491397    4.3491397    4.3491397    1034.9187   -1087.7845    2309.5774    1882.9632   -2004.1323    -193.7653   -711.40152     82.26405 
   57500    118.69944   -110.35968   0.10740175   -110.25228   -1241.2755    4.3488688    4.3488688    4.3488688   -1241.2755    -1610.245    319.39736   -2432.9789    1053.8306    871.48372    962.45222    82.248674 
   57600    101.98212   -110.34441  0.092275562   -110.25213    839.12863    4.3496167    4.3496167    4.3496167    839.12863   -2304.8407    5396.6649   -574.43834    -1829.353   -229.73399   -1433.6606    82.291118 
   57700    96.938266   -110.34021   0.08771178    -110.2525   -931.64287    4.3494829    4.3494829    4.3494829   -931.64287    -921.3029   -1987.1106    113.48483    52.578198    265.42664    81.759862    82.283523 
   57800    103.60447    -110.3463  0.093743499   -110.25255    10.451014    4.3488027    4.3488027    4.3488027    10.451014   -2384.1438    6167.9131   -3752.4163   -209.81884   -267.52346   -1493.2279    82.244926 
   57900     106.5362   -110.34861  0.096396192   -110.25221     926.7748    4.3493914    4.3493914    4.3493914     926.7748     960.2655   -131.06959    1951.1285   -788.55677    79.069919    286.30407    82.278333 
   58000    105.74771   -110.34809  0.095682755    -110.2524   -2107.8293    4.3497888    4.3497888    4.3497888   -2107.8293   -3630.6405    2772.4723   -5465.3197     955.8873    430.38664   -218.10056    82.300887 
   58100    79.769737   -110.32491  0.072177334   -110.25274    303.91272    4.3488825    4.3488825    4.3488825    303.91272     2268.774    1222.0629   -2579.0987   -968.76675    553.58445   -1368.8958    82.249455 
   58200     122.6319   -110.36346   0.11095992    -110.2525   -619.55596    4.3492444    4.3492444    4.3492444   -619.55596   -453.69857    1683.0229   -3087.9922    1754.1726   -169.45274    1022.9403    82.269987 
   58300    83.740957   -110.32871  0.075770578   -110.25294   -528.56888    4.3497184    4.3497184    4.3497184   -528.56888   -1224.3478    2299.5545   -2660.9133    -1315.484   -68.528828   -1637.0865    82.296891 
   58400    87.919314   -110.33235  0.079551243    -110.2528   -397.40641    4.3491374    4.3491374    4.3491374   -397.40641    3678.7244   -918.27139   -3952.6722    714.82824    797.94632    1061.5763    82.263915 
   58500    113.57433   -110.35489   0.10276444   -110.25212    49.485919    4.3489484    4.3489484    4.3489484    49.485919   -2761.4049    5573.5358   -2663.6731   -419.00305   -941.38213   -793.17782    82.253193 
   58600    98.151512    -110.3411  0.088809551   -110.25229   -1199.0588    4.3498891    4.3498891    4.3498891   -1199.0588    2497.8461   -2671.8426     -3423.18   -77.967302   -358.65054    468.29472    82.306577 
   58700    86.991121    -110.3312  0.078711394   -110.25249    76.473866    4.3492919    4.3492919    4.3492919    76.473866   -811.67278    4001.9154   -2960.8211    420.61926    1016.1719     1115.897    82.272682 
   58800    131.89434   -110.37136   0.11934077   -110.25202   -32.572313    4.3488384    4.3488384    4.3488384   -32.572313   -1257.6136    458.64555     701.2511   -927.65352     83.29165     -1245.95    82.246953 
   58900     89.15686   -110.33305  0.080671001   -110.25238    155.74794    4.3495361    4.3495361    4.3495361    155.74794    1310.9075    1740.1142   -2583.7778    1810.3367   -254.82807    1270.7905    82.286541 
   59000    100.22255   -110.34309  0.090683469   -110.25241    -1399.208    4.3496709    4.3496709    4.3496709    -1399.208   -3873.7479    1193.1299   -1517.0062   -1134.5753    438.69695   -242.04728    82.294193 
   59100    104.64811   -110.34709  0.094687806    -110.2524     1387.198    4.3485228    4.3485228    4.3485228     1387.198    1131.8771    2199.7428    829.97426    1444.2468    199.58431    1179.8995    82.229048 
   59200    97.692784    -110.3412  0.088394484    -110.2528    16.260075      4.34934      4.34934      4.34934    16.260075   -2301.6323    4577.8393   -2227.4268   -274.52684     56.21171   -881.45813    82.275412 
   59300    83.825409   -110.32894  0.075846992   -110.25309   -167.35242     4.349691     4.349691     4.349691   -167.35242   -3047.6119   -572.61509    3118.1697    637.64174    595.78986    756.79197    82.295335 
   59400    94.735281   -110.33829  0.085718473   -110.25257    1852.5168    4.3484731    4.3484731    4.3484731    1852.5168   -95.546271    7344.3515   -1691.2548    937.39882    34.823464    344.28214     82.22623 
   59500    127.89813   -110.36807   0.11572491   -110.25234   -1948.0409    4.3493904    4.3493904    4.3493904   -1948.0409   -4050.1935   -1502.3715   -291.55768   -739.20428    295.08511   -910.99253    82.278276 
   59600    53.927004   -110.30162  0.048794286   -110.25283    1587.0227    4.3496609    4.3496609    4.3496609    1587.0227   -1787.4369    5223.7737    1324.7314    1886.0367     889.5328    524.58934    82.293625 
   59700    153.79375    -110.3912   0.13915581   -110.25204   -1637.2745    4.3490956    4.3490956    4.3490956   -1637.2745   -3062.7345   -358.23603   -1490.8531   -888.73889   -656.79389   -119.49077    82.261545 
   59800    79.498758   -110.32446  0.071932147   -110.25252    2000.3259    4.3487769    4.3487769    4.3487769    2000.3259   -1645.5196    4581.4714     3065.026     1861.983   -258.76314    640.84176    82.243463 
   59900    101.34624   -110.34422  0.091700205   -110.25252   -2014.7742     4.350138     4.350138     4.350138   -2014.7742   -3239.9805    326.32613   -3130.6682   -218.73357     811.9192   -1374.3393    82.320709 
   60000    110.00931   -110.35188  0.099538733   -110.25234    110.46708    4.3489202    4.3489202    4.3489202    110.46708   -675.18967    1722.5764   -715.98552    582.24831    268.18172    482.54695    82.251595 
   60100    90.084923   -110.33414  0.081510731   -110.25262    861.19338    4.3489135    4.3489135    4.3489135    861.19338   -966.96835    4751.2826   -1200.7341    1012.2379   -298.70697    287.82163    82.251214 
   60200    103.97869   -110.34702  0.094082102   -110.25293   -2493.1462     4.349985     4.349985     4.349985   -2493.1462   -1993.2898   -2350.2438    -3135.905   -1117.8049    357.53584    276.44171    82.312021 
   60300    73.114849   -110.31909  0.066155852   -110.25293    1775.3426    4.3490288    4.3490288    4.3490288    1775.3426    1481.9411    5301.2344   -1457.1477     1480.811    400.08464    1185.3104    82.257756 
   60400    143.14426   -110.38187   0.12951994   -110.25235   -2885.4536    4.3493728    4.3493728    4.3493728   -2885.4536   -2241.6624    -2317.564   -4097.1345   -1056.1007   -570.71314   -197.04491    82.277277 
   60500    45.907716   -110.29445  0.041538266   -110.25291    1334.4956    4.3491754    4.3491754    4.3491754    1334.4956    2098.0285    5902.8632    -3997.405    750.57392    364.66521    1940.2725    82.266072 
   60600    135.90964   -110.37516    0.1229739   -110.25219   -1886.1456    4.3498435    4.3498435    4.3498435   -1886.1456   -759.00581    -2812.843   -2086.5879   -625.29285   -22.590636   -800.34341    82.303989 
   60700    97.158957   -110.34032  0.087911466   -110.25241    1587.6273    4.3487625    4.3487625    4.3487625    1587.6273   -578.38709    7122.3872   -1781.1181    126.83133    119.71994     481.6299    82.242645 
   60800    85.451329   -110.33009  0.077318159   -110.25277   -191.85288    4.3490777    4.3490777    4.3490777   -191.85288    2699.7494   -881.81335   -2393.4947    389.17992    351.62303    596.96541    82.260532 
   60900    123.63751   -110.36419   0.11186982   -110.25232   -1383.6057    4.3500084    4.3500084    4.3500084   -1383.6057   -3231.1145    2363.0614   -3282.7641   -785.88332   -117.17322     186.4603    82.313353 
   61000    89.214474     -110.333  0.080723131   -110.25227    1938.9331    4.3487191    4.3487191    4.3487191    1938.9331    2148.3957    3607.0877     61.31601    1432.7469   -329.43457    445.96571    82.240185 
   61100    116.41285   -110.35776   0.10533279   -110.25243    -2138.622    4.3492471    4.3492471    4.3492471    -2138.622   -1023.9707   -682.77671   -4709.1188   -948.87372    759.26316   -789.54541    82.270142 
   61200    65.415054   -110.31192  0.059188916   -110.25273    2148.0962    4.3496139    4.3496139    4.3496139    2148.0962   -2109.7542    6348.8649    2205.1779    1027.8392    876.92259    1496.9821    82.290956 
   61300    142.99813    -110.3816   0.12938772   -110.25221   -1969.3519    4.3491809    4.3491809    4.3491809   -1969.3519   -309.05955   -2139.2307   -3459.7656   -868.28551   -432.48413   -752.10519    82.266385 
   61400    46.265835   -110.29478  0.041862299   -110.25292    1915.1064    4.3486677    4.3486677    4.3486677    1915.1064   -2203.2578     9282.401   -1333.8241    193.49303    1111.9009    251.28214    82.237264 
   61500    127.18185   -110.36741   0.11507681   -110.25233   -2209.1242    4.3500362    4.3500362    4.3500362   -2209.1242   -2839.3696   -3825.1799    37.177069    55.668887    796.45603   -68.479804    82.314928 
   61600    88.255192   -110.33222  0.079855153   -110.25237    2132.1887     4.348904     4.348904     4.348904    2132.1887   -2091.9936    8574.5594   -85.999591    -1074.839   -634.35668    178.47114    82.250676 
   61700    111.09922   -110.35319   0.10052491   -110.25267   -1382.9029    4.3491259    4.3491259    4.3491259   -1382.9029   -3120.7097   -1893.1979    865.19897    400.66587    388.95022   -499.43951    82.263267 
   61800    86.469524   -110.33104  0.078239442    -110.2528    579.31324    4.3493745    4.3493745    4.3493745    579.31324   -2626.2709    4292.2697    71.940877   -1307.7381     138.6244   -619.23159    82.277374 
   61900    131.97439   -110.37162    0.1194132    -110.2522   -980.82979    4.3495008    4.3495008    4.3495008   -980.82979   -2483.1892    728.22779    -1187.528    616.68388    95.841386    1231.9478    82.284539 
   62000    83.542807   -110.32811  0.075591288   -110.25252     294.3983    4.3490732    4.3490732    4.3490732     294.3983   -2356.6114    2521.7975    718.00885   -1070.1098    416.07152   -343.18894    82.260276 
   62100    93.498007   -110.33696  0.084598962   -110.25236    15.125956    4.3491867    4.3491867    4.3491867    15.125956   -1716.8899    3690.9297   -1928.6619   -278.87221    67.897937    694.43156    82.266714 
   62200    120.98967   -110.36152     0.109474   -110.25204   -620.57992    4.3496837    4.3496837    4.3496837   -620.57992   -1425.8342     3.996358   -439.90194   -33.778611    31.345693   -841.19827    82.294922 
   62300    66.332409   -110.31265  0.060018957   -110.25263    685.22211    4.3491125    4.3491125    4.3491125    685.22211   -1785.3564    6787.1901   -2946.1674   -1147.0071    85.385289    552.46083    82.262502 
   62400    119.25686   -110.36023   0.10790611   -110.25233   -2359.8312    4.3492133    4.3492133    4.3492133   -2359.8312    779.03871   -3093.9242    -4764.608   -66.515833    679.12593   -260.89332    82.268224 
   62500    75.397697   -110.32053  0.068221421   -110.25231    2480.1601    4.3494055    4.3494055    4.3494055    2480.1601   -649.25185    8607.3997   -517.66768   -959.69578   -808.22345   -1499.8512    82.279134 
   62600    137.76254   -110.37702   0.12465044   -110.25237   -2980.9382    4.3497044    4.3497044    4.3497044   -2980.9382   -982.95277   -3999.1769   -3960.6849    508.27485      384.359    745.99545    82.296095 
   62700    45.249411    -110.2942  0.040942618   -110.25326    3251.6727     4.348296     4.348296     4.348296    3251.6727    3787.1391    8135.5018   -2167.6226   -429.64736    448.62607   -1752.1038    82.216183 
   62800    162.23476   -110.39922   0.14679342   -110.25243   -2858.4094    4.3499955    4.3499955    4.3499955   -2858.4094   -2839.9245   -1835.1174   -3900.1862    346.34234   -913.17533    42.314753     82.31262 
   62900    63.432972   -110.31038  0.057395486   -110.25298    1968.9915    4.3491319    4.3491319    4.3491319    1968.9915    3848.4832    4947.8178   -2889.3263    361.23692    200.28597   -1996.6157    82.263602 
   63000    111.83286   -110.35377   0.10118872   -110.25258   -1267.4433    4.3489734    4.3489734    4.3489734   -1267.4433   -143.49487    1047.3367   -4706.1717   -314.57387    130.84425   -55.464305    82.254609 
   63100    112.15091   -110.35379    0.1014765   -110.25232    301.84878    4.3495141    4.3495141    4.3495141    301.84878    274.53674    1682.3258   -1051.3162    234.76937    659.89409   -95.478413    82.285294 
   63200    82.282011   -110.32695  0.074450493    -110.2525    175.45061    4.3494958    4.3494958    4.3494958    175.45061    1709.6751    3233.0423   -4416.3656   -906.63192   -4.6395031   -1954.2504    82.284256 
   63300    111.69657   -110.35348   0.10106541   -110.25241    -2422.652    4.3492081    4.3492081    4.3492081    -2422.652   -1387.1569   -1333.3921   -4547.4069    500.74399    1120.3968    630.78188    82.267928 
   63400    73.081021   -110.31851  0.066125243   -110.25238    2173.0337    4.3490514    4.3490514    4.3490514    2173.0337    1508.4409    6187.1723    -1176.512   -1212.7531    408.08338   -981.78645    82.259038 
   63500    133.61267   -110.37303   0.12089555   -110.25213   -2883.4309    4.3499819    4.3499819    4.3499819   -2883.4309    -2356.561   -3431.0166   -2862.7149    146.88059   -176.34485   -74.241039    82.311845 
   63600      48.2542   -110.29665  0.043661414   -110.25298    2315.3964    4.3487421    4.3487421    4.3487421    2315.3964    57.572827    7952.4779   -1063.8615   -443.83277    1042.4191   -575.22701    82.241486 
   63700    143.11658   -110.38187   0.12949489   -110.25237   -1723.7363    4.3493159    4.3493159    4.3493159   -1723.7363   -2355.1361   -2878.0506    61.977774   -4.4514234   -773.45946    514.49917    82.274047 
   63800    86.613551   -110.33121  0.078369761   -110.25284    656.07993    4.3494447    4.3494447    4.3494447    656.07993   -1609.1848    6911.8729   -3334.4483    308.59511    630.24403    203.97872    82.281356 
   63900    99.295283   -110.34267  0.089844458   -110.25283   -824.23881    4.3494957    4.3494957    4.3494957   -824.23881   -2659.1809   -1518.1261    1704.5905   -734.81203    952.78733   -865.47346    82.284251 
   64000    121.01971   -110.36187   0.10950118   -110.25237     268.4181     4.348821     4.348821     4.348821     268.4181   -2189.9913     4373.131   -1377.8853    633.06507   -529.69601     657.8503    82.245966 
   64100    90.186881   -110.33398  0.081602986   -110.25237    976.08559    4.3493287    4.3493287    4.3493287    976.08559   -1639.4567    3789.9021    777.81134    -488.3679    481.97372   -669.76004    82.274772 
   64200    101.87565   -110.34461  0.092179229   -110.25243   -1615.9295    4.3499235    4.3499235    4.3499235   -1615.9295   -3564.2035   -383.92465   -899.66043    300.98959    341.19523    988.71939    82.308535 
   64300    85.019823   -110.32927  0.076927723   -110.25234    1814.8549    4.3482974    4.3482974    4.3482974    1814.8549    637.58747    7333.1269   -2526.1497    41.928286    331.92987   -660.05093    82.216261 
   64400    116.12952   -110.35714   0.10507643   -110.25206   -898.56432      4.34947      4.34947      4.34947   -898.56432   -2397.3759   -855.15849    556.84142    479.52531    -433.6163    105.19177    82.282792 
   64500    65.724969   -110.31198  0.059469333   -110.25251    790.04854    4.3498857    4.3498857    4.3498857    790.04854    -966.5017    5154.7634   -1818.1161    956.65892    515.32971    50.386179    82.306389 
   64600    126.24233   -110.36639   0.11422671   -110.25217   -714.54752     4.348545     4.348545     4.348545   -714.54752    779.03984   -886.56433   -2036.1181   -304.86217    54.267743   -679.63708    82.230307 
   64700    90.519638   -110.33452  0.081904071   -110.25262    958.30449    4.3492114    4.3492114    4.3492114    958.30449   -1483.5498    5405.5006   -1047.0373    1111.2558   -674.61481    288.68852    82.268114 
   64800    112.82314   -110.35486   0.10208475   -110.25278   -2573.6745    4.3502366    4.3502366    4.3502366   -2573.6745    761.83787   -2855.3168   -5627.5445   -64.449937    494.61449   -872.07302    82.326308 
   64900     90.62808   -110.33481  0.082002192   -110.25281    1280.7273    4.3483798    4.3483798    4.3483798    1280.7273    9.8496624    4540.4501   -708.11785    396.76944   -745.03981     2399.368    82.220933 
   65000    126.81266   -110.36704   0.11474276    -110.2523   -979.95168    4.3495729    4.3495729    4.3495729   -979.95168     47.28078    636.19799   -3623.3338    41.968869    313.35858   -1602.4462    82.288634 
   65100    75.551359   -110.32104  0.068360457   -110.25268   -160.12502    4.3497133    4.3497133    4.3497133   -160.12502    1261.0271    1596.5881   -3337.9902   -54.769351    510.28307    889.88631    82.296599 
   65200    106.03388   -110.34834  0.095941683   -110.25239    -695.7433    4.3490295    4.3490295    4.3490295    -695.7433   -582.09182    2766.0954   -4271.2335    234.62422    41.238783    1439.5955    82.257794 
   65300    106.35272   -110.34849  0.096230175   -110.25226   -67.942857    4.3492847    4.3492847    4.3492847   -67.942857    1901.8863    1260.3842   -3366.0991   -611.92016     211.7203    -397.4066    82.272278 
   65400    73.420289   -110.31892  0.066432221   -110.25248    161.36534    4.3493415    4.3493415    4.3493415    161.36534   -216.93066    3904.5036   -3203.4769    670.98821    337.38243    1032.2054    82.275498 
   65500    116.13707   -110.35718   0.10508326    -110.2521    -1119.068    4.3497502    4.3497502    4.3497502    -1119.068   -3.6278842   -667.53053   -2686.0457    -452.8581     550.5874   -115.36189    82.298693 
   65600    84.895489   -110.32904  0.076815223   -110.25223     2180.117    4.3486869    4.3486869    4.3486869     2180.117     421.4616    7223.6078   -1104.7182    843.42542    -751.1071     1044.032    82.238356 
   65700     120.0007   -110.36105   0.10857916   -110.25247   -2370.7703    4.3493415    4.3493415    4.3493415   -2370.7703    -984.1197   -1024.4991    -5103.692   -162.38329    959.43822   -905.04656    82.275499 
   65800    79.950114    -110.3252  0.072340543   -110.25286    1257.2822    4.3499318    4.3499318    4.3499318    1257.2822   -1574.3774    4845.0418    501.18206    302.50597    765.16623    323.05269    82.309002 
   65900     134.3774   -110.37395   0.12158749   -110.25236   -367.24346    4.3485862    4.3485862    4.3485862   -367.24346   -1709.0982    1955.4301   -1348.0623    627.73819   -550.46203    988.71368    82.232646 
   66000    86.390465   -110.33098  0.078167908   -110.25281    374.83539    4.3490281    4.3490281    4.3490281    374.83539   -1180.4001    2925.7358   -620.82951    -478.0759    742.62913   -333.39972    82.257713 
   66100    97.674757   -110.34106  0.088378173   -110.25268   -653.24639    4.3504377    4.3504377    4.3504377   -653.24639   -3865.5351    1280.6384    625.15746    890.81233   -150.24991    669.68671    82.337723 
   66200     117.6329    -110.3589   0.10643672   -110.25246    -353.1234    4.3482699    4.3482699    4.3482699    -353.1234   -927.48316    1725.3914   -1857.2784   -659.67996    44.084562    -991.2233    82.214703 
   66300    72.166487   -110.31806  0.065297754   -110.25276    560.49543    4.3492297    4.3492297    4.3492297    560.49543   -2230.4574    3786.4972     125.4465    496.07078    534.42703    573.09371    82.269157 
   66400    104.20722   -110.34662  0.094288883   -110.25233   -1398.5868    4.3503938    4.3503938    4.3503938   -1398.5868   -3213.0984   -1968.0798    985.41769   -393.65742    -142.0873   -441.19067    82.335233 
   66500    95.738554    -110.3387  0.086626256   -110.25207    1264.7454    4.3482549    4.3482549    4.3482549    1264.7454   -529.36079    5830.2987   -1506.7017   -429.40531    -34.95048    2.1027048    82.213848 
   66600    100.13528   -110.34288  0.090604509   -110.25228   -965.43239    4.3496536    4.3496536    4.3496536   -965.43239   -2715.5244   -1249.8446    1069.0719     662.4009     277.9782    165.99318    82.293212 
   66700    97.648858   -110.34089  0.088354739   -110.25253   -880.85315    4.3495918    4.3495918    4.3495918   -880.85315   -927.63722    2473.6033   -4188.5256   -1211.8625    151.01552    767.07502    82.289707 
   66800    110.47803    -110.3523  0.099962841   -110.25234    606.34945    4.3489055    4.3489055    4.3489055    606.34945   -1582.4801    1596.6046    1804.9239    432.44502   -1299.3624    631.98264     82.25076 
   66900     116.0993    -110.3575   0.10504908   -110.25245   -917.13076    4.3496456    4.3496456    4.3496456   -917.13076   -996.88713    559.45785    -2313.963   -1063.0335    488.46119   -1017.7416    82.292758 
   67000    77.485673   -110.32286  0.070110665   -110.25275    979.03381    4.3488121    4.3488121    4.3488121    979.03381    757.94495    3467.3539   -1288.1974   -116.77242    278.65154    2061.2501    82.245458 
   67100    132.42829   -110.37221    0.1198239   -110.25239   -1409.0186    4.3498805    4.3498805    4.3498805   -1409.0186   -1185.9399   -1006.8811   -2034.2347   -603.82956   -720.20555   -376.78621     82.30609 
   67200    73.019245   -110.31892  0.066069348   -110.25285    1417.9023    4.3488848    4.3488848    4.3488848    1417.9023    1856.3289    5819.9033   -3422.5254   -784.66523    310.54034    329.71216    82.249581 
   67300    104.33019   -110.34709   0.09440015   -110.25269   -1233.0751    4.3488588    4.3488588    4.3488588   -1233.0751    623.69653   -1518.9138   -2804.0081    359.65168   -19.122621   -831.12085     82.24811 
   67400    86.286092    -110.3305  0.078073469   -110.25243    1218.9561    4.3501939    4.3501939    4.3501939    1218.9561    406.88258     5596.543   -2346.5574   -767.53933    90.094948    159.87395    82.323885 
   67500    113.31954   -110.35475    0.1025339   -110.25221   -1192.6189    4.3488682    4.3488682    4.3488682   -1192.6189    1209.2519   -775.34648    -4011.762    475.78672   -161.82691   -113.17981    82.248644 
   67600    76.199625   -110.32141  0.068947022   -110.25246    342.92873    4.3487838    4.3487838    4.3487838    342.92873    1367.7717    4109.8078   -4448.7933   -500.68429     773.6042   -1719.0559    82.243852 
   67700    121.70244   -110.36215   0.11011893   -110.25203   -1121.6268    4.3505867    4.3505867    4.3505867   -1121.6268    -1102.066    566.98646   -2829.8007    574.18487   -11.370558    1185.4119    82.346183 
   67800     106.6151   -110.34871  0.096467583   -110.25224    205.57499    4.3483684    4.3483684    4.3483684    205.57499    331.71481    1787.9871   -1502.9769   -256.81353    312.75175   -1208.0716    82.220286 
   67900    85.442064   -110.32979  0.077309775   -110.25248    593.69063    4.3491593    4.3491593    4.3491593    593.69063    274.14677    4009.3991    -2502.474    -407.3835    411.44371   -186.62657    82.265157 
   68000    129.90779    -110.3698    0.1175433   -110.25226    -1441.457    4.3502276    4.3502276    4.3502276    -1441.457   -2791.5896    -1586.168    53.386464     158.8272   -1031.4359   -1044.9574    82.325798 
   68100    77.282282   -110.32263  0.069926633   -110.25271     1566.636    4.3483422    4.3483422    4.3483422     1566.636    648.63769    6735.9918   -2684.7214   -1108.7383    397.46259   -1068.2594    82.218801 
   68200     114.5857   -110.35637   0.10367955   -110.25269   -1932.2496    4.3497649    4.3497649    4.3497649   -1932.2496   -2112.8845    -2173.147   -1510.7172    107.43766    596.12663    373.91363    82.299528 
   68300    70.435122   -110.31641  0.063731178   -110.25268    2267.9798    4.3490433    4.3490433    4.3490433    2267.9798   -1455.4882    7151.4647    1107.9627   -1103.2651   -584.93627   -1605.4193     82.25858 
   68400     129.2938   -110.36926   0.11698775   -110.25228   -2044.6247    4.3494385    4.3494385    4.3494385   -2044.6247   -1371.1215    -1624.464   -3138.2887    339.71845   -18.463082    254.28016    82.281006 
   68500     61.52587   -110.30837    0.0556699    -110.2527    1154.1344    4.3494699    4.3494699    4.3494699    1154.1344    -2775.169    5919.7756    317.79675    -517.4103    778.74163   -946.72163    82.282784 
   68600    121.85022   -110.36245   0.11025264   -110.25219   -1251.2767    4.3488029    4.3488029    4.3488029   -1251.2767   -901.38793    176.64041   -3029.0827   -548.61445    -394.3395    390.64424    82.244936 
   68700    103.68257    -110.3461  0.093814167   -110.25229    -68.44263    4.3498656    4.3498656    4.3498656    -68.44263   -3915.5903    4167.7916   -457.52926    127.18855   -807.88644   -950.73589    82.305247 
   68800    86.351203   -110.33061  0.078132383   -110.25247    530.55464    4.3493015    4.3493015    4.3493015    530.55464    -1045.297    2258.6158    378.34512   -858.76208    437.34065   -80.956955     82.27323 
   68900    126.95099   -110.36708   0.11486792   -110.25222   -774.65275    4.3484665    4.3484665    4.3484665   -774.65275   -2083.4028      1817.35   -2057.9055    575.28273    -513.1337    662.08788    82.225851 
   69000     84.67078   -110.32901  0.076611901    -110.2524    1199.4833    4.3501953    4.3501953    4.3501953    1199.4833   -1978.9408    5701.8624   -124.47151   -1300.2207   -62.903889   -1888.2888    82.323962 
   69100    117.84641   -110.35911   0.10662991   -110.25248   -1978.3343    4.3491918    4.3491918    4.3491918   -1978.3343   -457.31101   -2776.7008   -2700.9911    773.74934    164.75831   -160.85077    82.267005 
   69200    71.251511   -110.31721  0.064469864   -110.25274    2258.3042    4.3482163    4.3482163    4.3482163    2258.3042   -689.11846    9193.4441    -1729.413   -310.54715   -1178.5096   -1171.0055    82.211658 
   69300     128.3607   -110.36851   0.11614346   -110.25237    -1876.143    4.3506523    4.3506523    4.3506523    -1876.143   -215.91798   -4369.8454   -1042.6656    231.41016    258.32795    203.96757    82.349908 
   69400    64.732068   -110.31133  0.058570936   -110.25276    932.75305    4.3486613    4.3486613    4.3486613    932.75305  -0.16206986     7201.768   -4403.3467    606.05708    419.12724   -1575.0863    82.236906 
   69500    113.70536   -110.35534     0.102883   -110.25245   -1424.4077    4.3491283    4.3491283    4.3491283   -1424.4077    852.37318   -2044.6913   -3080.9049   -12.665653   -136.30127   -162.00059    82.263403 
   69600    96.188695   -110.33944  0.087033553    -110.2524    66.551659    4.3499538    4.3499538    4.3499538    66.551659    55.886828    4300.4817   -4156.7135    1308.6221   -107.26636    547.34673    82.310252 
   69700    99.436927   -110.34244  0.089972621   -110.25247   -758.17944    4.3488758    4.3488758    4.3488758   -758.17944   -426.21756   -128.15582   -1720.1649   -744.65907    1168.0963   -1894.9347    82.249071 
   69800    103.41245   -110.34594  0.093569756   -110.25238    29.278219    4.3494504    4.3494504    4.3494504    29.278219    1441.7981    1403.2631   -2757.2265     932.5076   -286.24619    853.26551    82.281678 
   69900    103.26533   -110.34554  0.093436639    -110.2521    559.57314    4.3492235    4.3492235    4.3492235    559.57314   -1568.8029    3560.9544   -313.43205   -521.38747   -1143.8067   -974.32372    82.268801 
   70000    114.49828    -110.3558   0.10360045    -110.2522   -1647.2182    4.3494376    4.3494376    4.3494376   -1647.2182    640.37761    -2255.883   -3326.1491    463.32657     658.5386    660.20552    82.280954 
   70100    69.509691   -110.31549  0.062893829    -110.2526    2051.1741    4.3493798    4.3493798    4.3493798    2051.1741   -744.14981    6778.2666    119.40538    293.42373   -246.30422   -123.36994     82.27767 
   70200    145.47514   -110.38375   0.13162897   -110.25212   -1687.8343    4.3488006    4.3488006    4.3488006   -1687.8343   -1984.9767   -2859.7974   -218.72891    -247.1585    -372.6957    -937.5477    82.244805 
   70300    47.380076   -110.29565  0.042870488   -110.25278    2831.9283    4.3494238    4.3494238    4.3494238    2831.9283    746.59761    8310.9098   -561.72236    1587.6476    152.07219    782.95634    82.280172 
   70400    138.32635   -110.37755   0.12516059   -110.25239    -3057.215    4.3500058    4.3500058    4.3500058    -3057.215   -4661.6488   -3986.4836   -523.51273   -665.83879   -112.91046    -81.24693    82.313203 
   70500    62.468771   -110.30932  0.056523057    -110.2528    3160.2285    4.3477974    4.3477974    4.3477974    3160.2285    511.18758    9689.2308   -719.73285    1893.2036   -359.59894    714.36706    82.187905 
   70600    127.85566   -110.36824   0.11568649   -110.25255   -2514.6757    4.3504748    4.3504748    4.3504748   -2514.6757   -4440.1255    -2143.053   -960.84841    -89.93038    207.21543   -670.00115    82.339831 
   70700     76.43519   -110.32194  0.069160166   -110.25278    1318.8755    4.3491996    4.3491996    4.3491996    1318.8755   -2807.6593    3790.0013    2974.2845    992.08035   -399.88923    1414.5067    82.267447 
   70800    112.80794   -110.35432     0.102071   -110.25225    370.05177    4.3482339    4.3482339    4.3482339    370.05177   -1869.9136    4144.7951   -1164.7262    879.80049   -976.74697   -472.56996    82.212656 
   70900    114.34313   -110.35564   0.10346007   -110.25218   -1607.3092    4.3505843    4.3505843    4.3505843   -1607.3092   -4713.5691   -1448.0181    1339.6594   -408.49248    931.04466   -727.08516    82.346046 
   71000    71.608865    -110.3172  0.064793205   -110.25241    1011.8068    4.3489626    4.3489626    4.3489626    1011.8068   -1794.6369    4964.8724   -134.81514    2064.7478   -470.71766    298.02709    82.253999 
   71100    142.82858   -110.38124    0.1292343   -110.25201   -2118.8308    4.3489706    4.3489706    4.3489706   -2118.8308   -3976.1081   -1279.4193   -1100.9649   -750.72469   -1825.7635    686.77734     82.25445 
   71200    65.070517   -110.31144  0.058877171   -110.25256    1592.3999    4.3498391    4.3498391    4.3498391    1592.3999   -1650.4245    5114.0075    1313.6167    1708.1498    649.56904   -194.38998     82.30374 
   71300    122.83832   -110.36348    0.1111467   -110.25234   -3240.4844    4.3494498    4.3494498    4.3494498   -3240.4844   -2803.1671   -2878.7811    -4039.505    428.77571   -154.41494   -754.79048    82.281647 
   71400    75.643702   -110.32112  0.068444012   -110.25268    1030.1843     4.349119     4.349119     4.349119    1030.1843   -2173.3528    6894.3426   -1630.4369    464.03763   -386.05481    1298.1586    82.262875 
   71500    116.78303   -110.35819   0.10566774   -110.25253   -2018.0396     4.349589     4.349589     4.349589   -2018.0396   -115.97417   -2272.2801   -3665.8646    1145.8049     290.7229   -657.84856    82.289548 
   71600    75.247515   -110.32104  0.068085533   -110.25295    120.33836    4.3490366    4.3490366    4.3490366    120.33836   -3020.4264    4917.2773   -1535.8358   -958.51808    244.29789    683.34921    82.258196 
   71700    110.51243   -110.35248  0.099993968   -110.25248   -389.02289    4.3497877    4.3497877    4.3497877   -389.02289    450.00915    112.26957   -1729.3474    1399.2855   -368.31468    473.26988    82.300824 
   71800    103.56149   -110.34603  0.093704613   -110.25232     279.0829    4.3486626    4.3486626    4.3486626     279.0829   -870.97871    2993.2555   -1285.0281   -1136.8424   -176.11921    193.70684    82.236976 
   71900     94.00739   -110.33738  0.085059862   -110.25232   -337.58109    4.3494141    4.3494141    4.3494141   -337.58109   -917.17345    3160.7493   -3256.3191    678.30826   -104.06567    1016.1142    82.279621 
   72000    108.27576   -110.35008  0.097970184   -110.25211    343.18713    4.3499438    4.3499438    4.3499438    343.18713    918.47732   -656.27785    767.36193   -377.35523    -1187.682   -997.75818    82.309683 
   72100    109.24515   -110.35093  0.098847307   -110.25208    1222.7544    4.3480145    4.3480145    4.3480145    1222.7544   -1885.2538    7082.8538   -1529.3368   -200.55024    947.35659      784.724    82.200217 
   72200    93.355122   -110.33676  0.084469676   -110.25229      282.334    4.3497905    4.3497905    4.3497905      282.334    2549.9183   -1690.7483   -12.168034    780.70884   -251.87707    108.03814    82.300982 
   72300    100.56548   -110.34322  0.090993761   -110.25223    214.57627    4.3498095    4.3498095    4.3498095    214.57627   -2971.7153    4908.6124   -1293.1683   -836.61848   -1217.5269    660.71487    82.302061 
   72400    112.30595   -110.35388   0.10161679   -110.25227     99.78103     4.347986     4.347986     4.347986     99.78103    1047.2017     1067.305   -1815.1636    1236.1476    278.87774   -141.57656    82.198597 
   72500    76.450016   -110.32196  0.069173581   -110.25278      562.633    4.3500154    4.3500154    4.3500154      562.633   -41.038918    2129.9468    -401.0089   -1002.4624    248.81867   -112.11624     82.31375 
   72600    110.89308    -110.3529   0.10033839   -110.25256   -857.76394    4.3495744    4.3495744    4.3495744   -857.76394   -4233.3235    1095.5111    564.52061    809.71197   -1003.3533    1295.1556    82.288715 
   72700    93.214887   -110.33695  0.084342788   -110.25261    1272.6532    4.3482469    4.3482469    4.3482469    1272.6532    1819.8644    2683.3704   -685.27525    -973.8351    -570.7281   -999.20235    82.213393 
   72800    94.526357   -110.33809  0.085529434   -110.25256    -767.3033    4.3501971    4.3501971    4.3501971    -767.3033   -4072.5181    1714.4934    56.114798    216.06558    945.41154    686.06478    82.324065 
   72900    106.96962   -110.34927  0.096788356   -110.25248   -907.47094    4.3491176    4.3491176    4.3491176   -907.47094   -1738.4108    218.43143   -1202.4335    272.22531   -1356.3177    322.76743    82.262795 
   73000    97.913718   -110.34097   0.08859439   -110.25238    1048.1857    4.3490114    4.3490114    4.3490114    1048.1857   -1832.7925    4565.3472    412.00239   -1034.2557    -779.8334    134.56374    82.256768 
   73100    118.54903    -110.3596   0.10726566   -110.25233   -1758.5124    4.3498984    4.3498984    4.3498984   -1758.5124   -3264.3709   -1380.4769   -630.68927    1029.2515    14.781431   -474.00691     82.30711 
   73200    78.672192   -110.32361  0.071184253   -110.25242    615.47249    4.3487849    4.3487849    4.3487849    615.47249   -1411.3551    5014.9709   -1757.1984   -1060.3208   -1481.1273    -5.632907    82.243919 
   73300    131.75769    -110.3712   0.11921713   -110.25199   -2191.4527    4.3501985    4.3501985    4.3501985   -2191.4527   -3762.4254   -215.94919   -2595.9836    534.18592    744.88748    906.58494    82.324146 
   73400    78.836695   -110.32384  0.071333098   -110.25251    379.22882     4.348831     4.348831     4.348831    379.22882   -314.18583    3665.7928   -2213.9206   -846.55868   -128.81014   -414.77296    82.246531 
   73500    95.386791   -110.33894  0.086307973   -110.25263   -785.64714    4.3490258    4.3490258    4.3490258   -785.64714   -3500.5248    3296.5241   -2152.9407    26.281338   -1068.5428     1015.069    82.257583 
   73600    112.37075   -110.35431   0.10167542   -110.25264   -786.19923    4.3504971    4.3504971    4.3504971   -786.19923   -1268.4626     510.6613   -1600.7964   -129.85706    187.12401   -176.41749    82.341099 
   73700    67.693655   -110.31411  0.061250642   -110.25285    1555.0816    4.3479226    4.3479226    4.3479226    1555.0816   -520.78483    6946.5568   -1760.5273    -1240.558    204.73403    351.08701    82.195003 
   73800    126.15224   -110.36669    0.1141452   -110.25254   -2796.2944    4.3497059    4.3497059    4.3497059   -2796.2944   -2662.5288    -1508.061   -4218.2935    625.50494   -857.11225    -517.7294    82.296182 
   73900    76.510665   -110.32177  0.069228458   -110.25255    2076.4915    4.3500875    4.3500875    4.3500875    2076.4915    106.10135    5402.3847     720.9886   -1686.2124   -989.09021   -680.87463     82.31784 
   74000     135.1715   -110.37469   0.12230601   -110.25239   -1640.2535    4.3480303    4.3480303    4.3480303   -1640.2535   -2401.7318   -156.27593   -2362.7526    836.72463    1564.4562     742.1728    82.201113 
   74100    75.981439    -110.3215  0.068749602   -110.25275    1167.5159    4.3497896    4.3497896    4.3497896    1167.5159    332.89184    3315.6146   -145.95877   -891.94207   -1135.3535   -1400.4882    82.300931 
   74200    123.13009   -110.36354    0.1114107   -110.25213    -886.2969    4.3499388    4.3499388    4.3499388    -886.2969   -2307.6024    821.88814   -1173.1765   -173.70525   -393.55206     41.12978    82.309401 
   74300     101.6662   -110.34426   0.09198971   -110.25227    207.51177    4.3480798    4.3480798    4.3480798    207.51177   -1008.7769    3443.1743   -1811.8621    406.71894    468.39403   -797.42595     82.20392 
   74400    74.522442   -110.31998  0.067429472   -110.25255    895.04573    4.3500533    4.3500533    4.3500533    895.04573    273.60864    2022.2173    389.31131   -836.92945    -1071.872     670.0438      82.3159 
   74500    125.38242   -110.36575   0.11344865    -110.2523   -1025.2496    4.3491312    4.3491312    4.3491312   -1025.2496   -4337.3159    1657.7144    -396.1473    758.03114    285.90907   -61.791771    82.263564 
   74600    68.423313   -110.31459  0.061910851   -110.25268    2195.9021    4.3486803    4.3486803    4.3486803    2195.9021    1393.2157    4978.0974     216.3931   -1292.6317   -288.66346   -912.71421    82.237983 
   74700    117.49406   -110.35867   0.10631109   -110.25236    -2215.982    4.3501999    4.3501999    4.3501999    -2215.982   -3631.7195   -2046.2861   -969.94042    1043.7606   -252.44354     555.2377    82.324221 
   74800    81.600769   -110.32623  0.073834091   -110.25239    1835.8327    4.3481374    4.3481374    4.3481374    1835.8327   -1710.4852    8431.8971   -1213.9139   -1185.2867   -958.98007   -750.10507    82.207188 
   74900    124.19285   -110.36466    0.1123723   -110.25229   -1055.7986    4.3501842    4.3501842    4.3501842   -1055.7986   -1684.5758   -2916.7138    1433.8937    68.801027    345.03151   -773.21197     82.32333 
   75000    83.487232   -110.32833  0.075541002   -110.25278      809.331    4.3489963    4.3489963    4.3489963      809.331   -3835.2962    7937.9716   -1674.6824    170.68685   -1270.2043   -565.43268    82.255913 
   75100     111.2688   -110.35323   0.10067835   -110.25255    37.769184    4.3484409    4.3484409    4.3484409    37.769184   -1418.6147    1211.7736     320.1487   -882.24535   -2049.7466    416.58218      82.2244 
   75200    110.66623   -110.35239   0.10013313   -110.25226   -855.65299    4.3509376    4.3509376    4.3509376   -855.65299   -3960.9551    3600.4181    -2206.422    1212.8761    1689.2793    396.79291    82.366111 
   75300    86.349841   -110.33049  0.078131151   -110.25236   -89.030274    4.3482588    4.3482588    4.3482588   -89.030274   -2114.7401    3348.8413   -1501.1921   -989.82897   -1889.1523   -740.72139    82.214073 
   75400    109.20953   -110.35094  0.098815078   -110.25212    -632.6394    4.3491093    4.3491093    4.3491093    -632.6394   -3112.3681    2491.5017   -1277.0518    1432.4817   -1180.3524    465.58183     82.26232 
   75500    97.387352   -110.34025  0.088118123   -110.25213    -537.3035    4.3509428    4.3509428    4.3509428    -537.3035   -2826.2242    3274.7926   -2060.4789     -726.365    538.53202   -83.944721    82.366409 
   75600    93.887683   -110.33735  0.084951548    -110.2524   -1496.8823    4.3480071    4.3480071    4.3480071   -1496.8823   -2304.6622    521.90523     -2707.89    407.47374   -1799.9902   -202.40552    82.199793 
   75700    83.198726    -110.3276  0.075279956   -110.25232    107.56341    4.3497039    4.3497039    4.3497039    107.56341   -2328.6211    6702.5449   -4051.2336    588.45439    -124.9347   -682.71383     82.29607 
   75800    126.58281    -110.3666   0.11453478   -110.25207   -2075.4631    4.3503732    4.3503732    4.3503732   -2075.4631   -1853.1165    -3030.397   -1342.8757   -634.48577   -906.48181     81.35543     82.33406 
   75900    61.334394   -110.30832  0.055496649   -110.25283    1484.0476    4.3478617    4.3478617    4.3478617    1484.0476   -2402.6144    8499.4483   -1644.6911    1533.3138   -39.162686   -301.33921    82.191546 
   76000    134.08122   -110.37396   0.12131951   -110.25264   -2192.0399    4.3504186    4.3504186    4.3504186   -2192.0399   -1263.3675   -3131.0723   -2181.6799   -856.95864   -955.01039   -808.19032    82.336641 
   76100    84.444853   -110.32914  0.076407478   -110.25274    1762.8847    4.3488004    4.3488004    4.3488004    1762.8847   -1373.0923    5987.2912    674.45523    1854.4432    262.56435    336.32539    82.244797 
   76200    124.26572   -110.36497   0.11243824   -110.25254   -2300.3411    4.3492719    4.3492719    4.3492719   -2300.3411   -2355.3469   -1675.6758   -2870.0006    129.42139   -252.70731   -145.75694    82.271552 
   76300     79.61435   -110.32463  0.072036737   -110.25259    1996.8454    4.3496697    4.3496697    4.3496697    1996.8454    263.66029    3745.2391    1981.6368    658.11278   -2114.9188      1202.97    82.294124 
   76400    123.70375   -110.36397   0.11192975   -110.25204    308.04693    4.3481982    4.3481982    4.3481982    308.04693   -2336.0155    2699.5874     560.5689    829.00458    1954.3947   -1067.1694    82.210634 
   76500     88.13518   -110.33216  0.079746563   -110.25241    30.364915    4.3501145    4.3501145    4.3501145    30.364915   -367.80672    592.43334   -133.53188   -219.30497   -1357.2293    129.09157    82.319374 
   76600    70.375268   -110.31614  0.063677021   -110.25246     2103.306    4.3489515    4.3489515    4.3489515     2103.306   -1310.4248     6360.973    1259.3698    1030.2541   -626.94563    253.05991    82.253368 
   76700    144.11807   -110.38232   0.13040106   -110.25192   -1008.1546    4.3481149    4.3481149    4.3481149   -1008.1546   -1340.0415   -22.200082   -1662.2223   -1060.5574    407.83008   -668.77486    82.205909 
   76800    39.347161   -110.28835  0.035602138   -110.25275    3425.2791    4.3504023    4.3504023    4.3504023    3425.2791   -1051.8483    6549.1932    4778.4923     794.6765   -986.32214   -181.27594    82.335712 
   76900    151.09024   -110.38912   0.13670963   -110.25241   -2983.0345    4.3487752    4.3487752    4.3487752   -2983.0345   -3970.0217   -2236.5586   -2742.5231   -250.26627   -732.57822   -86.573842    82.243368 
   77000    64.464092   -110.31124  0.058328465   -110.25292    3884.8657    4.3480596    4.3480596    4.3480596    3884.8657   -592.57512    8379.7638    3867.4086    419.39423   -1639.0309    488.32513    82.202771 
   77100    142.37467   -110.38151   0.12882359   -110.25269   -4103.3628    4.3514995    4.3514995    4.3514995   -4103.3628   -4931.6619   -4774.3067   -2604.1198    506.18429    543.51999   -754.15771     82.39803 
   77200    67.791596   -110.31434  0.061339261   -110.25301    1608.4331     4.347726     4.347726     4.347726    1608.4331   -2997.3248    7326.1602    496.46387   -261.65484   -2757.9273   -318.91819    82.183855 
   77300    125.50656   -110.36573   0.11356098   -110.25217    -641.3472    4.3494671    4.3494671    4.3494671    -641.3472   -2925.5484    748.38828    253.11852    1092.2099   -256.72187    851.53939    82.282627 
   77400    102.30986   -110.34492  0.092572113   -110.25235   -2212.2226    4.3507256    4.3507256    4.3507256   -2212.2226   -4792.4937    627.96624   -2472.1402   -1074.9676   -580.97694   -206.09028    82.354071 
   77500    62.536863   -110.30927  0.056584668   -110.25268    120.76353    4.3481612    4.3481612    4.3481612    120.76353   -3041.1368    5400.5955   -1997.1681     1219.321   -3813.2406    236.12638    82.208533 
   77600    142.94612   -110.38123   0.12934066   -110.25189   -3116.3202    4.3503869    4.3503869    4.3503869   -3116.3202   -3576.7725   -1485.5517   -4286.6363   -685.27787    1532.5468   -433.72729    82.334841 
   77700    57.542704   -110.30455  0.052065847   -110.25248    949.04424    4.3491768    4.3491768    4.3491768    949.04424   -2274.4956    5751.7867   -630.15833    200.10178   -2409.1562    480.63246    82.266155 
   77800     119.6682   -110.36068    0.1082783    -110.2524   -3405.8853    4.3494264    4.3494264    4.3494264   -3405.8853   -4747.4112   -1518.5636   -3951.6809    509.89038   -1589.9807   -219.74403     82.28032 
   77900    88.524603   -110.33286  0.080098921   -110.25276    1196.1329    4.3498146    4.3498146    4.3498146    1196.1329   -1587.3729    6088.4571   -912.68547   -381.50561    253.64455    220.75187    82.302353 
   78000    117.14144   -110.35876   0.10599203   -110.25277   -1673.6269     4.348541     4.348541     4.348541   -1673.6269   -2477.1578   -145.96281   -2397.7602    1132.5099    -1565.465    542.51253    82.230081 
   78100    81.949595   -110.32722  0.074149715   -110.25307   -70.004608    4.3500292    4.3500292    4.3500292   -70.004608   -3815.2489    5765.0486   -2159.8135   -966.98949   -680.38784      928.408    82.314532 
   78200     115.9239   -110.35722   0.10489038   -110.25233    1148.3846    4.3492104    4.3492104    4.3492104    1148.3846    282.63605    2196.1873    966.33041     1026.295   -1671.7739    215.60557    82.268058 
   78300    107.20648    -110.3494  0.097002679    -110.2524    502.05672    4.3479685    4.3479685    4.3479685    502.05672   -2311.6454    4331.8689    -514.0533   -1003.7861    680.27408   -88.692138    82.197607 
   78400    86.922112    -110.3313  0.078648954   -110.25265   -517.02509    4.3508813    4.3508813    4.3508813   -517.02509   -1859.1479    1757.5228   -1449.4502    150.19895   -1779.0649    1119.8069    82.362912 
   78500    107.04196   -110.34917  0.096853811   -110.25232    1352.8994    4.3484137    4.3484137    4.3484137    1352.8994    1295.7625    2438.2797    324.65599   -581.18224   -1.7202162   -38.238754    82.222857 
   78600    110.33491    -110.3521  0.099833343   -110.25227    582.75838    4.3481447    4.3481447    4.3481447    582.75838   -1831.6636    4639.4836   -1059.5448   -798.17365    489.38275   -15.796806    82.207602 
   78700    68.846241   -110.31485  0.062293526   -110.25255     809.3456     4.350877     4.350877     4.350877     809.3456    773.91205   -420.85194    2074.9767    713.85091   -2371.6519   -253.38305     82.36267 
   78800    115.14005    -110.3563   0.10418114   -110.25212    687.60461    4.3480055    4.3480055    4.3480055    687.60461   -2329.2837    5734.9519   -1342.8543    -1159.867    1094.0223    -30.66954    82.199701 
   78900    102.58219   -110.34515  0.092818519   -110.25233    850.94858    4.3488274    4.3488274    4.3488274    850.94858    174.48521    837.09711    1541.2634    479.93828   -1267.3095   -275.44767    82.246325 
   79000    79.440469    -110.3246  0.071879406   -110.25272   -75.742037    4.3504561    4.3504561    4.3504561   -75.742037   -2040.1165    3740.2983   -1927.4079   -421.45406   -1038.3864   -566.64249    82.338771 
   79100    125.21094   -110.36548   0.11329349   -110.25219   -16.296113    4.3482394    4.3482394    4.3482394   -16.296113   -3080.3496    1913.8865    1117.5747    397.33007   -515.03379    829.99176    82.212968 
   79200    97.530792   -110.34056  0.088247911   -110.25232     1436.745    4.3493919    4.3493919    4.3493919     1436.745    456.75227    3490.4512    363.03139    -252.8941   -791.86463    377.45068    82.278357 
   79300    104.12021   -110.34672  0.094210155   -110.25251   -1920.7354    4.3498074    4.3498074    4.3498074   -1920.7354   -5415.8955    1310.2699   -1656.5807   -185.41151   -1038.3509   -70.562669    82.301942 
   79400    95.739798   -110.33932  0.086627381   -110.25269    595.31287    4.3487923    4.3487923    4.3487923    595.31287    -866.7614    4087.4612   -1434.7612    991.64423   -2359.4183    -363.0567    82.244334 
   79500    112.49379   -110.35436   0.10178675   -110.25258   -496.51036    4.3497593    4.3497593    4.3497593   -496.51036   -2799.6963    3804.1335   -2493.9683   -1091.8983    1014.7092   -114.78205     82.29921 
   79600     82.29559   -110.32729  0.074462779   -110.25283   -974.81761    4.3487901    4.3487901    4.3487901   -974.81761   -3210.1625    2717.6734   -2431.9637     737.0544   -2874.2075    110.77354    82.244211 
   79700    85.590208   -110.32984  0.077443819   -110.25239    200.23473    4.3498248    4.3498248    4.3498248    200.23473    -3179.476    6274.7032    -2494.523   -624.74758   -1166.9861    -611.2071    82.302928 
   79800    133.93507   -110.37319   0.12118727     -110.252   -2580.7295    4.3499268    4.3499268    4.3499268   -2580.7295   -4092.9491   -145.53075   -3503.7086     553.5081    642.44504    451.31138    82.308718 
   79900    54.047984   -110.30162  0.048903751   -110.25272    550.82123    4.3481645    4.3481645    4.3481645    550.82123   -2033.8278    7636.9513   -3950.6598   -367.01467   -4003.1599    139.28193    82.208724 
   80000    134.62938   -110.37395   0.12181549   -110.25214   -3212.3952    4.3509927    4.3509927    4.3509927   -3212.3952   -5456.9051   -217.14286   -3963.1375   -466.33383    560.48079    157.80737     82.36924 
   80100    102.54104   -110.34512  0.092781289   -110.25234    278.19391    4.3490743    4.3490743    4.3490743    278.19391    -736.7049    2708.8504   -1137.5637    257.33561   -1721.1767   -653.43018    82.260336 
   80200    84.575751   -110.32934  0.076525917   -110.25281   -641.66686    4.3483671    4.3483671    4.3483671   -641.66686    -3244.859    4812.6679   -3492.8095   -639.76694    -2040.597    1035.8705    82.220215 
   80300    124.10392   -110.36506   0.11229183   -110.25277   -2300.1819     4.351001     4.351001     4.351001   -2300.1819   -2830.2451   -1219.9034   -2850.3972    521.50299   -136.36449    -169.7004    82.369712 
   80400     79.37872   -110.32469  0.071823534   -110.25287    1972.9933    4.3484171    4.3484171    4.3484171    1972.9933    1115.6863    6286.8169   -1483.5232   -946.54535   -1232.3086   -451.93998    82.223049 
   80500    120.12411   -110.36157   0.10869082   -110.25288   -2731.3511    4.3489899    4.3489899    4.3489899   -2731.3511   -3684.0374    39.736754   -4549.7527     610.6896   -570.79174   -555.06796    82.255548 
   80600    57.415203   -110.30487  0.051950482   -110.25292    2580.7726    4.3500209    4.3500209    4.3500209    2580.7726    2234.2472    4291.6706       1216.4   -469.32617    -1672.052   -716.47904     82.31406 
   80700    148.45451   -110.38636   0.13432476   -110.25203   -1865.5689    4.3488902    4.3488902    4.3488902   -1865.5689   -2707.1476   -90.219499   -2799.3395   -428.94697      769.297    261.51181     82.24989 
   80800    58.167115   -110.30538  0.052630828   -110.25275    2005.3375    4.3488465    4.3488465    4.3488465    2005.3375    1050.4614     5807.654   -842.10282    16.075222   -1622.2429   -1419.5172    82.247412 
   80900    110.38436   -110.35212  0.099878084   -110.25224   -135.64273    4.3496607    4.3496607    4.3496607   -135.64273    589.78908    269.11333   -1265.8306    218.08743   -709.34474    680.39561    82.293613 
   81000    124.86553   -110.36512   0.11298096   -110.25214    635.59528    4.3488189    4.3488189    4.3488189    635.59528   -2101.0363     4115.594   -107.77188     647.2214    931.76628    77.826274    82.245845 
   81100    63.183206   -110.30991  0.057169493   -110.25274    2825.6217    4.3491473    4.3491473    4.3491473    2825.6217    2784.6935     4443.785    1248.3866   -175.87005   -2284.4714   -357.52998    82.264479 
   81200    134.89743   -110.37432   0.12205803   -110.25227   -839.64479     4.348917     4.348917     4.348917   -839.64479   -3166.4282    1466.7426    -819.2488    758.59443    60.543803    169.67823     82.25141 
   81300    86.416172   -110.33061  0.078191169   -110.25242    2834.1543    4.3489794    4.3489794    4.3489794    2834.1543    1123.3136    7186.1095    193.03996    7.4988717    -616.9539   -599.20904    82.254949 
   81400    111.75277   -110.35379   0.10111626   -110.25268   -1417.1234    4.3498856    4.3498856    4.3498856   -1417.1234   -2107.0618   -1014.8193   -1129.4892   -118.25005   -1001.4273    946.76913     82.30638 
   81500    83.402991   -110.32818  0.075464779   -110.25272    1485.8837    4.3480099    4.3480099    4.3480099    1485.8837   -2085.3503     8540.203   -1997.2017   -134.78863   -945.61358   -1229.2146    82.199955 
   81600    119.82823   -110.36059    0.1084231   -110.25216   -448.10334    4.3500616    4.3500616    4.3500616   -448.10334   -1348.8341    -1314.016    1318.5401   -86.660138   -714.43572    44.426615    82.316374 
   81700    83.912688   -110.32836  0.075925963   -110.25244   -827.27118      4.34983      4.34983      4.34983   -827.27118   -4631.1249    6556.8229   -4407.5116    234.00927   -445.42351   -134.17647    82.303227 
   81800    89.235083   -110.33316  0.080741779   -110.25242   -229.76777    4.3480381    4.3480381    4.3480381   -229.76777   -1604.1562    2430.6566   -1515.8037    -430.6229    -2649.043   -483.82332    82.201556 
   81900    118.23994   -110.35905   0.10698599   -110.25207   -1376.5195    4.3505596    4.3505596    4.3505596   -1376.5195   -4105.4396    3398.6679   -3422.7869    606.33199    738.55248   -83.249566    82.344645 
   82000    81.086155   -110.32586  0.073368457   -110.25249   -747.14391    4.3495877    4.3495877    4.3495877   -747.14391   -4063.8651    3492.9439   -1670.5105   -260.95487   -2292.2847   -708.02736     82.28947 
   82100    103.04618   -110.34563  0.093238346    -110.2524   -842.62921    4.3483853    4.3483853    4.3483853   -842.62921   -2917.7514    3451.9955   -3062.1317    791.07321   -2073.1029    1232.0457    82.221244 
   82200    116.10045   -110.35705   0.10505013     -110.252   -958.30036    4.3504961    4.3504961    4.3504961   -958.30036   -4054.4934    3459.1593    -2279.567   -165.25093    950.56892   -1533.5442    82.341038 
   82300     99.80167   -110.34278  0.090302649   -110.25248   -2263.8457    4.3494842    4.3494842    4.3494842   -2263.8457   -3623.0887    967.92713   -4136.3755     43.05767    -3404.046    107.88997      82.2836 
   82400    84.507389   -110.32926  0.076464062    -110.2528   -290.39029    4.3488567    4.3488567    4.3488567   -290.39029   -3832.3513    6916.9775   -3955.7971     25.70278   -659.28293   -587.27978     82.24799 
   82500    135.82128   -110.37534   0.12289395   -110.25244   -1766.4506    4.3501078    4.3501078    4.3501078   -1766.4506   -2273.7186   -1519.8285   -1505.8047   -277.09507   -468.58812    6.8052377    82.318993 
   82600    55.289793   -110.30296  0.050027366   -110.25293    1254.0301    4.3489034    4.3489034    4.3489034    1254.0301   -3395.0614    10271.404   -3114.2525    302.24715   -2088.7364   -357.76987    82.250639 
   82700    125.63733   -110.36622    0.1136793   -110.25255   -2906.0223    4.3498058    4.3498058    4.3498058   -2906.0223   -2902.6571   -2106.1558   -3709.2539   -36.736274   -542.08605   -920.20068    82.301849 
   82800    71.252224   -110.31702   0.06447051   -110.25255    2957.4601    4.3486899    4.3486899    4.3486899    2957.4601    857.78412    9072.9544   -1058.3582     927.7909   -566.04607    1221.8885    82.238527 
   82900    127.00683   -110.36742   0.11491845    -110.2525   -2460.7184    4.3495372    4.3495372    4.3495372   -2460.7184   -4217.5557   -235.37419   -2929.2252    -264.2052   -293.65899   -1220.4891    82.286608 
   83000    67.876304    -110.3143  0.061415906   -110.25289    2199.3257    4.3495762    4.3495762    4.3495762    2199.3257    1116.3261    4226.3409    1255.3102    680.35989    -1639.453    1192.3624    82.288822 
   83100    128.22853   -110.36805   0.11602387   -110.25203    967.76174    4.3481942    4.3481942    4.3481942    967.76174   -713.69161    4264.0326   -647.05574   -87.443456    298.40274    213.03558    82.210406 
   83200    110.51496   -110.35224  0.099996255   -110.25225   -610.78327    4.3496952    4.3496952    4.3496952   -610.78327   -2027.1565    326.24048   -131.43384   -172.11253   -873.67106    659.37933    82.295572 
   83300    60.948361   -110.30782  0.055147358   -110.25267    2310.3247    4.3497684    4.3497684    4.3497684    2310.3247    1073.7598     5994.753   -137.53866   -61.889184   -1353.2045    363.03812    82.299727 
   83400    164.28675    -110.4007    0.1486501   -110.25205   -1392.4066    4.3479886    4.3479886    4.3479886   -1392.4066   -3055.7181    -1015.773   -105.72866   -129.32287    881.15977   -1188.5297    82.198748 
   83500    37.453907   -110.28681  0.033889082   -110.25292    4175.4683    4.3494842    4.3494842    4.3494842    4175.4683    1098.1522    8464.0079    2964.2447    382.59216   -1747.5371    1375.3573      82.2836 
   83600    142.45586   -110.38126   0.12889706   -110.25236   -3826.2345    4.3503946    4.3503946    4.3503946   -3826.2345   -4185.3893   -3825.7787   -3467.5354   -497.77142   -372.77997    -493.1403    82.335278 
   83700     61.10766   -110.30795  0.055291495   -110.25265    4028.1205    4.3473386    4.3473386    4.3473386    4028.1205    58.312155    8945.8126    3080.2366    1185.2138   -84.807408    645.62024    82.161887 
   83800     130.9389   -110.37102   0.11847627   -110.25254   -2854.9088    4.3505953    4.3505953    4.3505953   -2854.9088   -1531.4976   -3023.6482   -4009.5805   -52.204793   -792.43265   -234.18874    82.346675 
   83900    64.126772   -110.31113  0.058023251   -110.25311    1106.4885    4.3491953    4.3491953    4.3491953    1106.4885   -4404.8263    6522.9985    1201.2932    498.66578   -1260.8249    1286.6486      82.2672 
   84000    121.12772   -110.36203    0.1095989   -110.25243    332.11891    4.3484243    4.3484243    4.3484243    332.11891    226.37799    1534.5286   -764.54985    696.73135   -516.16638    301.08167    82.223459 
   84100    107.85409   -110.34997  0.097588646   -110.25238   -1101.0683    4.3502675    4.3502675    4.3502675   -1101.0683   -4548.3689    3388.0843   -2142.9204   -208.95988   -104.15444   -584.06426    82.328063 
   84200    73.032999   -110.31864  0.066081792   -110.25255   -126.76871    4.3490092    4.3490092    4.3490092   -126.76871   -3551.3157    5065.9092   -1894.8996    1266.3694   -2940.3339    1339.5319    82.256641 
   84300    140.10074   -110.37872   0.12676609   -110.25195   -1772.4493    4.3495867    4.3495867    4.3495867   -1772.4493   -2564.7722   -174.16871    -2578.407   -557.26166    35.416877   -28.848373    82.289414 
   84400    79.061611   -110.32395  0.071536607   -110.25242    1058.6034    4.3492613    4.3492613    4.3492613    1058.6034    -4167.717    8330.9186   -987.39137    1043.5315   -1300.1344     724.1288    82.270947 
   84500    107.35223   -110.34954  0.097134551    -110.2524   -2571.0933    4.3494144    4.3494144    4.3494144   -2571.0933   -3717.0205   -711.14633   -3285.1129   -5.6818329   -2497.0336   -732.78101    82.279634 
   84600     92.20808   -110.33574  0.083431809    -110.2523    250.99163    4.3500377    4.3500377    4.3500377    250.99163   -3215.7817     6720.595   -2751.8384    628.64598    740.60143    1065.1354    82.315017 
   84700     111.7715   -110.35344    0.1011332   -110.25231   -1617.0879    4.3487174    4.3487174    4.3487174   -1617.0879   -2014.0814    334.08043   -3171.2628   -65.585521    -1805.498     171.1107    82.240086 
   84800    67.106043   -110.31364  0.060718958   -110.25292   -212.82248    4.3494011    4.3494011    4.3494011   -212.82248   -3412.6903    7325.2794   -4551.0565   -269.04347   -1066.6348    524.96498    82.278881 
   84900    119.20394   -110.36034   0.10785823   -110.25249   -969.48444     4.350359     4.350359     4.350359   -969.48444   -1765.8923   -977.32907   -165.23196    1123.3567    178.17209    994.85499    82.333256 
   85000    94.010756   -110.33772  0.085062908   -110.25265    593.90358     4.348015     4.348015     4.348015    593.90358   -1058.9817     6312.286   -3471.5936   -1021.6997    -1555.292    -348.1169    82.200242 
   85100    94.128215   -110.33777  0.085169187    -110.2526   -1557.7378    4.3500851    4.3500851    4.3500851   -1557.7378    -3596.427    707.95132   -1784.7377    727.67069   -1059.7162    1149.6568    82.317705 
   85200    114.84137   -110.35606   0.10391089   -110.25215   -453.05138    4.3500283    4.3500283    4.3500283   -453.05138    604.71913    280.01596   -2243.8892   -547.01154   -107.26993   -1727.7295    82.314483 
   85300    108.58459   -110.35032  0.098249616   -110.25207    742.47158    4.3479879    4.3479879    4.3479879    742.47158   -2947.0508    4883.3366    291.12892    747.01631   -152.58677    843.80057    82.198706 
   85400    93.382898   -110.33686  0.084494808   -110.25236   -307.50691    4.3501251    4.3501251    4.3501251   -307.50691    486.13771   -763.15533   -645.50311   -273.59986    -1703.682    144.79069    82.319978 
   85500    98.993718   -110.34169  0.089571597   -110.25211    976.52279    4.3492575    4.3492575    4.3492575    976.52279   -1259.3392    4812.1173   -623.20976   -79.583477    193.86929   -421.48813    82.270734 
   85600    113.51636   -110.35471   0.10271199   -110.25199   -38.251109    4.3486024    4.3486024    4.3486024   -38.251109   -285.85402   -819.54678    990.64747    1007.5194   -87.027774    256.38557    82.233561 
   85700    63.135405   -110.30975  0.057126242   -110.25262    1395.5278    4.3496012    4.3496012    4.3496012    1395.5278    1149.1634     6791.981   -3754.5611   -831.82846   -1352.7306   -513.71501     82.29024 
   85800    123.51849   -110.36406   0.11176213    -110.2523   -291.40733    4.3489495    4.3489495    4.3489495   -291.40733   -2499.5742   -665.41198    2290.7641    1108.0514    270.61728    1288.4686    82.253252 
   85900    84.936517    -110.3295  0.076852346   -110.25265    2332.1624    4.3491008    4.3491008    4.3491008    2332.1624     1972.961    5186.0359    -162.5099    -810.2013    -538.7515   -1638.0245    82.261841 
   86000    105.68894   -110.34838  0.095629574   -110.25275   -1156.6723    4.3494249    4.3494249    4.3494249   -1156.6723   -2914.9642    1503.2106   -2058.2635    1058.4363   -594.29628    1352.8146    82.280235 
   86100    101.02514   -110.34399   0.09140967   -110.25258    686.28125    4.3487221    4.3487221    4.3487221    686.28125   -638.07607    1750.4416    946.47823    109.26908   -519.73884   -159.71633    82.240355 
   86200    113.99814   -110.35542   0.10314792   -110.25227    176.12436    4.3499861    4.3499861    4.3499861    176.12436   -1428.8032    4036.6231   -2079.4468   -447.46425   -627.27145    13.800356    82.312085 
   86300    100.78065   -110.34366  0.091188454   -110.25247   -617.60394    4.3488413    4.3488413    4.3488413   -617.60394   -3157.1862    851.64842    452.72595    296.82392   -1673.0532   -97.204653    82.247119 
   86400    84.524087   -110.32884   0.07647917   -110.25236    1240.4797    4.3489286    4.3489286    4.3489286    1240.4797   -810.16418    5585.8292   -1054.2261   -916.65144   -418.87985   -330.74965     82.25207 
   86500    134.13049   -110.37329   0.12136408   -110.25192    -2537.429    4.3505696    4.3505696    4.3505696    -2537.429   -3344.1345   -1760.0155    -2508.137    542.66147    150.23123    1210.8531    82.345214 
   86600     54.86483    -110.3022  0.049642851   -110.25256    794.88053    4.3483168    4.3483168    4.3483168    794.88053   -972.06641    5474.2435   -2117.5355   -1538.9798   -2385.6038   -1034.5612    82.217361 
   86700     126.2963   -110.36643   0.11427555   -110.25216   -2742.9254    4.3498579    4.3498579    4.3498579   -2742.9254    -2949.177    250.08784   -5529.6871     721.9732   -207.16584    1222.9495    82.304809 
   86800    85.585048    -110.3301   0.07743915   -110.25266    557.39599     4.349868     4.349868     4.349868    557.39599   -905.78204    1894.5789    683.39111   -399.75238   -42.283575   -982.38472     82.30538 
   86900    96.398619   -110.34018  0.087223497   -110.25295    -1849.035    4.3488497    4.3488497    4.3488497    -1849.035   -3129.8286    3130.2059   -5547.4822   -214.35089    -2249.917    687.13984    82.247595 
   87000    103.58055   -110.34668  0.093721861   -110.25296   -1151.2557    4.3498109    4.3498109    4.3498109   -1151.2557   -1547.7311     85.09847   -1991.1344    17.404904   -94.470865   -414.67202    82.302139 
   87100    94.032665   -110.33759  0.085082732   -110.25251    825.85465    4.3492979    4.3492979    4.3492979    825.85465   -282.03443    5596.0198   -2836.4215   -822.52512   -229.77887   -1287.6251    82.273025 
   87200    122.56315   -110.36337   0.11089771   -110.25247   -2226.1461    4.3493919    4.3493919    4.3493919   -2226.1461   -4413.2602   -132.67495   -2132.5032    700.60398   -908.22498    1433.3725    82.278362 
   87300     69.92121   -110.31594  0.063266181   -110.25268     2528.631    4.3491766    4.3491766    4.3491766     2528.631     2272.977    6438.3534   -1125.4376   -1185.8931   -234.89419   -1883.2552    82.266143 
   87400    146.10968   -110.38428   0.13220311   -110.25208   -1589.7002    4.3492249    4.3492249    4.3492249   -1589.7002   -3228.6012   -294.78097   -1245.7185    716.66301   -588.71241    289.72732    82.268883 
   87500    72.333292   -110.31804  0.065448682   -110.25259    944.10145     4.349503     4.349503     4.349503    944.10145    271.87668    4590.0899   -2029.6623   -811.00911   -1026.7358   -1439.6338    82.284667 
   87600    99.440521   -110.34231  0.089975873   -110.25234    152.27795    4.3492007    4.3492007    4.3492007    152.27795    369.01937    2936.7526   -2848.9381    423.02878   -192.02849    540.40808     82.26751 
   87700    121.01547    -110.3617   0.10949734    -110.2522    170.85167    4.3488184    4.3488184    4.3488184    170.85167   -1708.7221    2529.2163   -307.93922    219.94777    -14.80075   -138.51952    82.245818 
   87800    57.265626   -110.30474  0.051815142   -110.25293    1995.1615    4.3496679    4.3496679    4.3496679    1995.1615    1310.2786    4646.9149    28.290946    -483.8316   -1342.7632   -1193.7187    82.294023 
   87900    129.98971   -110.37037   0.11761742   -110.25276   -2083.4691      4.34913      4.34913      4.34913   -2083.4691   -3365.7684   -23.644573   -2860.9944    831.51064     71.07951    1753.6406    82.263494 
   88000    66.507788   -110.31295  0.060177644   -110.25277    3491.7864    4.3484567    4.3484567    4.3484567    3491.7864    1563.9615    6969.8704    1941.5273   -1263.6995    404.84854   -2101.4972    82.225297 
   88100     139.5946   -110.37869   0.12630813   -110.25238   -3326.3818    4.3505015    4.3505015    4.3505015   -3326.3818   -4041.2517   -2697.6751   -3240.2187     675.2082   -1380.4998    266.91739    82.341347 
   88200    66.336692   -110.31279  0.060022833   -110.25277    2308.2094    4.3485157    4.3485157    4.3485157    2308.2094   -1508.3638    5985.8452    2447.1469   -1599.7167   -807.02669   -1015.9471    82.228645 
   88300    138.98785   -110.37783   0.12575913   -110.25207   -981.69003    4.3491946    4.3491946    4.3491946   -981.69003   -842.76193   -2074.8043   -27.503879    752.40887    563.50232    374.29381    82.267161 
   88400     94.66857   -110.33819  0.085658112   -110.25253    -719.8128    4.3499456    4.3499456    4.3499456    -719.8128   -4756.4953    4063.5501   -1466.4932   -581.23388   -772.26752    -432.9324    82.309789 
   88500    79.245464   -110.32431  0.071702961   -110.25261    144.96665    4.3490805    4.3490805    4.3490805    144.96665   -530.11899    696.51186    268.50708   -276.52298   -1073.9216   -1110.1809    82.260687 
   88600     132.1409   -110.37155   0.11956387   -110.25199   -1602.4256    4.3494478    4.3494478    4.3494478   -1602.4256   -4082.1603     2578.133   -3303.2496    1185.3836   -276.57949      1157.51     82.28153 
   88700     59.40808   -110.30627  0.053753679   -110.25252    1294.6182    4.3492973    4.3492973    4.3492973    1294.6182   -1120.0516     3085.153    1918.7531   -1490.7205    -1091.683   -1089.9867    82.272992 
   88800    116.54303   -110.35782   0.10545058   -110.25237   -2895.8514    4.3498341    4.3498341    4.3498341   -2895.8514   -4952.6197   -495.84142   -3239.0932    1625.6085   -732.40518    1233.7043     82.30346 
   88900      80.8147   -110.32556  0.073122839   -110.25243    1446.5082    4.3489378    4.3489378    4.3489378    1446.5082   -972.54695    6176.5999   -864.52827      -1419.1    78.167037   -1331.8939    82.252591 
   89000    120.93099   -110.36173    0.1094209    -110.2523   -2433.0206    4.3495038    4.3495038    4.3495038   -2433.0206   -3015.0499   -1507.9632   -2776.0488    827.84066   -1136.1202    421.94341    82.284709 
   89100    74.022514   -110.31957  0.066977126   -110.25259    447.33009    4.3496762    4.3496762    4.3496762    447.33009   -4641.0943     7295.025   -1311.9404   -124.56094   -187.69018    218.33179    82.294498 
   89200    132.29199   -110.37176   0.11970058   -110.25206   -632.43676     4.349145     4.349145     4.349145   -632.43676    915.17453   -2415.6796   -396.80524   -166.90202    626.59228   -1337.6217    82.264349 
   89300    87.316399   -110.33145  0.079005713   -110.25245     1151.499    4.3488637    4.3488637    4.3488637     1151.499   -4519.0734    9107.8268   -1134.2565    1169.1617   -1729.1156    506.73507    82.248385 
   89400    109.70258   -110.35183  0.099261199   -110.25257   -1683.9655    4.3500802    4.3500802    4.3500802   -1683.9655   -1164.3306   -1821.1237   -2066.4424   -1026.3991   -779.37785     185.2306    82.317431 
   89500    94.301336   -110.33776   0.08532583   -110.25243     1437.244    4.3489711    4.3489711    4.3489711     1437.244   -338.83421     5238.211   -587.64478    2122.8363    339.33347    2067.5413     82.25448 
   89600    115.46263   -110.35668   0.10447301    -110.2522     -544.004    4.3489637    4.3489637    4.3489637     -544.004   -3224.9018    2710.6001   -1117.7103   -1043.6834   -796.99378   -1363.1955    82.254063 
   89700    74.105151   -110.31955  0.067051898    -110.2525    659.35907    4.3496024    4.3496024    4.3496024    659.35907    739.81965   -220.06675    1458.3243    1224.5012   -929.06582    1433.8319    82.290308 
   89800    108.66812    -110.3505  0.098325195   -110.25217    42.658556    4.3492623    4.3492623    4.3492623    42.658556   -3625.9148    5972.7074   -2218.8169    23.502565    141.45091    505.14602    82.271004 
   89900    102.95918   -110.34544  0.093159626   -110.25228   -29.969841    4.3488811    4.3488811    4.3488811   -29.969841   -502.57344   -1369.6896    1782.3536   -242.98337   -299.94482   -734.42242    82.249372 
   90000    69.166523   -110.31515  0.062583323   -110.25257    830.44184    4.3494595    4.3494595    4.3494595    830.44184   -2584.9507    7194.3738   -2118.0976    1335.8477    -699.9838    551.94847    82.282196 
   90100     135.9778   -110.37507   0.12303557   -110.25204   -1410.7324    4.3497138    4.3497138    4.3497138   -1410.7324   -3999.7047   -3425.8326    3193.3402   -1134.0807   -13.906376   -221.75139    82.296628 
   90200    72.568629   -110.31811   0.06566162   -110.25245    2973.6744    4.3483912    4.3483912    4.3483912    2973.6744   -484.63542    8187.6729    1217.9858    2196.0831   -339.19247    842.59542     82.22158 
   90300    131.61491   -110.37159   0.11908794    -110.2525   -2894.8074    4.3499362    4.3499362    4.3499362   -2894.8074   -5828.4958   -1601.9322   -1253.9942   -903.29576   -411.37139   -1112.1608    82.309255 
   90400    78.296137   -110.32369   0.07084399   -110.25285    1815.7545    4.3494755    4.3494755    4.3494755    1815.7545   -1895.2648    4044.9042     3297.624    1845.6363    366.78758    534.30927    82.283106 
   90500    130.87711   -110.37087   0.11842036   -110.25245   -1213.6684    4.3489807    4.3489807    4.3489807   -1213.6684   -3797.6804    1963.0484   -1806.3732    409.66653   -1219.9875    32.680793    82.255024 
   90600    79.124038    -110.3243  0.071593092   -110.25271    363.76371    4.3492828    4.3492828    4.3492828    363.76371   -3637.1678    1720.2518    3008.2072   -178.67605   -1304.1385    898.89546    82.272169 
   90700    91.879147    -110.3354  0.083134183   -110.25226    206.09953    4.3496387    4.3496387    4.3496387    206.09953   -3657.1836    4700.6387   -425.15646    2496.3154    425.75369    214.47553    82.292366 
   90800    123.44032   -110.36377    0.1116914   -110.25208   -1842.0513    4.3493031    4.3493031    4.3493031   -1842.0513   -3828.6048    68.927078   -1766.4762   -1278.4668   -635.94995   -629.19155    82.273321 
   90900    53.446388   -110.30094  0.048359415   -110.25258    974.04109    4.3490798    4.3490798    4.3490798    974.04109   -3921.0581    7575.5647   -732.38335    2278.6776   -1209.4812    1294.7544    82.260648 
   91000    132.87982    -110.3723   0.12023246   -110.25207   -3004.4803    4.3499932    4.3499932    4.3499932   -3004.4803   -4453.5754   -2870.4056   -1689.4599   -174.40271    197.91771    -174.8895    82.312487 
   91100    83.249737   -110.32768  0.075326111   -110.25235    1353.3654    4.3491917    4.3491917    4.3491917    1353.3654   -2962.5127    6545.9873    476.62162    721.12641    9.6090348    586.66388    82.266997 
   91200    110.34744   -110.35234  0.099844682    -110.2525   -1826.0621    4.3491853    4.3491853    4.3491853   -1826.0621    -4076.952    877.35239   -2278.5866    977.85558   -1203.6389   -5.9212562    82.266635 
   91300    99.282176   -110.34269  0.089832599   -110.25286   -472.01161    4.3495183    4.3495183    4.3495183   -472.01161   -2755.1813    2505.0884    -1165.942   -636.49693   -201.70241    2718.2916    82.285533 
   91400    108.76512   -110.35108   0.09841297   -110.25267   -64.947408    4.3496991    4.3496991    4.3496991   -64.947408   -1851.7657    2585.5524    -928.6289    1470.0146   -655.92546   -133.86013    82.295796 
   91500    105.97146   -110.34868  0.095885206    -110.2528    -797.2523    4.3487428    4.3487428    4.3487428    -797.2523   -3089.8014    1800.5763   -1102.5318   -1115.5211    -692.9677    416.09281    82.241526 
   91600    76.462087   -110.32183  0.069184503   -110.25265    1598.2342    4.3491219    4.3491219    4.3491219    1598.2342    558.29367     3561.937    674.47191     1537.793     330.7459    2759.6489    82.263035 
   91700    136.94446   -110.37592   0.12391023   -110.25201   -2076.6096    4.3502267    4.3502267    4.3502267   -2076.6096   -3376.6846    562.62417   -3415.7685   -634.25666   -761.45723   -319.86173    82.325746 
   91800    58.797826   -110.30579  0.053201509   -110.25259    1700.1529    4.3482979    4.3482979    4.3482979    1700.1529   -954.46486    5695.7608    359.16259    260.90643   -760.46186    2195.3129    82.216287 
   91900    118.93861   -110.35979   0.10761815   -110.25217   -1659.5405    4.3495914    4.3495914    4.3495914   -1659.5405   -125.42689   -508.89123   -4344.3035    596.47157     526.1792   -482.78752    82.289682 
   92000    90.533767   -110.33415  0.081916855   -110.25224     1512.279    4.3496915    4.3496915    4.3496915     1512.279   -3385.1218    5439.0923    2482.8665   -956.34408   -118.60399    1368.0196    82.295366 
   92100    99.594879   -110.34247  0.090115539   -110.25236    73.789097    4.3486397    4.3486397    4.3486397    73.789097    463.31396    2037.4973   -2279.4439    964.13951   -767.86947    53.436477     82.23568 
   92200    95.185401   -110.33863  0.086125751   -110.25251    613.35019    4.3492314    4.3492314    4.3492314    613.35019   -1573.2224    4975.2112   -1561.9382   -990.17035    408.57566   -152.75373     82.26925 
   92300    116.02519   -110.35727   0.10498203   -110.25229    221.31991    4.3496218    4.3496218    4.3496218    221.31991   -2372.2897    1663.2593    1372.9901    983.12757    430.40829    992.87369    82.291409 
   92400      100.836   -110.34398  0.091238531   -110.25274    395.15089    4.3489021    4.3489021    4.3489021    395.15089    103.93904    3577.0272   -2495.5135   -815.24086   -1079.3812   -455.52524    82.250565 
   92500    94.125941   -110.33793   0.08516713   -110.25277    1256.2691    4.3489163    4.3489163    4.3489163    1256.2691   -2986.3321    4545.7789    2209.3605    1036.6095   -633.77773    2271.9862    82.251369 
   92600    122.18957   -110.36274   0.11055969   -110.25218   -336.87262    4.3495513    4.3495513    4.3495513   -336.87262   -379.01469   -182.95233   -448.65083     395.4218    68.178647   -1610.9493    82.287406 
   92700    81.934001   -110.32657  0.074135606   -110.25243    139.68059    4.3494662    4.3494662    4.3494662    139.68059   -3598.3164     7028.545   -3011.1869   -249.18563   -975.27482    1297.0823    82.282576 
   92800    100.90995   -110.34356  0.091305447   -110.25225   -1115.6686    4.3491164    4.3491164    4.3491164   -1115.6686   -2417.0207   -1387.9199    457.93475    1130.5105    -167.5521    311.12644    82.262724 
   92900    98.402085   -110.34113  0.089036275    -110.2521    165.24744    4.3493369    4.3493369    4.3493369    165.24744   -1738.7944    4528.0312   -2293.4945   -876.88938   -422.37573   -243.37059    82.275237 
   93000    94.204137   -110.33755  0.085237882   -110.25232   -998.58212    4.3501038    4.3501038    4.3501038   -998.58212   -4942.0597    1602.8199    343.49345    721.66117   -944.96709    895.76637    82.318766 
   93100     93.19204   -110.33671  0.084322116   -110.25238   -795.23577      4.34883      4.34883      4.34883   -795.23577    -1428.638    1058.1652   -2015.2345   -755.09902    113.70933   -515.37077    82.246478 
   93200    107.21393    -110.3491  0.097009412   -110.25209   -661.27821    4.3493098    4.3493098    4.3493098   -661.27821   -2995.5905    2638.3864   -1626.6304    69.959482    -454.7602    2113.6604    82.273698 
   93300    107.82305   -110.35006  0.097560564    -110.2525   -1760.7294    4.3503675    4.3503675    4.3503675   -1760.7294   -3120.9981   -1253.1278   -908.06244   -396.50679   -1266.9437   -1783.1403    82.333737 
   93400    87.328188   -110.33192   0.07901638   -110.25291    317.92117    4.3485882    4.3485882    4.3485882    317.92117   -1927.1579    3807.4038   -926.48238    117.86314    63.007267    2991.2498    82.232758 
   93500    123.39411   -110.36419   0.11164959   -110.25254   -673.99371    4.3492944    4.3492944    4.3492944   -673.99371   -976.78465   -1408.8586    363.66214    383.36897    407.45512     80.68143    82.272825 
   93600    88.426504   -110.33259  0.080010159   -110.25258   -305.54411    4.3501832    4.3501832    4.3501832   -305.54411   -3445.1681    5051.8351   -2523.2994   -1120.5433   -1080.6093    -439.7869    82.323277 
   93700    101.96756   -110.34467  0.092262392    -110.2524   -1457.1129     4.348876     4.348876     4.348876   -1457.1129   -1569.4719   -2420.4054   -381.46135    884.96838   -395.54965    1647.4882    82.249082 
   93800    97.158787   -110.34007  0.087911312   -110.25215    744.51842    4.3489989    4.3489989    4.3489989    744.51842   -126.32422     5389.661   -3029.7815   -995.93216    345.63005   -1499.2742    82.256057 
   93900    99.152153    -110.3419  0.089714951   -110.25218   -262.67474    4.3500896    4.3500896    4.3500896   -262.67474   -3449.7101    491.45513    2170.2307    45.747573   -510.62162    1476.4145     82.31796 
   94000    92.233511    -110.3358  0.083454819   -110.25234   -112.05029    4.3489199    4.3489199    4.3489199   -112.05029    4.5400364    2762.2196   -3102.9105   -524.02552    48.378228    -1318.198    82.251576 
   94100    91.677741   -110.33509  0.082951947   -110.25214    1593.8371    4.3487347    4.3487347    4.3487347    1593.8371    63.283413    5027.4916   -309.26378   -178.62205    367.80847    923.06448    82.241068 
   94200    127.17236   -110.36714   0.11506822   -110.25207   -1540.1611    4.3498763    4.3498763    4.3498763   -1540.1611   -2594.9674   -913.90705   -1111.6087     201.7499    -232.2364   -175.61242    82.305854 
   94300    60.237421   -110.30731  0.054504085   -110.25281    2681.8829    4.3488923    4.3488923    4.3488923    2681.8829    1494.5034    7978.8645   -1427.7192   -516.59804    389.39296   -122.06227    82.250009 
   94400    149.28561   -110.38752   0.13507675   -110.25245    -947.4162    4.3489779    4.3489779    4.3489779    -947.4162   -2226.2595   -1849.0736    1233.0845    821.39768   -316.04245    649.89645    82.254864 
   94500    65.538943   -110.31214  0.059301013   -110.25284    3164.1915    4.3489708    4.3489708    4.3489708    3164.1915    1280.4342    8534.2021   -322.06164   -1052.4446   -356.82691   -1304.5463    82.254466 
   94600    135.38816   -110.37497   0.12250206   -110.25246    -3470.559    4.3500996    4.3500996    4.3500996    -3470.559   -4002.7106   -2886.0245   -3522.9418    954.47376   -198.71381    2278.2096    82.318529 
   94700    68.795909   -110.31481  0.062247984   -110.25256    2615.0104    4.3485582    4.3485582    4.3485582    2615.0104    491.92461    5661.5912    1691.5155   -631.82593    151.96826   -1253.4432    82.231056 
   94800    130.74375    -110.3704   0.11829969    -110.2521   -1815.2185    4.3493724    4.3493724    4.3493724   -1815.2185   -2231.4561    191.24015   -3405.4395   -172.53913    -624.4453    154.93422    82.277253 
   94900    69.466972   -110.31547  0.062855176   -110.25262    168.87514    4.3499938    4.3499938    4.3499938    168.87514   -3567.1524    3433.7212    640.05662    252.70561   -1124.1487    262.76284    82.312522 
   95000    98.650588   -110.34152  0.089261125   -110.25226   -365.60169     4.348922     4.348922     4.348922   -365.60169   -255.17619    1107.0134   -1948.6423   -742.19894    642.88564     34.73653    82.251694 
   95100    116.06842   -110.35704   0.10502114   -110.25202   -1568.0294    4.3490723    4.3490723    4.3490723   -1568.0294    -3552.209    1402.4491   -2554.3283    781.58618   -989.58509    156.91566    82.260224 
   95200    62.178794   -110.30877  0.056260679   -110.25251    479.64477    4.3502143    4.3502143    4.3502143    479.64477   -1833.0833    3699.1746   -427.15693   -975.71576    -754.2516   -761.50804    82.325043 
   95300     139.4546   -110.37832   0.12618145   -110.25214   -2152.0764    4.3492904    4.3492904    4.3492904   -2152.0764   -3182.7304   -2922.7878   -350.71099    1247.8913    447.90342    2422.7789      82.2726 
   95400    73.863086   -110.31943  0.066832873    -110.2526    2759.3983      4.34835      4.34835      4.34835    2759.3983   -790.39262    8578.8789    489.70858   -610.02958   -480.67633    -1931.717    82.219247 
   95500    133.70385   -110.37351   0.12097805   -110.25253   -3693.8468    4.3506888    4.3506888    4.3506888   -3693.8468    -4904.976   -4835.6403   -1340.9241    196.08709   0.47278155    332.73981    82.351981 
   95600    71.358799   -110.31738  0.064566941   -110.25281     1806.662    4.3487154    4.3487154    4.3487154     1806.662   -2370.5268    7007.8103    782.70233     880.2373   -465.05619   -217.26465    82.239974 
   95700    135.89507   -110.37521   0.12296072   -110.25225   -1131.8487    4.3489166    4.3489166    4.3489166   -1131.8487   -1244.0972   -534.18542   -1617.2634    -598.4041   -386.91655    31.129648    82.251388 
   95800    70.155712   -110.31615  0.063478363   -110.25267    953.96534    4.3499732    4.3499732    4.3499732    953.96534   -4907.3684    4879.2305    2890.0339    1552.9061   -137.58897    12.993626    82.311355 
   95900    107.53102   -110.34973  0.097296329   -110.25244   -939.37984    4.3490838    4.3490838    4.3490838   -939.37984   -211.20755    733.65298   -3340.5849   -369.43234    181.91359    -794.6383    82.260875 
   96000    96.293972   -110.33945   0.08712881   -110.25232    576.42434    4.3488771    4.3488771    4.3488771    576.42434   -1409.8307    2288.4633    850.64037    1049.3057    96.151801    727.85529    82.249147 
   96100    91.064973   -110.33472  0.082397501   -110.25233   -763.27226    4.3497985    4.3497985    4.3497985   -763.27226   -2830.9004    3015.8297   -2474.7461    259.15993   -458.21763   -909.09528    82.301438 
   96200    96.808384    -110.3399   0.08759426   -110.25231   -25.867129    4.3493201    4.3493201    4.3493201   -25.867129    1451.2643   -608.19888   -920.66685    417.37545    1430.5089    995.85404    82.274287 
   96300    105.78985   -110.34792  0.095720883    -110.2522    1006.1533    4.3490421    4.3490421    4.3490421    1006.1533     -2998.12     4737.123     1279.457    67.445925   -391.47868   -568.45983    82.258508 
   96400    104.60064   -110.34702  0.094644857   -110.25237    -881.2279    4.3492389    4.3492389    4.3492389    -881.2279    1149.2032   -1253.0706   -2539.8163   -193.75169    211.87665    1143.2374    82.269678 
   96500    91.796023    -110.3356  0.083058971   -110.25254   -286.06513    4.3497157    4.3497157    4.3497157   -286.06513   -3168.1702    3638.2155   -1328.2408     953.8427    711.62493    1639.6092    82.296736 
   96600    125.52738    -110.3657   0.11357981   -110.25212   -558.10891    4.3494252    4.3494252    4.3494252   -558.10891   -650.86239   -1185.5493    162.08495   -710.15659   -267.74597   -1570.4231     82.28025 
   96700    86.154116   -110.33043  0.077954055   -110.25247    890.79517    4.3484964    4.3484964    4.3484964    890.79517   -966.42952    5852.1294   -2213.3143    738.83367    490.05325     1012.096     82.22755 
   96800    108.15675    -110.3503  0.097862497   -110.25244   -1554.0439    4.3503169    4.3503169    4.3503169   -1554.0439   -3481.7359   -1210.2506     29.85466   -358.62299   -946.26666    318.76554    82.330867 
   96900    96.463626   -110.33974  0.087282316   -110.25245    451.95327    4.3491268    4.3491268    4.3491268    451.95327    373.28234    2756.5575     -1773.98    160.39584    616.49954    979.24394    82.263316 
   97000    96.253769    -110.3396  0.087092433   -110.25251   -318.49065    4.3483829    4.3483829    4.3483829   -318.49065   -2675.8623    4366.7128   -2646.3225    282.28033   -460.80991   -908.61119     82.22111 
   97100    89.883778   -110.33383  0.081328731    -110.2525   -274.11829    4.3505305    4.3505305    4.3505305   -274.11829   -913.37018   -292.41605    383.43136   -491.97942   -78.773638    1349.0732    82.342995 
   97200    93.764599   -110.33698   0.08484018   -110.25214    1590.5016    4.3487576    4.3487576    4.3487576    1590.5016   -1718.0013    6185.2263    304.27989    617.78182    808.64216    892.55614    82.242366 
   97300    113.62273   -110.35503   0.10280823   -110.25222   -499.67255    4.3485715    4.3485715    4.3485715   -499.67255   -1772.3529    647.05133   -373.71611   -482.11359   -743.97584   -1019.2084    82.231808 
   97400    77.919478   -110.32301  0.070503181   -110.25251    690.27652    4.3502073    4.3502073    4.3502073    690.27652   -2467.1791    3584.4606    953.54806    1188.1483    1193.8086     1262.821    82.324644 
   97500    132.10054   -110.37161   0.11952734   -110.25209   -940.95029     4.348979     4.348979     4.348979   -940.95029   -3472.3093    1215.2019   -565.74345   -385.48807   -549.46834   -338.94493    82.254926 
   97600    94.563604   -110.33797  0.085563136   -110.25241    1204.1658    4.3488857    4.3488857    4.3488857    1204.1658   -1062.2036    3032.7651     1641.936    574.77863   -534.08163    1376.0686    82.249635 
   97700    100.12615    -110.3431  0.090596248    -110.2525   -627.87527    4.3498478    4.3498478    4.3498478   -627.87527   -4649.6888    1832.6184    933.44459    1229.8572    381.74232   -1018.6456    82.304237 
   97800    118.23326   -110.35946   0.10697994   -110.25248   -1263.6766    4.3490865    4.3490865    4.3490865   -1263.6766   -871.82952   -529.58021     -2389.62   -387.24997   -420.17963    704.68437    82.261027 
   97900    76.330521   -110.32191   0.06906546   -110.25284    696.55433     4.349501     4.349501     4.349501    696.55433   -2672.3607    3917.7025    844.32117    967.93679    272.57525    21.907403    82.284552 
   98000    116.29665   -110.35783   0.10522765    -110.2526   -2661.9778    4.3494171    4.3494171    4.3494171   -2661.9778   -2519.2403   -1381.7153   -4084.9779   -444.43978   -501.18188    1119.3964    82.279789 
   98100    63.379088   -110.30996  0.057346731   -110.25262    1911.4291    4.3491942    4.3491942    4.3491942    1911.4291    1368.4889    3731.2641    634.53426    517.91987    1101.5791     1550.106    82.267141 
   98200    130.55833    -110.3703   0.11813192   -110.25216   -2704.9669    4.3501504    4.3501504    4.3501504   -2704.9669   -4905.7044   -1723.7078   -1485.4887   -65.748078   -193.14377     -593.509    82.321416 
   98300    63.205183   -110.30982  0.057189378   -110.25263    1135.8986    4.3482351    4.3482351    4.3482351    1135.8986    2110.8286    3643.1228   -2346.2555    241.88827    504.27348    3299.4682    82.212726 
   98400    120.52191   -110.36116   0.10905075   -110.25211   -1694.4154    4.3503735    4.3503735    4.3503735   -1694.4154   -3398.7128   -91.427605   -1593.1058   -206.14047    990.64198   -450.61538    82.334082 
   98500    112.97928   -110.35441   0.10222603   -110.25218   -320.09502    4.3495883    4.3495883    4.3495883   -320.09502   -2361.2673    2288.9573   -887.97509    67.862194   -598.85093    147.92557    82.289505 
   98600    80.288734   -110.32516  0.072646933   -110.25252    1479.3069     4.347872     4.347872     4.347872    1479.3069    1361.8261    4696.1556   -1620.0611    451.78383    1218.3675    1429.3632    82.192132 
   98700     141.4431   -110.38018   0.12798069    -110.2522   -2537.6007    4.3508468    4.3508468    4.3508468   -2537.6007   -4989.5737   -1112.5897   -1510.6386   -851.58784   -687.20719    273.66376    82.360956 
   98800    70.494486   -110.31642  0.063784893   -110.25263    2286.4228    4.3486953    4.3486953    4.3486953    2286.4228    697.75901    7928.9832   -1767.4737    290.38727    253.75005    1046.4645    82.238832 
   98900    124.40806   -110.36514   0.11256702   -110.25257   -1798.8981    4.3487285    4.3487285    4.3487285   -1798.8981   -2089.9583    338.28506   -3645.0212    164.31342    298.57066   -955.86225    82.240716 
   99000    70.252437   -110.31626  0.063565881   -110.25269    2122.3414    4.3501154    4.3501154    4.3501154    2122.3414   -1387.4404    7445.0301    309.43446    89.171044   -227.81449    2447.2296    82.319426 
   99100    114.41658   -110.35581   0.10352652   -110.25229   -357.97808    4.3486278    4.3486278    4.3486278   -357.97808   -324.10817    123.36507   -873.19114   -108.88141    1075.4264   -1270.6741       82.235 
   99200    81.355892   -110.32614  0.073612521   -110.25252    775.18053    4.3491114    4.3491114    4.3491114    775.18053   -2903.3247    6158.4187   -929.55241    310.65443   -411.77359    1515.8214    82.262444 
   99300    94.404033   -110.33777  0.085418753   -110.25235    526.45914    4.3496428    4.3496428    4.3496428    526.45914   -144.56628    368.21501    1355.7287    524.04632    1276.2847    476.58868    82.292601 
   99400    121.15555   -110.36177   0.10962409   -110.25215   -503.98789    4.3488227    4.3488227    4.3488227   -503.98789   -3551.7017    4026.9533   -1987.2153   -564.35542   -145.79754   -88.818065     82.24606 
   99500    79.684585   -110.32455  0.072100287   -110.25245     1403.507    4.3495965    4.3495965    4.3495965     1403.507   -1585.3304    2123.5732    3672.2782    854.98539   -447.94377    1266.2487    82.289973 
   99600    127.74369   -110.36766   0.11558518   -110.25208   -1372.1909    4.3489777    4.3489777    4.3489777   -1372.1909    -2255.499   -754.27366   -1106.8002   -596.10862    872.02657   -1149.1223    82.254856 
   99700    94.945154   -110.33807  0.085908371   -110.25216    511.34965    4.3493318    4.3493318    4.3493318    511.34965   -2977.1971    4642.4138   -131.16775     260.7266   -945.23396    2023.6445    82.274947 
   99800    110.87035   -110.35258   0.10031782   -110.25226   -1777.9553    4.3501856    4.3501856    4.3501856   -1777.9553   -2464.4516   -2850.0801   -19.334251    79.205596    441.92363    -650.2425    82.323414 
   99900    84.060104    -110.3286  0.076059349   -110.25254    618.64791    4.3480543    4.3480543    4.3480543    618.64791   -1183.9987    5770.4624     -2730.52   -791.50799     -384.472    2494.1423    82.202473 
  100000    112.63492   -110.35422   0.10191444    -110.2523   -1148.8548    4.3502302    4.3502302    4.3502302   -1148.8548   -1408.8822   -3426.9158    1389.2335    237.06199    127.53833   -366.00713    82.325945 
Loop time of 23.0024 on 1 procs for 100000 steps with 8 atoms

Pair  time (%) = 6.98313 (30.3583)
Kspce time (%) = 5.71587 (24.849)
Neigh time (%) = 0 (0)
Comm  time (%) = 1.17277 (5.09845)
Outpt time (%) = 0.0309825 (0.134692)
Other time (%) = 9.09965 (39.5596)

Nlocal:    8 ave 8 max 8 min
Histogram: 1 0 0 0 0 0 0 0 0 0
Nghost:    2189 ave 2189 max 2189 min
Histogram: 1 0 0 0 0 0 0 0 0 0
Neighs:    2056 ave 2056 max 2056 min
Histogram: 1 0 0 0 0 0 0 0 0 0

Total # of neighbors = 2056
Ave neighs/atom = 257
Neighbor list builds = 0
Dangerous builds = 0
unfix 20
unfix 21
print "seeds:6517193"
seeds:6517193
