LAMMPS (10 Feb 2015)
# ---- initialize simulations
clear
units metal
dimension 3
boundary p p p
atom_style charge
atom_modify map array
# ---- create atoms
read_data /Users/eugeneragasa/pyflamestk_git/pypospack/tests/tests_integration/workflow/WorkflowLammpsThermalExpansion/param_5091/MgO_NaCl_unit.npt.T1000/lammps.structure
  triclinic box = (0 0 0) to (4.2565 4.2565 4.2565) with tilt (0 0 0)
  1 by 1 by 1 MPI processor grid
  reading atoms ...
  8 atoms
# ---- define interatomic potential
include potential.mod
mass 1 24.305
mass 2 15.999

group Mg type 1
4 atoms in group Mg
group O type 2
4 atoms in group O

set group Mg charge 1.60395442224
  4 settings made for charge
set group O charge -1.60395442224
  4 settings made for charge

variable R_cut equal 10.0

pair_style buck/coul/long ${R_cut}
pair_style buck/coul/long 10
pair_coeff 1 1 0.0 0.5 0.0 ${R_cut}
pair_coeff 1 1 0.0 0.5 0.0 10
pair_coeff 1 2 1640.33364459 0.274285748818 0.0 ${R_cut}
pair_coeff 1 2 1640.33364459 0.274285748818 0.0 10
pair_coeff 2 2 138.503876614 0.167383398543 15.9463705464 ${R_cut}
pair_coeff 2 2 138.503876614 0.167383398543 15.9463705464 10

kspace_style pppm 1.0e-5

neighbor 1.0 bin
neigh_modify every 1 delay 0 check yes
# ---- define settings
compute eng all pe/atom
compute eatoms all reduce sum c_eng
# ---- run minimization
reset_timestep 0
fix 1 all box/relax iso 0.0 vmax 0.001
thermo 10
thermo_style custom step pe lx ly lz xy xz yz press pxx pyy pzz pxy pxz pyz c_eatoms
min_style cg
minimize 1e-25 1e-25 5000 10000
PPPM initialization ...
  G vector (1/distance) = 0.352384
  grid = 8 8 8
  stencil order = 5
  estimated absolute RMS force accuracy = 3.76636e-05
  estimated relative force accuracy = 2.6156e-06
  using double precision FFTs
  3d grid and FFT values/proc = 3375 512
Neighbor list info ...
  1 neighbor list requests
  update every 1 steps, delay 0 steps, check yes
  master list distance cutoff = 11
Memory usage per processor = 4.06549 Mbytes
Step PotEng Lx Ly Lz Xy Xz Yz Press Pxx Pyy Pzz Pxy Pxz Pyz eatoms 
       0   -105.40733       4.2565       4.2565       4.2565            0            0            0    42357.047    42357.047    42357.047    42357.047 -5.4591187e-11 1.2697943e-10 -3.1158894e-11   -105.40733 
      10   -105.43209    4.2922445    4.2922445    4.2922445            0            0            0   -4.9211524   -4.9211524   -4.9211524   -4.9211524 1.7090498e-11 -3.1779622e-11 -1.1443831e-10   -105.43209 
      12   -105.43209    4.2922402    4.2922402    4.2922402            0            0            0  -0.19512063  -0.19512063  -0.19512063  -0.19512063 3.2638439e-11 -8.1058727e-11 1.6032595e-10   -105.43209 
Loop time of 0.00925589 on 1 procs for 12 steps with 8 atoms

Minimization stats:
  Stopping criterion = linesearch alpha is zero
  Energy initial, next-to-last, final = 
        -105.407331285      -105.43208818      -105.43208818
  Force two-norm initial, final = 6.11638 6.94804e-05
  Force max component initial, final = 6.11638 2.86507e-05
  Final line search alpha, max atom move = 0.5 1.43253e-05
  Iterations, force evaluations = 12 25

Pair  time (%) = 0.00257587 (27.8296)
Kspce time (%) = 0.00157404 (17.0058)
Neigh time (%) = 0 (0)
Comm  time (%) = 0.000280142 (3.02663)
Outpt time (%) = 1.5974e-05 (0.172583)
Other time (%) = 0.00480986 (51.9654)

Nlocal:    8 ave 8 max 8 min
Histogram: 1 0 0 0 0 0 0 0 0 0
Nghost:    2189 ave 2189 max 2189 min
Histogram: 1 0 0 0 0 0 0 0 0 0
Neighs:    2344 ave 2344 max 2344 min
Histogram: 1 0 0 0 0 0 0 0 0 0

Total # of neighbors = 2344
Ave neighs/atom = 293
Neighbor list builds = 0
Dangerous builds = 0
unfix 1
# ---- define output variables ----
variable natoms equal "count(all)"
variable tot_energy equal "c_eatoms"
variable length_x equal "lx"
variable length_y equal "ly"
variable length_z equal "lz"
variable tilt_xy equal "xy"
variable tilt_xz equal "xz"
variable tilt_yz equal "yz"
variable tot_press equal "press"
variable press_xx equal "pxx"
variable press_yy equal "pyy"
variable press_zz equal "pzz"
variable press_xy equal "pxy"
variable press_xz equal "pxz"
variable press_yz equal "pyz"

# ---- output ----
print "pypospack:output_section:begin"
pypospack:output_section:begin
print "tot_energy = ${tot_energy}"
tot_energy = -105.432088180201
print "num_atoms = ${natoms}"
num_atoms = 8
print "xx = ${length_x}"
xx = 4.29224022422512
print "yy = ${length_y}"
yy = 4.29224022422512
print "zz = ${length_z}"
zz = 4.29224022422512
print "xy = ${tilt_xy}"
xy = 0
print "xz = ${tilt_xz}"
xz = 0
print "yz = ${tilt_yz}"
yz = 0
print "tot_press = ${tot_press}"
tot_press = -0.195120630166908
print "pxx = ${press_xx}"
pxx = -0.195120630011552
print "pyy = ${press_yy}"
pyy = -0.195120630547228
print "pzz = ${press_zz}"
pzz = -0.195120629941943
print "pxy = ${press_xy}"
pxy = 3.26384388476247e-11
print "pxz = ${press_xz}"
pxz = -8.10587270505021e-11
print "pyz = ${press_yz}"
pyz = 1.60325951029016e-10
print "pypospack:output_section:done"
pypospack:output_section:done
print "pypospack:lammps_sim:done"
pypospack:lammps_sim:done
#------------------------------------------------------------------------------
# RUN THERMOSTAT
# running using an NPT Nose-Hoover style thermostat
#------------------------------------------------------------------------------
variable tempdamp equal 0.1
variable pressdamp equal 1.0
# set initial velocities
velocity all create 1000 2632360 mom yes dist gaussian loop all
# fix for Nose-Hoover style thermostat
fix 20 all npt temp 1000 1000 0.1 aniso 0.0 0.0 1.0 drag 1.0 couple xyz
variable boxx equal lx
variable boxy equal ly
variable boxz equal lz
variable boxp equal press
variable boxt equal temp
# calculate averages every 10000 steps
reset_timestep 0
fix 21 all ave/time 10 10 100 v_boxx v_boxy v_boxz v_boxp v_boxt file lattice.out
thermo_style custom step temp pe ke etotal press lx ly lz press pxx pyy pzz pxy pxz pyz vol
thermo_modify flush yes
thermo 100
run 100000
PPPM initialization ...
  G vector (1/distance) = 0.352034
  grid = 8 8 8
  stencil order = 5
  estimated absolute RMS force accuracy = 3.82705e-05
  estimated relative force accuracy = 2.65774e-06
  using double precision FFTs
  3d grid and FFT values/proc = 3375 512
Memory usage per processor = 3.06549 Mbytes
Step Temp PotEng KinEng TotEng Press Lx Ly Lz Press Pxx Pyy Pzz Pxy Pxz Pyz Volume 
       0         1000   -105.43209   0.90482102   -104.52727    12220.362    4.2922402    4.2922402    4.2922402    12220.362    19623.705    12549.251    4488.1294    6190.0564     5404.103    2012.9415    79.077342 
     100    257.09778   -104.64232   0.23262747   -104.40969     3333.403    4.3202747    4.3202747    4.3202747     3333.403      10595.2    25226.348   -25821.339    1061.5416   -13524.584    2092.6336    80.636948 
     200    636.27207   -104.73077   0.57571234   -104.15505   -11433.352    4.3422236    4.3422236    4.3422236   -11433.352    20932.962   -22695.458   -32537.561    13111.878   -6546.3393    5747.7498    81.872219 
     300    818.43483   -104.69114   0.74053703    -103.9506    7185.0658    4.3298927    4.3298927    4.3298927    7185.0658      499.164    31773.137   -10717.104   -1848.7362   -9315.9765    9828.1165    81.176702 
     400    755.57928   -104.45652   0.68366401   -103.77286    943.37119    4.3253903    4.3253903    4.3253903    943.37119    -15627.01    7705.0175    10752.106   -8445.0033     389.3119    7851.6307    80.923733 
     500    1106.4855   -104.66617    1.0011714   -103.66499   -3215.1473    4.3481161    4.3481161    4.3481161   -3215.1473    46907.138   -19607.952   -36944.629   -6284.3456     5450.862   -13365.933     82.20598 
     600       806.81   -104.33755   0.73001864   -103.60753   -9352.8844    4.3462984    4.3462984    4.3462984   -9352.8844    -3073.149    13041.263   -38026.767    5144.3036   -10251.566     3389.961    82.102924 
     700     1313.502   -104.76708    1.1884842    -103.5786    5109.3073    4.3381535    4.3381535    4.3381535    5109.3073    39005.404    12217.688    -35895.17   -4184.3806    679.17417     -13318.1     81.64221 
     800    1065.4888   -104.54708   0.96407664     -103.583   -2860.9218      4.33972      4.33972      4.33972   -2860.9218    15638.843    21655.168   -45876.777   -1673.2562   -8877.2518   -424.98884    81.730685 
     900    690.65191   -104.21895   0.62491636   -103.59404    1645.1057    4.3428283    4.3428283    4.3428283    1645.1057    67139.182   -17625.844   -44578.021    1248.5482    483.93429    6490.6512    81.906424 
    1000    1589.4564   -105.02857    1.4381736   -103.59039   -15429.272    4.3418155    4.3418155    4.3418155   -15429.272   -5094.7443   -19403.237   -21789.835    10372.015    1715.1715   -6128.4301    81.849134 
    1100    797.01849   -104.32112   0.72115908   -103.59996    7247.4115    4.3365807    4.3365807    4.3365807    7247.4115    61715.034   -510.40978    -39462.39    3762.4062   -9343.6269    2695.8417    81.553445 
    1200    804.08541    -104.3307   0.72755338   -103.60315   -1553.7421    4.3471031    4.3471031    4.3471031   -1553.7421    32939.542   -5128.8968   -32471.871    -12506.39   -8411.5759   -6097.8751    82.148534 
    1300    1111.6937   -104.59892    1.0058838   -103.59304    5721.0617    4.3402996    4.3402996    4.3402996    5721.0617   -16912.341    25674.547    8400.9788   -11740.197   -12423.975   -8421.2966    81.763435 
    1400    767.12064   -104.29518   0.69410687   -103.60107   -2195.7538    4.3448464    4.3448464    4.3448464   -2195.7538     4196.752     20148.97   -30932.983    10673.347    399.81341   -21224.127    82.020666 
    1500    932.35858    -104.4339   0.84361764   -103.59028    16540.713    4.3511061    4.3511061    4.3511061    16540.713    42183.539    11023.809   -3585.2095    1981.4217    5017.9626   -11685.373    82.375681 
    1600    668.63523   -104.19363   0.60499521   -103.58863   -2472.7195    4.3470593    4.3470593    4.3470593   -2472.7195   -2022.4359    13737.934   -19133.657    12341.814    5511.2057   -16715.749    82.146051 
    1700    986.69129   -104.47591   0.89277901   -103.58313    20742.764     4.330702     4.330702     4.330702    20742.764    84831.777   -4329.5203   -18273.964    12238.132    18225.312   -12096.528    81.222228 
    1800    863.00468   -104.38482   0.78086477   -103.60395    15891.745    4.3368771    4.3368771    4.3368771    15891.745     48092.27    -8077.346    7660.3101    508.86584   -13286.748   -2090.7293    81.570166 
    1900    962.85042   -104.48628   0.87120729   -103.61507    -43704.96    4.3536679    4.3536679    4.3536679    -43704.96   -19424.843   -48664.095   -63025.942    -7487.446    6375.0081   -11773.336    82.521268 
    2000     1231.221   -104.71578    1.1140347   -103.60175    13946.716    4.3280027    4.3280027    4.3280027    13946.716    59485.967    -7282.136   -10363.681    2873.4155   -6838.2295    5237.9292    81.070447 
    2100    788.21125   -104.32389   0.71319011    -103.6107   -1211.8641    4.3304665    4.3304665    4.3304665   -1211.8641    52177.934   -34283.048   -21530.479    1592.9303    7654.5052   -11190.437    81.208977 
    2200    1107.4498   -104.61469    1.0020438   -103.61265   -29429.679    4.3415628    4.3415628    4.3415628   -29429.679   -24932.581   -33159.818   -30196.638    643.33758   -3189.8982    1313.5893    81.834844 
    2300    1024.7851   -104.53742    0.9272471   -103.61017    14816.971    4.3379651    4.3379651    4.3379651    14816.971    50823.803   -1147.6257    -5225.265     8694.152    632.47888   -4038.7032    81.631575 
    2400    881.04007     -104.407   0.79718357   -103.60981    2047.2304    4.3281629    4.3281629    4.3281629    2047.2304    40609.632   -31107.903    -3360.038   -4094.8803   -17423.605   -9558.2857    81.079451 
    2500    857.17901   -104.39047   0.77559359   -103.61488    15681.322    4.3296353    4.3296353    4.3296353    15681.322    52951.441    6885.0593   -12792.534    11846.664    8509.0121    12759.584    81.162223 
    2600    1423.6882   -104.89043     1.288183   -103.60225   -17143.246    4.3478283    4.3478283    4.3478283   -17143.246    16411.499   -25109.573   -42731.663    3871.7675    3904.8246   -4098.7572    82.189656 
    2700    863.95957   -104.37998   0.78172878   -103.59825    12476.031    4.3267569    4.3267569    4.3267569    12476.031    62281.939   -4930.4589   -19923.387    2338.9887    2772.1249    19179.599    81.000458 
    2800    1181.9335   -104.66995    1.0694383   -103.60051    -20357.65    4.3343434    4.3343434    4.3343434    -20357.65    -5148.604   -23582.341   -32342.004   -2182.4294   -6623.6978   -1591.4861    81.427287 
    2900    1236.3437   -104.71908    1.1186698   -103.60041    2300.0684    4.3374203    4.3374203    4.3374203    2300.0684    49360.709   -22486.264    -19974.24    2037.9852    7587.1582    15777.373    81.600818 
    3000    754.96128   -104.29607   0.68310483   -103.61296   -11530.185    4.3457482    4.3457482    4.3457482   -11530.185    9999.1176   -22847.195   -21742.477     4751.084    2887.6971   -1071.3002    82.071747 
    3100    953.98026    -104.4695   0.86318139   -103.60632    5853.2857    4.3282272    4.3282272    4.3282272    5853.2857    34351.055   -10717.016   -6074.1815    12619.455    1996.0604    477.50896    81.083065 
    3200    968.82382   -104.48434   0.87661215   -103.60773    9283.7108    4.3322734    4.3322734    4.3322734    9283.7108    36992.814     10534.32   -19676.002   -14096.206   -13118.027    9611.1021    81.310678 
    3300     1079.102   -104.58036   0.97639421   -103.60397   -18884.755     4.347014     4.347014     4.347014   -18884.755   -21476.331   -1791.6116   -33386.324      8268.02    7912.1455   -5943.8428    82.143482 
    3400    758.31651   -104.28256   0.68614072   -103.59642    17966.284    4.3396735    4.3396735    4.3396735    17966.284    63615.239   -1940.7707   -7775.6168    758.37601    -1899.223    19218.121    81.728055 
    3500    1315.0814   -104.78307    1.1899133   -103.59315   -5949.5888    4.3374974    4.3374974    4.3374974   -5949.5888    5091.7102    -2631.901   -20308.576    15142.097    6923.4142    699.91259    81.605174 
    3600    808.97704   -104.33659   0.73197942   -103.60461    2379.8308    4.3404425    4.3404425    4.3404425    2379.8308    26929.955   -26230.934    6440.4711    15793.113   -7716.2497    10029.484    81.771508 
    3700    1012.1641   -104.51476   0.91582739   -103.59893    16686.914     4.338743     4.338743     4.338743    16686.914    43717.553   -16022.772     22365.96   -3281.3264    9968.9626    2023.7282    81.675495 
    3800    1068.6564   -104.56874   0.96694279   -103.60179   -27703.683    4.3424461    4.3424461    4.3424461   -27703.683   -22838.269   -50280.839   -9991.9417    2941.1973    4955.2084   -281.55421    81.884802 
    3900    871.58246   -104.38945   0.78862612   -103.60082   -1903.5464    4.3381616    4.3381616    4.3381616   -1903.5464    15901.069   -36923.498     15311.79   -887.70669     4031.386    1254.3807    81.642665 
    4000    1209.6041   -104.69242    1.0944752   -103.59795    5780.8998    4.3360776    4.3360776    4.3360776    5780.8998    33487.418   -3334.6097   -12810.108   -4860.6576   -5517.5659   -834.69999    81.525063 
    4100    671.45262   -104.21457   0.60754444   -103.60702   -8299.0884    4.3428753    4.3428753    4.3428753   -8299.0884    10626.829   -56639.165    21115.071    13627.083   -939.60271    10824.559    81.909085 
    4200    1336.2145   -104.80685    1.2090349   -103.59782    7019.2603    4.3366106    4.3366106    4.3366106    7019.2603    18591.007    25194.475   -22727.701    1518.9674   -502.38611   -3449.9149    81.555132 
    4300    704.26406   -104.24422   0.63723292   -103.60699    12757.956    4.3369617    4.3369617    4.3369617    12757.956    45092.497   -36524.913    29706.283    4745.8463    2567.6594    8090.3385    81.574939 
    4400    1033.3983   -104.54167   0.93504046   -103.60663    4590.4761    4.3354631    4.3354631    4.3354631    4590.4761    39778.661    -6212.231   -19795.002   -3905.2465    -1273.292   -5983.9325    81.490409 
    4500    887.63037   -104.40449   0.80314662   -103.60134    10766.275    4.3418452    4.3418452    4.3418452    10766.275     14094.22   -17578.344     35782.95   -10546.317    2005.6735    683.65508    81.850814 
    4600     886.0744   -104.39833   0.80173874   -103.59659   -5227.5661    4.3428484    4.3428484    4.3428484   -5227.5661    10587.669   -20907.251   -5363.1172    2750.4678    5115.1144    656.06294    81.907563 
    4700    1120.8442   -104.60459    1.0141634   -103.59043    6161.6784     4.335553     4.335553     4.335553    6161.6784     12040.49   -9112.0146     15556.56   -8829.3551    -2798.776    6337.1816    81.495473 
    4800    1071.3345   -104.56934   0.96936593   -103.59998   -13030.715    4.3408376    4.3408376    4.3408376   -13030.715   -3300.2659   -42024.296    6232.4178    321.74024   -766.72911    16813.238    81.793846 
    4900    854.51545   -104.37718   0.77318354   -103.60399    21253.826    4.3408773    4.3408773    4.3408773    21253.826    44457.589   -30173.966    49477.857    -4524.359    8155.9627   -188.02123    81.796086 
    5000    1132.5406    -104.6333    1.0247465   -103.60855   -15841.341    4.3430852    4.3430852    4.3430852   -15841.341   -6381.0254   -26869.073   -14273.926    5651.5607   -5723.7859    16708.063    81.920961 
    5100    1036.8382   -104.53988   0.93815295   -103.60172    1574.2274    4.3392991    4.3392991    4.3392991    1574.2274    27165.058    -42649.07    20206.694    5217.4408   -4119.6441   -5783.5896    81.706906 
    5200    1079.1295   -104.57601   0.97641905   -103.59959   -2400.7335    4.3362979    4.3362979    4.3362979   -2400.7335    15591.946   -16898.291   -5895.8556    4007.9328    3759.2444     9535.331    81.537486 
    5300    986.91073   -104.49598   0.89297756     -103.603   -3604.2141    4.3426846    4.3426846    4.3426846   -3604.2141    9698.6528   -34371.565    13860.269    2159.3189   -5699.6312    20578.407    81.898299 
    5400    1083.4395   -104.57825    0.9803188   -103.59793    6287.8013    4.3326236    4.3326236    4.3326236    6287.8013    35203.525   -23502.745    7162.6239   -6890.5686    997.44308   -8630.9445    81.330395 
    5500    874.24986   -104.39547   0.79103965   -103.60443   -5381.6856    4.3391535    4.3391535    4.3391535   -5381.6856    14435.425   -20874.556    -9705.926   -6115.6689   -10032.831    22816.203    81.698682 
    5600    1053.4782   -104.54741   0.95320922    -103.5942    10974.754    4.3401162    4.3401162    4.3401162    10974.754    6112.2284    1735.3166    25076.718   -15475.085    12435.016   -4341.8486     81.75307 
    5700    968.73818   -104.47261   0.87653466   -103.59607   -2252.6854    4.3341034    4.3341034    4.3341034   -2252.6854    15994.979   -18152.412   -4600.6237    1465.3387   -3231.9471    24925.282    81.413756 
    5800    1111.9011    -104.6068    1.0060714   -103.60072   -11906.177    4.3419714    4.3419714    4.3419714   -11906.177   -6475.6693   -28121.132   -1121.7296   -2324.1001    735.54522    -3298.602    81.857952 
    5900    860.70624    -104.3813   0.77878509   -103.60251    6335.3029    4.3376896    4.3376896    4.3376896    6335.3029    37142.042   -25597.967    7461.8342   -5053.9071    6894.8161   -10728.086    81.616019 
    6000    1155.1009   -104.64763    1.0451595   -103.60247   -11621.574    4.3358231    4.3358231    4.3358231   -11621.574    1097.7031    -25166.09   -10796.335   -3494.4324    4741.7584    21753.213    81.510706 
    6100    835.13664   -104.35445   0.75564918    -103.5988    958.83732    4.3408083    4.3408083    4.3408083    958.83732    439.17606   -19389.652    21826.988   -20399.832   -2008.9535    -16606.72    81.792187 
    6200    1161.2911   -104.64227    1.0507606   -103.59151   -11394.257    4.3315483    4.3315483    4.3315483   -11394.257    6904.5812   -9240.5709    -31846.78    12140.253    553.97694    33762.814    81.269853 
    6300    883.29981   -104.39624   0.79922823   -103.59701   -9133.0649    4.3482746    4.3482746    4.3482746   -9133.0649   -24563.938   -33780.392    30945.136   -15259.076   -3841.3359   -22479.022    82.214969 
    6400    1225.5172   -104.70356    1.1088737   -103.59468   -5285.9109    4.3286072    4.3286072    4.3286072   -5285.9109    5133.2471   -20104.964   -886.01556    10993.237    2028.2626    13410.357    81.104422 
    6500    873.04165   -104.39873   0.78994643   -103.60878   -8662.9375    4.3358155    4.3358155    4.3358155   -8662.9375    4750.4011   -39214.572     8475.359   -12042.221    4515.6059    15286.617    81.510279 
    6600    1186.3418   -104.67511     1.073427   -103.60168   -14720.186    4.3454005    4.3454005    4.3454005   -14720.186   -34209.661   -23628.121    13677.225   -1746.2156   -2583.0741   -4556.0762    82.052048 
    6700     713.1713   -104.24486   0.64529238   -103.59956    3564.5829    4.3421796    4.3421796    4.3421796    3564.5829    9773.3191   -19314.124    20234.553   -4733.2129    75.867687    22551.492     81.86973 
    6800    1176.7102    -104.6577    1.0647121   -103.59299   -5274.3289     4.327427     4.327427     4.327427   -5274.3289   -28502.533    370.80402    12308.742   -15848.225   -6828.4413   -17587.838      81.0381 
    6900    800.41326   -104.32714   0.72423074   -103.60291    17487.688    4.3270571    4.3270571    4.3270571    17487.688    43786.769   -1441.9545    10118.249    396.38306    -2004.096    15637.326     81.01732 
    7000    1165.0965   -104.65532    1.0542038   -103.60112   -33293.356    4.3468488    4.3468488    4.3468488   -33293.356   -42472.417   -40156.577   -17251.074   -5874.0262     -3957.94    7111.0931    82.134119 
    7100    1005.3439   -104.50597   0.90965633   -103.59632    9286.9406    4.3280834    4.3280834    4.3280834    9286.9406    14661.576    -11277.65    24476.896   -1366.3035   -4889.5272   -13845.399    81.074983 
    7200    823.69046   -104.34565   0.74529244   -103.60036    459.22761    4.3330146    4.3330146    4.3330146    459.22761   -9999.4354   -4253.1986    15630.317   -3291.1151    1504.5489    18655.276    81.352417 
    7300    1178.5316   -104.66164    1.0663601   -103.59528   -12795.274    4.3391928    4.3391928    4.3391928   -12795.274   -36151.184    3022.4486   -5257.0876   -11308.017   -4451.6822   -14166.711    81.700902 
    7400     983.8195   -104.48828   0.89018056    -103.5981   -13885.607    4.3458869    4.3458869    4.3458869   -13885.607   -5860.6397   -23159.081     -12637.1    9898.1038    1265.4591    8949.3243    82.079606 
    7500    1158.8837   -104.64382    1.0485823   -103.59523    1309.0709    4.3325666    4.3325666    4.3325666    1309.0709   -10125.815    23697.999    -9644.971   -17059.866    4470.5849    8841.0121    81.327184 
    7600     778.2211   -104.31005   0.70415081    -103.6059    19996.057    4.3282509    4.3282509    4.3282509    19996.057    29835.532   -3892.9205     34045.56    10454.535    5087.0874   -9586.5153    81.084396 
    7700    1016.4976   -104.52738   0.91974841   -103.60764    2430.9229    4.3382302    4.3382302    4.3382302    2430.9229   -5664.9598    5560.9765     7396.752   -7962.5109    10173.259    16947.334    81.646538 
    7800     1044.037    -104.5442   0.94466664   -103.59953   -4026.0219    4.3423582    4.3423582    4.3423582   -4026.0219   -8716.0153   -11778.775    8416.7247   -4941.0329   -4188.8232   -8234.8558    81.879828 
    7900    1210.9004   -104.68776    1.0956481   -103.59212    4019.7265    4.3218144    4.3218144    4.3218144    4019.7265    14771.545    -8377.373    5665.0077    4198.4491    3986.2185    10885.789    80.723194 
    8000     806.0131   -104.33453   0.72929759   -103.60523    5716.4162    4.3338984    4.3338984    4.3338984    5716.4162   -24493.149    2912.2124    38730.185   -13977.293    892.31256    -761.7607    81.402204 
    8100    1132.4194   -104.62043    1.0246369   -103.59579   -18662.374    4.3466476    4.3466476    4.3466476   -18662.374   -26757.173   -18489.405   -10740.544    4940.7097    329.76588   -13831.797    82.122713 
    8200    821.78245   -104.33638   0.74356603   -103.59281    15836.493    4.3261898    4.3261898    4.3261898    15836.493    16948.356    17359.237    13201.886   -12607.863   -2476.0984    5642.4338    80.968612 
    8300    1263.4558   -104.73724    1.1432013   -103.59403   -16051.893    4.3291732    4.3291732    4.3291732   -16051.893   -17180.275   -22877.676   -8097.7273   -21578.758   -4967.0184   -2436.8862    81.136242 
    8400    888.67202   -104.40481   0.80408912   -103.60072   -348.81262    4.3359657    4.3359657    4.3359657   -348.81262    27053.702    4119.7208   -32219.861    4720.0038   -1609.7328   -6594.7274    81.518752 
    8500     877.3427   -104.40152   0.79383811   -103.60768   -2198.8136    4.3402891    4.3402891    4.3402891   -2198.8136    7975.3227   -21447.377    6875.6132   -30154.024   -798.42386    2338.3424    81.762843 
    8600    1154.9049   -104.64784    1.0449823   -103.60286   -5407.9081    4.3303286    4.3303286    4.3303286   -5407.9081    -10246.68   -3879.1829   -2097.8608    8118.4106   -6118.5838   -27687.897    81.201223 
    8700    575.70561   -104.13134   0.52091053   -103.61043   -697.47014    4.3316779    4.3316779    4.3316779   -697.47014   -7967.4195   -9489.2522    15364.261   -17800.162    2307.7366    13779.204    81.277152 
    8800    1349.7165   -104.81773    1.2212518   -103.59648   -11772.497    4.3367798    4.3367798    4.3367798   -11772.497   -19871.034   -15282.286    -164.1722   -5554.0134    1233.0637   -8130.0588    81.564678 
    8900    863.09719   -104.37636   0.78094848   -103.59541   -10596.323     4.339359     4.339359     4.339359   -10596.323    4190.9768   -14947.251   -21032.694    2015.6829   -10191.917    581.85577    81.710287 
    9000    998.78943   -104.49375   0.90372566   -103.59003   -9320.1167    4.3347576    4.3347576    4.3347576   -9320.1167   -33121.941    -8654.146    13815.737   -19836.672    9147.8222    -511.6951    81.450631 
    9100     962.3311   -104.46858   0.87073741   -103.59784    11316.728    4.3287559    4.3287559    4.3287559    11316.728    15031.141   -17987.346    36906.388    14491.667    3398.6324   -4543.6763     81.11278 
    9200    866.62333   -104.40018     0.784139   -103.61604   -14644.454    4.3395651    4.3395651    4.3395651   -14644.454   -16467.346   -36054.902    8588.8876   -26668.005     4990.612    10803.561    81.721929 
    9300    1188.9164   -104.67986    1.0757565    -103.6041   -4076.2081    4.3393549    4.3393549    4.3393549   -4076.2081   -17780.882   -5692.4728     11244.73    12583.945    2910.8835    3047.6873    81.710054 
    9400    951.80675   -104.46534   0.86121475   -103.60413   -3783.9948    4.3237442    4.3237442    4.3237442   -3783.9948   -5743.4278   -9196.6826    3588.1259    -12720.34    5084.7864    2238.4735    80.831379 
    9500    925.82724   -104.45054   0.83770794   -103.61283    11745.772    4.3315618    4.3315618    4.3315618    11745.772   -21545.859    7773.5254     49009.65    7976.3863   -435.15982    9677.8966    81.270614 
    9600    1131.6844   -104.62879    1.0239718   -103.60482   -21776.983    4.3473891    4.3473891    4.3473891   -21776.983   -26419.319   -34293.909   -4617.7197    7341.3605    5194.5338   -1994.1626    82.164747 
    9700    940.97934   -104.45067   0.85141788   -103.59925   -2092.8496     4.326489     4.326489     4.326489   -2092.8496   -13758.704   -6126.5582    13606.713   -3689.2009   -8988.3131    13627.083    80.985416 
    9800    996.73122   -104.50137   0.90186335   -103.59951    3985.8376    4.3329072    4.3329072    4.3329072    3985.8376   -21904.088    14829.553    19032.047    21803.757    563.65194     -2761.21    81.346369 
    9900      1105.37   -104.59662     1.000162   -103.59646    -8038.748    4.3345557    4.3345557    4.3345557    -8038.748    3833.7252    -31128.31    3178.3412   -5380.2161   -3443.0383     495.4121    81.439249 
   10000    717.84416   -104.24931   0.64952048   -103.59979    10203.596    4.3354802    4.3354802    4.3354802    10203.596   -15882.926    23710.576    22783.138    12591.299    329.05523    13366.901    81.491368 
   10100    1351.5954   -104.81732    1.2229519   -103.59437   -6757.4866    4.3346589    4.3346589    4.3346589   -6757.4866   -8229.8603   -11005.884   -1036.7159    2437.6061    1036.8814   -4209.4851    81.445065 
   10200    716.07764   -104.25556    0.6479221   -103.60764    12881.598    4.3286069    4.3286069    4.3286069    12881.598    8354.0026    3643.4194    26647.372   -228.10411   -4347.6028    9586.9861    81.104407 
   10300    1053.2886   -104.56376   0.95303765   -103.61072    -11275.65    4.3395061    4.3395061    4.3395061    -11275.65   -33770.505    -11552.19    11495.745    1876.6685    6458.4585   -4829.1488    81.718601 
   10400    1193.4673   -104.68359    1.0798743   -103.60372    5729.3087    4.3282948    4.3282948    4.3282948    5729.3087    22359.927   -16314.731     11142.73    100.94049    640.50558    10435.938    81.086861 
   10500    724.76998   -104.26713   0.65578711   -103.61135   -5536.1325    4.3325468    4.3325468    4.3325468   -5536.1325   -25878.387    12019.968   -2749.9786   -4438.8588   -296.46509    8097.6966    81.326069 
   10600    1190.9372   -104.67875     1.077585   -103.60116   -5725.1242    4.3373038    4.3373038    4.3373038   -5725.1242    5597.5949    1689.5956   -24462.563    12953.746    3171.2741    1607.5147    81.594247 
   10700    1040.6862   -104.54648   0.94163478   -103.60485   -4796.6501      4.33259      4.33259      4.33259   -4796.6501    3070.9505   -13160.567   -4300.3333    3811.4844    -179.9726    5873.6055    81.328503 
   10800    910.34114   -104.43586    0.8236958   -103.61216   -4597.4481    4.3358294    4.3358294    4.3358294   -4597.4481   -21523.327    602.60748    7128.3749    8010.2002    6550.3459   -3050.7559    81.511061 
   10900    1065.1415   -104.56831   0.96376241   -103.60454    17793.865    4.3229058    4.3229058    4.3229058    17793.865    17153.176    23912.317    12316.104   -5872.3867    5205.7746    5047.0833    80.784364 
   11000    796.71793   -104.33323   0.72088712   -103.61235   -13662.043    4.3349452    4.3349452    4.3349452   -13662.043   -34433.224   -18679.725    12126.819     17962.08   -5788.8614    13322.449    81.461204 
   11100    981.32098   -104.48694   0.88791985   -103.59902     13004.35    4.3341184    4.3341184    4.3341184     13004.35    16521.491    27832.816   -5341.2573     5778.361    5061.4397   -11165.577    81.414603 
   11200    1251.7546   -104.73007    1.1326139   -103.59745   -17244.945    4.3329025    4.3329025    4.3329025   -17244.945   -17621.331   -9648.3943   -24465.111     5566.371   -4050.5402    12626.473      81.3461 
   11300    551.89273   -104.09995   0.49936414   -103.60059   -89.932121    4.3332458    4.3332458    4.3332458   -89.932121    -2557.297    8191.0159   -5903.5153    14443.791    3525.2004   -6202.4477     81.36544 
   11400    1478.4804   -104.93127    1.3377601   -103.59351   -10926.119    4.3235196    4.3235196    4.3235196   -10926.119   -3326.9768   -10884.156   -18567.223   -8156.2189   -673.74198    2357.9614    80.818779 
   11500    751.48992   -104.28573   0.67996387   -103.60576   -8152.2279    4.3384723    4.3384723    4.3384723   -8152.2279   -22307.869   -12010.951    9862.1358    26526.644   -4926.5636     8077.328    81.660212 
   11600    1088.3429   -104.57877   0.98475549   -103.59402   -9071.9576    4.3338844    4.3338844    4.3338844   -9071.9576   -14625.271   -25767.657    13177.056   -10282.519   -1747.6902    2396.4769    81.401415 
   11700    869.34284   -104.38378   0.78659967   -103.59718   -2997.5784    4.3302109    4.3302109    4.3302109   -2997.5784    20301.141   -2453.4602   -26840.416    14338.223       -17538     10919.96      81.1946 
   11800    829.11794   -104.35116   0.75020333   -103.60096      2686.69    4.3297576    4.3297576    4.3297576      2686.69   -17403.476    -17094.84    42558.386    4434.7787   -2913.7758   -682.79248    81.169106 
   11900    1318.4158   -104.79081    1.1929303   -103.59788   -15145.053    4.3385498    4.3385498    4.3385498   -15145.053   -15007.109   -21177.614   -9250.4359   -9066.7357   -7153.9715   -7389.9865    81.664585 
   12000     767.3217   -104.29608    0.6942888   -103.60179   -6939.3444    4.3297042    4.3297042    4.3297042   -6939.3444   -24569.466    3736.4191    15.013482     21643.92   -2983.6923    11308.406    81.166099 
   12100    1107.4058   -104.60324    1.0020041   -103.60124   -8206.4009    4.3217283    4.3217283    4.3217283   -8206.4009   -4913.7401   -10796.906   -8908.5565   -11301.272    960.94136   -16561.038    80.718368 
   12200    892.32804   -104.41768   0.80739717   -103.61029    8937.9352    4.3332613    4.3332613    4.3332613    8937.9352   -4032.5859    17234.318    13612.074    15872.008   -8304.8799    407.05449    81.366313 
   12300    1178.0566   -104.67186    1.0659304   -103.60593   -30099.837    4.3389883    4.3389883    4.3389883   -30099.837   -20862.657   -43325.948   -26110.907    1863.3908    5507.7109   -13160.761    81.689347 
   12400     661.5403   -104.19796   0.59857557   -103.59938    18774.853    4.3268962    4.3268962    4.3268962    18774.853      15494.7     23991.31     16838.55   -9747.4258   -3224.9329    -9300.155    81.008286 
   12500    1227.0094   -104.71135    1.1102239   -103.60113   -23989.695    4.3288122    4.3288122    4.3288122   -23989.695   -36511.857   -25420.094   -10037.135    20527.279    1881.7294    4565.1804    81.115943 
   12600    939.79376   -104.45452   0.85034514   -103.60417    -12006.46    4.3377721    4.3377721    4.3377721    -12006.46   -15572.688   -11069.367   -9377.3264   -6620.2607   -2459.5613   -12517.536    81.620676 
   12700     1077.226   -104.57105    0.9746967   -103.59636   -8633.0771    4.3327602    4.3327602    4.3327602   -8633.0771   -14201.255    7906.8439    -19604.82    6777.3913   -12608.956     2841.902    81.338088 
   12800    919.13547   -104.43066   0.83165309   -103.59901   -6685.0929    4.3272479    4.3272479    4.3272479   -6685.0929    7593.0808     1787.404   -29435.764    5075.5012     8714.558    10151.182    81.028039 
   12900    866.98869   -104.39186   0.78446959   -103.60739    15724.846    4.3310255    4.3310255    4.3310255    15724.846    23258.475    28254.763   -4338.7015   -4934.3051   -7146.1193   -10228.623    81.240432 
   13000    1207.2599   -104.69709    1.0923541   -103.60473   -21048.585    4.3375758    4.3375758    4.3375758   -21048.585   -21879.778   -20929.966    -20336.01    17727.705    2244.6148    6278.5897    81.609596 
   13100    817.69269   -104.34382   0.73986553   -103.60396   -822.68717    4.3252461    4.3252461    4.3252461   -822.68717    6633.6527    9832.8995   -18934.614   -1803.5496   -586.18622   -6210.9999    80.915637 
   13200     1195.289   -104.68385    1.0815226   -103.60232   -5111.2608    4.3279771    4.3279771    4.3279771   -5111.2608   -4877.5058    -4004.612   -6451.6645    266.83865   -9435.9504   -4844.7296    81.069008 
   13300    772.36891   -104.30524   0.69885562   -103.60639    9086.3461    4.3312182    4.3312182    4.3312182    9086.3461     44137.19     1130.896   -18009.047    4034.5004     -385.037   -364.63681    81.251278 
   13400    961.37101   -104.47706    0.8698687    -103.6072   -11828.369     4.332525     4.332525     4.332525   -11828.369    2723.1538   -14218.279   -23989.981    -11402.55   -9042.9468    -16711.59     81.32484 
   13500    1055.7041   -104.55773   0.95522325   -103.60251    13585.661    4.3271133    4.3271133    4.3271133    13585.661     12886.19    38906.688   -11035.894    9037.5444    8061.0315    8975.3372    81.020476 
   13600    1141.1583   -104.63928     1.032544   -103.60673   -29964.535    4.3332503    4.3332503    4.3332503   -29964.535   -23431.029   -30474.318   -35988.258    -4331.901    915.81593   -27522.615     81.36569 
   13700     791.6184   -104.31881   0.71627297   -103.60254    3614.9195     4.336747     4.336747     4.336747    3614.9195   -5783.2483    25601.388   -8973.3815   -5855.8814    5950.9683    7696.6446    81.562825 
   13800    1076.3729   -104.57522   0.97392484   -103.60129   -5324.2353    4.3256441    4.3256441    4.3256441   -5324.2353    20258.231   -19592.215   -16638.722    8768.2065    4376.0362   -19299.716    80.937981 
   13900    913.98092   -104.43131   0.82698914   -103.60432    8093.9355    4.3301934    4.3301934    4.3301934    8093.9355    28892.565     3042.442   -7653.2006   -10340.767    2848.7207   -11195.184    81.193613 
   14000    1075.3363   -104.57135   0.97298687   -103.59837   -14471.737    4.3404913    4.3404913    4.3404913   -14471.737   -24109.958   -9621.6989   -9683.5548   -1064.1221    3705.9175   -4001.2765    81.774272 
   14100    916.92342   -104.42661   0.82965158   -103.59695   -3198.1815    4.3290474    4.3290474    4.3290474   -3198.1815    9366.4819   -18383.543   -577.48335    3673.3085   -5849.5164   -27662.946    81.129168 
   14200     1232.935   -104.71143    1.1155855   -103.59584    6144.5087    4.3270887    4.3270887    4.3270887    6144.5087      4698.33    413.13083    13322.065   -17247.592    1493.9877    4395.1548    81.019093 
   14300    926.35385   -104.43644   0.83818443   -103.59825   -12002.616    4.3376762    4.3376762    4.3376762   -12002.616   -1481.9344   -36952.628    2426.7159    13372.523   -3338.9546   -17124.332    81.615264 
   14400    764.32266   -104.29273    0.6915752   -103.60116   -3519.8981    4.3331615    4.3331615    4.3331615   -3519.8981   -8402.6129   -16899.136    14742.055   -8118.8176    5085.3952   -3504.2554    81.360693 
   14500    1252.4154   -104.73256    1.1332117   -103.59935   -1737.3886    4.3254856    4.3254856    4.3254856   -1737.3886   -7417.9106   -6279.2228    8484.9676   -1143.2708    5062.4265    2596.1871    80.929081 
   14600    670.39712   -104.21736    0.6065894   -103.61077   -2053.3996     4.335487     4.335487     4.335487   -2053.3996   -16955.335   -25189.959    35985.095   -118.15864    10741.077   -18856.221    81.491756 
   14700     1035.121   -104.54445   0.93659921   -103.60785    13104.712    4.3311626    4.3311626    4.3311626    13104.712   -5894.9769    3487.1527    41721.959    -13155.66   -6183.7335    17419.366    81.248148 
   14800    1120.2315      -104.63     1.013609   -103.61639   -30211.897    4.3383401    4.3383401    4.3383401   -30211.897   -22838.209   -46057.077   -21740.404    15723.155   -7286.4816   -30184.339    81.652744 
   14900    1000.9119   -104.51504   0.90564609   -103.60939    23783.476    4.3210683    4.3210683    4.3210683    23783.476   -5317.6753      11235.9    65432.204   -13286.083   -7736.9661    13888.466    80.681396 
   15000     888.5122   -104.41413   0.80394451   -103.61018   -13483.064    4.3354535    4.3354535    4.3354535   -13483.064   -13698.201   -34637.242    7886.2496    2990.1286   -136.61691    381.58518    81.489866 
   15100    1078.4158   -104.57508   0.97577324   -103.59931   -15409.307    4.3359143    4.3359143    4.3359143   -15409.307   -25922.178   -38522.927    18217.183    3396.8781    798.64961      -9881.2    81.515851 
   15200    1126.9424   -104.61453    1.0196812   -103.59485     16563.29    4.3257076    4.3257076    4.3257076     16563.29    4700.4289    9479.2189    35510.222   -9918.0853    7190.1159    16515.948    80.941542 
   15300    755.27429   -104.28396   0.68338805   -103.60057    11085.187    4.3355231    4.3355231    4.3355231    11085.187   -14483.758   -37757.362    85496.681    3688.9447    4247.0558   -14321.496     81.49379 
   15400    980.79833   -104.49972   0.88744694   -103.61227    -17567.78     4.333197     4.333197     4.333197    -17567.78    -18688.64   -19554.248   -14460.451   -4956.4232    2686.6315    -2243.829    81.362689 
   15500    1180.5402   -104.68394    1.0681776   -103.61577    11478.344    4.3190579    4.3190579    4.3190579    11478.344    15411.701    -1797.926    20821.256   -1472.7122   -2143.2307    20781.988    80.568834 
   15600    1005.0832   -104.52743   0.90942036   -103.61801   -10221.771     4.336646     4.336646     4.336646   -10221.771   -4071.1272   -30142.785    3548.5986    1721.7709    6682.3502   -17359.432    81.557128 
   15700    654.86228   -104.20155   0.59253315   -103.60901     17636.39    4.3306652    4.3306652    4.3306652     17636.39   -2458.2099   -5376.5798     60743.96    1738.5475    3699.1113    32314.569     81.22016 
   15800    1319.2077   -104.79194    1.1936468    -103.5983   -4334.4166    4.3266493    4.3266493    4.3266493   -4334.4166    9637.2151   -11014.911   -11625.554    3003.1542     9964.151   -11261.735    80.994417 
   15900    898.17141   -104.42064   0.81268437   -103.60796    1843.3149     4.320495     4.320495     4.320495    1843.3149    1713.1503   -19066.632    22883.426   -1111.8539    1553.1072     17464.37    80.649286 
   16000    1038.4049   -104.54673   0.93957059   -103.60716     2483.963    4.3291962    4.3291962    4.3291962     2483.963    20892.969   -15863.153    2422.0732   -2029.9989    822.60462    16430.212    81.137532 
   16100    1083.7215    -104.5835   0.98057397   -103.60292   -19577.901    4.3341098    4.3341098    4.3341098   -19577.901   -9508.5821   -31955.963   -17269.157    4262.9656    -5634.058   -11221.547    81.414121 
   16200    792.50573   -104.32258   0.71707584    -103.6055    9554.0972    4.3220146    4.3220146    4.3220146    9554.0972    17458.604   -8249.9208    19453.608   -348.16907   -3716.2826    34153.346     80.73441 
   16300    1418.8131   -104.87929    1.2837719   -103.59552    4207.0906    4.3308651    4.3308651    4.3308651    4207.0906    17482.729   -10310.161    5448.7037    8105.0953   -10647.721   -16990.361    81.231406 
   16400    443.70039   -104.00666   0.40146944   -103.60519   -6529.6758    4.3302233    4.3302233    4.3302233   -6529.6758   -5766.7112   -26612.241    12789.925   -8578.6325    1998.4521    29658.881      81.1953 
   16500    1369.9018   -104.83303    1.2395159   -103.59352    6191.7403     4.326121     4.326121     4.326121    6191.7403    28807.884   -14171.369    3938.7061    2920.7163   -8604.0574   -6960.3948    80.964753 
   16600    950.19867   -104.45978   0.85975973   -103.60002    7691.3808    4.3245377    4.3245377    4.3245377    7691.3808     24896.19   -13316.308     11494.26   -2167.0642    11497.863    17892.113     80.87589 
   16700    893.57976   -104.41286   0.80852974   -103.60433   -2433.8439     4.328085     4.328085     4.328085   -2433.8439    26984.916   -28949.907   -5336.5406   -9204.6416   -4262.4749    15017.884    81.075073 
   16800    1089.8546   -104.58094   0.98612332   -103.59482   -6556.6309    4.3375408    4.3375408    4.3375408   -6556.6309   -6430.4792   -16341.978    3102.5648    -1616.235    18054.664    2908.9866    81.607622 
   16900    763.08063   -104.29201   0.69045139   -103.60156    -5315.385     4.322712     4.322712     4.322712    -5315.385    31990.708   -16460.094   -31476.769   -7010.0221    1233.8323    28669.838    80.773501 
   17000    1354.8477   -104.82142    1.2258947   -103.59553    14667.232    4.3199291    4.3199291    4.3199291    14667.232     29685.46   -1580.4105    15896.646   -13311.962    7114.2426   -6913.2188      80.6176 
   17100    813.77654   -104.34431   0.73632212   -103.60799   -21794.675    4.3373349    4.3373349    4.3373349   -21794.675     4791.331   -30601.811   -39573.543    3843.3721    1675.3083    26705.525    81.596003 
   17200    904.74763   -104.42205   0.81863466   -103.60341    16431.282    4.3259838    4.3259838    4.3259838    16431.282    53404.001   -20386.316     16276.16   -10900.232   -10697.175   -6775.7474     80.95705 
   17300    1114.8327   -104.61613    1.0087241   -103.60741    766.19936    4.3241549    4.3241549    4.3241549    766.19936    26713.379   -22776.504   -1638.2765    18204.546    -5412.092    19171.333    80.854416 
   17400    1008.5744   -104.51989   0.91257931   -103.60731    -1367.974    4.3275482    4.3275482    4.3275482    -1367.974    23340.004   -22032.359   -5411.5671    1292.5532   -218.40376    6351.5152    81.044909 
   17500      972.947   -104.48195   0.88034289   -103.60161   -11586.166    4.3354567    4.3354567    4.3354567   -11586.166   -15527.332    -6870.325    -12360.84   -123.26861     4973.655   -969.00213    81.490045 
   17600    787.91821   -104.31552   0.71292495   -103.60259   -2005.4644    4.3242635    4.3242635    4.3242635   -2005.4644    40157.699   -16699.624   -29474.468    6667.0221    1022.2101    23820.062    80.860506 
   17700    1388.9494   -104.85322    1.2567506   -103.59647    7416.1421    4.3186264    4.3186264    4.3186264    7416.1421    6893.2983    977.71853    14377.409   -8729.9033    9114.7726   -22250.379    80.544688 
   17800    788.53685   -104.32096   0.71348471   -103.60748    1162.1576    4.3294684    4.3294684    4.3294684    1162.1576    31259.244   -10331.564   -17441.207   -5707.1038   -4179.5976    34009.556    81.152842 
   17900    961.02102   -104.47207   0.86955202   -103.60252   -1318.2526    4.3303769    4.3303769    4.3303769   -1318.2526   -11703.146   -12354.861    20103.249   -4017.6849    6333.3179   -16765.379    81.203939 
   18000    1070.9125   -104.56932   0.96898418   -103.60033   -11044.856     4.332549     4.332549     4.332549   -11044.856   -2412.2146   -23010.976   -7711.3764   -1036.1277   -12377.177    9875.1381    81.326194 
   18100    985.62464    -104.4915   0.89181389   -103.59969    18520.433    4.3179963    4.3179963    4.3179963    18520.433     33488.18   -14873.176    36946.295   -3423.0913   -85.777567    6644.4399    80.509441 
   18200    1168.1139   -104.66041     1.056934   -103.60347   -20597.899     4.335926     4.335926     4.335926   -20597.899   -1748.7222   -30491.874   -29553.102    5828.2392   -5737.2815   -23372.301    81.516509 
   18300    752.74144   -104.28033   0.68109627   -103.59923    19783.183     4.328791     4.328791     4.328791    19783.183    27677.125    2482.4498    29189.974   -303.62653    -6889.432    24825.716    81.114753 
   18400    1145.1503   -104.63449    1.0361561   -103.59834   -9008.1765    4.3211196    4.3211196    4.3211196   -9008.1765    19782.053   -26813.164   -19993.419    8133.5949   -665.30547   -32715.662    80.684266 
   18500    985.49301   -104.49221   0.89169478   -103.60051     14763.99    4.3249474    4.3249474    4.3249474     14763.99     28241.73    1753.0192    14297.221   -1715.6195   -5247.1782    3671.9288    80.898879 
   18600    1054.9378   -104.55964   0.95452993   -103.60511   -15207.154    4.3310971    4.3310971    4.3310971   -15207.154    2386.4768   -40396.878   -7611.0594     4791.073   -1415.1493   -9818.8247     81.24446 
   18700    872.77062   -104.39338    0.7897012   -103.60368   -9581.0465    4.3348178    4.3348178    4.3348178   -9581.0465    -4278.109   -10518.038   -13946.992     524.9007   -4934.3744   -17949.403    81.454024 
   18800    1109.6766   -104.60122    1.0040587   -103.59716     21805.53    4.3105556    4.3105556    4.3105556     21805.53     24053.06    1233.4254    40130.105    4137.0796    8939.8956    1499.1886    80.093956 
   18900    840.02186    -104.3761   0.76006943   -103.61603    -26222.13    4.3354049    4.3354049    4.3354049    -26222.13    18377.018   -56740.186   -40303.223   -6795.7026   -6568.6863   -29645.714    81.487122 
   19000    1365.3406   -104.83399    1.2353888    -103.5986    15554.641     4.326427     4.326427     4.326427    15554.641    10788.998   -784.32961    36659.254    717.58313    10144.032    2453.0182    80.981935 
   19100    631.64712   -104.18151   0.57152758   -103.60998   -13398.158    4.3201817    4.3201817    4.3201817   -13398.158    16904.616   -27248.842   -29850.247    34.955511   -1952.5419   -16017.868    80.631743 
   19200    970.33876   -104.48637    0.8779829   -103.60838   -2115.2345    4.3265406    4.3265406    4.3265406   -2115.2345   -2451.0241   -5177.8658    1283.1864   -2011.2664    525.65574   -11305.436    80.988315 
   19300    1279.1658   -104.76759    1.1574161   -103.61018   -5550.3952    4.3271795    4.3271795    4.3271795   -5550.3952   -4573.0877    1701.3901   -13779.488    3333.1944      34.7025    -5546.077    81.024195 
   19400    537.46412   -104.10106   0.48630883   -103.61475   -21412.286    4.3368289    4.3368289    4.3368289   -21412.286   -1770.1378    -19851.36   -42615.359    8866.3368    1926.3086    -25840.75    81.567444 
   19500    1517.5094   -104.96792    1.3730744   -103.59485    6281.4211      4.31224      4.31224      4.31224    6281.4211   -9656.4323     9423.017    19077.679   -9971.2495   -12809.726    5628.8344    80.187888 
   19600    596.23549   -104.16005    0.5394864   -103.62056   -8968.8617    4.3308769    4.3308769    4.3308769   -8968.8617    37402.506   -22888.719   -41420.371    1571.9137    8849.8213   -32574.925    81.232071 
   19700     1264.076   -104.74979    1.1437625   -103.60603   -13232.942    4.3362195    4.3362195    4.3362195   -13232.942   -18966.297    5413.5012   -26146.031    -12858.91    -14219.99    15918.045    81.533069 
   19800    968.84631    -104.4778    0.8766325   -103.60117    10634.859    4.3212831    4.3212831    4.3212831    10634.859    50943.632   -16159.347   -2879.7073   -320.80964   -1629.9224   -24628.331    80.693425 
   19900    735.57096    -104.2715   0.66556006   -103.60594   -10190.649    4.3279432    4.3279432    4.3279432   -10190.649   -11209.277    12237.458   -31600.129   -7763.8328    200.18466   -2275.1058    81.067103 
   20000    1245.9676   -104.72655    1.1273777   -103.59917    -9843.743    4.3332272    4.3332272    4.3332272    -9843.743   -1675.9468   -15763.342    -12091.94   -3740.5677    -2194.436    8430.0039    81.364394 
   20100    913.50159   -104.43295   0.82655543    -103.6064   -21792.042     4.331062     4.331062     4.331062   -21792.042    7990.9985   -21846.984   -51520.141   -3371.5197    1325.1443   -33410.021    81.242486 
   20200    1136.9145   -104.63311    1.0287041    -103.6044   -1229.4311     4.315229     4.315229     4.315229   -1229.4311   -12740.552    17216.557   -8164.2984   -32.272696    10988.786    21063.082    80.354748 
   20300    757.01001   -104.30238   0.68495856   -103.61742    528.35764    4.3238609    4.3238609    4.3238609    528.35764    33952.205   -10091.966   -22275.166    2266.9557    -6486.628   -29545.366     80.83792 
   20400    1023.7687   -104.53856   0.92632747   -103.61223   -18221.688    4.3359972    4.3359972    4.3359972   -18221.688   -12047.108    2698.9822   -45316.938    6825.2984    13660.067     5364.257    81.520525 
   20500     1302.672   -104.78306     1.178685   -103.60437   -434.28481    4.3169179    4.3169179    4.3169179   -434.28481    25232.496   -11920.047   -14615.304    102.74267   -10584.311   -4678.9634    80.449131 
   20600    619.56099   -104.17241    0.5605918   -103.61182    -1318.763    4.3240775    4.3240775    4.3240775    -1318.763    5510.3686    13390.615   -22857.273    1493.0697    2104.3263   -18745.808    80.850073 
   20700    1231.1278   -104.71829    1.1139503   -103.60434   -26318.268    4.3311983    4.3311983    4.3311983   -26318.268   -31799.351   -13180.065   -33975.386   -3319.5929   -6081.4848    22630.791    81.250157 
   20800    776.05392   -104.30865   0.70218989   -103.60646    11646.833    4.3263508    4.3263508    4.3263508    11646.833    57904.492   -5127.4247   -17836.568   -4945.1029    -3955.338   -22838.332    80.977656 
   20900    1143.8635   -104.63957    1.0349917   -103.60458   -1657.1802    4.3232532    4.3232532    4.3232532   -1657.1802     29730.86   -16819.971    -17882.43   -2868.7234    5222.3949    17137.495    80.803842 
   21000     1066.561    -104.5725   0.96504679   -103.60746   -19994.021    4.3274949    4.3274949    4.3274949   -19994.021   -16119.089   -13184.046   -30678.927   -5424.7787   -3432.0382   -9954.0158    81.041915 
   21100    952.00545   -104.47301   0.86139454   -103.61162   -16057.163    4.3350183    4.3350183    4.3350183   -16057.163    513.07969   -23702.675   -24981.894   -49.566961    5360.3609    733.34671    81.465326 
   21200    979.79012   -104.49991   0.88653469   -103.61337    6253.6607    4.3207164    4.3207164    4.3207164    6253.6607     31815.98    14087.122   -27142.119    5092.3565   -7771.1898    10657.086    80.661684 
   21300    936.22985   -104.46323   0.84712044   -103.61611    3240.6021    4.3255838    4.3255838    4.3255838    3240.6021    3379.5833    17134.536   -10792.313    941.17399   -17379.181   -7260.6041    80.934595 
   21400      1043.93   -104.55636   0.94456985   -103.61179   -7532.5746    4.3314407    4.3314407    4.3314407   -7532.5746    12998.679   -15449.739   -20146.664   -3650.3253    2229.6606    14047.377    81.263796 
   21500    766.00927    -104.3062   0.69310129    -103.6131    31.005661    4.3284982    4.3284982    4.3284982    31.005661     17323.17   -2030.6061   -15199.547   -2788.2394   -21776.079   -10229.507    81.098295 
   21600     1428.005   -104.89728     1.292089   -103.60519   -16243.999    4.3233426    4.3233426    4.3233426   -16243.999    -4863.158   -26656.164   -17212.675   -12937.041    8884.1741   -3652.6771    80.808856 
   21700    812.25433    -104.3405   0.73494479   -103.60555   -6910.3909    4.3297791    4.3297791    4.3297791   -6910.3909   -8621.7919    3513.6744   -15623.055    687.44907   -3454.5863    7949.8428    81.170315 
   21800    811.09545   -104.33837   0.73389621   -103.60447   -9177.8195    4.3312491    4.3312491    4.3312491   -9177.8195     3701.211   -14263.553   -16971.116   -8927.3375    -8478.488   -8586.7346    81.253017 
   21900    1233.1086   -104.71461    1.1157426   -103.59886    7236.3911    4.3207557    4.3207557    4.3207557    7236.3911    9875.3746    17474.374   -5640.5756    2762.3763    11161.777    22667.542    80.663887 
   22000    833.40385   -104.36318   0.75408132    -103.6091    5861.4435    4.3221355    4.3221355    4.3221355    5861.4435    20664.103    14799.228       -17879    2891.4668   -27300.999   -13985.217    80.741186 
   22100    1021.3108   -104.53219   0.92410349   -103.60809   -10310.048    4.3300911    4.3300911    4.3300911   -10310.048   -5056.1871   -9249.5074   -16624.449    2827.3803    6640.4258    13304.796    81.187861 
   22200    1068.2482   -104.57497   0.96657344    -103.6084   -15394.171    4.3256195    4.3256195    4.3256195   -15394.171   -36264.403    3730.0762   -13648.187    1142.8905   -28090.866    1870.0562    80.936599 
   22300    928.54461   -104.44683   0.84016667   -103.60666    28424.032    4.3155227    4.3155227    4.3155227    28424.032    46675.052    25174.928    13422.116   -6163.5068   -9162.6427    5102.1772    80.371158 
   22400    1093.5741    -104.5941   0.98948884   -103.60461   -17011.717    4.3353818    4.3353818    4.3353818   -17011.717   -14393.952    -17578.75   -19062.448    6678.3812   -15606.488    13158.545    81.485821 
   22500    761.88674   -104.29288   0.68937113   -103.60351   -3316.5331    4.3261783    4.3261783    4.3261783   -3316.5331    5843.0762     19302.22   -35094.896    1427.3474   -24634.055   -6886.5742    80.967971 
   22600    1121.5152   -104.61585    1.0147706   -103.60108    13866.973    4.3147349    4.3147349    4.3147349    13866.973    30820.335   -9595.6537    20376.237   -3410.2172    8705.2888    9309.1037    80.327148 
   22700    1193.3828   -104.68728    1.0797979   -103.60748   -21223.729    4.3275479    4.3275479    4.3275479   -21223.729   -33694.056    1694.9854   -31672.117   -2354.7011   -19535.211    1715.1216    81.044891 
   22800    684.26838   -104.22719   0.61914041   -103.60805    9237.9653    4.3326209    4.3326209    4.3326209    9237.9653   -1922.4129    25980.097    3656.2115   -9390.7406    6811.0522    6843.9915    81.330246 
   22900    1088.9192   -104.58882   0.98527696   -103.60355   -5911.3819    4.3252106    4.3252106    4.3252106   -5911.3819   -18701.857    10894.089   -9926.3781    -1903.924   -14126.653    13048.809    80.913648 
   23000    1118.4629   -104.61302    1.0120087   -103.60101    12025.321    4.3174309    4.3174309    4.3174309    12025.321    2997.6083    32265.099    813.25621    2021.0545   -15620.368   -5424.6803    80.477816 
   23100    829.50087   -104.35854   0.75054982   -103.60799   -2704.7998    4.3298917    4.3298917    4.3298917   -2704.7998    26061.119   -26666.983   -7508.5363   -7015.0302   -2633.4556    9266.2994    81.176648 
   23200    1186.6684   -104.67201    1.0737225   -103.59829   -16273.515    4.3317085    4.3317085    4.3317085   -16273.515   -31791.408    15566.976   -32596.114    2746.7646   -34698.735    1152.2512    81.278873 
   23300    865.47176   -104.38053   0.78309703   -103.59743    13078.417     4.321212     4.321212     4.321212    13078.417    14505.429    1131.3138    23598.509   -9322.9948    7742.8231    8947.5026    80.689442 
   23400    1000.8936     -104.509   0.90562959   -103.60337   -8953.2315    4.3225317    4.3225317    4.3225317   -8953.2315     -12226.9    30436.634   -45069.428    246.24508   -29173.932    10561.144    80.763394 
   23500     1124.805   -104.62332    1.0177472   -103.60557    5278.6604      4.33184      4.33184      4.33184    5278.6604     4613.737    8824.6803    2397.5637     663.1645    3772.8341   -9153.8469    81.286273 
   23600    971.72412   -104.48472    0.8792364   -103.60549   -12331.507    4.3338813    4.3338813    4.3338813   -12331.507    2120.6684   -11756.949   -27358.241   -7227.6095   -538.34823    19502.925    81.401242 
   23700    1058.7884   -104.55604   0.95801404   -103.59803    15031.315     4.319454     4.319454     4.319454    15031.315    3081.0146    42184.837   -171.90727    3598.6637   -16367.358   -4438.5867    80.591003 
   23800    858.61193   -104.38222   0.77689012   -103.60533    10866.415    4.3267839    4.3267839    4.3267839    10866.415    42229.888   -5347.8604   -4282.7835    -8676.754    21025.677    16777.291    81.001978 
   23900    1007.2916   -104.51634   0.91141862   -103.60492    -17657.55    4.3316874    4.3316874    4.3316874    -17657.55   -34191.903    5906.7592   -24687.505    -3703.765   -26228.517    9166.1374    81.277685 
   24000    1212.4219   -104.69762    1.0970248    -103.6006    5178.0568    4.3228817    4.3228817    4.3228817    5178.0568     4688.982   -6230.6291    17075.818    7175.3953    8531.3366   -3010.2512    80.783013 
   24100    776.84956   -104.31118   0.70290981   -103.60827   -483.91778    4.3239367    4.3239367    4.3239367   -483.91778    16154.783    16135.624    -33742.16   -2620.7759   -11913.316    12536.243    80.842173 
   24200     1123.965   -104.62202    1.0169872   -103.60504   -1265.0687     4.326455     4.326455     4.326455   -1265.0687   -19071.123    21044.689   -5768.7719    8489.5255   -15866.876   -1657.0802    80.983506 
   24300    1132.2459   -104.62925    1.0244799   -103.60477      8676.91    4.3235911    4.3235911    4.3235911      8676.91    21884.906    94.266248    4051.5576    -7184.714    13291.351    6849.7103    80.822791 
   24400    822.70532   -104.35133   0.74440106   -103.60693   -1342.1749    4.3193035    4.3193035    4.3193035   -1342.1749   -9472.0938    7101.0019   -1655.4328    239.41465   -26037.087    6759.6729    80.582577 
   24500    1127.6579   -104.62456    1.0203285   -103.60423   -3484.5411    4.3250531    4.3250531    4.3250531   -3484.5411     -1808.43   -2146.2995   -6498.8937   -2098.3425    15281.658   -9794.7658    80.904809 
   24600    951.48017   -104.46722   0.86091925    -103.6063   -571.44638     4.326772     4.326772     4.326772   -571.44638   -5241.4357    13447.401   -9920.3042    -2732.559   -11747.675    16499.005    81.001307 
   24700    1230.6143   -104.71546    1.1134857   -103.60198   -1691.6108    4.3220118    4.3220118    4.3220118   -1691.6108   -29019.118    1246.7505    22697.535   -10920.921   -9067.5681   -718.52355    80.734256 
   24800    778.35136   -104.30818   0.70426867   -103.60391    17276.742    4.3237922    4.3237922    4.3237922    17276.742    21276.176    33122.017   -2567.9673   -3053.5531    16386.815    7910.1817    80.834069 
   24900    967.76602   -104.48125   0.87565503   -103.60559   -8293.0018    4.3240943    4.3240943    4.3240943   -8293.0018   -9965.5414   -14741.794   -171.66959   -11130.299    -16203.09     16039.25    80.851014 
   25000    1156.3346    -104.6475    1.0462759   -103.60123    11040.472    4.3273684    4.3273684    4.3273684    11040.472   -2059.2374    34237.599    943.05577    8394.9947    9942.4673   -1068.0633    81.034807 
   25100    1064.8761    -104.5664   0.96352232   -103.60288   -6187.0585    4.3195904    4.3195904    4.3195904   -6187.0585    -2978.212    -11067.49   -4515.4731    -5242.368   -6452.7448    29670.405    80.598641 
   25200     786.9685   -104.31914   0.71206563   -103.60707   -10585.079    4.3268224    4.3268224    4.3268224   -10585.079   -31603.469    9117.2517    -9269.019   -336.08503   -9752.9253    -4068.693    81.004138 
   25300    1232.2601    -104.7137    1.1149748   -103.59872    10265.971    4.3256076    4.3256076    4.3256076    10265.971   -2087.4848    19281.113    13604.285    4602.4826    13745.968    14157.526    80.935931 
   25400    945.21624    -104.4653   0.85525152   -103.61005   -12245.547    4.3214228    4.3214228    4.3214228   -12245.547   -20269.743   -5524.2247   -10942.672   -8246.7756   -12177.486    9261.1246    80.701253 
   25500    1009.7889   -104.51944   0.91367818   -103.60576    19394.795    4.3202579    4.3202579    4.3202579    19394.795    2829.2389    55432.464   -77.318735    258.33155    8729.1045   -1087.8224    80.636008 
   25600    840.73205   -104.37155   0.76071202   -103.61084   -18488.039    4.3279809    4.3279809    4.3279809   -18488.039   -22693.005   -7299.8886   -25471.223   -4085.4448   -12418.582    10081.968     81.06922 
   25700    1067.5012    -104.5752    0.9658975    -103.6093   -20235.364    4.3293674    4.3293674    4.3293674   -20235.364   -43994.314   -6117.7861   -10593.992   -16565.903   -1681.6994   -2622.0379    81.147163 
   25800    1224.7041   -104.71419     1.108138   -103.60605    18434.417    4.3142068    4.3142068    4.3142068    18434.417    4730.8165    44602.703    5969.7296    2159.7753   -1028.7616   -7169.1621    80.297656 
   25900    569.39548   -104.14271     0.515201   -103.62751   -3467.0495    4.3215912    4.3215912    4.3215912   -3467.0495   -29556.265    42077.231   -22922.114   -18091.865   -15697.154    11780.972    80.710685 
   26000    1355.5346   -104.84171    1.2265162   -103.61519   -18002.924    4.3344222    4.3344222    4.3344222   -18002.924   -26614.875   -15838.878   -11555.018    7765.6755    8082.8093    5818.9248    81.431725 
   26100    858.74991   -104.39197   0.77701496   -103.61495    10994.282    4.3172129    4.3172129    4.3172129    10994.282   -6979.5105    40537.025   -574.66738   -7669.4933   -23714.227   -3040.7252    80.465627 
   26200    918.03168   -104.44551   0.83065436   -103.61486    863.69766    4.3227827    4.3227827    4.3227827    863.69766    -7811.309     8542.964    1859.4379   -8578.4801   -2632.5276    17551.731    80.777465 
   26300    1289.9593   -104.76946    1.1671823   -103.60227   -5465.8073    4.3242559    4.3242559    4.3242559   -5465.8073   -12281.716    8415.8395   -12531.545   -3721.3798   -3614.1222    -21594.67    80.860078 
   26400    362.36236   -103.94183   0.32787308   -103.61396    2723.0454    4.3260613    4.3260613    4.3260613    2723.0454   -24078.042    31044.112    1203.0661   -20485.682   -18027.637    15350.215      80.9614 
   26500    1454.2241   -104.91939    1.3158125   -103.60358    3353.3938    4.3204657    4.3204657    4.3204657    3353.3938   -2932.4506    28005.939   -15013.307   -2602.6715    6506.8737    4615.0039    80.647643 
   26600    1084.0754   -104.59679   0.98089424    -103.6159   -13052.764    4.3224831    4.3224831    4.3224831   -13052.764    -17639.65   -2751.3566   -18767.284   -11734.356   -9465.1082    -7239.179    80.760667 
   26700     866.0014   -104.39916   0.78357627   -103.61558    -20768.28    4.3334025    4.3334025    4.3334025    -20768.28   -37355.938   -6336.1294   -18612.774   -8461.4833   -2250.6763    30205.094    81.374269 
   26800    998.67367   -104.51226   0.90362092   -103.60864    15825.566    4.3175412    4.3175412    4.3175412    15825.566   -15820.414    68408.373   -5111.2604    1237.2252    1997.8152   -14499.744    80.483984 
   26900    869.75585   -104.40969   0.78697337   -103.62272   -2566.8583    4.3249871    4.3249871    4.3249871   -2566.8583   -24024.824    5673.8799     10650.37   -11580.228   -11229.173    14451.648    80.901104 
   27000    1278.9281   -104.77244     1.157201   -103.61524   -11124.031    4.3279107    4.3279107    4.3279107   -11124.031    -21579.22   -2724.8618   -9068.0119    -1977.062    4653.6174    4056.9458     81.06528 
   27100    688.01476    -104.2423   0.62253022   -103.61977    4512.7154     4.319768     4.319768     4.319768    4512.7154   -33185.633    40561.707    6162.0724   -1841.0996   -15985.421   -11751.318    80.608579 
   27200    1207.1571    -104.7041    1.0922611   -103.61184    6883.7542    4.3209453    4.3209453    4.3209453    6883.7542   -2017.3937    20609.063    2059.5931   -15572.797    5283.7545   -1524.8846    80.674502 
   27300    1058.5125   -104.56827   0.95776432   -103.61051   -4188.6882    4.3226921    4.3226921    4.3226921   -4188.6882   -20405.801    19941.407   -12101.671    14369.738   -4184.1784    3715.9709    80.772384 
   27400    749.88853   -104.28904    0.6785149   -103.61053    18430.775    4.3222783    4.3222783    4.3222783    18430.775   -11172.485    59616.521    6848.2896    -13990.33   -9622.7658   -1801.2911    80.749191 
   27500    1331.7655   -104.80979    1.2050094   -103.60478   -1328.6899    4.3199945    4.3199945    4.3199945   -1328.6899   -26559.759    3241.0467    19332.642    13794.359     9468.773    19861.489    80.621262 
   27600    704.11754   -104.24995   0.63710035   -103.61285   -1951.3172    4.3219159    4.3219159    4.3219159   -1951.3172    -20651.67    11378.064    3419.6541   -3203.3426   -18137.775   -7126.4288    80.728883 
   27700    1275.1358   -104.75943    1.1537696   -103.60566    4325.5917    4.3206115    4.3206115    4.3206115    4325.5917   -9293.3461    20505.422    1764.6994   -4288.8403    7271.1243    6760.8596    80.655808 
   27800    850.88535   -104.38367   0.76989895   -103.61377   -7962.8986    4.3254956    4.3254956    4.3254956   -7962.8986   -39973.551    18591.983   -2507.1283    3412.5573   -2852.4184    1149.2217    80.929642 
   27900    927.32402    -104.4491   0.83906226   -103.61003    10704.698    4.3229764    4.3229764    4.3229764    10704.698   -7723.1408    42755.856     -2918.62   -3544.1538   -11462.969   -9088.4654    80.788326 
   28000    1186.6572   -104.67832    1.0737123   -103.60461    -7530.651     4.322072     4.322072     4.322072    -7530.651    -18598.46    3408.0721   -7401.5649   -520.78505      9100.06   -15631.109    80.737629 
   28100    906.66101   -104.43305   0.82036594   -103.61269   -7237.8481    4.3233177    4.3233177    4.3233177   -7237.8481   -32635.592    20359.677   -9437.6292    8444.4168    -19090.25   -3108.0892    80.807458 
   28200    1172.8458   -104.67105    1.0612155   -103.60984    2378.2416    4.3260215    4.3260215    4.3260215    2378.2416   -18620.186    31814.874   -6059.9635    2521.4691    4110.3827   -17865.865    80.959163 
   28300    881.36396   -104.41245   0.79747663   -103.61497   -9439.4112    4.3212755    4.3212755    4.3212755   -9439.4112   -36305.042    11902.758   -3915.9493    9993.2677    -11678.55    4744.5811       80.693 
   28400    1137.0159   -104.64229    1.0287959   -103.61349   -5736.6506    4.3187707    4.3187707    4.3187707   -5736.6506   -11216.133    15291.292   -21285.111   -668.94386   -9680.4937   -9021.0851    80.552762 
   28500    940.66708   -104.46766   0.85113534   -103.61653   -2489.4576    4.3267982    4.3267982    4.3267982   -2489.4576   -39047.918    54455.466   -22875.921    3916.5309   -687.22491   -14201.427    81.002778 
   28600    867.62827   -104.40203   0.78504829   -103.61698   -9730.2461    4.3218561    4.3218561    4.3218561   -9730.2461   -29390.142    3752.4566    -3553.053    4896.6516   -19296.116    2722.8602    80.725532 
   28700    1100.7419   -104.60611   0.99597442   -103.61013    -4044.848     4.321757     4.321757     4.321757    -4044.848   -2087.3416    6766.4856   -16813.688    -7685.764    612.26494   -38178.835    80.719978 
   28800    728.95104    -104.2699   0.65957022   -103.61033   -3794.6498    4.3275595    4.3275595    4.3275595   -3794.6498   -51037.358    42288.715   -2635.3061    16846.028   -10662.916    10957.503    81.045544 
   28900    1240.5077   -104.72351    1.1224375   -103.60108    1365.1295    4.3247413    4.3247413    4.3247413    1365.1295   -9552.3708    30540.469   -16892.709   -2315.9713   -3089.2207   -22664.646    80.887313 
   29000    960.53846   -104.47276   0.86911538   -103.60365   -13894.061    4.3243666    4.3243666    4.3243666   -13894.061   -31369.585   -291.93477   -10020.664    8287.2651   -4605.6435    3814.2414     80.86629 
   29100    734.95993   -104.27326   0.66500719   -103.60826   -7420.9117    4.3246466    4.3246466    4.3246466   -7420.9117   -20194.478    13683.925   -15752.183    4726.1788   -7311.4708    10048.808    80.881996 
   29200    1157.3779   -104.65368    1.0472199   -103.60646    10204.888    4.3219265    4.3219265    4.3219265    10204.888   -16791.538    49082.428   -1676.2264    -3992.198    3340.4653   -2713.9347    80.729475 
   29300    864.50868   -104.40459   0.78222562   -103.62236   -13017.934     4.326377     4.326377     4.326377   -13017.934   -53983.551    33732.944   -18803.196   -2576.4014   -13408.588    5390.1986    80.979128 
   29400    1379.9296   -104.86106    1.2485893   -103.61247    7083.1588    4.3226825    4.3226825    4.3226825    7083.1588    -1072.961    24598.211   -2275.7738   -4072.0104     7100.136   -4870.6679    80.771849 
   29500    499.51464   -104.07327   0.45197134    -103.6213   -17186.905     4.333633     4.333633     4.333633   -17186.905   -54600.334    15618.854   -12579.236   -11836.164   -12303.778   -4995.6865    81.387256 
   29600    1089.5466   -104.59657   0.98584469   -103.61073    12752.431    4.3189834    4.3189834    4.3189834    12752.431   -19407.379    62663.005   -4998.3329    3611.2134   -1742.9096    2972.7136    80.564663 
   29700    1298.1978   -104.78845    1.1746367   -103.61381   -20066.466    4.3274678    4.3274678    4.3274678   -20066.466   -22203.284   -9383.1647   -28612.948   -4496.7515    97.179945      13043.2    81.040392 
   29800    919.04898   -104.44615   0.83157483   -103.61458   -4941.8567    4.3258528    4.3258528    4.3258528   -4941.8567   -38356.205    46836.557   -23305.922    678.43987   -13179.976   -9401.6117    80.949695 
   29900    843.48986   -104.37657   0.76320735   -103.61337   -5609.4574    4.3245849    4.3245849    4.3245849   -5609.4574   -2234.4603   -2764.3575   -11829.555    -1737.854    6406.8354    25995.759    80.878535 
   30000    912.92581   -104.44154   0.82603446    -103.6155   -12142.546    4.3193824    4.3193824    4.3193824   -12142.546   -33044.054    13546.075   -16929.658   -9083.2232   -18646.095     -11055.2    80.586996 
   30100    1450.4107   -104.91736    1.3123621   -103.60499    4924.8854    4.3249653    4.3249653    4.3249653    4924.8854   -4547.9441     26644.96   -7322.3598   -4216.5051    1237.5943    3098.1384     80.89988 
   30200    627.90321   -104.17792   0.56814002   -103.60978    3083.1673    4.3212994    4.3212994    4.3212994    3083.1673     -8160.16    40183.611   -22773.948   -6416.9941   -15784.897    6035.2947    80.694341 
   30300    1048.8768   -104.55124   0.94904579   -103.60219   -4287.1216    4.3204708    4.3204708    4.3204708   -4287.1216   -19401.477    17383.469   -10843.357   -6959.3468   -8118.5432   -5610.8427    80.647932 
   30400    1213.3494   -104.70521    1.0978641   -103.60734   -9292.6791    4.3180645    4.3180645    4.3180645   -9292.6791    5764.7432   -13186.626   -20456.155    6894.4238   -1060.4212    12634.294    80.513253 
   30500    973.02794    -104.5012   0.88041613   -103.62079   -946.45247    4.3222368    4.3222368    4.3222368   -946.45247   -42471.606    57475.326   -17843.078   -15286.129    -21481.33    11010.155    80.746864 
   30600    1165.5445   -104.66248    1.0546092   -103.60787    7089.2815    4.3203169    4.3203169    4.3203169    7089.2815   -1184.0126    14567.951    7883.9059    6096.8668    5978.5181    8874.7757    80.639313 
   30700     563.4475   -104.12079   0.50981914   -103.61098   -3425.8974    4.3172886    4.3172886    4.3172886   -3425.8974   -24537.754    30378.761     -16118.7   -7661.0322   -26420.347    12568.747    80.469858 
   30800    1363.6882   -104.83357    1.2338938   -103.59967   -1474.6345    4.3274466    4.3274466    4.3274466   -1474.6345   -11758.743   -6163.2629    13498.103   -6856.3134   -4856.1283   -2233.7302    81.039202 
   30900     1100.016   -104.59838   0.99531763   -103.60307    5577.0651    4.3176142    4.3176142    4.3176142    5577.0651    3687.8594    30742.372   -17699.037    7535.5456   -3856.3238    4599.0026    80.488068 
   31000    776.56988    -104.3098   0.70265675   -103.60714   -2152.2236    4.3245785    4.3245785    4.3245785   -2152.2236   -24920.015   -10215.902    28679.247   -9076.1687   -16395.817    1983.5218    80.878178 
   31100    1139.9035   -104.63241    1.0314086     -103.601    12692.838    4.3179052    4.3179052    4.3179052    12692.838    14207.521    12847.075    11023.918    5418.5396    8381.1577   -1585.4216    80.504342 
   31200    853.73408   -104.38527   0.77247654    -103.6128     6458.666    4.3167855    4.3167855    4.3167855     6458.666   -7725.7548    10638.834    16462.918    3813.0285    -25067.84    14890.565    80.441734 
   31300    1365.3175   -104.83676     1.235368   -103.60139   -1383.5995    4.3277373    4.3277373    4.3277373   -1383.5995   -21953.022    26173.404    -8371.181     2122.041   -9109.4573   -8154.5741    81.055536 
   31400    651.85551   -104.19392   0.58981257   -103.60411    9345.8443    4.3161372    4.3161372    4.3161372    9345.8443    4042.7082    2767.7627    21227.062    2116.3533   -5151.1019    11513.105    80.405493 
   31500     1027.886   -104.53161   0.93005286   -103.60156   -18241.182    4.3267685    4.3267685    4.3267685   -18241.182   -32327.059   -4002.3427   -18394.144    617.46694    -22414.42    325.47657    81.001113 
   31600    1181.6487   -104.66512    1.0691806   -103.59594    19875.926    4.3156746    4.3156746    4.3156746    19875.926    14802.745    23266.108    21558.923    6001.1322    6543.3632   -6528.4351    80.379643 
   31700     820.4456   -104.35333   0.74235642   -103.61098   -21779.186     4.321628     4.321628     4.321628   -21779.186    -30345.34   -8546.3198   -26445.899    3131.7188   -31109.666     7957.133     80.71275 
   31800    1052.4157   -104.55708   0.95224787   -103.60484    2435.5818    4.3258561    4.3258561    4.3258561    2435.5818    13346.053   -7498.9121    1459.6046    975.41969       3733.5   -8029.0315    80.949878 
   31900    803.59197   -104.33551    0.7271069   -103.60841   -16551.106    4.3307502    4.3307502    4.3307502   -16551.106   -23387.278    -4113.678   -22152.361     -663.543   -13023.422    6727.7733    81.224942 
   32000    1221.8565   -104.70572    1.1055615   -103.60016   -4091.5116    4.3193136    4.3193136    4.3193136   -4091.5116   -10114.871    23980.683   -26140.347   -711.62318   -24796.937    11263.071    80.583146 
   32100    943.19417    -104.4525   0.85342191   -103.59907    14470.845    4.3136938    4.3136938    4.3136938    14470.845    6801.5038    16331.642    20279.389   -1715.0306    8114.9682   -9564.8812    80.269014 
   32200    738.35272   -104.27256   0.66807706   -103.60449   -34542.398    4.3316565    4.3316565    4.3316565   -34542.398   -34741.568   -30732.165   -38153.461    3795.4494   -39066.588    16201.043    81.275943 
   32300    1195.5458   -104.67904    1.0817549   -103.59729    22354.776    4.3169564    4.3169564    4.3169564    22354.776    11321.784    10310.319    45432.225   -4115.6985    12610.243   -12074.372    80.451288 
   32400    1137.6303   -104.63413    1.0293518   -103.60478    -17321.78    4.3220623    4.3220623    4.3220623    -17321.78   -9538.6442   -14225.559   -28201.137   -68.474297   -23126.129    679.61203    80.737086 
   32500     719.4393   -104.25773    0.6509638   -103.60677     10244.89     4.322969     4.322969     4.322969     10244.89    12231.519   -17321.982    35825.134   -2928.3456   -12859.549   -136.87345     80.78791 
   32600    1086.9435   -104.58421   0.98348933   -103.60072   -1203.5474     4.325474     4.325474     4.325474   -1203.5474     5740.281   -11164.504    1813.5806   -5515.0512   -2657.9639   -21724.104    80.928429 
   32700    883.12342   -104.40237   0.79906863    -103.6033    4968.4426    4.3200562    4.3200562    4.3200562    4968.4426   -10027.616    15155.243    9777.7006    3200.1567   -29908.332    7943.3004    80.624717 
   32800    1344.3822   -104.81284    1.2164252   -103.59642    375.73449    4.3206932    4.3206932    4.3206932    375.73449    6663.0552    9448.9242   -14984.776   -2200.4335    7972.8403   -11415.482    80.660387 
   32900    627.62433   -104.17438   0.56788768   -103.60649    438.75634    4.3265198    4.3265198    4.3265198    438.75634    -5146.406   -9964.7965    16427.472    4836.0766   -29067.674    805.49361    80.987143 
   33000    1093.1441   -104.59708    0.9890998   -103.60798   -2060.2189    4.3219866    4.3219866    4.3219866   -2060.2189    14154.348   -7767.1194   -12567.885   -1635.4777   -4691.2747    724.92746    80.732843 
   33100    1188.1025   -104.68075    1.0750202   -103.60573    9795.7816    4.3227627    4.3227627    4.3227627    9795.7816    17453.539    11302.039    631.76715    5139.2093   -1869.8507     -18456.2     80.77634 
   33200    819.28448   -104.34959   0.74130582   -103.60829   -2444.6325    4.3238687    4.3238687    4.3238687   -2444.6325    17007.718    2736.9442    -27078.56    3110.5214   -18381.668    7283.4363    80.838361 
   33300    981.81992    -104.4882    0.8883713   -103.59983   -2046.7838    4.3299155    4.3299155    4.3299155   -2046.7838    9800.2767    -22494.18    6553.5515   -2898.1026    14879.397   -6017.6987    81.177984 
   33400    1009.6776   -104.51696   0.91357755   -103.60338   -2210.5003    4.3175819    4.3175819    4.3175819   -2210.5003   -1987.5988    5072.1716   -9716.0738    6252.5269   -23518.672   -4404.7487    80.486263 
   33500     1013.077   -104.52744   0.91665333   -103.61079   -6379.5609    4.3229296    4.3229296    4.3229296   -6379.5609    6161.9318   -8443.7093   -16856.905     1740.596   -3615.3557    12160.124    80.785701 
   33600    1119.1205   -104.61565    1.0126038   -103.60305   -8283.2797     4.329405     4.329405     4.329405   -8283.2797   -10016.797   -14109.227   -723.81537    986.16174   -6571.7531   -9081.7609    81.149274 
   33700    802.68662   -104.33272   0.72628772   -103.60643    222.48526    4.3216566    4.3216566    4.3216566    222.48526   -1227.1238    5157.7529   -3263.1733   -640.84878   -30081.761    14953.459    80.714353 
   33800    1099.0454   -104.59556   0.99443939   -103.60112    9306.1507    4.3232097    4.3232097    4.3232097    9306.1507     3367.843    12835.833    11714.776     4813.958    7280.8017    13379.804    80.801401 
   33900    949.28579   -104.46402   0.85893373   -103.60509   -21535.774    4.3268265    4.3268265    4.3268265   -21535.774   -30134.711    52.321169   -34524.934    -10016.47   -36855.283   -6756.4108    81.004366 
   34000    1038.7891   -104.54353   0.93991825   -103.60361    5531.7773    4.3225294    4.3225294    4.3225294    5531.7773    10147.158    369.85274    6078.3208    7831.3284    4280.4204     14069.49    80.763263 
   34100    915.23304   -104.43451   0.82812209   -103.60639     -13672.8     4.325885     4.325885     4.325885     -13672.8   -36546.895   -17582.166    13110.662   -9927.3014   -17934.896   -14290.017    80.951503 
   34200    893.90989   -104.41791   0.80882846   -103.60908    1716.3542    4.3251771    4.3251771    4.3251771    1716.3542   -20947.387     13763.69    12332.759   -3834.0534   -13330.768    1493.5152    80.911767 
   34300    1325.7703   -104.80376    1.1995848   -103.60418    -9273.106    4.3253738    4.3253738    4.3253738    -9273.106   -15966.287   -20141.323    8288.2922    4760.6613    3344.4352    3753.9902    80.922804 
   34400    577.18746   -104.13545   0.52225134    -103.6132    18068.532    4.3146488    4.3146488    4.3146488    18068.532     -31856.1    32204.192    53857.505   -6281.3247   -31572.389   -18484.333    80.322341 
   34500    1346.3984   -104.82372    1.2182496   -103.60547   -2120.0462    4.3247746    4.3247746    4.3247746   -2120.0462   -3273.5917    2408.1866   -5494.7335    816.16012    5905.2293    3883.3266    80.889182 
   34600    733.74967   -104.27476   0.66391212   -103.61085   -19759.309    4.3327821    4.3327821    4.3327821   -19759.309   -40503.882    2597.1842    -21371.23   -1821.8882    -23151.29    5517.7063    81.339319 
   34700    1095.3785   -104.59211    0.9911215   -103.60099    9806.8178    4.3151005    4.3151005    4.3151005    9806.8178   -1701.9931    11270.892    19851.555   -1643.7037   -10651.037   -11669.749    80.347569 
   34800    1147.5106   -104.64135    1.0382917   -103.60306    5273.0404    4.3224853    4.3224853    4.3224853    5273.0404   -11735.555   -6933.4457    34488.122    4142.2225    6363.3198    15656.189     80.76079 
   34900    591.58181   -104.14547   0.53527565    -103.6102   -3845.0744    4.3321541    4.3321541    4.3321541   -3845.0744   -39759.914    21681.455    6543.2357   -6549.3715   -31366.704   -7910.7767    81.303958 
   35000    1384.2085    -104.8497     1.252461   -103.59724    663.29198    4.3216838    4.3216838    4.3216838    663.29198   -185.74367   -9376.2087    11551.828    7671.7892    10289.325    1656.4182    80.715876 
   35100    776.00891    -104.3105   0.70214917   -103.60835   -3574.4704    4.3246818    4.3246818    4.3246818   -3574.4704   -47526.337    36158.867      644.059   -7256.0971   -30740.971    12948.193    80.883976 
   35200    1176.2425   -104.67028    1.0642889   -103.60599   -14432.622    4.3221961    4.3221961    4.3221961   -14432.622    -20380.91   -11893.072   -11023.885    420.61743     2946.719   -23569.089    80.744581 
   35300    1066.0013   -104.57093   0.96454041   -103.60639   -15488.871     4.329122     4.329122     4.329122   -15488.871   -35978.813    15166.852   -25654.653    -780.0414    -14234.58   -3956.4818     81.13336 
   35400     632.3202   -104.17926    0.5721366   -103.60713    5083.8507    4.3274569    4.3274569    4.3274569    5083.8507   -27919.761    12886.095    30285.217   -3983.9337   -24162.394   -3599.3923     81.03978 
   35500    1425.0755    -104.8866    1.2894383   -103.59716    6185.9287    4.3169192    4.3169192    4.3169192    6185.9287    6163.7139    1381.6269    11012.445   -182.04307    2958.0441   -28075.179    80.449203 
   35600    872.62261   -104.39457   0.78956728     -103.605   -865.02593    4.3290949    4.3290949    4.3290949   -865.02593   -27832.104    21360.564    3876.4622   -5016.0307    -29608.24    10841.504    81.131839 
   35700    869.24128   -104.38713   0.78650778   -103.60062   -10621.443    4.3259552    4.3259552    4.3259552   -10621.443    20887.141    -20151.57   -32599.901   -3233.3944     5894.238    -11256.34    80.955442 
   35800    1109.7176   -104.60348    1.0040958   -103.59939    9956.2144    4.3186249    4.3186249    4.3186249    9956.2144   -6510.6577    30365.585    6013.7157    1365.3439    -5394.066   -1423.1339    80.544605 
   35900    1025.0198   -104.53091   0.92745942   -103.60345   -4952.6907    4.3282555    4.3282555    4.3282555   -4952.6907   -15654.808   -15059.426    15856.162   -170.51067   -9704.7124    7866.7383    81.084653 
   36000    1014.9619   -104.52094   0.91835883   -103.60258    -8238.679    4.3271906    4.3271906    4.3271906    -8238.679    7457.3954   -2495.8166   -29677.616    2186.8708    9626.3718   -3638.3789    81.024821 
   36100    934.94612   -104.44735    0.8459589   -103.60139    13751.804     4.323317     4.323317     4.323317    13751.804   -27697.779     16182.92    52770.271   -4234.1984   -11788.303    1536.0209    80.807419 
   36200    978.26538   -104.49279   0.88515508   -103.60764   -7204.6165    4.3285256    4.3285256    4.3285256   -7204.6165    2756.8037   -17443.039    -6927.614   -6259.6319    6642.2269    7275.1906    81.099834 
   36300    1195.5078   -104.68435    1.0817206   -103.60263    2710.5346    4.3244598    4.3244598    4.3244598    2710.5346    3318.3199    8017.2511   -3203.9673    3138.6627    5130.8017   -16362.109    80.871517 
   36400    932.02696   -104.45282   0.84331758    -103.6095   -22801.168    4.3293644    4.3293644    4.3293644   -22801.168   -8881.0259   -25002.424   -34520.055   -4551.7921   -12096.709    16978.668    81.146993 
   36500    618.17999   -104.17295   0.55934224   -103.61361    27774.604    4.3137969    4.3137969    4.3137969    27774.604    36171.838    29080.767    18071.207   -5665.2717     9349.347    -13999.99     80.27477 
   36600     1507.215   -104.97466    1.3637598    -103.6109   -11286.799    4.3302289    4.3302289    4.3302289   -11286.799   -25698.216     -6403.05   -1759.1302   -3668.7802    3381.8403   -4012.5785    81.195613 
   36700    691.27891   -104.23624   0.62548368   -103.61076    4570.1842    4.3259061    4.3259061    4.3259061    4570.1842    8997.0357    16766.181   -12052.664   -4272.8496    2774.8949    7.2867334    80.952687 
   36800    784.05736   -104.31407   0.70943158   -103.60464     10756.16    4.3191954    4.3191954    4.3191954     10756.16    13113.616    1515.4591    17639.403    801.34928    18742.088   -4152.6547    80.576531 
   36900     1474.723   -104.93356    1.3343604    -103.5992    -6589.168    4.3301713    4.3301713    4.3301713    -6589.168    -17744.81   -15474.172    13451.477    7228.4589   -8836.3671   -3279.0067    81.192372 
   37000    849.11039   -104.37153   0.76829292   -103.60324    3940.8342    4.3216858    4.3216858    4.3216858    3940.8342    14294.488   -7529.5159    5057.5307     -2780.69     9735.993   -4277.6609    80.715986 
   37100    1085.0966   -104.58426   0.98181823   -103.60245   -9817.7636     4.328334     4.328334     4.328334   -9817.7636   -9849.6004   -10431.985   -9171.7057    8546.6481    7516.0423    1841.1312    81.089065 
   37200    984.43595   -104.49481   0.89073834   -103.60407    21122.724    4.3158951    4.3158951    4.3158951    21122.724    21388.363    15266.074    26713.736     -8772.11   -717.15668    2605.0674    80.391964 
   37300    958.77907   -104.48241   0.86752345   -103.61488   -7423.6967    4.3264971    4.3264971    4.3264971   -7423.6967    16546.234   -23325.212   -15492.112     1988.306     26574.48    -6091.596    80.985871 
   37400    1223.8526   -104.70954    1.1073675   -103.60217    9596.1032    4.3248216    4.3248216    4.3248216    9596.1032       5156.6   -9149.0912    32780.801    2896.0463   -12581.093    3585.4262    80.891818 
   37500    743.08062   -104.27803   0.67235496   -103.60568    7139.1786    4.3139198    4.3139198    4.3139198    7139.1786    16465.415     13880.59   -8928.4687   -6653.2892    12745.795   -10580.123    80.281636 
   37600    1028.6615   -104.53907   0.93075458   -103.60832   -13184.087    4.3251911    4.3251911    4.3251911   -13184.087    -27653.26   -26925.522    15026.522    13951.103    10365.571    -52.73137    80.912551 
   37700    1407.4173   -104.87311    1.2734607   -103.59965   -3227.9217    4.3268362    4.3268362    4.3268362   -3227.9217    -9446.923    3719.5764   -3956.4185   -1005.0345   -457.91489    6858.1877    81.004915 
   37800    641.12619   -104.18732   0.58010445   -103.60722   -21220.476     4.327857     4.327857     4.327857   -21220.476    1663.5349   -19037.313   -46287.651    7950.9523     17498.58   -9202.4604    81.062257 
   37900    1002.9256   -104.50683   0.90746818   -103.59937    22463.824    4.3109656    4.3109656    4.3109656    22463.824    8585.4284    10895.418    47910.625     9093.446   -14379.048    5061.9246    80.116813 
   38000     1167.921   -104.66199    1.0567595   -103.60523   -7006.9606    4.3283757    4.3283757    4.3283757   -7006.9606   -18963.773    2078.8854    -4135.994    639.11306    8621.4488   -3953.2649    81.091407 
   38100    784.73449   -104.31901   0.71004426   -103.60896   -18068.377    4.3283824    4.3283824    4.3283824   -18068.377   -39854.122    -33965.15     19614.14    12157.467    10400.711   -10436.622    81.091788 
   38200    1269.2188   -104.74442    1.1484158     -103.596    17979.094    4.3117277    4.3117277    4.3117277    17979.094    29743.841    30352.066   -6158.6253    6627.5582   -4862.9264    9610.9503    80.159309 
   38300    783.97156   -104.31841   0.70935394   -103.60906     -14103.4    4.3273311    4.3273311    4.3273311     -14103.4   -26563.637    -20264.63    4518.0685   -841.88219    17270.104   -13555.748    81.032714 
   38400    1067.9473   -104.57202   0.96630116   -103.60572    2653.0361    4.3262607    4.3262607    4.3262607    2653.0361   -10798.458   -6344.3958    25101.963     11360.02   -7131.9034   -3611.7268    80.972596 
   38500    1133.2019   -104.62595    1.0253449   -103.60061   -3763.9776    4.3248234    4.3248234    4.3248234   -3763.9776    5335.4085    -9944.687   -6682.6543   -767.99617    12559.339   -4066.2729    80.891916 
   38600    812.77648   -104.33855   0.73541724   -103.60313    12019.238    4.3120728    4.3120728    4.3120728    12019.238   -5924.3999    5093.7158    36888.398    17879.875    12322.162   -8148.1554     80.17856 
   38700    1140.1911    -104.6382    1.0316689   -103.60653    1089.6572    4.3287423    4.3287423    4.3287423    1089.6572    28144.092   -22174.387   -2700.7334   -144.10528   -6171.2298    9338.1107    81.112018 
   38800    993.67937    -104.5058   0.89910197    -103.6067   -12549.978    4.3299008    4.3299008    4.3299008   -12549.978   -36240.756   -23333.583    21924.406    6461.9662    11672.743    3876.1595    81.177159 
   38900    925.46372    -104.4414   0.83737903   -103.60402    16942.074    4.3128235    4.3128235    4.3128235    16942.074    49809.245    597.07835    419.89734    13711.743   -2920.9994   -3485.0772    80.220445 
   39000    1171.1477   -104.66346     1.059679   -103.60378   -4910.1363    4.3211878    4.3211878    4.3211878   -4910.1363   -2508.0828   -14699.018     2476.692   -7086.0594    4879.3345     19470.12    80.688088 
   39100    778.22499   -104.30908   0.70415433   -103.60493    1519.1291    4.3280826    4.3280826    4.3280826    1519.1291    11055.829   -864.13713   -5634.3045    19147.881   -2167.9342   -7456.4733    81.074936 
   39200    1060.5935   -104.56022   0.95964729   -103.60057   -3441.3346    4.3247203    4.3247203    4.3247203   -3441.3346    9085.5554   -23019.672     3610.113   -8077.1898   -3292.1913    20780.972    80.886131 
   39300    1129.4826    -104.6202    1.0219796   -103.59822    6588.8082     4.315729     4.315729     4.315729    6588.8082    20468.037   -11599.497    10897.884    2705.2386    6019.1149    1744.3332    80.382681 
   39400    942.75068   -104.45537   0.85302063   -103.60235   -3596.0624    4.3261708    4.3261708    4.3261708   -3596.0624   -1018.0323   -3194.7237   -6575.4313    4370.7896    3142.1343    5067.3278    80.967549 
   39500    973.89952    -104.4813   0.88120476   -103.60009   -4438.8383    4.3250664    4.3250664    4.3250664   -4438.8383    19977.478   -20702.527   -12591.466   -1365.0019    5179.5296    13657.041    80.905554 
   39600    947.82491   -104.45888    0.8576119   -103.60127    9309.7761    4.3174812    4.3174812    4.3174812    9309.7761     4053.466    16005.938    7869.9246     15945.39    2838.7695   -8120.6408    80.480632 
   39700    1199.6558   -104.68681    1.0854738   -103.60134   -2743.4621    4.3200439    4.3200439    4.3200439   -2743.4621    20575.991   -13328.927    -15477.45   -2173.9434    4724.0495    23950.624    80.624025 
   39800    931.30578   -104.44506   0.84266504    -103.6024   -3553.6943     4.325538     4.325538     4.325538   -3553.6943   -23603.146    2422.7229     10519.34    9787.6297    13789.546   -9809.3248    80.932024 
   39900    854.48779    -104.3744   0.77315851   -103.60124    1225.9767    4.3268098    4.3268098    4.3268098    1225.9767    54.874593    11178.847   -7555.7912    13275.053    3157.6105     3552.642    81.003432 
   40000    1044.6516   -104.54412   0.94522269   -103.59889    10227.113     4.318071     4.318071     4.318071    10227.113    38084.754    1067.1368   -8470.5506    6789.9669    16360.507    5394.5345    80.513617 
   40100    972.83083   -104.48497   0.88023778   -103.60473    4773.8629    4.3202172    4.3202172    4.3202172    4773.8629   -9500.4444    6795.9639    17026.069     14703.26    3252.8821   -9159.7316    80.633728 
   40200    1120.6649    -104.6177    1.0140012    -103.6037   -11303.636    4.3223611    4.3223611    4.3223611   -11303.636   -4265.2465    -14245.51   -15400.151   -9169.1412    307.00968    16220.427    80.753834 
   40300    860.19384   -104.38628   0.77832147   -103.60795   -2529.4285    4.3225119    4.3225119    4.3225119   -2529.4285   -28350.972   -1587.6305    22350.317    9274.4551    12294.673   -6115.3573    80.762282 
   40400    1097.6993   -104.59552    0.9932214    -103.6023   -233.09164     4.326318     4.326318     4.326318   -233.09164    3258.9641    4866.4462   -8824.6852    6520.4525   -8341.0233     8171.577    80.975812 
   40500    1004.3842   -104.50991   0.90878794   -103.60112    9038.8842    4.3152372    4.3152372    4.3152372    9038.8842     14122.15    9363.5592    3630.9433    656.51293    4932.3943    14301.703    80.355208 
   40600    796.84219   -104.32981   0.72099956   -103.60881   -8643.9344    4.3223291    4.3223291    4.3223291   -8643.9344   -20295.574   -575.71408   -5060.5146    10250.205    -1969.553   -4229.9614    80.752036 
   40700    1226.5585   -104.71238    1.1098159   -103.60257   -5100.9493    4.3252192    4.3252192    4.3252192   -5100.9493    806.59569    442.87658    -16552.32   -7819.9088    -10032.36    17596.167    80.914129 
   40800    999.52401   -104.51204   0.90439033   -103.60765   -8679.8681    4.3235232    4.3235232    4.3235232   -8679.8681   -18928.921   -11072.976    3962.2929    14375.644    11097.879   -6073.0337    80.818982 
   40900    858.33249   -104.38376   0.77663728   -103.60712   -5511.6133    4.3215854    4.3215854    4.3215854   -5511.6133    -16627.22    17756.701   -17664.321    15665.679   -13805.232    6923.3979    80.710361 
   41000    1028.8438   -104.53496   0.93091949   -103.60404     13430.33    4.3160077    4.3160077    4.3160077     13430.33    16647.379    356.93943    23286.671    587.31557    13849.652   -4351.4616    80.398258 
   41100    758.24331   -104.29933   0.68607448   -103.61326   -12726.879    4.3288357    4.3288357    4.3288357   -12726.879   -27681.978    5607.7703   -16106.428    16554.257    827.42032   -4811.5161    81.117269 
   41200    1387.6244   -104.85836    1.2555517   -103.60281   -1316.8507    4.3188329    4.3188329    4.3188329   -1316.8507   -16296.035    284.86941    12060.613   -4178.1796   -3856.5083    3743.3526    80.556244 
   41300    907.67574    -104.4296   0.82128408   -103.60831   -93.855718    4.3149984    4.3149984    4.3149984   -93.855718    -21167.23    23844.786   -2959.1228    10909.733    10174.438    1597.9084    80.341864 
   41400    760.74043    -104.3034   0.68833393   -103.61507   -4766.5244    4.3272903    4.3272903    4.3272903   -4766.5244    4119.4294   -3346.5434   -15072.459    10980.888   -19689.792   -2549.3434     81.03042 
   41500    1327.4142   -104.80198    1.2010723   -103.60091    4676.5051    4.3315668    4.3315668    4.3315668    4676.5051    19579.863    2793.7885   -8344.1358    1230.1107    16650.911    10015.076    81.270896 
   41600    693.57499   -104.23642   0.62756123   -103.60886   -7099.0571    4.3173515    4.3173515    4.3173515   -7099.0571    -28303.89    17470.284   -10463.566    14049.615   -16986.743   -9081.6055    80.473376 
   41700    1181.3011   -104.67332     1.068866   -103.60446    3804.7282    4.3140131    4.3140131    4.3140131    3804.7282   -14540.175    23531.282    2423.0773    2912.2668   -1016.8786    7538.8048    80.286842 
   41800    857.15147   -104.38312   0.77556867   -103.60755    5746.9858     4.330382     4.330382     4.330382    5746.9858    1227.5869    8800.1311    7213.2392   -5253.0959    5872.4293   -5482.5141    81.204228 
   41900    1015.7796   -104.52806   0.91909874   -103.60896   -6391.7026    4.3219024    4.3219024    4.3219024   -6391.7026    13705.342   -15566.468   -17313.982    14050.084   -21646.419   -3850.4705    80.728126 
   42000    1205.0815   -104.69251     1.090383   -103.60213    17064.768    4.3167459    4.3167459    4.3167459    17064.768   -2366.3912    26302.548    27258.146   -7283.5926    3142.4835   -4251.8164    80.439516 
   42100    787.79062     -104.324   0.71280951    -103.6112   -16424.863    4.3237279    4.3237279    4.3237279   -16424.863   -45681.772    2927.2791   -6520.0948     1784.477   -12320.677   -2243.8592    80.830462 
   42200    1130.9879   -104.63174    1.0233416    -103.6084   -1596.0052    4.3249187    4.3249187    4.3249187   -1596.0052    19515.309   -18441.457   -5861.8684   -6609.1407   -11400.482   -13253.618    80.897266 
   42300    1130.4285   -104.62744    1.0228355    -103.6046    18814.801    4.3188935    4.3188935    4.3188935    18814.801    24154.319    18224.556    14065.529    -11144.56   -6948.7811    -569.9321    80.559635 
   42400    820.60413   -104.35212   0.74249986   -103.60962   -16240.695    4.3236802    4.3236802    4.3236802   -16240.695   -8499.4155   -6610.2869   -33612.383     14607.84   -14279.285   -7524.4185    80.827789 
   42500    1030.5524   -104.53494   0.93246547   -103.60247   -666.11991    4.3282109    4.3282109    4.3282109   -666.11991   -9597.8722    6994.0561    605.45641   -9039.0479    3777.9967    3118.0973    81.082148 
   42600    1293.0744   -104.77381    1.1700009   -103.60381     973.5883    4.3147235    4.3147235    4.3147235     973.5883    95.633088    719.79172    2105.3401    4235.7281   -7746.2394   -1590.0819    80.326515 
   42700     692.8217   -104.24446   0.62687963   -103.61758    2106.6004    4.3212137    4.3212137    4.3212137    2106.6004    30215.468   -19369.257   -4526.4098    5179.7945    -6440.299   -9314.0083    80.689538 
   42800    1209.0592    -104.6971    1.0939822   -103.60312   -5124.5751     4.325129     4.325129     4.325129   -5124.5751   -6327.3295   -13801.282    4754.8857   -742.72273   -3481.6232    7618.6924    80.909069 
   42900    613.09636   -104.16451   0.55474247   -103.60977   -2692.1985    4.3219128    4.3219128    4.3219128   -2692.1985   -4652.2223     6307.292   -9731.6653     8542.828   -13565.451   -11573.262    80.728708 
   43000    1269.5327    -104.7528    1.1486999    -103.6041   -10737.698     4.321879     4.321879     4.321879   -10737.698    2450.0512   -26328.406   -8334.7388    2356.8899    3293.3047    4535.0956    80.726814 
   43100    1224.1668   -104.71171    1.1076518   -103.60406    9852.8532    4.3219371    4.3219371    4.3219371    9852.8532    3992.9079      18511.6    7054.0519   -4572.2081   -9447.4729   -4803.6128    80.730071 
   43200    589.19484   -104.14549   0.53311588   -103.61238   -3273.0685    4.3224881    4.3224881    4.3224881   -3273.0685    -2366.464   -7986.0792    533.33781    6762.5669   -7748.6015   -1457.3021    80.760947 
   43300    1128.4376   -104.62565    1.0210341   -103.60462     7690.977    4.3218854    4.3218854    4.3218854     7690.977     20730.94    -9837.455    12179.446   -4646.3383    7388.8281    4590.6567    80.727172 
   43400    1030.5472   -104.53884   0.93246075   -103.60638    10993.479    4.3228541    4.3228541    4.3228541    10993.479    27217.121    6052.0544    -288.7378    3625.3898    2428.0661    -16416.46    80.781466 
   43500    1025.7777   -104.53151   0.92814521   -103.60336   -9412.5793    4.3238025    4.3238025    4.3238025   -9412.5793    2804.1084   -15605.283   -15436.563    3945.2749    13478.532    11195.601    80.834644 
   43600    978.98582   -104.48517   0.88580694   -103.59936   -5003.2044    4.3243832    4.3243832    4.3243832   -5003.2044    -21671.66    6428.0246     234.0223   -5528.1372    16185.876   -12277.669    80.867219 
   43700    951.35994   -104.46438   0.86081047   -103.60357     15082.24    4.3172452    4.3172452    4.3172452     15082.24    52311.914   -6955.2318   -109.96374    3557.1313   -3879.4989   -125.63923    80.467432 
   43800    1126.2585    -104.6249    1.0190624   -103.60584   -4590.4623    4.3275071    4.3275071    4.3275071   -4590.4623    1429.3493   -9074.0949   -6126.6412   -2531.3348    25831.088    5980.4348    81.042598 
   43900    1094.4511   -104.59207   0.99028237   -103.60179    2371.7986    4.3212458    4.3212458    4.3212458    2371.7986    7722.8301    11164.517   -11771.951    5498.5372   -4249.4299   -4684.0939    80.691335 
   44000    846.06615   -104.37064   0.76553843    -103.6051   -6006.2605    4.3229287    4.3229287    4.3229287   -6006.2605   -28491.613    2937.3731    7535.4587    62.543861    8873.0202    6258.3655    80.785649 
   44100    1048.4484   -104.55316   0.94865816    -103.6045    117.38859      4.32555      4.32555      4.32555    117.38859   -1260.2145    9514.4313    -7902.051   -4959.0427    9955.0028   -231.30679    80.932694 
   44200    1139.6988   -104.63269    1.0312234   -103.60147    10237.938    4.3213575    4.3213575    4.3213575    10237.938    31482.668    358.76543   -1127.6201   -4588.0295   -10226.863   -2297.5489    80.697597 
   44300    899.12816    -104.4183   0.81355006   -103.60475    -11599.76    4.3264414    4.3264414    4.3264414    -11599.76   -8229.9475   -8586.4834   -17982.848     1786.459    27770.328    5855.1956    80.982739 
   44400    1096.2631   -104.59215   0.99192185   -103.60023    1363.1371    4.3172185    4.3172185    4.3172185    1363.1371    3937.6198   -1482.2549    1634.0464   -2852.2849    3511.2966   -8153.0353    80.465938 
   44500    936.67236   -104.45452   0.84752083   -103.60699    1432.9629    4.3250615    4.3250615    4.3250615    1432.9629    3380.6896   -3607.1173    4525.3163   -570.41794    6468.4153    5037.3949    80.905281 
   44600    1079.4158   -104.58011   0.97667813   -103.60343    2485.3401    4.3220004    4.3220004    4.3220004    2485.3401    3055.8098    10270.224   -5870.0132   -8748.5765    15596.315   -11179.714    80.733616 
   44700    959.39082   -104.46834   0.86807698   -103.60026    11825.368    4.3168307    4.3168307    4.3168307    11825.368    56.070154    11407.353     24012.68    5047.0241    -2571.855    1800.5067    80.444257 
   44800    1036.8985   -104.53526   0.93820759   -103.59705   -20554.946    4.3315635    4.3315635    4.3315635   -20554.946   -42346.195   -4953.0482   -14365.596    2219.0196    21402.751   -1268.6516    81.270712 
   44900    985.23451   -104.48984   0.89146089   -103.59838    18051.931    4.3137184    4.3137184    4.3137184    18051.931    24790.466    17594.888     11770.44   -3400.9841    2243.8154   -10823.545    80.270392 
   45000    1162.3921   -104.65343    1.0517568   -103.60167    2927.3827    4.3224693    4.3224693    4.3224693    2927.3827   -6697.4044    28381.168   -12901.616     11628.71    9466.0342    8047.0131    80.759894 
   45100    908.96477   -104.42179   0.82245043   -103.59934   -1346.4733    4.3268406    4.3268406    4.3268406   -1346.4733   -11150.272    16376.352   -9265.4998   -16945.939    3277.8691   -12823.032    81.005162 
   45200    849.78055   -104.37214    0.7688993   -103.60324   -12608.944    4.3208241    4.3208241    4.3208241   -12608.944    -15806.25   -28006.135    5985.5536    13615.409    765.46757   -1292.3254    80.667715 
   45300    1252.4333   -104.73543    1.1332279   -103.60221     14911.48    4.3135082    4.3135082    4.3135082     14911.48   -9932.3367    45597.421    9069.3548    2164.5708    12948.611    5573.8773    80.258656 
   45400    876.29857   -104.40594   0.79289336   -103.61305   -2257.4536     4.327495     4.327495     4.327495   -2257.4536   -5940.6994     11591.24   -12422.902   -9183.6142   -3882.8721   -3304.9658    81.041918 
   45500    975.24558   -104.48864    0.8824227   -103.60622   -5162.5465    4.3218613    4.3218613    4.3218613   -5162.5465   -23602.516    15002.031   -6887.1545    17042.122    7921.4051   -3392.7944     80.72582 
   45600    913.92464   -104.42943   0.82693822   -103.60249    4264.2067     4.313868     4.313868     4.313868    4264.2067    26156.502    -20293.43    6929.5473   -12651.326    5480.8442   -3680.2596     80.27874 
   45700    1064.1343   -104.56838   0.96285105   -103.60553   -18043.164    4.3241705    4.3241705    4.3241705   -18043.164   -20704.105   -19407.706   -14017.681    23351.987   -6898.5307   -15647.389    80.855288 
   45800    1246.3931   -104.72625    1.1277627   -103.59849    9201.9468     4.318782     4.318782     4.318782    9201.9468   -7920.6902    48520.674   -12994.143   -3834.5721    6105.9702    1998.1217    80.553393 
   45900    626.55494    -104.1736   0.56692007   -103.60668   -10573.446    4.3228839    4.3228839    4.3228839   -10573.446   -4624.7374   -28617.059    1521.4598   -7261.9048   -4148.5831   -11265.729    80.783137 
   46000    1100.2444   -104.60019   0.99552424   -103.60467    3595.0637    4.3139192    4.3139192    4.3139192    3595.0637   -13817.779    27217.074   -2614.1037    21070.266    899.14784    -3889.416      80.2816 
   46100    1182.4698    -104.6759    1.0699235   -103.60598    4264.8046    4.3219735    4.3219735    4.3219735    4264.8046     7885.933    18008.213   -13099.732   -12872.075    1396.3395   -4363.3291     80.73211 
   46200    687.90343   -104.22866   0.62242948   -103.60623   -16870.769    4.3283727    4.3283727    4.3283727   -16870.769   -35885.335   -17716.217    2989.2441    10321.586   -2937.8387   -14185.002    81.091243 
   46300    1295.7641   -104.76641    1.1724346   -103.59397   -2603.4574    4.3163801    4.3163801    4.3163801   -2603.4574   -2094.8538     -6621.36    905.84156    2799.9844   -1399.7204    10036.437    80.419072 
   46400    868.58405   -104.38702    0.7859131    -103.6011   -5241.5744    4.3238838    4.3238838    4.3238838   -5241.5744    8096.4392   -14811.552   -9009.6106    -5011.152    -5223.735   -13895.655    80.839208 
   46500    1116.3936   -104.60937    1.0101364   -103.59924    3050.9065     4.319883     4.319883     4.319883    3050.9065   -14375.883    23829.021   -300.41885    29190.036    7813.6759   -1536.0142    80.615019 
   46600      957.326   -104.46599   0.86620868   -103.59978    6994.6332    4.3190103    4.3190103    4.3190103    6994.6332    12097.187    8146.2488    740.46419   -19472.588    -2973.952    1721.0474    80.566172 
   46700    829.48447   -104.35418   0.75053498   -103.60365    -14391.15    4.3261881    4.3261881    4.3261881    -14391.15   -33934.127   -26615.408    17376.085    18637.957    4138.0005   -18894.926     80.96852 
   46800    1359.4561   -104.82511    1.2300645   -103.59504     17761.48    4.3180851    4.3180851    4.3180851     17761.48    16226.011    35265.038     1793.392   -1290.9901   -804.69121    21840.302    80.514404 
   46900    683.33795   -104.22292   0.61829854   -103.60463   -11417.197    4.3244115    4.3244115    4.3244115   -11417.197   -20916.459   -17836.175    4501.0428    4976.3119   -3285.0013   -3510.6483    80.868806 
   47000    949.57405   -104.45719   0.85919455   -103.59799   -3890.3772     4.316465     4.316465     4.316465   -3890.3772   -17036.623   -7782.4118    13147.903    20989.485   -417.31644    1270.8098    80.423818 
   47100    1142.6361   -104.63643    1.0338812   -103.60255    3784.0492    4.3197045    4.3197045    4.3197045    3784.0492    15956.438    1296.9954   -5901.2856   -18098.667    1923.8931     7485.373    80.605026 
   47200    952.61948   -104.46724   0.86195013   -103.60529   -16428.384    4.3298902    4.3298902    4.3298902   -16428.384   -45299.417    5980.9528   -9966.6875    24790.437    1839.4033   -10310.721    81.176559 
   47300    1193.9423   -104.67545    1.0803041   -103.59514    12675.918    4.3121236    4.3121236    4.3121236    12675.918    14670.448    5588.1971    17769.108   -3306.5221    1722.2137    12759.535    80.181393 
   47400    545.31342   -104.10146   0.49341104   -103.60805   -15107.238    4.3289086    4.3289086    4.3289086   -15107.238   -27577.105   -22596.041    4851.4308    20565.789    -4612.846   -229.79882    81.121365 
   47500    1373.2578   -104.84083    1.2425525   -103.59828    808.04952    4.3201004    4.3201004    4.3201004    808.04952    -8590.745    62.131287    10952.762    7376.4737   -2646.8996   -13540.547    80.627188 
   47600    836.39585   -104.36149   0.75678854    -103.6047    516.37509    4.3208836    4.3208836    4.3208836    516.37509    12213.166    23.658075   -10687.699    681.93209   -6780.0424    22166.663    80.671051 
   47700    902.68751   -104.41675   0.81677063   -103.59998   -19371.089    4.3248413    4.3248413    4.3248413   -19371.089   -32540.704   -28091.673    2519.1104    17036.457    -978.3368   -14967.483    80.892921 
   47800    1081.3532   -104.57669    0.9784311   -103.59826    3600.7703    4.3218771    4.3218771    4.3218771    3600.7703    -1658.467    14316.723   -1855.9447   -976.01474    5209.3269     17572.91     80.72671 
   47900    1039.3954   -104.54329   0.94046683   -103.60282   -8847.3424    4.3241436    4.3241436    4.3241436   -8847.3424    -15193.98    1486.0527     -12834.1    7025.9439   -10670.069    2596.3246    80.853778 
   48000    1165.3567   -104.65095    1.0544393   -103.59651    3417.1953    4.3168612    4.3168612    4.3168612    3417.1953   -16210.982    9479.1012    16983.467    6177.1179     7356.232   -2010.0695     80.44596 
   48100     606.5221   -104.15725   0.54879394   -103.60845    1843.7444    4.3222452    4.3222452    4.3222452    1843.7444    18847.227   -5754.3559    -7561.638   -1956.4618    -4396.719    17078.633    80.747335 
   48200     1252.073   -104.73434     1.132902   -103.60144   -3389.5364    4.3296333    4.3296333    4.3296333   -3389.5364    -19789.39     4045.231    5575.5499    24065.093   -2523.3345    -9766.598    81.162116 
   48300    1055.2941   -104.55341   0.95485226   -103.59856    16090.435    4.3164961    4.3164961    4.3164961    16090.435    20585.192     37445.46   -9759.3463    -5230.014    9895.4026    24550.732    80.425552 
   48400    991.78659   -104.49745   0.89738935   -103.60006   -11166.389    4.3238399    4.3238399    4.3238399   -11166.389   -22507.807   -11985.566    994.20717    9586.2557   -1908.7621    -9801.382    80.836747 
   48500    948.11378   -104.45781   0.85787327   -103.59994    5918.3468    4.3242357    4.3242357    4.3242357    5918.3468   -11106.922    31987.552   -3125.5902    1700.4639    8216.0119    10695.598    80.858945 
   48600    1057.7694    -104.5629   0.95709196   -103.60581    -713.9998    4.3249265    4.3249265    4.3249265    -713.9998    6802.3015   -10156.629    1212.3278    1167.6668   -465.16099    15759.801    80.897703 
   48700    1104.5042   -104.60015   0.99937863   -103.60077    4110.0206    4.3259187    4.3259187    4.3259187    4110.0206   -20470.501    21153.807    11646.756    13739.779    2429.3486   -2532.4739    80.953393 
   48800    761.04428   -104.29258   0.68860886   -103.60397    2426.1995     4.318191     4.318191     4.318191    2426.1995    5659.7858   -13563.862    15182.675   -3446.2541     4591.367    14128.642    80.520332 
   48900     938.4806    -104.4545   0.84915697   -103.60534   -9521.0041    4.3290056    4.3290056    4.3290056   -9521.0041   -28637.937    1646.4047   -1571.4796     3247.857   -218.86052    835.77919    81.126816 
   49000    1273.2872   -104.75555     1.152097   -103.60346    8015.7178    4.3178722    4.3178722    4.3178722    8015.7178   -7566.6361    27476.912    4136.8774    8391.2464    13719.952   -2988.5368    80.502499 
   49100    963.40734   -104.48216   0.87171121   -103.61045    -19512.26    4.3290986    4.3290986    4.3290986    -19512.26   -12630.642    -24721.49   -21184.647   -1357.3533    1259.5258    16381.969    81.132044 
   49200    977.50696   -104.48557   0.88446884    -103.6011    3895.2432    4.3264748    4.3264748    4.3264748    3895.2432   -32304.852    38915.668    5074.9138    3436.2644    1469.3411   -7565.4577    80.984615 
   49300    995.81248   -104.50612   0.90103206   -103.60509    2005.0532    4.3227169    4.3227169    4.3227169    2005.0532    11598.926   -18879.987    13296.221    -7208.115     1256.292    3441.5241    80.773773 
   49400    1037.7907   -104.54624   0.93901487   -103.60722    14426.752    4.3249236    4.3249236    4.3249236    14426.752   -3450.8308    51203.741   -4472.6541   -2961.2703   -12420.383    274.65452    80.897538 
   49500    927.19565   -104.44186   0.83894611   -103.60291    1717.2762    4.3275687    4.3275687    4.3275687    1717.2762   -2843.6042   -22284.366    30279.799    3572.3188    7009.2214   -4929.6427     81.04606 
   49600     863.9736   -104.38549   0.78174147   -103.60374   -110.96087    4.3259995    4.3259995    4.3259995   -110.96087   -3206.1866    18019.241   -15145.937   -914.54227   -3258.3423     4983.717    80.957932 
   49700    1247.1996   -104.73043    1.1284924   -103.60193   -542.21218    4.3271546    4.3271546    4.3271546   -542.21218   -22603.193    4616.2978    16360.259    3864.8516    3044.5311    1241.1227    81.022799 
   49800    1000.5264   -104.50675   0.90529729   -103.60145    13937.969     4.320282     4.320282     4.320282    13937.969    8179.1724    22833.858    10800.878   -7743.9489    7598.5682   -9311.8277     80.63736 
   49900    861.39261   -104.38326   0.77940614   -103.60386   -20126.244    4.3330796    4.3330796    4.3330796   -20126.244   -37185.654   -23554.026    360.94892   -6009.9429   -4018.6701    14159.078    81.356075 
   50000    1224.1611   -104.70585    1.1076467    -103.5982    5143.6457    4.3173178    4.3173178    4.3173178    5143.6457    -3772.933   -1235.3121    20439.182    -4150.278     2697.502    -9978.171    80.471495 
   50100     872.7874     -104.404   0.78971639   -103.61428    277.59426    4.3235566    4.3235566    4.3235566    277.59426    3722.6268    14863.506    -17753.35   -172.61444    1147.5347    2017.9757    80.820857 
   50200    1131.0317   -104.62737    1.0233812   -103.60399    -6857.395    4.3293775    4.3293775    4.3293775    -6857.395   -15469.444    -30909.06     25806.32   -737.41817    4153.3697    3545.2937    81.147728 
   50300    653.70715   -104.19862   0.59148797   -103.60713    1853.0966    4.3263387    4.3263387    4.3263387    1853.0966     5373.785    13321.972   -13136.467    4742.9415    4198.6363   -18525.913    80.976977 
   50400    1162.3317   -104.65482    1.0517022   -103.60311   -915.52877    4.3212429    4.3212429    4.3212429   -915.52877   -611.64089    -10890.46    8755.5146   -5419.0484   -5067.1272    18766.069    80.691176 
   50500    1196.9497   -104.69098    1.0830252   -103.60796    8606.8331    4.3181173    4.3181173    4.3181173    8606.8331     10890.93    29780.442   -14850.872    7418.8086    -11392.27   -24690.197    80.516207 
   50600    772.66265   -104.31033    0.6991214   -103.61121   -15547.947    4.3346779    4.3346779    4.3346779   -15547.947   -13699.833   -20826.878    -12117.13   -2296.7701   -6210.0058   -1051.8954    81.446138 
   50700    1091.0482   -104.58734   0.98720337   -103.60014    5775.4685    4.3249436    4.3249436    4.3249436    5775.4685   -16643.338    28993.427    4976.3171   -2333.4482   -15499.729   -1110.6897    80.898661 
   50800    1101.8366   -104.59606   0.99696495   -103.59909    -9188.635    4.3247198    4.3247198    4.3247198    -9188.635    2727.3845   -2207.5364   -28085.753   -3982.0635    3295.1183   -34845.241    80.886103 
   50900     1120.448   -104.61118    1.0138049   -103.59737    375.35046    4.3212433    4.3212433    4.3212433    375.35046   -21968.738    29757.277   -6662.4873   -4537.9494   -9900.4094      17723.2    80.691197 
   51000    824.35536   -104.34869   0.74589406    -103.6028     -22650.7    4.3311691    4.3311691    4.3311691     -22650.7   -20968.695   -20687.234   -26296.171   -1029.7553    2228.7489   -36294.041    81.248515 
   51100    1191.4058   -104.67429     1.078009   -103.59628   -2772.4987    4.3223325    4.3223325    4.3223325   -2772.4987    -7431.255   -570.38699   -315.85411    1140.5424   -10565.876    7511.7831    80.752228 
   51200    905.30943    -104.4232     0.819143   -103.60406   -10673.113    4.3235895    4.3235895    4.3235895   -10673.113   -2599.6681    1375.2435   -30794.915   -1996.1149   -5173.2749   -13809.711    80.822702 
   51300    907.39665   -104.42358   0.82103156   -103.60255   -2593.8492    4.3227875    4.3227875    4.3227875   -2593.8492    17092.028   -15751.364   -9122.2118   -5449.1673   -1070.6008   -20995.447    80.777735 
   51400    833.57747   -104.35612   0.75423841   -103.60188   -10012.093    4.3293905    4.3293905    4.3293905   -10012.093    1082.5233    273.82377   -31392.625   -6347.2917   -10510.529    17171.734    81.148461 
   51500    1003.5475   -104.50772   0.90803084   -103.59969   -7291.0604    4.3232509    4.3232509    4.3232509   -7291.0604    27453.355   -36606.603   -12719.933   -8471.2027      10863.7    -37578.42    80.803715 
   51600    1081.0065   -104.57392   0.97811738   -103.59581    9831.0208    4.3186754    4.3186754    4.3186754    9831.0208     5051.743    32012.925   -7571.6052    3196.6515   -15425.865    15622.598    80.547432 
   51700    814.95655   -104.33936   0.73738982   -103.60197   -24010.859    4.3279803    4.3279803    4.3279803   -24010.859    -16082.05   -39094.162   -16856.365   -674.21872   -3326.9489   -25997.859     81.06919 
   51800    1113.4458   -104.60705    1.0074691   -103.59958    5815.7266    4.3237077    4.3237077    4.3237077    5815.7266   -11812.855    36063.835   -6803.7998    585.79255   -8880.1206   -6660.7444     80.82933 
   51900    1175.4783   -104.66517    1.0635974   -103.60157   -9836.4513    4.3201843    4.3201843    4.3201843   -9836.4513   -20132.905   -13305.177    3928.7284    2699.7884   -13450.661     8743.399    80.631888 
   52000    829.94794   -104.35574   0.75095434   -103.60478   -596.89576    4.3234837    4.3234837    4.3234837   -596.89576    -12271.24    14346.008   -3865.4549   -4244.9282    9106.9365   -34697.412    80.816767 
   52100    1215.8591   -104.70059    1.1001348   -103.60046   -14311.216    4.3303575    4.3303575    4.3303575   -14311.216   -34642.127    -1079.921   -7211.5995    10031.659   -9165.6745    13617.718    81.202848 
   52200    899.65108   -104.41972    0.8140232    -103.6057    13985.822    4.3156247    4.3156247    4.3156247    13985.822    5305.6584    40217.482   -3565.6759   -3974.5258   -3058.6365   -7869.1717    80.376856 
   52300    1124.5794   -104.61979     1.017543   -103.60224    12417.751     4.315019     4.315019     4.315019    12417.751    9967.9114   -12007.653    39292.995    10575.862   -5545.1352   -7524.6415    80.343018 
   52400    751.15485   -104.28758   0.67966069   -103.60792   -7879.9827    4.3325616    4.3325616    4.3325616   -7879.9827   -3317.1598    8303.2266   -28626.015     1514.659   -15099.257    3295.1058    81.326906 
   52500    1196.0753   -104.68068     1.082234   -103.59845    2417.5571    4.3290221    4.3290221    4.3290221    2417.5571   -2983.0064   -13313.039    23548.717    448.06525    5601.7161   -14785.924    81.127747 
   52600    977.99503   -104.48318   0.88491046   -103.59827    15289.681    4.3124164    4.3124164    4.3124164    15289.681   -341.55589    31290.982    14919.618    1052.6061   -12454.703    10870.278    80.197729 
   52700    969.64918   -104.48474   0.87735896   -103.60738     3139.914     4.324124     4.324124     4.324124     3139.914   -6908.5078    211.74631    16116.504    546.00032   -4392.8756   -4020.8973     80.85268 
   52800    1160.5533   -104.64576    1.0500931   -103.59567   -27860.762    4.3400514    4.3400514    4.3400514   -27860.762   -51133.239   -18999.486   -13449.562     10506.81   -10075.168   -3940.6724    81.749411 
   52900    1016.8433   -104.51286   0.92006119    -103.5928    12678.817    4.3108113    4.3108113    4.3108113    12678.817   -3136.8122    24754.229    16419.035    4107.4533   -18891.273    7229.2707    80.108215 
   53000    1241.6479    -104.7175    1.1234691   -103.59403    14492.962     4.316307     4.316307     4.316307    14492.962    15118.418   -2706.8394    31067.307   -648.67637    12120.185   -17406.132    80.414983 
   53100    548.90972   -104.10073   0.49666505   -103.60407   -5294.2731    4.3348192    4.3348192    4.3348192   -5294.2731   -21869.937   -3687.2816    9674.3989    1163.3464    -16507.48    15105.739    81.454105 
   53200    1113.9366   -104.60396    1.0079132   -103.59604   -126.76086    4.3329979    4.3329979    4.3329979   -126.76086    9401.9308   -404.40194   -9377.8115   -11440.342    3329.5732   -11422.956    81.351476 
   53300    1184.2407   -104.66712    1.0715258    -103.5956     14902.27     4.314942     4.314942     4.314942     14902.27   -11242.881    39776.349    16173.342   -686.47009    -10214.14   -10448.909    80.338719 
   53400    721.40627   -104.26794   0.65274356    -103.6152   -3669.6984    4.3240544    4.3240544    4.3240544   -3669.6984    2073.6869   -5247.7211    -7835.061    6912.6185   -6136.3655    11882.378    80.848778 
   53500    1181.7685   -104.66689    1.0692889    -103.5976   -4309.3966    4.3357716    4.3357716    4.3357716   -4309.3966    -27001.39   -5761.3767    19834.577   -6325.0172    10327.624    4178.0305    81.507801 
   53600    897.83806   -104.41165   0.81238275   -103.59927     506.2765    4.3213255    4.3213255    4.3213255     506.2765   -11917.518    24888.092   -11451.744    3753.4605   -17096.636    14887.923    80.695803 
   53700    1115.6847   -104.60726     1.009495   -103.59777    5159.0545     4.323395     4.323395     4.323395    5159.0545    3420.1824    18405.761   -6348.7795   -3802.4873    7680.7643    18783.922    80.811792 
   53800    926.27275   -104.43851   0.83811105   -103.60039   -8410.6645    4.3262399    4.3262399    4.3262399   -8410.6645   -27643.498   -4779.2129    7190.7172    1318.7291   -19100.662   -7112.4702    80.971427 
   53900    876.44148   -104.39828   0.79302267   -103.60526    -11103.23     4.331417     4.331417     4.331417    -11103.23    7676.9397   -10460.029     -30526.6    10912.277   -2764.9453    23936.793    81.262464 
   54000    1358.8785   -104.82993    1.2295418   -103.60039    623.99081    4.3257905    4.3257905    4.3257905    623.99081     -8797.22    13854.068   -3184.8758   -15862.442   -1940.4347    90.218078    80.946198 
   54100    584.83058   -104.13756     0.529167   -103.60839     8115.601    4.3235122    4.3235122    4.3235122     8115.601    9557.1706    51492.273    -36702.64     8359.907   -22976.567    11507.326    80.818366 
   54200    1180.1602   -104.66451    1.0678337   -103.59667   -18023.407     4.330614     4.330614     4.330614   -18023.407   -23953.469   -8362.5771   -21754.175   -6693.6098    5489.7594    7750.4469    81.217279 
   54300     1001.503   -104.50593   0.90618099   -103.59975   -13871.331    4.3289522    4.3289522    4.3289522   -13871.331   -16177.644   -1962.1082   -23474.241   -2206.8914   -28079.908   -11394.588    81.123814 
   54400    1145.0204   -104.63259    1.0360385   -103.59655   -11949.735    4.3270802    4.3270802    4.3270802   -11949.735   -14571.383    156.32571   -21434.148    7821.2526   -1934.2751     19909.65    81.018619 
   54500    789.10089   -104.30968   0.71399507   -103.59569   -3125.5725    4.3287483    4.3287483    4.3287483   -3125.5725   -14021.751    7998.3925   -3353.3587   -18861.563   -1824.6066     3623.698    81.112355 
   54600    823.85518    -104.3448   0.74544148   -103.59935   -6492.0494    4.3288292    4.3288292    4.3288292   -6492.0494    -7991.143    679.23983   -12164.245    1871.7849   -12241.843    10817.022      81.1169 
   54700     1267.556   -104.74292    1.1469113     -103.596   -7678.6005    4.3290065    4.3290065    4.3290065   -7678.6005   -5570.3334   -7320.3441   -10145.124    3155.6819    10428.404    14574.121    81.126872 
   54800    910.05402   -104.42303     0.823436    -103.5996   -3107.4892    4.3228733    4.3228733    4.3228733   -3107.4892   -12769.152    24735.472   -21288.788   -11089.489    -23941.47   -4162.8926    80.782545 
   54900    967.46541   -104.47276   0.87538303   -103.59738   -5309.3604    4.3244468    4.3244468    4.3244468   -5309.3604     1330.234   -5311.0255    -11947.29     7295.529    3524.4328    20150.984    80.870787 
   55000    824.35569   -104.34574   0.74589435   -103.59985   -15194.741    4.3329673    4.3329673    4.3329673   -15194.741    -14082.04   -17126.952   -14375.231   -23257.544   -6214.5558    373.25931    81.349753 
   55100    1146.2529   -104.63288    1.0371537   -103.59572   -5913.5089    4.3250113    4.3250113    4.3250113   -5913.5089   -18740.175   -20881.108    21880.757    11821.811   -4708.3047        12854    80.902461 
   55200    974.67869   -104.47694   0.88190976   -103.59504   -12508.611    4.3262505    4.3262505    4.3262505   -12508.611   -9215.5776   -28683.888    373.63306     -8172.46    2586.9058   -8059.9656     80.97202 
   55300    803.31165   -104.32493   0.72685326   -103.59807   -22918.428    4.3297809    4.3297809    4.3297809   -22918.428    -36291.44   -21800.999   -10662.845   -2969.7084   -32337.164   -1145.0636    81.170413 
   55400    1172.4844   -104.65633    1.0608885   -103.59545    13373.514     4.319674     4.319674     4.319674    13373.514    20593.113    16414.637    3112.7924    234.80567     14771.85    6654.4627    80.603316 
   55500    885.02475   -104.40531   0.80078899   -103.60452   -9204.6227     4.329771     4.329771     4.329771   -9204.6227    -8866.725   -5724.9302   -13022.213   -14033.282    -19329.46   -4791.7184     81.16986 
   55600    924.35357   -104.43878   0.83637454   -103.60241   -7098.1512    4.3279396    4.3279396    4.3279396   -7098.1512   -17596.839   -19010.813    15313.198    23890.002   -2149.3304    10896.145    81.066903 
   55700    1053.9198   -104.55283   0.95360879   -103.59922   -5492.5001    4.3281158    4.3281158    4.3281158   -5492.5001    29425.112   -37647.737   -8254.8755   -11174.427   -18362.996   -11935.681    81.076802 
   55800    879.63052   -104.39385   0.79590818   -103.59794   -7535.0892    4.3277006    4.3277006    4.3277006   -7535.0892   -21063.886   -4576.2303    3034.8491    7455.2346   -13323.547     -2503.72     81.05347 
   55900     1147.991   -104.62959    1.0387264   -103.59086   -6280.7582    4.3237126    4.3237126    4.3237126   -6280.7582     4692.396   -15932.585   -7602.0856    5480.5941    3432.9311    4905.1923    80.829604 
   56000    830.00693   -104.35289   0.75100771   -103.60189   -29021.049    4.3311419    4.3311419    4.3311419   -29021.049   -37939.349   -38456.756   -10667.043    -8761.965   -14107.413   -9936.0573    81.246984 
   56100    1088.5467   -104.58341   0.98493994   -103.59847   -2250.1964     4.324079     4.324079     4.324079   -2250.1964    12556.178   -21239.854    1933.0874    28052.685   -4164.8164    11798.979    80.850158 
   56200    1051.0434   -104.54842   0.95100614   -103.59741   -16438.981    4.3277552    4.3277552    4.3277552   -16438.981   -8872.3194    -28036.57   -12408.054   -20039.424   -542.34496   -8944.4153    81.056541 
   56300    696.83136   -104.22923   0.63050766   -103.59872   -4997.7656    4.3276125    4.3276125    4.3276125   -4997.7656    8367.8322   -17941.256   -5419.8735    4153.7182   -6206.3246     1301.103    81.048525 
   56400    1390.7321   -104.84849    1.2583636   -103.59013   -8929.1468    4.3289563    4.3289563    4.3289563   -8929.1468   -15902.093   -17860.608    6975.2603   -6927.5734    5823.3558    3501.4934    81.124049 
   56500    771.95634   -104.29808   0.69848232    -103.5996   -4099.4843    4.3310636    4.3310636    4.3310636   -4099.4843    -9121.213   -13113.559    9936.3191   -5003.8683    -18330.59   -1702.2584    81.242575 
   56600    1121.5517   -104.60856    1.0148036   -103.59376    175.50033    4.3274774    4.3274774    4.3274774    175.50033    4942.1239    1392.3498   -5807.9727    16189.739   -12838.549    2982.5407    81.040932 
   56700    659.77472   -104.19827   0.59697803   -103.60129   -4247.4621    4.3259869    4.3259869    4.3259869   -4247.4621   -762.44411   -27865.044    15885.101   -10075.936    17788.615   -16152.377    80.957221 
   56800    1169.2425   -104.66065    1.0579552   -103.60269    597.76984    4.3153262    4.3153262    4.3153262    597.76984   -183.99299   -6087.0238    8064.3263    7017.9536   -26563.838   -3847.7625    80.360179 
   56900      1153.82   -104.64771    1.0440006   -103.60371   -7890.2171    4.3342712    4.3342712    4.3342712   -7890.2171   -24770.932   -23641.805    24742.085   -3758.9616    15863.658   -2234.8817    81.423216 
   57000    772.61315   -104.30347   0.69907661    -103.6044   -17962.463    4.3293683    4.3293683    4.3293683   -17962.463    14350.315   -39179.671   -29058.032   -7124.3778   -9233.3733   -1091.2609    81.147212 
   57100    1180.4161   -104.66286    1.0680653   -103.59479    15533.354    4.3182418    4.3182418    4.3182418    15533.354   -2656.8138    562.82032    48694.055    10285.282    -327.1469    2841.7186    80.523173 
   57200    903.92229   -104.42091   0.81788788   -103.60302   -2025.4541    4.3224324    4.3224324    4.3224324   -2025.4541    20584.364   -21872.417   -4788.3095   -11433.552    18294.156   -9368.4265    80.757827 
   57300     1177.436   -104.66512    1.0653688   -103.59975   -908.82903     4.325331     4.325331     4.325331   -908.82903   -31966.973    7713.8209    21526.665    7373.7474   -19222.208   -2746.8481    80.920403 
   57400    747.21455   -104.27507   0.67609543   -103.59897   -13609.306    4.3334339    4.3334339    4.3334339   -13609.306    7403.9872   -18304.451   -29927.455   -16260.415    13798.911   -7823.8807    81.376038 
   57500    1124.3226   -104.61392    1.0173107    -103.5966   -2487.5491    4.3175824    4.3175824    4.3175824   -2487.5491    5825.8553   -7111.3176   -6177.1849   -9536.9867   -6229.9004   -3176.3529    80.486287 
   57600     1261.213   -104.73987     1.141172    -103.5987    5788.6954    4.3256284    4.3256284    4.3256284    5788.6954    21873.282   -7479.9471    2972.7515   -5371.9396    4557.9681    4784.3508    80.937097 
   57700    569.83615   -104.12449   0.51559972   -103.60889   -5026.2394    4.3255864    4.3255864    4.3255864   -5026.2394    11466.381    -29244.58    2699.4807   -8381.4843    6819.7606   -9776.1503    80.934738 
   57800    1139.4875   -104.63034    1.0310322   -103.59931    6999.3241    4.3232015    4.3232015    4.3232015    6999.3241     23239.06   -14610.876    12369.788    173.22446   -6748.5545    712.65204    80.800944 
   57900    1140.9772   -104.63861    1.0323801   -103.60623    -14994.05    4.3222972    4.3222972    4.3222972    -14994.05   -7634.6449   -14273.623   -23073.882   -5392.9977    7304.1411   -2907.1021     80.75025 
   58000    1044.1508   -104.55214   0.94476962   -103.60737    10765.129    4.3203783    4.3203783    4.3203783    10765.129    19978.127    3593.0775     8724.182   -6536.7133    18354.779   -9621.3677    80.642752 
   58100    1063.5374   -104.56409   0.96231103   -103.60178   -3061.5883    4.3288992    4.3288992    4.3288992   -3061.5883   -10829.985   -7624.7241    9269.9437    1150.6299   -3225.6581     18189.63    81.120835 
   58200    598.74369      -104.15   0.54175588   -103.60824    16511.479    4.3162632    4.3162632    4.3162632    16511.479    14983.879    7443.8163     27106.74    -10682.15    11752.942   -9027.7164    80.412534 
   58300    1525.5201   -104.98186    1.3803226   -103.60154    7563.6445    4.3220774    4.3220774    4.3220774    7563.6445     15149.53    12425.574   -4884.1712    2379.0735    6358.3981    6085.8555     80.73793 
   58400    1035.4643   -104.54181   0.93690983    -103.6049   -6213.0618    4.3269404    4.3269404    4.3269404   -6213.0618   -2399.8144   -13979.221   -2260.1497   -22064.191    3115.9561    6666.2362    81.010769 
   58500    681.00782   -104.22075   0.61619019   -103.60456    4882.1603    4.3266189    4.3266189    4.3266189    4882.1603     16304.21   -11241.379    9583.6498    4123.0125    12409.953   -7319.9708    80.992711 
   58600    1221.2111   -104.70213    1.1049775   -103.59715        14366    4.3174692    4.3174692    4.3174692        14366    1356.0706    2187.2621    39554.667   -14354.244   -12720.471    22050.971    80.479956 
   58700    1043.1036   -104.54993   0.94382208   -103.60611    6503.6278    4.3163657    4.3163657    4.3163657    6503.6278    9932.1414    17371.001   -7792.2591    -7734.823    20070.019   -12949.667    80.418267 
   58800    1037.7903   -104.54614   0.93901444   -103.60712   -3075.8881    4.3305287    4.3305287    4.3305287   -3075.8881   -5609.4729   -7677.0315    4058.8401    5383.1594   -1486.0107   -4097.1811     81.21248 
   58900    838.77459   -104.36287   0.75894087   -103.60393    16431.895    4.3224305    4.3224305    4.3224305    16431.895   -14051.938    28295.735     35051.89   -11439.752    1593.3645    2477.6667    80.757723 
   59000     968.4651   -104.48305   0.87628758   -103.60676    1444.0006      4.32155      4.32155      4.32155    1444.0006   -2991.8656    2172.5774      5151.29    6570.2201    8907.9462   -10033.376    80.708381 
   59100    1296.7654   -104.77482    1.1733406   -103.60147     2639.311    4.3235781    4.3235781    4.3235781     2639.311    3899.9764    18371.835   -14353.878    4169.7154     -9369.74    6955.7956    80.822063 
   59200    840.25946   -104.36534   0.76028442   -103.60506   -12331.848    4.3269646    4.3269646    4.3269646   -12331.848   -15020.123   -17865.873   -4109.5483   -6721.0354    18684.259   -10007.381    81.012128 
   59300    827.19375    -104.3517   0.74846229   -103.60324    619.15953    4.3221847    4.3221847    4.3221847    619.15953   -3546.0718    -5441.044    10844.594    5488.5217    2171.5825   -6838.1609    80.743943 
   59400    1151.3476   -104.64408    1.0417635   -103.60231    13812.681    4.3191447    4.3191447    4.3191447    13812.681   -8872.4908    26042.047    24268.487   -23310.461   -2391.8206    12039.318    80.573692 
   59500    1058.5044   -104.56441   0.95775707   -103.60665   -3676.8988    4.3292503    4.3292503    4.3292503   -3676.8988   -12366.823     25473.19   -24137.064    368.86235    7826.7062   -14807.605    81.140578 
   59600    767.71371    -104.2991    0.6946435   -103.60446   -17143.203    4.3266399    4.3266399    4.3266399   -17143.203   -29099.472   -12697.521   -9632.6163   -18110.794   -19441.723   -1921.9184     80.99389 
   59700    1218.6356   -104.69862    1.1026471   -103.59597     8890.064     4.315671     4.315671     4.315671     8890.064    -10342.37    33700.676    3311.8859   -5895.3732    12212.456   -3727.8442    80.379441 
   59800    1009.7193   -104.51917   0.91361522   -103.60556   -8082.0073    4.3268457    4.3268457    4.3268457   -8082.0073   -26913.968   -8535.9516    11203.897   -4958.8972   -9422.8938   -10195.995    81.005448 
   59900    738.73136   -104.27403   0.66841966   -103.60561   -1724.2222    4.3273109    4.3273109    4.3273109   -1724.2222   -30659.784    5433.7614    20053.356   -15045.921   -311.87001    8953.1409    81.031575 
   60000    1121.3095    -104.6121    1.0145844   -103.59751    7204.1179    4.3216486    4.3216486    4.3216486    7204.1179    2382.6375    14329.167    4900.5492    5077.8173    3172.1654   -2705.1013    80.713901 
   60100    887.13875   -104.41094   0.80270178   -103.60824   -11733.698    4.3227278    4.3227278    4.3227278   -11733.698   -27006.944   -4377.5258   -3816.6251   -10646.936   -13805.344   -14317.146    80.774389 
   60200     1309.155   -104.78721     1.184551   -103.60266   -2774.1777    4.3314851    4.3314851    4.3314851   -2774.1777   -13455.527    16355.798   -11222.804     9496.876    3230.3077    5860.4332    81.266296 
   60300    966.04995   -104.47823    0.8741023   -103.60413   -12971.183    4.3236222    4.3236222    4.3236222   -12971.183   -1034.5572   -9708.8274   -28170.166   -14156.956    -11331.88   -6545.8054    80.824535 
   60400     747.5068   -104.28425   0.67635987   -103.60789     7786.828    4.3184097    4.3184097    4.3184097     7786.828    -6911.558    2485.3865    27786.656   -705.05117   -1312.4616   -28.143486    80.532563 
   60500    1529.5642    -104.9811    1.3839818   -103.59712    2276.9772    4.3296403    4.3296403    4.3296403    2276.9772    2112.7995   -3533.8981    8252.0301    6025.6265    5210.7208   -16.046031    81.162509 
   60600    519.87365   -104.07957    0.4703926   -103.60917    5070.6936    4.3249387    4.3249387    4.3249387    5070.6936   -24940.006    27096.493    13055.594   -21831.733   -10039.289   -15759.349     80.89839 
   60700    1170.1888   -104.65848    1.0588115   -103.59967    4120.5006    4.3235207    4.3235207    4.3235207    4120.5006    19694.989   -20450.727     13117.24    11333.315   -2090.8626    4454.0464    80.818842 
   60800    893.48527   -104.41377   0.80844425   -103.60533     22969.69     4.319003     4.319003     4.319003     22969.69    23986.934    36976.956    7945.1799   -16310.836    -5166.641   -462.37209    80.565759 
   60900     977.0937   -104.49333   0.88409492   -103.60924   -15809.898    4.3308826    4.3308826    4.3308826   -15809.898   -6727.1487    -29023.46   -11679.085   -1669.6924   -6948.6728   -9802.5942     81.23239 
   61000    1226.2292   -104.70608    1.1095179   -103.59656    2157.2838    4.3231369    4.3231369    4.3231369    2157.2838   -799.66003    21204.552   -13933.041     5629.353     9213.044    3517.8608     80.79732 
   61100    822.79671   -104.34596   0.74448376   -103.60147    8180.7184     4.314858     4.314858     4.314858    8180.7184    33908.922    98.976726   -9465.7431   -24787.978   -5098.2184   -13399.595    80.334025 
   61200    1210.7517   -104.69727    1.0955135   -103.60175    293.36407    4.3283237    4.3283237    4.3283237    293.36407    17943.146   -2173.9792   -14889.075    14081.219    199.08168    1312.9462    81.088485 
   61300    856.65957    -104.3784   0.77512358   -103.60328   -145.29076    4.3268134    4.3268134    4.3268134   -145.29076   -20506.462    34646.145   -14575.555   -11898.607    1144.1951    754.25182    81.003631 
   61400     909.7321    -104.4272   0.82314472   -103.60406   -10859.266    4.3237375    4.3237375    4.3237375   -10859.266   -15855.474   -29263.243    12540.919   -10770.816   -8387.0949   -5513.7026       80.831 
   61500    1090.6563   -104.58906   0.98684878   -103.60221    12226.932    4.3181223    4.3181223    4.3181223    12226.932   -3856.5689    34761.195    5776.1696     13083.38     22647.55    724.17869    80.516488 
   61600    746.07484   -104.28311   0.67506419   -103.60804   -15810.186    4.3352636    4.3352636    4.3352636   -15810.186   -4945.6587   -27397.781    -15087.12   -18753.169   -7105.9998   -4856.4315    81.479155 
   61700    1199.2188   -104.67948    1.0850783    -103.5944   -6045.7944    4.3215217    4.3215217    4.3215217   -6045.7944    10107.196   -1577.9342   -26666.645    8720.6036    6260.7801    4301.3991    80.706794 
   61800    849.17565    -104.3696   0.76835197   -103.60124    4221.7749    4.3216348    4.3216348    4.3216348    4221.7749    16588.502    3295.1984   -7218.3755   -3690.8504    493.78953    1393.5025    80.713129 
   61900    1334.0328   -104.80306    1.2070609     -103.596   -14887.439    4.3294025    4.3294025    4.3294025   -14887.439   -12297.377   -22887.624    -9477.316   -19446.134   -12474.831    2291.3261    81.149132 
   62000    804.66421   -104.32897   0.72807709    -103.6009    12919.539    4.3207481    4.3207481    4.3207481    12919.539    15257.752    13020.588    10480.276    9138.0167    22709.089    8307.5601    80.663458 
   62100    977.00114   -104.48794   0.88401116   -103.60393    1872.1446    4.3221779    4.3221779    4.3221779    1872.1446   -776.04421    4225.8681    2166.6099   -15064.984    2643.4163   -10243.854    80.743567 
   62200    1187.2069   -104.67714    1.0742097   -103.60293    5433.0937    4.3256729    4.3256729    4.3256729    5433.0937    9495.6524     10520.95   -3717.3209   -2022.8638    7266.7104    7000.6435    80.939595 
   62300     839.0014   -104.36477    0.7591461   -103.60562   -13971.852     4.327132     4.327132     4.327132   -13971.852   -33436.449    22596.453   -31075.559   -2678.9628    19859.288    5789.1086    81.021528 
   62400    1082.1825   -104.58023   0.97918146   -103.60105    6207.3966    4.3162071    4.3162071    4.3162071    6207.3966    31236.499   -14387.543    1773.2338   -14137.372   -3366.0795   -5288.1787    80.409402 
   62500     1055.215   -104.55995    0.9547807   -103.60517   -4910.3218    4.3302174    4.3302174    4.3302174   -4910.3218   -23525.144    19897.521   -11103.342    14558.035    30788.767    5190.8385    81.194966 
   62600    932.75086   -104.44418   0.84397258    -103.6002    5102.1467     4.324811     4.324811     4.324811    5102.1467    5664.5231    10312.641   -670.72375   -13077.032   -1882.3134   -18584.987    80.891222 
   62700    740.77862   -104.27146   0.67027206   -103.60119    5275.2885    4.3238445    4.3238445    4.3238445    5275.2885   -27592.207    63295.003    -19876.93    2556.7231    17939.942   -9966.0846    80.837001 
   62800    1335.3016   -104.80469    1.2082089   -103.59648   -9129.7262    4.3225498    4.3225498    4.3225498   -9129.7262    139.34693   -2337.5218   -25191.004   -2129.6459    9804.1594    1620.9931    80.764408 
   62900    807.11076   -104.33724   0.73029078   -103.60695   -3671.0934    4.3170167    4.3170167    4.3170167   -3671.0934   -3981.7804    3717.2507   -10748.751   -9104.1816    7216.1572   -4350.2449    80.454659 
   63000    1089.7908   -104.59454   0.98606562   -103.60848   -16719.311    4.3335263    4.3335263    4.3335263   -16719.311   -39496.012    35326.093   -45988.013   -3708.5159    18515.031    2298.1117    81.381243 
   63100    1074.6492   -104.57476   0.97236516    -103.6024    4605.7888    4.3253423    4.3253423    4.3253423    4605.7888    20334.542    21915.673   -28432.848   -2080.8889    -7991.637   -7228.7419     80.92104 
   63200     756.1138   -104.29339   0.68414766   -103.60924   -11830.102    4.3163632    4.3163632    4.3163632   -11830.102     -5061.91   -1048.6326   -29379.764   -6294.2101    25927.565   -7563.0276    80.418126 
   63300    1223.2712    -104.7108    1.1068415   -103.60396    18996.876    4.3228301    4.3228301    4.3228301    18996.876    36420.816    26297.443   -5727.6325    15.397556    1609.7679    5517.4413     80.78012 
   63400     759.5291   -104.30609   0.68723789   -103.61886   -14329.957    4.3258183    4.3258183    4.3258183   -14329.957   -44461.462    19401.198   -17929.606   -12971.035    13726.147   -3942.6486    80.947759 
   63500    906.21075   -104.43334   0.81995853   -103.61338    7630.8932    4.3172441    4.3172441    4.3172441    7630.8932   -606.70091    45381.014   -21881.633    3269.0657    12124.006    8980.5864    80.467369 
   63600    1244.0823   -104.73087    1.1256718    -103.6052   -913.50774    4.3215097    4.3215097    4.3215097   -913.50774   -1318.7164    -8998.082    7576.2752    7213.7045   -2685.8609   -1017.3763     80.70612 
   63700    633.69999   -104.18754   0.57338507   -103.61416   -13999.942    4.3297455    4.3297455    4.3297455   -13999.942   -27866.308    23355.777   -37489.295    -14914.19    22959.738   -6891.1796    81.168425 
   63800    1487.4639   -104.94588    1.3458886   -103.59999    3429.8584    4.3235559    4.3235559    4.3235559    3429.8584    18059.452    11428.765   -19198.642    413.32419    -3374.153    8833.3641    80.820814 
   63900     852.9551   -104.37696    0.7717717   -103.60519   -172.14671    4.3186595    4.3186595    4.3186595   -172.14671   -22336.681    27744.013   -5923.7718   -5805.0485    21260.631   -4662.1917    80.546539 
   64000     692.9439   -104.23985    0.6269902   -103.61286    -2238.303    4.3208154    4.3208154    4.3208154    -2238.303    32718.128   -20294.967    -19138.07   -4976.6378    5447.2617    9837.8392    80.667229 
   64100    1369.8252   -104.84603    1.2394466   -103.60658    15148.914    4.3216033    4.3216033    4.3216033    15148.914    18234.314    8085.2423    19127.186   -4106.3531    -7406.806    4755.5485    80.711367 
   64200    960.12338   -104.48343   0.86873981   -103.61469   -7585.5241    4.3228763    4.3228763    4.3228763   -7585.5241    4232.5532   -2061.8544   -24927.271   -13855.582    20371.379    -13721.69    80.782711 
   64300    857.16583   -104.38552   0.77558166   -103.60994   -12569.751    4.3296217    4.3296217    4.3296217   -12569.751    5191.3649    -34522.17   -8378.4481   -7664.9862   -6662.5281    6054.8277    81.161461 
   64400    1173.5752   -104.66241    1.0618755   -103.60054     17143.45    4.3176344    4.3176344    4.3176344     17143.45    17723.526     32738.35    968.47391      10645.7    19124.448   -3990.3318    80.489196 
   64500    890.28599   -104.41664   0.80554947   -103.61109   -11602.479    4.3286415    4.3286415    4.3286415   -11602.479    1882.2618   -10746.259   -25943.441   -5353.5589   -2223.1991    858.52913    81.106348 
   64600     995.8105    -104.5037   0.90103026   -103.60267     12187.26    4.3217487    4.3217487    4.3217487     12187.26    22767.043   -7487.0071    21281.743    2608.8814   -2620.4672    9666.6504    80.719512 
   64700    1029.4565   -104.53685   0.93147391   -103.60538   -11493.682    4.3225993    4.3225993    4.3225993   -11493.682   -11110.828    -5167.967    -18202.25   -10898.821    21711.995   -5204.3998    80.767186 
   64800     966.6209   -104.48265   0.87461891   -103.60803   -3417.4349    4.3237621    4.3237621    4.3237621   -3417.4349    16362.074   -23647.849   -2966.5291   -12140.603    740.87834    3351.6116    80.832382 
   64900    1140.8654   -104.63509     1.032279   -103.60281    19166.518    4.3160925    4.3160925    4.3160925    19166.518    30976.138    20866.875    5656.5409    9094.3196     15698.44    4554.9934    80.402997 
   65000    763.71468   -104.29525   0.69102509   -103.60422   -28478.206      4.33444      4.33444      4.33444   -28478.206   -12711.548   -46313.117   -26409.953   -12701.748    2753.9048    4766.7501    81.432728 
   65100    1153.9963   -104.64674    1.0441601   -103.60258    10153.502    4.3149598    4.3149598    4.3149598    10153.502    12576.356    3337.2987    14546.851   -7204.1023   -2899.7697    98.723122    80.339711 
   65200    1061.3956   -104.56882   0.96037301   -103.60845    16722.772    4.3170904    4.3170904    4.3170904    16722.772    51675.974   -1308.8275    -198.8295    8649.2712    20605.652    6393.1892    80.458777 
   65300    935.23664   -104.45287   0.84622176   -103.60665   -12931.209    4.3332356    4.3332356    4.3332356   -12931.209    35269.139   -51424.811   -22637.955   -6304.9704   -988.73453    1488.7263    81.364862 
   65400    1083.5341   -104.58689   0.98040442   -103.60649   -7464.5534     4.325981     4.325981     4.325981   -7464.5534   -23161.918   -7465.4526    8233.7107    21821.695    576.70194   -2998.3116    80.956893 
   65500    1052.6261   -104.55989   0.95243818   -103.60745    22068.516    4.3163866    4.3163866    4.3163866    22068.516    79122.095   -3177.8913   -9738.6564    -11070.93    8507.9374    1117.9566    80.419434 
   65600    938.24679   -104.45877   0.84894541   -103.60982    7737.8111    4.3216566    4.3216566    4.3216566    7737.8111    20305.088     13284.93   -10376.585   -11278.501   -13877.736   -2222.2397    80.714351 
   65700    939.37701   -104.46283   0.84996806   -103.61287   -15863.879    4.3257931    4.3257931    4.3257931   -15863.879   -19940.929   -24209.532   -3441.1748    12844.223    17369.015   -1515.1097    80.946343 
   65800    1293.7379   -104.77873    1.1706013   -103.60813     10377.11    4.3205805    4.3205805    4.3205805     10377.11    44521.475    8341.0448   -21731.189   -1950.0555    3669.7459    3509.9636    80.654074 
   65900     715.6853   -104.26005    0.6475671   -103.61249    15151.767    4.3190817    4.3190817    4.3190817    15151.767    37455.318    19793.943    -11793.96    9503.9942   -11552.226    6106.8395    80.570168 
   66000    1006.7149   -104.51963   0.91089679   -103.60874   -25898.583     4.332293     4.332293     4.332293   -25898.583   -21201.024   -37573.399   -18921.325    788.84551    17914.197    737.24651     81.31178 
   66100    1417.5721   -104.88451     1.282649   -103.60186     12191.56    4.3178268    4.3178268    4.3178268     12191.56     11736.96    24558.758    278.96328    1779.2698   -12740.723   -1073.8316    80.499958 
   66200    454.94077    -104.0303   0.41163997   -103.61866    12637.408    4.3153707    4.3153707    4.3153707    12637.408    48961.166    13260.204   -24309.145    18334.044    16554.592    7275.6687    80.362662 
   66300    1252.7764    -104.7426    1.1335385   -103.60906   -4222.8268    4.3302181    4.3302181    4.3302181   -4222.8268    12853.519    -6289.306   -19232.693    1256.8269    6933.4606   -4920.6621    81.195004 
   66400    1216.0538   -104.70978     1.100311   -103.60947    -5789.416    4.3231222    4.3231222    4.3231222    -5789.416   -13852.671    4062.1769   -7577.7535    2301.6406   -6374.7815    130.18885    80.796498 
   66500    619.43384   -104.17698   0.56047676    -103.6165    8361.0802    4.3147384    4.3147384    4.3147384    8361.0802    56461.932   -2.2290612   -31376.462     2350.151    19484.095    5848.2482    80.327342 
   66600    1219.9891   -104.71348    1.1038717   -103.60961   -732.52916     4.324025     4.324025     4.324025   -732.52916    16497.623   -8446.3924   -10248.819   -5031.2269   -1610.5259   -4177.8209    80.847127 
   66700    1074.4025   -104.58656   0.97214199   -103.61442   -21486.859    4.3257519    4.3257519    4.3257519   -21486.859   -28274.147   -21826.272   -14360.157    13348.874    8710.2344    12857.183    80.944027 
   66800    913.69327   -104.43844   0.82672887   -103.61171    1961.6045    4.3205793    4.3205793    4.3205793    1961.6045    34014.906   -15713.328   -12416.764   -3697.7492    2052.0826    -6966.588    80.654004 
   66900    789.40881   -104.32074   0.71427368   -103.60647    16073.137    4.3161322    4.3161322    4.3161322    16073.137    43593.696    8108.8016   -3483.0867   -9702.8536   -8475.4871    5968.6087    80.405214 
   67000    1130.0834   -104.63272    1.0225232   -103.61019   -28608.823    4.3274697    4.3274697    4.3274697   -28608.823   -42732.492   -17652.857   -25441.119    15017.106    22457.044    6354.6563    81.040501 
   67100    1194.3606   -104.68666    1.0806826   -103.60597    -8306.242    4.3241199    4.3241199    4.3241199    -8306.242   -193.06206   -24815.628    89.964328   -18092.501    717.05347   -5115.9212    80.852451 
   67200    751.05486   -104.28378   0.67957022   -103.60421    9109.9068     4.312397     4.312397     4.312397    9109.9068     55828.49    7646.3916   -36145.161    8547.7152    11471.706    13473.308    80.196645 
   67300    909.77261   -104.43194   0.82318138   -103.60875   -14964.761    4.3256428    4.3256428    4.3256428   -14964.761   -10522.568   -12362.015   -22009.701   -21715.683     6706.836   -3232.7655    80.937904 
   67400    1319.7279   -104.79751    1.1941175    -103.6034   -11273.381    4.3242383    4.3242383    4.3242383   -11273.381   -16497.888   -4980.8416   -12341.413   -12854.724    -5641.301    1451.5689    80.859089 
   67500    917.57976    -104.4327   0.83024545   -103.60245    6508.4627    4.3187396    4.3187396    4.3187396    6508.4627    22920.075    33238.433    -36633.12    8324.0267    18744.453   -348.34027    80.551021 
   67600    828.28208   -104.35469   0.74944703   -103.60524    -10963.73    4.3243315    4.3243315    4.3243315    -10963.73    15264.032   -22159.896   -25995.326   -14289.073   -4614.6979   -5041.8671     80.86432 
   67700    917.49553   -104.44254   0.83016924   -103.61237    12780.664    4.3165239    4.3165239    4.3165239    12780.664    11119.501     47346.43   -20123.939   -8432.0096    19395.698    10724.503    80.427106 
   67800    1445.6427   -104.92165    1.3080479    -103.6136    1531.9446    4.3183989    4.3183989    4.3183989    1531.9446    -12001.08    20489.479   -3892.5644    10431.084    1051.3222    5102.1357    80.531958 
   67900    512.00472   -104.08287   0.46327263   -103.61959    10162.806      4.32274      4.32274      4.32274    10162.806    24459.428    41528.372   -35499.382   -11388.441    137.11514    9723.3263    80.775072 
   68000    1011.3078   -104.52694   0.91505254   -103.61189   -12821.583    4.3311976    4.3311976    4.3311976   -12821.583    16043.509   -4909.4885   -49598.769    2585.6529    16753.026    4396.2478    81.250117 
   68100    1343.5881   -104.81756    1.2157068   -103.60186    27277.949    4.3140404    4.3140404    4.3140404    27277.949    7884.8166    67792.973    6156.0562   -22808.088   -8250.1611   -6090.7974    80.288369 
   68200    594.33333   -104.15253   0.53776528   -103.61477    -25158.13    4.3257011    4.3257011    4.3257011    -25158.13   -14760.195     918.4065     -61632.6    -1181.375     26550.96    2161.9411     80.94118 
   68300    1238.8219   -104.72071    1.1209121    -103.5998   -4569.0643    4.3239493    4.3239493    4.3239493   -4569.0643   -9742.7096     33252.88   -37217.363    2779.1561    3507.9023   -2605.0459    80.842882 
   68400    1073.1645   -104.57805   0.97102181   -103.60703   -5668.9498    4.3199953    4.3199953    4.3199953   -5668.9498    14969.028   -2995.5881    -28980.29   -10036.806    11426.989    5741.3347    80.621302 
   68500    710.18682   -104.25437   0.64259196   -103.61178   -10820.672    4.3231442    4.3231442    4.3231442   -10820.672   -3169.4798    10296.732   -39589.269   -7467.1561    10331.249   -326.03202    80.797733 
   68600     959.5279   -104.47474   0.86820101   -103.60654    15186.903    4.3221935    4.3221935    4.3221935    15186.903    1272.2782    68511.599    -24223.17    4109.0658   -9855.8342   -10549.885    80.744437 
   68700    1134.8811   -104.63719    1.0268642   -103.61032   -26034.222    4.3329977    4.3329977    4.3329977   -26034.222    -42261.79    -636.3701   -35204.504   -2014.7238    18452.825    4442.2304    81.351462 
   68800    1196.8977    -104.6829    1.0829782   -103.59992    4269.4037    4.3229427    4.3229427    4.3229427    4269.4037   -7570.7182    27277.618   -6898.6888    15295.673   -13874.386    700.28091    80.786435 
   68900    923.69005   -104.43451   0.83577417   -103.59874   -10271.303    4.3240406    4.3240406    4.3240406   -10271.303   -12169.856    33756.821   -52400.873   -3151.1878    18263.116    1075.9274    80.848002 
   69000    897.77942   -104.41347   0.81232969   -103.60114    17771.022    4.3168941    4.3168941    4.3168941    17771.022    22391.994    61635.413    -30714.34   -7619.9367   -2432.6247    5088.4982    80.447805 
   69100    1016.9873   -104.53285   0.92019153   -103.61266   -17890.962      4.32988      4.32988      4.32988   -17890.962    -10389.96   -13990.146   -29292.781     9675.887   -3017.7353   -14933.746    81.175989 
   69200     1181.584   -104.67446     1.069122   -103.60534    795.22471    4.3209564    4.3209564    4.3209564    795.22471   -3867.1097    34753.506   -28500.722    8012.6429      10629.7    10256.568    80.675126 
   69300    586.31375   -104.14087     0.530509   -103.61036    969.42673    4.3246246    4.3246246    4.3246246    969.42673   -10136.274    45919.182   -32874.628    4423.4248    -11933.04    5276.7336    80.880762 
   69400    1206.1493   -104.69481    1.0913493   -103.60346   -12272.529    4.3319008    4.3319008    4.3319008   -12272.529   -33037.822    10917.404   -14697.169    319.20798    19474.699    9304.7913    81.289695 
   69500    1105.6125   -104.59967    1.0003814   -103.59929   -6911.6228    4.3294753    4.3294753    4.3294753   -6911.6228    12185.532    3427.9624   -36348.363    -8760.891   -4632.2542    7198.8976    81.153228 
   69600    701.48509   -104.23579   0.63471845   -103.60107    5837.8264    4.3232578    4.3232578    4.3232578    5837.8264    15047.495    20946.993   -18481.009    17876.542    8796.0351   -13221.737    80.804099 
   69700    1064.4834   -104.56218   0.96316695   -103.59901    6018.0342    4.3314206    4.3314206    4.3314206    6018.0342   -55.110822    37229.379   -19120.166   -183.30503    3693.3921    8341.1748    81.262668 
   69800    1035.7763    -104.5398   0.93719219   -103.60261    -2115.948    4.3272355    4.3272355    4.3272355    -2115.948    -3547.765    18400.921       -21201   -506.31188   -6562.6672   -9864.9699     81.02734 
   69900    1214.4845    -104.7002    1.0988911   -103.60131   -9716.2947     4.328563     4.328563     4.328563   -9716.2947   -13355.122    24377.344   -40171.106     585.6206   -585.54256    3153.1051    81.101937 
   70000    852.42721   -104.37414   0.77129406   -103.60285   -3242.0253    4.3312323    4.3312323    4.3312323   -3242.0253   -30955.792    59426.237    -38196.52   -15215.066   -8332.9467    5401.9546    81.252071 
   70100    1234.9125   -104.72125    1.1173748   -103.60387   -19981.601    4.3287381    4.3287381    4.3287381   -19981.601   -20742.431   -12813.348   -26389.024    19350.378     1168.233   -16179.464    81.111777 
   70200    1033.9789   -104.53663   0.93556583   -103.60107   -3234.7746    4.3244573    4.3244573    4.3244573   -3234.7746   -29415.964     28222.87   -8511.2293   -5383.9812    691.44274    12578.506    80.871375 
   70300    795.89134   -104.32772   0.72013921   -103.60758   -2639.4354    4.3304595    4.3304595    4.3304595   -2639.4354   -2386.1512    31396.808   -36928.962   -9988.3302   -2124.7704   -6991.8253    81.208585 
   70400     1090.363   -104.58468   0.98658336   -103.59809    4542.0369    4.3362411    4.3362411    4.3362411    4542.0369   -3050.8662    15601.052    1075.9252   -3037.2054    13037.659   -1515.0556    81.534286 
   70500    782.10928   -104.31197   0.70766891    -103.6043    7404.7066    4.3229813    4.3229813    4.3229813    7404.7066    10457.824    9971.2727    1785.0235   -7533.8532   -992.09209   -2383.6056    80.788599 
   70600    1000.4047   -104.51096   0.90518717   -103.60577    7789.6037    4.3261821    4.3261821    4.3261821    7789.6037    18594.604    31750.252   -26976.045    14116.633    3252.8238    -23360.51    80.968184 
   70700    999.98464   -104.50877   0.90480712   -103.60396    3455.7158    4.3349204    4.3349204    4.3349204    3455.7158   -17247.028    37492.391   -9878.2159   -11068.704   -2609.3108    18903.163    81.459808 
   70800    1023.1405   -104.53098     0.925759   -103.60522   -20474.564    4.3314453    4.3314453    4.3314453   -20474.564   -11052.985   -31064.991   -19305.715   -10585.981   -5783.6756   -11238.377    81.264056 
   70900    1150.1891   -104.63699    1.0407153   -103.59628    20593.308    4.3219003    4.3219003    4.3219003    20593.308   -7612.8235    73893.733   -4500.9848   -6624.5218    1617.2819   -1376.3911    80.728009 
   71000    841.94644   -104.36895   0.76181083   -103.60713   -26085.078    4.3348256    4.3348256    4.3348256   -26085.078   -25772.634   -2642.6348   -49839.966   -9531.7423   -3767.0695   -3381.0302    81.454462 
   71100    1098.4468   -104.59345   0.99389775   -103.59955   -8935.4292    4.3330578    4.3330578    4.3330578   -8935.4292   -20848.963    7977.4535   -13934.778      4807.35    10920.883   -11227.445    81.354849 
   71200    1483.0144   -104.93492    1.3418626   -103.59306    1592.8651    4.3219437    4.3219437    4.3219437    1592.8651   -7970.1835    21543.584   -8794.8047   -1897.5683   -6487.5072    6306.2499    80.730441 
   71300    619.71095   -104.17388   0.56072749   -103.61316    -4295.589    4.3265459    4.3265459    4.3265459    -4295.589   -9282.0621    12672.715    -16277.42   -7158.3603    557.09177   -28370.676    80.988611 
   71400    1070.5704   -104.57515   0.96867459   -103.60648    7453.1261    4.3314692    4.3314692    4.3314692    7453.1261   -8425.6283     34943.22   -4158.2134    3671.4163   -6641.7108    -11015.08    81.265401 
   71500    1139.7756   -104.63741    1.0312929   -103.60612    479.45396    4.3314964    4.3314964    4.3314964    479.45396   -10610.948    6021.8976    6027.4122   -3292.5011   -5702.4277     545.4028    81.266932 
   71600    720.80949   -104.26255   0.65220357   -103.61034    2964.2838    4.3232811    4.3232811    4.3232811    2964.2838   -11753.459    48583.064   -27936.753    8228.0415   -7709.1626   -11330.852    80.805407 
   71700    1079.6206   -104.58686   0.97686342      -103.61   -9412.4876     4.330134     4.330134     4.330134   -9412.4876   -10795.218    7485.9957   -24928.241    14804.495   -4654.5051    330.68151    81.190274 
   71800    1117.5608   -104.62185    1.0111925   -103.61066   -10212.056    4.3319131    4.3319131    4.3319131   -10212.056   -5715.5335    1298.5152    -26219.15   -8003.1794   -907.39973   -20511.423    81.290392 
   71900    837.53154   -104.37358   0.75781614   -103.61576    9102.9897    4.3224975    4.3224975    4.3224975    9102.9897   -29834.001     40087.92     17055.05    14874.122   -894.12825     828.4646    80.761476 
   72000       1105.1   -104.61139   0.99991774   -103.61147    18346.376    4.3229566    4.3229566    4.3229566    18346.376   -12495.425    31022.144    36512.409   -3155.4521   -1258.4239    4903.9252    80.787211 
   72100    874.63818   -104.40752   0.79139101   -103.61613   -16619.491    4.3392607    4.3392607    4.3392607   -16619.491   -26498.637   -15997.037   -7362.7978     19135.41     3171.428   -29629.685    81.704735 
   72200    1044.7672   -104.55377   0.94532734   -103.60844    2651.3425    4.3263622    4.3263622    4.3263622    2651.3425   -40969.115    36732.371    12190.771    17774.424   -10977.755    17675.839    80.978297 
   72300    1147.8658    -104.6387    1.0386131   -103.60008    26176.914    4.3136399    4.3136399    4.3136399    26176.914   -2518.6005    58034.118    23015.223    -2068.919   -723.31927   -14688.088     80.26601 
   72400    817.73383   -104.35563   0.73990275   -103.61573   -29404.487    4.3384996    4.3384996    4.3384996   -29404.487   -41616.491   -25520.562   -21076.409    16027.303    351.14824   -8184.6889    81.661752 
   72500    1065.4766   -104.57291   0.96406558   -103.60884    9505.9509    4.3336723    4.3336723    4.3336723    9505.9509   -28243.036    44794.781    11966.108   -4432.5126   -3906.5166    -7262.115    81.389467 
   72600     1071.613   -104.57072   0.96961795    -103.6011    12952.436    4.3242592    4.3242592    4.3242592    12952.436    -21391.02    57931.874    2316.4552    5723.8157   -1787.4543   -10819.815    80.860263 
   72700    940.94737   -104.45996   0.85138896   -103.60858   -28504.213    4.3283147    4.3283147    4.3283147   -28504.213   -40202.183   -33203.337   -12107.119    18550.094   -171.27527    11983.861    81.087979 
   72800    917.15558     -104.442   0.82986164   -103.61213    29099.786    4.3252177    4.3252177    4.3252177    29099.786   -4170.5706    64167.472    27302.457   -10760.678    -806.2975    4990.9671    80.914043 
   72900    1011.2473   -104.52925   0.91499778   -103.61426   -9927.7865    4.3384868    4.3384868    4.3384868   -9927.7865   -46289.413    18864.713   -2358.6597    15760.032    -5066.452   -10089.672    81.661027 
   73000    1002.9345   -104.51269   0.90747625   -103.60521   -4211.4917    4.3257451    4.3257451    4.3257451   -4211.4917   -9094.5973   -15141.128     11601.25   -4183.1713   -3566.1439    12635.691    80.943649 
   73100    1006.3654   -104.51564   0.91058054   -103.60506    14681.938    4.3228618    4.3228618    4.3228618    14681.938   -11384.772    62447.227     -7016.64   -3346.5942   -3241.6865    16523.523    80.781897 
   73200    753.21847   -104.29165    0.6815279   -103.61012   -6367.8075    4.3380991    4.3380991    4.3380991   -6367.8075   -28367.281    29611.217   -20347.358    18935.161   -12177.862    2261.8956    81.639139 
   73300    1273.2288   -104.75146    1.1520442   -103.59942   -15564.386    4.3279715    4.3279715    4.3279715   -15564.386   -8018.1328   -11308.765   -27366.259   -18277.573     2390.739    20136.923    81.068695 
   73400    1027.4274   -104.53186   0.92963791   -103.60222   -7283.9726    4.3258468    4.3258468    4.3258468   -7283.9726   -14966.946    16973.573   -23858.545    19770.256   -8703.1547   -14488.543     80.94936 
   73500    860.26124   -104.38551   0.77838245   -103.60713    -913.6323    4.3317676    4.3317676    4.3317676    -913.6323   -2058.1512    19589.206   -20271.952    2673.6066   -10018.334    18347.387    81.282202 
   73600    1014.8694   -104.52061   0.91827513   -103.60234   -2589.7484    4.3328444    4.3328444    4.3328444   -2589.7484   -18080.314     16894.24   -6583.1716   -3445.2322    2624.0109    11689.096    81.342831 
   73700    1018.5988   -104.51833   0.92164963   -103.59668   -6415.3725     4.330387     4.330387     4.330387   -6415.3725   -11917.324   -21055.696    13726.902    22855.577    -20377.06    2746.4645    81.204505 
   73800    943.83787   -104.45036   0.85400434   -103.59636   -3833.8458     4.329617     4.329617     4.329617   -3833.8458   -418.11426   -26538.908    15455.485   -17276.037    117.18246    7435.2041    81.161195 
   73900    1029.9164   -104.52793   0.93189003   -103.59604   -11386.576    4.3372555    4.3372555    4.3372555   -11386.576   -44881.769    31361.016   -20638.976    14757.669   -7585.9853     -12517.8    81.591519 
   74000    844.02718   -104.35727   0.76369353   -103.59358    7364.9212    4.3271681    4.3271681    4.3271681    7364.9212   -10446.267    37617.774   -5076.7435   -4414.1122   -10856.783    8626.1777    81.023558 
   74100    867.66655   -104.38428   0.78508293   -103.59919   -8781.7006    4.3306638    4.3306638    4.3306638   -8781.7006    15172.719   -14132.069   -27385.751   -14140.788   -561.52421    11233.094     81.22008 
   74200     1399.171   -104.86078    1.2659993   -103.59478   -16864.976    4.3338717    4.3338717    4.3338717   -16864.976   -15846.905   -9484.7425   -25263.279    6561.7845    2791.6516     6280.729    81.400702 
   74300    851.21806   -104.37419   0.77019999   -103.60399    6851.6974    4.3261113    4.3261113    4.3261113    6851.6974    29841.049   -15703.206    6417.2495   -8297.5695    2768.9926    6274.4896    80.964209 
   74400    894.54179   -104.41526   0.80940021   -103.60586    638.52505    4.3278263    4.3278263    4.3278263    638.52505    165.02196    29748.333    -27997.78   -10438.492   -3955.3264    -12677.28    81.060536 
   74500    974.23939   -104.48554   0.88151228   -103.60403    11885.686    4.3331459    4.3331459    4.3331459    11885.686    9622.1291    38808.178   -12773.249    9021.8095    9129.4964    4492.4313    81.359814 
   74600    876.55543   -104.39716   0.79312578   -103.60403   -12751.571    4.3354259    4.3354259    4.3354259   -12751.571    16442.093   -17901.697   -36795.108   -9697.5997   -5471.2844   -1190.6789    81.488308 
   74700     1298.658   -104.77433    1.1750531   -103.59928   -3134.7567    4.3199114    4.3199114    4.3199114   -3134.7567   -4057.9452    4562.5891    -9908.914    2632.0062    2758.2361    2721.8494    80.616607 
   74800    1165.4729    -104.6657    1.0545444   -103.61115    -19097.93    4.3331209    4.3331209    4.3331209    -19097.93    16088.139   -36418.649    -36963.28    -2227.864    1801.7045    2514.8867    81.358407 
   74900     852.3404   -104.38297   0.77121551   -103.61176   -21062.021    4.3433969    4.3433969    4.3433969   -21062.021    2018.5215    -1518.872   -63685.714   -1295.1719   -4449.0795   -10474.562    81.938605 
   75000    934.19706   -104.44815   0.84528113   -103.60287    25701.602    4.3256317    4.3256317    4.3256317    25701.602    20947.888    64564.023   -8407.1043   -9714.0897     49.88639   -2964.7709     80.93728 
   75100    892.20419   -104.41158    0.8072851    -103.6043     11242.65    4.3264963    4.3264963    4.3264963     11242.65    10854.828    47497.572   -24624.452   -13381.152   -8824.7556   -11985.926    80.985825 
   75200    847.76429   -104.36934   0.76707494   -103.60226   -11995.689    4.3492262    4.3492262    4.3492262   -11995.689    15435.789    5117.0741    -56539.93    -3679.251    2274.3285   -3257.6722    82.268958 
   75300    1222.7261   -104.69289    1.1063482   -103.58655   -6096.3957    4.3422353    4.3422353    4.3422353   -6096.3957   -19430.808    -3882.091     5023.712   -4519.2836   -1307.7915    -3065.976    81.872876 
   75400    957.54473   -104.45269   0.86640659   -103.58629   -2221.0043    4.3156414    4.3156414    4.3156414   -2221.0043   -9198.6569    38053.138   -35517.494    1151.0632   -457.16308   -5714.4661     80.37779 
   75500    897.91969   -104.41738    0.8124566   -103.60493    25997.403    4.3333903    4.3333903    4.3333903    25997.403    36289.488    41380.585    322.13575   -14638.663     7764.644    656.86982    81.373581 
   75600    1125.4156   -104.61945    1.0182997   -103.60115   -26262.057    4.3525002    4.3525002    4.3525002   -26262.057    4241.1304    -36253.47   -46773.832   -6156.4337   -3408.9706   -7301.2963    82.454889 
   75700    738.72196   -104.26467   0.66841116   -103.59625    21260.739    4.3254981    4.3254981    4.3254981    21260.739    59959.685    20872.141   -17049.609   -4832.8732    -1167.626    295.87084    80.929785 
   75800    1493.1679   -104.94492    1.3510497   -103.59387   -8870.6071    4.3287613    4.3287613    4.3287613   -8870.6071    -3146.646   -13080.899   -10384.276    9156.2285   -1160.7933   -2191.1166    81.113085 
   75900    770.33135   -104.30489     0.697012   -103.60788   -11618.711    4.3432144    4.3432144    4.3432144   -11618.711    34646.068   -22299.975   -47202.226   -114.51916    9949.9242    66.436187    81.928276 
   76000    798.48456    -104.3278   0.72248561   -103.60531    10768.318    4.3408567    4.3408567    4.3408567    10768.318    19586.347    38472.683   -25754.076   -6379.2274    9086.9593    16111.679    81.794925 
   76100    1297.2151   -104.76896    1.1737475   -103.59521    12738.981    4.3222162    4.3222162    4.3222162    12738.981    27484.578    23507.658   -12775.292   -10365.226   -75.320458    1115.1843    80.745712 
   76200    796.89123   -104.33678   0.72104393   -103.61574   -12372.144    4.3343939    4.3343939    4.3343939   -12372.144   -38215.161    33905.309   -32806.579    6548.2234   -5432.2533     1122.341     81.43013 
   76300    1448.6027   -104.91322    1.3107262   -103.60249   -16470.865    4.3470803    4.3470803    4.3470803   -16470.865   -28290.735     7426.873   -28548.732    6459.6132   -3702.5506    1760.2715    82.147241 
   76400    897.99753   -104.41714   0.81252704   -103.60462    2942.6815    4.3333598    4.3333598    4.3333598    2942.6815   -14491.271    50583.701   -27264.386   -10278.422    4607.6284    1008.2183    81.371859 
   76500    792.21206   -104.31842   0.71681012   -103.60161    21189.993    4.3233065    4.3233065    4.3233065    21189.993    50969.012    25716.113   -13115.146   -4678.7105    1416.8081    5138.6365    80.806832 
   76600    1072.3353   -104.57703   0.97027148   -103.60676   -1019.7964     4.340797     4.340797     4.340797   -1019.7964    33229.957   -10337.426   -25951.921   -10327.228    12568.264   -4502.7135    81.791549 
   76700    1213.5053   -104.69422    1.0980051   -103.59622   -28825.711    4.3463567    4.3463567    4.3463567   -28825.711    -2256.937   -33513.703   -50706.491    9984.2014   -3969.2109     3819.108    82.106225 
   76800    905.51454   -104.41281   0.81932858   -103.59348    10554.826    4.3298011    4.3298011    4.3298011    10554.826    83314.989   -20663.811     -30986.7    5996.0688    -5449.264   -9868.2094    81.171552 
   76900    1200.8055   -104.68777     1.086514   -103.60125   -1583.5492    4.3267061    4.3267061    4.3267061   -1583.5492    12469.886   -8171.9053   -9048.6285   -9406.6642   -5991.3802    3654.3088    80.997608 
   77000     947.2608    -104.4695   0.85710147   -103.61239   -8732.3247    4.3440314    4.3440314    4.3440314   -8732.3247    38356.288   -12312.661   -52240.602   -8702.2566    1665.8412   -10949.057    81.974516 
   77100    1133.6027   -104.62189    1.0257075   -103.59618    -9065.236    4.3462097    4.3462097    4.3462097    -9065.236   -5715.9463    15017.679    -36497.44    2965.2129    3734.9454   -9546.5746    82.097894 
   77200    742.19513    -104.2645   0.67155375   -103.59294    13919.472     4.327516     4.327516     4.327516    13919.472    38643.591    32689.728   -29574.902    13787.579    3882.1453    4701.0397    81.043099 
   77300    1052.0808   -104.55477   0.95194486   -103.60282   -8230.5359    4.3310476    4.3310476    4.3310476   -8230.5359    8719.7505   -4533.3253   -28878.033    2796.9328    -5126.297   -6948.5615    81.241673 
   77400    1000.4311   -104.50991   0.90521111    -103.6047    -5615.256    4.3415853    4.3415853    4.3415853    -5615.256     27722.12   -41376.404   -3191.4847   -16727.867   -839.88475    10184.217    81.836115 
   77500    880.62749   -104.40137   0.79681026   -103.60456   -15235.937    4.3326417    4.3326417    4.3326417   -15235.937     6005.868   -35664.806   -16048.873    4908.4102    2165.9021   -9882.8302    81.331413 
   77600    1093.2565   -104.59104   0.98920145   -103.60184    8650.4571    4.3261644    4.3261644    4.3261644    8650.4571    40321.137   -13897.653    -472.1133   -12803.896   -84.034415   -1217.1505    80.967188 
   77700    1224.9343   -104.71811    1.1083463   -103.60976   -20941.011    4.3349867    4.3349867    4.3349867   -20941.011   -4068.6846   -27495.262   -31259.086     4340.801   -4488.0172   -7352.8028    81.463545 
   77800    605.12951   -104.16883   0.54753389   -103.62129     5444.272    4.3319253    4.3319253    4.3319253     5444.272    52947.995   -8376.9235   -28238.255   -4374.2353    4975.6926   -7120.7239    81.291076 
   77900    1096.9522   -104.60982   0.99254543   -103.61728    4045.6666    4.3321987    4.3321987    4.3321987    4045.6666    16675.896    -9708.874    5169.9782   -165.96164    1918.4313     5411.147    81.306471 
   78000      842.231   -104.37811   0.76206831   -103.61604    1089.6312    4.3345728    4.3345728    4.3345728    1089.6312    42209.461   -38906.951   -33.616941    8832.6389    699.59506   -9080.1645    81.440212 
   78100    1081.2822   -104.58562   0.97836682   -103.60726   -3848.4824    4.3370548    4.3370548    4.3370548   -3848.4824    9380.3581   -5646.5617   -15279.243   -5101.7545   -11343.843   -4289.9936    81.580194 
   78200     938.1873   -104.45772   0.84889159   -103.60883    -5624.189    4.3342077    4.3342077    4.3342077    -5624.189    51790.237   -45966.334    -22696.47    -1168.675    9219.3155   -12637.815    81.419637 
   78300    985.70695   -104.50509   0.89188837   -103.61321   -743.31569    4.3262184    4.3262184    4.3262184   -743.31569    44274.722   -19922.786   -26581.882    1054.4736   -9597.9887   -3442.6794    80.970222 
   78400    981.77629   -104.50173   0.88833181    -103.6134   -7764.3633    4.3414954    4.3414954    4.3414954   -7764.3633    3876.1601   -21536.737   -5632.5133    2700.0176   -13542.958   -5772.0549    81.831034 
   78500    719.74362   -104.25672   0.65123915   -103.60548    2790.9974     4.338325     4.338325     4.338325    2790.9974    88966.511   -44435.766   -36157.752   -4154.0643   -6558.4802   -5302.6903    81.651894 
   78600    1313.8396   -104.78614    1.1887897   -103.59735   -7303.4579    4.3273682    4.3273682    4.3273682   -7303.4579   -5770.3039    1138.1588   -17278.229     4159.805   -5036.5483    4025.6358    81.034796 
   78700    881.87449   -104.41155   0.79793857   -103.61361   -16216.533    4.3400295    4.3400295    4.3400295   -16216.533    37064.377   -45021.566   -40692.412   -8652.5285    3015.6954   -22109.254     81.74817 
   78800    944.93076   -104.46129   0.85499321   -103.60629     8561.513    4.3385398    4.3385398    4.3385398     8561.513     28857.98   -19165.478    15992.037    5173.4459   -11593.471    2300.6548    81.664019 
   78900    1019.3739   -104.52823   0.92235089   -103.60588   -2958.3951    4.3291115    4.3291115    4.3291115   -2958.3951    24787.693   -10549.816   -23113.062    1954.9699   -3543.5232   -9491.1932    81.132771 
   79000    832.08532   -104.36592   0.75288828   -103.61303   -21062.399    4.3376213    4.3376213    4.3376213   -21062.399    -2611.232   -35975.681   -24600.283    8620.3271    23060.649    5564.3822    81.612162 
   79100    1427.0766   -104.89076    1.2912489   -103.59951    4034.8846    4.3340661    4.3340661    4.3340661    4034.8846    19717.631   -6295.5579   -1317.4195     5042.783   -9758.4209    1181.7757    81.411659 
   79200    488.02714   -104.05216   0.44157722   -103.61058   -3657.3477    4.3378981    4.3378981    4.3378981   -3657.3477    27340.604   -28579.105   -9733.5422   -9460.6031    1692.6769   -9976.0082    81.627788 
   79300    1145.5169   -104.63953    1.0364878   -103.60304   -57.226137    4.3341198    4.3341198    4.3341198   -57.226137    41819.342   -2681.6251   -39309.395   -10225.447   -3283.4977    8279.2675     81.41468 
   79400    1069.6706   -104.57333    0.9678604   -103.60547     5199.571    4.3342229    4.3342229    4.3342229     5199.571    45913.659   -25205.853   -5109.0927   -5945.0705    2365.5247   -6411.5654    81.420492 
   79500    1028.4417   -104.53597   0.93055566   -103.60541   -29536.038    4.3365038    4.3365038    4.3365038   -29536.038   -3651.7049   -34381.959    -50574.45   -332.40798    12984.959    12194.766    81.549101 
   79600    1002.8148   -104.50729   0.90736794   -103.59992    13410.462    4.3343381    4.3343381    4.3343381    13410.462    41139.534   -7512.3905    6604.2424    9404.7311   -9896.1199   -1074.3487    81.426986 
   79700     855.9533   -104.38104   0.77448454   -103.60655     2345.786    4.3307408    4.3307408    4.3307408     2345.786    57454.298   -39744.007   -10672.933   -1991.6343   -8482.8429    6448.8022    81.224411 
   79800    1122.5882   -104.62325    1.0157414   -103.60751   -3635.3205    4.3369185    4.3369185    4.3369185   -3635.3205    20530.105   -16459.508   -14976.558   -1566.4078    10506.916    4733.8807    81.572504 
   79900    1052.0743   -104.55442   0.95193893   -103.60248   -5967.6049    4.3373903    4.3373903    4.3373903   -5967.6049    10764.345   -21144.872   -7522.2886    -4860.617   -13533.626   -3307.6682    81.599129 
   80000    873.95994   -104.39357   0.79077732   -103.60279    2765.1173    4.3319424    4.3319424    4.3319424    2765.1173    43181.708   -33310.793   -1575.5634   -4801.8938   -1441.1278    5621.2214     81.29204 
   80100    968.98391   -104.48188   0.87675701   -103.60513    1888.3334    4.3336464    4.3336464    4.3336464    1888.3334   -13172.671    2276.5832    16561.088    2609.7085   -12866.715    1123.7144    81.388009 
   80200    1190.8312   -104.68819    1.0774891    -103.6107   -18690.569    4.3354487    4.3354487    4.3354487   -18690.569    16725.782   -38646.433   -34151.055   -5419.8963    6319.5984    1855.7357    81.489592 
   80300     1036.419   -104.54679   0.93777371   -103.60901    11867.833     4.335077     4.335077     4.335077    11867.833    7738.6845   -1221.7093    29086.522    5128.3472   -11962.992   -852.92613    81.468636 
   80400    554.46475   -104.11714   0.50169136   -103.61545    -2320.986    4.3362947    4.3362947    4.3362947    -2320.986    7905.2287   -23232.768    8364.5815   -3878.0663   -5875.8491       45.748     81.53731 
   80500    1252.7072   -104.74258    1.1334758   -103.60911   -4575.3693    4.3329029    4.3329029    4.3329029   -4575.3693     25740.94   -22502.963   -16964.085    127.87258   -3171.7531    8651.1732    81.346125 
   80600    1164.0982     -104.665    1.0533005    -103.6117    1069.3973    4.3357099    4.3357099    4.3357099    1069.3973   -22682.677   -5109.6978    31000.567   -5196.3195     18785.35   -1549.8378    81.504326 
   80700    533.88772   -104.10509   0.48307283   -103.62202    -5340.203    4.3312515    4.3312515    4.3312515    -5340.203    29899.943   -31009.723    -14910.83    1701.8761   -6982.1078    8676.1955    81.253149 
   80800    1429.7657   -104.90616     1.293682   -103.61248    2724.8448    4.3327814    4.3327814    4.3327814    2724.8448   -15194.809   -3115.4704    26484.814   -7555.1829    1256.5882   -3330.3237    81.339283 
   80900    1026.2774   -104.54582   0.92859739   -103.61722    1361.5359     4.334343     4.334343     4.334343    1361.5359     9211.999   -16829.145    11701.753    2635.8442     4418.307    7321.9527     81.42726 
   81000    629.35116    -104.1908   0.56945016   -103.62135    16031.656    4.3349082    4.3349082    4.3349082    16031.656    25407.929     1590.294    21096.746    1136.9016    11404.487    8562.0729    81.459122 
   81100    1432.8464   -104.90172    1.2964696   -103.60525   -13898.737     4.344116     4.344116     4.344116   -13898.737   -21895.552   -17329.043   -2471.6144    3226.6881   -110.55618   -1246.0934    81.979304 
   81200    748.91484   -104.28795   0.67763388   -103.61031    11681.092    4.3265243    4.3265243    4.3265243    11681.092    34262.141    432.98239    348.15239     1553.485   -3392.5355   -1381.0159    80.987395 
   81300     1009.628   -104.53105   0.91353263   -103.61752    6914.8855    4.3344661    4.3344661    4.3344661    6914.8855     -3948.01   -27960.623     52653.29    2926.4862   -2346.6322    2524.5948      81.4342 
   81400    1505.6235   -104.97135    1.3623198   -103.60903   -18049.714    4.3437489    4.3437489    4.3437489   -18049.714   -19081.769    -9947.093   -25120.279    5549.0394    1657.7769    3305.6837    81.958525 
   81500    495.21641   -104.06151   0.44808221   -103.61342    14349.091    4.3366657    4.3366657    4.3366657    14349.091    20612.757   -21393.832    43828.349    3224.6423    928.77073    4550.3273    81.558236 
   81600    1261.5262   -104.74452    1.1414555   -103.60306   -5917.9084    4.3382701    4.3382701    4.3382701   -5917.9084    -37867.26   -20384.059    40497.595    1878.5584   -6682.9452   -2546.4357    81.648792 
   81700    1270.0698   -104.75406    1.1491859   -103.60487    4637.7964    4.3296541    4.3296541    4.3296541    4637.7964    39697.713   -11639.055   -14145.268    2394.2345   -5219.0374   -7253.2155    81.163281 
   81800    812.10714   -104.35598   0.73481161   -103.62117   -16313.873    4.3467338    4.3467338    4.3467338   -16313.873   -18086.145   -37372.499    6517.0244    71.367028    6969.9187   -592.39413    82.127598 
   81900    1242.3032   -104.72409     1.124062   -103.60003    897.42481    4.3448907    4.3448907    4.3448907    897.42481   -4776.6865    -26674.93    34143.891   -4152.0272    12589.471    2324.9072    82.023176 
   82000    961.78813   -104.47039   0.87024612   -103.60015   -5736.9911    4.3298158    4.3298158    4.3298158   -5736.9911    4959.8225   -24605.288    2434.4917   -6248.0398    1039.3386    7417.0504    81.172378 
   82100    1049.2026   -104.55975   0.94934056    -103.6104   -11274.261    4.3359507    4.3359507    4.3359507   -11274.261   -20410.522   -11003.254   -2409.0069   -1522.3477    3449.7497    4918.7155    81.517903 
   82200    1186.1463   -104.67775    1.0732501    -103.6045    330.70057    4.3412463    4.3412463    4.3412463    330.70057    1083.0008   -15876.172    15785.273   -1723.6202   -5928.1764   -1663.6432     81.81695 
   82300    625.69298   -104.17125   0.56614016   -103.60511   -8999.9662    4.3453892    4.3453892    4.3453892   -8999.9662   -25409.063   -13479.477    11888.641   -542.85993    25265.333   -2697.5754    82.051411 
   82400    1157.4616   -104.64116    1.0472956   -103.59387    14350.642    4.3296225    4.3296225    4.3296225    14350.642    53416.355    1376.0725   -11740.503    4497.1833    9063.2926   -5428.7499    81.161507 
   82500    1001.2737   -104.51164    0.9059735   -103.60567    6287.2288    4.3316095    4.3316095    4.3316095    6287.2288    6516.8914    18990.903   -6646.1075    4196.3661   -3160.4621    5733.3426      81.2733 
   82600    725.81194   -104.26236    0.6567299   -103.60563   -21165.927    4.3507679    4.3507679    4.3507679   -21165.927   -16825.303   -1633.1316   -45039.348   -6575.5874    7939.3576    6741.6967    82.356474 
   82700    1223.4086   -104.69908    1.1069658   -103.59212    9450.2729    4.3330326    4.3330326    4.3330326    9450.2729    49343.668   -19156.187   -1836.6624    -5087.941    341.23405    3082.3261    81.353432 
   82800    939.95549   -104.45338   0.85049148   -103.60289    11253.327    4.3288251    4.3288251    4.3288251    11253.327    16263.464    4499.3591    12997.158   -2098.5827    21694.107    9595.8848    81.116669 
   82900    808.49676   -104.34163   0.73154486   -103.61008     -14121.9    4.3467874    4.3467874    4.3467874     -14121.9    16214.774   -25957.533   -32622.941    6553.4794   -8549.9598   -5898.7206    82.130639 
   83000    1423.4288   -104.88605    1.2879483    -103.5981   -20118.753    4.3354941    4.3354941    4.3354941   -20118.753    -19112.53   -29396.796   -11846.932   -8074.2231    3159.7642    26.150967    81.492154 
   83100    737.75233   -104.27008   0.66753382   -103.60254    25565.266    4.3212368    4.3212368    4.3212368    25565.266    39320.114    33705.339    3670.3439    6150.4799    6324.5175    1108.2885    80.690833 
   83200    909.25036   -104.43664   0.82270883   -103.61394   -2680.1359    4.3431994    4.3431994    4.3431994   -2680.1359   -4572.3477   -34004.061    30536.001   -15073.276    320.61532    3881.4366    81.927427 
   83300    1037.3598   -104.54425   0.93862497   -103.60562   -7079.6303    4.3441777    4.3441777    4.3441777   -7079.6303    6772.4518   -25388.407   -2622.9354   -4929.9823    10647.714   -3753.8733    81.982802 
   83400     1063.225   -104.56443   0.96202837    -103.6024   -16951.731    4.3265927    4.3265927    4.3265927   -16951.731   -10258.197   -15021.589   -25575.406     2120.894   -8302.1875   -7347.1087    80.991236 
   83500    985.88969   -104.49889   0.89205371   -103.60683    18736.175    4.3324314    4.3324314    4.3324314    18736.175    43086.432   -28779.626    41901.718   -2306.4581   -751.02243    672.63497    81.319573 
   83600    1189.5757   -104.68167    1.0763531   -103.60531   -31248.444    4.3477995    4.3477995    4.3477995   -31248.444   -30163.867     -38134.5   -25446.966    7001.8275    18663.628   -3169.2876     82.18802 
   83700    596.08503   -104.14838   0.53935026   -103.60903    679.46967    4.3309356    4.3309356    4.3309356    679.46967    8473.1255   -41397.555    34962.839   -10193.299   -5222.1429    5329.0394    81.235375 
   83800    1311.5514   -104.79634    1.1867193   -103.60962    11870.724    4.3205038    4.3205038    4.3205038    11870.724    25461.884    2259.9727    7890.3147    2808.9257   -1165.4393     5724.556    80.649779 
   83900    912.25595   -104.45138   0.82542836   -103.62595   -29711.282    4.3465837    4.3465837    4.3465837   -29711.282   -13494.797   -34774.697   -40864.352   -3344.1224    8716.2843   -4774.5863    82.119093 
   84000    969.84828   -104.49276    0.8775391   -103.61522   -17626.325     4.342904     4.342904     4.342904   -17626.325   -12703.866   -29465.004   -10710.105    1566.0498   -8190.0332   -3094.5305     81.91071 
   84100    1005.6158   -104.51129   0.90990229   -103.60139    40650.658    4.3194572    4.3194572    4.3194572    40650.658    53334.585    24116.062    44501.326    3216.2836     3268.803   -13700.958    80.591182 
   84200    803.79803   -104.34551   0.72729335   -103.61822   -16813.904     4.339144     4.339144     4.339144   -16813.904   -21281.461    6916.7845   -36077.036   -9225.3987   -21566.136    -5882.445    81.698142 
   84300    1019.7049   -104.52254   0.92265039   -103.59989    2020.7039    4.3517875    4.3517875    4.3517875    2020.7039    35444.743   -17599.474   -11783.157    4424.5326    7997.3909    5104.3654     82.41439 
   84400    1090.2711   -104.57973   0.98650019   -103.59323   -3809.9552    4.3344783    4.3344783    4.3344783   -3809.9552   -22556.936    876.47425    10250.596   -5520.1686   -1558.8578    7599.1713    81.434889 
   84500      347.552   -103.92359   0.31447235   -103.60912    26628.141    4.3247936    4.3247936    4.3247936    26628.141     96514.37    -17766.89    1136.9422    4201.3855   -27492.237    10864.148    80.890246 
   84600    1609.6358   -105.06341    1.4564323   -103.60698   -9057.5818    4.3421278    4.3421278    4.3421278   -9057.5818   -2085.8024   -5481.4795   -19605.463    4104.1146    12744.825    4816.4578    81.866796 
   84700    542.38323   -104.10745   0.49075975   -103.61669   -7531.4937    4.3436473    4.3436473    4.3436473   -7531.4937    50671.293   -38504.063   -34761.711    2470.8728   -7728.5052   -6467.1303    81.952775 
   84800    1093.9877   -104.59783   0.98986307   -103.60796   -475.54331    4.3281093    4.3281093    4.3281093   -475.54331    9301.0345   -21860.582    11132.917     3190.359   -7669.2605    5368.8562     81.07644 
   84900    1165.5527   -104.66579    1.0546165   -103.61117    18658.327    4.3333954    4.3333954    4.3333954    18658.327    67422.685   -18467.083    7019.3804   -10011.902   -13753.981   -8541.8318    81.373869 
   85000    606.02042   -104.17591   0.54834001   -103.62757   -25829.989    4.3427099    4.3427099    4.3427099   -25829.989   -9779.0962    -44464.94    -23245.93   -1749.8724   -12403.064     6291.853    81.899725 
   85100    1355.2679    -104.8368    1.2262748   -103.61052    8314.0213    4.3240895    4.3240895    4.3240895    8314.0213     51008.61   -11283.189   -14783.358    2650.9893    4881.8643   -5736.9703    80.850743 
   85200    804.73007   -104.34938   0.72813667   -103.62124    1789.8376    4.3322719    4.3322719    4.3322719    1789.8376    44788.407   -37219.389   -2199.5057   -1846.8542   -14444.232    6502.4248    81.310591 
   85300     1036.318    -104.5536   0.93768231   -103.61592   -18970.351    4.3405133    4.3405133    4.3405133   -18970.351    1318.2957   -38283.027   -19946.321    1492.6689    -4667.463    5357.3302    81.775514 
   85400    827.31523   -104.35819   0.74857221   -103.60962    23789.813    4.3317825    4.3317825    4.3317825    23789.813    78274.517   -3899.7994   -3005.2778   -3732.6213    25386.017    3024.6146    81.283036 
   85500    1168.1486   -104.67471    1.0569654   -103.61774   -18830.901    4.3303329    4.3303329    4.3303329   -18830.901   -1814.7869   -32070.059   -22607.858    -2419.567   -17572.213    6929.4947     81.20146 
   85600    908.33954    -104.4408    0.8218847   -103.61892     5542.976     4.334476     4.334476     4.334476     5542.976     40940.26   -19432.158   -4879.1749    10481.603    5045.0054     1358.068    81.434755 
   85700    1083.0667   -104.59169   0.97998148    -103.6117    6839.5773    4.3305632    4.3305632    4.3305632    6839.5773    19114.065   -5964.1094    7368.7764   -4676.3052    6152.3957    8755.8134    81.214417 
   85800    904.33992   -104.42928   0.81826576   -103.61102   -4336.3871    4.3374588    4.3374588    4.3374588   -4336.3871    20543.193   -33141.118   -411.23702    8715.0658   -8679.5645    1887.6374    81.602992 
   85900    1045.7305   -104.55429   0.94619894   -103.60809    1760.4645    4.3310902    4.3310902    4.3310902    1760.4645    29883.665   -4991.3465   -19610.925   -6995.8433    6694.2599     3015.186     81.24407 
   86000    1210.7287   -104.70864    1.0954928   -103.61315    -3959.814    4.3268712    4.3268712    4.3268712    -3959.814    10635.571     -13430.4   -9084.6136    -6577.111    5828.0634   -595.63024    81.006881 
   86100    819.08648   -104.36316   0.74112666   -103.62204   -656.02337    4.3435989    4.3435989    4.3435989   -656.02337    31469.041   -26653.751   -6783.3597     3422.953    532.35628   -118.81653    81.950033 
   86200    1178.9727   -104.68006    1.0667593    -103.6133   -10781.133    4.3348367    4.3348367    4.3348367   -10781.133   -1764.4316   -19283.519   -11295.449   -3436.0501    9381.9272   -3999.0697    81.455087 
   86300    684.07681   -104.22752   0.61896707   -103.60855    27875.498    4.3203339    4.3203339    4.3203339    27875.498    53380.498    -5905.038    36151.034    2179.3365   -9663.4801    130.77566    80.640265 
   86400    1322.9878    -104.8065    1.1970672   -103.60943   -28723.785     4.342634     4.342634     4.342634   -28723.785   -27977.068   -17609.444   -40584.844   -2782.6282    15610.853   -8286.9102    81.895436 
   86500    775.49104   -104.31307   0.70168059   -103.61139    9568.3501    4.3336495    4.3336495    4.3336495    9568.3501    39254.182   -25484.229    14935.098   -8776.1915   -1714.1543    2355.1568    81.388183 
   86600    915.42609   -104.43856   0.82829676   -103.61026    11821.787    4.3249947    4.3249947    4.3249947    11821.787    18163.058    3905.0964    13397.206    5169.2496   -8304.4332   -13141.697    80.901531 
   86700    1042.7457   -104.55501   0.94349825   -103.61151   -9052.6082    4.3375027    4.3375027    4.3375027   -9052.6082   -4751.6196   -27481.647    5075.4415   -9114.5157    13177.298    5327.0888    81.605471 
   86800    808.54342   -104.33492   0.73158708   -103.60334    12270.571    4.3375207    4.3375207    4.3375207    12270.571    13311.148    -12532.75    36033.316    11269.688    7029.8555   -7539.0209    81.606488 
   86900     1053.049   -104.54675    0.9528209   -103.59393   -6566.7246    4.3402026    4.3402026    4.3402026   -6566.7246   -3826.1131    1720.7036   -17594.764   -1665.1699    3811.9492      2660.95    81.757952 
   87000    1132.3049   -104.61432    1.0245333   -103.58979   -11655.356    4.3330931    4.3330931    4.3330931   -11655.356   -8887.4708   -35000.487    8921.8896   -12114.223   -3996.7857    1092.2176    81.356838 
   87100    1076.9452   -104.57138   0.97444263   -103.59694    1957.0234    4.3355275    4.3355275    4.3355275    1957.0234    8771.1578    5691.4148   -8591.5025    1144.5632   -423.57219    2594.0552    81.494039 
   87200    1230.7325   -104.70731    1.1135927   -103.59372   -23551.282    4.3409782    4.3409782    4.3409782   -23551.282    -23738.91   -11949.379   -34965.558   -2721.8137    9550.3779    2470.9045    81.801793 
   87300    974.25514   -104.46711   0.88152652   -103.58559     13071.92    4.3309877    4.3309877    4.3309877     13071.92    20399.692    20776.331   -1960.2638    2410.3304    360.75513     -3240.68    81.238306 
   87400    960.92613   -104.46392   0.86946616   -103.59445   -10994.389    4.3370823    4.3370823    4.3370823   -10994.389   -28592.078     19728.44   -24119.528   -3804.4193     614.9051   -6321.7887    81.581747 
   87500    973.21413   -104.48009   0.88058459   -103.59951    20183.135    4.3324664    4.3324664    4.3324664    20183.135    64777.231   -1596.9179   -2630.9075   -27401.804   -1189.9788   -8093.1182    81.321541 
   87600    861.14006   -104.38264   0.77917763   -103.60346    17939.505    4.3344799    4.3344799    4.3344799    17939.505    11465.757    35916.014    6436.7449    6310.1672   -14736.091   -6213.6987     81.43498 
   87700    1057.9367   -104.56194    0.9572434    -103.6047   -6486.3532    4.3317314    4.3317314    4.3317314   -6486.3532   -10999.683    1244.6549   -9704.0319    -12900.23    11700.453   -1279.3365    81.280164 
   87800    1184.4948    -104.6754    1.0717558   -103.60364    6702.5573     4.335036     4.335036     4.335036    6702.5573   -5255.7002    19682.594    5680.7781    9643.6493    5.3154226    579.14475    81.466322 
   87900    996.79133   -104.50323   0.90191774   -103.60131    -5410.279    4.3386251    4.3386251    4.3386251    -5410.279    11959.872    10078.981    -38269.69    -8612.087   -7209.5404     7572.714     81.66884 
   88000    791.33659   -104.31226   0.71601798   -103.59624    21723.294    4.3278772    4.3278772    4.3278772    21723.294    1050.4832    59634.892    4484.5077   -13172.225    7419.6988   -2537.9798    81.063394 
   88100     1119.945   -104.61408    1.0133497   -103.60073   -453.87726    4.3304613    4.3304613    4.3304613   -453.87726   -11624.482    16371.166   -6108.3157   -2031.0907   -25697.528    1137.9232    81.208689 
   88200    944.45046   -104.46317   0.85455863   -103.60861    1054.8804    4.3353354    4.3353354    4.3353354    1054.8804   -37215.214    43025.475   -2645.6201   -7797.2037    14019.591   -606.32473    81.483208 
   88300    1162.1191   -104.65192    1.0515098   -103.60041   -9573.1772    4.3410769    4.3410769    4.3410769   -9573.1772   -40013.915    19078.262   -7783.8784   -7183.1907   -12992.778   -3639.4836    81.807373 
   88400    1027.6407   -104.52678   0.92983093   -103.59695    5045.1041    4.3254975    4.3254975    4.3254975    5045.1041    -8388.681     38646.26   -15122.266    2669.6374    7374.7114    1481.8255    80.929752 
   88500    852.98947   -104.38216    0.7718028   -103.61035    6926.2072    4.3324571    4.3324571    4.3324571    6926.2072   -16763.765    57623.355   -20080.968    -14290.12    5187.1781    4170.8781    81.321018 
   88600    1283.7338   -104.76479    1.1615493   -103.60324    584.98042    4.3376794    4.3376794    4.3376794    584.98042    6215.2284      12700.6   -17160.887     7775.616   -4806.4545   -4130.7039    81.615445 
   88700    713.47985   -104.25614   0.64557156   -103.61056    11818.079    4.3287963    4.3287963    4.3287963    11818.079   -3761.7883    60654.074   -21438.047   -10482.121    11863.065    13110.512    81.115052 
   88800    1355.6777   -104.82873    1.2266457   -103.60209   -6408.5571     4.335798     4.335798     4.335798   -6408.5571   -17753.147   -12197.088    10724.564   -13215.483   -4470.4294    785.58732    81.509294 
   88900     981.2833   -104.49224   0.88788575   -103.60435     9325.882    4.3271012    4.3271012    4.3271012     9325.882   -18939.004    39748.484    7168.1658   -2078.2428    18292.794     1070.976    81.019801 
   89000    785.86015   -104.32614   0.71106277   -103.61508   -12372.127    4.3390268    4.3390268    4.3390268   -12372.127    -28659.09   -3464.1959   -4993.0965   -27013.257    6629.1457   -568.56387    81.691526 
   89100    1309.8009   -104.78229    1.1851354   -103.59716    8635.3587    4.3379606    4.3379606    4.3379606    8635.3587    14099.507    20778.398   -8971.8289    15572.079    9947.7029    2804.1352     81.63132 
   89200    689.70363   -104.22635   0.62405834   -103.60229   -19866.578    4.3362838    4.3362838    4.3362838   -19866.578   -2304.5209   -40647.399   -16647.814   -16091.565    9219.7876    5613.8427    81.536692 
   89300    1021.0102   -104.51839   0.92383152   -103.59456    19764.874    4.3298584    4.3298584    4.3298584    19764.874    1637.5547    32153.018    25504.048    -11454.37   -7604.5942   -4091.0701     81.17477 
   89400    1159.0277    -104.6477    1.0487126   -103.59898   -6372.8483    4.3360628    4.3360628    4.3360628   -6372.8483   -24263.165    20793.224   -15648.605    2499.1575     5557.527    -779.6408    81.524225 
   89500    651.48748   -104.19622   0.58947956   -103.60674   -12765.052    4.3440412    4.3440412    4.3440412   -12765.052   -48928.003   -6124.5123    16757.361   -12122.935   -8055.8593   -656.25238    81.975072 
   89600    1461.1744   -104.91586    1.3221013   -103.59376   -9166.5965    4.3313113    4.3313113    4.3313113   -9166.5965   -9136.6154    5126.1732   -23489.347    15265.429   -7276.9396   -9714.5364    81.256517 
   89700     840.2323   -104.36504   0.76025985   -103.60478   -5231.6877    4.3307919    4.3307919    4.3307919   -5231.6877   -13401.252   -18296.572    16002.761   -28301.724     10420.84    7224.7716    81.227287 
   89800    827.75704   -104.35527   0.74897196    -103.6063    13792.624    4.3429257    4.3429257    4.3429257    13792.624   -814.99918    66815.371   -24622.501   -13605.698    -15272.28    217.81586    81.911939 
   89900    1156.7974   -104.64572    1.0466946   -103.59902   -1123.8266    4.3383065    4.3383065    4.3383065   -1123.8266   -5565.0613    4038.0376   -1844.4562   -17140.367    10695.671   -6822.2575    81.650848 
   90000    602.78492   -104.14684   0.54541246   -103.60143    10926.747    4.3295915    4.3295915    4.3295915    10926.747   -9627.9861    15721.679    26686.548   -9815.5427   -14006.415    5879.2706    81.159765 
   90100    1494.9579    -104.9502    1.3526693   -103.59753    -10659.24    4.3361385    4.3361385    4.3361385    -10659.24    -15857.35    2295.1223   -18415.492    5472.5256    272.22837    6521.3723    81.528498 
   90200    820.32389    -104.3459   0.74224629   -103.60365    -640.2214    4.3399027    4.3399027    4.3399027    -640.2214   -35369.103    9700.5256    23747.914   -7305.1087    3868.8753    8364.0986    81.741007 
   90300    933.84264   -104.44523   0.84496045   -103.60027   -7078.3991      4.33127      4.33127      4.33127   -7078.3991    -21144.32    35772.289   -35863.166   -5181.8797   -14127.692    9331.3319    81.254191 
   90400    1214.2068   -104.69828    1.0986398   -103.59964    8589.4422    4.3285991    4.3285991    4.3285991    8589.4422    -3805.427   -4651.5545    34225.308    -3730.962   -259.29795    881.31362    81.103965 
   90500    691.68534   -104.23713   0.62585143   -103.61128   -5134.6187    4.3380896    4.3380896    4.3380896   -5134.6187   -26818.582    26218.345   -14803.619   -8510.9676   -16185.316    10980.182    81.638603 
   90600    943.02819   -104.45353   0.85327173   -103.60025    17853.675    4.3351349    4.3351349    4.3351349    17853.675   -11969.185    67637.163   -2106.9525    14612.963   -4416.1793    8378.1459    81.471899 
   90700    989.82729   -104.49864   0.89561653   -103.60302   -6420.3075    4.3348428    4.3348428    4.3348428   -6420.3075   -27893.487   -2307.9882    10940.553   -18180.931   -9088.3249   -10144.008    81.455432 
   90800    988.04224   -104.49652   0.89400138   -103.60252   -18010.573    4.3319749    4.3319749    4.3319749   -18010.573   -13074.915   -17823.089   -23133.716   -815.07678   -14983.331    6103.0565    81.293871 
   90900    1332.3915   -104.80465    1.2055758   -103.59908   -10751.215    4.3406668    4.3406668    4.3406668   -10751.215   -32758.827   -586.47017    1091.6539   -20193.873    1822.6441   -3948.2976    81.784187 
   91000     696.4803   -104.23393   0.63019001   -103.60374   -13988.582    4.3401242    4.3401242    4.3401242   -13988.582   -49080.644    39299.836   -32184.938   -11897.202   -22740.659   -3414.5023    81.753522 
   91100    1023.2252    -104.5158   0.92583564   -103.58996    32330.556    4.3230963    4.3230963    4.3230963    32330.556    13381.285    69384.721    14225.664    14129.952    8190.8778    11686.683    80.795043 
   91200    1076.8655   -104.57488   0.97437053   -103.60051   -20318.358    4.3397675    4.3397675    4.3397675   -20318.358    -21079.73   -7540.4692   -32334.876   -3414.0419   -16335.769   -5871.4546    81.733368 
   91300    920.17305   -104.43238   0.83259191   -103.59979   -491.65884    4.3386433    4.3386433    4.3386433   -491.65884     108.4363    12036.046   -13619.459   -6073.7438   -1802.8928    11554.247    81.669867 
   91400    870.21712   -104.38063   0.78739074   -103.59324    16474.357     4.334539     4.334539     4.334539    16474.357   -5210.9708    52134.009    2500.0343   -621.85075   -509.40707    2025.1605    81.438309 
   91500    972.01918   -104.48244   0.87950338   -103.60293   -8479.9015    4.3270129    4.3270129    4.3270129   -8479.9015   -41732.277    45870.847   -29578.274   -13048.772    -11751.32     7751.977    81.014838 
   91600    1223.8271   -104.71748    1.1073445   -103.61013    3623.8681     4.333121     4.333121     4.333121    3623.8681   -8080.9231    29050.637    -10098.11    10168.483    7472.1896    2468.6993    81.358412 
   91700    804.35211   -104.33995   0.72779469   -103.61215   -21997.421     4.348014     4.348014     4.348014   -21997.421    -50203.42    34581.884   -50370.726   -12938.665   -17739.616   -13849.618    82.200187 
   91800    1146.8971   -104.63848    1.0377366   -103.60075    3379.9185    4.3233016    4.3233016    4.3233016    3379.9185   -779.96346    33494.165   -22574.446   -15782.134    11156.544    9729.2944    80.806559 
   91900    856.24697   -104.38363   0.77475025   -103.60888   -2819.1355    4.3292952    4.3292952    4.3292952   -2819.1355   -5253.3851    29158.407   -32362.429    15723.772   -20693.888   -180.29698    81.143102 
   92000    915.48989   -104.43349   0.82835449   -103.60514   -7895.0285    4.3413522    4.3413522    4.3413522   -7895.0285   -23172.224    36566.722   -37079.583   -4551.1882    5418.5071    -8972.245    81.822934 
   92100    1122.7922   -104.61598     1.015926   -103.60006   -8580.2565    4.3342807    4.3342807    4.3342807   -8580.2565    171.86068   -5157.3544   -20755.276    14471.955   -7695.1356    1831.3727    81.423748 
   92200    1009.9079   -104.51761   0.91378589   -103.60382    4977.5439    4.3242183    4.3242183    4.3242183    4977.5439   -25856.197    51690.028   -10901.199   -7217.4447   -9262.6222    3143.6735    80.857972 
   92300    918.11013   -104.43831   0.83072534   -103.60759    2279.5323    4.3347627    4.3347627    4.3347627    2279.5323     992.4055     25985.46   -20139.269    83.051669    9690.2951   -5045.2018    81.450919 
   92400    946.08965   -104.45827    0.8560418   -103.60223    6569.2716     4.334187     4.334187     4.334187    6569.2716   -9184.0023    32147.537   -3255.7194    17256.405   -15885.887    4031.7672    81.418472 
   92500    1138.4213   -104.62789    1.0300675   -103.59782   -4417.8829    4.3335188    4.3335188    4.3335188   -4417.8829    11327.007    3001.8606   -27582.516   -21956.551     16237.53    3029.9311    81.380821 
   92600    963.01367   -104.46551     0.871355   -103.59416    13946.626    4.3304866    4.3304866    4.3304866    13946.626    6565.8223    37642.517   -2368.4605    257.82161   -14309.843   -3070.3343    81.210111 
   92700    1054.3279   -104.54665   0.95397807   -103.59267   -218.78408    4.3343639    4.3343639    4.3343639   -218.78408    1044.4197    8534.9423   -10235.714   -4479.4621    11523.912    3678.1124    81.428437 
   92800    829.45259   -104.34592   0.75050614   -103.59541   -6008.0856    4.3376636    4.3376636    4.3376636   -6008.0856    3495.8934    18900.714   -40420.864     2592.364   -1657.9309   -3449.9018    81.614552 
   92900    1159.8959   -104.64236    1.0494982   -103.59287    11043.309    4.3256327    4.3256327    4.3256327    11043.309    36684.008   -6494.9727    2940.8921    9614.1981    3330.1599    2614.9882    80.937336 
   93000    768.11774   -104.29728   0.69500907   -103.60228   -2041.8292    4.3354751    4.3354751    4.3354751   -2041.8292    6918.0128    23873.334   -36916.835   -24072.227    16853.416    4849.7998    81.491082 
   93100    1267.4552   -104.74375    1.1468201   -103.59693   -24614.793    4.3342048    4.3342048    4.3342048   -24614.793   -35883.542    6351.2572   -44312.095     8578.489   -19565.657   -4403.6599     81.41947 
   93200    885.84104     -104.401   0.80152759   -103.59947    5671.1372    4.3304682    4.3304682    4.3304682    5671.1372   -2040.3778    42227.761   -23173.972    4498.1442    19454.981    10941.764    81.209077 
   93300    1074.2309   -104.56839   0.97198667    -103.5964   -13327.626    4.3349458    4.3349458    4.3349458   -13327.626    1368.6431   -10771.062   -30580.458   -6092.0404   -12981.027   -4535.7336    81.461239 
   93400    760.07001   -104.28554   0.68772731   -103.59781    13045.255    4.3351606    4.3351606    4.3351606    13045.255    5702.7005    75600.527   -42167.461   -10166.781    3751.8826   -572.70436    81.473349 
   93500     887.2602   -104.40284   0.80281167   -103.60003    1174.0824    4.3304988    4.3304988    4.3304988    1174.0824   -1600.9269    19949.608   -14826.434   -7214.4164    10019.221    4404.4023    81.210797 
   93600    1217.3397    -104.6972    1.1014745   -103.59572    919.23825    4.3338948    4.3338948    4.3338948    919.23825   -23726.142    36052.697   -9568.8404   -2094.2852   -8320.9726   -11334.538    81.402005 
   93700    1002.0633   -104.50534    0.9066879   -103.59865    -14587.72    4.3318311    4.3318311    4.3318311    -14587.72   -22919.905     25258.28   -46101.535    4972.8253     27429.76    7874.9938    81.285775 
   93800    869.98068   -104.38448    0.7871768    -103.5973    18276.762    4.3262582    4.3262582    4.3262582    18276.762   -3761.6662    68156.902   -9564.9485   -13970.777   -15500.143   -12857.276    80.972455 
   93900    1094.8954   -104.58606   0.99068434   -103.59538   -7840.0939    4.3397299    4.3397299    4.3397299   -7840.0939   -10321.656    4272.2604   -17470.886   -4992.8617    22339.841   -5933.1274    81.731244 
   94000    838.20074   -104.35305   0.75842164   -103.59463    5795.6099    4.3266623    4.3266623    4.3266623    5795.6099     11215.63    26038.208   -19867.009   -2457.3359   -6179.1986   -7097.2173    80.995146 
   94100    959.63864   -104.47033   0.86830121   -103.60203   -6539.5079    4.3272563    4.3272563    4.3272563   -6539.5079   -21981.992    9845.2033   -7481.7349   -786.97349    5426.4545    3199.9816     81.02851 
   94200    1191.5328   -104.67867    1.0781239   -103.60055   -15322.917    4.3386507    4.3386507    4.3386507   -15322.917   -43646.836    21217.464   -23539.378     1199.497    30023.806    9408.2336    81.670281 
   94300    974.95529   -104.47993   0.88216004   -103.59777   -2081.3467    4.3332476    4.3332476    4.3332476   -2081.3467   -16377.394    9564.0907    569.26297   -14146.348   -6105.5032   -3060.5538    81.365541 
   94400    872.86155   -104.38649   0.78978348   -103.59671    2102.1733    4.3223981    4.3223981    4.3223981    2102.1733    23699.421     13962.42   -31355.321   -12468.936    27126.749   -357.17096    80.755908 
   94500    1029.1234   -104.53197   0.93117246   -103.60079    16000.546    4.3257213    4.3257213    4.3257213    16000.546    26099.063     8325.301    13577.276   -497.47068   -15662.781   -5364.4323    80.942312 
   94600    1033.8702   -104.53709    0.9354675   -103.60162   -31802.471    4.3433548    4.3433548    4.3433548   -31802.471   -36185.533   -38380.149   -20841.732    1386.5433    13203.126    435.33029     81.93622 
   94700    1045.7908    -104.5454   0.94625353   -103.59915    3300.5566      4.32228      4.32228      4.32228    3300.5566    177.30525    32175.655   -22451.291   -511.95136    22289.197    3352.3778    80.749287 
   94800    970.74616   -104.48357   0.87835153   -103.60521    10834.833    4.3177479    4.3177479    4.3177479    10834.833    28818.902   -11277.549    14963.148    2509.3131   -13041.993     -11474.9    80.495543 
   94900    794.97459   -104.33095   0.71930972   -103.61164   -6728.2701    4.3385897    4.3385897    4.3385897   -6728.2701    6444.5437   -7003.2803   -19626.074   -6344.0258    18115.424   -4005.0302    81.666836 
   95000     1169.306   -104.65523    1.0580126   -103.59722   -597.87281    4.3367525    4.3367525    4.3367525   -597.87281   -6435.5612   -24922.603    29564.545    8095.3897   -14004.475   -9868.9719    81.563133 
   95100    874.20185   -104.38681    0.7909962   -103.59582   -10422.422    4.3256228    4.3256228    4.3256228   -10422.422   -28299.477    5268.7874    -8236.575   -2798.5533    18816.782   -5207.6763    80.936782 
   95200    1166.0324   -104.65086    1.0550507   -103.59581    6381.3757    4.3258281    4.3258281    4.3258281    6381.3757    25204.352   -12378.324     6318.099    9119.5153    18416.204    6347.2669    80.948308 
   95300    1131.7854   -104.61931    1.0240632   -103.59525   -16384.556    4.3437172    4.3437172    4.3437172   -16384.556   -22859.425   -34754.196     8459.954   -1477.8651   -16758.823   -6107.9604    81.956733 
   95400    535.79096   -104.08178   0.48479492   -103.59698    16572.942    4.3235708    4.3235708    4.3235708    16572.942    13041.369     13636.59    23040.866   -8204.8399    13731.517    9152.0485    80.821652 
   95500    1120.8463   -104.61078    1.0141653   -103.59662    4844.7107    4.3173533    4.3173533    4.3173533    4844.7107    5234.7384    7861.3935         1438   -9252.0782   -6751.2701    897.03195    80.473478 
   95600    961.75094   -104.47491   0.87021247   -103.60469    -9315.702    4.3414053    4.3414053    4.3414053    -9315.702   -31947.869     2226.688    1774.0752   -7382.8505    9867.7468     1384.601    81.825936 
   95700    999.90547    -104.4969   0.90473548   -103.59216   -7837.6648    4.3445645    4.3445645    4.3445645   -7837.6648   -33576.446    7481.6285    2581.8231   -355.06421    13020.022    24070.491    82.004701 
   95800    897.67582   -104.39675   0.81223594   -103.58451    12603.553    4.3225365    4.3225365    4.3225365    12603.553   -15295.024   -5316.4942    58422.177    -763.9324   -16292.285    8284.5501     80.76366 
   95900    1013.2977   -104.51133   0.91685303   -103.59447    881.55418    4.3241421    4.3241421    4.3241421    881.55418    6209.1491    24446.421   -28010.908    1469.9957    7635.9867    6296.5983    80.853696 
   96000    1075.9899   -104.57626   0.97357828   -103.60268   -23155.127    4.3378301    4.3378301    4.3378301   -23155.127   -19459.479   -29628.979   -20376.921    2437.1055   -31.596329    13066.207    81.623952 
   96100    1029.5382   -104.53434   0.93154782   -103.60279    6878.8078     4.322576     4.322576     4.322576    6878.8078   -933.19885    5534.6538    16034.968   -1331.4624    5780.3707   -10072.032    80.765878 
   96200    700.95037   -104.24151   0.63423462   -103.60727    6185.3103    4.3278047    4.3278047    4.3278047    6185.3103     844.5458    5030.3513    12681.034    2141.4501    10542.148    25909.802    81.059321 
   96300    1077.5261   -104.57575   0.97496823   -103.60078   -19300.314    4.3355626    4.3355626    4.3355626   -19300.314   -51596.354   -15402.741    9098.1525    9585.9349   -8937.3568   -4094.5387    81.496017 
   96400    1298.1029   -104.76776    1.1745507   -103.59321   -5084.9912    4.3297917    4.3297917    4.3297917   -5084.9912    -9980.087    20788.063    -26062.95    3613.2793    7604.6639    6161.4771    81.171023 
   96500    936.33742   -104.44626   0.84721777   -103.59904   -17336.581    4.3255708    4.3255708    4.3255708   -17336.581   -23820.239   -14358.023    -13831.48    4267.3304   -9098.5291    7702.6082    80.933865 
   96600     1019.079   -104.52565   0.92208411   -103.60357    -343.6598    4.3318924    4.3318924    4.3318924    -343.6598   -34534.326    45281.983   -11778.636    2019.1433    1995.7236    7693.6446    81.289225 
   96700    1120.3377      -104.61    1.0137051   -103.59629    842.15535    4.3386001    4.3386001    4.3386001    842.15535   -30437.063    6320.1366    26643.393   -6310.0344    4483.1985     23440.95    81.667425 
   96800    664.87036   -104.19939   0.60158867    -103.5978     3323.662    4.3229507    4.3229507    4.3229507     3323.662   -30419.935     1627.487    38763.434   -652.85812   -1547.9314   -2150.2497    80.786884 
   96900     1256.464   -104.72679     1.136875   -103.58991    5023.6189    4.3278849    4.3278849    4.3278849    5023.6189   -7401.2941     10434.58     12037.57   -1638.2129    9136.6953    937.79865    81.063828 
   97000    852.98772    -104.3744   0.77180122    -103.6026   -19626.086    4.3348234    4.3348234    4.3348234   -19626.086   -32429.716   -22895.787   -3552.7555   -2046.2723   -10359.992   -451.27368     81.45434 
   97100    1025.2658   -104.52863   0.92768201   -103.60095    11524.318     4.329013     4.329013     4.329013    11524.318    -24151.24    8358.8422    50365.352    2548.1352   -10142.007    2052.9297    81.127236 
   97200    969.01837   -104.47599   0.87678819    -103.5992     11666.45    4.3219428    4.3219428    4.3219428     11666.45   -14279.287    5447.2162     43831.42   -3033.0791   -4281.9674   -997.95512    80.730389 
   97300    1016.4281   -104.52601   0.91968554   -103.60633   -23748.303    4.3371349    4.3371349    4.3371349   -23748.303   -52816.398   -5381.4886   -13047.023   -4330.5378    -2184.463     1046.951    81.584711 
   97400    1315.3325   -104.78539    1.1901405   -103.59525   -9675.4092    4.3403608    4.3403608    4.3403608   -9675.4092   -30867.881     8135.341   -6293.6875   -4491.8254    7953.4084   -20608.112    81.766891 
   97500    899.94421   -104.41537   0.81428843   -103.60108    11902.507    4.3218498    4.3218498    4.3218498    11902.507   -39099.609    31435.974    43371.155   -9077.7369    680.75633    11240.709    80.725178 
   97600    1299.5088   -104.77148    1.1758229   -103.59566    1057.0599    4.3278574    4.3278574    4.3278574    1057.0599   -21565.001    6604.0935    18132.088     2876.322    1731.3797   -1825.5646     81.06228 
   97700    515.91392   -104.06741   0.46680976    -103.6006     9253.087    4.3401783    4.3401783    4.3401783     9253.087   -36958.598    39129.569     25588.29   -2103.1733   -1274.1131    1483.0442    81.756577 
   97800    1370.4719   -104.82853    1.2400318    -103.5885   -12000.717    4.3392426    4.3392426    4.3392426   -12000.717    -20501.86   -19969.299    4469.0084    2364.8452   -8468.3222    7572.0326    81.703714 
   97900    914.89551   -104.42214   0.82781668   -103.59432    8711.8318    4.3204132    4.3204132    4.3204132    8711.8318     13471.65    30013.486   -17349.641    6654.1671    13053.605   -26380.998    80.644703 
   98000    918.91879   -104.43939   0.83145703   -103.60793    5065.4918    4.3302216    4.3302216    4.3302216    5065.4918   -10558.757   -14775.447     40530.68   -10260.133    5359.1759    2945.6478    81.195201 
   98100    912.46261   -104.42518   0.82561534   -103.59956    1720.3447     4.343374     4.343374     4.343374    1720.3447   -10958.157    6382.6144    9736.5772    -8721.937    14558.219   -4923.2867    81.937305 
   98200    812.17206   -104.33167   0.73487035    -103.5968   -4464.0725    4.3340464    4.3340464    4.3340464   -4464.0725   -8938.7574   -17102.001    12648.541   -12527.508    13622.216   -5896.9435    81.410544 
   98300    1341.8584   -104.80052    1.2141417   -103.58637    15100.854     4.320222     4.320222     4.320222    15100.854    16321.873    11185.035    17795.655   -7709.0581   -14380.314   -3913.6647    80.633997 
   98400    723.64358   -104.26214   0.65476792   -103.60737   -21260.885    4.3341673    4.3341673    4.3341673   -21260.885   -24248.743   -30758.391   -8775.5218     3722.274    11035.775   -22630.507    81.417359 
   98500     1171.551   -104.65645     1.060044   -103.59641   -5616.6111     4.341485     4.341485     4.341485   -5616.6111   -33673.221   -11263.685    28087.072    -4744.661   -4908.5679    15101.774    81.830447 
   98600    1139.6285   -104.62479    1.0311598   -103.59363    4517.9774    4.3215576    4.3215576    4.3215576    4517.9774     2755.145    11959.951   -1161.1641   -763.57295    8472.9328   -4547.6537    80.708807 
   98700    694.89246   -104.23497    0.6287533   -103.60621    323.53004    4.3330782    4.3330782    4.3330782    323.53004   -20461.505    1436.2017    19995.893   -14993.536    7920.8146   -9990.8172    81.355997 
   98800    1435.9052   -104.89011    1.2992372   -103.59087   -13636.462    4.3417991    4.3417991    4.3417991   -13636.462    -22332.47   -22485.556     3908.641   -1730.1665   -9333.6701    -2798.693    81.848206 
   98900    601.10463   -104.14591    0.5438921   -103.60201    -5534.016    4.3300333    4.3300333    4.3300333    -5534.016    10574.937   -32466.765    5289.7802   -9217.4517      6147.04   -19810.945    81.184612 
   99000    1440.8593   -104.89793    1.3037197   -103.59421    1736.7704    4.3226388    4.3226388    4.3226388    1736.7704    -14176.36    26784.021   -7397.3499   -1057.7073   -14957.103    9044.5346      80.7694 
   99100    542.21415   -104.09999   0.49060676   -103.60938   -1944.7211    4.3398921    4.3398921    4.3398921   -1944.7211    1057.6036   -19269.497    12377.731    1712.1331    12920.018   -29289.482    81.740406 
   99200     916.7406   -104.42724   0.82948616   -103.59775   -9835.4822    4.3425958    4.3425958    4.3425958   -9835.4822   -12179.739   -19663.201     2336.493   -2668.3889   -3017.1172   -15502.693    81.893271 
   99300     1294.715   -104.75684    1.1714854   -103.58535   -4377.8556    4.3249763    4.3249763    4.3249763   -4377.8556    -15504.63    -9716.719    12087.782   -276.91796   -4065.4659   -2180.9807      80.9005 
   99400    685.41769   -104.22112   0.62018033   -103.60094   -8921.2874    4.3295888    4.3295888    4.3295888   -8921.2874    23613.848   -24715.582   -25662.128   -8456.8491    1243.7004   -13156.571     81.15961 
   99500    1301.7319    -104.7727    1.1778344   -103.59487   -15665.409    4.3358934    4.3358934    4.3358934   -15665.409   -31237.545   -3461.4312    -12297.25    1847.6901   -11272.405    4225.4705    81.514674 
   99600     793.4342   -104.31724   0.71791593   -103.59932    8310.9861    4.3307576    4.3307576    4.3307576    8310.9861     9457.017    9810.2594    5665.6819    3420.4988    9551.1471   -28720.901    81.225357 
   99700    737.93655   -104.26587    0.6677005   -103.59817    12675.742     4.334827     4.334827     4.334827    12675.742    3188.5168    18322.674    16516.036   -1343.9325   -3501.6981    -11861.63    81.454544 
   99800    1028.9066   -104.52006   0.93097634   -103.58908   -4961.6025    4.3393729    4.3393729    4.3393729   -4961.6025   -25926.075    7354.6153    3686.6526    9682.9924    -587.0947   -10678.024    81.711072 
   99900     1003.703   -104.49378   0.90817155   -103.58561   -7904.5542    4.3375876    4.3375876    4.3375876   -7904.5542    23851.326   -30101.167   -17463.822   -3347.1491     5160.393   -7166.5826    81.610261 
  100000    1307.9212   -104.76662    1.1834346   -103.58319   -14231.054    4.3376844    4.3376844    4.3376844   -14231.054    -13774.45    -13644.43   -15274.281   -3174.2018   -27430.554    9950.3864    81.615728 
Loop time of 22.5474 on 1 procs for 100000 steps with 8 atoms

Pair  time (%) = 7.3166 (32.4499)
Kspce time (%) = 5.36485 (23.7937)
Neigh time (%) = 0 (0)
Comm  time (%) = 1.08793 (4.82507)
Outpt time (%) = 0.0253968 (0.112637)
Other time (%) = 8.75263 (38.8188)

Nlocal:    8 ave 8 max 8 min
Histogram: 1 0 0 0 0 0 0 0 0 0
Nghost:    2189 ave 2189 max 2189 min
Histogram: 1 0 0 0 0 0 0 0 0 0
Neighs:    2344 ave 2344 max 2344 min
Histogram: 1 0 0 0 0 0 0 0 0 0

Total # of neighbors = 2344
Ave neighs/atom = 293
Neighbor list builds = 0
Dangerous builds = 0
unfix 20
unfix 21
print "seeds:2632360"
seeds:2632360
