LAMMPS (10 Feb 2015)
# ---- initialize simulations
clear
units metal
dimension 3
boundary p p p
atom_style charge
atom_modify map array
# ---- create atoms
read_data /Users/eugeneragasa/pyflamestk_git/pypospack/tests/tests_integration/workflow/WorkflowLammpsThermalExpansion/param_8221/MgO_NaCl_unit.npt.T1300/lammps.structure
  triclinic box = (0 0 0) to (4.2565 4.2565 4.2565) with tilt (0 0 0)
  1 by 1 by 1 MPI processor grid
  reading atoms ...
  8 atoms
# ---- define interatomic potential
include potential.mod
mass 1 24.305
mass 2 15.999

group Mg type 1
4 atoms in group Mg
group O type 2
4 atoms in group O

set group Mg charge 1.65389423724
  4 settings made for charge
set group O charge -1.65389423724
  4 settings made for charge

variable R_cut equal 10.0

pair_style buck/coul/long ${R_cut}
pair_style buck/coul/long 10
pair_coeff 1 1 0.0 0.5 0.0 ${R_cut}
pair_coeff 1 1 0.0 0.5 0.0 10
pair_coeff 1 2 1300.0678519 0.288744572517 0.0 ${R_cut}
pair_coeff 1 2 1300.0678519 0.288744572517 0.0 10
pair_coeff 2 2 40472.9144105 0.202420171096 26.2679081719 ${R_cut}
pair_coeff 2 2 40472.9144105 0.202420171096 26.2679081719 10

kspace_style pppm 1.0e-5

neighbor 1.0 bin
neigh_modify every 1 delay 0 check yes
# ---- define settings
compute eng all pe/atom
compute eatoms all reduce sum c_eng
# ---- run minimization
reset_timestep 0
fix 1 all box/relax iso 0.0 vmax 0.001
thermo 10
thermo_style custom step pe lx ly lz xy xz yz press pxx pyy pzz pxy pxz pyz c_eatoms
min_style cg
minimize 1e-25 1e-25 5000 10000
PPPM initialization ...
  G vector (1/distance) = 0.352799
  grid = 8 8 8
  stencil order = 5
  estimated absolute RMS force accuracy = 3.93787e-05
  estimated relative force accuracy = 2.7347e-06
  using double precision FFTs
  3d grid and FFT values/proc = 3375 512
Neighbor list info ...
  1 neighbor list requests
  update every 1 steps, delay 0 steps, check yes
  master list distance cutoff = 11
Memory usage per processor = 4.06549 Mbytes
Step PotEng Lx Ly Lz Xy Xz Yz Press Pxx Pyy Pzz Pxy Pxz Pyz eatoms 
       0   -110.27609       4.2565       4.2565       4.2565            0            0            0    110960.29    110960.29    110960.29    110960.29 9.3314123e-11 1.6239754e-10 5.8891323e-11   -110.27609 
      10   -110.39349     4.299065     4.299065     4.299065            0            0            0    52923.265    52923.265    52923.265    52923.265 1.8718586e-11 -3.674075e-11 -9.001309e-11   -110.39349 
      20   -110.43343      4.34163      4.34163      4.34163            0            0            0    2089.5567    2089.5567    2089.5567    2089.5567 6.9298069e-11 -1.296578e-10 -9.997383e-11   -110.43343 
      22   -110.43352     4.343513     4.343513     4.343513            0            0            0   -5.7193123   -5.7193123   -5.7193123   -5.7193123 4.586585e-11 9.062077e-11 2.6249224e-10   -110.43352 
Loop time of 0.0147469 on 1 procs for 22 steps with 8 atoms

Minimization stats:
  Stopping criterion = linesearch alpha is zero
  Energy initial, next-to-last, final = 
        -110.276087498     -110.433524975     -110.433524975
  Force two-norm initial, final = 16.0227 0.00180648
  Force max component initial, final = 16.0227 0.000859982
  Final line search alpha, max atom move = 0.00390625 3.35931e-06
  Iterations, force evaluations = 22 39

Pair  time (%) = 0.00388694 (26.3577)
Kspce time (%) = 0.00248289 (16.8367)
Neigh time (%) = 0 (0)
Comm  time (%) = 0.000484228 (3.28359)
Outpt time (%) = 0.000126123 (0.855254)
Other time (%) = 0.00776672 (52.6668)

Nlocal:    8 ave 8 max 8 min
Histogram: 1 0 0 0 0 0 0 0 0 0
Nghost:    2189 ave 2189 max 2189 min
Histogram: 1 0 0 0 0 0 0 0 0 0
Neighs:    2344 ave 2344 max 2344 min
Histogram: 1 0 0 0 0 0 0 0 0 0

Total # of neighbors = 2344
Ave neighs/atom = 293
Neighbor list builds = 0
Dangerous builds = 0
unfix 1
# ---- define output variables ----
variable natoms equal "count(all)"
variable tot_energy equal "c_eatoms"
variable length_x equal "lx"
variable length_y equal "ly"
variable length_z equal "lz"
variable tilt_xy equal "xy"
variable tilt_xz equal "xz"
variable tilt_yz equal "yz"
variable tot_press equal "press"
variable press_xx equal "pxx"
variable press_yy equal "pyy"
variable press_zz equal "pzz"
variable press_xy equal "pxy"
variable press_xz equal "pxz"
variable press_yz equal "pyz"

# ---- output ----
print "pypospack:output_section:begin"
pypospack:output_section:begin
print "tot_energy = ${tot_energy}"
tot_energy = -110.433524975286
print "num_atoms = ${natoms}"
num_atoms = 8
print "xx = ${length_x}"
xx = 4.34351296178449
print "yy = ${length_y}"
yy = 4.34351296178449
print "zz = ${length_z}"
zz = 4.34351296178449
print "xy = ${tilt_xy}"
xy = 0
print "xz = ${tilt_xz}"
xz = 0
print "yz = ${tilt_yz}"
yz = 0
print "tot_press = ${tot_press}"
tot_press = -5.71931225965551
print "pxx = ${press_xx}"
pxx = -5.71931225981032
print "pyy = ${press_yy}"
pyy = -5.71931225968463
print "pzz = ${press_zz}"
pzz = -5.71931225947158
print "pxy = ${press_xy}"
pxy = 4.5865850341772e-11
print "pxz = ${press_xz}"
pxz = 9.06207702771322e-11
print "pyz = ${press_yz}"
pyz = 2.62492238241466e-10
print "pypospack:output_section:done"
pypospack:output_section:done
print "pypospack:lammps_sim:done"
pypospack:lammps_sim:done
#------------------------------------------------------------------------------
# RUN THERMOSTAT
# running using an NPT Nose-Hoover style thermostat
#------------------------------------------------------------------------------
variable tempdamp equal 0.1
variable pressdamp equal 1.0
# set initial velocities
velocity all create 1300 9194054 mom yes dist gaussian loop all
# fix for Nose-Hoover style thermostat
fix 20 all npt temp 1300 1300 0.1 aniso 0.0 0.0 1.0 drag 1.0 couple xyz
variable boxx equal lx
variable boxy equal ly
variable boxz equal lz
variable boxp equal press
variable boxt equal temp
# calculate averages every 10000 steps
reset_timestep 0
fix 21 all ave/time 10 10 100 v_boxx v_boxy v_boxz v_boxp v_boxt file lattice.out
thermo_style custom step temp pe ke etotal press lx ly lz press pxx pyy pzz pxy pxz pyz vol
thermo_modify flush yes
thermo 100
run 100000
PPPM initialization ...
  G vector (1/distance) = 0.351923
  grid = 8 8 8
  stencil order = 5
  estimated absolute RMS force accuracy = 4.10067e-05
  estimated relative force accuracy = 2.84776e-06
  using double precision FFTs
  3d grid and FFT values/proc = 3375 512
Memory usage per processor = 3.06549 Mbytes
Step Temp PotEng KinEng TotEng Press Lx Ly Lz Press Pxx Pyy Pzz Pxy Pxz Pyz Volume 
       0         1300   -110.43354    1.1762673   -109.25727     15324.31     4.343513     4.343513     4.343513     15324.31    10544.745    24232.638    11195.547    8150.9819    732.22509   -6909.2804    81.945171 
     100    441.32547   -109.50955   0.39932056   -109.11023     31185.13    4.3756159    4.3756159    4.3756159     31185.13    16417.484    59780.203    17357.702   -4548.2986   -2112.2965    13706.283    83.775603 
     200    1139.8273    -109.8202    1.0313397   -108.78886   -38851.621    4.4184162    4.4184162    4.4184162   -38851.621   -50809.697   -37428.879   -28316.288   -6370.5663    99.284654     3748.177    86.258095 
     300    794.96796   -109.22937   0.71930372   -108.51007    6534.5677    4.4008102    4.4008102    4.4008102    6534.5677    19629.068    13056.635       -13082    782.59375    3209.9739   -7166.5551    85.231067 
     400     859.6834   -109.05561   0.77785961   -108.27775    26811.853    4.3762339    4.3762339    4.3762339    26811.853    39540.299    2271.4622    38623.798    283.78398   -4830.0754    4789.3554    83.811106 
     500    1541.0117   -109.56236    1.3943397   -108.16802   -17267.208    4.4100966    4.4100966    4.4100966   -17267.208   -10124.319   -27494.113   -14183.193    2462.0114   -2788.0551      8472.18    85.771756 
     600    1161.7307    -109.1266    1.0511583   -108.07544    9606.8925     4.432897     4.432897     4.432897    9606.8925   -3826.3933     28287.04    4360.0312    5552.2844   -2312.1405    911.59828    87.108976 
     700    1808.0718    -109.6691    1.6359813   -108.03312   -18814.919    4.4175601    4.4175601    4.4175601   -18814.919   -37722.696   -7667.5079   -11054.552   -8339.9168    259.30868   -1505.9749    86.207964 
     800    1125.8462   -109.05617    1.0186893   -108.03748    25488.298    4.3993562    4.3993562    4.3993562    25488.298    53145.319    15081.592    8237.9828    15890.902   -10826.551   -11069.079    85.146616 
     900    912.59311   -108.90222   0.82573342   -108.07649    4273.1157    4.4104755    4.4104755    4.4104755    4273.1157    45422.879    -29163.58   -3439.9514    -5204.966    6490.4707    5712.4225    85.793868 
    1000    1400.2576   -109.34154    1.2669825   -108.07456   -35975.855    4.4305877    4.4305877    4.4305877   -35975.855   -38981.111   -62766.475   -6179.9808   -1334.9373    10651.432   -1409.4824    86.972915 
    1100    1350.4132    -109.2689    1.2218822   -108.04702   -9173.0763    4.4226305    4.4226305    4.4226305   -9173.0763    4045.6237   -2726.8185   -28838.034    -147.5637    3598.5197   -181.21641    86.505153 
    1200    1617.5938   -109.49261    1.4636328   -108.02898   -6433.2174    4.4037695    4.4037695    4.4037695   -6433.2174   -27060.365    41373.333    -33612.62   -153.83316   -12593.487    8676.5172    85.403119 
    1300    1227.6375   -109.15605    1.1107922   -108.04525    28995.621    4.4044675    4.4044675    4.4044675    28995.621    44942.577    17954.047    24090.238   -11291.534    117.13739   -16081.383    85.443736 
    1400    1096.8238   -109.05729   0.99242923   -108.06486   -12466.165     4.425785     4.425785     4.425785   -12466.165   -23339.985    30735.877   -44794.387    1975.6505   -5433.1445   -7141.4121    86.690389 
    1500    889.68966   -108.85796    0.8050099   -108.05295   -183.83648    4.4162398    4.4162398    4.4162398   -183.83648     39475.38   -35083.671   -4943.2181    10153.411    8800.7869    2441.4332    86.130692 
    1600    1515.2121     -109.413    1.3709957   -108.04201   -6899.7613    4.4042154    4.4042154    4.4042154   -6899.7613   -26609.997   -4317.0482    10227.761    8021.5047   -1648.9476   -3052.5109    85.429062 
    1700    954.27484   -108.92478   0.86344793   -108.06133   -2204.0082    4.4182063    4.4182063    4.4182063   -2204.0082    2862.0062    5629.4475   -15103.478   -9502.8533    6130.4257    4477.2641    86.245806 
    1800    1568.6169   -109.47235    1.4193175   -108.05303     -4730.05     4.415649     4.415649     4.415649     -4730.05   -38835.181   -4810.5722    29455.604    51.654508   -5041.3768    1661.8474    86.096129 
    1900    1508.1344   -109.40922    1.3645917   -108.04463    6692.1431    4.4061879    4.4061879    4.4061879    6692.1431   -10485.514    13663.044    16898.899     11510.64    311.88829    -11127.93    85.543896 
    2000    513.93491   -108.52735   0.46501911   -108.06233    19695.748    4.4146458    4.4146458    4.4146458    19695.748    11469.183    31128.343    16489.718    6495.7395   -35.890964   -4012.3545     86.03746 
    2100    1484.2042   -109.39385    1.3429391   -108.05091   -17523.056    4.4268723    4.4268723    4.4268723   -17523.056   -38846.005   -25967.271    12244.107    4265.1657    -3392.903   -5430.9047    86.754296 
    2200    1531.6759   -109.43252    1.3858925   -108.04663    5515.4337    4.4177684    4.4177684    4.4177684    5515.4337    1732.5287    30332.616   -15518.843    8537.9792   -1892.7246    5502.5999     86.22016 
    2300    1234.3902   -109.16724    1.1169022   -108.05034    26662.744    4.4000246    4.4000246    4.4000246    26662.744    3810.1111    16553.642    59624.478    8429.7031    7037.0813    17361.344     85.18543 
    2400    1425.7761   -109.36305    1.2900722   -108.07298   -8747.3334    4.4101364    4.4101364    4.4101364   -8747.3334    6340.5707   -23350.856   -9231.7153    10032.047   -8437.4552   -3080.2802    85.774077 
    2500    777.15826    -108.7818   0.70318912   -108.07861    9276.5255    4.4237303    4.4237303    4.4237303    9276.5255    426.02305    15163.469    12240.084    8981.2843   -4810.3344    9452.6592    86.569701 
    2600    1245.2238   -109.18463    1.1267046   -108.05793   -24058.367    4.4255254    4.4255254    4.4255254   -24058.367   -33874.484    -45335.76    7035.1441    10935.688   -10107.568    6051.2657    86.675132 
    2700    1406.6315   -109.31553    1.2727498   -108.04278    2339.0223    4.4130561    4.4130561    4.4130561    2339.0223   -40053.546   -5978.6405    53049.253     4437.719   -1183.0036   -3555.3945     85.94455 
    2800    1564.4729   -109.45543     1.415568   -108.03987    19464.889    4.4074402    4.4074402    4.4074402    19464.889   -7715.7659    60699.686    5410.7477    924.27888   -3584.5255    10363.601    85.616855 
    2900    1669.2812   -109.56211    1.5104007   -108.05171   -38145.807    4.4270562    4.4270562    4.4270562   -38145.807   -54969.244   -39028.122   -20440.056    11274.376   -6690.6716   -2677.5333    86.765106 
    3000    952.97855   -108.89747   0.86227502   -108.03519   -11554.811    4.4261892    4.4261892    4.4261892   -11554.811   -17289.259   -2267.3019   -15107.873   -1358.5827    2923.4897   -4565.5558    86.714139 
    3100    1186.1385   -109.09336     1.073243   -108.02012   -11450.026    4.4106776    4.4106776    4.4106776   -11450.026    6963.6026   -24247.831    -17065.85   -5979.7319   -4620.5569   -16641.402    85.805659 
    3200    1602.7617   -109.48137    1.4502125   -108.03116    -21044.13    4.4118971    4.4118971    4.4118971    -21044.13   -11144.613   -48991.667   -2996.1096    16900.397   -8125.4593   -10797.367    85.876856 
    3300    1282.3124   -109.19975    1.1602632   -108.03949     10087.59     4.414734     4.414734     4.414734     10087.59    4910.3055    17358.101    7994.3647    5802.0419   -4375.2411   -4686.9378    86.042618 
    3400    1760.7631   -109.63399    1.5931755   -108.04081   -9893.2367    4.4133912    4.4133912    4.4133912   -9893.2367   -28496.055    627.37058    -1811.026    4722.4278   -13747.368   -3927.5899    85.964133 
    3500    1168.1227   -109.09902    1.0569419   -108.04208   -1381.2652    4.4213915    4.4213915    4.4213915   -1381.2652    5093.4503   -31547.522    22310.276    6420.7723   -2272.5658    6652.6656    86.432467 
    3600     1241.184   -109.15365    1.1230493   -108.03061   -17170.023    4.4213276    4.4213276    4.4213276   -17170.023   -30469.238    -26464.97    5424.1377    8190.5069   -3070.7265    -6928.283    86.428721 
    3700    793.88554   -108.75195   0.71832432   -108.03363    20666.316    4.4140743    4.4140743    4.4140743    20666.316   -1526.4177    5753.8782    57771.486   -8396.4382   -983.16182   -17370.734    86.004054 
    3800     1748.376   -109.61601    1.5819674   -108.03404   -18330.854    4.4239545    4.4239545    4.4239545   -18330.854   -31439.758   -37825.868    14273.065    2596.9297     4282.966    9169.3651    86.582865 
    3900    1729.0586   -109.58853    1.5644886   -108.02405   -19272.256     4.429789     4.429789     4.429789   -19272.256   -24010.469   -19003.389   -14802.909    3615.7361    5032.3112    5425.6514    86.925885 
    4000    847.43967   -108.78669   0.76678122   -108.01991    11903.098    4.4172397    4.4172397    4.4172397    11903.098    9820.6528   -15885.311    41773.951   -82.009786    5748.2048   -20252.634    86.189211 
    4100    1007.8903   -108.94476   0.91196037    -108.0328    28802.892    4.4086311    4.4086311    4.4086311    28802.892    41873.522    29111.034    15424.121    11254.736    7273.8005    -325.9407    85.686276 
    4200    1218.0437   -109.15254    1.1021115   -108.05043   -2834.0136     4.428259     4.428259     4.428259   -2834.0136    49700.331   -28368.937   -29833.435    8544.2583    11805.005    -1530.817    86.835848 
    4300    1176.5647   -109.10663    1.0645804   -108.04205    8871.9709    4.4276663    4.4276663    4.4276663    8871.9709    27504.342   -4175.1228     3286.693     9357.882    -3208.301   -11056.195    86.800982 
    4400    1155.0595   -109.06999    1.0451221   -108.02487    39782.645    4.4072424    4.4072424    4.4072424    39782.645    105739.37    289.91767    13318.649     11498.85    4736.7878   -17191.852    85.605333 
    4500    1212.2173   -109.14007    1.0968397   -108.04323    1829.8789    4.4132384    4.4132384    4.4132384    1829.8789    49324.005   -18989.395   -24844.974    4149.4752    11420.683   -4235.1007    85.955202 
    4600    1164.6469   -109.10057     1.053797   -108.04677    -21665.18    4.4274151    4.4274151    4.4274151    -21665.18     38977.77   -49639.991   -54333.318    5881.4986    5860.9198    7704.2645     86.78621 
    4700    2097.6403    -109.9259    1.8979891   -108.02791   -38755.872    4.4167934    4.4167934    4.4167934   -38755.872   -26860.816   -22340.597   -67066.203    4051.9961    12506.733    5278.1901    86.163091 
    4800    1494.4118   -109.39082    1.3521752   -108.03864    20494.762    4.4021351    4.4021351    4.4021351    20494.762    64370.424    5000.3998    -7886.539   -6704.7638    8574.9949   -3319.3311    85.308065 
    4900    1015.7728   -108.97835   0.91909261   -108.05926    15001.208    4.4184339    4.4184339    4.4184339    15001.208    95838.681   -26904.472   -23930.585   -1424.0796    678.21194   -20164.504     86.25913 
    5000    767.43792   -108.74319   0.69439396    -108.0488     3568.133    4.4280708    4.4280708    4.4280708     3568.133    80556.745   -67217.449   -2634.8977   -8385.2239    13502.584   -16287.568    86.824775 
    5100    1318.7505   -109.23086    1.1932331   -108.03763   -5896.4674    4.4079298    4.4079298    4.4079298   -5896.4674    15210.929   -17933.702    -14966.63    4368.7249    -490.5772    8663.5503    85.645392 
    5200    1794.6976   -109.66342    1.6238801   -108.03954   -13543.723    4.3978203    4.3978203    4.3978203   -13543.723    22561.545   -14889.284    -48303.43   -1617.7035   -427.26403    3357.3436    85.057464 
    5300    1468.7174   -109.38212    1.3289264   -108.05319    11022.346    4.4088416    4.4088416    4.4088416    11022.346    46154.099    1081.5177    -14168.58    11447.238    14774.152   -11383.286    85.698555 
    5400    1179.1026   -109.10859    1.0668769   -108.04172    2584.1808    4.4214543    4.4214543    4.4214543    2584.1808    32773.328   -55086.399    30065.613    17985.274   -776.21559   -13537.035     86.43615 
    5500    762.93212   -108.72187   0.69031702   -108.03155     7553.119    4.4183549    4.4183549    4.4183549     7553.119     94488.69   -51660.598   -20168.735    1466.5859   -5908.8388   -1946.2607    86.254506 
    5600    1539.2463   -109.43059    1.3927424   -108.03785   -25059.456      4.39652      4.39652      4.39652   -25059.456   -8841.7545   -40538.366   -25798.246   -1247.6179   -7790.5809    13589.539    84.982039 
    5700    1124.9427   -109.06424    1.0178718   -108.04637    40077.627    4.3810375    4.3810375    4.3810375    40077.627     73409.97    32237.521    14585.391   -9348.6201   -7523.0528   -11211.885      84.0874 
    5800    1252.5187   -109.21622    1.1333052   -108.08292   -13512.692     4.422981     4.422981     4.422981   -13512.692   -8703.7803   -34246.793    2412.4958   -2256.2112    2796.6254    -3757.407    86.525718 
    5900    1068.7332   -109.00802   0.96701223   -108.04101   -21621.896    4.4310073    4.4310073    4.4310073   -21621.896    27605.052   -62604.485   -29866.254    2589.6356     3986.248     10146.79    86.997627 
    6000    1543.8433   -109.40633    1.3969019   -108.00943    27453.904    4.3742679    4.3742679    4.3742679    27453.904    40793.644    19555.826    22012.241    13048.028   -12606.943    1451.6924    83.698201 
    6100    1113.1336   -109.06438    1.0071867   -108.05719    4915.3131    4.3861982    4.3861982    4.3861982    4915.3131     550.5035   -8963.6254    23159.061   -4952.0619    6450.4827    771.02407    84.384902 
    6200    1331.7535   -109.25648    1.2049986   -108.05148   -27637.205    4.4274801    4.4274801    4.4274801   -27637.205    25438.536   -62779.689   -45570.462     8723.254    7997.8992    13719.753    86.790031 
    6300     1496.916   -109.38128     1.354441   -108.02684   -26799.978    4.4216006    4.4216006    4.4216006   -26799.978   -7206.5044   -1121.8395   -72071.591    15443.342    4820.8068    6567.7752    86.444729 
    6400    1203.2048   -109.11498     1.088685    -108.0263    1928.8344    4.3891412    4.3891412    4.3891412    1928.8344    21849.626    16105.789   -32168.912    91.458255    2346.9538   -7321.3395    84.554874 
    6500    1570.7541   -109.47122    1.4212514   -108.04997    12444.199    4.3912229    4.3912229    4.3912229    12444.199    33742.656    4756.8724   -1166.9298   -15739.015    2855.3848    5068.2235     84.67524 
    6600    904.50999   -108.88471   0.81841965   -108.06629   -23023.147    4.4247848    4.4247848    4.4247848   -23023.147   -24734.623    5068.9298   -49403.747    16297.551   -3035.3325    791.99315    86.631623 
    6700     946.3904   -108.90245   0.85631393   -108.04613    64.769819    4.4032841    4.4032841    4.4032841    64.769819   -25360.175    48757.995   -23203.511    7247.8694    3963.7652   -9472.6701    85.374881 
    6800    1394.2271   -109.29584     1.261526   -108.03432    8361.4199     4.391014     4.391014     4.391014    8361.4199    72041.003   -12306.093   -34650.651   -13344.832    507.93934    3082.0288    84.663157 
    6900    1331.3312   -109.25712    1.2046164   -108.05251   -24611.928    4.4093893    4.4093893    4.4093893   -24611.928   -15506.194     12761.37   -71090.961    16088.713     7180.352    7161.8503    85.730497 
    7000     1472.429   -109.38434    1.3322847   -108.05206    7364.3762      4.40925      4.40925      4.40925    7364.3762    27335.228    29924.559   -35166.658    19137.938    10252.578   -2991.2791    85.722369 
    7100    1795.9347   -109.67412    1.6249995   -108.04912   -6290.9845    4.4126783    4.4126783    4.4126783   -6290.9845   -1719.5995    6673.8528   -23827.207    2293.7302   -13223.056     3688.916     85.92248 
    7200    1221.9857   -109.15241    1.1056783   -108.04673    9878.0532     4.402144     4.402144     4.402144    9878.0532    17692.697    41544.748   -29603.285      9139.33   -6469.1362   -11813.045    85.308584 
    7300    962.39288    -108.9109    0.8707933    -108.0401    23766.142    4.4040056    4.4040056    4.4040056    23766.142    48150.579    46680.969   -23533.121    6687.8291     10244.03   -258.28547    85.416858 
    7400    1178.6325   -109.10605    1.0664515    -108.0396   -10593.405    4.4100459    4.4100459    4.4100459   -10593.405    -13687.37   -10620.381   -7472.4637    4136.0365    1421.7297    11054.343      85.7688 
    7500    1012.0189   -108.95936   0.91569598   -108.04367    8758.0781    4.4050392    4.4050392    4.4050392    8758.0781    38774.311    3655.7718   -16155.848    7504.9442    4547.7873   -3989.3141    85.477012 
    7600    1929.1385   -109.78193    1.7455251   -108.03641   -24268.445     4.410003     4.410003     4.410003   -24268.445   -6399.6767    -27115.23   -39290.428    7835.7853   -1860.1179   -13326.663    85.766299 
    7700    1552.0235   -109.44697    1.4043035   -108.04266    14629.964    4.3956796    4.3956796    4.3956796    14629.964   -19488.798    55971.036    7407.6559    3500.5517    4624.4524   -1306.9081    84.933315 
    7800    1735.8226   -109.62224    1.5706088   -108.05163    2411.0954     4.397425     4.397425     4.397425    2411.0954    19335.324   -8451.3983   -3650.6396   -1106.2973    8163.0711    12708.674    85.034534 
    7900      1320.04   -109.25468    1.1943999   -108.06028   -14576.306     4.413083     4.413083     4.413083   -14576.306   -21873.184    28310.266   -50165.999    3365.8306    2706.7188    8498.3753    85.946125 
    8000    1234.6624   -109.16947    1.1171484   -108.05232   -13110.843    4.4085752    4.4085752    4.4085752   -13110.843    12789.267   -19078.445   -33043.351   -2874.6963    7868.7419   -4427.3541    85.683019 
    8100    892.30818   -108.86169    0.8073792   -108.05431   -8005.5144     4.409902     4.409902     4.409902   -8005.5144    22929.335   -13500.994   -33444.884   -11518.405    10916.045   -5756.8103    85.760404 
    8200    1284.7157   -109.21173    1.1624378   -108.04929    11663.312    4.4051456    4.4051456    4.4051456    11663.312    68579.439   -9162.9361   -24426.566    1824.7889   -749.27991    5965.6681    85.483203 
    8300    1627.8623   -109.52455     1.472924   -108.05162   -9796.0924    4.4091991    4.4091991    4.4091991   -9796.0924   -601.77129    27381.622   -56168.128    19563.219    21429.112   -4205.6925    85.719403 
    8400    1388.4414   -109.31087    1.2562909   -108.05458   -3376.6385    4.4031208    4.4031208    4.4031208   -3376.6385    8714.7654    39701.804   -58546.485   -1179.6511     12143.05    6302.0328    85.365384 
    8500    1287.4631   -109.21481    1.1649237   -108.04989    7098.1372     4.398228     4.398228     4.398228    7098.1372    38988.109     17606.79   -35300.487    7917.2486   -8914.6421     2737.364    85.081125 
    8600    736.07704   -108.72907   0.66601798   -108.06305   -18291.194    4.4176473    4.4176473    4.4176473   -18291.194    -26035.67    50598.296   -79436.209    2235.2926     13208.74    7744.2409    86.213072 
    8700    1326.8784   -109.25631    1.2005874   -108.05572    -13991.13    4.4040207    4.4040207    4.4040207    -13991.13   -1637.8951   -677.35649   -39658.139    2163.7358     4512.273    3157.7835    85.417733 
    8800    980.08878   -108.95095   0.88680493   -108.06415    39584.046    4.3893389    4.3893389    4.3893389    39584.046    23221.908    117613.58   -22083.353   -8693.6775    3917.3486      -2537.3    84.566303 
    8900    1773.2481   -109.67721    1.6044722   -108.07274   -16960.223    4.4046035    4.4046035    4.4046035   -16960.223   -465.50951   -7831.7114   -42583.449   -2715.5023    2141.8439    5767.9007    85.451653 
    9000    1380.3172   -109.30622      1.24894   -108.05728    21922.311    4.4066693    4.4066693    4.4066693    21922.311   -10054.835       129661   -53839.237    8706.3935   -8108.5231    2380.2606     85.57194 
    9100    1531.7288    -109.4403    1.3859404   -108.05436    -10458.25    4.4132731    4.4132731    4.4132731    -10458.25   -39017.817    49718.472   -42075.406   -15379.531     4753.273   -8271.0054    85.957231 
    9200    1452.4338   -109.36641    1.3141926   -108.05222    7045.8484    4.3921839    4.3921839    4.3921839    7045.8484   -1614.7436    55402.909    -32650.62   -4584.2249    5223.3945   -3684.6045    84.730849 
    9300    1020.2234   -109.01381   0.92311954   -108.09069   -4816.9527     4.395101     4.395101     4.395101   -4816.9527    45505.842   -9392.0381   -50564.662   -5004.1792    2453.5039    2894.9408     84.89978 
    9400    1075.8438   -109.05947   0.97344609   -108.08603   -186.74904    4.4086869    4.4086869    4.4086869   -186.74904    12448.101    28422.609   -41430.958   -1228.5322    95.814542   -6193.5823     85.68953 
    9500    1193.0728   -109.15213    1.0795173   -108.07261   -14348.047    4.4113532    4.4113532    4.4113532   -14348.047   -38957.984    18511.205   -22597.364    14807.472   -9831.0659    12053.267    85.845098 
    9600    1266.4526   -109.21362    1.1459129    -108.0677   -13279.248    4.3925678    4.3925678    4.3925678   -13279.248     3531.023     1972.373   -45341.141   -10390.135   -1142.8023   -12117.754    84.753066 
    9700    1330.1865   -109.26503    1.2035807   -108.06145    26921.132     4.382487     4.382487     4.382487    26921.132    -3448.271    106672.79   -22461.128    9095.4775    -2310.986   -16665.461    84.170886 
    9800    1465.5338   -109.39966    1.3260458   -108.07361   -6292.2666    4.4078213    4.4078213    4.4078213   -6292.2666   -46235.601    58352.231   -30993.429    1849.8454   -5299.6219    12103.768    85.639071 
    9900     1296.639   -109.23313    1.1732262    -108.0599   -27651.665     4.409499     4.409499     4.409499   -27651.665   -28554.053   -6439.4863   -47961.455   -10952.775    2310.8094   -15231.611    85.736897 
   10000    1100.4436    -109.0474   0.99570451    -108.0517   -20260.597    4.3920377    4.3920377    4.3920377   -20260.597   -14101.417   -25853.649   -20826.725    5819.7664   -8558.0574   -2635.7425    84.722387 
   10100    1248.9312   -109.19135    1.1300592   -108.06129    3221.9428    4.3963055    4.3963055    4.3963055    3221.9428   -18991.798    58381.894   -29724.268    -10121.11   -5381.6217    5388.9033    84.969602 
   10200    1196.0682   -109.15039    1.0822277   -108.06816   -7203.0646    4.4087784    4.4087784    4.4087784   -7203.0646   -9950.2504    19102.686   -30761.629    9968.2898   -554.77269   -9470.3609    85.694869 
   10300    1426.0227   -109.35904    1.2902953   -108.06874   -4846.9232    4.3987328    4.3987328    4.3987328   -4846.9232   -1307.8832    17809.041   -31041.927    6846.6635   -5052.1043    3246.3384    85.110423 
   10400    1170.9881   -109.13238    1.0595346   -108.07285    26564.465    4.3945269    4.3945269    4.3945269    26564.465   -10178.817    119395.03   -29522.818   -1837.2705    544.34609     8478.207    84.866518 
   10500    1219.2469   -109.19348    1.1032002   -108.09028   -9943.9744    4.4044642    4.4044642    4.4044642   -9943.9744    3683.8107    21056.276    -54572.01   -13381.445   -7352.5059   -22709.759    85.443542 
   10600    1482.2428   -109.42496    1.3411645    -108.0838   -15031.049    4.3957177    4.3957177    4.3957177   -15031.049    -9691.073   -6643.1963   -28758.878   -6948.8018   -3254.1152    3138.9927    84.935528 
   10700    1514.8478   -109.44542    1.3706662   -108.07475   -8910.2124    4.3945778    4.3945778    4.3945778   -8910.2124   -15930.349    18292.192   -29092.481    17149.818   -3222.4824   -812.42282    84.869469 
   10800     925.4417   -108.90619    0.8373591   -108.06884   -12267.482    4.4034428    4.4034428    4.4034428   -12267.482    438.69859    25850.168   -63091.313   -19083.333    117.16343   -2218.5265    85.384115 
   10900    1233.2194   -109.16923    1.1158429   -108.05338   -967.43285    4.3970758    4.3970758    4.3970758   -967.43285   -23981.401    55704.871   -34625.768    6689.2497    5868.8834    13738.438    85.014278 
   11000    1344.4774   -109.27558    1.2165114   -108.05907   -13248.323    4.4054536    4.4054536    4.4054536   -13248.323   -46407.986    17010.955   -10347.938    5207.1253   -8136.7169    4159.2445    85.501136 
   11100    1319.2815   -109.24691    1.1937137    -108.0532   -400.98727     4.403205     4.403205     4.403205   -400.98727   -38146.679    32851.193    4092.5237    2071.8266   -3888.9598    11740.087    85.370284 
   11200     1045.453   -109.00408   0.94594783   -108.05813    13219.285    4.4067592    4.4067592    4.4067592    13219.285   -13792.088    53334.438     115.5038    10268.627    839.36659    12634.662    85.577179 
   11300    1478.7528   -109.38176    1.3380066   -108.04375    14377.081    4.3994674    4.3994674    4.3994674    14377.081   -6589.3193    7087.3688    42633.193    10999.579   -1748.9327    1878.6267    85.153069 
   11400    939.91454   -108.89725   0.85045443   -108.04679    49298.932    4.3887172    4.3887172    4.3887172    49298.932    23408.616    97570.496    26917.684    -2246.423   -9153.0976     19608.23    84.530374 
   11500    1159.0788   -109.10391    1.0487589   -108.05515   -15040.861    4.4161957    4.4161957    4.4161957   -15040.861   -25867.822   -26992.015     7737.253   -6726.2856   -2172.9698    970.37519    86.128113 
   11600    1447.1802   -109.35107     1.309439   -108.04163   -741.68272    4.4005951    4.4005951    4.4005951   -741.68272   -38429.488    20265.676    15938.764   -4830.7685    -261.9374    3259.9261    85.218566 
   11700    635.47894   -108.62204    0.5749947   -108.04704    36742.546    4.3854474    4.3854474    4.3854474    36742.546   -21970.819    40682.382    91516.075    2219.8368    2802.5574    23693.627     84.34158 
   11800    1542.6676   -109.44481    1.3958381   -108.04897   -25921.652    4.4123286    4.4123286    4.4123286   -25921.652   -66559.656   -3266.4346   -7938.8655   -6258.6498    8475.2331   -1973.3561    85.902051 
   11900    1259.6172   -109.17754    1.1397281   -108.03782     16375.16    4.4080226    4.4080226    4.4080226     16375.16   -14307.294   -2287.7248    65720.498   -7648.2505     14911.85    9471.0956    85.650804 
   12000    1660.2874    -109.5445     1.502263   -108.04223   -809.83071    4.3942221    4.3942221    4.3942221   -809.83071    28216.616   -9212.2011   -21433.907   -2238.6225   -6546.6429    12732.229    84.848859 
   12100    1666.0892    -109.5652    1.5075126   -108.05769    2183.9354    4.3974433    4.3974433    4.3974433    2183.9354   -11096.177    -2645.986    20293.969   -2583.8827   -300.14825   -6451.4767    85.035596 
   12200    1060.1229   -109.02778   0.95922145   -108.06856    15083.558    4.3985361    4.3985361    4.3985361    15083.558   -15412.465    16185.924    44477.214   -4152.7909     4705.385    7865.4754    85.099007 
   12300    671.58862    -108.6763   0.60766749   -108.06864    2006.9542    4.4088755    4.4088755    4.4088755    2006.9542   -13161.419   -14754.876    33937.157   -1845.5535   -9676.9376    6402.9518    85.700528 
   12400    1218.3912   -109.14987     1.102426   -108.04745   -11500.255    4.4079772    4.4079772    4.4079772   -11500.255   -47095.354   -10263.819    22858.408    145.17638   -4525.9265   -10536.511    85.648157 
   12500    1350.1458   -109.26778    1.2216403   -108.04614   -15274.563    4.3965648    4.3965648    4.3965648   -15274.563   -18111.871   -26394.468   -1317.3494    4748.8765    21001.922    14804.347     84.98464 
   12600    1691.3389   -109.58173     1.530359   -108.05137    5806.8131    4.3884056    4.3884056    4.3884056    5806.8131    20392.867   -12905.446    9933.0188    631.48009     -12378.5    12819.729    84.512371 
   12700    1672.1763   -109.57469    1.5130203   -108.06167    5767.7273    4.4027064    4.4027064    4.4027064    5767.7273    2788.5611   -7497.8783    22012.499   -3248.4763   -16873.681   -2752.1506    85.341285 
   12800    1361.9802     -109.291    1.2323483   -108.05865   -25144.546    4.4078739    4.4078739    4.4078739   -25144.546   -24219.621   -41051.586    -10162.43    1563.6635    12493.061    21022.115    85.642135 
   12900    1168.2213   -109.10478    1.0570312   -108.04775    10902.318    4.3927282    4.3927282    4.3927282    10902.318    4315.6667     12868.91    15522.377    2700.3266    11951.709    1744.9026    84.762352 
   13000     1033.142   -108.98969   0.93480855   -108.05488    541.68048    4.3977168    4.3977168    4.3977168    541.68048   -11620.884    -1572.108    14818.033    6700.9484   -14025.637     171.5172    85.051463 
   13100    942.52463   -108.90824   0.85281609   -108.05542   -1012.9573     4.399642     4.399642     4.399642   -1012.9573   -40830.313    1285.6265    36505.815   -184.84763    10151.154    11923.128    85.163211 
   13200    1236.2262   -109.17097    1.1185635   -108.05241    6445.6645    4.4038304    4.4038304    4.4038304    6445.6645    9083.0293   -9509.0985    19763.063    169.83921    7415.5612     1434.641    85.406662 
   13300    1635.1614   -109.52614    1.4795284   -108.04661   -24239.358    4.4016712    4.4016712    4.4016712   -24239.358    9161.9316   -48653.149   -33226.856    8081.4987   -15951.994    12869.854    85.281101 
   13400    1371.5789   -109.28758    1.2410334   -108.04654    19362.773    4.3809199    4.3809199    4.3809199    19362.773     8309.823    8154.4272    41624.069    5371.7413     3591.656    16965.027    84.080628 
   13500    1626.2639    -109.5382    1.4714778   -108.06672    -420.6896    4.3997837    4.3997837    4.3997837    -420.6896   -13634.065   -8980.1227    21352.118    5958.7124    5732.7797   -5204.1835    85.171437 
   13600      1129.54   -109.07494    1.0220315   -108.05291   -11783.907    4.4155649    4.4155649    4.4155649   -11783.907   -13897.741   -35485.816    14031.835   -3823.6553    3386.9324    5864.4365    86.091212 
   13700     1040.406   -108.97972   0.94138124   -108.03834    24261.778    4.3883205    4.3883205    4.3883205    24261.778    17980.305    20229.708    34575.322   -7015.4465    19315.338    19651.153    84.507453 
   13800    1524.8976    -109.4217    1.3797594   -108.04194    2135.2891    4.3913441    4.3913441    4.3913441    2135.2891    -12779.34   -7462.4587    26647.666    8836.5574   -4855.6041   -7846.4313    84.682252 
   13900    980.79603   -108.93611   0.88744486   -108.04866   -22400.022    4.4128688    4.4128688    4.4128688   -22400.022    5360.0992   -49677.939   -22882.226      1542.98      10079.1    8592.8685    85.933606 
   14000      1200.07   -109.12649    1.0858485   -108.04065   -21395.831    4.3987455    4.3987455    4.3987455   -21395.831   -16564.798   -35127.336   -12495.358   -1329.1836    15378.227    2827.7067    85.111157 
   14100    1446.8774   -109.34863    1.3091651   -108.03946    24123.717    4.3828825    4.3828825    4.3828825    24123.717   -4654.6029   -10089.377    87115.131   -1897.6056   -12194.358   -8265.2202    84.193676 
   14200    1309.7415   -109.25331    1.1850816   -108.06822   -14113.232    4.4031368    4.4031368    4.4031368   -14113.232   -27896.477   -28746.863    14303.644   -5800.2342    15669.595     8966.045    85.366316 
   14300    1293.4654   -109.22438    1.1703546   -108.05403    -11795.98    4.4130016    4.4130016    4.4130016    -11795.98   -22703.399   -21066.641    8382.1003    12788.938   -2509.2889    14182.304    85.941366 
   14400     1626.307   -109.50163    1.4715167   -108.03012    18609.735    4.3910189    4.3910189    4.3910189    18609.735    19493.954     19322.38     17012.87    4788.1248   -15434.837    8482.4354    84.663439 
   14500    1134.7513   -109.06605    1.0267469    -108.0393   -7225.8066    4.3946762    4.3946762    4.3946762   -7225.8066    17166.302   -8822.4561   -30021.265    -3392.712    14010.076    4259.6271     84.87517 
   14600    948.90793   -108.89759   0.85859184     -108.039   -16627.625    4.4116067    4.4116067    4.4116067   -16627.625    16536.625   -13203.789   -53215.711    4468.0246    1073.7688     -3515.52    85.859898 
   14700    1337.0638   -109.23994    1.2098034   -108.03014    16564.858    4.3977254    4.3977254    4.3977254    16564.858   -2648.1413    42324.953    10017.763    5921.8603    1657.5307     7414.318    85.051962 
   14800    1319.1339   -109.23949    1.1935801   -108.04591   -5757.3679    4.3964881    4.3964881    4.3964881   -5757.3679   -21677.139    26027.772   -21622.737    12781.772   -273.44677    8666.3536    84.980194 
   14900    1743.9214   -109.62132    1.5779367   -108.04339    1665.7672    4.3959274    4.3959274    4.3959274    1665.7672   -8146.8165    32497.025   -19352.907   -15370.249    -5217.031   -2337.7341     84.94768 
   15000    1408.5655   -109.32522    1.2744997   -108.05072    14766.077    4.4013507    4.4013507    4.4013507    14766.077    12645.472    25947.411    5705.3481    1763.3276    8826.2953    5695.7594    85.262474 
   15100    990.79214   -108.94611   0.89648955   -108.04962    -28328.48    4.4116814    4.4116814    4.4116814    -28328.48    4222.7538   -29662.773    -59545.42    12165.512    4426.4521    12500.746    85.864258 
   15200    866.52243   -108.82161    0.7840477   -108.03757    3651.8438    4.3891431    4.3891431    4.3891431    3651.8438    63351.667   -26828.084   -25568.052    6392.4298   -13420.059    381.83661    84.554985 
   15300    867.09982   -108.83508   0.78457014   -108.05051    7532.7099    4.3842622    4.3842622    4.3842622    7532.7099    55057.706   -7745.2798   -24714.297    8179.2824    7873.3811    10447.754    84.273215 
   15400     1303.069   -109.23669    1.1790442   -108.05765   -5834.8896    4.4067027    4.4067027    4.4067027   -5834.8896     2050.488    1301.2042   -20856.361    11147.047   -4455.2608    1022.2834    85.573888 
   15500    1643.9165   -109.53527    1.4874502   -108.04782    5583.1332    4.4083565    4.4083565    4.4083565    5583.1332    52221.982   -11581.845   -23890.737    9553.1166   -5421.5717   -7793.1289    85.670265 
   15600    1835.3766   -109.70292    1.6606873   -108.04224   -13930.008    4.3909618    4.3909618    4.3909618   -13930.008   -14944.635    7678.4627   -34523.853     1365.973    25431.193    8239.8325    84.660137 
   15700    1362.8868   -109.27947    1.2331686    -108.0463    29055.436     4.380976     4.380976     4.380976    29055.436    58772.219    18462.463    9931.6265    7562.8798   -6067.7211     5728.539    84.083855 
   15800     1178.726   -109.12529    1.0665361   -108.05875   -20104.954    4.4044876    4.4044876    4.4044876   -20104.954    29069.819   -53486.445   -35898.235    7865.6037   -10085.523    4294.8196    85.444903 
   15900    661.16232   -108.65519   0.59823356   -108.05696   -8117.0027    4.4060293    4.4060293    4.4060293   -8117.0027     66594.74   -51322.595   -39623.153    13060.538    12182.609   -3074.8212    85.534663 
   16000    1234.9092   -109.17711    1.1173718   -108.05974   -24604.577    4.3911291    4.3911291    4.3911291   -24604.577   -562.09777   -27928.333   -45323.301    4806.5682   -5062.4953    5210.7866    84.669817 
   16100    1126.3088   -109.08619    1.0191079   -108.06709    22013.544    4.3871805    4.3871805    4.3871805    22013.544    50133.534    39578.681   -23671.584    9359.6076   -15168.368    9608.4244     84.44161 
   16200    1827.9146   -109.72659    1.6539355   -108.07265    -4389.427    4.3996179    4.3996179    4.3996179    -4389.427    26596.734   -8843.7508   -30921.265   -8335.8211    13946.835   -2443.6051     85.16181 
   16300     1375.928   -109.30957    1.2449686    -108.0646   -12025.819    4.4095631    4.4095631    4.4095631   -12025.819    11015.315    14872.581   -61965.351    20837.797   -13240.936    1476.8433    85.740633 
   16400     965.8267   -108.92375   0.87390029   -108.04985    13871.226    4.3973472    4.3973472    4.3973472    13871.226    69143.162    10733.055    -38262.54   -2317.0622   -2774.4208    4141.3682    85.030018 
   16500    1279.5353   -109.20317    1.1577504   -108.04542   -14295.129    4.3883325    4.3883325    4.3883325   -14295.129    12946.868   -44049.093   -11783.161    1124.1039     4731.927   -3841.0507    84.508149 
   16600    689.23743   -108.68929   0.62363651   -108.06566    5523.3134    4.3934956    4.3934956    4.3934956    5523.3134     45007.43    -20643.51   -7793.9796    539.80914   -14825.087    12399.666    84.806781 
   16700    1391.0254   -109.31975     1.258629   -108.06112    2657.6585    4.4063391    4.4063391    4.4063391    2657.6585    55992.662   -14424.668   -33595.019   -10230.575   -8147.4938   -4255.4113    85.552704 
   16800    1995.9531     -109.863    1.8059803   -108.05702    9783.7561    4.3881314    4.3881314    4.3881314    9783.7561    25877.456    2913.6248     560.1873   -7625.5843    12241.794   -1564.8925    84.496532 
   16900    1445.9916   -109.37248    1.3083636   -108.06412    28024.067    4.3784642    4.3784642    4.3784642    28024.067    52913.384    22018.456    9140.3624    6667.1588   -10061.368    18314.758    83.939314 
   17000    1430.9997   -109.36398    1.2947986   -108.06919    -12340.97    4.4051776    4.4051776    4.4051776    -12340.97    3972.8308    1097.7461   -42093.486   -4900.7413   -4974.7322   -9452.3362    85.485068 
   17100    975.55348    -108.9333   0.88270129    -108.0506    8864.8458    4.3992118    4.3992118    4.3992118    8864.8458     35081.75   -13666.795    5179.5822   -8213.1143   -4291.3312    1280.9555    85.138229 
   17200    989.16213   -108.93852   0.89501469   -108.04351   -5387.5428    4.3947623    4.3947623    4.3947623   -5387.5428    17604.914   -23757.114   -10010.428    2425.5395    123.30237    11370.198    84.880157 
   17300    1345.2275   -109.26007    1.2171901   -108.04288   -1910.0362    4.4003577    4.4003577    4.4003577   -1910.0362    6294.4867   -19222.541    7197.9454   -789.47063    4190.6701    1126.1762    85.204779 
   17400    1715.3093   -109.59847    1.5520479   -108.04642    6752.3311    4.3915807    4.3915807    4.3915807    6752.3311    31896.858   -4513.6694   -7126.1948   -8395.5748    2571.2378    5422.4768    84.695941 
   17500    1423.1618   -109.34591    1.2877067    -108.0582   -5847.4091    4.3979193    4.3979193    4.3979193   -5847.4091   -23081.696    9814.5644   -4275.0955   -18829.822   -15402.094    3897.1071    85.063208 
   17600      1364.58    -109.2805    1.2347007    -108.0458    10741.194    4.3916919    4.3916919    4.3916919    10741.194    24892.712   -817.63393    8148.5036   -7450.7663   -9899.4083    4200.3412    84.702377 
   17700    1177.6834   -109.11545    1.0655927   -108.04986    608.33553    4.3893083    4.3893083    4.3893083    608.33553    36324.694   -5487.0743   -29012.613    13442.892   -8151.4574    22312.282    84.564537 
   17800    999.72281   -108.95587   0.90457021    -108.0513   -25795.013    4.4101945    4.4101945    4.4101945   -25795.013   -30173.503    229.78237    -47441.32   -11552.619   -14406.313   -972.25609    85.777471 
   17900    1157.7088   -109.08059    1.0475192   -108.03307    12119.004    4.3991685    4.3991685    4.3991685    12119.004    55108.853   -23057.075    4305.2321   -8080.1177   -8426.3223     6074.255    85.135717 
   18000    1480.4535   -109.37998    1.3395454   -108.04043    4039.1381    4.3931841    4.3931841    4.3931841    4039.1381     35856.33   -15037.064   -8701.8515    16033.336   -20266.443    7400.8668    84.788748 
   18100    1563.5908    -109.4655    1.4147699   -108.05073   -4402.6838    4.4081843    4.4081843    4.4081843   -4402.6838    41876.647   -29817.898   -25266.801   -161.84032   -11565.071    6085.2606     85.66023 
   18200    1499.7212   -109.39856    1.3569793   -108.04158     6088.413    4.4040621    4.4040621    4.4040621     6088.413     32002.62   -24848.577    11111.196   -10480.769   -16722.056    1231.6608    85.420147 
   18300    828.01212   -108.79426   0.74920277   -108.04506   -5496.5031    4.4026788    4.4026788    4.4026788   -5496.5031    12505.236   -28308.128   -686.61699     3738.082   -21495.672    469.91983    85.339681 
   18400    1039.7445   -108.98758   0.94078267   -108.04679   -13804.342    4.3917187    4.3917187    4.3917187   -13804.342   -822.90762   -67289.087    26698.967   -12045.438    -6832.703    901.62942    84.703929 
   18500    1035.8377   -108.99261   0.93724768   -108.05536     10772.04    4.3951097    4.3951097    4.3951097     10772.04    14418.433   -23026.713    40924.399    1224.2619   -5581.3809   -5531.2888    84.900289 
   18600      1476.44   -109.38664    1.3359139   -108.05073   -30659.388    4.4125565    4.4125565    4.4125565   -30659.388   -34078.383   -40106.645   -17793.137   -4385.5021   -23191.454   -8546.4577    85.915366 
   18700    1765.0972   -109.63081    1.5970971   -108.03372   -9836.9091    4.3957268    4.3957268    4.3957268   -9836.9091   -18793.706   -32400.742    21683.721   -11599.616   -5631.1877   -7258.9637    84.936055 
   18800    1373.2148   -109.27724    1.2425136   -108.03472     24137.24    4.3811058    4.3811058    4.3811058     24137.24    23798.025    30340.346     18273.35    7768.9389    7061.3908    96.280753    84.091328 
   18900    954.82392   -108.93314   0.86394475   -108.06919   -24041.737    4.3981478    4.3981478    4.3981478   -24041.737   -29905.646   -17782.381   -24437.184   -19223.205   -15250.754    7463.6558    85.076467 
   19000    932.41059   -108.91217   0.84366469    -108.0685    3018.7166    4.4010369    4.4010369    4.4010369    3018.7166      27818.2   -27431.697    8669.6475    310.44934    10781.324   -12428.987    85.244235 
   19100    1093.9603   -109.04913    0.9898383   -108.05929    13887.361    4.3911631    4.3911631    4.3911631    13887.361    32953.292     11561.05   -2852.2592    5622.4149    5715.4842   -6202.4609    84.671783 
   19200    879.14473   -108.85811   0.79546863   -108.06264   -4722.9112    4.3931076    4.3931076    4.3931076   -4722.9112    42699.645   -33444.615   -23423.764   -20285.827   -2542.9651    5252.9849    84.784314 
   19300    1841.9878   -109.72125    1.6666693   -108.05458   -19312.402    4.3981112    4.3981112    4.3981112   -19312.402   -13482.149   -24093.887   -20361.169    12422.429    2591.9307    1783.3112    85.074344 
   19400    1692.8436    -109.5819    1.5317204   -108.05018    2693.3723    4.3963325    4.3963325    4.3963325    2693.3723    24527.268    17836.138   -34283.289    5623.4527   -1537.7201   -8732.6591    84.971169 
   19500    1381.6968   -109.30395    1.2501883   -108.05376   -39505.687    4.4009202    4.4009202    4.4009202   -39505.687   -59272.882    -33502.31   -25741.871   -36315.966    1243.3668   -7127.7375    85.237454 
   19600    1171.4907     -109.111    1.0599894   -108.05101   -1464.0664    4.3917638    4.3917638    4.3917638   -1464.0664    19838.009   -3066.7497   -21163.458    15892.911     4865.161    258.92818    84.706539 
   19700    1181.5812   -109.12445    1.0691195   -108.05533   -2948.8617     4.386266     4.386266     4.386266   -2948.8617    21545.514   -9380.6137   -21011.486    -3421.516    1901.5936   -3702.2138    84.388817 
   19800    730.14463   -108.73014    0.6606502   -108.06949   -7154.0441    4.3940735    4.3940735    4.3940735   -7154.0441    14443.684   -41016.696    5110.8794   -23158.838    990.15506   -3225.8175    84.840251 
   19900    1416.3531   -109.34529     1.281546   -108.06375    6091.0013    4.4004308    4.4004308    4.4004308    6091.0013    55700.749   -17766.638   -19661.107    11255.746    4298.0871   -182.65868    85.209026 
   20000    1864.8044   -109.74256    1.6873142   -108.05524   -6037.1189    4.3962269    4.3962269    4.3962269   -6037.1189   -13271.565    39249.892   -44089.683    6480.7112    -12790.61    4320.4749    84.965049 
   20100    1277.9955   -109.21601    1.1563571   -108.05965    17362.893    4.3848044    4.3848044    4.3848044    17362.893    35361.257    12237.101    4490.3209    -16979.48   -9402.9374    204.30534    84.304483 
   20200    1419.9002   -109.34419    1.2847555   -108.05944    18874.984    4.3926847    4.3926847    4.3926847    18874.984    9265.5683    46627.463    731.92172    10922.228    12560.575   -9353.4844    84.759832 
   20300    1156.0047   -109.09644    1.0459773   -108.05046   -42409.299    4.4131315    4.4131315    4.4131315   -42409.299    -35813.73   -41374.325   -50039.841   -6716.6448   -1187.6685   -8809.7752    85.948955 
   20400    720.80407   -108.70463   0.65219867   -108.05243   -12735.998    4.3894738    4.3894738    4.3894738   -12735.998    8961.6688    -37141.26   -10028.402   -21829.345   -12931.001    6408.9585    84.574098 
   20500    1222.5094   -109.14827    1.1061522   -108.04212    50590.141    4.3639624    4.3639624    4.3639624    50590.141    62808.734    52151.224    36810.463    5888.4971    3119.0174    302.56339    83.108034 
   20600    1202.1888    -109.1622    1.0877657   -108.07444    -24946.39    4.4044778    4.4044778    4.4044778    -24946.39   -24606.081   -26222.707   -24010.383   -4122.2484   -4024.8203   -13887.206    85.444337 
   20700    1182.6907   -109.12799    1.0701234   -108.05787   -16009.477    4.4049552    4.4049552    4.4049552   -16009.477    2442.6163   -23048.534   -27422.512   -4900.1423    -6329.068   -14.481986     85.47212 
   20800    1763.7902   -109.63114    1.5959144   -108.03522    18461.752    4.3740471    4.3740471    4.3740471    18461.752    7888.3844    12938.785    34558.085     1827.715   -62.885448    11705.682    83.685531 
   20900     1592.803   -109.49515    1.4412016   -108.05395   -17944.408    4.3904767    4.3904767    4.3904767   -17944.408   -21649.681   -23071.716   -9111.8272    4397.8921    -8290.359    8737.3073    84.632083 
   21000    1359.1677   -109.27888    1.2298035   -108.04907   -6972.8506    4.4012639    4.4012639    4.4012639   -6972.8506    22081.312   -49144.965     6145.101   -1892.6492      3737.15    3552.0528     85.25743 
   21100    1368.4049   -109.28039    1.2381615   -108.04223   -9973.8949    4.3993072    4.3993072    4.3993072   -9973.8949   -3773.3003   -20231.883   -5916.5016    7646.8764    16097.763   -3997.4582    85.143769 
   21200    852.16986   -108.81609   0.77106119   -108.04503    15563.506    4.3953586    4.3953586    4.3953586    15563.506    48244.135    3592.6359   -5146.2536    5937.2017   -3728.5639    11957.316     84.91471 
   21300    1321.0876   -109.24167    1.1953478   -108.04633   -14796.727    4.3981354    4.3981354    4.3981354   -14796.727    8163.5253    -26776.43   -25777.277   -9065.9864    3663.6698    -1245.929     85.07575 
   21400    1301.7645   -109.22711    1.1778638   -108.04925    825.24173    4.3967348    4.3967348    4.3967348    825.24173    40501.589   -33809.474   -4216.3903    18870.217    17667.724   -6062.7547    84.994497 
   21500    1753.6524   -109.63679    1.5867415   -108.05005   -13011.224    4.3919647    4.3919647    4.3919647   -13011.224   -4520.8249   -26679.847   -7832.9997   -8274.1782   -21902.082    2776.4311     84.71816 
   21600    1297.2839   -109.23219    1.1738098   -108.05838   -11420.423    4.3914859    4.3914859    4.3914859   -11420.423   -27271.121   -38128.939    31138.792   -11666.387   -22660.008    4635.3114     84.69046 
   21700     1684.725   -109.57696    1.5243746   -108.05258   -6957.4096    4.3844738    4.3844738    4.3844738   -6957.4096   -3154.9608   -30300.769    12583.501    19767.678    27244.704    2178.9888    84.285414 
   21800    987.10009   -108.96031    0.8931489   -108.06716   -4205.9652    4.3959121    4.3959121    4.3959121   -4205.9652   -7538.5225   -26687.498    21608.125   -22083.363   -19481.306   -1279.8739    84.946792 
   21900    904.01443   -108.88317   0.81797126    -108.0652   -12463.284    4.3928423    4.3928423    4.3928423   -12463.284   -1205.6802   -25884.013   -10300.159   -6459.7061   -18025.567   -2436.8267    84.768958 
   22000    1098.3355   -109.04861   0.99379707   -108.05482   -2574.7535    4.3877066    4.3877066    4.3877066   -2574.7535    27569.471    11704.474   -46998.205    8161.6274   -5405.3859    385.69904    84.471992 
   22100    1085.7577   -109.03957    0.9824164   -108.05716   -17216.024     4.400631     4.400631     4.400631   -17216.024    13977.369    -29602.58   -36022.861   -24600.846   -27208.611    13529.993    85.220654 
   22200     1248.978   -109.17831    1.1301015   -108.04821    33326.034    4.3875466    4.3875466    4.3875466    33326.034    45247.077    3177.7205    51553.303    871.86297   -3897.0965    -1229.938     84.46275 
   22300      1618.52   -109.51696    1.4644709   -108.05249    10679.471    4.3977397    4.3977397    4.3977397    10679.471     40240.28    1234.8644   -9436.7309    4236.4356    -6884.894    -3436.737    85.052787 
   22400    1105.7165   -109.05142    1.0004755   -108.05094   -3431.1065    4.4072071    4.4072071    4.4072071   -3431.1065    18226.631   -33441.919    4921.9678   -15981.097   -7171.1206    -2547.283    85.603273 
   22500    1339.3758   -109.25552    1.2118954   -108.04363   -8074.2888    4.3904428    4.3904428    4.3904428   -8074.2888    24116.555   -11211.678   -37127.743    7448.1742    10509.817   -5848.3382    84.630125 
   22600    1096.8578   -109.05226   0.99245996    -108.0598   -12479.558    4.3964811    4.3964811    4.3964811   -12479.558     -17034.4    27942.079   -48346.354    5894.2009   -14335.674    9870.4383    84.979785 
   22700    1531.1602   -109.43712    1.3854259    -108.0517   -23984.843    4.4082082    4.4082082    4.4082082   -23984.843   -38220.119   -9435.1399    -24299.27   -2044.8915   -5814.6293     -42.1054     85.66162 
   22800    1649.5423   -109.53331    1.4925406   -108.04077    1128.3144    4.3922465    4.3922465    4.3922465    1128.3144   -17289.732   -21704.027    42378.702    18475.095    722.82577   -4944.5449     84.73447 
   22900    1489.1876   -109.38792    1.3474482   -108.04047    14074.398    4.3868019    4.3868019    4.3868019    14074.398   -13970.876    42744.319     13449.75   -501.68245   -5458.7652   -738.29649    84.419752 
   23000    1350.8256   -109.26968    1.2222554   -108.04742    8473.4039    4.3994827    4.3994827    4.3994827    8473.4039   -5848.9258    23222.321    8046.8161   -3589.1412     -2755.97    7832.7237    85.153961 
   23100    1185.8844   -109.12107    1.0730131   -108.04806   -9755.6816    4.4015164    4.4015164    4.4015164   -9755.6816    10616.228     -10450.4   -29432.872    16776.356   -4160.9756     10562.53    85.272101 
   23200    789.67836   -108.76616   0.71451757   -108.05165    12737.722    4.3920002    4.3920002    4.3920002    12737.722    23265.542    47951.497   -33003.873   -9905.5698   -9660.3459     3231.581    84.720219 
   23300    1379.6877   -109.29905    1.2483704   -108.05068    26765.629     4.382024     4.382024     4.382024    26765.629    44104.769    24491.436    11700.682    430.31853    6191.0744    3427.5777    84.144211 
   23400    1106.4098   -109.06917    1.0011028   -108.06807    14595.316    4.3968214    4.3968214    4.3968214    14595.316   -6699.3565    21996.313    28488.993    11253.953    -8744.867    9972.6475    84.999519 
   23500    1340.0568    -109.2631    1.2125115   -108.05059    1685.6041    4.4110848    4.4110848    4.4110848    1685.6041    -18282.09    8282.2099    15056.692   -6770.9517   -4779.6311    11635.792    85.829427 
   23600    1457.7423    -109.3489    1.3189959    -108.0299     19945.34    4.3942722    4.3942722    4.3942722     19945.34    22746.376    2565.2271    34524.416   -3137.1242    21813.155    -4451.953    84.851762 
   23700    897.15851   -108.85282   0.81176788   -108.04105    16959.477    4.3856629    4.3856629    4.3856629    16959.477    4567.9854    31365.737    14944.708     4700.754   -10628.733    18970.987    84.354014 
   23800    1438.8457   -109.36119    1.3018978   -108.05929   -5291.0825    4.4020347    4.4020347    4.4020347   -5291.0825    9914.0295    24180.672   -49967.949   -3146.5735    5201.2074    3656.2796    85.302228 
   23900     1097.186   -109.04153   0.99275696   -108.04878    10902.038    4.4091483    4.4091483    4.4091483    10902.038    5411.7423    984.71792    26309.652    8778.9676   -4206.3033   -2287.6438    85.716439 
   24000    1124.4903   -109.05824    1.0174624   -108.04078   -11924.233    4.3947107    4.3947107    4.3947107   -11924.233   -49482.708    8565.0734     5144.936    4002.4262   -10608.424    9082.6375    84.877165 
   24100     1292.672    -109.2107    1.1696368   -108.04106     12414.76    4.3842342    4.3842342    4.3842342     12414.76   -13501.979    23374.285    27371.974   -6985.2116    5782.9544   -7946.4401    84.271602 
   24200    1295.8174   -109.22693    1.1724828   -108.05445    -1809.948    4.4003644    4.4003644    4.4003644    -1809.948   -21368.061     22896.53   -6958.3125    13170.319   -9374.3379    4944.5148    85.205164 
   24300    1139.1777    -109.0816    1.0307519   -108.05085   -22009.155    4.4113989    4.4113989    4.4113989   -22009.155   -34843.988     10361.31   -41544.788    3918.6479   -7375.3726    -276.6808    85.847764 
   24400    2007.8116   -109.83979    1.8167101   -108.02308   -24313.406    4.4007347    4.4007347    4.4007347   -24313.406   -8714.1969   -22726.388   -41499.635    -6442.307     2982.815   -6142.0982    85.226678 
   24500    1310.7049   -109.21682    1.1859533   -108.03087   -15021.871    4.4040605    4.4040605    4.4040605   -15021.871   -28121.314   -13750.529   -3193.7706    4397.6618   -14311.799    409.24662     85.42005 
   24600    1163.9974   -109.07926    1.0532093   -108.02605   -5875.5855    4.3934258    4.3934258    4.3934258   -5875.5855    -37362.13    2658.8713    17076.502   -3831.1036   -5419.5935    3766.9879    84.802739 
   24700    1182.3499   -109.11033    1.0698151   -108.04052    -450.4009    4.3865155    4.3865155    4.3865155    -450.4009   -51747.187    -11308.29    61704.274     293.1949    5688.3859   -5094.4818    84.403218 
   24800    1199.8991   -109.14149    1.0856939   -108.05579   -17928.246    4.3966269    4.3966269    4.3966269   -17928.246   -25930.943   -4237.0791   -23616.717      9299.99   -2598.7529    10214.478    84.988242 
   24900     1492.279   -109.40731    1.3502454   -108.05707   -2991.8318    4.3959797    4.3959797    4.3959797   -2991.8318   -2347.9795   -32443.895    25816.379   -14096.574    3106.5391    2274.0856    84.950712 
   25000    1884.3647   -109.75638    1.7050128   -108.05137   -22845.637    4.4003168    4.4003168    4.4003168   -22845.637   -13376.588   -25301.803   -29858.522   -5752.6613   -6786.9685    5292.9924      85.2024 
   25100    1179.4496   -109.11808    1.0671908   -108.05089    7205.6853    4.3898101    4.3898101    4.3898101    7205.6853    15517.504   -10994.417    17093.969    7942.5153   -14744.206    7499.6545    84.593542 
   25200    1340.8151   -109.27104    1.2131977   -108.05784   -5452.8436    4.3892624    4.3892624    4.3892624   -5452.8436   -1446.0757   -2337.7195   -12574.736   -4180.3301    11272.729   -2998.7005    84.561878 
   25300    977.63642   -108.94373   0.88458598   -108.05914    -30628.65    4.4087324    4.4087324    4.4087324    -30628.65   -77760.543    3847.4899   -17972.896   -7838.4155   -23636.046   -3755.7322    85.692184 
   25400    1142.1467   -109.07654    1.0334384    -108.0431   -16042.956    4.4025718    4.4025718    4.4025718   -16042.956   -36810.584    316.07973   -11634.364   -4824.6483   -9896.2686    5451.4876     85.33346 
   25500    1723.2143   -109.58705    1.5592005   -108.02785   -3658.1166    4.3959505    4.3959505    4.3959505   -3658.1166   -1477.6573   -7390.4463   -2106.2462    5994.8476    16281.666   -13095.534    84.949023 
   25600    1547.1551   -109.43684    1.3998985   -108.03694   -25944.207    4.4064283    4.4064283    4.4064283   -25944.207   -20344.133   -26110.811   -31377.676   -4241.9268   -19683.386   -9211.4488    85.557902 
   25700    1585.8403   -109.46948    1.4349016   -108.03458    -31337.22    4.4065541    4.4065541    4.4065541    -31337.22   -18993.576   -37776.123   -37241.961   -5572.5929    936.91573    11733.933    85.565231 
   25800    1238.9302   -109.15571    1.1210101    -108.0347   -15678.367    4.4007237    4.4007237    4.4007237   -15678.367   -66334.539    27732.901   -8433.4622    -4660.047    12654.931   -14610.243    85.226039 
   25900     1221.649   -109.13999    1.1053737   -108.03462   -27259.611    4.3965679    4.3965679    4.3965679   -27259.611   -58699.872    8610.7088   -31689.669    80.373155   -7176.2525    8711.7503    84.984816 
   26000    1506.7916   -109.39494    1.3633767   -108.03156    1156.6766    4.4028818    4.4028818    4.4028818    1156.6766    -6038.307    31027.305   -21518.968   -3489.6341    488.16729    3870.6278    85.351487 
   26100    1557.5278   -109.44151    1.4092839   -108.03223   -6105.8165    4.4116414    4.4116414    4.4116414   -6105.8165   -2074.4197   -16100.888   -142.14151    14307.843   -5654.3846    4887.3428    85.861923 
   26200    1046.8062   -108.97814   0.94717229   -108.03097    7810.0388    4.4075218    4.4075218    4.4075218    7810.0388    46466.874    299.26457   -23336.022    6682.0923   -15482.912    14651.839    85.621613 
   26300    1114.8684   -109.03186    1.0087564   -108.02311    17703.958    4.3975222    4.3975222    4.3975222    17703.958    3132.9462    9181.7901    40797.138   -16449.119   -17239.847   -6011.7874    85.040173 
   26400    1033.8607    -108.9669    0.9354589   -108.03144    1705.3226    4.3982162    4.3982162    4.3982162    1705.3226   -21152.939    9801.8619    16467.045    7653.6714   -16950.185    8377.4479    85.080438 
   26500    1047.3592   -108.99191   0.94767264   -108.04424   -4556.8552    4.4127974    4.4127974    4.4127974   -4556.8552   -34209.645    38686.517   -18147.437    3612.9609    4556.1761    13641.007    85.929435 
   26600    1761.8008   -109.62065    1.5941144   -108.02654    -11682.03    4.4102699    4.4102699    4.4102699    -11682.03   -30890.335   -12445.554     8289.798   -5287.5703   -5293.1593    846.13101     85.78187 
   26700    1737.6645   -109.58862    1.5722754   -108.01634    2845.9488    4.3977011    4.3977011    4.3977011    2845.9488     7091.979    34228.323   -32782.455    1300.0183   -7589.3697    10445.754    85.050547 
   26800    1434.3939   -109.32341    1.2978698   -108.02554   -6566.1601    4.4054387    4.4054387    4.4054387   -6566.1601    6744.0595   -17219.619   -9222.9208     10549.68    11862.319    3276.2705    85.500273 
   26900    1365.2896   -109.25379    1.2353427   -108.01845    -1329.369    4.4056011    4.4056011    4.4056011    -1329.369    830.07213   -9567.2668    4749.0876    3115.8761    1927.4138    326.92622    85.509725 
   27000    1210.6986   -109.12087    1.0954656   -108.02541   -10388.004    4.4080135    4.4080135    4.4080135   -10388.004   -24112.167    29838.381   -36890.225   -3539.0197    5989.1497    20885.321     85.65027 
   27100    964.95477   -108.91036   0.87311136   -108.03725   -5227.0886    4.4057118    4.4057118    4.4057118   -5227.0886   -22536.198    32906.332   -26051.399   -7990.0688   -16292.189    7993.9878    85.516171 
   27200    1144.9747   -109.07412    1.0359971   -108.03813    28331.211    4.3974079    4.3974079    4.3974079    28331.211    67074.569    21106.345   -3187.2822   -15974.559   -7462.5931   -2450.7709    85.033541 
   27300      1313.13   -109.24326    1.1881476   -108.05511    -4029.296    4.4174326    4.4174326    4.4174326    -4029.296     31261.27    3597.8487   -46947.006   -11262.298    14619.891    8450.2036    86.200502 
   27400    1020.8087   -108.95518   0.92364913   -108.03153    369.32689    4.4223217    4.4223217    4.4223217    369.32689    49427.983    7834.0769    -56154.08   -21187.056    8179.2833    6534.6198    86.487033 
   27500    1146.4708   -109.05819    1.0373509   -108.02084    24641.666     4.398794     4.398794     4.398794    24641.666    33691.707    14793.024    25440.268   -13726.876    4067.8098    5389.4595    85.113975 
   27600    1164.5789    -109.0871    1.0537354   -108.03337    6968.9767      4.40163      4.40163      4.40163    6968.9767    487.72383    22432.659   -2013.4531   -12094.392    4995.7617    8199.1652    85.278708 
   27700    1471.9001   -109.36252    1.3318061   -108.03072    -15700.17    4.4144241    4.4144241    4.4144241    -15700.17   -42189.746    15407.874   -20318.638   -22814.126     8039.872    584.22424    86.024499 
   27800    1329.5665   -109.22712    1.2030197    -108.0241   -4128.8443    4.4103543    4.4103543    4.4103543   -4128.8443   -7340.3932   -8261.8163    3215.6767   -9450.1622    20166.909    920.47326    85.786795 
   27900    1375.1632   -109.26349    1.2442766   -108.01921    2206.0002    4.4036152    4.4036152    4.4036152    2206.0002      -2819.5    7088.6392    2348.8613   -7432.4061    8185.4528     -11267.1    85.394144 
   28000     1389.129    -109.2849    1.2569131   -108.02798    4278.3611    4.4014662    4.4014662    4.4014662    4278.3611   -23766.876   -837.70795    37439.667    -6301.661   -6577.7618    12170.176    85.269186 
   28100    1137.8332   -109.06916    1.0295354   -108.03963    2437.8949    4.4042728    4.4042728    4.4042728    2437.8949   -493.49313    9262.6099   -1455.4322    -8304.505    15310.611     14988.17    85.432405 
   28200    1071.5934   -109.01104   0.96960025   -108.04144   -5502.8152    4.3967168    4.3967168    4.3967168   -5502.8152   -46009.979     20225.35    9276.1834   -5463.2016    12440.577   -6254.8623    84.993455 
   28300    1451.8532   -109.35322    1.3136673   -108.03956   -443.47209    4.3892499    4.3892499    4.3892499   -443.47209   -32229.171    9393.0076    21505.747    8703.4362   -12063.768    16923.855     84.56116 
   28400    1403.2104   -109.31808    1.2696542   -108.04843    20860.525    4.3957066    4.3957066    4.3957066    20860.525   -18546.048    62528.323    18599.299   -126.05426    15142.192    18988.124     84.93488 
   28500    1103.8924   -109.05395   0.99882508   -108.05512   -4983.9121    4.4104158    4.4104158    4.4104158   -4983.9121   -24613.329   -18996.061    28657.653    5752.0561    1603.4214   -2638.1199    85.790385 
   28600     1410.228   -109.31353    1.2760039   -108.03752   -1717.3646     4.397458     4.397458     4.397458   -1717.3646   -12936.017    2489.5735    5294.3494    1757.1207    1779.2383    3917.3889    85.036448 
   28700    823.14902   -108.78269   0.74480253   -108.03789    25492.714    4.3915236    4.3915236    4.3915236    25492.714   -39666.448    30014.478    86130.111   -2916.9922   -8032.9655    15431.851    84.692641 
   28800     1108.431   -109.05099    1.0029317   -108.04806   -19968.508    4.4094422    4.4094422    4.4094422   -19968.508   -34161.148   -23139.107   -2605.2689    26902.779   -182.36231    8734.8361    85.733579 
   28900    1498.9902   -109.39578    1.3563178   -108.03946    9097.3246    4.3965418    4.3965418    4.3965418    9097.3246    31040.232   -11394.441    7646.1828   -1022.9599    7006.1606    1580.6203    84.983308 
   29000    1150.7691   -109.08419      1.04124   -108.04295    32738.599    4.3770123    4.3770123    4.3770123    32738.599    13008.125    58307.268    26900.406    2955.1683   -17203.732    5346.4038    83.855839 
   29100    1474.2381   -109.40482    1.3339216   -108.07089   -15065.506    4.3970495    4.3970495    4.3970495   -15065.506    642.58631   -17569.567   -28269.536    21979.795   -6017.7493   -4098.6094     85.01275 
   29200    1529.5565   -109.43489    1.3839749   -108.05091   -19723.764    4.4128194    4.4128194    4.4128194   -19723.764   -16250.899    -50152.19     7231.797   -7003.2946   -3073.9394      8398.32    85.930723 
   29300    925.27369   -108.88161   0.83720708    -108.0444    5959.9401    4.3894516    4.3894516    4.3894516    5959.9401   -42453.952    21269.918    39063.855    15904.204    1468.3774   -988.09033    84.572816 
   29400    1250.2362   -109.17101      1.13124   -108.03977    20777.571    4.3809428    4.3809428    4.3809428    20777.571    44166.497    25379.784   -7213.5689    6389.1419   -7906.5544   -1619.6928    84.081944 
   29500    1333.5947   -109.25402    1.2066645   -108.04735   -1498.0678    4.4038569    4.4038569    4.4038569   -1498.0678    2509.3861   -16033.385    9029.7957    -1148.681   -5779.8174    2857.9134    85.408207 
   29600    1130.8679   -109.06572    1.0232331   -108.04249     3310.881    4.4038974    4.4038974    4.4038974     3310.881   -7690.3396    29089.389   -11466.406    18584.865   -2335.5583    3943.6601    85.410562 
   29700    1583.0324   -109.46476     1.432361   -108.03239    10171.129    4.3895768    4.3895768    4.3895768    10171.129    73750.954    1980.1075   -45217.674   -10204.921    4230.1048    17031.333    84.580055 
   29800    1938.5576   -109.79444    1.7540476   -108.04039     -14485.3    4.3898567    4.3898567    4.3898567     -14485.3   -9796.9605   -9978.7989   -23680.141   -4936.5908    4914.7306   -6262.3125    84.596233 
   29900    1043.4736   -109.00345   0.94415689   -108.05929   -9979.1331      4.40375      4.40375      4.40375   -9979.1331    -11499.13    6268.5946   -24706.864    17326.276   -4803.7506    9403.0898    85.401983 
   30000    1134.8736   -109.07276    1.0268575    -108.0459    -3334.516    4.3960655    4.3960655    4.3960655    -3334.516    21878.827   -3548.0803   -28334.295   -9110.0473    -9194.805    24815.395    84.955687 
   30100    1263.9689   -109.17977    1.1436656   -108.03611    8805.1814    4.3776431    4.3776431    4.3776431    8805.1814    30067.482    11811.429   -15463.367    4630.2428    1641.3322   -5387.9772    83.892097 
   30200    941.67485   -108.91421   0.85204719   -108.06216   -10818.587    4.3960732    4.3960732    4.3960732   -10818.587    3477.8982   -9748.8574   -26184.802    11495.317   -6404.1572    16737.314    84.956136 
   30300    1751.3288   -109.63414    1.5846391   -108.04951   -14595.579    4.4036239    4.4036239    4.4036239   -14595.579    1053.3543    -9181.677   -35658.414   -7298.9359    6605.6119    9618.4844     85.39465 
   30400    1490.8293   -109.40333    1.3489336    -108.0544    8701.1359    4.3874323    4.3874323    4.3874323    8701.1359    42806.271   -12681.132   -4021.7309    17001.162   -19751.548   -4695.4355    84.456151 
   30500    1392.7063   -109.32585    1.2601499    -108.0657    8191.2741    4.3878964    4.3878964    4.3878964    8191.2741    42671.908   -4523.4118   -13574.674   -595.90889   -5492.0015    22533.776    84.482957 
   30600     1192.824    -109.1317    1.0792922   -108.05241    3664.4077    4.4040065    4.4040065    4.4040065    3664.4077    25663.251    13858.145   -28528.173    2131.2622    7595.5838   -1309.6686    85.416912 
   30700    862.65942    -108.8317   0.78055237   -108.05115    -17096.06     4.391555     4.391555     4.391555    -17096.06   -39600.257   -24498.525    12810.603    34653.425   -12516.741   -8442.3477    84.694457 
   30800    1226.1468     -109.157    1.1094434   -108.04756   -7359.4254    4.3834234    4.3834234    4.3834234   -7359.4254    -22688.81    9356.3015   -8745.7678    -3598.733    4686.9632    11780.978    84.224851 
   30900    1460.8614   -109.36593    1.3218181   -108.04412   -1865.5242     4.403137     4.403137     4.403137   -1865.5242    39377.426   -12181.417   -32792.582    8821.7085   -5145.7453    3850.7581    85.366327 
   31000     1220.637   -109.15033     1.104458   -108.04587   -8371.7834    4.4016765    4.4016765    4.4016765   -8371.7834     6058.116   -54372.986     23199.52    31618.519   -16920.814    708.47539    85.281407 
   31100    1706.1367   -109.57876    1.5437483   -108.03501    14115.059    4.3822794    4.3822794    4.3822794    14115.059    37411.022    5585.7427   -651.58849   -2299.5806    17887.112    530.39743    84.158928 
   31200    1485.8692   -109.39738    1.3444457   -108.05293    5099.8027    4.3869863    4.3869863    4.3869863    5099.8027    20755.599   -16040.823    10584.632    4459.3092    4858.6051   -3750.2783    84.430398 
   31300    838.17629   -108.82272   0.75839952   -108.06432   -29217.264    4.4050082    4.4050082    4.4050082   -29217.264   -77311.182   -23924.185    13583.573    11852.196   -28007.297    6699.3082    85.475206 
   31400     1527.878   -109.42551    1.3824561   -108.04306   -8228.6854    4.3935688    4.3935688    4.3935688   -8228.6854   -30236.415    12134.778   -6584.4194   -1590.3277    12891.698    13915.082     84.81102 
   31500    1126.8085   -109.06492      1.01956   -108.04536    23199.731    4.3829569    4.3829569    4.3829569    23199.731     38825.02    7040.5072    23733.666    22477.585    595.20387   -8062.4109    84.197964 
   31600    1166.2125   -109.11194    1.0552136   -108.05672   -8562.7921    4.3943189    4.3943189    4.3943189   -8562.7921    2573.6899   -20621.537   -7640.5297    2342.5738    -25978.76    1379.1785    84.854468 
   31700    1518.6939   -109.42444    1.3741462    -108.0503    9019.5518    4.3951291    4.3951291    4.3951291    9019.5518    36023.952   -10009.087    1043.7898   -11870.858    6797.1351    5258.0278    84.901411 
   31800    1233.4157   -109.16756    1.1160204   -108.05154    124.40834    4.3980753    4.3980753    4.3980753    124.40834   -3868.1992   -6266.3957     10507.82    27314.116    -8461.059    869.24902    85.072264 
   31900    1106.4167    -109.0512    1.0011091    -108.0501   -7273.8951    4.3961819    4.3961819    4.3961819   -7273.8951    -21761.15   -8628.7137     8568.178   -3530.3296   -11328.562   -6642.5082    84.962438 
   32000    1596.1379   -109.50094    1.4442191   -108.05672     672.8483    4.3867442    4.3867442    4.3867442     672.8483   -19833.439   -7751.3437    29603.328   -13309.956    3136.8355   -1032.3961    84.416421 
   32100    823.51018   -108.82094   0.74512932   -108.07581   -6988.6338    4.3995924    4.3995924    4.3995924   -6988.6338   -4216.8327    6947.7969   -23696.865    16677.577   -38870.752   -1934.3464    85.160327 
   32200    1445.2733   -109.36625    1.3077136   -108.05854   -22203.032    4.3990901    4.3990901    4.3990901   -22203.032   -17676.457   -25355.221   -23577.419   -7403.5633     -3769.07    5020.2157    85.131162 
   32300    1630.2185   -109.52138     1.475056   -108.04633   -9307.9792    4.3896451    4.3896451    4.3896451   -9307.9792    8980.7239   -51802.602    14897.941    13952.321     7163.155   -315.12588    84.583999 
   32400    876.31702   -108.84968   0.79291006   -108.05677   -9058.0397    4.4017729    4.4017729    4.4017729   -9058.0397   -12550.423    5362.2712   -19985.967     18412.87   -28562.016   -16334.592    85.287013 
   32500    1719.3389   -109.60174     1.555694   -108.04605   -14846.831    4.4001872    4.4001872    4.4001872   -14846.831   -21820.714    533.86673   -23253.646    68.859197    4809.0086    6942.7119    85.194876 
   32600    1216.8971   -109.15215    1.1010741   -108.05108    12034.082     4.388091     4.388091     4.388091    12034.082    12615.646    7432.5903    16054.009    2457.6662   -4851.0238    8158.6147    84.494194 
   32700    1144.5416   -109.09469    1.0356053   -108.05909   -143.25154    4.3863631    4.3863631    4.3863631   -143.25154   -18687.527    31002.981   -12745.208     1767.753   -21505.133   -6296.1543    84.394422 
   32800    1433.2279   -109.35735    1.2968147   -108.06054   -12604.313     4.405656     4.405656     4.405656   -12604.313   -10248.107   -9805.7002   -17759.133   -2947.6621    7719.2003   -5815.6595    85.512924 
   32900    1335.9543   -109.26079    1.2087995   -108.05199   -15737.166    4.3985753    4.3985753    4.3985753   -15737.166   -25962.658    -19892.09   -1356.7514   -1544.6174    -10837.28   -4893.3681    85.101279 
   33000     926.9505   -108.88918   0.83872429   -108.05045    29107.712    4.3865547    4.3865547    4.3865547    29107.712    38900.721    44216.916    4205.4986    2968.1529   -6547.6139   -1397.5316     84.40548 
   33100     1798.488   -109.67255    1.6273097   -108.04524   -24381.275     4.404953     4.404953     4.404953   -24381.275   -36256.572   -27728.211   -9159.0429    4755.4749    9809.2915   -3380.0727    85.471992 
   33200    1336.6183   -109.25653    1.2094003   -108.04713    2240.6584    4.3942969    4.3942969    4.3942969    2240.6584    16812.162   -5332.3092    -4757.878    9854.2588   -2428.8745   -439.31933    84.853195 
   33300    1587.3661   -109.48556    1.4362822   -108.04928      12040.7    4.3880401    4.3880401    4.3880401      12040.7   -15549.017    34236.684    17434.432   -6413.7506    -6410.151   -17328.074    84.491253 
   33400    1610.9108   -109.50939    1.4575859    -108.0518   -15214.744    4.4068947    4.4068947    4.4068947   -15214.744    7117.9079   -29417.995   -23344.144   -4545.3971    12676.719    4095.6571    85.585074 
   33500    1069.0173   -109.01545   0.96726934   -108.04818   -16191.258    4.3985114    4.3985114    4.3985114   -16191.258   -14820.589   -51650.284    17897.097     22453.27   -17042.327    4987.8857    85.097572 
   33600    1111.2224   -109.04971    1.0054574   -108.04425    22732.378    4.3908625    4.3908625    4.3908625    22732.378     9708.308     15603.15    42885.677   -656.94516    2647.4249   -13406.002    84.654398 
   33700    1695.5618   -109.57862      1.53418   -108.04444   -472.23574    4.3968788    4.3968788    4.3968788   -472.23574    1690.0132    988.03856    -4094.759   -486.06519    11319.754    3173.0331     85.00285 
   33800    1083.6599   -109.03766   0.98051822   -108.05714    2941.9115     4.396354     4.396354     4.396354    2941.9115   -12199.771   -17661.085    38686.591    9193.8308   -8038.1215   -6377.9707    84.972415 
   33900    1488.8767   -109.40281    1.3471669   -108.05564   -2617.2252    4.4031714    4.4031714    4.4031714   -2617.2252    10965.405    2591.5341   -21408.614    3658.6453    3444.4417    5064.6921    85.368325 
   34000     1441.983   -109.34766    1.3047366   -108.04292   -17105.722    4.4144663    4.4144663    4.4144663   -17105.722   -9064.9261   -44692.472    2440.2334   -2049.2753    14569.886    9522.6603    86.026971 
   34100    1216.0499   -109.13438    1.1003075   -108.03407   -27257.889    4.4111569    4.4111569    4.4111569   -27257.889    9871.4069   -77067.657   -14577.418    5100.8098    3502.2281    -9707.188    85.833638 
   34200    1597.3304   -109.47969    1.4452981    -108.0344   -5925.3254    4.3985489    4.3985489    4.3985489   -5925.3254    25434.197   -44008.287    798.11343    -1316.087   -4180.3096   -1044.6064     85.09975 
   34300    1829.2352   -109.70496    1.6551304   -108.04983   -18257.625    4.4101898    4.4101898    4.4101898   -18257.625   -48183.922   -37396.492     30807.54   -1426.0849   -8842.2852    5161.1424    85.777193 
   34400    1447.1893   -109.35233    1.3094473   -108.04288   -20202.217    4.4205004    4.4205004    4.4205004   -20202.217   -48887.756   -35934.717    24215.823   -6134.8366   -10608.539   -19212.715    86.380219 
   34500    1011.5959   -108.94139   0.91531321   -108.02607    21432.001    4.3981318    4.3981318    4.3981318    21432.001    13608.391   -21568.804    72256.415   -4471.1484    13009.219   -8593.2364     85.07554 
   34600      1056.02   -108.98628   0.95550911   -108.03078    7900.2651     4.392209     4.392209     4.392209    7900.2651   -21879.107    2404.8258    43175.076   -3627.9769   -9042.1325   -10968.243    84.732301 
   34700    762.26973   -108.74259   0.68971768   -108.05287   -17810.218    4.4125658    4.4125658    4.4125658   -17810.218   -47420.607   -18475.226    12465.179    -5360.532   -25426.736   -16238.381    85.915907 
   34800    1465.8937   -109.36461    1.3263715   -108.03824   -8540.9856    4.4065372    4.4065372    4.4065372   -8540.9856   -29144.976   -12487.051     16009.07    3815.4866    2094.5244    3167.0743    85.564244 
   34900    1556.9945    -109.4421    1.4088014    -108.0333    12399.162    4.3954881    4.3954881    4.3954881    12399.162   -34055.627    58727.746    12525.368     4679.023   -4472.4221   -423.63185    84.922219 
   35000    1345.7247   -109.25967      1.21764   -108.04203    9117.9506    4.4001031    4.4001031    4.4001031    9117.9506   -40108.113    50433.838    17028.126    786.14086    -9480.576   -19978.464    85.189987 
   35100    1386.1263   -109.28926    1.2541962   -108.03506   -11319.272    4.4089563    4.4089563    4.4089563   -11319.272   -11166.864   -4010.0779   -18780.873   -9824.8837    10603.733   -3404.8434    85.705242 
   35200    603.59697   -108.58876   0.54614722   -108.04261   -4234.8034    4.4040724    4.4040724    4.4040724   -4234.8034    -20215.93    17188.431   -9676.9113    9344.7411   -23942.153    3248.8717    85.420742 
   35300     963.4344   -108.90978   0.87173569   -108.03804    28774.051    4.3760466    4.3760466    4.3760466    28774.051    -11470.34    83112.199    14680.292    13730.038   -10906.857   -3590.2939    83.800348 
   35400    1316.1777   -109.25419    1.1909052   -108.06328   -22710.754    4.3944905    4.3944905    4.3944905   -22710.754   -28700.339    253.24768   -39685.171   -7468.0288    1191.1992   -8683.3425    84.864408 
   35500     1183.225   -109.12555    1.0706069   -108.05494   -65469.333    4.4220168    4.4220168    4.4220168   -65469.333   -70660.309   -48778.595   -76969.095    1092.9035   -12871.952    333.89229    86.469145 
   35600    1645.6091   -109.53588    1.4889817    -108.0469    7452.0367    4.3931553    4.3931553    4.3931553    7452.0367   -20910.744    50564.483   -7297.6287    6264.9814    8635.8772    -13100.94    84.787076 
   35700    1393.6581   -109.31329    1.2610112   -108.05228    35074.039    4.3798045    4.3798045    4.3798045    35074.039   -2549.8581    122939.19   -15167.211   -21700.225   -19705.407   -9451.2872     84.01642 
   35800    1563.7036   -109.49055    1.4148719   -108.07567    1822.7617    4.4026697    4.4026697    4.4026697    1822.7617   -15613.106    54792.009   -33710.618   -2183.0329   -10695.385     128.1479    85.339152 
   35900    1331.6461   -109.27252    1.2049014   -108.06762   -22017.014    4.4151568    4.4151568    4.4151568   -22017.014   -32841.258   -24430.427    -8779.358   -8795.2702   -3962.3735   -3071.4194    86.067342 
   36000    995.84323   -108.94962   0.90105988   -108.04856   -637.36834    4.3886162    4.3886162    4.3886162   -637.36834    -31340.82   -1513.2871    30942.003   -22814.939    -1447.948   -17812.642    84.524536 
   36100    1246.1057   -109.16991    1.1275026    -108.0424    11265.686    4.3801972    4.3801972    4.3801972    11265.686    4891.7755    35327.614   -6422.3313   -3072.0193    7568.8696    8613.3823    84.039019 
   36200    1039.1897   -109.00044   0.94028071   -108.06016   -15214.462     4.406914     4.406914     4.406914   -15214.462   -49564.372    5786.1757   -1865.1895   -261.83943   -13021.656    10475.203    85.586197 
   36300    1316.5388   -109.23822    1.1912319   -108.04699     11786.21    4.4070017    4.4070017    4.4070017     11786.21   -20349.557    37539.548    18168.638   -21963.892    -494.1365    3151.1371    85.591306 
   36400    1297.7335   -109.21214    1.1742165   -108.03793     33497.18    4.3979181    4.3979181    4.3979181     33497.18    4875.0413    101466.33    -5849.835   -14721.193    -544.5786    16990.864     85.06314 
   36500    1160.4128   -109.08972    1.0499658   -108.03975    2066.0232    4.3989013    4.3989013    4.3989013    2066.0232   -21303.258    27517.247   -15.919558   -23114.146    5645.2213    5878.8153    85.120206 
   36600    1124.6904   -109.05584    1.0176435   -108.03819    17872.677    4.3908985    4.3908985    4.3908985    17872.677   -20739.692    30786.658    43571.064   -19164.378     10980.15    13853.977     84.65648 
   36700    947.64516    -108.9141   0.85744926   -108.05665   -3255.1107    4.3996541    4.3996541    4.3996541   -3255.1107   -16866.723   -19087.308    26188.699   -4470.2983   -7221.1495    12156.845    85.163912 
   36800     1297.438   -109.22275    1.1739492   -108.04881   -24986.802     4.407883     4.407883     4.407883   -24986.802   -47746.482   -27757.823    543.89862   -23485.628    7618.7786    9806.2531    85.642667 
   36900    1604.8524   -109.48155    1.4521042   -108.02945    36178.723    4.3817822    4.3817822    4.3817822    36178.723   -4440.3145    1801.1918    111175.29   -4310.8057    6598.0259     6109.285    84.130283 
   37000    1475.7829   -109.38852    1.3353194    -108.0532   -10852.943    4.3964655    4.3964655    4.3964655   -10852.943   -7845.7744   -1920.4667   -22792.587   -9003.1766   -12008.644    16481.496    84.978879 
   37100     1060.471   -108.99956   0.95953646   -108.04002   -23345.889    4.4106023    4.4106023    4.4106023   -23345.889   -53289.184   -46524.693     29776.21   -20303.037    8894.4781    10081.568    85.801266 
   37200    1318.5294   -109.21797    1.1930331   -108.02494    4028.8134    4.3827557    4.3827557    4.3827557    4028.8134   -8042.4527    26304.229   -6175.3361    6463.3606    3511.9306    5930.6775    84.186373 
   37300    836.66674   -108.80264   0.75703365    -108.0456    1934.5616    4.3828195    4.3828195    4.3828195    1934.5616   -8601.6131    34033.409   -19628.111   -9316.6992   -14692.011   -6738.1361    84.190047 
   37400    1776.3515   -109.65293    1.6072801   -108.04565   -21284.115    4.3977276    4.3977276    4.3977276   -21284.115   -43690.993   -21830.945    1669.5941   -6331.9379    13548.289    15605.265    85.052085 
   37500    1720.6593   -109.60198    1.5568887    -108.0451   -3944.3368    4.4041633    4.4041633    4.4041633   -3944.3368    -13517.95    2041.4545   -356.51462    11815.443    4197.3973    5112.2216    85.426035 
   37600    1299.0766   -109.22257    1.1754318   -108.04714   -11218.268    4.3922349    4.3922349    4.3922349   -11218.268   -34399.931    12237.701   -11492.575   -8876.5929   -7223.5902   -14271.087    84.733798 
   37700    1291.0913   -109.20609    1.1682066   -108.03788    9122.7107    4.3726295    4.3726295    4.3726295    9122.7107   -5511.8839   -15611.229    48491.245    2339.5869    13760.764   -1136.4516    83.604191 
   37800    862.36042   -108.84095   0.78028183   -108.06067    7215.0429    4.3949264    4.3949264    4.3949264    7215.0429   -17524.692   -17015.283    56185.103   -1392.6819    449.23014    4939.8814    84.889667 
   37900    1062.0954   -109.00722   0.96100623   -108.04621   -19456.994    4.4151888    4.4151888    4.4151888   -19456.994   -53816.604   -20639.924    16085.547   -18103.505    369.18209   -320.72042    86.069215 
   38000    1358.5556   -109.25558    1.2292497   -108.02633    19344.853    4.3995584    4.3995584    4.3995584    19344.853   -36872.385    26998.474     67908.47    12617.867    17590.974    16745.587    85.158355 
   38100    1493.9706   -109.38023     1.351776   -108.02845    22504.358    4.3864685    4.3864685    4.3864685    22504.358   -5574.1449    41413.546    31673.672   -16125.736    2705.0281    21794.421    84.400506 
   38200    1197.3243   -109.12553    1.0833642   -108.04217    11815.023    4.4024177    4.4024177    4.4024177    11815.023   -14715.514    28921.493     21239.09   -17104.196     5117.848    10437.081      85.3245 
   38300    953.73132   -108.89876   0.86295614   -108.03581   -10612.984    4.4080336    4.4080336    4.4080336   -10612.984   -30932.088    5340.8195   -6247.6844   -5879.2751    17063.306    7676.1323    85.651446 
   38400     972.8728   -108.90959   0.88027575   -108.02932   -6939.2488    4.3969525    4.3969525    4.3969525   -6939.2488   -17522.555   -33204.923    29909.732   -18934.665    3139.9494    9604.2763    85.007124 
   38500    1372.1109   -109.27554    1.2415148   -108.03402     347.8266    4.3909912    4.3909912    4.3909912     347.8266    -14001.99     10780.02    4265.4496    11524.548    10733.517    586.47704    84.661838 
   38600    1312.2937   -109.23113     1.187391   -108.04374    21276.978    4.3849615    4.3849615    4.3849615    21276.978   -5284.9786    54339.616    14776.298   -13934.425    20557.814   -1293.7796    84.313545 
   38700    1762.4418    -109.6447    1.5946944   -108.05001   -11474.288    4.4021072    4.4021072    4.4021072   -11474.288   -7083.9509   -27866.646    527.73475   -4205.9931    685.49614    7773.6881    85.306445 
   38800    1051.9277   -108.99937   0.95180633   -108.04756   -10394.007    4.3989036    4.3989036    4.3989036   -10394.007   -44897.012    17640.791   -3925.8007    15373.588    9179.2638    4407.1417    85.120335 
   38900    803.56263   -108.76556   0.72708035   -108.03848    24420.983    4.3737454    4.3737454    4.3737454    24420.983    39941.593    7406.2647    25915.091   -15276.578    18668.621     927.4991    83.668212 
   39000    1156.8919   -109.09681    1.0467801   -108.05003   -17148.738     4.392159     4.392159     4.392159   -17148.738   -15552.264   -48962.754    13068.804    12640.896   -4364.5162   -3111.6008    84.729403 
   39100    1217.1746   -109.14549    1.1013252   -108.04417   -21174.683     4.397628     4.397628     4.397628   -21174.683   -9597.2659   -21453.549   -32473.235     9555.875    16592.784    6790.0171    85.046308 
   39200    1666.6829   -109.54662    1.5080497   -108.03857    21085.598    4.3817805    4.3817805    4.3817805    21085.598    32752.532    47294.053    -16789.79   -22526.079    16897.627    5800.3968    84.130189 
   39300    1568.2127   -109.47067    1.4189518   -108.05172    11179.419    4.3860524    4.3860524    4.3860524    11179.419    15691.475    10427.178    7419.6046      19935.3   -3299.0727   -6480.0431    84.376487 
   39400    1050.6785   -109.00679   0.95067598   -108.05611    6361.5722    4.3991576    4.3991576    4.3991576    6361.5722    8722.4915    30175.268   -19813.043   -1150.1873    19535.118    1300.3026    85.135085 
   39500    1379.7745   -109.28479     1.248449   -108.03635   -22650.397    4.4030775    4.4030775    4.4030775   -22650.397   -24019.381   -22224.159   -21707.652   -6113.3852    3081.8459    -8535.177    85.362866 
   39600    690.93715   -108.66328   0.62517445   -108.03811   -7489.9211    4.3827278    4.3827278    4.3827278   -7489.9211   -19506.483    -26741.52    23778.239    23012.198   -8313.3433    4625.1127    84.184765 
   39700    1429.7977   -109.34017     1.293711   -108.04646    16060.618    4.3839664    4.3839664    4.3839664    16060.618    49390.435    7866.8948   -9075.4741   -5020.1181    16563.982   -11224.576    84.256157 
   39800    1644.6726   -109.53412    1.4881344   -108.04599   -12763.357    4.4054516    4.4054516    4.4054516   -12763.357   -15896.715    9395.9447   -31789.301    8061.1239   -14131.685    1537.4847    85.501021 
   39900     1255.235   -109.18555     1.135763   -108.04979    4205.6459    4.3820979    4.3820979    4.3820979    4205.6459    14536.334   -11167.773    9248.3762    13504.105   -5140.5274    1489.8101    84.148472 
   40000    1717.5389   -109.59381    1.5540653   -108.03974     38530.54    4.3694561    4.3694561    4.3694561     38530.54    20215.075    74773.141    20603.403    4138.8137    12588.024   -3710.7232    83.422296 
   40100    972.26179   -108.94083    0.8797229   -108.06111   -9886.5008    4.3937483    4.3937483    4.3937483   -9886.5008   -2263.1248   -16596.232   -10800.146    10227.306   -10803.979    10220.612    84.821417 
   40200    837.25874   -108.80813    0.7575693   -108.05057   -19859.522    4.3968694    4.3968694    4.3968694   -19859.522   -12610.074    -55381.53    8413.0388    11030.032   -2108.5463   -8462.6686    85.002304 
   40300    1325.3056   -109.23506    1.1991643   -108.03589     18021.76    4.3883371    4.3883371    4.3883371     18021.76    34623.276    13674.218    5767.7871   -12328.978   -1669.1188   -3709.6695    84.508414 
   40400    1116.2306   -109.05922    1.0099889   -108.04923   -4987.7595     4.388154     4.388154     4.388154   -4987.7595   -13844.801    17697.439   -18815.916     18271.12   -16392.949     -3530.45    84.497837 
   40500    1783.5547   -109.66364    1.6137977   -108.04984    10346.282    4.3887299    4.3887299    4.3887299    10346.282    32353.566    8186.0331   -9500.7524    13904.994    4687.5638   -606.84626    84.531105 
   40600     1663.962   -109.55573    1.5055878   -108.05015    -8946.921    4.3975887    4.3975887    4.3975887    -8946.921   -16666.248    22401.651   -32576.167   -16662.496   -11685.765   -4044.2663    85.044026 
   40700    910.60791   -108.87907   0.82393718   -108.05513   -15638.431    4.3832761    4.3832761    4.3832761   -15638.431    -5015.361   -21030.519   -20869.413    27127.997   -12518.105     -612.977    84.216365 
   40800    1499.5206   -109.40123    1.3567978   -108.04443    1637.4301    4.3726206    4.3726206    4.3726206    1637.4301     11904.13   -12682.897    5691.0572     301.5732    7855.7681   -7065.2263     83.60368 
   40900    772.34648   -108.76084   0.69883533     -108.062    2336.4664    4.3953801    4.3953801    4.3953801    2336.4664    49901.735   -31480.686    -11411.65   -4943.7958    1959.5502    1748.0834    84.915958 
   41000    1309.0866   -109.23058    1.1844891   -108.04609   -21107.389    4.4045731    4.4045731    4.4045731   -21107.389       -30388   -18952.328   -13981.839    22993.023   -9761.7525    2258.7645     85.44988 
   41100    1671.8305   -109.54141    1.5127074    -108.0287    11409.014    4.3840027    4.3840027    4.3840027    11409.014    26269.959    20420.306   -12463.224   -9795.1706    6780.3596   -13369.584     84.25825 
   41200    1268.9413   -109.19051    1.1481648   -108.04234   -4361.9439    4.3752753    4.3752753    4.3752753   -4361.9439   -23465.227    15543.871   -5164.4753   -5086.8752   -6778.3672    7470.3675    83.756046 
   41300    1531.2019   -109.43907    1.3854636    -108.0536    456.69783    4.3875903    4.3875903    4.3875903    456.69783    4550.3539    13019.781   -16200.042    5783.1493     -2962.38    9813.0343    84.465275 
   41400    1354.8038   -109.28418     1.225855   -108.05833   -38595.637    4.4084757    4.4084757    4.4084757   -38595.637   -50975.333   -10756.616   -54054.962    49.719995    12467.831   -2429.3555    85.677219 
   41500    685.12627   -108.67938   0.61991665   -108.05946   -18620.427    4.3905671    4.3905671    4.3905671   -18620.427   -16689.697   -26834.671   -12336.913    6172.1077   -24793.585    2705.7404    84.637308 
   41600    1522.7402   -109.40499    1.3778073   -108.02718    27098.046    4.3558975    4.3558975    4.3558975    27098.046    37704.903     1933.158    41656.078    2395.0547    8844.6194   -6244.4585    82.648114 
   41700    932.06514   -108.91846   0.84335213   -108.07511    -13006.95    4.3923589    4.3923589    4.3923589    -13006.95   -31565.011    12794.952   -20250.791   -10462.441    13253.993    9715.2081    84.740974 
   41800    1312.5123   -109.23595    1.1875887   -108.04836   -20807.565     4.406286     4.406286     4.406286   -20807.565   -34164.428   -4806.5762    -23451.69    4861.1368   -23253.666    5387.0223    85.549614 
   41900     1487.921   -109.37895    1.3463022   -108.03265    24434.258    4.3843027    4.3843027    4.3843027    24434.258    50468.709    17035.055    5799.0103   -3307.6479    13916.348   -15998.494    84.275549 
   42000    1298.6502   -109.22141     1.175046   -108.04636   -9179.9924     4.385499     4.385499     4.385499   -9179.9924   -44492.438    50117.042   -33164.582   -1056.8927    2611.7109    902.40302    84.344555 
   42100    1450.5058   -109.36347    1.3124481   -108.05103    8775.1245    4.3871399    4.3871399    4.3871399    8775.1245    14193.548    7060.2831    5071.5425    9254.9439   -19465.223    12401.573    84.439268 
   42200    1269.2586   -109.20213    1.1484518   -108.05367    -1884.958    4.4044812    4.4044812    4.4044812    -1884.958   -20006.649   -14715.563    29067.338   -1802.2942    17709.019   -354.85551    85.444536 
   42300    875.44304   -108.83508   0.79211926   -108.04297   -13403.078    4.4067603    4.4067603    4.4067603   -13403.078   -55345.223    2213.7271    12922.261   -6159.6935   -18834.694    -11513.22    85.577241 
   42400     1258.483   -109.16771    1.1387019     -108.029     9082.296    4.3865941    4.3865941    4.3865941     9082.296   -2574.5944   -17429.919    47251.402   -6795.6189   -9434.2712    545.55094    84.407754 
   42500    1397.1396   -109.30141    1.2641613   -108.03725    852.30808    4.3842157    4.3842157    4.3842157    852.30808   -19271.484     4238.891    17589.518    -1117.249    5120.4444   -4630.4792    84.270534 
   42600    978.44213   -108.94026     0.885315   -108.05495   -18631.904    4.3994405    4.3994405    4.3994405   -18631.904   -56928.379    40727.901   -39695.236    1578.2542    -35183.89   -3477.8528    85.151511 
   42700    1756.7466   -109.62503    1.5895412   -108.03549   -25786.387    4.3974899    4.3974899    4.3974899   -25786.387   -43130.248   -17837.732   -16391.181   -5099.9301    7657.3328   -9635.5599    85.038298 
   42800    1249.8771   -109.16995    1.1309151   -108.03904   -9445.5564    4.3848642    4.3848642    4.3848642   -9445.5564   -39165.037     18051.07    -7222.702   -15941.518   -6384.0995   -8002.1413    84.307932 
   42900      1084.11   -109.02761   0.98092552   -108.04668    11176.866    4.3858541    4.3858541    4.3858541    11176.866   -17926.206    57553.987   -6097.1838   -1084.3407   -39923.579    3365.4003    84.365047 
   43000    1653.0265   -109.53947    1.4956931   -108.04378   -15650.373    4.3938673    4.3938673    4.3938673   -15650.373   -13091.622   -30858.348   -3001.1506    4676.2618     9281.949   -13669.921    84.828311 
   43100    698.99146    -108.6927   0.63246216   -108.06024   -9436.5507    4.3889812    4.3889812    4.3889812   -9436.5507   -25619.694    -11804.31     9114.351   -6426.5897   -19960.294   -5659.7418    84.545629 
   43200    1398.1705   -109.31666    1.2650941   -108.05157    5589.5536    4.3820547    4.3820547    4.3820547    5589.5536   -21258.823    10908.605    27118.879   -4173.3782   -13456.209    4371.9121     84.14598 
   43300     1341.195   -109.27277    1.2135414   -108.05923   -968.93962    4.3889925    4.3889925    4.3889925   -968.93962   -29136.417    52.702104    26176.896   -971.15356   -771.69321   -3043.7247    84.546284 
   43400    1110.2475   -109.06516    1.0045753   -108.06059   -12225.164    4.3992633    4.3992633    4.3992633   -12225.164   -77144.872    18419.499    22049.882   -5006.7245   -26070.153    6461.0178    85.141221 
   43500    1607.7935   -109.49477    1.4547653      -108.04     1258.561    4.3994091    4.3994091    4.3994091     1258.561   -37062.478     13992.02    26846.141    7268.3603    12135.373    5332.4144    85.149684 
   43600    1307.0989   -109.22275    1.1826906   -108.04006    24061.882    4.3764716    4.3764716    4.3764716    24061.882    25008.175    27039.167    20138.302    3450.9065   -23436.623    7271.6482    83.824766 
   43700    1205.1758   -109.14923    1.0904684   -108.05876   -5868.1816    4.3888245    4.3888245    4.3888245   -5868.1816   -21572.479   -6552.9492    10520.883   -12940.981   -13486.894   -3522.7085    84.536571 
   43800    1482.3533   -109.38442    1.3412644   -108.04316   -23051.958    4.4112885    4.4112885    4.4112885   -23051.958   -20066.933   -49270.808    181.86745    4415.7387    9784.6304    11892.141    85.841322 
   43900    963.43127   -108.90774   0.87173286     -108.036     3190.785    4.3946806    4.3946806    4.3946806     3190.785   -726.70185   -10389.456    20688.513     585.8106   -30373.342   -4432.0234     84.87542 
   44000    1468.2786   -109.36223    1.3285294    -108.0337    6612.8626    4.3815468    4.3815468    4.3815468    6612.8626   -28071.192    9154.8196     38754.96    1967.7631    6842.4784   -8348.6556    84.116728 
   44100    1775.3072   -109.64981    1.6063352   -108.04348   -5789.3802    4.3859819    4.3859819    4.3859819   -5789.3802   -28495.662   -3968.0843    15095.606   -2733.8879   -38.064087    6399.7477    84.372419 
   44200    1208.4156   -109.15263    1.0933998   -108.05923    4773.5424    4.3970185    4.3970185    4.3970185    4773.5424   -10320.504     2952.611     21688.52   -12564.361   -31013.355   -4384.0977    85.010954 
   44300    1580.6259   -109.46726    1.4301835   -108.03707   -19715.415    4.4038907    4.4038907    4.4038907   -19715.415   -21256.059   -32410.328   -5479.8576    4690.2189    12554.334   -20.606794    85.410172 
   44400    947.80197    -108.9009   0.85759114   -108.04331   -8036.1858    4.3793326    4.3793326    4.3793326   -8036.1858   -11487.544    -29352.08    16731.067    4154.0327   -10009.033    7851.1114    83.989266 
   44500     1028.265   -108.98365   0.93039577   -108.05325   -7016.4213    4.3742564    4.3742564    4.3742564   -7016.4213    606.72054   -17372.935   -4283.0493   -5905.2998   -24497.196   -872.21897    83.697543 
   44600    1450.8269   -109.36728    1.3127387   -108.05454   -556.23259    4.3962658    4.3962658    4.3962658   -556.23259    13802.561    -14332.44   -1138.8191   -125.18835    7693.7126    5958.5172    84.967301 
   44700    1284.0493   -109.21081    1.1618348   -108.04898   -14176.881    4.4041658    4.4041658    4.4041658   -14176.881   -16697.524   -5040.9568   -20792.163     9.828318   -18191.253   -3854.8352    85.426181 
   44800    1828.8963   -109.68988    1.6548238   -108.03506    383.82984    4.3825017    4.3825017    4.3825017    383.82984    12090.778    10117.271    -21056.56   -451.05191   -5059.1518   -8980.9352    84.171736 
   44900    1624.2792   -109.51123    1.4696819   -108.04155    31798.412    4.3688196    4.3688196    4.3688196    31798.412    41629.801    30579.753    23185.682   -7118.3436    154.98173    13164.511    83.385848 
   45000    1199.6872   -109.14458    1.0855022   -108.05907    -28154.79    4.3962957    4.3962957    4.3962957    -28154.79    -15014.35   -40703.484   -28746.535     549.1032   -19499.936    2947.0968    84.969034 
   45100    1082.9016    -109.0284    0.9798321   -108.04857   -27965.161    4.4036171    4.4036171    4.4036171   -27965.161   -10534.179   -72036.647   -1324.6574    1179.1295    5848.1342   -5509.7864    85.394254 
   45200      1046.96   -108.99026   0.94731144   -108.04295    11118.767    4.3735719    4.3735719    4.3735719    11118.767     35313.78    -5040.911    3083.4303   -10537.175   -4084.5562    12689.507    83.658255 
   45300    1038.1481   -108.99537    0.9393382   -108.05603    24601.237    4.3738871    4.3738871    4.3738871    24601.237    41294.514    21489.992    11019.207   -3591.5914   -15984.958    4938.4756    83.676345 
   45400     1641.001   -109.54008    1.4848121   -108.05527    -17407.49    4.3997331    4.3997331    4.3997331    -17407.49   -6730.0237   -29712.232   -15780.216     5248.551    7234.3094    284.28832    85.168497 
   45500    1336.5226   -109.25864    1.2093137   -108.04933   -4913.2211      4.39787      4.39787      4.39787   -4913.2211    31327.231   -311.35282   -45755.542     976.5392   -18588.731    16124.831    85.060352 
   45600    1916.7026   -109.77103    1.7342728   -108.03676    3154.5324    4.3799678    4.3799678    4.3799678    3154.5324     1332.971     4255.595    3875.0312   -16562.199   -7305.8772   -11876.754    84.025816 
   45700    1476.6217   -109.38677    1.3360783   -108.05069    7756.2848    4.3778338    4.3778338    4.3778338    7756.2848    38322.548   -1889.1188   -13164.575    1573.9735    6406.2617    18529.973    83.903061 
   45800    1047.5547   -109.01091   0.94784954   -108.06306   -1178.2439    4.3940726    4.3940726    4.3940726   -1178.2439    197.48082    4552.4548   -8284.6674    6945.4234   -31371.291    5878.8146      84.8402 
   45900    1246.4405   -109.16728    1.1278055   -108.03947    6193.2604    4.3983336    4.3983336    4.3983336    6193.2604    21150.238   -4659.6958    2089.2387   -7124.7659    8571.1014   -8139.5248    85.087252 
   46000    924.22645   -108.87729   0.83625952   -108.04103    3058.2715    4.3812461    4.3812461    4.3812461    3058.2715     32050.82   -3980.7654   -18895.241   -1939.5299   -13420.304    17305.056    84.099411 
   46100    1483.9969   -109.38815    1.3427515    -108.0454    546.35121    4.3774833    4.3774833    4.3774833    546.35121   -2531.4863   -2979.3313    7149.8712    10553.053   -24338.477   -7957.3404    83.882911 
   46200    1937.4731   -109.80281    1.7530664   -108.04974    1385.0034    4.3894733    4.3894733    4.3894733    1385.0034    21210.132    -12195.77   -4859.3513   -4737.4666    11564.017    6531.5118    84.574071 
   46300    1140.6646    -109.0887    1.0320973    -108.0566   -13633.122    4.3985114    4.3985114    4.3985114   -13633.122    2301.5989   -14210.252   -28990.714   -7332.5052   -32806.173     16815.19    85.097574 
   46400    1547.0175   -109.44333     1.399774   -108.04355    -15726.58    4.3843306    4.3843306    4.3843306    -15726.58   -26561.314   -28161.842    7543.4168    6020.4291   -6522.1068    -7596.751    84.277156 
   46500    1101.3562   -109.04285    0.9965302   -108.04632    23674.476    4.3700826    4.3700826    4.3700826    23674.476    39513.895    1427.8703    30081.662     4817.739     8504.744    7809.9927    83.458186 
   46600    627.82578   -108.63477   0.56806996    -108.0667   -5877.0915    4.3909141    4.3909141    4.3909141   -5877.0915   -6566.2558   -6500.9699   -4564.0489   -5994.7164   -31581.437     9672.404     84.65738 
   46700    1748.5496   -109.63289    1.5821244   -108.05076   -27742.533    4.3965924    4.3965924    4.3965924   -27742.533   -27829.321   -45604.328   -9793.9498    4378.3028    7960.8045   -6141.7269    84.986242 
   46800    1435.1258   -109.35013     1.298532   -108.05159    8412.9215    4.3747006    4.3747006    4.3747006    8412.9215    28194.951   -9351.2441    6395.0575    4243.6909    1406.3665    18793.005    83.723041 
   46900    1525.5559   -109.44251    1.3803551   -108.06215   -15788.081    4.3796364    4.3796364    4.3796364   -15788.081   -22654.407    2266.1684   -26976.005    9848.9201   -21233.121    20058.724    84.006749 
   47000    1635.9696   -109.53204    1.4802597   -108.05178   -21994.332    4.3944047    4.3944047    4.3944047   -21994.332   -40955.186   -27642.004    2614.1929    20931.956    1565.2711    2109.7868    84.859436 
   47100    880.19418   -108.84812    0.7964182    -108.0517   -14835.047    4.3890202    4.3890202    4.3890202   -14835.047   -21914.903   -27479.646    4889.4089    -7908.269   -4991.6136    17416.729    84.547885 
   47200    1080.3467    -109.0285   0.97752042   -108.05098   -3538.9754    4.3842966    4.3842966    4.3842966   -3538.9754   -74.783989   -21901.193     11359.05    13870.881   -1800.2464    921.94393      84.2752 
   47300    1540.9077   -109.44567    1.3942457   -108.05142    8054.4111    4.3800959    4.3800959    4.3800959    8054.4111    8701.2118   -8750.4174    24212.439    17315.219   -595.42438    1156.9507    84.033194 
   47400    1504.6918   -109.42299    1.3614768   -108.06151    1681.9975    4.3801033    4.3801033    4.3801033    1681.9975    18174.381   -10566.063   -2562.3262   -7763.7129    -13555.52     11033.24    84.033617 
   47500    1477.6269   -109.39647    1.3369879   -108.05948   -8198.5877    4.3941529    4.3941529    4.3941529   -8198.5877   -5669.3627   -21871.892    2945.4918    16784.651    1391.4944   -5806.6358    84.844849 
   47600    1395.6136   -109.31169    1.2627805   -108.04891   -4740.1545    4.3875176    4.3875176    4.3875176   -4740.1545   -37863.849    -1597.448    25240.833    10344.428   -5151.5268    73.329564    84.461076 
   47700    994.96185   -108.94848   0.90026239   -108.04822   -10122.953    4.3777224    4.3777224    4.3777224   -10122.953   -37793.522    4148.9086    3275.7553   -522.54379   -18850.873    15014.158    83.896657 
   47800    1179.9635   -109.12335    1.0676558    -108.0557   -11656.947    4.3892343    4.3892343    4.3892343   -11656.947   -35720.507   -23808.884    24558.551    15687.895    -3623.994   -9748.3747    84.560258 
   47900    1752.7302   -109.63222    1.5859071   -108.04631    -9684.553     4.391361     4.391361     4.391361    -9684.553   -1136.9557    -23531.61   -4385.0929    2914.2341    -10463.66   -7117.8736     84.68323 
   48000      1434.44   -109.34643    1.2979115   -108.04852    10139.071    4.3850049    4.3850049    4.3850049    10139.071    11334.468     8188.172    10894.573    5952.1891   -17752.978    17377.489    84.316049 
   48100    1624.2342   -109.51448    1.4696413   -108.04484   -1837.2762    4.3915943    4.3915943    4.3915943   -1837.2762     6396.994   -9418.8097   -2490.0128    10161.516    5123.7282     -14255.7    84.696726 
   48200    1202.4185   -109.13088    1.0879735   -108.04291   -3198.4876    4.3931381    4.3931381    4.3931381   -3198.4876   -6302.0676     2242.579   -5535.9741   -3270.7836   -9888.6125   -2698.2085    84.786085 
   48300    1004.1567   -108.95272    0.9085821   -108.04413    720.60349    4.3855066    4.3855066    4.3855066    720.60349    -5164.294    2520.3906    4805.7139    7801.5947   -15396.823    14451.662    84.344991 
   48400    1326.6757   -109.24437    1.2004041   -108.04396   -10900.833    4.3906025    4.3906025    4.3906025   -10900.833   -30912.177   -3997.2776    2206.9542    9532.3559    6379.3571   -20435.759    84.639356 
   48500    1523.6259   -109.42373    1.3786088   -108.04512   -7640.0125    4.3947499    4.3947499    4.3947499   -7640.0125   -8924.9659   -21028.891    7033.8198   -2748.4017   -10297.531    982.00342    84.879436 
   48600     1760.535   -109.63434    1.5929691   -108.04137   -1990.8065    4.3930823    4.3930823    4.3930823   -1990.8065    14028.747    5838.1962   -25839.362    9890.5367   -18020.365    6125.6027    84.782849 
   48700    1550.9518   -109.44587    1.4033338   -108.04253   -808.30749    4.3936392    4.3936392    4.3936392   -808.30749     16474.56   -9898.5314   -9000.9511    13614.288    1202.8479   -16757.811    84.815098 
   48800    1098.9285   -109.03907   0.99433363   -108.04473    1484.0088     4.394839     4.394839     4.394839    1484.0088   -15627.069    30129.818   -10050.723    800.88518   -11646.341    6772.0445      84.8846 
   48900    962.48118   -108.90722    0.8708732   -108.03635   -1817.9644    4.4057909    4.4057909    4.4057909   -1817.9644   -9131.2328    13954.733   -10277.393    12498.816   -8108.7328    1763.7259    85.520778 
   49000    1243.4205    -109.1584     1.125073   -108.03333   -8995.7404    4.3975998    4.3975998    4.3975998   -8995.7404    162.68648   -20880.088     -6269.82     11439.19   -4908.4849   -2178.6576    85.044671 
   49100    1404.2596   -109.30255    1.2706036   -108.03195    20112.167    4.3835189    4.3835189    4.3835189    20112.167    37866.452     11139.49    11330.559    9239.2436   -28989.326    10610.262    84.230357 
   49200    1910.4454   -109.76592    1.7286112   -108.03731    1753.3769    4.3987865    4.3987865    4.3987865    1753.3769    18817.487   -33948.558    20391.202    3869.9783    4899.0788     1697.484    85.113538 
   49300    1096.6769   -109.03086    0.9922963   -108.03856   -22189.696    4.4079946    4.4079946    4.4079946   -22189.696   -13124.425    -29187.91   -24256.752    195.47676   -20639.098   -3567.9394    85.649169 
   49400    1165.7166   -109.08584    1.0547649   -108.03108   -447.68939    4.3941411    4.3941411    4.3941411   -447.68939    13754.871   -172.74154   -14925.197    14929.982   -2555.4013    7246.4958    84.844166 
   49500    1223.4666   -109.14064    1.1070183   -108.03362     3619.943    4.3830691    4.3830691    4.3830691     3619.943   -11463.898    14861.932    7461.7955   -5660.4997    12.188361    856.73244    84.204431 
   49600    1012.7098   -108.97353   0.91632112   -108.05721    3532.5772    4.3867514    4.3867514    4.3867514    3532.5772    24997.557    15824.181   -30224.007   -5224.7489   -18960.746    4885.7277    84.416833 
   49700    1906.0284   -109.77691    1.7246146    -108.0523   -8940.2942    4.4032717    4.4032717    4.4032717   -8940.2942    6026.0257    -1136.772   -31710.136      83.1899    8955.4078     8361.999    85.374161 
   49800    1551.2351   -109.45399    1.4035901    -108.0504   -6774.4738    4.3944034    4.3944034    4.3944034   -6774.4738    -3288.715    12353.152   -29387.858   -8255.5301   -3754.0075    1021.6275    84.859362 
   49900    1024.9576   -108.97607   0.92740314   -108.04866    9909.9796    4.3800215    4.3800215    4.3800215    9909.9796    35288.972    26353.912   -31912.945   -15238.291   -5200.1967    11607.329    84.028907 
   50000    1344.0868   -109.26481     1.216158   -108.04866   -3777.4407    4.3956694    4.3956694    4.3956694   -3777.4407   -27829.761    27793.535   -11296.096   -5467.4962    6519.8729    3661.5079    84.932726 
   50100    664.29917    -108.6548   0.60107185   -108.05373   -12388.996     4.406137     4.406137     4.406137   -12388.996   -31465.024    25475.586   -31177.551    1607.6317   -4277.5882   -10699.808    85.540937 
   50200    1514.9769   -109.41106    1.3707829   -108.04028   -5126.6925     4.386436     4.386436     4.386436   -5126.6925    18237.342   -4168.8005   -29448.619   -16381.474    2216.0757    10149.809    84.398632 
   50300    1798.2028   -109.66895    1.6270517    -108.0419    27397.788    4.3788726    4.3788726    4.3788726    27397.788    21844.864    17382.577    42965.925    -5227.273   -10546.218   -8893.1685    83.962802 
   50400    1311.0922   -109.24865    1.1863038   -108.06235   -4907.4894     4.391722     4.391722     4.391722   -4907.4894    3267.3433   -98.890244   -17890.921   -258.53946   -520.09146   -15429.081     84.70412 
   50500    1247.7282   -109.18533    1.1289707   -108.05636    2403.4269    4.3951863    4.3951863    4.3951863    2403.4269    12583.403   -18560.666    13187.544    9559.8256    7064.0147    15472.857    84.904728 
   50600    1324.0081    -109.2416    1.1979904   -108.04361   -15932.002    4.3982435    4.3982435    4.3982435   -15932.002   -27866.375   -13955.335   -5974.2954    2716.7315   -15249.279   -8249.0187    85.082023 
   50700    765.98875   -108.73945   0.69308272   -108.04637    16017.635    4.3777956    4.3777956    4.3777956    16017.635    10585.231     47839.89   -10372.217   -11699.538    -5494.176   -9499.4019    83.900868 
   50800    1505.3929   -109.41736    1.3621111   -108.05525    1349.2154    4.3807389    4.3807389    4.3807389    1349.2154   -677.50356     -16902.3     21627.45    11002.032    7184.8093    9401.0671    84.070205 
   50900    1567.7866   -109.47338    1.4185662   -108.05481   -10551.863    4.4014839    4.4014839    4.4014839   -10551.863   -20841.932    25259.948   -36073.605    1523.7737   -6533.8934   -4640.8137    85.270217 
   51000    1119.3479   -109.07087    1.0128095   -108.05806    10668.649    4.3858012    4.3858012    4.3858012    10668.649    38950.671    26573.394   -33518.119   -2305.8899    3409.6624    2811.0104     84.36199 
   51100    1150.0557   -109.10209    1.0405946    -108.0615   -8344.9386    4.3834569    4.3834569    4.3834569   -8344.9386    22306.304   -7126.5369   -40214.583   -11338.019    1491.8006    11355.964    84.226783 
   51200    1331.5717   -109.26108     1.204834   -108.05625    781.72097    4.3878541    4.3878541    4.3878541    781.72097   -6238.1036    54092.456   -45509.189    563.27408   -943.84801    880.08757     84.48051 
   51300    1606.5131   -109.51049    1.4536068   -108.05688    4948.9234    4.3863711    4.3863711    4.3863711    4948.9234    19856.078   -5109.5988    100.29131    6599.9105    11084.846    2795.4483    84.394884 
   51400    1555.7466   -109.46161    1.4076722   -108.05393   -21161.039    4.3988081    4.3988081    4.3988081   -21161.039   -21206.769   -35510.607   -6765.7419   -12795.586   -9955.8967    8591.4332    85.114792 
   51500     1120.177   -109.06529    1.0135597   -108.05173    4508.0775    4.3825706    4.3825706    4.3825706    4508.0775   -6519.8375    43991.108   -23947.038   -8732.4687    2795.7532    15356.075    84.175708 
   51600    1265.8481   -109.19688     1.145366   -108.05152    8327.9326    4.3715783    4.3715783    4.3715783    8327.9326    26969.755    16056.183    -18042.14   -263.02038    18800.519    735.42985    83.543907 
   51700    1025.9378   -108.98916   0.92829005   -108.06087   -25337.113    4.4040546    4.4040546    4.4040546   -25337.113   -15273.768    -19812.67   -40924.901   -13456.521   -9368.9986    2231.2559     85.41971 
   51800     1141.417   -109.08325    1.0327781   -108.05047   -11060.717    4.3952716    4.3952716    4.3952716   -11060.717   -21714.671    12798.426   -24265.905    -4952.066    3454.6183    8929.4152    84.909671 
   51900    1715.1106   -109.59289    1.5518681   -108.04102    26108.435    4.3716324    4.3716324    4.3716324    26108.435    28442.177    21311.165    28571.963     -5510.23    14051.158     4804.004    83.547008 
   52000    1978.5883   -109.84522    1.7902683   -108.05495   -2002.0863    4.3876105    4.3876105    4.3876105   -2002.0863   -3293.5851     2480.918   -5193.5918    620.94313   -6635.7625   -7270.3058    84.466439 
   52100    1107.9551   -109.06517    1.0025011   -108.06267   -4895.4976    4.3945518    4.3945518    4.3945518   -4895.4976    14223.555     18690.73   -47600.778   -6413.3134     10432.09    5947.0696    84.867962 
   52200    1043.3706   -108.99873   0.94406368   -108.05467    1801.1178    4.3936175    4.3936175    4.3936175    1801.1178    27865.438     27255.01   -49717.094   -1192.2905   -4288.7201    8284.1803     84.81384 
   52300    1346.1507   -109.26135    1.2180255   -108.04332    453.74899    4.3850763    4.3850763    4.3850763    453.74899    15010.208    32035.881   -45684.842   -7940.0852   -708.71526   -4985.1125    84.320168 
   52400    1147.3517   -109.09469    1.0381479   -108.05654    1934.7359     4.382791     4.382791     4.382791    1934.7359    8278.2834    32386.756   -34860.832   -8540.0068    13110.807    9811.4486    84.188405 
   52500    1704.1481   -109.59157     1.541949   -108.04962   -12271.186     4.400104     4.400104     4.400104   -12271.186   -15427.222   -13947.931   -7438.4031    4795.1704   -8085.7506    8051.3709    85.190039 
   52600    1576.1549   -109.46947     1.426138   -108.04333    12931.748    4.3874585    4.3874585    4.3874585    12931.748   -3615.0949    37825.711    4584.6281    6143.1524    14757.932    -8202.032    84.457662 
   52700    1349.0516   -109.27158    1.2206503   -108.05093    -4773.972    4.3750637    4.3750637    4.3750637    -4773.972   -6833.9189    18490.468   -25978.465   -4441.4244    -4163.767    3598.7016     83.74389 
   52800    1027.8927   -108.99279   0.93005889   -108.06273   -14859.846    4.3910849    4.3910849    4.3910849   -14859.846   -11209.188   -3498.7125   -29871.638    9418.8657   -14685.539   -8871.4312    84.667257 
   52900    1179.2695   -109.11615    1.0670278   -108.04912   -7439.4431    4.3956013    4.3956013    4.3956013   -7439.4431   -4675.9116    18549.436   -36191.854    1474.5651    15019.642   -17517.767    84.928777 
   53000    1258.2489   -109.18116      1.13849   -108.04267   -5071.8351    4.3872639    4.3872639    4.3872639   -5071.8351   -3257.3953    18964.475   -30922.585   -6208.8242   -16183.477    8402.2261    84.446429 
   53100    1421.7302   -109.32969    1.2864114   -108.04327   -1714.1835     4.386584     4.386584     4.386584   -1714.1835   -13250.959    1149.8819    6958.5268    19846.522   -13107.099   -12495.092    84.407173 
   53200    1679.6413   -109.56768    1.5197747    -108.0479   -11759.258    4.3905841    4.3905841    4.3905841   -11759.258   -17261.831   -12817.247   -5198.6953    4613.7544     2223.882   -9223.4771    84.638296 
   53300    1053.0705   -109.00862    0.9528403   -108.05578   -5211.2543    4.3859016    4.3859016    4.3859016   -5211.2543   -33.153543    22302.102   -37902.711   -17355.596   -21320.681    9585.6829    84.367787 
   53400     1015.335   -108.97324   0.91869644   -108.05454    5209.4337    4.3803188    4.3803188    4.3803188    5209.4337    20814.759     25010.07   -30196.528    14851.688   -1102.0302    -8172.134    84.046022 
   53500    1175.0438   -109.12093    1.0632043   -108.05773   -21099.366     4.395925     4.395925     4.395925   -21099.366    12781.075   -15446.523    -60632.65    3073.0985   -9808.9856      834.952    84.947542 
   53600    957.76939   -108.92332   0.86660988   -108.05671   -8052.7153    4.3882734    4.3882734    4.3882734   -8052.7153    12673.838    5294.1212   -42126.105   -13119.718   -15823.772     19502.32    84.504734 
   53700    1486.2289    -109.3945    1.3447712   -108.04973    4868.4479    4.3751277    4.3751277    4.3751277    4868.4479    16322.575   -22284.147    20566.916    12810.267    9031.8591   -16535.348    83.747568 
   53800     1606.656   -109.50803    1.4537361    -108.0543   -14386.386    4.3908845    4.3908845    4.3908845   -14386.386    12206.772   -33629.922   -21736.007    3667.6795   -19806.672   -2725.0705    84.655665 
   53900    1254.8646   -109.18825    1.1354279   -108.05282   -29522.936    4.3920007    4.3920007    4.3920007   -29522.936   -23090.532   -23350.629   -42127.647   -8746.7837   -26617.156    22382.463    84.720244 
   54000    1334.2488   -109.25345    1.2072563    -108.0462   -3525.9258    4.3738067    4.3738067    4.3738067   -3525.9258     469.7248   -13184.544    2137.0421    14102.204     14245.73    -8677.712     83.67173 
   54100    819.25142   -108.80169    0.7412759   -108.06041    -8946.273    4.3769152    4.3769152    4.3769152    -8946.273   -3374.9507    21100.525   -44564.393    11251.356   -21656.912     4953.353    83.850254 
   54200    1039.5818   -109.00704   0.94063549    -108.0664   -23029.552    4.3854457    4.3854457    4.3854457   -23029.552   -6396.0099   -22808.332   -39884.314   -11887.846   -20710.622     8813.039    84.341481 
   54300    1423.8498   -109.34842    1.2883292   -108.06009   -16581.987    4.3910902    4.3910902    4.3910902   -16581.987   -29840.248   -14311.909   -5593.8029    12671.245    2315.8928     1870.798    84.667568 
   54400    1131.0317   -109.08265    1.0233812   -108.05927   -20153.678    4.3880525    4.3880525    4.3880525   -20153.678   -32316.549   -2299.1127    -25845.37    2092.6746   -19591.327    21204.222     84.49197 
   54500     1555.196   -109.45896     1.407174   -108.05179     7193.494    4.3762871    4.3762871    4.3762871     7193.494    19703.096   -32066.418    33943.803   -5438.3866    4142.0739   -8061.9454    83.814161 
   54600    1543.7891   -109.45294    1.3968528   -108.05608   -1874.3625    4.3900003    4.3900003    4.3900003   -1874.3625    2908.2422    702.93577   -9234.2656    5884.3785   -5164.5714   -2118.6305    84.604535 
   54700    832.85024   -108.80987    0.7535804   -108.05629   -22675.357    4.3981202    4.3981202    4.3981202   -22675.357    7835.5046    -13343.54   -62518.035   -3629.9446   -21522.257    22818.882    85.074867 
   54800    1205.7973   -109.13305    1.0910307   -108.04202    14629.019    4.3831865    4.3831865    4.3831865    14629.019    32903.863   -6607.4434    17590.637   -5549.1281    8640.4768   -9669.0671      84.2112 
   54900    1353.3186   -109.27072    1.2245111   -108.04621    6664.8443    4.3858497    4.3858497    4.3858497    6664.8443    31108.065    7823.5125   -18937.045    4292.6506     6328.669    6618.7224    84.364794 
   55000     1033.082   -108.98597   0.93475435   -108.05122    298.64399    4.3923471    4.3923471    4.3923471    298.64399     12116.76    -21488.92    10268.092   -8053.5982    -8606.285    13151.089    84.740293 
   55100    1338.1212   -109.25484    1.2107602   -108.04408    21015.293    4.3909439    4.3909439    4.3909439    21015.293    24783.465   -3750.9284    42013.344    -5656.307    16493.049   -3218.7218    84.659103 
   55200    1275.1576   -109.19253    1.1537894   -108.03874   -286.78429    4.3943862    4.3943862    4.3943862   -286.78429     25510.27   -16900.807   -9469.8151    11730.615    8648.2067    18248.739    84.858368 
   55300    759.84961   -108.73006    0.6875279   -108.04254    237.70383    4.3879642    4.3879642    4.3879642    237.70383    15490.908   -7195.8723    -7581.924   -10365.965   -15890.965   -6383.6436    84.486869 
   55400    1394.0244   -109.30411    1.2613426   -108.04277    16581.203    4.3784734    4.3784734    4.3784734    16581.203    29797.658    6566.2255    13379.724   -360.55549    7309.3821    -3922.448    83.939841 
   55500    1273.8058   -109.20555    1.1525663   -108.05298    13564.323    4.3893697    4.3893697    4.3893697    13564.323    18079.573    12939.459    9673.9385    2506.1588   -222.79158    21603.672    84.568081 
   55600    1158.0184   -109.09801    1.0477994   -108.05021   -13638.231    4.4005128    4.4005128    4.4005128   -13638.231   -16907.047   -34542.887    10535.242   -17967.004   -13234.963   -5188.7382    85.213787 
   55700    1759.7709   -109.62583    1.5922777   -108.03355   -3392.0746    4.3855187    4.3855187    4.3855187   -3392.0746   -3964.5962   -27290.361    21078.734    7287.8094    11146.021   -4014.7104    84.345693 
   55800    1002.3728   -108.94769     0.906968   -108.04072    13292.486    4.3765866    4.3765866    4.3765866    13292.486    6568.1651    12999.814     20309.48    -2887.881   -23470.333    17740.561     83.83137 
   55900    1137.0127   -109.07844     1.028793   -108.04965   -18755.128    4.3911245    4.3911245    4.3911245   -18755.128   -16532.233   -34142.797   -5590.3527   -16989.057   -12495.464    3745.9964    84.669549 
   56000    1370.1329    -109.2854     1.239725   -108.04567   -6822.4439    4.3883687    4.3883687    4.3883687   -6822.4439    6325.3985   -11147.275   -15645.455     3180.214    14452.222    4190.7457     84.51024 
   56100    986.29928   -108.95133   0.89242432   -108.05891   -6163.9648    4.3791173    4.3791173    4.3791173   -6163.9648   -1740.4801    23093.649   -39845.064   -10538.082   -27600.763     11817.43    83.976881 
   56200    1463.0407   -109.38227      1.32379   -108.05848    -3151.654    4.3867868    4.3867868    4.3867868    -3151.654    -537.3776   -15633.318    6715.7331    -19879.36   -9601.2892    2101.5491     84.41888 
   56300    1933.9459   -109.79868    1.7498749    -108.0488   -7678.1749    4.3855896    4.3855896    4.3855896   -7678.1749    20653.126   -26611.803   -17075.848     8860.881     6228.043    12858.662    84.349781 
   56400    1168.7112   -109.11724    1.0574744   -108.05976   -21167.989    4.3836679    4.3836679    4.3836679   -21167.989   -15593.854   -24699.277   -23210.837    -7988.056    -27859.96    17425.522    84.238949 
   56500    1310.2411   -109.23881    1.1855337   -108.05327   -2325.1641    4.3828719    4.3828719    4.3828719   -2325.1641   -2674.6509   -26005.469    21704.627   -18518.541   -5319.8221   -2929.7494    84.193067 
   56600    1311.7948   -109.23974    1.1869395    -108.0528   -20593.951    4.3819628    4.3819628    4.3819628   -20593.951   -12524.279   -27484.195   -21773.379    4452.8084   -7199.8645    5515.6805    84.140689 
   56700    618.94726   -108.62357   0.56003649   -108.06353   -23391.296     4.386143     4.386143     4.386143   -23391.296   -13469.288   -20514.253   -36190.348   -10803.371    -22619.34    13662.517    84.381715 
   56800    1517.2347    -109.4223    1.3728258   -108.04947   -7925.2366    4.3832984    4.3832984    4.3832984   -7925.2366   -15528.962   -7919.7518     -326.996   -11136.341    3285.8785   -3413.8973    84.217646 
   56900    1329.0263    -109.2575     1.202531   -108.05497   -7842.0919    4.3800367    4.3800367    4.3800367   -7842.0919   -5873.4214     9578.345   -27231.199    11935.559   -19221.178    9526.3163    84.029784 
   57000    1608.6189   -109.51467    1.4555122   -108.05916   -4586.0965    4.3786078    4.3786078    4.3786078   -4586.0965    5199.4562    4048.9965   -23006.742   -22475.603   -15965.502    7907.2793    83.947571 
   57100    1784.9062     -109.673    1.6150207   -108.05798    4826.8736    4.3916066    4.3916066    4.3916066    4826.8736     10307.66    17588.278   -13415.317   -1539.1244    17811.912    593.17445    84.697439 
   57200    1254.8413   -109.19296    1.1354067   -108.05755   -21866.729    4.3942082    4.3942082    4.3942082   -21866.729     1804.123   -24073.238   -43331.071    22595.007   -18940.293    16212.942    84.848054 
   57300    1062.2919   -109.00571   0.96118401   -108.04453    16658.296    4.3712903    4.3712903    4.3712903    16658.296     23198.92    20836.828    5939.1393   -16749.363   -17310.699    3080.5503    83.527397 
   57400     1088.816   -109.03673   0.98518356   -108.05154   -2055.6639     4.380001     4.380001     4.380001   -2055.6639   -11124.588   -1052.2135    6009.8095     1251.881    3293.9008   -10649.054    84.027729 
   57500    834.10659   -108.81246   0.75471717   -108.05774   -22208.944    4.3894629    4.3894629    4.3894629   -22208.944   -34931.015   -2833.6726   -28862.144    8191.4916   -22295.199    7603.6212    84.573471 
   57600    1298.6568   -109.22831     1.175052   -108.05326    17194.637    4.3827992    4.3827992    4.3827992    17194.637   -4638.7686    26151.928    30070.751   -10190.408    4150.6242    16144.959     84.18888 
   57700    1751.5254   -109.63344     1.584817   -108.04862   -2226.7405    4.3888333    4.3888333    4.3888333   -2226.7405    9431.2935    -12974.83    -3136.685    5994.5602    2208.9491   -9828.0204    84.537084 
   57800    1353.2193   -109.28162    1.2244212    -108.0572   -9.3779494    4.3772958    4.3772958    4.3772958   -9.3779494    18686.343   -5780.3314   -12934.145    -4604.196    -28746.65    7590.9219    83.872132 
   57900    1526.8753   -109.43547    1.3815489   -108.05393    19978.625    4.3739878    4.3739878    4.3739878    19978.625    20171.244    8365.2762    31399.357   -18214.097    9326.5226    7286.1447    83.682126 
   58000    1224.2027   -109.16269    1.1076843   -108.05501   -14077.345    4.3942163    4.3942163    4.3942163   -14077.345   -9358.2886    -16206.48   -16667.268    14892.738   -7448.9799    -1515.558    84.848524 
   58100    741.10639    -108.7228   0.67056863   -108.05223   -13551.246    4.3860477    4.3860477    4.3860477   -13551.246   -17832.712   -12214.661   -10606.365     5893.589   -20735.588    18408.688    84.376217 
   58200    1276.9844   -109.19608    1.1554423   -108.04064   -285.77443    4.3805294    4.3805294    4.3805294   -285.77443   -36813.227   -4493.3581    40449.261   -4742.2499    8804.0836    4384.2048    84.058147 
   58300    1158.8767   -109.09666     1.048576   -108.04809   -9351.1161    4.3850942    4.3850942    4.3850942   -9351.1161    -40582.72    7963.5556    4565.8157    7555.4419   -16395.802   -1381.5834    84.321199 
   58400    1332.7487   -109.26448    1.2058991   -108.05858   -3249.6962    4.3759136    4.3759136    4.3759136   -3249.6962    9430.7237   -5151.5797   -14028.233    1749.3336   -11936.195    17574.707    83.792705 
   58500    1701.9901   -109.60163    1.5399964   -108.06164    7366.4457    4.3841988    4.3841988    4.3841988    7366.4457   -1932.6562    4682.6212    19349.372    6487.8283    1857.1759    3579.3789    84.269558 
   58600    1500.2623   -109.41784    1.3574688   -108.06037   -14385.053    4.3883364    4.3883364    4.3883364   -14385.053   -10507.544   -4855.8902   -27791.726    8376.4706   -18287.618    3530.9872    84.508374 
   58700    1085.3394   -109.03932   0.98203788   -108.05728    14500.852    4.3817109    4.3817109    4.3817109    14500.852    50660.591    15358.112   -22516.147    198.89911   -9979.8011    12070.127    84.126177 
   58800     1501.726   -109.40288    1.3587933   -108.04409   -15827.055    4.3900885    4.3900885    4.3900885   -15827.055    -40234.61    3853.1426   -11099.698    3506.7226   -1514.4172   -3919.8664    84.609635 
   58900    799.89706   -108.77926   0.72376367    -108.0555    1450.3332    4.3757826    4.3757826    4.3757826    1450.3332    14608.229     1168.804   -11426.033    16092.511   -25360.456    19895.606    83.785179 
   59000    1202.6915   -109.14891    1.0882205   -108.06069    12758.113    4.3764243    4.3764243    4.3764243    12758.113    18694.965    14095.185    5484.1878    424.19748     753.2323    16093.834    83.822048 
   59100    1721.4581   -109.61271    1.5576114    -108.0551   -2906.8988    4.3889196    4.3889196    4.3889196   -2906.8988    12458.069    -9293.532   -11885.234   -4409.4413    3495.0694   -7114.0755    84.542071 
   59200    991.90546   -108.96178    0.8974969   -108.06428    17898.685    4.3794151    4.3794151    4.3794151    17898.685    49435.426   -14100.896    18361.525    12756.768   -28507.498    14830.167    83.994012 
   59300    1271.1135   -109.20703    1.1501302   -108.05689    16601.595    4.3806376    4.3806376    4.3806376    16601.595    26361.768    31304.448   -7861.4317    -1587.803    6920.1052    20404.276    84.064373 
   59400    1537.0094   -109.44334    1.3907184   -108.05263    3225.8772    4.3790312    4.3790312    4.3790312    3225.8772    9200.8349    7924.7097    -7447.913   -3087.9315    1548.7952   -2983.2154    83.971927 
   59500    866.14805   -108.85455   0.78370896   -108.07084   -10455.537    4.3844043    4.3844043    4.3844043   -10455.537        -4095   -19062.918   -8208.6918    13930.239   -27097.032    15790.517    84.281406 
   59600    1753.6593   -109.64084    1.5867478    -108.0541   -7988.2762    4.3917892    4.3917892    4.3917892   -7988.2762   -8761.1404   -11843.104   -3360.5845   -4759.8311    3122.5929    11237.909    84.708006 
   59700    1589.0941   -109.48478    1.4378458   -108.04693     20357.04    4.3800273    4.3800273    4.3800273     20357.04    -6359.922    9550.5934    57880.449   -147.75268   -3881.6229    2379.0725    84.029241 
   59800    966.88031   -108.93737   0.87485363   -108.06251   -7050.2738    4.3869394    4.3869394    4.3869394   -7050.2738    10176.097   -23558.026    -7768.893    16063.573   -21708.429    27529.754    84.427688 
   59900    1642.8799   -109.53121    1.4865123    -108.0447    924.07231    4.3940609    4.3940609    4.3940609    924.07231    7025.7139   -14730.198    10476.701    780.08624    12423.323    6421.0597     84.83952 
   60000    860.07443   -108.83091   0.77821342    -108.0527   -13843.221    4.3924964    4.3924964    4.3924964   -13843.221    -14337.25    14738.074   -41930.488     1828.896   -11790.626    817.43885    84.748936 
   60100     683.3099   -108.67744   0.61827315   -108.05916   -18967.172    4.3813089    4.3813089    4.3813089   -18967.172    1030.2579   -12112.773       -45819    17704.535   -13227.722    14868.235    84.103028 
   60200    1813.0761   -109.69318    1.6405093   -108.05268    14539.112    4.3778952    4.3778952    4.3778952    14539.112    4198.9217   -2057.6291    41476.044    1057.0749    13459.292   -1115.4618    83.906591 
   60300    1350.7794   -109.28613    1.2222136   -108.06391   -17358.471    4.3998832    4.3998832    4.3998832   -17358.471   -26807.921   -22528.896   -2738.5947    6626.0592   -26244.115    10102.511    85.177219 
   60400    1188.8709   -109.13092    1.0757154    -108.0552    4425.4365    4.3878689    4.3878689    4.3878689    4425.4365   -2790.0508    30878.284   -14811.924    9502.3371   -4374.9172    1841.5803    84.481368 
   60500    1717.9422   -109.59229    1.5544302   -108.03786     11922.67    4.3808257    4.3808257    4.3808257     11922.67    12423.058    -4356.028    27700.979   -4708.1326    1821.6156   -7510.8371      84.0752 
   60600    777.37839   -108.75535    0.7033883   -108.05196   -18799.277    4.3953259    4.3953259    4.3953259   -18799.277   -11579.832    3358.6503   -48176.649    11972.037   -24024.004    14444.551    84.912815 
   60700     994.7855   -108.94762   0.90010283   -108.04752    5288.3181    4.3851399    4.3851399    4.3851399    5288.3181    36218.898    17115.956     -37469.9     3242.166    8188.9066    4172.5463    84.323839 
   60800    1532.6192    -109.4354     1.386746   -108.04866   -2164.5265    4.3849707    4.3849707    4.3849707   -2164.5265    13506.785   -17258.725   -2741.6402   -7417.3158   -13544.067   -16545.417    84.314075 
   60900    1034.6332   -108.99555   0.93615787   -108.05939   -1251.2815    4.3881353    4.3881353    4.3881353   -1251.2815     420.3374    1910.1817   -6084.3636      2049.99   -24970.021    7525.5649    84.496755 
   61000    1650.5651   -109.54272     1.493466   -108.04925     20638.77    4.3774572    4.3774572    4.3774572     20638.77    27624.118    12343.897    21948.296    2882.8978    10347.633    15741.818    83.881409 
   61100     1111.613   -109.06648    1.0058108   -108.06067    -1265.241    4.3963989    4.3963989    4.3963989    -1265.241   -19435.629     5272.358    10367.548    3178.1299   -7277.9652   -8295.8392     84.97502 
   61200    1167.0561   -109.10831    1.0559769   -108.05233   -23445.595    4.3955966    4.3955966    4.3955966   -23445.595   -45641.404    783.04676   -25478.429    3925.6314   -14210.588    5253.6766    84.928506 
   61300    1475.6445   -109.37565    1.3351941   -108.04045     31278.28    4.3732943    4.3732943    4.3732943     31278.28    38274.205    33114.318    22446.317   -1059.4446     3570.415    5232.8909    83.642326 
   61400    1369.7484    -109.2962    1.2393772   -108.05682   -4687.9046    4.3896698    4.3896698    4.3896698   -4687.9046    16401.072    1819.4152   -32284.201   -2566.5945   -19576.415    -4758.083    84.585429 
   61500    1266.3962   -109.19692    1.1458619   -108.05106   -8427.3149    4.3932745    4.3932745    4.3932745   -8427.3149   -9334.8239   -20098.932    4151.8115    5797.0803   -12803.106    20201.292    84.793982 
   61600    1538.9961   -109.43312     1.392516   -108.04061    19120.242    4.3799809    4.3799809    4.3799809    19120.242    32262.429    7771.8881    17326.411     2010.826    14366.396    945.69815    84.026571 
   61700    952.11245   -108.91865   0.86149136   -108.05716   -4208.1236    4.3902318    4.3902318    4.3902318   -4208.1236   -30050.956     13635.88    3790.7054   -7878.3151   -23223.958   -8670.3269     84.61792 
   61800    1038.4655   -108.99723   0.93962537    -108.0576   -23091.485     4.392076     4.392076     4.392076   -23091.485   -36908.684    -19939.44   -12426.331   -3658.8247   -12417.119    21255.359      84.7246 
   61900    1369.1308   -109.29309    1.2388183   -108.05427      17704.6    4.3803649    4.3803649    4.3803649      17704.6    8914.2399    34906.465    9293.0955    2294.8735    4736.4648    5115.1906    84.048674 
   62000    1362.5872   -109.29995    1.2328975   -108.06705     595.7702    4.3897828    4.3897828    4.3897828     595.7702   -792.46754    17930.806   -15351.028    183.62519   -27464.363    4391.4508    84.591962 
   62100    1227.8506   -109.17052     1.110985   -108.05954    4427.8962    4.3980226    4.3980226    4.3980226    4427.8962    3184.6734    925.40379    9173.6114    -2568.915    4513.5453    27188.805    85.069202 
   62200    1559.0601   -109.45469    1.4106703   -108.04402    11048.906    4.3856252    4.3856252    4.3856252    11048.906    4081.2405    25925.896    3139.5828   -2501.0388   -9712.7468    1448.6951    84.351839 
   62300    1138.8671   -109.08378    1.0304709   -108.05331     484.1242    4.3864339    4.3864339    4.3864339     484.1242    4849.4196   -3443.9474    46.900377    6460.6644   -23296.232    26571.651    84.398506 
   62400    1093.2725    -109.0398   0.98921591   -108.05059   -11261.508    4.3914853    4.3914853    4.3914853   -11261.508   -16900.878   -31928.858    15045.213    4940.6468    14188.283     13552.59    84.690425 
   62500     1284.481   -109.20786    1.1622254   -108.04564   -4867.1092    4.3890929    4.3890929    4.3890929   -4867.1092   -34379.393    26211.594   -6433.5286   -9287.6535   -15077.813   -15480.902    84.552087 
   62600    1052.3061   -109.00201   0.95214866   -108.04986    8413.1021    4.3904175    4.3904175    4.3904175    8413.1021     16760.46    2289.9377    6188.9089   -2974.6074   -12045.256    31419.931    84.628659 
   62700     1485.995   -109.38832    1.3445595   -108.04376    13309.885    4.3841907    4.3841907    4.3841907    13309.885    27307.164    4487.4342     8135.056    5955.4826   -2568.9245    10018.639    84.269092 
   62800    1449.1253   -109.36089     1.311199   -108.04969   -5904.1404    4.3921907    4.3921907    4.3921907   -5904.1404   -18369.566    29758.069   -29100.924   -8434.7754    -17519.49    -8748.877     84.73124 
   62900    1136.6411   -109.07833    1.0284568   -108.04987   -5414.5624    4.3944235    4.3944235    4.3944235   -5414.5624   -12250.491    9084.3235    -13077.52   -12136.707    9497.3151    33797.798    84.860526 
   63000    1184.0572   -109.11734    1.0713598   -108.04598    12843.313    4.3857441    4.3857441    4.3857441    12843.313     6391.014    27886.881    4252.0433   -5832.5262   -4102.5702   -7255.1356    84.358698 
   63100    974.31053   -108.93834   0.88157664   -108.05677    8901.4765    4.3899009    4.3899009    4.3899009    8901.4765   -3628.1395    30712.545   -379.97551   -10458.768   -14441.898   -9968.2575     84.59879 
   63200     1125.372   -109.07202    1.0182602   -108.05376    6160.5388    4.3945752    4.3945752    4.3945752    6160.5388    2720.1064     9908.909     5852.601   -4915.1513    1175.6775    19887.563    84.869318 
   63300    1193.5602   -109.12807    1.0799584   -108.04811    7106.1343    4.3982656    4.3982656    4.3982656    7106.1343    9813.2661   -12693.561    24198.697    1286.2532   -7788.0867   -16922.238    85.083304 
   63400    1579.3658   -109.46683    1.4290433   -108.03778    2611.4911    4.3814484    4.3814484    4.3814484    2611.4911   -8917.8834    17951.803   -1199.4458   -7599.0079    -4867.544     8534.717     84.11106 
   63500    1134.0277   -109.07958    1.0260921   -108.05348    6333.6079    4.3840722    4.3840722    4.3840722    6333.6079    3459.5871   -12905.644    28446.881   -9210.0081    4837.1862    22537.929    84.262258 
   63600    1687.1201   -109.57375    1.5265417   -108.04721   -26662.611    4.3985656    4.3985656    4.3985656   -26662.611   -38842.011   -33944.345   -7201.4783    4573.3914    755.50099   -16761.837    85.100719 
   63700    1164.5294   -109.10022    1.0536907   -108.04653     1373.673    4.3855945    4.3855945    4.3855945     1373.673   -20295.364   -29047.994    53464.377   -10921.078   -14137.533    10463.423    84.350064 
   63800    1155.1932   -109.09666    1.0452431   -108.05142    13859.701    4.3799846    4.3799846    4.3799846    13859.701    6037.7371    8063.5501    27477.817   -161.80417    18902.474    17919.012    84.026784 
   63900    1549.2172   -109.45348    1.4017643   -108.05172    7547.4821     4.386964     4.386964     4.386964    7547.4821   -12190.891    6942.5039    27890.833    13592.055   -5778.5987   -2758.9633    84.429112 
   64000    1318.1181   -109.24985    1.1926609   -108.05719   -30548.861     4.392155     4.392155     4.392155   -30548.861   -17913.503   -16142.249   -57590.832   -21900.912   -11834.808    32010.721    84.729174 
   64100    1139.9303    -109.0873    1.0314329   -108.05587    5731.6697    4.3799891    4.3799891    4.3799891    5731.6697   -7333.5643    27793.527   -3264.9538    7137.1415    13987.636    4972.4229    84.027042 
   64200    1750.2167    -109.6383    1.5836328   -108.05467   -6874.2196    4.3836572    4.3836572    4.3836572   -6874.2196   -20047.486   -8318.9428    7743.7698    13253.024   -15747.775   -3490.5656    84.238329 
   64300    828.94063   -108.81146    0.7500429   -108.06141   -12052.027    4.3956469    4.3956469    4.3956469   -12052.027   -8036.2393   -21012.821   -7107.0205   -15556.452   -5442.9482    28116.815    84.931419 
   64400    1191.1968   -109.13447    1.0778199   -108.05665   -7876.1177    4.3845408    4.3845408    4.3845408   -7876.1177   -18029.805     -30324.1    24725.552     15985.21    4093.3508    5090.6416    84.289281 
   64500    1544.8834   -109.45238     1.397843   -108.05454    17656.194    4.3778263    4.3778263    4.3778263    17656.194   -3331.1832    6532.2856     49767.48   -3049.3607   -4931.1205   -18658.309    83.902633 
   64600     1152.992   -109.10364    1.0432514   -108.06038    22439.086    4.3887409    4.3887409    4.3887409    22439.086    735.21086    31464.748    35117.301   -532.94526   -4610.8373    21072.588    84.531743 
   64700    1518.8317   -109.42755    1.3742708   -108.05327   -10894.235    4.4066645    4.4066645    4.4066645   -10894.235   -34354.256   -7851.1941    9522.7439    16493.877    2937.2249    4917.2206     85.57166 
   64800    1219.1411   -109.14734    1.1031045   -108.04423   -3585.5646    4.3930097    4.3930097    4.3930097   -3585.5646   -18782.639   -6193.0199    14218.965    -4121.551   -19567.922   -16925.453     84.77865 
   64900    1071.1344   -109.00465    0.9691849   -108.03546    23411.516     4.368572     4.368572     4.368572    23411.516    8630.2974    23274.978    38329.272    9377.2955   -5343.6053    23693.927     83.37167 
   65000    1334.5256   -109.27427    1.2075068   -108.06676   -21070.961    4.3940884    4.3940884    4.3940884   -21070.961   -19347.038   -46582.966    2717.1211    6896.1826   -1825.9992   -13621.693    84.841116 
   65100    1491.2405   -109.40309    1.3493058   -108.05379   -9283.7049    4.4008839    4.4008839    4.4008839   -9283.7049   -5536.9909   -29036.287    6722.1628   -3323.8439   -17332.517   -3913.7592    85.235346 
   65200    1317.8104   -109.23448    1.1923825   -108.04209    33487.439    4.3886274    4.3886274    4.3886274    33487.439   -15431.337    43128.877    72764.778    17376.498    1534.4502    20988.062    84.525185 
   65300    1693.6077   -109.57813    1.5324119   -108.04572   -10431.908    4.3944859    4.3944859    4.3944859   -10431.908   -37777.635   -21494.463    27976.373    -3999.499   -333.78193   -11430.072    84.864143 
   65400    1058.9455   -109.00817   0.95815612   -108.05001     42894.07    4.3806245    4.3806245    4.3806245     42894.07    19971.599    59273.558    49437.053    10251.446   -15201.417    7019.6472    84.063619 
   65500    846.13835   -108.82792   0.76560376   -108.06232   -15309.791    4.3996443    4.3996443    4.3996443   -15309.791   -14201.897   -18833.069   -12894.408    4213.8218    3423.6069    14218.294    85.163343 
   65600    1312.5884   -109.24107    1.1876576   -108.05341   -11933.091    4.3853308    4.3853308    4.3853308   -11933.091   -13764.904   -18134.939   -3899.4307   -11781.798    7074.3932   -16417.753     84.33485 
   65700    1388.8244   -109.30181    1.2566375   -108.04517    44620.267    4.3625333    4.3625333    4.3625333    44620.267    46065.188    41884.505    45911.109    16987.939   -2178.3228    7830.8982    83.026412 
   65800    1400.4659   -109.33317     1.267171     -108.066   -31931.482    4.4017561    4.4017561    4.4017561   -31931.482   -58083.922   -39942.239     2231.716   -6829.3312     2667.578    12279.078    85.286036 
   65900    1460.8151   -109.37126    1.3217762   -108.04949   -3373.6398    4.3890545    4.3890545    4.3890545   -3373.6398   -39414.515    2314.2184    26979.377   -14104.204    6064.4812   -6554.7467    84.549864 
   66000    1195.8247   -109.12524    1.0820073   -108.04323    15010.782     4.378041     4.378041     4.378041    15010.782    -2705.202     1044.058    46693.491    17864.677    6468.7392    8896.1421    83.914976 
   66100    715.51014   -108.70048   0.64740861   -108.05308   -18796.301    4.3952362    4.3952362    4.3952362   -18796.301   -47559.998   -56290.256    47461.351   -16273.489   -4788.4842    5982.5247    84.907617 
   66200    1472.2808   -109.36965    1.3321506    -108.0375    10273.591    4.3804705    4.3804705    4.3804705    10273.591   -10989.578   -11457.829    53268.179   -6502.7914    16010.706   -3844.4421    84.054755 
   66300     1184.594   -109.13167    1.0718456   -108.05983   -25313.027    4.3911418    4.3911418    4.3911418   -25313.027   -18327.229   -45231.896   -12379.954    3130.9925    7470.1707    7797.7885    84.670553 
   66400    1167.3303   -109.11424     1.056225   -108.05801   -12103.661    4.3867762    4.3867762    4.3867762   -12103.661   -27878.581   -34075.377    25642.974   -19357.309   -7360.4784    13318.119     84.41827 
   66500    1802.0434    -109.6759    1.6305268   -108.04538    5090.7304    4.3748074    4.3748074    4.3748074    5090.7304   -1425.6867    26289.661   -9591.7827    11872.409    11513.128   -3782.4802    83.729173 
   66600    925.69734   -108.89589    0.8375904    -108.0583   -38445.536    4.3940522    4.3940522    4.3940522   -38445.536   -44434.532   -71363.751    461.67489   -7764.1699    2505.1177    12638.337    84.839018 
   66700    1056.7509   -109.00555   0.95617042   -108.04938    8948.7621    4.3833347    4.3833347    4.3833347    8948.7621   -15169.643    21162.576    20853.354   -13417.457   -303.51469   -58.678309    84.219739 
   66800    1432.3192   -109.34502    1.2959925   -108.04903    12745.884    4.3778665    4.3778665    4.3778665    12745.884   -11100.002    10650.018    38687.635    7090.6381    2549.0205   -3381.5123    83.904942 
   66900    1181.0145   -109.12792    1.0686068   -108.05931   -26061.495    4.3943643    4.3943643    4.3943643   -26061.495   -33222.572   -42479.818   -2482.0948   -14952.216   -5985.7301    9114.9822      84.8571 
   67000    1370.2062   -109.28853    1.2397914   -108.04874    5331.6173    4.3903713    4.3903713    4.3903713    5331.6173   -18929.327    17602.898    17321.281   -6581.6161     2962.902    666.53933    84.625989 
   67100    1412.1183   -109.32615    1.2777143   -108.04844   -11958.245    4.3871432    4.3871432    4.3871432   -11958.245   -17417.091    -2540.723   -15916.921    4295.9913   -1319.5788   -7555.9433    84.439456 
   67200    930.36465   -108.89438   0.84181348   -108.05256    9351.5292    4.3812325    4.3812325    4.3812325    9351.5292   -2411.9146   -19494.718     49961.22   -17587.412    -10457.62    6598.3347    84.098624 
   67300    1419.8004   -109.33488    1.2846652   -108.05021    5538.7328    4.3823698    4.3823698    4.3823698    5538.7328   -10487.409    24523.168    2580.4402    4325.9349   -3438.0757   -13937.907    84.164137 
   67400    955.05082   -108.91779   0.86415006   -108.05364    -22656.17    4.4026339    4.4026339    4.4026339    -22656.17   -46431.868   -3203.6929   -18332.949   -9215.6395   -3714.1103    -4310.111    85.337071 
   67500    1393.9914    -109.3069    1.2613127   -108.04558    -8328.575    4.3828484    4.3828484    4.3828484    -8328.575     -46150.6   -28888.392    50053.267    -14910.75     6572.642    10894.913    84.191716 
   67600    1668.6937   -109.54981    1.5098692   -108.03994    15954.773    4.3699416    4.3699416    4.3699416    15954.773    10930.108    53977.073   -17042.861    9545.0136   -8372.2862   -26899.843    83.450109 
   67700    1254.9212   -109.19317     1.135479   -108.05769   -28185.292     4.401391     4.401391     4.401391   -28185.292   -40541.762   -24663.759   -19350.356   -26057.253   -12559.208    -9447.502    85.264814 
   67800    1801.5183   -109.67219    1.6300517   -108.04214   -11759.494    4.3917881    4.3917881    4.3917881   -11759.494   -28609.702   -7286.1933    617.41326   -5882.2757    8608.9141    9799.6932    84.707944 
   67900     1499.546   -109.39579    1.3568207   -108.03897    9194.8442    4.3771092    4.3771092    4.3771092    9194.8442    22168.687    23454.965    -18039.12    5388.0636    60.185048   -17093.608    83.861405 
   68000    1095.5747   -109.04054     0.991299   -108.04924   -20948.267    4.3886014    4.3886014    4.3886014   -20948.267   -45718.687   -27724.477    10598.364   -22492.497   -4830.0904   -4554.8776     84.52368 
   68100    1340.7143   -109.25698    1.2131065   -108.04388   -6598.9953    4.3890738    4.3890738    4.3890738   -6598.9953   -31676.786     2985.114    8894.6863    14687.739    2765.7208   -5118.2243    84.550981 
   68200    1155.3063   -109.09433    1.0453454   -108.04899   -27672.882    4.3996713    4.3996713    4.3996713   -27672.882    -45563.87   -10928.136    -26526.64   -9256.6127    6561.8004   -5260.0125     85.16491 
   68300    1238.2999   -109.16933    1.1204398    -108.0489   -24342.792      4.38903      4.38903      4.38903   -24342.792   -38963.816   -36763.876    2699.3171   -29450.666   -9762.1691    14117.697    84.548448 
   68400    1980.4244   -109.83284    1.7919296   -108.04091    16502.393    4.3692309    4.3692309    4.3692309    16502.393    20720.013     31521.57   -2734.4047    14441.494    192.08858   -7175.4595    83.409397 
   68500    1271.4294   -109.22015     1.150416   -108.06973   -4845.0026    4.3921097    4.3921097    4.3921097   -4845.0026   -7660.2063   -282.59635   -6592.2052    -27658.31    9883.9658   -7481.3431    84.726555 
   68600    1438.6672   -109.35535    1.3017363   -108.05361   -32951.857    4.3986733    4.3986733    4.3986733   -32951.857    -30393.47    -42712.26   -25749.842   -29252.922   -16181.483   -90.350079    85.106968 
   68700    1368.4804   -109.27323    1.2382299     -108.035    18921.257    4.3761086    4.3761086    4.3761086    18921.257     13207.45    41614.213    1942.1073    11198.003    1938.4788   -2306.2828     83.80391 
   68800    540.44275   -108.54504   0.48900396   -108.05603     4968.348    4.3785199    4.3785199    4.3785199     4968.348   -23905.527    3794.5799    35015.991   -40340.995    9270.8276   -1323.4291    83.942514 
   68900    1158.1717   -109.09836    1.0479381   -108.05042   -17578.174    4.3988725    4.3988725    4.3988725   -17578.174   -25375.654    -14391.59   -12967.277   -8732.6075   -10545.312    1669.4227    85.118533 
   69000    1391.3303   -109.29611    1.2589049   -108.03721   -9910.8789    4.3978582    4.3978582    4.3978582   -9910.8789    16829.888   -24154.652   -22407.872   -16865.387    3533.9258   -1294.2767    85.059665 
   69100    1106.3505   -109.04976    1.0010492   -108.04871    13661.482    4.3752238    4.3752238    4.3752238    13661.482    19218.696    10323.191    11442.559   -38990.374    -4003.861   -14483.455    83.753083 
   69200    1751.8067   -109.63858    1.5850715   -108.05351     25289.75    4.3752266    4.3752266    4.3752266     25289.75     54931.57    23628.597   -2690.9181    3781.8792   -9245.5783    2506.7801    83.753245 
   69300      1352.37   -109.28617    1.2236528   -108.06252   -15074.511     4.399656     4.399656     4.399656   -15074.511    3477.8725   -24331.111   -24370.295   -40839.674   -590.87201    6778.4463    85.164024 
   69400    1068.2844   -109.02197   0.96660622   -108.05536   -19321.619    4.3902584    4.3902584    4.3902584   -19321.619   -46261.657     245.8928   -11949.092   -21485.372   -5160.3802   -2376.3764    84.619458 
   69500    1133.6322   -109.06627    1.0257342   -108.04053    28260.397     4.371694     4.371694     4.371694    28260.397    41904.092     27224.11    15652.989    18759.242   -3114.2209    1519.0158    83.550538 
   69600    891.41549   -108.86396   0.80657147   -108.05739   -12690.886    4.3913653    4.3913653    4.3913653   -12690.886   -23494.966   -24582.164    10004.471   -44016.343   -7281.8128   -1180.0281     84.68348 
   69700     1321.242   -109.24445    1.1954876   -108.04896   -18198.892    4.3927991    4.3927991    4.3927991   -18198.892   -35699.636     21206.93   -40103.971   -2900.6909   -13557.957   -1588.6119    84.766454 
   69800    1576.3131   -109.46775    1.4262812   -108.04147    10930.918    4.3714782    4.3714782    4.3714782    10930.918    33529.436    13622.759   -14359.443    3663.6933    4777.6783    10603.505    83.538168 
   69900    1237.0559   -109.17517    1.1193142   -108.05585    1958.0486    4.3832838    4.3832838    4.3832838    1958.0486   -18242.063    32361.822   -8245.6137   -34422.913    -8325.634    11576.715    84.216806 
   70000    1618.6539   -109.51093    1.4645921   -108.04633   -15739.782    4.3946715    4.3946715    4.3946715   -15739.782   -36466.019    31458.104   -42211.432   -2023.4619   -19765.507    4808.6785    84.874895 
   70100    1278.5253   -109.20061    1.1568366   -108.04377    8197.1496    4.3845444    4.3845444    4.3845444    8197.1496    2875.6818    20117.596    1598.1706   -16351.617     5033.312   -11057.216    84.289485 
   70200    999.18707   -108.95214   0.90408546   -108.04806    -3047.016    4.3860192    4.3860192    4.3860192    -3047.016    8499.1537    -13367.41   -4272.7921   -20949.943     87.41858    14945.338    84.374574 
   70300    1205.7315   -109.13512    1.0909712   -108.04415    1880.4832    4.3849696    4.3849696    4.3849696    1880.4832    29694.297    7451.3668   -31504.214    5347.6751   -13416.657    20785.566    84.314013 
   70400    1110.5696   -109.05156    1.0048667    -108.0467   -5250.6513    4.3917078    4.3917078    4.3917078   -5250.6513    19157.765   -37917.196    3007.4765   -33453.254    2446.5207   -4404.2922    84.703295 
   70500    1254.0835   -109.17295    1.1347211   -108.03823     -5330.14    4.3964083    4.3964083    4.3964083     -5330.14    33016.004   -18118.293    -30888.13   -154.69408    -7784.964    7341.7096    84.975566 
   70600    1332.4245   -109.23401    1.2056057   -108.02841    -2382.001    4.3929722    4.3929722    4.3929722    -2382.001    4683.2685    15728.825   -27558.096   -11868.943    1977.3367    8874.4536    84.776478 
   70700    1257.5624   -109.16669    1.1378689   -108.02882   -1437.2393     4.385709     4.385709     4.385709   -1437.2393     6176.148    -5495.564   -4992.3018   -34755.535    15711.545    3546.6492     84.35667 
   70800    1375.9348   -109.28114    1.2449747   -108.03617   -1700.3412    4.3832986    4.3832986    4.3832986   -1700.3412    15430.309     -209.108   -20322.224    9681.0594   -14160.836     2753.706    84.217662 
   70900    1213.6091    -109.1463     1.098099    -108.0482   -15261.518    4.3888759    4.3888759    4.3888759   -15261.518   -38239.043    -18218.38    10672.868    -16205.78    153.67521    2321.9142    84.539547 
   71000    1242.8332   -109.17524    1.1245416    -108.0507   -13066.738     4.387622     4.387622     4.387622   -13066.738   -1821.1484    -32289.97   -5089.0965    -14710.57    20061.466   -646.16312    84.467105 
   71100    1716.0319   -109.60142    1.5527017   -108.04872   -3451.0098    4.3848078    4.3848078    4.3848078   -3451.0098    15153.692    2700.4078   -28207.129    10162.451   -1770.5252    1936.3818    84.304682 
   71200    1406.1658    -109.3249    1.2723283   -108.05257    16105.545    4.3757504    4.3757504    4.3757504    16105.545    8959.1287    25688.785    13668.721   -17644.209     6820.496    1933.3302    83.783331 
   71300    1177.6174   -109.12975     1.065533   -108.06422    3869.3632    4.3882973    4.3882973    4.3882973    3869.3632    51867.453   -13866.551   -26392.813   -2174.9494    14161.251    3417.2753    84.506115 
   71400    1873.4518   -109.74106    1.6951385   -108.04592    -10104.36    4.3938479    4.3938479    4.3938479    -10104.36   -8810.4714       -17603   -3899.6085    7174.0927   -3800.8734    1472.6733    84.827184 
   71500    1068.4104   -109.01484   0.96672021   -108.04812    35252.892    4.3718678    4.3718678    4.3718678    35252.892    49485.461    13738.523    42534.691   -24549.426    4071.2365    -9209.311    83.560504 
   71600    1261.7044   -109.20104    1.1416167   -108.05942   -15488.173    4.3857455    4.3857455    4.3857455   -15488.173   -6843.7592   -15413.568   -24207.192    11125.486    27689.244    12717.269    84.358776 
   71700    1456.4191   -109.36574    1.3177986   -108.04794   -13237.244     4.388447     4.388447     4.388447   -13237.244   -16816.416   -21158.725   -1736.5907     -4982.44   -11680.386    13423.315    84.514765 
   71800     1017.503   -108.96932   0.92065811   -108.04866    18371.391    4.3775338    4.3775338    4.3775338    18371.391    18575.947    40385.513   -3847.2877   -24119.473     5660.801   -2781.1753    83.885815 
   71900    1293.8896   -109.22106    1.1707385   -108.05032   -24593.562    4.3899502    4.3899502    4.3899502   -24593.562   -15003.454    16348.985   -75126.217     5630.003    21449.675    9927.9701    84.601641 
   72000    1135.3005   -109.07912    1.0272438   -108.05187   -285.43242    4.3790701    4.3790701    4.3790701   -285.43242   -13366.627    29307.096   -16796.767   -17379.601   -16059.496    4298.8501    83.974164 
   72100    1321.2561   -109.24944    1.1955003   -108.05394    24184.904    4.3779398    4.3779398    4.3779398    24184.904   -496.56022    54431.506    18619.764   -11818.166    12078.686    133.72188    83.909159 
   72200    1656.0869   -109.54775    1.4984622   -108.04929    -16280.56    4.3965726    4.3965726    4.3965726    -16280.56   -28953.219     6379.993   -26268.455    2691.0929    9881.9281    14561.796    84.985091 
   72300    1168.1816   -109.10487    1.0569953   -108.04788    11791.035    4.3852997    4.3852997    4.3852997    11791.035   -38160.947    33156.391    40377.661   -25455.701   -19530.833    3696.7242    84.333053 
   72400    1514.8954    -109.4153    1.3707092   -108.04459    5608.5845    4.3788794    4.3788794    4.3788794    5608.5845   -10341.717     23730.56    3436.9112   -3439.2078    20524.711    9647.0327    83.963192 
   72500    1239.7163   -109.16841    1.1217213   -108.04669   -15687.032    4.3924191    4.3924191    4.3924191   -15687.032    -14935.51    13949.805    -46075.39   -1755.6103   -7236.0754    12690.354    84.744461 
   72600    814.93402   -108.78644   0.73736943   -108.04907   -19415.137    4.3898114    4.3898114    4.3898114   -19415.137   -28617.252    2956.9408     -32585.1   -28619.166    1504.1359    3011.3484    84.593615 
   72700     1551.698   -109.44411     1.404009    -108.0401   -5332.6705    4.3800517    4.3800517    4.3800517   -5332.6705   -12927.797    8314.7116   -11384.927    5473.5793    22213.364    2513.3811    84.030645 
   72800    1604.3903   -109.49491    1.4516861   -108.04322   -13932.369    4.3899529    4.3899529    4.3899529   -13932.369    -34313.71    -11007.38    3523.9837   -9552.0562   -19825.427     5902.933    84.601798 
   72900    1531.9787    -109.4283    1.3861665   -108.04213   -17025.303    4.3928454    4.3928454    4.3928454   -17025.303   -52098.655    -12175.76    13198.506   -22873.474    20795.245   -666.73085    84.769134 
   73000    1796.0431   -109.65557    1.6250975   -108.03047    1814.0889     4.387438     4.387438     4.387438    1814.0889   -29651.814    6435.9069    28658.174     14824.28    3471.9454    3329.4536    84.456478 
   73100    1359.0822   -109.26867    1.2297262   -108.03894   -16886.218    4.3892633    4.3892633    4.3892633   -16886.218   -38738.346   -7885.8239   -4034.4834   -17737.672   -6106.9754   -504.37292    84.561933 
   73200    1264.3845   -109.18789    1.1440417   -108.04385    1558.9425    4.3803822    4.3803822    4.3803822    1558.9425   -15237.361     49270.63   -29356.442   -18295.148    16026.092   -2371.3524    84.049671 
   73300    1292.1388   -109.22128    1.1691543   -108.05213    3195.5133    4.3828085    4.3828085    4.3828085    3195.5133   -1803.6286    18991.329   -7601.1602    27253.838   -5973.8672   -537.95606    84.189417 
   73400    989.07935   -108.94824   0.89493978    -108.0533    1602.3336    4.3876189    4.3876189    4.3876189    1602.3336    -21702.04    28142.428   -1633.3874   -20797.649     3892.855   -570.30813    84.466925 
   73500    1357.7739   -109.27966    1.2285423   -108.05112    -500.7052    4.3793031    4.3793031    4.3793031    -500.7052   -10024.724    11145.468   -2622.8596   -4164.2474    4082.3967    3168.9664    83.987568 
   73600      1473.19   -109.38602    1.3329732   -108.05304    7352.1433      4.37384      4.37384      4.37384    7352.1433    -15381.66    4266.3086    33171.781    24213.584   -12244.054    9208.1038    83.673642 
   73700    1305.5744   -109.24239    1.1813112   -108.06108   -3394.4881    4.3850024    4.3850024    4.3850024   -3394.4881   -37101.317   -11857.027     38774.88   -30121.566    10819.757   -10923.288    84.315905 
   73800    1545.7767   -109.44963    1.3986513   -108.05098   -4466.4267    4.3900373    4.3900373    4.3900373   -4466.4267   -4785.9845   -10382.984    1769.6879    5915.7257    3584.6328   -7150.8342    84.606673 
   73900    1512.4212   -109.41563    1.3684705   -108.04716    11079.207    4.3800144    4.3800144    4.3800144    11079.207    24435.939    8638.3925    163.28967    11327.489   -5980.4172    2519.1683    84.028501 
   74000    1189.0362   -109.13203    1.0758649   -108.05617   -1247.5125    4.3834912    4.3834912    4.3834912   -1247.5125   -19841.675    34185.235   -18086.097   -31433.505    1413.6628   -679.07506    84.228762 
   74100    1171.3405   -109.11181    1.0598535   -108.05196     15269.73    4.3856486    4.3856486    4.3856486     15269.73    28549.875    29092.645   -11833.331    17276.687   -3908.6406   -3417.8479    84.353185 
   74200    789.25309   -108.76898   0.71413278   -108.05485    8906.0819    4.3875089    4.3875089    4.3875089    8906.0819    17104.479    7631.4012    1982.3657   -11722.322    6451.6643   -5661.6511    84.460577 
   74300    1019.2909    -108.9728   0.92227585   -108.05052   -17510.961    4.3925761    4.3925761    4.3925761   -17510.961   -26528.146   -14528.746   -11475.992   -29760.488    8872.6746    4039.4834    84.753545 
   74400    1622.7591   -109.50713    1.4683065   -108.03883    13268.556    4.3768113    4.3768113    4.3768113    13268.556    6520.9724    28385.755    4898.9395     13889.26   -4707.2932    4580.7305    83.844285 
   74500    1216.9166   -109.15577    1.1010917   -108.05468    7655.9341    4.3787138    4.3787138    4.3787138    7655.9341    37102.671   -27428.425    13293.556   -39585.477   -1384.7965   -11409.475    83.953667 
   74600    1644.3363   -109.54104      1.48783   -108.05321   -20904.753    4.3949288    4.3949288    4.3949288   -20904.753    4791.6248   -36060.777   -31445.106   -11359.721    6741.2808    6653.8441    84.889803 
   74700    1775.3455     -109.652    1.6063699   -108.04563    20539.528    4.3691667    4.3691667    4.3691667    20539.528    41649.064     12841.15    7128.3707    1562.8431   -583.32133     4866.862    83.405722 
   74800     839.4487   -108.82281   0.75955082   -108.06325     14097.73    4.3723074    4.3723074    4.3723074     14097.73    55495.947   -40238.914    27036.155   -40146.442    429.56849   -13429.241    83.585716 
   74900    1287.7755   -109.21731    1.1652063   -108.05211   -27267.313    4.3940008    4.3940008    4.3940008   -27267.313    6484.4361   -47314.897   -40971.479    7183.2296   -12052.507    589.28211     84.83604 
   75000    828.48006   -108.80012   0.74962617    -108.0505    17819.524    4.3758807    4.3758807    4.3758807    17819.524    16588.683    6798.1565    30071.731   -22636.057   -9659.0883    10245.493    83.790819 
   75100    1040.9507   -108.99869   0.94187403   -108.05681    8913.5629    4.3790905    4.3790905    4.3790905    8913.5629   -2233.4098   -7062.3208    36036.419   -10294.517    1616.0716   -22826.492     83.97534 
   75200    1371.2325   -109.29413      1.24072   -108.05341   -1002.8498    4.3863532    4.3863532    4.3863532   -1002.8498    2144.7752   -13183.247    8029.9225    10685.815   -6028.8779     1991.391    84.393851 
   75300    1266.8919   -109.20096    1.1463104   -108.05465    13882.084    4.3820242    4.3820242    4.3820242    13882.084   -6679.2446   -12433.769    60759.264   -34316.256   -11525.221    12981.186    84.144225 
   75400    1774.4455   -109.65143    1.6055556   -108.04587    4343.8275     4.389698     4.389698     4.389698    4343.8275    2544.5961   -11438.252    21925.138    13704.462    4519.3053   -11225.752    84.587058 
   75500      1149.78   -109.08528    1.0403451   -108.04494    6500.0318    4.3880916    4.3880916    4.3880916    6500.0318     -13327.8   -19418.448    52246.344    -9049.398    -607.5661    256.31809    84.494231 
   75600    824.44382   -108.79148    0.7459741   -108.04551    2853.3888    4.3824397    4.3824397    4.3824397    2853.3888   -15278.741   -27736.354    51575.262   -18633.296   -11406.412   -1090.6494    84.168165 
   75700    1038.1969   -108.97946   0.93938234   -108.04008     7957.255    4.3856956    4.3856956    4.3856956     7957.255   -11715.616    1289.6919    34297.689    7467.5497   -2701.9403   -15630.024    84.355901 
   75800    653.73366   -108.63992   0.59151195   -108.04841   -9080.2765     4.393528     4.393528     4.393528   -9080.2765   -44749.946   -28304.481    45813.598   -31508.497   -8286.6787    13948.191     84.80866 
   75900    1441.0562   -109.34072    1.3038979   -108.03682   -3260.0502     4.386846     4.386846     4.386846   -3260.0502   -16861.098   -38554.128    45635.075    14779.119   -3708.5426    4879.1046    84.422297 
   76000    1602.6817   -109.48802    1.4501401   -108.03788    11220.481    4.3744676    4.3744676    4.3744676    11220.481   -8404.4905   -26130.628    68196.563    -12904.55    1671.1136   -16979.114    83.709664 
   76100    1346.3594   -109.27492    1.2182143    -108.0567   -19341.219    4.3836204    4.3836204    4.3836204   -19341.219   -29577.422   -48586.221    20139.985   -41330.682    -2134.637    28766.029    84.236209 
   76200    1561.2145   -109.46195    1.4126197   -108.04933   -15767.626    4.3867848    4.3867848    4.3867848   -15767.626   -23670.526   -26227.907    2595.5562    23058.042   -12353.837    11344.385    84.418761 
   76300     863.0391   -108.83421   0.78089591   -108.05331   -17580.382     4.385693     4.385693     4.385693   -17580.382   -32589.921   -43628.265    23477.038   -24646.551    6529.0862   -15133.123    84.355746 
   76400    1079.8547   -109.02084   0.97707519   -108.04376   -11851.142    4.3806195    4.3806195    4.3806195   -11851.142   -10966.594   -23929.879    -656.9517   -9276.5926    1109.0153    20844.388     84.06333 
   76500    1262.7984   -109.18787    1.1426065   -108.04527     -1800.85    4.3770492    4.3770492    4.3770492     -1800.85   -23861.794   -4798.0971    23257.342   -3416.8433   -11623.909    5196.1735    83.857957 
   76600    1310.2304   -109.24096     1.185524   -108.05544   -13402.293    4.3867029    4.3867029    4.3867029   -13402.293   -16058.071   -41856.584    17707.775   -25643.677   -487.50824   -15076.975    84.414036 
   76700    1997.3134   -109.85254    1.8072112   -108.04533   -10740.596    4.3796231    4.3796231    4.3796231   -10740.596     13337.39   -14490.664   -31068.513    16550.505     6790.952    24494.057     84.00598 
   76800     1239.793   -109.17751    1.1217907   -108.05571    1886.6337    4.3720206    4.3720206    4.3720206    1886.6337   -18306.503   -15180.905    39147.309   -29667.421    3649.7185    815.77998    83.569267 
   76900    1322.7393   -109.25316    1.1968423   -108.05632   -8044.2919    4.3840106    4.3840106    4.3840106   -8044.2919   -15548.373   -27672.746    19088.243   -19596.627   -5296.4633   -9872.2532    84.258704 
   77000    1257.8874    -109.1885    1.1381629   -108.05034   -8699.3695    4.3836634    4.3836634    4.3836634   -8699.3695    199.98411   -26687.228    389.13537    2000.4258   -11196.593    7266.8635     84.23869 
   77100    453.37572   -108.46735   0.41022388   -108.05713    21292.511    4.3761258    4.3761258    4.3761258    21292.511    -25254.02   -12638.386    101769.94   -28813.708    718.63511    1584.0863    83.804898 
   77200     1388.362   -109.30401    1.2562191   -108.04779   -5712.1745    4.3892751    4.3892751    4.3892751   -5712.1745   -30001.093    6236.6537    6627.9155    8917.0655   -2582.0828   -12176.451    84.562613 
   77300    1105.5653   -109.05165    1.0003388   -108.05131    1653.0482    4.3846851    4.3846851    4.3846851    1653.0482    -29212.02   -35309.961    69481.126   -27556.084   -12732.628   -1675.6908      84.2976 
   77400    1569.5297   -109.46666    1.4201435   -108.04651    10883.638    4.3808659    4.3808659    4.3808659    10883.638   -5346.3573     -9870.59    47867.862   -7593.9602    290.63128    3924.6129    84.077515 
   77500    1521.4471   -109.42402    1.3766373   -108.04738   -1556.9551    4.3892252    4.3892252    4.3892252   -1556.9551   -11620.331   -28168.815     35118.28   -1275.7557    483.03131   -18491.539    84.559729 
   77600    1095.3095   -109.03894   0.99105906   -108.04788   -25061.308    4.3904118    4.3904118    4.3904118   -25061.308   -41969.547   -66253.371    33038.993   -24561.423   -4563.2795    957.54785    84.628331 
   77700    1665.2428   -109.54093    1.5067466   -108.03418   -15816.507    4.3853743    4.3853743    4.3853743   -15816.507    -28879.31   -25915.892    7345.6801    11677.518    1810.9348    13253.443    84.337362 
   77800    1223.5471   -109.15072    1.1070911   -108.04363   -29637.985    4.3907152    4.3907152    4.3907152   -29637.985   -47583.531   -47241.306    5910.8811   -43136.109   -2142.0367   -6671.7783    84.645875 
   77900    1727.9532   -109.60511    1.5634883   -108.04163   -11169.865    4.3867846    4.3867846    4.3867846   -11169.865   -28774.392    -23886.49    19151.289    17297.879   -7095.0917   -9304.4223     84.41875 
   78000    1633.7191     -109.523    1.4782234   -108.04478    -18564.92    4.3890226    4.3890226    4.3890226    -18564.92   -24702.196   -36853.909    5861.3442   -11779.426    2626.0797    4967.3025    84.548024 
   78100    1154.6897   -109.09469    1.0447875   -108.04991   -16868.748    4.3910388    4.3910388    4.3910388   -16868.748   -38266.801   -59784.917    47445.475   -30095.905    5315.4862   -4957.1258    84.664591 
   78200    1149.1948   -109.07905    1.0398156   -108.03924    14926.271    4.3837853    4.3837853    4.3837853    14926.271    -283.8731   -14097.815    59160.501    22365.269   -3402.3642   -484.07664    84.245715 
   78300    863.96071   -108.82612   0.78172981   -108.04439   -13267.486    4.3936177    4.3936177    4.3936177   -13267.486   -44096.422   -21213.601    25507.565   -26778.433    5529.6381    8540.8088    84.813854 
   78400    1218.5625   -109.14325     1.102581   -108.04067   -10460.025    4.3862811    4.3862811    4.3862811   -10460.025   -51128.382   -27794.302     47542.61    17830.516    773.98479    3190.8671    84.389685 
   78500    1530.1948   -109.42291    1.3845524   -108.03835    11402.012    4.3764631    4.3764631    4.3764631    11402.012    -27128.35   -13134.105    74468.492    -8442.671    7211.6388   -13066.061    83.824278 
   78600    1180.6404   -109.11913    1.0682683   -108.05086   -7509.7776    4.3951876    4.3951876    4.3951876   -7509.7776   -25144.681   -28978.682    31594.031   -25652.945    8324.5288    24320.664      84.9048 
   78700    1420.3898   -109.32274    1.2851986   -108.03755   -2412.9972    4.3918606    4.3918606    4.3918606   -2412.9972   -7657.2769   -44257.554    44675.839    23976.215   -3899.0939    6883.3684     84.71214 
   78800    1331.0082   -109.24407    1.2043242   -108.03974   -25521.243     4.382404     4.382404     4.382404   -25521.243   -34191.432   -50258.218    7885.9211   -21716.702   -12797.426   -9778.3024    84.166108 
   78900    866.14604   -108.84156   0.78370714   -108.05785   -6408.0278    4.3779657    4.3779657    4.3779657   -6408.0278   -1201.1923   -2574.6465   -15448.245   -11018.763    19412.328    33192.088    83.910648 
   79000    1738.0377   -109.62478     1.572613   -108.05216     9309.823     4.371937     4.371937     4.371937     9309.823    7009.3927    6281.9787    14638.098   -3276.5784    7274.7009    13264.705    83.564474 
   79100    1046.5709   -109.01755   0.94695935   -108.07059   -13673.429    4.3901801    4.3901801    4.3901801   -13673.429   -44599.182   -15132.108    18711.004   -20967.026   -15719.855   -6110.2449    84.614934 
   79200    1016.3765   -108.97495   0.91963884   -108.05531   -27354.638      4.39782      4.39782      4.39782   -27354.638   -13646.698   -19350.671   -49066.544   -884.30585    9273.9202    28147.629    85.057446 
   79300    1564.5384   -109.44942    1.4156272    -108.0338    4540.8983    4.3733324    4.3733324    4.3733324    4540.8983    10217.666    11125.929   -7720.8996   -6301.7752   -7898.4946   -3986.4309    83.644516 
   79400      747.992   -108.73388   0.67679888   -108.05708   -8773.2536    4.3807524    4.3807524    4.3807524   -8773.2536    10816.409   -43642.154     6505.984   -35785.949     10356.09    17444.795    84.070983 
   79500    1457.8849   -109.37301    1.3191249   -108.05388   -11183.156    4.3941814    4.3941814    4.3941814   -11183.156    10013.186   -19016.979   -24545.676     4939.065   -3786.3621    20795.011    84.846501 
   79600    1510.7745   -109.42031    1.3669805   -108.05333    2527.4526    4.3849235    4.3849235    4.3849235    2527.4526   -1866.0355    9535.0694   -86.676158     9456.989   -18408.933   -10796.416    84.311356 
   79700    1445.6694   -109.36145    1.3080721   -108.05338   -6873.9434    4.3746582    4.3746582    4.3746582   -6873.9434   -6222.6806   -19206.699    4807.5496   -33745.063    3024.4855    22472.098    83.720612 
   79800    1342.1095   -109.26798    1.2143689   -108.05361     8153.289    4.3855558    4.3855558    4.3855558     8153.289    24738.227    11949.117   -12227.477    6102.0357    3793.3264    10814.939    84.347832 
   79900    1012.8587    -108.9693   0.91645582   -108.05284   -29917.105    4.3931444    4.3931444    4.3931444   -29917.105   -28831.688   -38512.655   -22406.973    18983.289   -9333.1859   -2741.4133    84.786444 
   80000    1135.0477   -109.07329     1.027015   -108.04627   -11366.188    4.3797254    4.3797254    4.3797254   -11366.188    25897.108   -36432.352   -23563.321   -14999.813     1063.302    22609.913    84.011869 
   80100    1226.8401    -109.1574    1.1100707   -108.04733   -2743.4034    4.3847298    4.3847298    4.3847298   -2743.4034     12771.12   -1852.5919   -19148.739    17127.853   -4792.7495   -4794.2081    84.300182 
   80200    1366.8424   -109.28326    1.2367478   -108.04652   -25475.723    4.3913088    4.3913088    4.3913088   -25475.723    -33784.86   -24016.993   -18625.317    10545.034   -18965.401    7412.8371    84.680212 
   80300    1839.5021   -109.70022    1.6644202    -108.0358    7282.4355    4.3816061    4.3816061    4.3816061    7282.4355    15026.158    13878.545   -7057.3969   -6284.2399    5024.8575    15286.371     84.12014 
   80400    974.70993   -108.92981   0.88193803   -108.04788   -24599.383    4.3922567    4.3922567    4.3922567   -24599.383   -35930.681    516.46295   -38383.932    29514.609   -20868.184   -10025.917     84.73506 
   80500    943.50591   -108.89751   0.85370397    -108.0438   -20902.516    4.3847241    4.3847241    4.3847241   -20902.516   -29791.618    10003.559   -42919.489   -8304.1525   -15663.739    13724.377    84.299852 
   80600    1186.0898   -109.11488     1.073199   -108.04168    25111.289    4.3722441    4.3722441    4.3722441    25111.289    19773.792    31181.965    24378.111   -10451.678    14016.198    4212.0471    83.582084 
   80700    821.41096   -108.80747    0.7432299   -108.06424   -14876.406    4.3904894    4.3904894    4.3904894   -14876.406   -34340.147    10841.833   -21130.903    29437.754   -20324.949   -6751.2368     84.63282 
   80800    1519.3626   -109.42481    1.3747512   -108.05006   -5838.0154    4.3980478    4.3980478    4.3980478   -5838.0154   -8683.5045    9249.0232   -18079.565   -22411.125   -11176.791    13925.197    85.070665 
   80900    1637.2278   -109.51554    1.4813982   -108.03414   -557.47048    4.3880419    4.3880419    4.3880419   -557.47048   -14084.273    15169.435   -2757.5733   -3059.5083    13724.382   -8218.5785    84.491359 
   81000    794.40527   -108.76369   0.71879458    -108.0449   -12653.878    4.3805971    4.3805971    4.3805971   -12653.878   -7123.7539    10011.695   -40849.575    28777.963   -15498.833    674.30005    84.062044 
   81100    1305.4717    -109.2268    1.1812183   -108.04559    2645.3926    4.3853823    4.3853823    4.3853823    2645.3926    48273.385    824.57287    -41161.78   -21705.538    -2419.723   -212.56277    84.337824 
   81200    918.13809      -108.88   0.83075064   -108.04925    3984.4982    4.3957646    4.3957646    4.3957646    3984.4982    27370.025    14647.236   -30063.767    8058.3354    3189.7745   -13511.499    84.938245 
   81300    921.31287   -108.87675   0.83362324   -108.04313    4642.6032    4.4015903    4.4015903    4.4015903    4642.6032    41656.956    -6044.271   -21684.876    7390.9423   -12629.618     4081.614    85.276396 
   81400    2025.0525   -109.85897    1.8323101   -108.02666    14738.554    4.3822495    4.3822495    4.3822495    14738.554    46314.637   -8397.7296    6298.7551   -16397.763   -6508.4387   -5807.2011    84.157204 
   81500     1076.964   -109.02145   0.97445966   -108.04699     22556.96    4.3727387    4.3727387    4.3727387     22556.96    19323.377    27727.653    20619.849    23399.583   -1186.7209   -9341.4296    83.610453 
   81600    1648.6557   -109.53475    1.4917383   -108.04301   -18629.679    4.4000679    4.4000679    4.4000679   -18629.679   -24461.884    2222.3866    -33649.54   -2712.1557   -7120.2525    -5859.192    85.187945 
   81700    1077.7951    -109.0212   0.97521169   -108.04599   -33147.728    4.3999402    4.3999402    4.3999402   -33147.728   -31512.493   -19458.778   -48471.913    3509.1874    12117.016   -6447.9855    85.180529 
   81800    783.33761   -108.75271   0.70878033   -108.04393    6067.0308    4.3712742    4.3712742    4.3712742    6067.0308    3969.0465    46396.446   -32164.401    13418.151   -3744.1391   -3112.6863    83.526473 
   81900    1726.2502   -109.60387    1.5619474   -108.04193    12751.003    4.3791941    4.3791941    4.3791941    12751.003    19654.934    3228.4271    15369.647   -10191.307    7243.0839   -2212.9013    83.981298 
   82000    1065.5169   -109.02117   0.96410205   -108.05707   -9823.9279     4.398053     4.398053     4.398053   -9823.9279    675.63268    -33870.07    3722.6536     1342.244    15711.876   -3216.7864     85.07097 
   82100    1846.1253   -109.70701    1.6704129    -108.0366    11481.409    4.3908559    4.3908559    4.3908559    11481.409    5055.4093    37856.942   -8468.1233    11310.866    8659.7037   -10153.125    84.654014 
   82200    1406.1525   -109.30936    1.2723163   -108.03704     2155.096    4.3927691    4.3927691    4.3927691     2155.096    9364.0991   -19245.056    16346.245   -3375.7863    1981.5034   -3396.2029     84.76472 
   82300    1035.1177   -108.97628   0.93659627   -108.03968     2803.022    4.3792554    4.3792554    4.3792554     2803.022   -12336.342   -1771.8496    22517.257    2816.0248    12858.975    9873.0592    83.984823 
   82400    1195.3256   -109.12311    1.0815558   -108.04155    20366.476    4.3800136    4.3800136    4.3800136    20366.476    34296.874     47087.98   -20285.426    51.072668    6986.3315    632.33848    84.028453 
   82500    851.69425   -108.82277   0.77063086   -108.05214   -21078.451    4.3997256    4.3997256    4.3997256   -21078.451    2312.8095    -34239.31   -31308.853    527.69865     161.1153    1709.8893    85.168062 
   82600    1126.7492   -109.06311    1.0195064    -108.0436    5358.4967    4.3839758    4.3839758    4.3839758    5358.4967    -11306.62    30026.208   -2644.0985    4464.2555    12132.638   -4162.1117    84.256698 
   82700    1607.9213   -109.49569     1.454881   -108.04081    13991.759    4.3780229    4.3780229    4.3780229    13991.759    22510.639    15860.204    3604.4329   -1620.7795   -1920.8185    9228.6807    83.913937 
   82800    1598.8923   -109.49549    1.4467113   -108.04877    -5965.764    4.3913623    4.3913623    4.3913623    -5965.764     -3863.39   -3430.0407   -10603.861    663.09642   -1127.8845    -969.8458    84.683307 
   82900    1623.7289   -109.51112    1.4691841   -108.04193    2102.4926    4.3927823    4.3927823    4.3927823    2102.4926   -18031.111    28129.074   -3790.4855    4330.6655    912.96969   -9367.4475    84.765484 
   83000     1175.363   -109.10718    1.0634932   -108.04368   -8968.0144    4.3936206    4.3936206    4.3936206   -8968.0144   -1337.2907   -10207.061   -15359.691    3883.4557    532.43436    19802.916    84.814022 
   83100    1066.7058    -109.0102   0.96517781   -108.04502    7332.9251    4.3775125    4.3775125    4.3775125    7332.9251    -10738.44    42822.021   -10084.806   -8707.5034   -10314.036    1521.6955    83.884588 
   83200    1193.4066   -109.13666    1.0798194   -108.05684   -6368.1402    4.3798135    4.3798135    4.3798135   -6368.1402     -7546.75     5915.892   -17473.563   -6197.1561   -3347.9751     11995.14     84.01694 
   83300    1169.6391   -109.11781     1.058314    -108.0595   -10279.831    4.3924213    4.3924213    4.3924213   -10279.831   -18735.119    16001.043   -28105.417    14271.417   -2575.2867    26206.787    84.744588 
   83400    1736.9599    -109.6187    1.5716379   -108.04706   -3862.0174    4.3836288    4.3836288    4.3836288   -3862.0174    -30086.07     25065.16   -6565.1424   -18835.464    -12723.65   -9891.5826    84.236696 
   83500    1142.5571   -109.08705    1.0338097   -108.05324   -9551.5568    4.3901112    4.3901112    4.3901112   -9551.5568    21449.056   -8182.8138   -41920.912   -17634.809    6012.6806    20776.999    84.610947 
   83600    1460.3826   -109.36795    1.3213848   -108.04656   -14349.945    4.3837934    4.3837934    4.3837934   -14349.945    860.45675    13340.262   -57250.554    13035.998   -13695.426     18258.41    84.246186 
   83700    1157.5714   -109.10212    1.0473949   -108.05472     22648.65    4.3728093    4.3728093    4.3728093     22648.65    12355.954     52801.61    2788.3857   -11893.279   -12734.285   -8503.7011    83.614501 
   83800    1159.3851   -109.11565     1.049036   -108.06662   -8582.4268    4.3880097    4.3880097    4.3880097   -8582.4268     461.8009   -2780.3887   -23428.693   -22739.205    3339.1673    15697.435    84.489502 
   83900    1668.3171   -109.56846    1.5095284   -108.05893   -5181.8222    4.3881444    4.3881444    4.3881444   -5181.8222   -17700.148    25420.165   -23265.484    3961.1787   -20063.064    2919.2903    84.497281 
   84000    1161.2723   -109.10963    1.0507436   -108.05889    18134.447    4.3849037    4.3849037    4.3849037    18134.447   -2539.0238     38243.81    18698.554   -11341.454    5326.6181   -5798.2709    84.310211 
   84100    1213.2833   -109.15349    1.0978042   -108.05569   -21998.922    4.3859187    4.3859187    4.3859187   -21998.922   -13634.035     -23949.8   -28412.931   -11573.355   -6495.8656    6872.5066    84.368772 
   84200    1008.3241   -108.96326   0.91235283    -108.0509    23543.578    4.3749675    4.3749675    4.3749675    23543.578    18434.266    101570.88   -49374.416    1394.5226   -20339.988   -273.05724    83.738368 
   84300     1219.729    -109.1641    1.1036364   -108.06046   -9824.1065    4.3836531    4.3836531    4.3836531   -9824.1065   -7297.8419   -6549.9816   -15624.496   -10402.506    9388.5058   -7554.9016    84.238096 
   84400    1153.0176   -109.10365    1.0432745   -108.06037   -10228.109    4.3921346    4.3921346    4.3921346   -10228.109   -20205.905   -4132.9546   -6345.4675   -5182.0198   -11037.798    5903.1781    84.727995 
   84500    1813.6514   -109.68806    1.6410299   -108.04703    22598.502    4.3792318    4.3792318    4.3792318    22598.502   -7698.5884    76628.351   -1134.2558    259.70303    427.34768   -11635.852    83.983465 
   84600    1541.2908   -109.45395    1.3945923   -108.05936   -418.27371    4.3768702    4.3768702    4.3768702   -418.27371   -2459.3088   -26785.143     27989.63   -11720.621    1830.8333   -3717.6702    83.847672 
   84700    823.12306   -108.81278   0.74477904     -108.068    21006.541    4.3841706    4.3841706    4.3841706    21006.541   -8566.0674    69559.554    2026.1374   -15115.469   -23434.205    13641.494    84.267933 
   84800    1675.9583   -109.57159    1.5164423   -108.05515   -25208.096    4.3930044    4.3930044    4.3930044   -25208.096   -22724.343   -10925.624   -41974.321    14086.542    9210.0762   -2062.6648    84.778342 
   84900    637.37076   -108.64109   0.57670645   -108.06439   -8326.1364    4.3849469    4.3849469    4.3849469   -8326.1364    2616.6767    11887.146   -39482.232   -21334.619   -7872.2149   -20632.723    84.312702 
   85000    1310.0619   -109.24481    1.1853715   -108.05943    1946.9634     4.375057     4.375057     4.375057    1946.9634   -8836.4614        26429   -11751.648   -8668.7319   -12989.654     1710.482    83.743506 
   85100    1776.7613   -109.66639     1.607651   -108.05873    4233.9741    4.3842674    4.3842674    4.3842674    4233.9741   -24573.069    41480.869   -4205.8782    9404.2487     11055.35   -12974.858    84.273512 
   85200    1218.9752   -109.17023    1.1029544   -108.06727    1353.5767    4.3859352    4.3859352    4.3859352    1353.5767   -7602.5821    25774.804   -14111.491   -15996.692   -20182.979   -13329.288    84.369727 
   85300    1254.6112   -109.20095    1.1351985   -108.06575   -15693.086    4.3898753    4.3898753    4.3898753   -15693.086   -20563.969    5002.8378   -31518.126   -9673.5131    3967.2152    2327.9195    84.597309 
   85400    1311.7738   -109.24328    1.1869205   -108.05636     6243.086    4.3818208    4.3818208    4.3818208     6243.086    4745.6201    19171.163   -5187.5246    8660.5518    12914.937   -7075.0249    84.132506 
   85500    967.72866    -108.9372   0.87562123   -108.06158   -2077.6899    4.3785011    4.3785011    4.3785011   -2077.6899    10448.228   -26518.525    9837.2276   -9408.2726   -22988.059     -5026.75    83.941434 
   85600    1343.9506   -109.27978    1.2160348   -108.06375   -12778.983    4.3920656    4.3920656    4.3920656   -12778.983   -35233.549    15976.133   -19079.533   -13734.233     2771.792   -1952.2214    84.723999 
   85700    1615.3238   -109.51581    1.4615789   -108.05424    14857.316     4.380638     4.380638     4.380638    14857.316    16205.174    11482.494    16884.279    4772.1178    7259.2259    6757.8274    84.064395 
   85800    825.52374   -108.81393   0.74695123   -108.06698     24395.24    4.3792951    4.3792951    4.3792951     24395.24    7585.8123    73642.908    -8043.001   -9439.5793   -15175.874   -9162.3332     83.98711 
   85900    1598.5071   -109.50295    1.4463629   -108.05659   -14595.831    4.3924973    4.3924973    4.3924973   -14595.831   -28787.545    26676.271   -41676.218     64.40894    5863.2609    6068.8398    84.748985 
   86000    1055.7608   -109.01212   0.95527457   -108.05685    12042.537    4.3851741    4.3851741    4.3851741    12042.537    27709.604    37230.396   -28812.389    9282.3677     -6275.37   -11180.694    84.325808 
   86100    1069.9222    -109.0317   0.96808812   -108.06362   -19442.909    4.3899048    4.3899048    4.3899048   -19442.909   -20500.418   -2874.1687    -34954.14   -3142.7776   -29182.183    -629.3308    84.599014 
   86200    1778.4636   -109.65713    1.6091912   -108.04793    10589.227    4.3803493    4.3803493    4.3803493    10589.227   -1507.7396    25812.579    7462.8424    8844.9501    5061.1736    5139.5559    84.047779 
   86300    923.69575   -108.90671   0.83577933   -108.07093    -2872.338    4.3893945    4.3893945    4.3893945    -2872.338    948.79765    2707.5641   -12273.376    3887.6012    -19367.12   -9459.9233    84.569514 
   86400    1429.4036   -109.34662    1.2933544   -108.05327   -18245.938    4.4046805    4.4046805    4.4046805   -18245.938   -41485.633    32824.897   -46077.077    2379.7943   -2885.2993   -7686.9671    85.456133 
   86500    1737.7245   -109.61882    1.5723296    -108.0465    28825.009    4.3686996    4.3686996    4.3686996    28825.009    24309.324    68121.925   -5956.2222    7002.4298    7323.0619    10191.052    83.378975 
   86600     1189.856    -109.1389    1.0766067   -108.06229    13246.211    4.3684859    4.3684859    4.3684859    13246.211   -6545.0305    58279.788   -11996.126    9966.9597   -27361.235   -20193.623     83.36674 
   86700    1529.8081   -109.43775    1.3842025   -108.05354   -20111.479    4.3946215    4.3946215    4.3946215   -20111.479   -27750.679     3835.987   -36419.745   -2397.2906    21302.004    1216.9174       84.872 
   86800    874.03569      -108.85   0.79084586   -108.05915    330.62807     4.384458     4.384458     4.384458    330.62807   -9241.0718      844.301     9388.655   -13067.165   -404.84107    9565.1971    84.284506 
   86900    1124.4404   -109.07165    1.0174173   -108.05424   -7706.0979    4.3756908    4.3756908    4.3756908   -7706.0979   -11109.346   -20428.472    8419.5246    12504.731   -19893.689    -11858.09    83.779907 
   87000    1108.5385   -109.06042    1.0030289    -108.0574   -4068.6051    4.3845046    4.3845046    4.3845046   -4068.6051   -28491.112    23648.484   -7363.1867   -2872.4163    31592.395    581.73315    84.287193 
   87100    1447.0515   -109.36511    1.3093226   -108.05579    394.69273    4.3824748    4.3824748    4.3824748    394.69273    -18265.99    13615.143    5834.9253    -9912.301   -13637.543    13141.931    84.170184 
   87200    1524.0055   -109.43577    1.3789522   -108.05681   -2277.9348    4.3883555    4.3883555    4.3883555   -2277.9348    -24144.16    34531.527   -17221.171    4562.7977   -413.21438   -7287.1811    84.509475 
   87300     1351.942   -109.28343    1.2232655   -108.06016   -9756.4886    4.3823086    4.3823086    4.3823086   -9756.4886    -51685.64    33554.102   -11137.928   -4136.3306    27819.839   -1771.5067     84.16061 
   87400    1405.6875    -109.3253    1.2718956   -108.05341     21992.67    4.3673408    4.3673408    4.3673408     21992.67    26881.653    30702.017    8394.3405    6033.5949   -17033.314    5491.6955    83.301195 
   87500    983.85467   -108.95454   0.89021238   -108.06433    3456.4854    4.3849621    4.3849621    4.3849621    3456.4854   -25543.289    53289.035    -17376.29   -1395.9077    15177.224   -5002.9868     84.31358 
   87600    952.51127     -108.921   0.86185221   -108.05915   -22609.324    4.3932624    4.3932624    4.3932624   -22609.324   -48405.384    2451.4915    -21874.08    2910.9582    24696.661    2713.3845    84.793277 
   87700    1515.8991   -109.41263    1.3716173   -108.04101    5473.4589    4.3812018    4.3812018    4.3812018    5473.4589    8831.4851    11253.859   -3664.9673   -2747.9788   -16181.302    5161.0181    84.096856 
   87800    1175.5408   -109.11564     1.063654   -108.05198   -10261.068    4.3816666    4.3816666    4.3816666   -10261.068    -35456.98    15299.967   -10626.192    -6205.333    35207.465   -2133.3123    84.123625 
   87900     1453.185   -109.36895    1.3148724   -108.05407   -507.22776    4.3795007    4.3795007    4.3795007   -507.22776    3138.1186    7164.1773   -11823.979    5387.5304    18397.177   -2535.5938    83.998939 
   88000    1655.9234   -109.55067    1.4983143   -108.05235    9225.0781    4.3877003    4.3877003    4.3877003    9225.0781    838.91724    23480.247    3356.0698   -9496.2369    360.96244    21814.606    84.471627 
   88100    1018.0294   -108.97351   0.92113436   -108.05238   -10327.036    4.3985099    4.3985099    4.3985099   -10327.036   -4008.6074    2441.6379   -29414.138    9306.0935    33873.054   -3011.2091    85.097485 
   88200    1304.9645   -109.21936    1.1807593    -108.0386    19410.419    4.3807599    4.3807599    4.3807599    19410.419    37129.852    11978.373    9123.0317    41.505714   -4079.1609    6973.4074    84.071412 
   88300    1320.8065   -109.23584    1.1950935   -108.04074    2075.6566    4.3742777    4.3742777    4.3742777    2075.6566    6451.8243   -4770.3006    4545.4461   -7917.2803    15499.074    17274.193    83.698767 
   88400    1301.1034   -109.23102    1.1772657   -108.05376   -14767.552    4.3903305    4.3903305    4.3903305   -14767.552   -1746.8192    -35656.02   -6899.8171    15441.661    17659.103   -2008.8053    84.623631 
   88500    1642.8363   -109.53157    1.4864728    -108.0451    2091.2534    4.3916936    4.3916936    4.3916936    2091.2534    574.73759   -1003.5938    6702.6165    4378.8151   -5745.1512    20165.631    84.702475 
   88600    1225.7087   -109.15387     1.109047   -108.04482    1435.2812    4.3849073    4.3849073    4.3849073    1435.2812   -20963.503    40703.907    -15434.56   -3787.9734    27335.727    6226.6402    84.310419 
   88700    1564.1012    -109.4544    1.4152317   -108.03917    6175.2174    4.3807552    4.3807552    4.3807552    6175.2174   -16343.954    13748.989    21120.617    10237.825   -3970.6948    997.53383    84.071143 
   88800    1194.5047   -109.12795     1.080813   -108.04713    15873.268    4.3809909    4.3809909    4.3809909    15873.268   -11370.741    68106.024   -9115.4792    10534.849    6563.8281    10492.696    84.084716 
   88900     1131.138   -109.07861    1.0234775   -108.05513   -9630.8103    4.3865048    4.3865048    4.3865048   -9630.8103   -19094.389    27064.271   -36862.314   -4113.3446    24485.497    11346.665    84.402603 
   89000    1444.6928   -109.35558    1.3071884   -108.04839    6372.9196    4.3838446    4.3838446    4.3838446    6372.9196    -108.2011    25873.202   -6646.2425    11954.831   -10588.404   -12922.866    84.249134 
   89100    1157.4274   -109.10506    1.0472647   -108.05779    1323.1247    4.3886355    4.3886355    4.3886355    1323.1247    4275.0378    29225.268   -29530.932    5810.5129    27926.047    16299.782    84.525651 
   89200    1431.2671   -109.34671    1.2950406   -108.05167   -11142.599    4.3872768    4.3872768    4.3872768   -11142.599   -13598.385   -8393.1023   -11436.309    9963.7573    3953.6406    8832.6703     84.44717 
   89300    1287.3187   -109.21121     1.164793   -108.04641      13860.2    4.3745949    4.3745949    4.3745949      13860.2   -11827.029    39706.288     13701.34    52.446512   -9554.5508   -7143.1894    83.716977 
   89400    998.43443   -108.96268   0.90340445   -108.05928   -22149.679    4.3906993    4.3906993    4.3906993   -22149.679   -49170.223    797.76794    -18076.58   -725.07401    37375.086    5026.7519    84.644959 
   89500    1391.2391   -109.30427    1.2588224   -108.04545   -9674.3459    4.3914435    4.3914435    4.3914435   -9674.3459   -16293.511   -14081.758    1352.2311    15405.814   -2911.9893    1456.6258    84.688003 
   89600    1314.8727   -109.23663    1.1897245    -108.0469   -5673.3118    4.3821533    4.3821533    4.3821533   -5673.3118   -7246.1889     2638.469   -12412.215   -2914.0992    13176.795   -4208.0776    84.151663 
   89700    1529.5056   -109.43518    1.3839288   -108.05125   -17273.546    4.3841134    4.3841134    4.3841134   -17273.546   -12787.282    2661.0312   -41694.388    6273.8688    45358.595    100.72367    84.264631 
   89800    1862.5117    -109.7282    1.6852397   -108.04296   -7704.3316    4.3833364    4.3833364    4.3833364   -7704.3316    1803.7652   -31079.423    6162.6631    13737.472   -7258.8639    1380.9748    84.219841 
   89900    1311.1499   -109.23086     1.186356   -108.04451   -30071.892    4.3968562    4.3968562    4.3968562   -30071.892    -42481.39    -10145.35   -37588.937    -5655.086    19127.428   -17556.408    85.001537 
   90000    921.63855   -108.87365   0.83391792   -108.03973   -22725.576    4.3914528    4.3914528    4.3914528   -22725.576   -46230.329    7485.8572   -29432.258     304.9386    14058.462    16305.589    84.688542 
   90100    1046.7938   -108.98164   0.94716107   -108.03448    22470.037    4.3730772    4.3730772    4.3730772    22470.037   -7937.8084    32414.938    42932.983    10765.012   -5213.6108   -934.72193    83.629871 
   90200    1314.6502   -109.23729    1.1895231   -108.04777   -12106.207    4.3878158    4.3878158    4.3878158   -12106.207   -9598.5637    10469.883   -37189.941   -5118.6639    29435.028   -14821.203    84.478299 
   90300    1394.6783   -109.30854    1.2619342   -108.04661   -15073.143    4.3951673    4.3951673    4.3951673   -15073.143   -4315.3378   -22981.678   -17922.414    786.62364   -3782.0756    10758.898    84.903627 
   90400    1569.8797   -109.46013    1.4204601   -108.03967   -2090.5207    4.3902042    4.3902042    4.3902042   -2090.5207    3501.5434   -6025.6959   -3747.4096    4747.9372    -755.0723   -15742.298    84.616327 
   90500    1490.0405    -109.3805    1.3482199   -108.03228   -10769.733    4.3929982    4.3929982    4.3929982   -10769.733   -10072.563    13382.281   -35618.918    643.99209    19184.926   -477.36532    84.777984 
   90600    1086.2011   -109.01643    0.9828176   -108.03361   -12512.755    4.3919065    4.3919065    4.3919065   -12512.755   -36171.852   -397.83154   -968.58117    22122.779   -1960.4339   -7086.8281    84.714794 
   90700     1399.855   -109.29677    1.2666182   -108.03016   -10641.618    4.3931058    4.3931058    4.3931058   -10641.618   -48440.673    19840.464    -3324.647   -7437.5871   -1490.1411   -8854.8753    84.784211 
   90800    1146.2963   -109.07748    1.0371929   -108.04029   -10214.328    4.3842838    4.3842838    4.3842838   -10214.328    -21744.73   -4062.0978    -4836.156    12064.589    16083.594    10484.822    84.274458 
   90900     1472.384    -109.3797     1.332244   -108.04746     15883.96    4.3730901    4.3730901    4.3730901     15883.96    923.17417    -5495.182    52223.889    27873.862   -3088.4592   -10789.525     83.63061 
   91000    1653.6203   -109.55319    1.4962304   -108.05696   -14971.522    4.3980173    4.3980173    4.3980173   -14971.522   -28864.542   -15008.361   -1041.6619   -11587.515   -8012.9154    764.49889    85.068896 
   91100    1228.1883    -109.1616    1.1112906   -108.05031   -12807.209     4.396398     4.396398     4.396398   -12807.209   -32312.771   -20964.467     14855.61    13181.828    13664.846   -1781.0014    84.974966 
   91200    1267.8724   -109.17468    1.1471976   -108.02748    39830.435     4.377162     4.377162     4.377162    39830.435   -4246.7109    75498.145    48239.872   -944.13279   -4335.1354   -7262.5047    83.864441 
   91300    1172.4396   -109.10269     1.060848   -108.04184   -5374.2454    4.3914212    4.3914212    4.3914212   -5374.2454    -44460.81   -6338.6649    34676.739    1550.7776     6062.099   -372.50496    84.686716 
   91400    1265.8077   -109.19151    1.1453294   -108.04618    11575.618    4.3850897    4.3850897    4.3850897    11575.618   -16296.438    28412.265    22611.028    18273.439    13107.214   -4394.7816     84.32094 
   91500    1378.5425   -109.29614    1.2473343    -108.0488    19600.727    4.3761583    4.3761583    4.3761583    19600.727    10373.688    21607.759    26820.733   -14845.045   -14467.414    2448.6941    83.806766 
   91600     1124.929   -109.07424    1.0178594   -108.05638   -27460.847     4.392349     4.392349     4.392349   -27460.847    -49105.56   -23615.327   -9661.6521   -2672.2902    18823.217    -5481.719    84.740402 
   91700    1575.8665   -109.46872    1.4258772   -108.04284    11785.289    4.3792117    4.3792117    4.3792117    11785.289   -12215.657    13747.464     33824.06    3707.9905    7341.2978    3416.9182     83.98231 
   91800    1071.7457    -109.0284   0.96973807   -108.05866   -3183.8615    4.3910116    4.3910116    4.3910116   -3183.8615   -33906.814    16434.557     7920.673   -8391.5428   -13622.015   -8128.6092    84.663018 
   91900    987.91542   -108.94377   0.89388663   -108.04988   -27355.964    4.3972883    4.3972883    4.3972883   -27355.964   -73724.414    13743.499   -22086.977     3767.058    35459.258    203.00396    85.026599 
   92000    1515.5387   -109.39831    1.3712913   -108.02702    33670.225    4.3638862    4.3638862    4.3638862    33670.225    29707.479    58112.946    13190.249    -10395.04   -11265.172    4762.6146    83.103681 
   92100    1021.9566   -108.98374   0.92468783   -108.05905   -9609.7036    4.3857584    4.3857584    4.3857584   -9609.7036   -38825.807    27716.914   -17720.218   -12574.778   -4308.0975   -8658.1871    84.359521 
   92200    1444.3625   -109.34959    1.3068896    -108.0427   -24713.034    4.3951485    4.3951485    4.3951485   -24713.034   -43250.779   -8051.6838    -22836.64    4326.0586    32941.562   -6474.9555    84.902534 
   92300    1355.2561   -109.26199    1.2262642   -108.03573    10962.963    4.3752798    4.3752798    4.3752798    10962.963   -4486.6853   -7244.4138    44619.987   -15981.841   -20060.869    2634.1768      83.7563 
   92400    910.35042   -108.87945   0.82370419   -108.05575    -16944.86    4.3850794    4.3850794    4.3850794    -16944.86    -58755.84      14831.3   -6910.0406   -9191.2981     7737.514     7970.721    84.320345 
   92500    1569.2606   -109.46654       1.4199   -108.04664    543.64063    4.3817296    4.3817296    4.3817296    543.64063   -18471.794    10867.264    9235.4526   -644.96137    19502.158    -7388.296    84.127254 
   92600    1258.4111   -109.19389    1.1386368   -108.05525   -14545.018    4.3893472    4.3893472    4.3893472   -14545.018   -39432.898   -18518.304    14316.148   -16406.467   -8283.5567    232.51707    84.566783 
   92700    1042.2709   -108.99807   0.94306863     -108.055   -22608.683    4.3905685    4.3905685    4.3905685   -22608.683   -22703.851    17029.728   -62151.925    3282.3515    9657.2128    886.98622    84.637389 
   92800    1677.6135      -109.56      1.51794   -108.04206    11100.192    4.3649395    4.3649395    4.3649395    11100.192    14938.105    6996.4616    11366.009    -6227.663    14119.233   -7370.8971    83.163867 
   92900    1023.8728   -108.99164   0.92642166   -108.06521     36.70756    4.3803328    4.3803328    4.3803328     36.70756    4510.2433   -13704.356    9304.2357   -20137.219   -2802.8984    5507.6782    84.046827 
   93000    1256.8993   -109.19285    1.1372689   -108.05558   -33141.519    4.4013509    4.4013509    4.4013509   -33141.519   -28820.131   -19302.051   -51302.376    1697.5814    3977.8575   -8499.9233    85.262483 
   93100    1460.9434   -109.36278    1.3218923   -108.04089   -9633.4664    4.3839163    4.3839163    4.3839163   -9633.4664    -3372.357   -33211.913    7683.8703    -20443.37    441.12579   -12124.978    84.253271 
   93200    1250.1477   -109.17137    1.1311599   -108.04021    1039.4464    4.3759734    4.3759734    4.3759734    1039.4464   -4171.1569    6410.7233    878.77292     -22765.3    4338.5015    7983.4838     83.79614 
   93300    1465.4257   -109.36702     1.325948   -108.04107   -14313.362    4.3882942    4.3882942    4.3882942   -14313.362    3969.8926    13108.501    -60018.48    10827.753    8308.7173   -11878.276    84.505936 
   93400    1230.5818   -109.15893    1.1134562   -108.04547   -17253.486    4.3904097    4.3904097    4.3904097   -17253.486   -25980.992   -25885.506    106.03971   -32356.022   -9449.2053   -9965.2637    84.628206 
   93500    1390.1281   -109.30162    1.2578171   -108.04381   -7401.0337    4.3864025    4.3864025    4.3864025   -7401.0337   -4732.1034   -6014.3628   -11456.635    1706.0379    14328.911    1613.8295    84.396693 
   93600    1384.8559    -109.2982    1.2530467   -108.04516   -24248.222    4.3813659    4.3813659    4.3813659   -24248.222   -33174.782   -26747.933    -12821.95   -14322.976    11719.839   -10342.615     84.10631 
   93700     824.6414   -108.80522   0.74615287   -108.05907    -2230.127    4.3820445    4.3820445    4.3820445    -2230.127     -50660.5   -28666.572    72636.692   -31649.822   -6522.6427   -5345.3918    84.145396 
   93800    1790.0205   -109.66753    1.6196482   -108.04788   -9464.1415     4.391234     4.391234     4.391234   -9464.1415   -22388.922   -8719.0804    2715.5778    16037.065    32.092054     -3886.83    84.675883 
   93900    1223.6973   -109.16045     1.107227   -108.05322   -8346.5916    4.3885265    4.3885265    4.3885265   -8346.5916   -38141.025   -11862.768    24964.018   -48382.841    6285.3765    2062.6283    84.519355 
   94000    1553.8518   -109.45273    1.4059577   -108.04677    14595.601    4.3773894    4.3773894    4.3773894    14595.601   -21174.028    8777.5687    56183.262   -12339.836    1065.7846   -9981.9679    83.877512 
   94100    1946.7604   -109.80836    1.7614698   -108.04689    14037.676    4.3787374    4.3787374    4.3787374    14037.676   -1915.0903    14768.605    29259.515    6042.2427    1532.1252   -8178.0157    83.955026 
   94200    984.96414   -108.95288   0.89121626   -108.06166    -7025.354    4.3903357    4.3903357    4.3903357    -7025.354   -54265.632   -12840.538    46030.108   -45083.707   -4540.2281   -2355.9921    84.623931 
   94300    1419.6996   -109.32979     1.284574   -108.04522   -8182.3757    4.3915588    4.3915588    4.3915588   -8182.3757   -22163.077   -40174.075    37790.024    12575.363   -12502.046   -6322.5118    84.694675 
   94400     877.5153   -108.84177   0.79399429   -108.04778    11340.213    4.3755724    4.3755724    4.3755724    11340.213   -25915.767   -9343.6335    69280.041   -33868.903    808.61611   -1417.6517    83.773107 
   94500    1134.3729   -109.08136    1.0264045   -108.05496    472.38423    4.3786938    4.3786938    4.3786938    472.38423   -25628.816   -6854.3057    33900.274   -22661.584   -8330.9264    2162.6524    83.952519 
   94600    1576.3182   -109.47584    1.4262859   -108.04955    14236.348    4.3852889    4.3852889    4.3852889    14236.348    11172.601    11662.501    19873.944    5155.8631   -1837.3688    8739.7494    84.332432 
   94700     1286.429   -109.22018     1.163988   -108.05619   -728.77577    4.3899016    4.3899016    4.3899016   -728.77577   -31424.163   -5032.1817    34270.018   -46448.603   -574.82978   -3475.2592    84.598832 
   94800    1826.4155   -109.69371    1.6525791   -108.04113   -2594.8522    4.3872325    4.3872325    4.3872325   -2594.8522   -8050.5006   -4080.7904    4346.7345    5924.7891    11724.797    7395.0681    84.444613 
   94900    1174.0687   -109.10755     1.062322   -108.04523    9880.7733    4.3719076    4.3719076    4.3719076    9880.7733   -23456.967    8950.7382    44148.549    -22773.74   -13012.367    797.95645    83.562788 
   95000    1059.5302   -109.01667   0.95868523   -108.05798   -18227.115    4.3826438    4.3826438    4.3826438   -18227.115   -45461.966   -29356.905    20137.524       -28712    2948.5497    5944.1342    84.179921 
   95100    1204.2358   -109.13802    1.0896179    -108.0484   -20895.533    4.3957477    4.3957477    4.3957477   -20895.533   -35736.164   -33862.792    6912.3563    9109.2897    15094.768    6727.1522    84.937264 
   95200    978.03411   -108.93544   0.88494581    -108.0505    3121.3946    4.3774039    4.3774039    4.3774039    3121.3946   -32367.872    1894.8156     39837.24   -52639.058   -16392.678    4538.1063    83.878345 
   95300    1805.2979   -109.68292    1.6334714   -108.04945    12499.115    4.3819695    4.3819695    4.3819695    12499.115    -1492.805    4657.9175    34332.233    4711.7589   -449.49967     6100.104    84.141072 
   95400    1611.7029   -109.51416    1.4583026   -108.05586   -1604.1806    4.3884378    4.3884378    4.3884378   -1604.1806   -15996.197    13195.533   -2011.8781   -20301.735    4810.8411   -6904.9282    84.514233 
   95500    946.10485   -108.91643   0.85605555   -108.06037    18528.183    4.3848132    4.3848132    4.3848132    18528.183    -5481.501    12108.457    48957.593   -50719.314   -1995.2036    -1601.229    84.304994 
   95600    1560.3177    -109.4514    1.4118083    -108.0396   -11121.947    4.3958107    4.3958107    4.3958107   -11121.947    2459.5763   -35959.747    134.32999    7519.6307   -3221.8009   -104.61534    84.940918 
   95700    497.78205   -108.50063   0.45040366   -108.05023    1041.9181    4.3800629    4.3800629    4.3800629    1041.9181    4568.7499   -46651.579    45208.583   -45843.797    5017.4121    5850.9092    84.031294 
   95800    1123.6234   -109.06603     1.016678   -108.04935    31045.489    4.3740121    4.3740121    4.3740121    31045.489    41248.848    2334.9158    49552.702   -9152.1755   -16164.701   -7318.1205    83.683518 
   95900    1623.3694   -109.51576    1.4688588    -108.0469    5568.5142    4.3967716    4.3967716    4.3967716    5568.5142    28098.769   -15216.021    3822.7945   -7839.5525    9512.5832    4432.2017    84.996634 
   96000    1168.0401   -109.10444    1.0568672   -108.04757    7423.4572    4.3903945    4.3903945    4.3903945    7423.4572     3345.912    27127.598   -8203.1386   -45080.719    5378.1076    6998.5899     84.62733 
   96100    1584.2518   -109.46659    1.4334643   -108.03312    23849.254    4.3799666    4.3799666    4.3799666    23849.254    10212.857    40925.451    20409.452    4984.3327   -16762.251    5025.3215    84.025751 
   96200    923.39527   -108.88316   0.83550745   -108.04765   -7423.6773    4.3870437    4.3870437    4.3870437   -7423.6773   -52070.577   -24352.612    54152.157   -20768.418    8990.6313    3706.1359    84.433713 
   96300    892.44473   -108.84905   0.80750275   -108.04155     15624.65    4.3838392    4.3838392    4.3838392     15624.65   -37954.685    39719.955    45108.681   -11884.307   -775.30657    7707.2227    84.248825 
   96400    1309.6812   -109.22842    1.1850271   -108.04339   -11766.563    4.3969869    4.3969869    4.3969869   -11766.563   -42516.846   -23029.696    30246.854   -84.395252   -5175.4251    13203.505    85.009119 
   96500    1097.2774   -109.04083   0.99283967   -108.04799    79.917518    4.3902543    4.3902543    4.3902543    79.917518   -51992.796   -16643.606    68876.154   -24867.515    7445.5609    9967.7312    84.619221 
   96600     1769.283   -109.62817    1.6008845   -108.02729    28538.868    4.3766745    4.3766745    4.3766745    28538.868   -2466.7202    37368.764     50714.56    7836.3171    12938.818    14384.878    83.836422 
   96700    910.72744   -108.88101   0.82404533   -108.05696    -1597.199    4.3964264    4.3964264    4.3964264    -1597.199   -47561.877   -28650.488    71420.768   -17766.051   -13830.698    4670.7043    84.976616 
   96800    937.97115   -108.89084   0.84869601   -108.04215    5159.9532    4.3962782    4.3962782    4.3962782    5159.9532   -37517.886   -1230.7227    54228.469   -757.14743    3742.3212    16444.294    84.968022 
   96900    1062.1409   -108.98917   0.96104743   -108.02813     14349.63    4.3857046    4.3857046    4.3857046     14349.63    -10896.95    15760.689    38185.152   -1795.3205    2954.3302    15171.386    84.356415 
   97000    777.87174   -108.74629    0.7038347   -108.04246   -17596.996    4.3960386    4.3960386    4.3960386   -17596.996   -49545.327   -34414.409    31168.749   -35993.245   -8106.5664   -1484.9484    84.954127 
   97100    1680.3034    -109.5451    1.5203738   -108.02473    26385.181    4.3797803    4.3797803    4.3797803    26385.181   -2863.6432     22046.26    59972.927    9458.3725    10201.424    18992.939    84.015029 
   97200    1131.2232   -109.07859    1.0235545   -108.05503    352.98779    4.3869085    4.3869085    4.3869085    352.98779   -31232.869    5420.0415    26871.791   -23372.432    3147.8393   -1375.4607    84.425907 
   97300    1405.3594   -109.31096    1.2715987   -108.03936   -11403.995    4.3998822    4.3998822    4.3998822   -11403.995   -54538.012    5454.1179    14871.908   -14584.635   -16466.229   -1097.7355     85.17716 
   97400    1441.4034   -109.33242    1.3042121   -108.02821    20292.055    4.3764979    4.3764979    4.3764979    20292.055   -18195.943    35546.584    43525.525     6711.953    6772.5769    20714.519    83.826278 
   97500    770.01712   -108.74862   0.69672767   -108.05189   -8334.0546    4.3842857    4.3842857    4.3842857   -8334.0546   -18442.596   -6234.7317    -324.8364   -28124.599    10451.471    2264.7991    84.274572 
   97600    1706.7736   -109.58546    1.5443246   -108.04113    -3513.873    4.3824574    4.3824574    4.3824574    -3513.873   -10039.903    2569.5318   -3071.2474    1650.7614   -8001.0455   -4678.0284    84.169183 
   97700    712.03002    -108.7008   0.64425973   -108.05654    31717.659    4.3771065    4.3771065    4.3771065    31717.659    28489.675    18345.853    48317.449    4287.3167     8338.022    3953.3257    83.861254 
   97800    1148.5889   -109.08858    1.0392674   -108.04931   -18534.249    4.4025995    4.4025995    4.4025995   -18534.249   -7070.7785   -40247.516   -8284.4508   -22588.882     3050.989    9488.5162    85.335067 
   97900    1823.0694   -109.68911    1.6495515   -108.03956   -7662.4172    4.3819796    4.3819796    4.3819796   -7662.4172   -30864.423    13168.375   -5291.2037    22612.065    109.92274   -3589.1158    84.141658 
   98000     1039.251   -108.98174   0.94033618   -108.04141     32316.42    4.3570399    4.3570399    4.3570399     32316.42     10235.31    36926.896    49787.054    -5094.458     17826.86    5697.3134     82.71316 
   98100    1750.7432    -109.6377    1.5841093    -108.0536   -1374.7046    4.3886675    4.3886675    4.3886675   -1374.7046    5078.9895   -12601.358    3398.2544    -15533.39   -720.62532    10129.098    84.527504 
   98200    1406.3263   -109.31366    1.2724736   -108.04118   -17052.948    4.3973327    4.3973327    4.3973327   -17052.948   -33121.793   -17409.986   -627.06508    27708.519    692.46628   -4745.8627     85.02918 
   98300    945.33441   -108.89396   0.85535844    -108.0386    10385.699    4.3763977    4.3763977    4.3763977    10385.699    19353.541   -22448.662    34252.219    -22214.65    5269.1354    4448.6867    83.820516 
   98400    1250.2572   -109.17035     1.131259   -108.03909    7157.3545    4.3718904    4.3718904    4.3718904    7157.3545    26721.156   -26620.358    21371.265     11630.57   -304.29541   -7873.9442    83.561805 
   98500    1014.5165   -108.97032   0.91795588   -108.05236    14110.349    4.3773359    4.3773359    4.3773359    14110.349   -4285.1403     26267.73    20348.458    22594.277    12581.625   -5522.5615    83.874439 
   98600    1302.4366   -109.23029     1.178472   -108.05182   -2305.1189     4.394554     4.394554     4.394554   -2305.1189    1351.2789   -24038.003    15771.368   -24404.575    8822.7022    7222.3752     84.86809 
   98700    1517.2123   -109.41432    1.3728056   -108.04151    -15297.22    4.3902058    4.3902058    4.3902058    -15297.22    -33780.11   -20975.742    8864.1919    33883.025   -5003.8111   -1186.0979     84.61642 
   98800    1358.0037   -109.26293    1.2287503   -108.03418    25674.241    4.3657673    4.3657673    4.3657673    25674.241    15010.157    28313.381    33699.186    3572.8948    14361.369   -2856.4296    83.211194 
   98900    1266.8815   -109.19382     1.146301   -108.04752   -8540.7872    4.3786915    4.3786915    4.3786915   -8540.7872   -3593.5674   -55069.688    33040.894   -8110.6992    9154.8633    1699.1844    83.952388 
   99000    1108.7474   -109.05068     1.003218   -108.04747   -18883.598    4.3904729    4.3904729    4.3904729   -18883.598   -23430.064   -54537.746    21317.017    30713.486   -7877.6704    2388.8282    84.631866 
   99100    1377.8585   -109.28723    1.2467153   -108.04052    12158.812    4.3774066    4.3774066    4.3774066    12158.812    -3138.874      22425.7    17189.609     -7478.52     15195.21    5631.7443    83.878504 
   99200    1116.8008   -109.06359    1.0105048   -108.05309    4638.3847    4.3755788    4.3755788    4.3755788    4638.3847    7184.8823   -19806.592    26536.864    5699.2829    4285.0549   -10571.525    83.773477 
   99300     1695.286   -109.58422    1.5339304   -108.05029   -1366.9342    4.3795433    4.3795433    4.3795433   -1366.9342   -30404.334    20684.736    5618.7955    13342.576    3723.1216   -6307.1869    84.001392 
   99400    1340.4695   -109.26657     1.212885   -108.05369       2243.1    4.3829739    4.3829739    4.3829739       2243.1   -4517.1407    4480.7981    6765.6424    -10402.22    6414.9233    12851.168    84.198949 
   99500    993.39878    -108.9528   0.89884809   -108.05396   -12126.423    4.3870772    4.3870772    4.3870772   -12126.423    10703.352     -56694.2    9611.5805    9048.5989    1353.9123   -8792.5226    84.435644 
   99600    1576.7365   -109.46381    1.4266643   -108.03715   -12265.821    4.3808611    4.3808611    4.3808611   -12265.821   -4464.5075   -30524.595   -1808.3613    10118.022    5549.7373   -3763.5651    84.077241 
   99700    795.48239   -108.77113   0.71976918   -108.05136    10605.125    4.3693797    4.3693797    4.3693797    10605.125    24052.428    -23784.58    31547.528   -24249.725    6642.5007    11720.352     83.41792 
   99800    1332.8492   -109.26605      1.20599   -108.06006   -5564.1611    4.3809525    4.3809525    4.3809525   -5564.1611    8765.8855   -13592.287   -11866.082    2906.0658    3162.9372   -9524.9177    84.082506 
   99900    1548.6322   -109.45452    1.4012349   -108.05329   -6537.0082    4.3855924    4.3855924    4.3855924   -6537.0082    -1514.577   -521.66239   -17574.785    1269.6809   -16161.375    7470.7942    84.349945 
  100000    1034.5628   -108.99074   0.93609412   -108.05465   -3231.4077    4.3796805    4.3796805    4.3796805   -3231.4077    13702.836   -23517.626    120.56722    -24814.05    14586.817    3017.4662    84.009283 
Loop time of 22.9422 on 1 procs for 100000 steps with 8 atoms

Pair  time (%) = 6.94521 (30.2726)
Kspce time (%) = 5.74973 (25.0618)
Neigh time (%) = 0.030915 (0.134752)
Comm  time (%) = 0.98729 (4.30338)
Outpt time (%) = 0.0288696 (0.125836)
Other time (%) = 9.20019 (40.1016)

Nlocal:    8 ave 8 max 8 min
Histogram: 1 0 0 0 0 0 0 0 0 0
Nghost:    1720 ave 1720 max 1720 min
Histogram: 1 0 0 0 0 0 0 0 0 0
Neighs:    2035 ave 2035 max 2035 min
Histogram: 1 0 0 0 0 0 0 0 0 0

Total # of neighbors = 2035
Ave neighs/atom = 254.375
Neighbor list builds = 372
Dangerous builds = 0
unfix 20
unfix 21
print "seeds:9194054"
seeds:9194054
