LAMMPS (10 Feb 2015)
# ---- initialize simulations
clear
units metal
dimension 3
boundary p p p
atom_style charge
atom_modify map array
# ---- create atoms
read_data /Users/eugeneragasa/pyflamestk_git/pypospack/tests/tests_integration/workflow/WorkflowLammpsThermalExpansion/param_1902/MgO_NaCl_unit.npt.T100/lammps.structure
  triclinic box = (0 0 0) to (4.2565 4.2565 4.2565) with tilt (0 0 0)
  1 by 1 by 1 MPI processor grid
  reading atoms ...
  8 atoms
# ---- define interatomic potential
include potential.mod
mass 1 24.305
mass 2 15.999

group Mg type 1
4 atoms in group Mg
group O type 2
4 atoms in group O

set group Mg charge 1.69754800024
  4 settings made for charge
set group O charge -1.69754800024
  4 settings made for charge

variable R_cut equal 10.0

pair_style buck/coul/long ${R_cut}
pair_style buck/coul/long 10
pair_coeff 1 1 0.0 0.5 0.0 ${R_cut}
pair_coeff 1 1 0.0 0.5 0.0 10
pair_coeff 1 2 1340.93810979 0.285979914483 0.0 ${R_cut}
pair_coeff 1 2 1340.93810979 0.285979914483 0.0 10
pair_coeff 2 2 11096.6994948 0.145827000496 3.24328494634 ${R_cut}
pair_coeff 2 2 11096.6994948 0.145827000496 3.24328494634 10

kspace_style pppm 1.0e-5

neighbor 1.0 bin
neigh_modify every 1 delay 0 check yes
# ---- define settings
compute eng all pe/atom
compute eatoms all reduce sum c_eng
# ---- run minimization
reset_timestep 0
fix 1 all box/relax iso 0.0 vmax 0.001
thermo 10
thermo_style custom step pe lx ly lz xy xz yz press pxx pyy pzz pxy pxz pyz c_eatoms
min_style cg
minimize 1e-25 1e-25 5000 10000
PPPM initialization ...
  G vector (1/distance) = 0.353134
  grid = 8 8 8
  stencil order = 5
  estimated absolute RMS force accuracy = 4.09436e-05
  estimated relative force accuracy = 2.84338e-06
  using double precision FFTs
  3d grid and FFT values/proc = 3375 512
Neighbor list info ...
  1 neighbor list requests
  update every 1 steps, delay 0 steps, check yes
  master list distance cutoff = 11
Memory usage per processor = 4.06549 Mbytes
Step PotEng Lx Ly Lz Xy Xz Yz Press Pxx Pyy Pzz Pxy Pxz Pyz eatoms 
       0   -117.43599       4.2565       4.2565       4.2565            0            0            0    33717.192    33717.192    33717.192    33717.192 -3.1023281e-11 -2.4163961e-10 -2.0934262e-10   -117.43599 
       8   -117.45138    4.2835821    4.2835821    4.2835821            0            0            0   -5.0124394   -5.0124394   -5.0124394   -5.0124394 6.8970478e-11 -1.4442567e-10 -9.765937e-11   -117.45138 
Loop time of 0.00899005 on 1 procs for 8 steps with 8 atoms

Minimization stats:
  Stopping criterion = linesearch alpha is zero
  Energy initial, next-to-last, final = 
        -117.435990229     -117.451383044     -117.451383044
  Force two-norm initial, final = 4.86878 0.0018005
  Force max component initial, final = 4.86878 0.000733039
  Final line search alpha, max atom move = 0.00390625 2.86343e-06
  Iterations, force evaluations = 8 25

Pair  time (%) = 0.00243783 (27.117)
Kspce time (%) = 0.00140071 (15.5807)
Neigh time (%) = 0 (0)
Comm  time (%) = 0.000315666 (3.51128)
Outpt time (%) = 0 (0)
Other time (%) = 0.00483584 (53.7911)

Nlocal:    8 ave 8 max 8 min
Histogram: 1 0 0 0 0 0 0 0 0 0
Nghost:    2189 ave 2189 max 2189 min
Histogram: 1 0 0 0 0 0 0 0 0 0
Neighs:    2344 ave 2344 max 2344 min
Histogram: 1 0 0 0 0 0 0 0 0 0

Total # of neighbors = 2344
Ave neighs/atom = 293
Neighbor list builds = 0
Dangerous builds = 0
unfix 1
# ---- define output variables ----
variable natoms equal "count(all)"
variable tot_energy equal "c_eatoms"
variable length_x equal "lx"
variable length_y equal "ly"
variable length_z equal "lz"
variable tilt_xy equal "xy"
variable tilt_xz equal "xz"
variable tilt_yz equal "yz"
variable tot_press equal "press"
variable press_xx equal "pxx"
variable press_yy equal "pyy"
variable press_zz equal "pzz"
variable press_xy equal "pxy"
variable press_xz equal "pxz"
variable press_yz equal "pyz"

# ---- output ----
print "pypospack:output_section:begin"
pypospack:output_section:begin
print "tot_energy = ${tot_energy}"
tot_energy = -117.45138304358
print "num_atoms = ${natoms}"
num_atoms = 8
print "xx = ${length_x}"
xx = 4.28358206284588
print "yy = ${length_y}"
yy = 4.28358206284588
print "zz = ${length_z}"
zz = 4.28358206284588
print "xy = ${tilt_xy}"
xy = 0
print "xz = ${tilt_xz}"
xz = 0
print "yz = ${tilt_yz}"
yz = 0
print "tot_press = ${tot_press}"
tot_press = -5.01243937142067
print "pxx = ${press_xx}"
pxx = -5.01243937108414
print "pyy = ${press_yy}"
pyy = -5.01243937158826
print "pzz = ${press_zz}"
pzz = -5.01243937158962
print "pxy = ${press_xy}"
pxy = 6.8970477610601e-11
print "pxz = ${press_xz}"
pxz = -1.44425666326158e-10
print "pyz = ${press_yz}"
pyz = -9.76593698696591e-11
print "pypospack:output_section:done"
pypospack:output_section:done
print "pypospack:lammps_sim:done"
pypospack:lammps_sim:done
#------------------------------------------------------------------------------
# RUN THERMOSTAT
# running using an NPT Nose-Hoover style thermostat
#------------------------------------------------------------------------------
variable tempdamp equal 0.1
variable pressdamp equal 1.0
# set initial velocities
velocity all create 100 2897269 mom yes dist gaussian loop all
# fix for Nose-Hoover style thermostat
fix 20 all npt temp 100 100 0.1 aniso 0.0 0.0 1.0 drag 1.0 couple xyz
variable boxx equal lx
variable boxy equal ly
variable boxz equal lz
variable boxp equal press
variable boxt equal temp
# calculate averages every 10000 steps
reset_timestep 0
fix 21 all ave/time 10 10 100 v_boxx v_boxy v_boxz v_boxp v_boxt file lattice.out
thermo_style custom step temp pe ke etotal press lx ly lz press pxx pyy pzz pxy pxz pyz vol
thermo_modify flush yes
thermo 100
run 100000
PPPM initialization ...
  G vector (1/distance) = 0.352856
  grid = 8 8 8
  stencil order = 5
  estimated absolute RMS force accuracy = 4.14735e-05
  estimated relative force accuracy = 2.88018e-06
  using double precision FFTs
  3d grid and FFT values/proc = 3375 512
Memory usage per processor = 3.06549 Mbytes
Step Temp PotEng KinEng TotEng Press Lx Ly Lz Press Pxx Pyy Pzz Pxy Pxz Pyz Volume 
       0          100   -117.45139  0.090482102   -117.36091    1223.6091    4.2835821    4.2835821    4.2835821    1223.6091    1653.1861    1375.4183    642.22293   -1202.1183    383.42821   -145.21659     78.59977 
     100    28.070437   -117.37287  0.025398722   -117.34747     4983.646    4.2840419    4.2840419    4.2840419     4983.646     6378.434    6670.0301     1902.474    574.60054    -1392.985   -347.60226    78.625084 
     200    102.78079   -117.41707  0.092998219   -117.32407   -794.43224    4.2862549    4.2862549    4.2862549   -794.43224   -603.20465   -109.27102    -1670.821    599.53608    279.65304   -310.86573    78.746993 
     300    62.299781   -117.35843  0.056370151   -117.30205    4786.5061    4.2861711    4.2861711    4.2861711    4786.5061    7386.9494    4463.4004    2509.1686    1476.2827   -848.27878   -112.26948    78.742375 
     400    117.11071   -117.39198   0.10596423   -117.28601    1865.3081    4.2868141    4.2868141    4.2868141    1865.3081     2688.313    2329.8369    577.77436   -678.49767   -153.74912   -130.41626    78.777818 
     500    116.69453   -117.38074   0.10558766   -117.27515   -1404.7783    4.2895818    4.2895818    4.2895818   -1404.7783      1294.02   -1978.9824   -3529.3725   -489.21028   -554.00861   -840.93437    78.930501 
     600    66.565368    -117.3309  0.060229743   -117.27067    1449.7685    4.2898464    4.2898464    4.2898464    1449.7685    5387.5433    529.85648   -1568.0944    1464.0793   -1135.5021   -214.47163    78.945107 
     700    157.41141   -117.41159   0.14242916   -117.26916   -2903.5118    4.2889857    4.2889857    4.2889857   -2903.5118   -1410.7121   -2500.9329   -4798.8904    198.99606    599.63794    155.10412    78.897602 
     800    61.270629   -117.32526  0.055438952   -117.26982    2256.2552    4.2898173    4.2898173    4.2898173    2256.2552    3659.9616    2942.1624     166.6417    696.12592   -1734.7961   -60.321598    78.943503 
     900    133.15708   -117.39052   0.12048333   -117.27003   -5323.1023     4.291606     4.291606     4.291606   -5323.1023   -3671.7034    -6220.212   -6077.3913   -1073.6917    580.26289   -1120.0274    79.042292 
    1000    45.328794   -117.31175  0.041014445   -117.27073    1292.5468    4.2895072    4.2895072    4.2895072    1292.5468    1819.5698    4541.1764   -2483.1057    910.24595   -2442.6632   -1296.9973    78.926383 
    1100    137.84887   -117.39463   0.12472855    -117.2699   -3874.6071    4.2903287    4.2903287    4.2903287   -3874.6071     -3402.66   -4066.7342   -4154.4271    156.78742    847.82934    717.95737    78.971737 
    1200    87.833894   -117.34979  0.079473953   -117.27032   -1077.2044    4.2905252    4.2905252    4.2905252   -1077.2044    1425.6434    455.98963   -5113.2463     632.4219   -1504.0458    -101.0682    78.982588 
    1300    93.340711   -117.35486  0.084456637    -117.2704   -2302.4823    4.2906602    4.2906602    4.2906602   -2302.4823   -2398.4164    260.84909   -4769.8796    -357.5354    -562.1279   -460.04344    78.990045 
    1400    79.027449   -117.34215  0.071505696   -117.27064   -371.18307    4.2896301    4.2896301    4.2896301   -371.18307    2979.2103   -1483.6797   -2609.0798    676.98231   -369.77057   -1125.8743    78.933166 
    1500    93.045878   -117.35447  0.084189866   -117.27028    458.40592    4.2888128    4.2888128    4.2888128    458.40592   -868.15648    601.57441    1641.7998   -102.27479   -629.28621   -26.950665    78.888058 
    1600     100.6868   -117.36146  0.091103529   -117.27036   -442.34257    4.2899217    4.2899217    4.2899217   -442.34257    3709.8463   -1818.5567   -3218.3173     1182.351    471.97191    47.162845    78.949266 
    1700    65.725226   -117.33025  0.059469566   -117.27078    363.28022    4.2893785    4.2893785    4.2893785    363.28022    432.53863   -323.25127    980.55331    421.89457   -1549.5751   -330.34544    78.919277 
    1800    104.86434   -117.36515  0.094883456   -117.27027   -1568.6025    4.2880237    4.2880237    4.2880237   -1568.6025    1262.4067   -3055.1876   -2913.0264   -85.264708    899.96792   -21.536757    78.844523 
    1900    81.067969    -117.3435  0.073352002   -117.27015     1453.815    4.2890547    4.2890547    4.2890547     1453.815    1605.4633    3478.1929   -722.21108   -341.86208    -1616.472   -502.22414    78.901407 
    2000    114.25822   -117.37332   0.10338324   -117.26994   -1821.3259    4.2899234    4.2899234    4.2899234   -1821.3259   -212.07974   -3211.8771   -2040.0209   -421.42278    820.39813   -399.82615    78.949357 
    2100    47.968564   -117.31386  0.043402964   -117.27046    1729.3213    4.2876081    4.2876081    4.2876081    1729.3213    2338.2431    3597.9445   -748.22366     1416.753   -1858.2153    -1673.034    78.821599 
    2200    111.33735   -117.37078   0.10074038   -117.27004   -1071.5756    4.2887655    4.2887655    4.2887655   -1071.5756   -3131.0799   -170.04031      86.3933   -560.02967     127.3216    427.03066     78.88545 
    2300    86.241657   -117.34823  0.078033264    -117.2702    1900.5391    4.2891966    4.2891966    4.2891966    1900.5391     6226.619    2118.3857   -2643.3875    1106.4751   -326.74946    222.22262    78.909241 
    2400    107.36586   -117.36732  0.097146889   -117.27017    -907.3851    4.2886863    4.2886863    4.2886863    -907.3851   -3651.6174    2370.1573   -1440.6952   -1949.9881   -1205.2447   -293.82975    78.881081 
    2500    82.794179   -117.34524  0.074913913   -117.27032     335.4502    4.2886589    4.2886589    4.2886589     335.4502    3726.0331    279.70868   -2999.3912    1672.8242     180.3665   -1105.4468    78.879565 
    2600    91.047757    -117.3526  0.082381924   -117.27022    1425.5716    4.2887836    4.2887836    4.2887836    1425.5716    622.41445    2018.3809    1635.9195   -466.23279   -875.25646   -304.14767     78.88645 
    2700    125.98294   -117.38392   0.11399201   -117.26992   -1180.0549    4.2896596    4.2896596    4.2896596   -1180.0549    905.48809   -1710.3486    -2735.304    805.93915    1240.6275     639.8968    78.934797 
    2800    69.817543   -117.33354   0.06317238   -117.27037    1284.5793    4.2892166    4.2892166    4.2892166    1284.5793    294.65237    1108.6782    2450.4074    294.89182   -1459.1109   -295.80425    78.910342 
    2900    117.67356   -117.37666   0.10647351   -117.27019   -1734.8491    4.2886204    4.2886204    4.2886204   -1734.8491    479.54603   -3599.4691   -2084.6242   -1192.3362    417.64274   -517.91759    78.877444 
    3000    93.980396    -117.3553  0.085035437   -117.27026    497.85504    4.2896694    4.2896694    4.2896694    497.85504    1147.2105    3363.4494   -3017.0947    1790.5138   -931.53009   -842.25299    78.935337 
    3100    131.49917   -117.38908   0.11898321    -117.2701   -1999.0749    4.2903373    4.2903373    4.2903373   -1999.0749   -1712.9387   -2282.0448   -2002.2412   -1240.6909    668.73247    618.06514    78.972211 
    3200    98.536719   -117.35959  0.089158094   -117.27044    386.35877    4.2882512    4.2882512    4.2882512    386.35877    1924.0051    1892.8589   -2657.7876    1750.3202   -634.70918   -1212.8171    78.857071 
    3300    93.336833   -117.35497  0.084453128   -117.27052    480.75202    4.2894137    4.2894137    4.2894137    480.75202   -792.16128    2424.6091   -190.19179   -2380.3494   -949.83882   -440.55873     78.92122 
    3400    122.65702   -117.38112   0.11098265   -117.27014   -982.06594     4.290515     4.290515     4.290515   -982.06594    1396.1202   -640.30981   -3702.0082    1667.0884    123.13403   -679.54296    78.982028 
    3500    110.20923   -117.36975  0.099719625   -117.27003    1128.3643    4.2885309    4.2885309    4.2885309    1128.3643   -844.24931    3952.3144    277.02775   -66.241648   -680.41662    362.57845    78.872506 
    3600    115.60037    -117.3747   0.10459765    -117.2701    -242.9286    4.2890843    4.2890843    4.2890843    -242.9286    2488.9549    900.91694   -4118.6576    945.04242    626.46192   -62.882799    78.903042 
    3700    102.60265   -117.36305  0.092837036   -117.27022   -571.30535    4.2898704    4.2898704    4.2898704   -571.30535   -2113.7565    737.51487   -337.67443   -383.44591   -649.72627   -326.32612    78.946432 
    3800    122.97809   -117.38132   0.11127316   -117.27004   -655.38704    4.2893279    4.2893279    4.2893279   -655.38704    2560.6405   -1695.3278   -2831.4738   -2148.6485    309.20549   -65.875698    78.916484 
    3900    114.91627   -117.37403   0.10397866   -117.27005    597.99811    4.2891267    4.2891267    4.2891267    597.99811   -1641.6094    1608.5408    1827.0629    2548.4522   -659.03449    -1040.647     78.90538 
    4000    88.689189   -117.35057  0.080247842   -117.27032    446.15378     4.288712     4.288712     4.288712    446.15378    3199.7622   -2215.9068      354.606   -770.98811    306.40417     451.8575    78.882495 
    4100     115.2432   -117.37449   0.10427447   -117.27021   -1861.3019    4.2896689    4.2896689    4.2896689   -1861.3019   -1794.6858    23.504328   -3812.7241    1352.7214   -13.376605   -911.95895     78.93531 
    4200    114.19057   -117.37336   0.10332203   -117.27004    660.22417    4.2896627    4.2896627    4.2896627    660.22417    1083.7652    1585.7298   -688.82252   -2581.2698     55.57435    905.10787    78.934969 
    4300    116.88263   -117.37581   0.10575786   -117.27005    564.17383    4.2879066    4.2879066    4.2879066    564.17383     3179.341    1095.5121   -2582.3317    688.15293   -617.79293   -1816.8057    78.838066 
    4400    94.236399   -117.35554  0.085267074   -117.27028   -383.79932     4.289092     4.289092     4.289092   -383.79932   -2675.5242    1857.5906   -333.46444     284.7485   -351.11531    -750.0689    78.903468 
    4500    88.427591   -117.35034  0.080011143   -117.27033    830.45555    4.2901627    4.2901627    4.2901627    830.45555    4278.6713    729.79987   -2517.1045    610.57504    5.3865741    110.42204     78.96257 
    4600    120.53993   -117.37908   0.10906706   -117.27001    765.71138    4.2881403    4.2881403    4.2881403    765.71138    -2702.269    2684.8562     2314.547   -59.459438    240.05817     383.1426    78.850953 
    4700    84.716391   -117.34697  0.076653171   -117.27031    995.61389    4.2885959    4.2885959    4.2885959    995.61389    4158.1587    1107.8269    -2279.144   -512.82076   -210.39721    100.89989    78.876092 
    4800    103.93825   -117.36443  0.094045514   -117.27038   -2619.1276    4.2905262    4.2905262    4.2905262   -2619.1276   -5490.2087   -1402.1363   -965.03787    1657.6899   -60.062323   -1489.6846    78.982646 
    4900    91.309515   -117.35289  0.082618768   -117.27027     88.45956    4.2889534    4.2889534    4.2889534     88.45956    4297.2087   -1576.4689   -2455.3611   -1277.5349    699.73013    709.58292     78.89582 
    5000    102.65111   -117.36287  0.092880883   -117.26999     34.85829    4.2887838    4.2887838    4.2887838     34.85829   -1691.5573    569.24275    1226.8894     831.0329   -414.06352   -726.40291     78.88646 
    5100    87.903178   -117.34971  0.079536643   -117.27017   -1022.4926    4.2894348    4.2894348    4.2894348   -1022.4926   -782.46632   -3539.7035    1254.6921   -1169.4997    41.185988    649.47435    78.922388 
    5200    68.663512   -117.33247  0.062128188   -117.27034   -82.727494    4.2894599    4.2894599    4.2894599   -82.727494    3094.6968   -392.74805   -2950.1313    819.75473   -893.07439   -2042.5988    78.923774 
    5300    109.36743   -117.36895  0.098957952   -117.26999   -1165.9814    4.2897618    4.2897618    4.2897618   -1165.9814     -2328.49   -779.52497   -389.92923   -557.50283    988.96027    252.88836    78.940436 
    5400    92.858174   -117.35396  0.084020027   -117.26994    633.51432    4.2883325    4.2883325    4.2883325    633.51432    4273.9934    462.01168   -2835.4622    399.30642   -202.68388   -447.30199     78.86156 
    5500     89.96401   -117.35157  0.081401327   -117.27016   -502.11697    4.2891881    4.2891881    4.2891881   -502.11697   -2048.4723    1167.0487   -624.92735   -401.18482    75.209791   -985.08359    78.908769 
    5600    77.135131   -117.34018  0.069793487   -117.27038    35.126145    4.2903251    4.2903251    4.2903251    35.126145      3363.98    405.94919   -3664.5507   -91.831476   -612.89118    261.67856     78.97154 
    5700    83.889981   -117.34616  0.075905417   -117.27025    1240.6137    4.2879965    4.2879965    4.2879965    1240.6137   -2014.7129    2084.3636    3652.1903   -101.16393    371.58389   -644.03037    78.843022 
    5800    104.90676   -117.36502  0.094921837    -117.2701   -432.94208    4.2887461    4.2887461    4.2887461   -432.94208    937.59769   -650.70387   -1585.7201   -265.28966    393.86551    740.53213     78.88438 
    5900    77.138128   -117.34008  0.069796199   -117.27028   -729.72729     4.290747     4.290747     4.290747   -729.72729   -1672.9544    306.31107   -822.53852      1684.57   -185.98522   -1629.8579    78.994842 
    6000    95.435945   -117.35642  0.086352448   -117.27007    -1926.651    4.2891094    4.2891094    4.2891094    -1926.651   -40.395002   -3798.5602   -1940.9979   -1296.7284     944.0564    741.69748    78.904429 
    6100    100.72609   -117.36109  0.091139081   -117.26995   -237.08288    4.2886205    4.2886205    4.2886205   -237.08288    195.66653   -201.51614   -705.39902    482.51248   -401.96055   -630.25385    78.877445 
    6200    88.584134   -117.35038  0.080152786   -117.27023     399.0402    4.2898294    4.2898294    4.2898294     399.0402    1116.8808   -1501.4484    1581.6881   -1442.0782    326.45412    428.89973    78.944172 
    6300    95.195248   -117.35645  0.086134661   -117.27031   -1562.2936    4.2893551    4.2893551    4.2893551   -1562.2936    1262.8694   -2590.3715   -3359.3787    1258.3438   -1178.2837   -1686.8351    78.917989 
    6400    77.900381   -117.34079  0.070485902    -117.2703    893.38646    4.2889742    4.2889742    4.2889742    893.38646    1927.7711   -62.335242    814.72358    -247.9639    839.39285   -850.96935    78.896968 
    6500     132.4096   -117.38965   0.11980699   -117.26985   -621.48283    4.2889806    4.2889806    4.2889806   -621.48283    1866.1635    191.99919   -3922.6111   -105.44964    434.22641    599.39749    78.897319 
    6600    87.091506   -117.34904  0.078802225   -117.27024    1336.5529    4.2889029    4.2889029    4.2889029    1336.5529    3031.1396    2119.5773   -1141.0583   -279.63079    523.13865   -1532.7966    78.893029 
    6700    105.27855   -117.36556  0.095258247    -117.2703   -1422.8504    4.2901729    4.2901729    4.2901729   -1422.8504    874.08428   -537.50585   -4605.1295   -234.98574   -819.19397    107.50083    78.963134 
    6800    97.015507   -117.35802  0.087781669   -117.27024    1405.6534    4.2882133    4.2882133    4.2882133    1405.6534   -627.42875     2842.697     2001.692    1211.1463   -7.5367639   -1168.9077     78.85498 
    6900    107.55195   -117.36739  0.097315268   -117.27008    1334.4859    4.2883849    4.2883849    4.2883849    1334.4859    3819.2355    791.50025    -607.2781   -1642.1348     800.0379    1549.2158    78.864452 
    7000    125.12124   -117.38324   0.11321233   -117.27003   -2498.9715    4.2909338    4.2909338    4.2909338   -2498.9715   -4193.7379    -908.0456   -2395.1311    847.72576    437.19742   -1236.2878    79.005155 
    7100    76.951235   -117.34011  0.069627094   -117.27048    984.15183    4.2886206    4.2886206    4.2886206    984.15183    3804.1218   -836.92919   -14.737076   -1266.9416    480.28788   -248.42262    78.877455 
    7200    139.70169   -117.39667   0.12640503   -117.27027   -1488.4971    4.2886388    4.2886388    4.2886388   -1488.4971   -531.54003   -378.92131     -3555.03    1413.4127   -578.73594   -878.53117    78.878457 
    7300    93.768597   -117.35534  0.084843797    -117.2705    877.03974    4.2903883    4.2903883    4.2903883    877.03974    3366.3805   -860.06881    124.80756   -311.64228    656.69629    351.82271    78.975028 
    7400    127.81349   -117.38583   0.11564834   -117.27018   -2258.8214    4.2894614    4.2894614    4.2894614   -2258.8214   -962.76024   -2603.0802   -3210.6239     -364.682   -288.47073    25.519475    78.923855 
    7500    85.498599   -117.34772  0.077360929   -117.27036    1783.4226    4.2884696    4.2884696    4.2884696    1783.4226    4663.8022    449.32084    237.14479   -411.09238    912.96619   -2178.3115    78.869121 
    7600    127.25424   -117.38504   0.11514231    -117.2699    -313.2504    4.2895956    4.2895956    4.2895956    -313.2504    2318.8673     682.9424   -3941.5609     -613.194   -741.26813    375.35332    78.931263 
    7700    112.20884   -117.37167   0.10152892   -117.27014    183.46794    4.2890103    4.2890103    4.2890103    183.46794    1055.0736    1505.3579   -2010.0277    1724.6762    1041.6479   -1877.3032    78.898959 
    7800    104.44397   -117.36485  0.094503095   -117.27035    216.82138    4.2895045    4.2895045    4.2895045    216.82138    3830.9023    951.37958   -4131.8177   -536.86009   -280.04017    767.54136    78.926234 
    7900    109.99584   -117.36989  0.099526545   -117.27036    102.42332    4.2888803    4.2888803    4.2888803    102.42332   -2023.4213    2979.0897   -648.39841    118.36298    945.28621   -903.61656    78.891786 
    8000    104.32749   -117.36455  0.094397706   -117.27015    526.51196    4.2885148    4.2885148    4.2885148    526.51196    2462.4946   -156.52163    -726.4371   -1576.7811    365.88581    558.52246    78.871617 
    8100     124.4665   -117.38281    0.1126199    -117.2702   -1205.3417    4.2904133    4.2904133    4.2904133   -1205.3417   -1540.1947    354.18055    -2430.011    747.18869   -433.11569   -772.39041    78.976411 
    8200    79.635029   -117.34263  0.072055447   -117.27058    1483.8291    4.2886022    4.2886022    4.2886022    1483.8291    3263.3799    40.593989    1147.5135    750.45867    966.57295    -924.7157    78.876438 
    8300    115.49086   -117.37474   0.10449855   -117.27024   -1519.3017    4.2883386    4.2883386    4.2883386   -1519.3017   -126.81326   -833.60616   -3597.4857    -177.0483   -464.44713     291.0563    78.861893 
    8400    89.190253   -117.35089  0.080701215   -117.27019      450.967    4.2905415    4.2905415    4.2905415      450.967    3185.6638   -1184.9633   -647.79946   -333.70191    1637.2167   -944.39357    78.983489 
    8500    134.51647   -117.39161   0.12171333    -117.2699   -2184.9546    4.2895758    4.2895758    4.2895758   -2184.9546   -1028.2764   -2153.7724   -3372.8151   -272.21368   -1364.6658    672.86167    78.930169 
    8600    54.799526    -117.3203  0.049583763   -117.27071    2203.2332    4.2879141    4.2879141    4.2879141    2203.2332    6049.0594    130.69116    429.94905    556.79723    1232.7485   -2552.0971    78.838478 
    8700    124.55719   -117.38311   0.11270197   -117.27041   -2847.3726    4.2904526    4.2904526    4.2904526   -2847.3726   -1810.0322   -2132.5567   -4599.5291   -107.13691   -356.34381    738.60115     78.97858 
    8800     75.64459   -117.33909  0.068444815   -117.27064    2132.8413    4.2890093    4.2890093    4.2890093    2132.8413    4475.6975    2962.7468   -1039.9204   -200.29232    1588.1376   -964.39827    78.898901 
    8900    106.83096     -117.367  0.096662893   -117.27034   -681.01417    4.2888273    4.2888273    4.2888273   -681.01417    967.61517   -194.61022   -2816.0475    353.22535    167.61837   -440.00536    78.888858 
    9000    88.681146   -117.35049  0.080240564   -117.27025   -901.51025    4.2894027    4.2894027    4.2894027   -901.51025   -1706.2057    1384.4376   -2382.7627    542.41534   -245.10745    -600.6544    78.920618 
    9100     75.49551   -117.33848  0.068309924   -117.27017    963.36989    4.2887838    4.2887838    4.2887838    963.36989    2173.1663    74.772678    642.17067   -412.38367    1414.6622   -302.28753     78.88646 
    9200    130.14509   -117.38762   0.11775801   -117.26986   -1973.5776    4.2899374    4.2899374    4.2899374   -1973.5776   -955.83395   -1259.1559    -3705.743    45.481432   -635.85445    832.42314    78.950135 
    9300    40.192352   -117.30679  0.036366885   -117.27042    2974.5755    4.2886232    4.2886232    4.2886232    2974.5755     4538.513    619.03418    3766.1794   -395.17327    1797.9093   -1510.1055    78.877598 
    9400    125.31198   -117.38336   0.11338492   -117.26998   -3579.9977    4.2886323    4.2886323    4.2886323   -3579.9977   -3591.2965   -3611.1516    -3537.545    1283.1101   -1061.9754    165.33989      78.8781 
    9500    46.879113   -117.31284  0.042417206   -117.27043    2672.2376    4.2899584    4.2899584    4.2899584    2672.2376    7865.2635    91.479956    59.969209   -489.57142     1280.652   -1350.7996    78.951291 
    9600    142.68695   -117.39902   0.12910615   -117.26992   -3607.8964    4.2897344    4.2897344    4.2897344   -3607.8964   -4400.2432   -3551.0966   -2872.3493    765.33345   -837.94157    663.99857    78.938926 
    9700     59.41816   -117.32444    0.0537628   -117.27068    1270.5615    4.2877453    4.2877453    4.2877453    1270.5615    5318.5885   -1221.1161   -285.78788    1.8359024    794.05721   -1604.6768    78.829167 
    9800    89.122014    -117.3511  0.080639471   -117.27046   -1098.8856    4.2903932    4.2903932    4.2903932   -1098.8856    1444.5396    -2124.195   -2617.0013    518.90623    631.85802   -496.59356    78.975301 
    9900    102.52248   -117.36296  0.092764495   -117.27019   -869.98408    4.2898447    4.2898447    4.2898447   -869.98408     264.9413    589.87232   -3464.7659    25.493722    592.34153    113.69014    78.945017 
   10000    79.795436   -117.34244  0.072200588   -117.27024     1559.837    4.2879184    4.2879184    4.2879184     1559.837    2004.1423     1252.018    1423.3507   -225.07448    678.82973   -952.09248    78.838714 
   10100    114.16998   -117.37364    0.1033034   -117.27034   -1686.5942    4.2897865    4.2897865    4.2897865   -1686.5942   -211.15849   -531.59029   -4317.0339    1197.6557   -965.76705    -341.2908    78.941804 
   10200    68.409085   -117.33258  0.061897978   -117.27069    1198.0339    4.2893189    4.2893189    4.2893189    1198.0339      1027.39    1382.5092    1184.2025   -918.89257    1849.0345   -780.42975    78.915988 
   10300    130.98969   -117.38869   0.11852222   -117.27016    -1725.356    4.2890968    4.2890968    4.2890968    -1725.356    901.52833   -2816.1553    -3261.441    1408.2262    142.21291    1323.7743     78.90373 
   10400    79.210938   -117.34198  0.071671722    -117.2703    2328.8579    4.2888437    4.2888437    4.2888437    2328.8579    3257.1142    643.94082    3085.5187   -896.93806    1325.5472   -983.30874    78.889765 
   10500    107.82538   -117.36765  0.097562674   -117.27009   -1232.8802    4.2889588    4.2889588    4.2889588   -1232.8802    19.888896   -2263.7999   -1454.7297    2040.4582   -1043.2677   -553.32336    78.896117 
   10600    85.765985   -117.34788  0.077602866   -117.27028    -317.7627    4.2897829    4.2897829    4.2897829    -317.7627    2928.5461   -2267.6499   -1614.1843   -223.86979    575.57432   -1529.3987    78.941605 
   10700    124.52251   -117.38255   0.11267058   -117.26988   -1049.4044    4.2895117    4.2895117    4.2895117   -1049.4044   -1237.0219    -1567.526   -343.66534    138.04456    227.05534     703.2872    78.926633 
   10800     104.5097   -117.36464  0.094562575   -117.27008    413.00786    4.2880078    4.2880078    4.2880078    413.00786    4522.6897   -1636.6877   -1646.9784    1512.4585    712.35513   -411.40191    78.843643 
   10900    101.44487   -117.36197  0.091789454   -117.27018   -1542.4633    4.2901933    4.2901933    4.2901933   -1542.4633   -259.01284   -1894.4237   -2473.9533   -249.78452   -327.03508   -1553.9686    78.964263 
   11000     101.8927   -117.36247  0.092194652   -117.27028   -278.37572    4.2899555    4.2899555    4.2899555   -278.37572    3074.9974   -547.47274   -3362.6518    1354.2595    161.42817   -363.52889    78.951134 
   11100     120.5848   -117.37927   0.10910766   -117.27016    1254.7346    4.2877933    4.2877933    4.2877933    1254.7346   -709.90561    2437.6878    2036.4215   -1214.4867    872.14753   -834.52031    78.831812 
   11200    102.42974   -117.36315  0.092680578   -117.27047    959.71797    4.2893957    4.2893957    4.2893957    959.71797    5092.0859    501.72827   -2714.6603    1477.0073   -28.853488    556.52462     78.92023 
   11300    103.45204   -117.36415  0.093605583   -117.27054   -712.61908    4.2901443    4.2901443    4.2901443   -712.61908   -2784.5254    195.62529    451.04287     -373.343    522.56625   -1079.7682    78.961554 
   11400    123.05348   -117.38148   0.11134138   -117.27014    475.52499    4.2884052    4.2884052    4.2884052    475.52499     4057.786    -1048.492    -1582.719    1075.6381   -726.59389    284.93718     78.86557 
   11500    106.84935   -117.36682   0.09667954   -117.27014    1971.4053    4.2888282    4.2888282    4.2888282    1971.4053     3410.529    291.31593    2212.3711    82.330353    1213.2732   -896.97457    78.888908 
   11600    124.43564    -117.3828   0.11259198   -117.27021   -2190.1562    4.2898045    4.2898045    4.2898045   -2190.1562   -2664.3426   -1988.1033   -1918.0228    1263.5381   -159.68336    292.53152    78.942795 
   11700    74.122034   -117.33764  0.067067174   -117.27058    858.98251    4.2891959    4.2891959    4.2891959    858.98251    4336.3704   -1503.3387   -256.08418    1526.9448    1017.8477   -957.91996    78.909203 
   11800    133.47081    -117.3908    0.1207672   -117.27003    -1445.791     4.289452     4.289452     4.289452    -1445.791   -2961.6206   -407.02548   -968.72678   -695.38741   -1118.5642   -693.78177    78.923335 
   11900    97.075489   -117.35795  0.087835943   -117.27012     341.0836    4.2886423    4.2886423    4.2886423     341.0836    3949.1766   -1404.0122   -1521.9136    1272.4029    289.81279   -427.88208    78.878649 
   12000    115.10161   -117.37429   0.10414635   -117.27015   -2515.2008    4.2899201    4.2899201    4.2899201   -2515.2008   -2361.9113   -2913.4433   -2270.2477   -397.06362   -447.87823   -1386.9154    78.949176 
   12100    98.801401    -117.3597  0.089397584    -117.2703     78.93307    4.2897868    4.2897868    4.2897868     78.93307    3893.1404   -542.56953   -3113.7717    1756.5153    733.09553    909.07586     78.94182 
   12200    104.67826   -117.36475  0.094715087   -117.27003    1687.3077    4.2879029    4.2879029    4.2879029    1687.3077   -823.17141     3314.899    2570.1956   -204.96899    954.85391   -1095.1868     78.83786 
   12300     112.7851   -117.37201   0.10205033   -117.26996    136.95841    4.2892364    4.2892364    4.2892364    136.95841    3529.8047   -194.97892   -2923.9506    692.74679   -869.70483   -328.56938    78.911439 
   12400    74.383683   -117.33754   0.06730392   -117.27023    1826.0085    4.2900377    4.2900377    4.2900377    1826.0085    984.92064    1738.5244    2754.5805   -357.54426    257.05438   -1529.6463    78.955671 
   12500    116.09964   -117.37506   0.10504939   -117.27001   -229.21306    4.2883993    4.2883993    4.2883993   -229.21306    1494.6271   -210.85561   -1971.4107    553.59482    -847.3667    745.25982    78.865243 
   12600     98.26311   -117.35901  0.088910527    -117.2701     744.1034    4.2887627    4.2887627    4.2887627     744.1034    1920.1791   -1348.9185    1661.0496    961.95216    1116.3626    184.32094    78.885294 
   12700     107.7287   -117.36771  0.097475193   -117.27024   -1708.9371     4.290259     4.290259     4.290259   -1708.9371   -1072.0747   -2356.2328   -1698.5038    965.39615   -570.23199   -518.62364    78.967891 
   12800    79.682921   -117.34257  0.072098781   -117.27047   -758.01657    4.2891156    4.2891156    4.2891156   -758.01657    687.01806   -1903.8537    -1057.214    1723.1418    50.370542   -1165.7565    78.904771 
   12900    83.511108   -117.34588  0.075562606   -117.27032   -723.63075    4.2890011    4.2890011    4.2890011   -723.63075   -2207.3335    39.294648   -2.8533633   -966.47238   -1073.5404   -1141.6287    78.898449 
   13000    104.09935   -117.36424  0.094191275   -117.27005   -1778.9659    4.2896742    4.2896742    4.2896742   -1778.9659    439.43167   -2800.5242   -2975.8051     1278.271    356.18628    949.80477      78.9356 
   13100    87.357258    -117.3492  0.079042683   -117.27015    -889.0505    4.2896039    4.2896039    4.2896039    -889.0505   -846.97997   -1231.7527   -588.41888    236.46264   -118.70943   -1463.8084    78.931723 
   13200    92.790324   -117.35411  0.083958635   -117.27015   -1196.7022    4.2895908    4.2895908    4.2895908   -1196.7022    2776.3519   -2366.0472   -4000.4114    1668.1906    -372.1161    129.61413    78.930998 
   13300      92.9228    -117.3541  0.084078502   -117.27003    810.71118    4.2885083    4.2885083    4.2885083    810.71118   -1816.0186    2182.8081     2065.344   -683.20529  -0.14108154    -728.4562    78.871256 
   13400    87.925673   -117.34968  0.079556997   -117.27012    2206.7674    4.2888045    4.2888045    4.2888045    2206.7674    7391.5945    1014.7262   -1786.0186    819.40289   -286.44252    221.59781      78.8876 
   13500    89.471623   -117.35122  0.080955805   -117.27026    667.29612    4.2898451    4.2898451    4.2898451    667.29612   -1295.7601    1739.9931    1557.6553    239.84845    471.33599   -1050.6014    78.945036 
   13600    75.782891   -117.33883  0.068569953   -117.27026    1184.3906     4.288364     4.288364     4.288364    1184.3906      2772.41    514.82977    265.93206    733.16769   -342.83328   -534.68901    78.863297 
   13700    109.42435   -117.36898   0.09900945   -117.26997   -594.63753    4.2887853    4.2887853    4.2887853   -594.63753    1303.2609   -2192.7197   -894.45374    1017.0356   -247.38773    283.26392    78.886542 
   13800    97.851141   -117.35859  0.088537769   -117.27005   -1220.9265    4.2905051    4.2905051    4.2905051   -1220.9265   -678.99583    -1313.802   -1669.9818   -715.70445   -1065.8642   -73.854353    78.981482 
   13900     85.83327   -117.34784  0.077663746   -117.27018   -1873.0643    4.2891789    4.2891789    4.2891789   -1873.0643   -443.63278    -2379.161   -2796.3992    2569.3433    172.87552   -347.60149    78.908264 
   14000    89.201942    -117.3509  0.080711792   -117.27019   -1307.2326     4.288707     4.288707     4.288707   -1307.2326   -2650.3469    -461.6928   -809.65827   -883.89994   -677.46083   -1956.7905    78.882223 
   14100    90.804101   -117.35225  0.082161459   -117.27009   -308.46527    4.2899771    4.2899771    4.2899771   -308.46527     3545.547   -1250.0642   -3220.8786    2023.4062    559.71723     592.1451    78.952327 
   14200    110.04074   -117.36959  0.099567173   -117.27002   -1647.8267     4.289479     4.289479     4.289479   -1647.8267   -2920.7535   -581.20377   -1441.5228   -84.894394   -1130.6643   -907.97483    78.924826 
   14300    93.648444   -117.35503   0.08473508    -117.2703    166.96628    4.2888096    4.2888096    4.2888096    166.96628    4586.8756   -1376.6885   -2709.2883    685.19729   -564.87751   -115.82017    78.887881 
   14400    103.02761   -117.36357  0.093221548   -117.27034     1148.367    4.2892329    4.2892329    4.2892329     1148.367    1463.4552    2747.7146   -766.06883   -436.69313   -408.41073   -594.74252    78.911244 
   14500     109.2405   -117.36903  0.098843104   -117.27019    1276.3452    4.2890694    4.2890694    4.2890694    1276.3452    4255.8458    2319.1384   -2745.9486    554.10072    284.46452    249.49271    78.902219 
   14600    99.972844   -117.36067   0.09045753   -117.27021    1401.5309    4.2892483    4.2892483    4.2892483    1401.5309    2006.3278    2625.2052   -426.94022    2224.4124    374.37005   -174.40436    78.912093 
   14700    102.37785   -117.36285  0.092633628   -117.27022    906.82198     4.288862     4.288862     4.288862    906.82198    1585.5777    287.73334    847.15491   -529.31615   -1263.2665   -972.05775    78.890772 
   14800    106.97935   -117.36694  0.096797166   -117.27014   -210.24944    4.2888551    4.2888551    4.2888551   -210.24944    2111.4237   -621.93424   -2120.2378    1097.2705    388.49724   -283.47003    78.890393 
   14900    115.06464   -117.37426   0.10411291   -117.27015   -1846.0134    4.2903176    4.2903176    4.2903176   -1846.0134   -1257.3144   -1800.1403   -2480.5857   -1567.9421   -1231.5769   -322.83707    78.971128 
   15000    114.74136   -117.37395   0.10382039   -117.27013    -1748.678    4.2893385    4.2893385    4.2893385    -1748.678   -802.19901   -1174.3274   -3269.5076    3920.7435    1072.3456    777.77037    78.917072 
   15100    89.782822   -117.35159  0.081237384   -117.27036   -149.30697    4.2883981    4.2883981    4.2883981   -149.30697    1419.9521     723.6071   -2591.4801    307.01707   -1728.8141   -1680.7587    78.865176 
   15200    126.55309   -117.38459   0.11450789   -117.27009   -2614.7839     4.290475     4.290475     4.290475   -2614.7839    -1635.225   -1225.5629    -4983.564   -194.93503   -371.43685   -216.32087    78.979815 
   15300    97.468129   -117.35832  0.088191211   -117.27013    1242.6547     4.289129     4.289129     4.289129    1242.6547    2565.1798    2328.3031   -1165.5189   -230.24715   -213.26037    -1065.423    78.905509 
   15400    123.22653   -117.38156   0.11149796   -117.27006    432.74174    4.2881778    4.2881778    4.2881778    432.74174    3219.7188    -743.7184   -1177.7752    669.56432   -243.47405   -13.973676    78.853022 
   15500    93.833433   -117.35515  0.084902462   -117.27025    1657.4609     4.289563     4.289563     4.289563    1657.4609    1582.2204    5090.5796   -1700.4174    2027.3188    510.37984    92.864755    78.929462 
   15600    115.36329   -117.37436   0.10438313   -117.26998    789.48551    4.2892717    4.2892717    4.2892717    789.48551    4618.6227    300.16926   -2550.3355   -1457.8536   -1600.0343   -28.626221    78.913385 
   15700    120.72125   -117.37917   0.10923113   -117.26993     1047.658     4.288716     4.288716     4.288716     1047.658     670.3479    4401.3251   -1928.6991    742.13715     506.2512    20.969634    78.882716 
   15800    84.191123   -117.34648  0.076177897   -117.27031    1558.6968    4.2893127    4.2893127    4.2893127    1558.6968    3825.7959    47.233725    803.06064    120.23744   -1041.9817   -1208.1587    78.915646 
   15900    122.36362     -117.381   0.11071717   -117.27028   -2817.8843    4.2895511    4.2895511    4.2895511   -2817.8843   -3415.1531   -2025.2875   -3013.2123    2732.7587    1374.8961    261.59012    78.928809 
   16000    81.897477   -117.34459  0.074102559   -117.27049    534.87057    4.2895488    4.2895488    4.2895488    534.87057    2936.0429   -244.34387   -1087.0873   -763.71414   -874.43783   -374.87702     78.92868 
   16100     123.1872   -117.38157   0.11146237   -117.27011    -2499.782    4.2897175    4.2897175    4.2897175    -2499.782   -3371.6342   -1796.4914   -2331.2204    355.17288   -304.31277    645.30432    78.937992 
   16200    81.202136   -117.34381  0.073473399   -117.27033   -809.28185    4.2886114    4.2886114    4.2886114   -809.28185   -221.37352    928.96517   -3135.4372    851.54594   -967.42797   -1231.9148    78.876945 
   16300    105.30389   -117.36544  0.095281171   -117.27016   -1750.6682    4.2902173    4.2902173    4.2902173   -1750.6682    2071.9409   -3002.5748   -4321.3708    917.38581   -832.94057   -332.85474    78.965588 
   16400    97.100345     -117.358  0.087858433   -117.27014    919.46066     4.289285     4.289285     4.289285    919.46066    269.81748    4470.7796   -1982.2151    1133.9459    1010.2798    13.126352    78.914116 
   16500    94.711056   -117.35583  0.085696553   -117.27013    1156.1685    4.2877484    4.2877484    4.2877484    1156.1685    5134.7981   -2263.5165    597.22375    -361.0799   -814.04633     -226.887    78.829338 
   16600    89.147857     -117.351  0.080662854   -117.27034     679.7685    4.2897136    4.2897136    4.2897136     679.7685   -868.34481    4700.8518   -1793.2015    434.23767    244.14485   -210.07985    78.937776 
   16700    86.045461   -117.34804  0.077855741   -117.27018     1624.764     4.289369     4.289369     4.289369     1624.764    6136.3339   -890.07683   -371.96503    -706.5148    -1394.885   -13.727598    78.918755 
   16800     106.2314   -117.36614  0.096120403   -117.27002    242.57045    4.2880799    4.2880799    4.2880799    242.57045   -700.63439     3236.807   -1808.4613     1122.755    552.53672    716.52361    78.847625 
   16900    82.255143   -117.34465  0.074426182   -117.27022   -30.243752    4.2897168    4.2897168    4.2897168   -30.243752    1056.2856   -850.14259   -296.87429     174.4597     -430.631   -692.49036    78.937953 
   17000    97.006689   -117.35796  0.087773691   -117.27019    -1965.724    4.2898693    4.2898693    4.2898693    -1965.724     43.34087   -3747.2063   -2193.3066     1582.628    229.19435   -418.12147    78.946371 
   17100    77.636773   -117.34038  0.070247384   -117.27013   -407.59098    4.2890575    4.2890575    4.2890575   -407.59098   -941.07204     535.6991   -817.40001   -646.45095   -477.31673   -445.70293    78.901563 
   17200    103.56641    -117.3636  0.093709068   -117.26989   -2186.1823    4.2898713    4.2898713    4.2898713   -2186.1823   -2420.6702   -3320.8964   -816.98027    214.81446    -425.4819    1168.7827    78.946483 
   17300    74.481561   -117.33771  0.067392482   -117.27031   -128.65078    4.2889651    4.2889651    4.2889651   -128.65078    597.30518    1648.2092   -2631.4668    1230.2492   -43.255454    -536.9339    78.896462 
   17400    103.64987   -117.36409  0.093784579   -117.27031   -1872.6973    4.2897545    4.2897545    4.2897545   -1872.6973    1175.9786    -3545.662   -3248.4086    999.49936   -981.80527   -436.88777    78.940035 
   17500    82.272866   -117.34488  0.074442218   -117.27043    718.28129    4.2895426    4.2895426    4.2895426    718.28129    706.07465    4950.6646   -3501.8953    123.12069    483.96693   -282.94634    78.928338 
   17600    109.89421   -117.36957  0.099434594   -117.27014    24.295422    4.2880802    4.2880802    4.2880802    24.295422    3647.5581   -3241.8236   -332.84816   -602.73221   -628.99156    1137.3588    78.847642 
   17700    84.458725   -117.34668  0.076420029   -117.27026     1150.816    4.2896113    4.2896113    4.2896113     1150.816     1790.175    4186.2794   -2524.0064    1016.4502    291.17419    128.36545    78.932132 
   17800    87.796301   -117.34971  0.079439938   -117.27027    459.58276    4.2897461    4.2897461    4.2897461    459.58276    2444.9695   -1217.0804    150.85925    78.271269   -888.48644    -225.7719    78.939572 
   17900    112.35733   -117.37172   0.10166327   -117.27005   -223.47539    4.2877914    4.2877914    4.2877914   -223.47539    42.395269    786.01554    -1498.837    1120.5467    348.00622    805.73652     78.83171 
   18000    82.330979   -117.34478    0.0744948   -117.27029    1213.7199    4.2894638    4.2894638    4.2894638    1213.7199    4150.3225    708.24919    -1217.412   -1332.6868   -590.78417   -97.658073     78.92399 
   18100    124.40017   -117.38264   0.11255989   -117.27008   -3257.8139     4.290383     4.290383     4.290383   -3257.8139   -3471.5759   -3974.7449   -2327.1208    1077.9418   -205.33937    517.59419    78.974736 
   18200    80.437215   -117.34307  0.072781283   -117.27029    456.79604    4.2881946    4.2881946    4.2881946    456.79604    2259.8999    1432.4009   -2321.9127    375.34299   -604.37298   -1446.2217    78.853949 
   18300    123.23782    -117.3815   0.11150817   -117.26999   -1326.9506    4.2897954    4.2897954    4.2897954   -1326.9506   -2000.9237   -1266.6501   -713.27805    664.65188   -238.37524    1320.7458    78.942295 
   18400     90.34693   -117.35195  0.081747801    -117.2702    672.90558    4.2895022    4.2895022    4.2895022    672.90558    2446.7543    3056.5521   -3484.5896    899.75843    487.73729   -110.65639    78.926109 
   18500    104.36753   -117.36459  0.094433937   -117.27015   -554.06461    4.2889912    4.2889912    4.2889912   -554.06461    1840.6112   -1561.3595   -1941.4456   -687.54004   -1210.0736    723.62226    78.897907 
   18600    114.96098   -117.37403   0.10401911   -117.27001    51.792318    4.2896952    4.2896952    4.2896952    51.792318   -99.310375    5268.7561   -5014.0688    380.02815   -83.879046   -489.04152     78.93676 
   18700    106.10701   -117.36604  0.096007852   -117.27004    1333.7869    4.2885369    4.2885369    4.2885369    1333.7869    7228.9066   -1328.8496   -1898.6963   -196.25487   -928.76077    393.80835    78.872837 
   18800     126.3907   -117.38441   0.11436096   -117.27005   -1527.6903    4.2894758    4.2894758    4.2894758   -1527.6903   -2645.2006      2834.87   -4772.7403    1264.8049    1184.0632    1516.4896    78.924648 
   18900    91.127814   -117.35287  0.082454362   -117.27041    889.24884    4.2899721    4.2899721    4.2899721    889.24884    5577.2161   -365.92249   -2543.5471   -407.41561   -484.79756   -385.10226    78.952049 
   19000    112.58373   -117.37211   0.10186813   -117.27025    530.17072    4.2879487    4.2879487    4.2879487    530.17072    372.75267     1380.268   -162.50849   -282.53617   -206.83761    2061.4713    78.840384 
   19100     111.6604   -117.37121   0.10103267   -117.27018   -628.77655    4.2894576    4.2894576    4.2894576   -628.77655    2687.0188   -374.37055   -4198.9779    185.11994   -812.91261   -679.71136    78.923645 
   19200    101.62934   -117.36223  0.091956364   -117.27028   -603.77997    4.2904049    4.2904049    4.2904049   -603.77997   -1056.8353    157.98276   -912.48737    1212.3141   -216.17587    1121.8305    78.975947 
   19300    128.30636   -117.38619   0.11609429   -117.27009   -959.75768    4.2880439    4.2880439    4.2880439   -959.75768    766.72187    595.39272   -4241.3876    845.15228    499.69242   -963.34743    78.845637 
   19400    93.685351   -117.35515  0.084768475   -117.27038    1466.2362    4.2890164    4.2890164    4.2890164    1466.2362    1695.3676    3648.6583   -945.31726   -1093.8487   -996.10615    1181.7556    78.899292 
   19500    120.20867   -117.37891   0.10876733   -117.27015   -933.28445    4.2902167    4.2902167    4.2902167   -933.28445   -1092.5046    2807.5879   -4514.9367    414.79168    227.07257    428.46903    78.965555 
   19600    93.070485   -117.35443   0.08421213   -117.27021    1708.8158    4.2882017    4.2882017    4.2882017    1708.8158    6460.5109    232.27488   -1566.3385    1216.4032   -1818.0735    118.07868    78.854341 
   19700    96.134374   -117.35715  0.086984401   -117.27016    1211.8483    4.2891859    4.2891859    4.2891859    1211.8483   -781.37824    6641.2612   -2224.3381    680.81811    691.84027    967.83878    78.908647 
   19800    122.81658   -117.38106   0.11112702   -117.26993   -1831.9696    4.2897318    4.2897318    4.2897318   -1831.9696    2833.0685    -3568.483   -4760.4942    -1027.664   -489.28974   -110.12553    78.938781 
   19900    79.727828   -117.34237  0.072139414   -117.27023     847.6561      4.28891      4.28891      4.28891     847.6561    1464.5165    3955.6267   -2877.1749    -1100.723    824.21273     2491.283    78.893423 
   20000     133.5144   -117.39082   0.12080663   -117.27001   -3029.5197    4.2902056    4.2902056    4.2902056   -3029.5197    301.11939    -3192.666   -6197.0126    1246.6974   -461.93793   -1357.5371    78.964942 
   20100    58.174324   -117.32308  0.052637351   -117.27045    1744.8684    4.2884307    4.2884307    4.2884307    1744.8684    1203.8639    2799.2899    1231.4514    1132.2707    -602.3235    1772.1463    78.866976 
   20200    121.29742   -117.37973   0.10975245   -117.26997   -2799.3638    4.2894574    4.2894574    4.2894574   -2799.3638    280.59298   -3638.2725    -5040.412   -24.368746    381.57184    512.67592    78.923632 
   20300    73.753059   -117.33704  0.066733317   -117.27031    1258.2694    4.2901875    4.2901875    4.2901875    1258.2694    670.71134    3134.0415   -29.944746   -706.27092   -862.06946    1156.6951    78.963944 
   20400    99.565038   -117.36021  0.090088539   -117.27012   -58.516708    4.2881499    4.2881499    4.2881499   -58.516708   -146.68781     563.0679   -591.93022   -126.90884    884.95245   -314.16393    78.851484 
   20500    104.77115   -117.36496  0.094799139   -117.27016   -767.56848    4.2889199    4.2889199    4.2889199   -767.56848   -1563.0363    2203.5826   -2943.2517    961.68883   -1503.1513   -378.17438    78.893968 
   20600    70.817109   -117.33439  0.064076808   -117.27031    1839.8625    4.2902731    4.2902731    4.2902731    1839.8625    2508.9536    5520.7913   -2510.1575    122.75204    914.53717    1388.1812    78.968668 
   20700    121.73135   -117.38017   0.11014508   -117.27002   -1183.3396    4.2884307    4.2884307    4.2884307   -1183.3396    1712.2376   -2103.8493    -3158.407    769.51326   -1225.2251   -1.2675873    78.866977 
   20800     48.94787    -117.3148  0.044289061   -117.27051    2896.8631    4.2883898    4.2883898    4.2883898    2896.8631   -429.36445    7585.2943    1534.6595   -172.42169     74.67065    1669.5498    78.864717 
   20900    120.50106   -117.37918   0.10903189   -117.27015   -3047.8122    4.2904213    4.2904213    4.2904213   -3047.8122    951.25013   -5521.1934   -4573.4932   -32.785002   -368.28737   -921.49733    78.976853 
   21000    62.045158    -117.3265  0.056139763   -117.27036    970.74114    4.2887914    4.2887914    4.2887914    970.74114    690.76369    2999.1555   -777.69581   -8.6305264    69.800893    2410.9353     78.88688 
   21100    116.07909   -117.37496    0.1050308   -117.26993   -3026.3819     4.289585     4.289585     4.289585   -3026.3819   -178.45454   -4060.9034   -4839.7878    363.47424    709.01426   -601.96248     78.93068 
   21200    81.612854   -117.34403  0.073845025   -117.27018   -557.03866    4.2892761    4.2892761    4.2892761   -557.03866   -2289.9791    1281.4161   -662.55294    1330.2754   -1012.5562    930.11283    78.913627 
   21300    89.783842   -117.35136  0.081238307   -117.27012    -601.1174    4.2891347    4.2891347    4.2891347    -601.1174    3744.2973   -2609.6622   -2937.9873   -724.61559    796.00342    976.65939    78.905823 
   21400    98.291195   -117.35917  0.088935939   -117.27024   -567.11924     4.289953     4.289953     4.289953   -567.11924   -3250.3252    2820.8974   -1271.9299   -121.12189   -1237.7387    484.25748    78.950992 
   21500    81.288376   -117.34386  0.073551431   -117.27031    1872.1469     4.288305     4.288305     4.288305    1872.1469    74.989269    2392.3213    3149.1301    268.83259    862.53403    401.89433    78.860042 
   21600    113.24309   -117.37259   0.10246473   -117.27013   -144.54241    4.2887761    4.2887761    4.2887761   -144.54241    197.45825    1998.1493   -2629.2348    510.26881   -1099.1529   -1090.3233    78.886035 
   21700    85.205312   -117.34743  0.077095557   -117.27033    950.89395    4.2903479    4.2903479    4.2903479    950.89395   -964.99588     5341.977   -1524.2993    13.837712    663.80983     1908.106      78.9728 
   21800    115.83741    -117.3749   0.10481213   -117.27009   -749.15999    4.2887067    4.2887067    4.2887067   -749.15999    2852.0405   -1471.2478   -3628.2727   -1290.0564   -13.862262    6.2787633    78.882205 
   21900    91.906849   -117.35347  0.083159249   -117.27032    1134.2421    4.2883311    4.2883311    4.2883311    1134.2421   -2465.7005    5405.2621    463.16474    343.84747   -412.57262    1154.7887    78.861479 
   22000    106.72462   -117.36679  0.096566676   -117.27022    -1320.175    4.2905731    4.2905731    4.2905731    -1320.175    2315.8289   -3093.4986   -3182.8554    1114.4251   -282.10542   -1524.4959    78.985234 
   22100    92.506335   -117.35395  0.083701676   -117.27025   -814.35012    4.2891367    4.2891367    4.2891367   -814.35012   -2640.7286    395.61929   -197.94104    581.89997   -751.00808    1820.2201    78.905936 
   22200    118.72105   -117.37746    0.1074213   -117.27004   -1362.1899    4.2888684    4.2888684    4.2888684   -1362.1899    490.09665   -1943.2297   -2633.4366   -415.03672    1499.2375    1253.7634    78.891129 
   22300    99.249742   -117.36009  0.089803252   -117.27028    423.20576    4.2895248    4.2895248    4.2895248    423.20576   -925.90072    3264.2649   -1068.7469   -591.03024    -500.2259    225.82104    78.927357 
   22400     125.1129   -117.38334   0.11320478   -117.27014   -1697.1489    4.2893571    4.2893571    4.2893571   -1697.1489   -408.79252   -2295.2646   -2387.3894    700.02949    449.54944   -97.528576    78.918099 
   22500    89.618007   -117.35145  0.081088256   -117.27037    1716.3465    4.2890756    4.2890756    4.2890756    1716.3465    725.18469    6272.3418   -1848.4869    594.28213   -1688.9717   -447.17026    78.902561 
   22600    124.85017     -117.383   0.11296706   -117.27004    684.57112    4.2888163    4.2888163    4.2888163    684.57112   -2543.2089     2035.711    2561.2112    643.14717    501.91018     1684.317    78.888252 
   22700    99.337226   -117.36005   0.08988241   -117.27017    1868.4797    4.2885775    4.2885775    4.2885775    1868.4797    2099.4434     4582.347   -1076.3514    -550.9362   -307.44429   -69.695434    78.875075 
   22800    118.63396   -117.37748    0.1073425   -117.27014   -774.43308    4.2901144    4.2901144    4.2901144   -774.43308    -4301.632    3089.8598   -1111.5271   -657.46964    242.49799    750.27506    78.959904 
   22900    109.21517   -117.36901  0.098820184   -117.27019    232.70822    4.2889857    4.2889857    4.2889857    232.70822    3251.7889    1486.8489   -4040.5131    299.81846   -71.609979   -796.86132    78.897598 
   23000    103.95276   -117.36428  0.094058645   -117.27022    301.59907    4.2885284    4.2885284    4.2885284    301.59907   -1350.6646    2872.1492   -616.68745   -556.82033   -769.43675     1102.974    78.872364 
   23100     126.7014   -117.38469   0.11464209   -117.27005   -2731.5443    4.2905718    4.2905718    4.2905718   -2731.5443   -2780.4251   -1723.9062   -3690.3017    1082.7929     570.3566    165.48359    78.985164 
   23200    76.306474   -117.33937  0.069043701   -117.27033     963.9887     4.289348     4.289348     4.289348     963.9887    584.88216    1926.1102    380.97373   -654.46589   -780.54947    1003.2084    78.917597 
   23300    137.16825   -117.39412   0.12411271   -117.27001   -2238.2848    4.2888154    4.2888154    4.2888154   -2238.2848   -2821.8968   -1949.4358   -1943.5219    193.39042    1134.8857    443.23923    78.888203 
   23400    70.193534   -117.33398  0.063512585   -117.27047    2284.3337    4.2893315    4.2893315    4.2893315    2284.3337    -151.4043    6691.8962    312.50913    715.92181   -1041.6212   -276.44501    78.916688 
   23500    144.44918   -117.40069   0.13070065   -117.26999   -2736.8609    4.2897579    4.2897579    4.2897579   -2736.8609   -3459.4791     -2926.29   -1824.8135   -110.34842    774.17689    432.12614    78.940222 
   23600    71.729462   -117.33527  0.064902325   -117.27037     2996.705    4.2885133    4.2885133    4.2885133     2996.705     2214.401    9163.5787   -2387.8647    251.16294   -766.19321    308.39225    78.871535 
   23700    118.57688   -117.37736   0.10729085   -117.27007    -484.8507    4.2890042    4.2890042    4.2890042    -484.8507   -3066.2981   -893.54841    2505.2944   -999.83422   -66.821838     584.7186    78.898622 
   23800    88.603815   -117.35044  0.080170594   -117.27027    894.85315    4.2889433    4.2889433    4.2889433    894.85315   -1959.9879    5789.1838   -1144.6364    569.47813   -483.56341   -596.60473    78.895262 
   23900    95.531014   -117.35661  0.086438469   -117.27017    73.987292    4.2895574    4.2895574    4.2895574    73.987292     -1587.63    1041.5176    768.07425    50.465309   -979.92588    242.50492    78.929156 
   24000     108.4639   -117.36825  0.098140416   -117.27011   -1410.6533    4.2892634    4.2892634    4.2892634   -1410.6533   -1868.5118    1354.0416   -3717.4896    229.80928    995.76302    366.75873    78.912928 
   24100     70.25036   -117.33378  0.063564002   -117.27022    491.21012    4.2886742    4.2886742    4.2886742    491.21012    -226.7165    1764.7613   -64.414429   -645.43709   -1026.9799    1404.4288    78.880411 
   24200    129.29982   -117.38703   0.11699319   -117.27004   -3548.7463    4.2902074    4.2902074    4.2902074   -3548.7463   -5339.3784   -1332.5211   -3974.3395   -114.09993    714.62589   -453.22615    78.965043 
   24300    56.402718   -117.32152  0.051034365   -117.27048    2289.4382    4.2891636    4.2891636    4.2891636    2289.4382    1935.3444    3938.7634    994.20695    863.00116   -1592.9473    -47.07852    78.907417 
   24400    118.88277   -117.37781   0.10756763   -117.27024   -2035.0284    4.2888885    4.2888885    4.2888885   -2035.0284   -4227.7722   -2124.3436    247.03054    44.027833    771.42931    509.56596    78.892235 
   24500    57.125157   -117.32223  0.051688043   -117.27054    1996.2088    4.2891317    4.2891317    4.2891317    1996.2088   -2914.0092    8734.6097    168.02586     658.2208   -319.10575     983.9136    78.905655 
   24600    118.10431   -117.37689   0.10686326   -117.27002   -1501.8561    4.2899239    4.2899239    4.2899239   -1501.8561   -1179.4726    -3974.259     648.1634    69.247717    104.02682    272.73277    78.949387 
   24700    83.891483   -117.34606  0.075906777   -117.27015    978.82294    4.2888833    4.2888833    4.2888833    978.82294   -2421.4723    8443.2431    -3085.302   -177.57041   -177.58893    -299.9852    78.891949 
   24800     91.82037   -117.35322  0.083081001   -117.27014   -546.25669    4.2890046    4.2890046    4.2890046   -546.25669   -1883.2106   -1929.8732    2174.3138   -183.33265   -1033.9511   -376.47183    78.898642 
   24900    88.670483   -117.35055  0.080230916   -117.27032   -673.45009    4.2894125    4.2894125    4.2894125   -673.45009   -4209.6826     3933.965   -1744.6327   -477.16827    473.32521    291.88234    78.921156 
   25000    79.357774   -117.34211  0.071804582   -117.27031    560.01793    4.2892878    4.2892878    4.2892878    560.01793    9.9557859   -87.314849    1757.4129    -124.8075   -1535.4199    671.28027    78.914276 
   25100    109.28661   -117.36901  0.098884823   -117.27012   -1780.1634    4.2890915    4.2890915    4.2890915   -1780.1634   -4866.2492    1220.5784   -1694.8192    899.18824    863.19051    332.14016    78.903438 
   25200    74.314723   -117.33764  0.067241523    -117.2704    95.146107    4.2889673    4.2889673    4.2889673    95.146107   -1157.8702    2050.8525   -607.54397     -581.064   -926.10072    294.11937    78.896586 
   25300    113.66915   -117.37303   0.10285024   -117.27018   -1915.0515      4.28977      4.28977      4.28977   -1915.0515   -2814.5373   -31.516897   -2899.1003    259.91118    247.65003   -882.37086    78.940889 
   25400    86.785315   -117.34873  0.078525177    -117.2702    1190.1037    4.2891739    4.2891739    4.2891739    1190.1037   -1950.2469    5047.2955    473.26239    151.50562   -861.37731    342.99262    78.907985 
   25500    103.94994   -117.36405  0.094056091   -117.26999     245.5003    4.2888657    4.2888657    4.2888657     245.5003   -1623.8859    261.78603    2098.6007    332.62657   -346.00365    795.64069    78.890981 
   25600    83.786897   -117.34596  0.075812146   -117.27015    1156.7609    4.2889782    4.2889782    4.2889782    1156.7609   -4314.8997    7954.2545   -169.07203    634.76618    367.90926    1101.1916    78.897185 
   25700    103.79261   -117.36402  0.093913738    -117.2701   -119.06009    4.2895578    4.2895578    4.2895578   -119.06009    554.66825   -3157.7201    2245.8716   -718.29918   -823.02307   -1205.1844    78.929175 
   25800    109.50934   -117.36925  0.099086349   -117.27016   -460.32522    4.2893657    4.2893657    4.2893657   -460.32522    -5185.955    6863.5633    -3058.584    217.86306    170.06315   -388.77924    78.918572 
   25900    107.73769   -117.36774  0.097483327   -117.27025   -907.83003    4.2890055    4.2890055    4.2890055   -907.83003   -1229.3214   -1105.1171   -389.05156   -397.56542   -1503.4311    31.795353    78.898696 
   26000    95.742769   -117.35703  0.086630069    -117.2704    -817.4483    4.2895556    4.2895556    4.2895556    -817.4483   -2390.7048    2067.3027   -2128.9428    867.13242    803.02052    1651.1078    78.929055 
   26100    100.25675   -117.36098  0.090714418   -117.27026   -779.85913    4.2897804    4.2897804    4.2897804   -779.85913   -2372.7776   -265.99229    299.19249   -563.37546   -1377.4589   -86.347624    78.941462 
   26200    109.93903   -117.36956  0.099475145   -117.27008   -152.14749    4.2888465    4.2888465    4.2888465   -152.14749   -2624.8825    3149.6525   -981.21245   -228.12063   -91.352896   -1137.9306    78.889917 
   26300    109.69809    -117.3694  0.099257139   -117.27014    77.219266    4.2889599    4.2889599    4.2889599    77.219266    -1915.164    2340.7309   -193.90905   -196.65349    -617.7393    304.48027    78.896176 
   26400    102.86399   -117.36325  0.093073502   -117.27018    171.40294    4.2895126    4.2895126    4.2895126    171.40294    164.06011    3766.7256   -3416.5769   -27.754219   -25.662963    386.81444    78.926683 
   26500    118.09568   -117.37699   0.10685545   -117.27013    28.162166    4.2889907    4.2889907    4.2889907    28.162166   -3959.4059    4854.7287   -810.83631    2126.5172    349.19403    976.05596    78.897874 
   26600    111.28644   -117.37081   0.10069431   -117.27012    1535.8601    4.2888783    4.2888783    4.2888783    1535.8601    1081.2606     2629.314    897.00562   -694.45768   -1193.5026   -1323.6364    78.891676 
   26700    105.34324   -117.36553  0.095316779   -117.27021     939.0735    4.2890527    4.2890527    4.2890527     939.0735   -2562.7349    5855.3032    -475.3478    -202.4775    262.87543    278.49148    78.901297 
   26800    99.020465   -117.35994  0.089595798   -117.27035    -354.1235    4.2892875    4.2892875    4.2892875    -354.1235   -477.30919   -1889.1089    1304.0476   -935.06718   -981.27888   -836.40096    78.914254 
   26900    108.32937   -117.36817  0.098018688   -117.27016    -705.4987    4.2897445    4.2897445    4.2897445    -705.4987   -2579.0776    4018.4535    -3555.872    548.67289    949.98786    900.26539    78.939482 
   27000    123.64684   -117.38181   0.11187826   -117.26993   -1024.4772    4.2890664    4.2890664    4.2890664   -1024.4772    -1281.336   -59.738601   -1732.3571    1189.4996   -1107.7858   -950.54356    78.902052 
   27100     98.87486   -117.35959  0.089464051   -117.27012   -754.96462    4.2891173    4.2891173    4.2891173   -754.96462   -431.29012    1732.9081   -3566.5119   -1141.2919   -193.93219    95.699828    78.904862 
   27200    106.68187   -117.36681  0.096527997   -117.27028    -2030.743    4.2902356    4.2902356    4.2902356    -2030.743   -2889.8184   -869.25352    -2333.157   -846.48139   -761.98949     10.15723    78.966598 
   27300    92.953102   -117.35434   0.08410592   -117.27024    1429.1801    4.2887718    4.2887718    4.2887718    1429.1801    219.35893    5352.5761   -1284.3947   -112.31207   -608.14497   -488.40534    78.885798 
   27400     116.7313   -117.37576   0.10562093   -117.27014    605.95776    4.2886902    4.2886902    4.2886902    605.95776   -1332.7551    2253.6032    897.02519     1331.338    374.96814    462.85262    78.881293 
   27500    83.512623   -117.34591  0.075563976   -117.27035    894.08924    4.2896658    4.2896658    4.2896658    894.08924   -163.93813    6410.8035   -3564.5976   -336.73796   -1056.4793   -772.17564    78.935138 
   27600    113.67206   -117.37298   0.10285287   -117.27013   -939.06049    4.2891684    4.2891684    4.2891684   -939.06049   -1832.1557    1872.1567   -2857.1825   -746.51619    262.48461    660.87145    78.907684 
   27700    97.345654   -117.35819  0.088080394   -117.27011    1561.1015     4.288771     4.288771     4.288771    1561.1015    557.11315    3805.7209    320.47035   -87.487645   -898.14031   -1362.1964    78.885755 
   27800    112.87298   -117.37207   0.10212984   -117.26994   -789.31444    4.2894475    4.2894475    4.2894475   -789.31444   -2476.4504    3041.6536   -2933.1465     1133.365    631.05699    999.66619    78.923086 
   27900    72.548471   -117.33601  0.065643382   -117.27037   -209.32576    4.2889795    4.2889795    4.2889795   -209.32576   -398.56781   -606.06065    376.65119    424.28607    -723.3902   -1228.6493     78.89726 
   28000     90.03414   -117.35183  0.081464782   -117.27036   -1085.7011    4.2898318    4.2898318    4.2898318   -1085.7011   -1029.5231    633.69869   -2861.2789     -991.461   -160.23404    240.27585    78.944304 
   28100     99.66185   -117.36042  0.090176136   -117.27025    -537.6586    4.2891944    4.2891944    4.2891944    -537.6586   -1134.3588    1242.1577   -1720.7747   -975.87755   -697.47991   -1459.2204    78.909117 
   28200    96.443673   -117.35755  0.087264262   -117.27029   -997.92002    4.2886591    4.2886591    4.2886591   -997.92002   -1342.7301    1995.2939   -3646.3238    506.23465   -51.489947   -237.97412    78.879577 
   28300    100.65805   -117.36153  0.091077523   -117.27045   -1925.0147    4.2902404    4.2902404    4.2902404   -1925.0147    154.70528   -997.96327   -4931.7862    285.07241    263.59242    904.83661    78.966861 
   28400    67.241437   -117.33129  0.060841465   -117.27045     2033.258    4.2888404    4.2888404    4.2888404     2033.258   -610.80745     8681.009   -1970.4275    231.91986   -890.55243   -997.42701    78.889584 
   28500    121.46828   -117.37987   0.10990706   -117.26996   -427.67588    4.2882811    4.2882811    4.2882811   -427.67588   -1879.1836    928.93221   -332.77628    35.225403    4.9683764   -61.918061    78.858724 
   28600    55.340921   -117.32047  0.050073628    -117.2704    2893.6605    4.2895996    4.2895996    4.2895996    2893.6605    585.86854    8768.6324   -673.51937   -751.08799   -906.21356   -1929.9401    78.931484 
   28700    118.62144    -117.3775   0.10733117   -117.27017   -2497.2786    4.2896752    4.2896752    4.2896752   -2497.2786   -2150.9446   -1887.9196   -3452.9717    291.77743    452.13367    1420.0011    78.935656 
   28800    60.822036   -117.32559  0.055033056   -117.27056    1650.6229    4.2886131    4.2886131    4.2886131    1650.6229    110.80155    4747.0213    94.045882   -816.68015   -646.15938   -947.04409    78.877042 
   28900     140.1974   -117.39681   0.12685355   -117.26995   -3498.5232    4.2901365    4.2901365    4.2901365   -3498.5232   -5109.1878   -856.39608   -4529.9858    1036.5209    229.23462    631.53257    78.961126 
   29000    67.892398   -117.33203  0.061430468    -117.2706    774.97887    4.2889037    4.2889037    4.2889037    774.97887    2787.0424    1786.4244   -2248.5302    -322.4649    -630.7983   -1413.7855    78.893076 
   29100    96.007923   -117.35745  0.086869987   -117.27058   -2017.9539    4.2896897    4.2896897    4.2896897   -2017.9539   -3671.2442   -1581.1498   -801.46782   -1058.7207   -26.315602   -494.91354    78.936459 
   29200     94.42423    -117.3559  0.085437027   -117.27046   -277.40999    4.2894029    4.2894029    4.2894029   -277.40999   -590.23285    1919.2913   -2161.2884    -472.4006   -471.99458   -171.90451    78.920627 
   29300    91.372701   -117.35297   0.08267594    -117.2703    1691.1317    4.2881332    4.2881332    4.2881332    1691.1317     422.1518    4381.2731    269.97023    153.39068   -683.12594   -1336.8327    78.850564 
   29400    131.54799   -117.38912   0.11902739   -117.27009   -2182.9442    4.2902215    4.2902215    4.2902215   -2182.9442   -387.51524   -828.82217   -5332.4951    1074.9922    545.58514    1400.0008    78.965822 
   29500    54.083661   -117.31948  0.048936033   -117.27054    2767.8141    4.2890672    4.2890672    4.2890672    2767.8141    412.19368     10584.46   -2693.2113   -1299.3438   -824.36425   -1556.1877    78.902097 
   29600    163.40682   -117.41766   0.14785392    -117.2698   -2642.2956    4.2882507    4.2882507    4.2882507   -2642.2956   -3667.8504   -1458.7911   -2800.2452    -393.9321    604.69573    683.06643    78.857044 
   29700    55.170929   -117.32051  0.049919816   -117.27059    4924.4141    4.2892346    4.2892346    4.2892346    4924.4141    3814.2252    10712.229    246.78845    196.61547   -1347.9523   -1992.9531    78.911337 
   29800    147.13874   -117.40341   0.13313422   -117.27028   -3735.4495    4.2899322    4.2899322    4.2899322   -3735.4495   -5494.7299   -3560.1201   -2151.4985    1300.3998    453.20463    1288.6598    78.949847 
   29900    54.601799   -117.32019  0.049404856   -117.27079    2378.3361    4.2880351    4.2880351    4.2880351    2378.3361    1830.8185    5020.4762    283.71355   -283.76763   -233.41086   -213.64104    78.845153 
   30000    146.71717   -117.40286   0.13275278   -117.27011   -2702.0372    4.2902711    4.2902711    4.2902711   -2702.0372   -4354.7283   -1953.3655   -1798.0178   -1687.9676    74.459301   -306.88976     78.96856 
   30100    112.46254   -117.37209   0.10175847   -117.27033   -736.52707    4.2894719    4.2894719    4.2894719   -736.52707    1341.0885    1830.2796   -5380.9493   -130.36842   -189.83293   -682.64505    78.924435 
   30200    97.782478   -117.35893  0.088475641   -117.27045    -841.4965    4.2891898    4.2891898    4.2891898    -841.4965   -1379.4301    -752.8416   -392.21779    458.60631   -513.85494   -949.30687    78.908865 
   30300    127.85859   -117.38602   0.11568914   -117.27033   -1535.0712     4.289948     4.289948     4.289948   -1535.0712   -1943.8321    912.13423   -3573.5156    799.15283    678.64638    1283.6391    78.950715 
   30400    68.338934   -117.33226  0.061834503   -117.27042    4532.7025    4.2879114    4.2879114    4.2879114    4532.7025    3929.6164    7576.1872    2092.3039   -549.59393   -1184.4747   -2054.6969     78.83833 
   30500    164.46341   -117.41874   0.14880995   -117.26993   -3063.1711    4.2897678    4.2897678    4.2897678   -3063.1711    -3562.554    -2141.792   -3485.1674   -1390.9929    77.175182    681.38617    78.940768 
   30600    46.182523   -117.31253  0.041786918   -117.27074    4045.8022    4.2892936    4.2892936    4.2892936    4045.8022    3326.7927    11313.454   -2502.8398   -2.2457164   -1307.7733   -1721.2972    78.914595 
   30700    162.87858    -117.4175   0.14737596   -117.27012   -3309.2477    4.2884004    4.2884004    4.2884004   -3309.2477   -3563.7238   -3145.4327   -3218.5866    228.88227    959.93368    1519.0302    78.865303 
   30800    74.334199   -117.33788  0.067259146   -117.27062    2581.0648     4.289328     4.289328     4.289328    2581.0648    1192.3124    8412.7473   -1861.8653    238.40106   -125.43202   -1088.8344    78.916493 
   30900    133.73588   -117.39114   0.12100704   -117.27013   -2569.9993    4.2902163    4.2902163    4.2902163   -2569.9993   -3292.7165   -2904.3451   -1512.9362   -869.92561   -361.24837     254.8203     78.96553 
   31000    73.559249   -117.33701  0.066557955   -117.27045    1141.9686    4.2878588    4.2878588    4.2878588    1141.9686    849.65506    2765.3842   -189.13329   -1258.2347    -332.3376   -86.154957    78.835429 
   31100    95.651756   -117.35682  0.086547719   -117.27027    -416.2473    4.2896754    4.2896754    4.2896754    -416.2473   -1681.4249   -1548.4097    1981.0927     805.4975   -398.01665   -480.31056    78.935666 
   31200    127.84099   -117.38589   0.11567321   -117.27022   -2311.6392    4.2899135    4.2899135    4.2899135   -2311.6392   -1763.1359    593.36074   -5765.1424    332.04974    529.82657    94.420494    78.948813 
   31300    76.638083   -117.33979  0.069343748   -117.27045    1318.1432    4.2884538    4.2884538    4.2884538    1318.1432    2500.4814    1537.0338   -83.085445    38.150405    -316.3762   -1642.2426    78.868248 
   31400    125.86966   -117.38421   0.11388951   -117.27032   -2665.6763    4.2901242    4.2901242    4.2901242   -2665.6763    -3071.881   -1247.7737   -3677.3743   -1496.0502    189.36465    1321.7277    78.960445 
   31500     50.87289    -117.3166   0.04603086   -117.27057    3179.3552    4.2886139    4.2886139    4.2886139    3179.3552    1717.3272    7617.0478    203.69047    136.92312    -514.4683   -1899.2661    78.877083 
   31600    137.50258   -117.39443   0.12441522   -117.27001   -1981.6366    4.2892121    4.2892121    4.2892121   -1981.6366   -1477.5697   -3107.1606   -1360.1795    1119.2934    134.30025    875.90086    78.910096 
   31700    50.864268   -117.31658  0.046023058   -117.27056    2973.7567    4.2895827    4.2895827    4.2895827    2973.7567    1344.2753    8657.2499   -1080.2553   -83.414595   -817.06399   -1612.4734     78.93055 
   31800    112.84033   -117.37222    0.1021003   -117.27012   -2419.5256    4.2885996    4.2885996    4.2885996   -2419.5256   -2543.0038   -2706.5085   -2009.0647   -862.07382    358.84341    995.98926    78.876298 
   31900    78.720624   -117.34155  0.071228075   -117.27032    188.28913    4.2891371    4.2891371    4.2891371    188.28913   -1894.9194    5096.2101   -2636.4233   -1594.8282   -299.80603   -640.10543    78.905958 
   32000    106.46238   -117.36632  0.096329399   -117.26999    -1204.072    4.2903542    4.2903542    4.2903542    -1204.072   -1392.3635   -1897.1203   -322.73223    769.47619    149.30891   -390.85536    78.973148 
   32100    85.101703   -117.34738   0.07700181   -117.27037   -498.36195    4.2881327    4.2881327    4.2881327   -498.36195   -1179.9556     517.5874   -832.71766   -397.84727   -429.15472    422.45845    78.850536 
   32200    68.518447   -117.33259  0.061996931   -117.27059    24.041464     4.289219     4.289219     4.289219    24.041464   -3068.0836   -435.26032    3575.4683   -179.68707   -219.34485   -997.87056    78.910476 
   32300    106.81665   -117.36705   0.09664995    -117.2704   -1288.7612    4.2901558    4.2901558    4.2901558   -1288.7612   -61.029199    518.51448    -4323.769   -617.04712    -72.51642    620.33668    78.962193 
   32400    78.942219   -117.34176  0.071428578   -117.27033    1658.5815    4.2880546    4.2880546    4.2880546    1658.5815     882.8703    2879.3266    1213.5477   -274.68598   -694.47314   -2511.8701    78.846225 
   32500     116.1528   -117.37519   0.10509749    -117.2701   -2140.2948    4.2897279    4.2897279    4.2897279   -2140.2948    -2391.119   -810.79521   -3218.9703   -264.62539    709.64661    1229.8275    78.938564 
   32600    63.554271   -117.32797   0.05750524   -117.27047      1455.73    4.2892687    4.2892687    4.2892687      1455.73   -397.88817    6180.8198   -1415.7416   -313.13242   -573.02629   -1393.6411    78.913221 
   32700    123.72912   -117.38195   0.11195271      -117.27   -1300.7352    4.2888988    4.2888988    4.2888988   -1300.7352   -557.68739   -2684.5432   -659.97516    391.09502    1016.6537    903.38159    78.892802 
   32800    72.480049   -117.33593  0.065581472   -117.27035    1744.0057    4.2897007    4.2897007    4.2897007    1744.0057   -1134.6789    6036.7929    329.90302   -143.55682   -1480.9886   -1194.1416    78.937064 
   32900    107.24951   -117.36723  0.097041606   -117.27018   -1512.8726    4.2890258    4.2890258    4.2890258   -1512.8726   -3368.1649   -362.49522   -807.95766   -1024.5481    381.06508   -75.996005    78.899812 
   33000    84.304595   -117.34659  0.076280569   -117.27031    405.05118    4.2886893    4.2886893    4.2886893    405.05118    235.38881    2535.4766   -1555.7118   -1117.0186   -190.58482   -126.36976    78.881246 
   33100     117.9964   -117.37689   0.10676563   -117.27013   -1290.4385    4.2904223    4.2904223    4.2904223   -1290.4385   -4034.1483   -747.57213    910.40488    946.31734    81.431078    -714.7701     78.97691 
   33200    110.46789   -117.37025  0.099953672    -117.2703   -391.51504    4.2884835    4.2884835    4.2884835   -391.51504    -379.0871    1170.7707   -1966.2287   -141.00885    317.80063    1058.3328    78.869889 
   33300    88.394572   -117.35039  0.079981266   -117.27041    704.61377    4.2886879    4.2886879    4.2886879    704.61377    -3256.068    209.89194    5160.0173   -743.74175   -717.82736   -1247.8774    78.881167 
   33400    113.75623   -117.37312   0.10292902   -117.27019   -734.15471    4.2903631    4.2903631    4.2903631   -734.15471    51.475273    1089.1669   -3343.1063   -1421.8997    633.45933     170.5084    78.973637 
   33500    91.660545   -117.35313  0.082936388   -117.27019    1970.4067     4.288198     4.288198     4.288198    1970.4067    334.19498    3773.0438    1803.9813    902.03162   -1389.0513   -2634.0956    78.854136 
   33600    139.08149   -117.39586   0.12584385   -117.27001   -1562.2732    4.2892207    4.2892207    4.2892207   -1562.2732   -2341.9887    206.79017   -2551.6209    534.22815    608.40532    1172.6155    78.910572 
   33700    81.443246   -117.34424   0.07369156   -117.27055    1511.9659    4.2896412    4.2896412    4.2896412    1511.9659    1975.9405     4373.175   -1813.2176   -508.14955   -456.41499   -71.746137    78.933779 
   33800     137.4724   -117.39443   0.12438792   -117.27004   -2143.8778    4.2888585    4.2888585    4.2888585   -2143.8778   -3705.5463    -1084.376   -1641.7111   -1208.2561    836.13662    46.479584     78.89058 
   33900    90.710784   -117.35241  0.082077023   -117.27033    1555.3935    4.2894232    4.2894232    4.2894232    1555.3935    351.27226    4026.0639    288.84434   -690.96787   -674.83895   -1649.8044    78.921748 
   34000    125.19124   -117.38343   0.11327567   -117.27015   -835.06768    4.2894492    4.2894492    4.2894492   -835.06768   -3966.3123    517.39247    943.71681    1051.6799   -697.11995   -536.75332    78.923183 
   34100    91.137194   -117.35299  0.082462849   -117.27052    722.13438     4.288439     4.288439     4.288439    722.13438    1171.9618    1320.8541   -326.41267    -1604.434     130.5913    1136.9654    78.867431 
   34200    115.89636   -117.37526   0.10486546   -117.27039   -1134.7778    4.2902578    4.2902578    4.2902578   -1134.7778   -3864.1922   -1095.5883    1555.4472    18.696308   -75.503128   -403.45738    78.967822 
   34300    127.21475   -117.38519   0.11510658   -117.27008   -415.07951    4.2890587    4.2890587    4.2890587   -415.07951    -257.1108    1543.9468   -2532.0745   -1406.1717    141.39663   -265.89327    78.901631 
   34400    90.858256   -117.35237  0.082210459   -117.27016    1808.2617    4.2881017    4.2881017    4.2881017    1808.2617   -182.81578    319.74207    5287.8587    702.44741   -369.87515    -1679.081    78.848826 
   34500    125.50033   -117.38356   0.11355534      -117.27   -2193.8647    4.2904429    4.2904429    4.2904429   -2193.8647   -3751.6335     1100.846   -3930.8067    48.268764    604.34389    1296.0311    78.978044 
   34600    68.724737   -117.33255  0.062183587   -117.27037     2585.305     4.288656     4.288656     4.288656     2585.305    3731.1484     2903.948    1120.8186   -438.58009   -374.67525   -1244.1951    78.879405 
   34700    144.21499   -117.40036   0.13048876   -117.26987   -1855.0424    4.2888282    4.2888282    4.2888282   -1855.0424   -3021.6874   -804.57803   -1738.8617   -130.93488   -17.770945   -103.01923    78.888909 
   34800    70.411927   -117.33402  0.063710191   -117.27031    1700.3581    4.2897129    4.2897129    4.2897129    1700.3581    3419.6203    2496.2969   -814.84279   -1163.5144   -1237.9364   -970.45741     78.93774 
   34900    124.41173   -117.38257   0.11257035      -117.27    -2899.197    4.2892231    4.2892231    4.2892231    -2899.197   -3567.5329   -1963.9892   -3166.0689    1128.3106     1326.548    453.08015    78.910703 
   35000    80.202224   -117.34293  0.072568658   -117.27036    1274.3877    4.2889546    4.2889546    4.2889546    1274.3877    523.12492    1188.9329    2111.1053   -634.18589   -320.34214   -86.524159    78.895882 
   35100    108.42559   -117.36834  0.098105755   -117.27023   -297.42597    4.2895132    4.2895132    4.2895132   -297.42597   -2396.6911     500.2625    1004.1507     274.2472    13.201638   -802.53422    78.926715 
   35200    94.133673   -117.35551  0.085174126   -117.27033   -533.95178     4.288614     4.288614     4.288614   -533.95178   -1931.9397    575.14065   -245.05633   -2609.0993   -1053.4471    78.854255    78.877088 
   35300    71.671339   -117.33517  0.064849734   -117.27032    522.42967    4.2896982    4.2896982    4.2896982    522.42967    574.30357   -2500.6164    3493.6018   -275.41896   -53.699189   -660.42316    78.936928 
   35400    123.62056   -117.38177   0.11185448   -117.26992   -1939.9351    4.2897362    4.2897362    4.2897362   -1939.9351   -2315.6348    496.79612   -4000.9665    518.35214    499.44388    696.81001    78.939026 
   35500    66.143073    -117.3301  0.059847643   -117.27025    2048.6714    4.2880025    4.2880025    4.2880025    2048.6714     1476.656    253.51963    4415.8385    181.08559   -804.47281   -1487.2153    78.843354 
   35600     121.1175   -117.37984   0.10958966   -117.27025    -2970.509    4.2901946    4.2901946    4.2901946    -2970.509   -3900.6839   -773.62136   -4237.2218   -340.17952    689.30421      804.615    78.964332 
   35700    51.347076   -117.31713  0.046459914   -117.27067    2026.6832    4.2891284    4.2891284    4.2891284    2026.6832    3086.8555    1789.2662    1203.9278   -1318.5934   -1060.6645   -1161.9976    78.905478 
   35800    116.25264   -117.37531   0.10518783   -117.27012   -1637.6978    4.2884824    4.2884824    4.2884824   -1637.6978   -1757.2514   -573.74776   -2582.0942    530.31347    1344.2329   -177.92127    78.869828 
   35900    70.986109   -117.33446  0.064229723   -117.27023    1063.5369    4.2895393    4.2895393    4.2895393    1063.5369    906.32259    1137.3434    1146.9448   -548.50968   -1764.4047   -424.05078    78.928158 
   36000    103.20425   -117.36336  0.093381374   -117.26998   -1666.5162    4.2895559    4.2895559    4.2895559   -1666.5162    348.94039   -2478.7059   -2869.7832    409.72267    865.17041    240.99804    78.929073 
   36100    80.858291   -117.34334  0.073162281   -117.27018   0.65918725    4.2888447    4.2888447    4.2888447   0.65918725   -2503.7411    400.10096    2105.6177   -1241.4472   -127.55507    425.98056    78.889817 
   36200    92.685525    -117.3539   0.08386381   -117.27004   -250.94426    4.2895492    4.2895492    4.2895492   -250.94426   -1882.6654   -460.50315    1590.3358    381.24074   -148.88989    -1068.138    78.928701 
   36300    104.57828   -117.36465  0.094624628   -117.27002   -796.68432    4.2889185    4.2889185    4.2889185   -796.68432   -1816.0547    434.51927   -1008.5175   -1470.6614     372.7683    5.3579797    78.893894 
   36400    71.554749   -117.33515   0.06474424    -117.2704    792.32534    4.2891797    4.2891797    4.2891797    792.32534    375.97033   -2599.1654    4600.1711   -708.14604   -1189.8561   -663.56868    78.908305 
   36500    105.87394    -117.3662  0.095796964   -117.27041   -1627.4867    4.2897036    4.2897036    4.2897036   -1627.4867   -708.72192    761.00641   -4934.7444    71.623211    1005.9265    1156.8486    78.937224 
   36600    84.696328   -117.34717  0.076635017   -117.27053    958.39677    4.2883183    4.2883183    4.2883183    958.39677    389.08689    630.80484    1855.2986   -386.51093   -1021.7374   -1161.2603    78.860778 
   36700    120.51314   -117.37928   0.10904282   -117.27024   -1489.1215    4.2898144    4.2898144    4.2898144   -1489.1215    128.32695   -1435.5614     -3160.13   -103.58866    761.64425     104.2521    78.943342 
   36800    75.520217   -117.33871  0.068332279   -117.27038    770.81054    4.2895817    4.2895817    4.2895817    770.81054   -577.09928    2890.3047  -0.77385136   -933.46059   -450.59249   -727.06336    78.930496 
   36900    120.95903   -117.37939   0.10944627   -117.26994   -1559.8806    4.2885132    4.2885132    4.2885132   -1559.8806   -962.89488   -765.22378   -2951.5231    843.99244    597.22005   -188.34959    78.871529 
   37000    76.381666   -117.33944  0.069111736   -117.27033     2569.843    4.2890952    4.2890952    4.2890952     2569.843    2757.9459    2145.8089    2805.7741   -969.79845   -809.45441    263.44725    78.903643 
   37100    134.85938   -117.39221    0.1220236   -117.27018   -1924.7629    4.2897084    4.2897084    4.2897084   -1924.7629    -1071.209   -2206.0102   -2497.0696   -178.65022   -127.69632    -171.8896    78.937488 
   37200    77.021516   -117.34038  0.069690686   -117.27069    1257.2248     4.288417     4.288417     4.288417    1257.2248   -410.10523    2065.6585    2116.1211   -1993.2884     245.3122     321.8761    78.866218 
   37300    126.12396   -117.38447   0.11411961   -117.27035   -1583.2802    4.2896765    4.2896765    4.2896765   -1583.2802   -4437.6938   -1390.1767    1078.0298     1161.925   -44.826098   -916.59767    78.935727 
   37400      109.061   -117.36899  0.098680687   -117.27031    336.43244    4.2891563    4.2891563    4.2891563    336.43244    1695.6767    898.81865   -1585.1981    -486.9064   -226.53124    447.58089    78.907017 
   37500    98.658696   -117.35951  0.089268461   -117.27024    234.21237    4.2889992    4.2889992    4.2889992    234.21237   -1893.1006   -654.07067    3249.8084   -1542.3408   -700.37531   -576.82689    78.898343 
   37600       123.12    -117.3815   0.11140156   -117.27009   -1633.7606    4.2897152    4.2897152    4.2897152   -1633.7606     1101.732    -1194.254   -4808.7597    -576.5009    373.58376    867.28148    78.937866 
   37700     74.61722   -117.33786  0.067515228   -117.27035    2771.5128    4.2883452    4.2883452    4.2883452    2771.5128     3785.894    3972.6558    555.98854   -853.66969    111.41107   -976.09045    78.862262 
   37800     165.1034   -117.41918   0.14938902    -117.2698   -3543.4642    4.2897385    4.2897385    4.2897385   -3543.4642   -2568.6695   -3415.7617   -4645.9616    1356.9583    413.75226   -2.7576832    78.939154 
   37900    65.048888   -117.32935  0.058857601   -117.27049    2932.4514    4.2893782    4.2893782    4.2893782    2932.4514    2721.3405    4623.6196     1452.394    -1288.019    -660.0781    271.10417    78.919263 
   38000    155.05459   -117.41038   0.14029665   -117.27009   -2769.9723    4.2888138    4.2888138    4.2888138   -2769.9723   -2346.7995   -1602.3004    -4360.817    119.31142    742.00991   -321.11456    78.888113 
   38100    65.560315   -117.33012   0.05932035    -117.2708    3530.8069    4.2888561    4.2888561    4.2888561    3530.8069    4657.4811    2537.3465     3397.593   -1259.1956   -1072.4513   -36.472544    78.890446 
   38200    133.83505   -117.39143   0.12109677   -117.27033   -1457.6511    4.2898222    4.2898222    4.2898222   -1457.6511   -1367.8564   -901.99336   -2103.1034    929.74549    635.83999   -711.38991    78.943773 
   38300    103.87291   -117.36433  0.093986389   -117.27034    556.98797    4.2883765    4.2883765    4.2883765    556.98797    369.82647    95.340506    1205.7969   -1110.3553   -358.90165     889.2998    78.863983 
   38400     94.19916   -117.35551   0.08523338   -117.27028    522.72005    4.2892413    4.2892413    4.2892413    522.72005   -2004.1666    1116.6914    2455.6354   -469.92185    612.29153   -529.62307    78.911704 
   38500    142.13083   -117.39865   0.12860296   -117.27005   -3161.8632     4.289846     4.289846     4.289846   -3161.8632    -1470.032   -3059.3064   -4956.2511    -550.5917   -447.20076    338.87612    78.945088 
   38600    65.269798   -117.32955  0.059057485    -117.2705    2607.5181    4.2885226    4.2885226    4.2885226    2607.5181    1801.3378     2104.647    3916.5693   -1525.0578   -1013.4372   -763.92865    78.872045 
   38700    141.86142   -117.39852   0.12835919   -117.27016   -2874.2598    4.2898285    4.2898285    4.2898285   -2874.2598    989.91539   -4421.5876   -5191.1072    823.42132    763.83831    770.51897    78.944122 
   38800    44.494247   -117.31089  0.040259329   -117.27063     3321.958    4.2885213    4.2885213    4.2885213     3321.958    4368.1686    5192.9065    404.79905   -988.69068   -540.03966   -109.71448    78.871972 
   38900    150.86411   -117.40638   0.13650502   -117.26987   -3716.1434    4.2895015    4.2895015    4.2895015   -3716.1434   -1832.5999   -3989.7683   -5326.0621    564.24816    959.56687   -511.30582    78.926066 
   39000    75.958761   -117.33903  0.068729083    -117.2703    2247.1374    4.2893258    4.2893258    4.2893258    2247.1374    1679.3629    2480.5633    2581.4859   -1625.6966   -1478.6614    470.94759     78.91637 
   39100    112.08035   -117.37154   0.10141265   -117.27013   -805.07152    4.2886689    4.2886689    4.2886689   -805.07152   -720.04207    1557.8831   -3253.0556    577.77844    1167.1521   -141.86987    78.880121 
   39200    85.632613   -117.34799  0.077482188   -117.27051    76.614013    4.2891407    4.2891407    4.2891407    76.614013    238.63795   -1595.2268    1586.4309   -267.68065   -432.22225    372.04273    78.906155 
   39300    74.359986   -117.33769  0.067282478   -117.27041    1577.3397    4.2896561    4.2896561    4.2896561    1577.3397    2495.8676    1614.2727    621.87867    463.06212   -229.16832   -852.79182    78.934604 
   39400    120.07057   -117.37868   0.10864237   -117.27004    -1455.973    4.2887447    4.2887447    4.2887447    -1455.973   -604.36011   -2983.6158   -779.94323   -964.91685   -266.61886    430.43787    78.884303 
   39500    61.579126   -117.32614  0.055718087   -117.27042    940.20608    4.2889168    4.2889168    4.2889168    940.20608   -3019.4671    2426.1591    3413.9262   -1030.1536    32.650742   -135.11849    78.893799 
   39600    124.91501   -117.38331   0.11302573   -117.27029   -3682.5932    4.2900711    4.2900711    4.2900711   -3682.5932    310.72435   -5530.9561    -5827.548    515.92642    1041.7485    347.78488    78.957516 
   39700    63.791561   -117.32825  0.057719945   -117.27053    1834.1276    4.2884865    4.2884865    4.2884865    1834.1276   -747.70743    3142.1006    3107.9898    -1092.089   -883.15475   -451.95947    78.870054 
   39800    109.67752   -117.36932  0.099238524   -117.27009   -1674.7561    4.2893981    4.2893981    4.2893981   -1674.7561    2557.8828   -3703.5761   -3878.5751    316.41189   -118.87123    38.383395    78.920359 
   39900    57.491527   -117.32238  0.052019542   -117.27036    1185.5459    4.2890772    4.2890772    4.2890772    1185.5459    1443.2642    2171.9297   -58.556104    -1151.772   -517.04959    326.82335    78.902651 
   40000    104.80614   -117.36486  0.094830794   -117.27003   -1156.7913    4.2892547    4.2892547    4.2892547   -1156.7913    822.43049   -700.68156    -3592.123    960.60564      852.886   -495.77197    78.912447 
   40100     92.76123   -117.35412   0.08393231   -117.27019    379.89779    4.2894562    4.2894562    4.2894562    379.89779    -1033.732   -431.55715    2604.9826   -940.19555   -514.07988     346.5967    78.923566 
   40200    97.095495   -117.35798  0.087854044   -117.27013   -302.64205    4.2887288    4.2887288    4.2887288   -302.64205   -3243.1694    4087.9835   -1752.7403    638.16119    227.50896    139.56162    78.883422 
   40300    89.048501   -117.35091  0.080572955   -117.27034    -77.41118    4.2890324    4.2890324    4.2890324    -77.41118    1592.5582   -3610.2335    1785.4418   -637.72233   -419.88842    313.05637    78.900175 
   40400    74.606554   -117.33791  0.067505578   -117.27041    1135.5602    4.2896059    4.2896059    4.2896059    1135.5602   -1740.3423    3543.8304    1603.1926    134.80345   -115.58261   -552.24686    78.931832 
   40500     106.2078   -117.36618  0.096099046   -117.27008   -897.19242    4.2887385    4.2887385    4.2887385   -897.19242    1387.1554   -3115.6258   -963.10684   -138.73507   -856.65943    131.45014    78.883959 
   40600    81.557554   -117.34413  0.073794989   -117.27033    125.93995    4.2890155    4.2890155    4.2890155    125.93995   -4420.8546    1887.3944      2911.28   -911.82515    8.7131776    348.45543    78.899245 
   40700     117.0701   -117.37611   0.10592749   -117.27018   -2803.2511    4.2901756    4.2901756    4.2901756   -2803.2511    380.90035   -4120.2403   -4670.4134    1011.2054    482.29477    267.84451    78.963287 
   40800    82.003195   -117.34453  0.074198214   -117.27033    256.43237    4.2888097    4.2888097    4.2888097    256.43237   -2828.4093    2542.3695    1055.3369   -1337.7752    367.45272   -758.76764     78.88789 
   40900    121.47937   -117.37989   0.10991708   -117.26997   -1391.7216    4.2890535    4.2890535    4.2890535   -1391.7216   -269.38053   -1145.4684   -2760.3157    204.27938   -289.65508    -265.4627    78.901341 
   41000    74.206985   -117.33755   0.06714404    -117.2704    2145.6103    4.2889902    4.2889902    4.2889902    2145.6103    4442.3021    76.664301    1917.8645   -975.07349   -825.70132    703.68237    78.897848 
   41100      111.406   -117.37105   0.10080249   -117.27025    -631.0775    4.2891552    4.2891552    4.2891552    -631.0775   -2538.5635     3860.095    -3214.764    1563.3881    1090.8413    309.65104    78.906955 
   41200    100.43323   -117.36105  0.090874096   -117.27017    758.95419    4.2892369    4.2892369    4.2892369    758.95419    326.01203   -2433.6196    4384.4701   -676.03701   -973.13273   -545.78923    78.911466 
   41300    121.98601   -117.38035    0.1103755   -117.26997     30.99579    4.2889109    4.2889109    4.2889109     30.99579   -4754.4517    5849.1856   -1001.7466     60.39177    982.15801   -628.50383    78.893473 
   41400    108.10431   -117.36793  0.097815055   -117.27011   -7.4542419    4.2892313    4.2892313    4.2892313   -7.4542419    618.21518   -3132.5935    2492.0156   -389.56148   -930.26528    472.33617    78.911154 
   41500    94.378061   -117.35568  0.085395253   -117.27028   -43.933549    4.2896895    4.2896895    4.2896895   -43.933549   -3356.2731    2737.7073    486.76519    197.48176    442.11621    699.03641    78.936445 
   41600    118.66837   -117.37746   0.10737363   -117.27009   -634.38261     4.288758     4.288758     4.288758   -634.38261    826.89714   -1849.1001   -880.94487    1129.2948   -721.06863    -12.73115    78.885034 
   41700    93.341409   -117.35464  0.084457269   -117.27018    1054.1609    4.2889351    4.2889351    4.2889351    1054.1609   -475.70084    569.90633    3068.2773   -1719.3016   -1121.9822   -854.45688    78.894807 
   41800    131.82621   -117.38932   0.11927913   -117.27004   -3255.8466    4.2901966    4.2901966    4.2901966   -3255.8466   -3536.6143   -1947.6397   -4283.2857    898.93153    811.42695    30.216566    78.964443 
   41900    97.235914   -117.35815  0.087981098   -117.27017   -248.64559    4.2890162    4.2890162    4.2890162   -248.64559   -617.97233   -816.42035    688.45591   -788.24511   -105.75507    308.81728    78.899284 
   42000    129.79307   -117.38743    0.1174395   -117.26999   -538.69722    4.2890096    4.2890096    4.2890096   -538.69722   -1684.5454    2186.5102   -2118.0566    921.80069    969.19339    626.04514    78.898917 
   42100    99.119485   -117.35995  0.089685393   -117.27026    1487.3796    4.2890761    4.2890761    4.2890761    1487.3796    3840.0536   -3127.2919    3749.3772   -1083.4603   -1214.9339   -219.66207    78.902587 
   42200    101.69848   -117.36239  0.092018925   -117.27037    675.53522    4.2889692    4.2889692    4.2889692    675.53522   -877.09804    5311.9946   -2408.2909    479.84364    621.22665   -454.66964    78.896691 
   42300    107.66863   -117.36767   0.09742084   -117.27025    1189.4302    4.2889547    4.2889547    4.2889547    1189.4302    223.38876   -2861.4638    6206.3658    44.723443   -814.03185    -145.4582    78.895891 
   42400    116.16106   -117.37525   0.10510497   -117.27014    779.45456    4.2887133    4.2887133    4.2887133    779.45456   -1576.1953    4188.7212   -274.16225    466.83597    296.23116    422.37443     78.88257 
   42500    113.57073   -117.37281   0.10276118   -117.27005   -996.94109    4.2894521    4.2894521    4.2894521   -996.94109   -2981.7256   -1982.8569    1973.7592    838.05742   -199.04388    85.615495     78.92334 
   42600    103.48238   -117.36376  0.093633029   -117.27013    -1066.481    4.2898146    4.2898146    4.2898146    -1066.481   -1406.6633    -1762.717   -30.062844   -912.11576    -178.5779   -545.38071    78.943351 
   42700    90.018248   -117.35164  0.081450403   -117.27019    424.16284    4.2886625    4.2886625    4.2886625    424.16284    963.18428    828.55471   -519.25046    1417.5116    318.72444   -363.66119    78.879763 
   42800    110.39081   -117.36993  0.099883923   -117.27005   -1672.0905    4.2894266    4.2894266    4.2894266   -1672.0905    -525.2034   -4308.8359   -182.23223   -1550.6762   -1137.0779    42.035007    78.921935 
   42900    87.695205   -117.34966  0.079348464   -117.27031   -794.37429     4.289854     4.289854     4.289854   -794.37429   -554.49053   -849.52216   -979.11018    1322.8348    389.11232    981.32021     78.94553 
   43000    116.05533   -117.37512    0.1050093   -117.27011   -1777.1661    4.2890584    4.2890584    4.2890584   -1777.1661    -686.1506   -3884.2679    -761.0797   -280.83985    198.71334   -517.60726     78.90161 
   43100    90.819202   -117.35252  0.082175122   -117.27034    726.70771    4.2889412    4.2889412    4.2889412    726.70771   -7.6244783    2664.6788   -476.93118    662.03559    335.33604   -319.81133    78.895143 
   43200    100.73912   -117.36125  0.091150876    -117.2701    128.35776    4.2892869    4.2892869    4.2892869    128.35776    1227.0884   -5003.5469    4161.5318   -502.17237   -211.81588   -287.72793    78.914222 
   43300    91.955181   -117.35336  0.083202981   -117.27015    1250.3069    4.2888451    4.2888451    4.2888451    1250.3069    2464.9236    2371.5272   -1085.5303    14.084899    123.21137    811.94506     78.88984 
   43400    68.570707   -117.33233  0.062044217   -117.27028    2625.8084    4.2887557    4.2887557    4.2887557    2625.8084     967.8168    165.30924    6744.2991    1174.4755   -100.85031    91.755024    78.884909 
   43500    127.58941   -117.38533   0.11544558   -117.26988   -2282.8525     4.289015     4.289015     4.289015   -2282.8525   -2605.8327   -1990.1637    -2252.561   -473.22613   -184.28456    -230.8918     78.89922 
   43600    57.856631   -117.32279  0.052349895   -117.27044    1882.7862    4.2889814    4.2889814    4.2889814    1882.7862    201.72583    1392.7707     4053.862    1232.2699   -896.56402   -315.60805    78.897364 
   43700    138.60785   -117.39551    0.1254153    -117.2701   -4310.7696      4.29018      4.29018      4.29018   -4310.7696   -4093.9345   -5351.1122   -3487.2622     -1333.75    607.92929   -199.58263    78.963528 
   43800     36.44335    -117.3038  0.032974709   -117.27082    2206.5615    4.2882506    4.2882506    4.2882506    2206.5615    3235.6796    1852.3317    1531.6733    2238.4776    269.88076    555.49145    78.857039 
   43900    120.62525   -117.37934   0.10914426   -117.27019   -3568.5947    4.2897037    4.2897037    4.2897037   -3568.5947   -1630.4051   -6124.1358   -2951.2433   -527.45451   -541.43076   -558.94179    78.937231 
   44000    68.843797   -117.33267  0.062291314   -117.27038    779.41341    4.2897934    4.2897934    4.2897934    779.41341    2113.1894   -1372.1994    1597.2503    601.26557   -805.64018     745.9973    78.942183 
   44100    96.539844   -117.35752  0.087351279   -117.27016   -814.43044    4.2886606    4.2886606    4.2886606   -814.43044   -309.11979   -2107.3635   -26.808046    11.518852    356.18227    -656.2491    78.879663 
   44200    110.58902   -117.37024   0.10006327   -117.27017   -1508.9092    4.2892813    4.2892813    4.2892813   -1508.9092   -2764.4475   -656.19685   -1106.0833    57.470388    1235.7247    114.33152    78.913913 
   44300    59.376089   -117.32411  0.053724733   -117.27039    3091.1509    4.2892238    4.2892238    4.2892238    3091.1509    4230.6368   -1222.2968    6265.1128    911.66378   -660.78691   -274.97613    78.910742 
   44400    138.62412   -117.39536   0.12543002   -117.26993    -2040.122    4.2890789    4.2890789    4.2890789    -2040.122   -1292.0176   -1693.7735   -3134.5748   -795.50394    -289.9508    636.64675    78.902744 
   44500    29.959212   -117.29778  0.027107725   -117.27067    4665.3998    4.2885538    4.2885538    4.2885538    4665.3998    2527.8242    3584.6913     7883.684    1915.3168   -524.30981   -12.713555    78.873765 
   44600    153.38805   -117.40879   0.13878873      -117.27   -4135.1003    4.2895214    4.2895214    4.2895214   -4135.1003   -3634.3774   -4260.5449   -4510.3788   -930.52992    1169.8136   -581.52163    78.927166 
   44700    52.853571   -117.31847  0.047823022   -117.27065    2696.8175    4.2886568    4.2886568    4.2886568    2696.8175     1134.459    3197.9447    3758.0488    1515.6092    -407.2097    383.77171    78.879452 
   44800    139.48562   -117.39633   0.12620952   -117.27012   -3938.1157    4.2900395    4.2900395    4.2900395   -3938.1157   -4759.4728   -3044.6241   -4010.2502     -995.962   -310.94682    141.42174    78.955769 
   44900    78.688817   -117.34168  0.071199295   -117.27048    576.87693    4.2884192    4.2884192    4.2884192    576.87693    762.30756   -232.37698    1200.7002    1276.2997    272.87174    1010.9185    78.866341 
   45000     96.56861   -117.35768  0.087377307    -117.2703   -69.244488    4.2891293    4.2891293    4.2891293   -69.244488    2289.9067   -1160.4473   -1337.1929    486.02257    37.579736   -1567.9967    78.905526 
   45100    118.57965    -117.3775   0.10729336   -117.27021    -1433.958    4.2902174    4.2902174    4.2902174    -1433.958   -1616.5154   -3405.7744    720.41576   -291.35864   -249.84311    309.34346    78.965593 
   45200    78.096418    -117.3411   0.07066328   -117.27044    2134.3744    4.2881684    4.2881684    4.2881684    2134.3744    1887.5543    1558.5371    2957.0316    1067.9458     -238.781    575.19214    78.852505 
   45300    146.91236   -117.40306   0.13292939   -117.27013   -2058.7057    4.2892117    4.2892117    4.2892117   -2058.7057   -3499.1947   -1546.0631   -1130.8593   -467.43526    696.92096      1041.38    78.910075 
   45400    69.912133   -117.33382  0.063257967   -117.27057    2994.2138    4.2895748    4.2895748    4.2895748    2994.2138    2234.2724    1625.7548    5122.6141    1383.1882   -122.80368   -690.88039    78.930115 
   45500    144.33469   -117.40069   0.13059706    -117.2701   -2240.8845    4.2888417    4.2888417    4.2888417   -2240.8845   -2102.6499   -2123.2786   -2496.7249    -1748.936    -682.3372   -1056.4961    78.889655 
   45600    74.257004   -117.33772  0.067189298   -117.27053    2582.2527    4.2887948    4.2887948    4.2887948    2582.2527   -304.13983    3057.6303    4993.2677    1430.1328    -731.7942     670.5771    78.887065 
   45700     130.2268   -117.38797   0.11783195   -117.27014   -1812.5991    4.2898028    4.2898028    4.2898028   -1812.5991   -862.37318   -731.28773   -3844.1363    147.82269    1005.3902    883.58747    78.942702 
   45800    95.613373   -117.35677  0.086512989   -117.27026   -240.33827    4.2889258    4.2889258    4.2889258   -240.33827   -2555.6224    1124.6858    709.92179    1335.3055     38.99446    941.61463    78.894293 
   45900     120.3399   -117.37894   0.10888607   -117.27006   -1526.5887    4.2897678    4.2897678    4.2897678   -1526.5887   -3143.2827    1197.5624   -2634.0459   -196.88841   -388.70225   -1609.3082    78.940768 
   46000    109.97864   -117.36978  0.099510988   -117.27027    206.32686    4.2887509    4.2887509    4.2887509    206.32686    259.01136   -1570.0825    1930.0517   -635.81053   -71.619248    430.16907    78.884646 
   46100      104.727   -117.36509  0.094759193   -117.27033     206.0465    4.2886593    4.2886593    4.2886593     206.0465    1054.9893    1133.4436   -1570.2934    1258.9909    994.42338    117.84638    78.879589 
   46200    110.42526   -117.37033  0.099915099   -117.27042   -231.19403    4.2899963    4.2899963    4.2899963   -231.19403   -527.43162   -3385.2634    3219.1129   -254.34948   -574.16236    1085.8177    78.953386 
   46300    100.46023   -117.36128  0.090898532   -117.27039    1652.6185    4.2882652    4.2882652    4.2882652    1652.6185    1070.4361    1973.6343    1913.7849    1454.8573   -444.15634   -191.21369    78.857847 
   46400    116.09154   -117.37523   0.10504207   -117.27019   -4.3255538     4.288709     4.288709     4.288709   -4.3255538   -1131.3067    89.188317    1029.1417   -1122.3453    3.1218917   -423.85683    78.882332 
   46500    96.218932   -117.35728  0.087060911   -117.27022   -165.25659    4.2903343    4.2903343    4.2903343   -165.25659    -2294.903    102.96859    1696.1646    919.98901    628.20702    381.54737    78.972051 
   46600    119.41595   -117.37796   0.10805006   -117.26991   -1285.5157    4.2888551    4.2888551    4.2888551   -1285.5157   -1083.6389    -1037.792   -1735.1163   -1186.6244     155.2737    65.615113    78.890392 
   46700    83.967191   -117.34613  0.075975279   -117.27016    1135.4083    4.2885922    4.2885922    4.2885922    1135.4083   -653.04539    1315.7615    2743.5086    751.18154    -2076.679    734.66565    78.875886 
   46800     116.5477   -117.37543   0.10545481   -117.26998   -2314.4434    4.2901705    4.2901705    4.2901705   -2314.4434   -3294.9757    631.23645   -4279.5909    755.23567    769.68074   -745.75277    78.963004 
   46900    77.431376   -117.34035  0.070061537   -117.27029    446.73788    4.2887452    4.2887452    4.2887452    446.73788    306.99609   -159.86349    1193.0811    422.81637   -18.021213    728.01232     78.88433 
   47000    116.50743   -117.37555   0.10541838   -117.27013   -1416.9036    4.2894023    4.2894023    4.2894023   -1416.9036   -3971.3027    3206.6671   -3486.0752    602.70409    496.99033    -253.6266    78.920596 
   47100    82.917835   -117.34541    0.0750258   -117.27038    925.19639    4.2891422    4.2891422    4.2891422    925.19639     296.1278   -1817.1642    4296.6256   -1150.1629   -547.53157    1021.4191    78.906239 
   47200    110.76775   -117.37035   0.10022499   -117.27013   -1228.8945    4.2887564    4.2887564    4.2887564   -1228.8945   -1019.9828   -382.12585   -2284.5748    1545.7087    337.66235   -148.80725    78.884945 
   47300    88.522882   -117.35036  0.080097364   -117.27026    928.26998    4.2896896    4.2896896    4.2896896    928.26998   -260.63772    -1963.124    5008.5716   -561.35623   -229.95702    30.805245    78.936451 
   47400    86.142806   -117.34814  0.077943821   -117.27019    1353.5374    4.2885161    4.2885161    4.2885161    1353.5374    1295.0348    1754.3119    1011.2656    1241.7226   -661.20165 -0.096833689     78.87169 
   47500    99.504553   -117.36009   0.09003381   -117.27006   -564.39088     4.288334     4.288334     4.288334   -564.39088   -3114.6764    801.53736    619.96643   -842.08693   -135.73438     220.6427    78.861641 
   47600    76.722169   -117.33963   0.06941983   -117.27021    382.34915     4.290155     4.290155     4.290155    382.34915   -967.44078    486.45457    1628.0337    1067.9269   -159.14337    596.79695    78.962149 
   47700    117.09923   -117.37591   0.10595384   -117.26995   -2261.9797    4.2892313    4.2892313    4.2892313   -2261.9797   -3710.6111    318.48935   -3393.8175   -93.992286    577.03768   -292.15243    78.911155 
   47800    72.000547   -117.33544  0.065147608   -117.27029    314.31992    4.2883023    4.2883023    4.2883023    314.31992   -825.49062    288.83442     1479.616   -578.87149   -1926.1055    276.75328     78.85989 
   47900    109.48932   -117.36922  0.099068235   -117.27015   -2584.3826    4.2903897    4.2903897    4.2903897   -2584.3826   -5400.9461    1174.6307   -3526.8325    528.87116    721.35035   -383.01437    78.975109 
   48000    72.481311   -117.33585  0.065582613   -117.27026    1138.4043    4.2889432    4.2889432    4.2889432    1138.4043    1588.1277    968.27331    858.81177   -198.62925    111.37064    997.15819    78.895255 
   48100    98.320635     -117.359  0.088962577   -117.27004   -240.73873    4.2886936    4.2886936    4.2886936   -240.73873   -2832.8727    4842.3891   -2731.7326    2056.6375    103.94614   -27.172244    78.881483 
   48200    92.183755   -117.35344  0.083409799   -117.27003   -112.36542    4.2894321    4.2894321    4.2894321   -112.36542   -3187.4168   -1415.0698    4265.3904   -981.69771   -936.65692    565.59412    78.922237 
   48300    97.187559    -117.3579  0.087937345   -117.26996    119.63432    4.2889048    4.2889048    4.2889048    119.63432    1695.7856    175.96747   -1512.8501    887.93053    501.57884   -626.34129    78.893139 
   48400    109.17839   -117.36873  0.098786898   -117.26994   -329.08331    4.2894909    4.2894909    4.2894909   -329.08331   -4062.4194   -293.68672    3368.8562    -675.0208     726.3286    205.79862    78.925482 
   48500    80.902366   -117.34339  0.073202161   -117.27019    1248.7529    4.2888732    4.2888732    4.2888732    1248.7529    824.14493    2029.4525    892.66133    778.25357   -724.86946    271.19012    78.891391 
   48600    102.93171   -117.36337  0.093134773   -117.27024   -552.12818    4.2883997    4.2883997    4.2883997   -552.12818   -3744.4496     2090.086   -2.0209265    631.88083   -1022.2944    661.16851    78.865263 
   48700    85.150291   -117.34748  0.077045773   -117.27044    389.66423     4.289962     4.289962     4.289962    389.66423   -1226.0164     2877.661   -482.65189    94.479396   -998.47954    96.632045     78.95149 
   48800    119.40999   -117.37814   0.10804467    -117.2701   -2093.8462    4.2893815    4.2893815    4.2893815   -2093.8462     -4544.19    1399.7521   -3137.1008    598.46101    1745.3995   -864.46839    78.919446 
   48900    99.556583   -117.36023  0.090080888   -117.27015   -439.28204     4.288141     4.288141     4.288141   -439.28204   -2704.8801    1750.5354    -363.5014   -1263.0454   -1526.8108    634.32554    78.850993 
   49000     103.5432   -117.36391  0.093688062   -117.27022   -641.13885    4.2899861    4.2899861    4.2899861   -641.13885   -2785.9084    3819.3542   -2956.8624    1244.6729   -92.874606     398.4407    78.952821 
   49100    101.89616   -117.36236  0.092197783   -117.27016   -134.97603    4.2894295    4.2894295    4.2894295   -134.97603   -2457.2922    1688.9325    363.43166   -16.655313   -533.41131    1746.1093    78.922095 
   49200    96.479549   -117.35744  0.087296724   -117.27014      1237.61    4.2881567    4.2881567    4.2881567      1237.61    170.78834    5613.4975   -2071.4559    1363.8031    214.41846   -1151.9747    78.851861 
   49300    113.37829   -117.37273   0.10258706   -117.27014    62.272895    4.2893428    4.2893428    4.2893428    62.272895   -4044.6695   -176.65214    4408.1403   -681.40611     -316.432     91.92854     78.91731 
   49400    103.23695   -117.36364  0.093410963   -117.27023    193.10952    4.2892919    4.2892919    4.2892919    193.10952    2779.1658    274.32186   -2474.1591    -10.36918    -366.1705    -264.1801      78.9145 
   49500     117.1759   -117.37622   0.10602321   -117.27019   -524.19127    4.2891545    4.2891545    4.2891545   -524.19127    -4629.068    729.51273    2326.9815    610.40079     894.6571    1412.5421    78.906915 
   49600    103.51662   -117.36383  0.093664013   -117.27017    942.36993    4.2889041    4.2889041    4.2889041    942.36993   -1181.0002    4018.1281   -10.018096    191.68025   -821.83953    52.189799      78.8931 
   49700    98.761588   -117.35954   0.08936156   -117.27018    401.01958    4.2886855    4.2886855    4.2886855    401.01958      199.236     2300.851   -1297.0282    314.44872   -9.9662392   -817.70348    78.881032 
   49800    104.54616    -117.3647  0.094595559    -117.2701   -1121.5428    4.2899676    4.2899676    4.2899676   -1121.5428   -3656.3752    2152.5907    -1860.844   -653.05317   -1143.4581    667.18391    78.951801 
   49900    110.99938   -117.37039   0.10043457   -117.26995    -713.7197    4.2893261    4.2893261    4.2893261    -713.7197   -1610.1563    2147.5628   -2678.5656    791.93658    1467.7644     4.788898    78.916388 
   50000    114.22662   -117.37335   0.10335464   -117.26999   -294.08266    4.2881189    4.2881189    4.2881189   -294.08266   -1744.2836    1937.6678   -1075.6322   -9.3917989   -1200.8204    1691.0275    78.849775 
   50100     102.2155   -117.36272  0.092486732   -117.27023   -679.95155    4.2898475    4.2898475    4.2898475   -679.95155   -1526.8181    3520.0767   -4033.1132     681.6431   -992.89362    -1449.845    78.945169 
   50200    98.989856   -117.35984  0.089568102   -117.27027    -93.12477     4.289534     4.289534     4.289534    -93.12477    -2719.023    1276.4366     1163.212   -445.56996    440.88154     1347.475    78.927863 
   50300    105.95022   -117.36595  0.095865982   -117.27008    1309.8703    4.2879241    4.2879241    4.2879241    1309.8703     2329.607    4359.9348    -2759.931    708.86182    636.35432   -145.32316    78.839027 
   50400    98.688142   -117.35946  0.089295105   -117.27017    1050.5968    4.2890966    4.2890966    4.2890966    1050.5968   -430.88588   -121.26112    3703.9374    76.482573   -230.89963    1352.5113    78.903719 
   50500    108.82772   -117.36862  0.098469609   -117.27016   -1216.9214    4.2897818    4.2897818    4.2897818   -1216.9214    785.80209   -1655.7543   -2780.8121    357.85252   -1855.7245   -546.95882    78.941541 
   50600    94.536282   -117.35575  0.085538414   -117.27022    699.24255    4.2887858    4.2887858    4.2887858    699.24255   -130.83882    1394.5571    834.00933    137.91059    361.66735   -331.34349    78.886568 
   50700    104.00939   -117.36418  0.094109884   -117.27007    516.94225    4.2888135    4.2888135    4.2888135    516.94225   -1709.1698    3623.7261   -363.72949   -79.972055    629.39845    715.38739    78.888095 
   50800    99.895455   -117.36054  0.090387507   -117.27016   -902.22966    4.2891765    4.2891765    4.2891765   -902.22966    705.42658   -204.25018   -3207.8654    248.53375    551.48464   -150.13654    78.908129 
   50900    82.827126   -117.34526  0.074943725   -117.27032   -534.52886    4.2897421    4.2897421    4.2897421   -534.52886   -1930.7809    2266.1816   -1938.9872   -71.383384   -1906.7377    1783.6615     78.93935 
   51000    112.83662   -117.37218   0.10209695   -117.27008   -1428.2171    4.2893489    4.2893489    4.2893489   -1428.2171    -1108.515    594.24853   -3770.3848    890.49062    145.48541   -1044.7964    78.917644 
   51100    81.612029   -117.34415  0.073844279   -117.27031     934.1216    4.2881991    4.2881991    4.2881991     934.1216    1729.8641    1352.0255   -279.52475   -721.76539   -106.98296    1554.8856      78.8542 
   51200    110.15874    -117.3698  0.099673939   -117.27012   -2184.6263    4.2900567    4.2900567    4.2900567   -2184.6263   -3409.2763    1794.5399   -4939.1424    -39.59837   -16.940371   -1259.7496    78.956721 
   51300    78.275903   -117.34108  0.070825682   -117.27025    731.83654    4.2895365    4.2895365    4.2895365    731.83654    96.129391    785.91673    1313.4635   -736.95001   -138.22355    1485.8731    78.927999 
   51400    101.83317   -117.36211  0.092140789   -117.26997     568.5367    4.2878798    4.2878798    4.2878798     568.5367    3334.9432    1121.8091   -2751.1422    1323.1832     126.0927    343.37604    78.836588 
   51500    99.940024   -117.36046  0.090427834   -117.27003    184.30364    4.2891443    4.2891443    4.2891443    184.30364   -669.76598   -879.95583    2102.6327    658.85704    -17.20247     646.1987    78.906354 
   51600    80.083545    -117.3427  0.072461275   -117.27023    641.52803    4.2897256    4.2897256    4.2897256    641.52803    2864.0974    339.28447   -1278.7978   -750.02048   -799.73741    183.50094    78.938442 
   51700    107.80547   -117.36758  0.097544658   -117.27004   -855.57869    4.2886502    4.2886502    4.2886502   -855.57869    -397.4523    -526.9381   -1642.3457    -580.2833    495.86481   -1105.8609    78.879089 
   51800     73.78481   -117.33691  0.066762046   -117.27015    1520.2383    4.2886299    4.2886299    4.2886299    1520.2383   -144.35838    4837.9822   -132.90888   -487.01995   -262.22578    1750.4398    78.877967 
   51900    127.59434   -117.38533   0.11545004   -117.26988   -3078.1048    4.2898265    4.2898265    4.2898265   -3078.1048   -3204.4594   -1106.2706   -4923.5844    2017.1341    641.75851   -743.94018    78.944009 
   52000     65.65244   -117.32976  0.059403708   -117.27036    796.84124    4.2892667    4.2892667    4.2892667    796.84124    1445.1337      3080.17     -2134.78   -38.741228   -1994.5105     2052.646    78.913111 
   52100    112.88374   -117.37225   0.10213958   -117.27011   -1994.1043     4.289269     4.289269     4.289269   -1994.1043   -2604.5713    979.71767   -4357.4593   -311.05194    655.14579   -1242.1948    78.913234 
   52200    84.067258   -117.34632  0.076065821   -117.27026    746.09621    4.2884972    4.2884972    4.2884972    746.09621   -61.298114    2148.3652    151.22158   -1201.2969    249.75357    1472.0037    78.870643 
   52300    97.246773   -117.35815  0.087990924   -117.27016   -459.21235    4.2897635    4.2897635    4.2897635   -459.21235    249.15741    3004.3174   -4631.1119     333.0151   -748.52612   -9.0677196    78.940532 
   52400     111.4005   -117.37091   0.10079751   -117.27011   -1470.6253    4.2898838    4.2898838    4.2898838   -1470.6253   -3370.0923   -440.83261    -600.9511    900.38108   -525.45614     361.8437    78.947173 
   52500    78.476005   -117.34133  0.071006739   -117.27033    1923.3367    4.2878509    4.2878509    4.2878509    1923.3367    4822.3142    2216.4981   -1268.8022    81.592934   -171.82012    958.55733     78.83499 
   52600    133.19914   -117.39067   0.12052138   -117.27014    -1492.138    4.2893708    4.2893708    4.2893708    -1492.138   -3723.2598   -441.76286   -311.39132   -470.12538    1235.4126   -618.72248    78.918855 
   52700    64.594093   -117.32906  0.058446093   -117.27061    2584.1862    4.2897212    4.2897212    4.2897212    2584.1862     4807.504    3130.5127   -185.45803    -814.0686   -1050.6753    1352.8218    78.938194 
   52800    124.42891   -117.38276    0.1125859   -117.27018   -1705.5633    4.2885241    4.2885241    4.2885241   -1705.5633   -2156.5197   -514.59072   -2445.5794    410.00985   -123.13518   -1335.2831    78.872128 
   52900    78.437586   -117.34126  0.070971976   -117.27028    1621.0571    4.2884735    4.2884735    4.2884735    1621.0571   -1505.0213    6358.6971    9.4954738    106.26344   -511.41158    1849.2859    78.869339 
   53000    132.17368   -117.38949   0.11959352    -117.2699   -2482.8563    4.2901969    4.2901969    4.2901969   -2482.8563   -1809.2993   -273.43058    -5365.839    12.583613    1363.5582   -1016.8998    78.964463 
   53100    96.720082   -117.35773  0.087514363   -117.27021   -474.54763    4.2891292    4.2891292    4.2891292   -474.54763   -1625.4339    3351.9447   -3150.1537   -742.93646   -1088.6436     1410.042     78.90552 
   53200    92.126582   -117.35357  0.083358067   -117.27022    84.556478    4.2887231    4.2887231    4.2887231    84.556478   -549.69116    4305.5798   -3502.2192   -140.86867   -535.17425   -159.69904    78.883107 
   53300    113.49248   -117.37278   0.10269038   -117.27009   -682.13798    4.2891183    4.2891183    4.2891183   -682.13798   -3001.9444    1948.7181   -993.18767    447.16836    422.55137    744.33588    78.904918 
   53400    86.475338   -117.34845  0.078244703    -117.2702    1238.2812    4.2892302    4.2892302    4.2892302    1238.2812    4252.7862    3181.4773     -3719.42    433.09603   -657.90504    1033.4723    78.911096 
   53500    135.89646   -117.39306   0.12296197   -117.27009   -2292.0899    4.2896638    4.2896638    4.2896638   -2292.0899   -5251.6924   -127.80233   -1496.7751   -432.83361   -122.57663   -986.90637    78.935028 
   53600    78.279899   -117.34131  0.070829298   -117.27049    2340.7844    4.2881058    4.2881058    4.2881058    2340.7844    4078.3213     3319.484   -375.45199   -183.52499   -531.79896    1401.1823    78.849053 
   53700     130.8501   -117.38851   0.11839592   -117.27011   -1180.9189    4.2892781    4.2892781    4.2892781   -1180.9189   -212.78373    -972.9807   -2356.9921      -251.34    883.47021   -460.82436     78.91374 
   53800    80.361897   -117.34306  0.072713134   -117.27035     1782.905    4.2898945    4.2898945    4.2898945     1782.905    550.03155    4747.1078    51.575582     569.7974   -779.76772    1420.1156    78.947766 
   53900    119.61078   -117.37828   0.10822634   -117.27005     -684.764    4.2885027    4.2885027    4.2885027     -684.764    370.75084   -407.21969   -2017.8232   -203.21928   -553.64487   -1439.9113     78.87095 
   54000    86.582498   -117.34873  0.078341663   -117.27039    1096.8448    4.2883394    4.2883394    4.2883394    1096.8448   -1627.3646    5639.1935   -721.29459   -679.63978   -642.23936    1026.1787     78.86194 
   54100    122.88807   -117.38136   0.11119171   -117.27017   -2301.2309    4.2904608    4.2904608    4.2904608   -2301.2309   -1414.4762   -129.40736   -5359.8092   -115.48743    1472.6763    371.41414    78.979036 
   54200    103.76275   -117.36431  0.093886718   -117.27042   -547.24664    4.2890175    4.2890175    4.2890175   -547.24664   -1843.9353    3810.8115   -3608.6161   -439.65879   -630.20865     1071.786    78.899358 
   54300    89.949459    -117.3519  0.081388161   -117.27051    657.15289     4.288216     4.288216     4.288216    657.15289    865.17477    4515.6983   -3409.4144    587.18365   -1279.6056   -82.529533    78.855133 
   54400    107.96366    -117.3681   0.09768779   -117.27041   -1235.0293    4.2896724    4.2896724    4.2896724   -1235.0293   -200.87662   -443.53959   -3060.6715   -718.56092   -106.23509   -967.16329      78.9355 
   54500     86.06704   -117.34818  0.077875267   -117.27031    551.43587    4.2893141    4.2893141    4.2893141    551.43587    2164.5813    2182.5928   -2692.8665    147.93455   -119.68046    1574.6325    78.915722 
   54600    131.07366   -117.38857   0.11859821   -117.26997   -1509.7526    4.2890816    4.2890816    4.2890816   -1509.7526   -1498.9784   -772.05416   -2258.2253   -578.79198    389.18095    -397.2965    78.902891 
   54700    70.904415   -117.33451  0.064155805   -117.27035    2496.1091    4.2884588    4.2884588    4.2884588    2496.1091    3746.4774    3627.7916     114.0582    271.89784    -853.2908    1534.5933    78.868526 
   54800    126.22475   -117.38413   0.11421081   -117.26991   -2072.1896    4.2894193    4.2894193    4.2894193   -2072.1896   -353.97522   -1947.2046   -3915.3889    221.10359    682.14613    -1048.812    78.921529 
   54900    68.231042    -117.3321  0.061736881   -117.27036    2373.6677    4.2894648    4.2894648    4.2894648    2373.6677    1785.1087    5532.6252   -196.73074   -643.75225   -892.98881     917.9689    78.924046 
   55000    130.72339   -117.38836   0.11828127   -117.27008   -1388.4926    4.2888733    4.2888733    4.2888733   -1388.4926   -5.1810742   -2275.3856   -1884.9111   -248.89273   -113.07374   -726.93896    78.891398 
   55100    70.417627   -117.33434  0.063715348   -117.27062    1380.1654     4.288357     4.288357     4.288357    1380.1654    1180.7069    4966.8828   -2007.0935   -743.43101   -1122.8311    573.58741     78.86291 
   55200    111.14388   -117.37085   0.10056531   -117.27028   -2366.5949      4.29051      4.29051      4.29051   -2366.5949   -4290.0043    770.06951     -3579.85    1311.9053    707.58383    961.26111    78.981748 
   55300    99.694378   -117.36035  0.090205568   -117.27014    -158.2989     4.289154     4.289154     4.289154    -158.2989    928.09991     2869.613   -4272.6096   -86.418117   -29.021394    40.769992    78.906886 
   55400    81.963655   -117.34432  0.074162438   -117.27015     1096.134    4.2878914    4.2878914    4.2878914     1096.134    1479.5969    4920.5445   -3111.7393    -643.0369   -1658.3314     1026.243    78.837223 
   55500     120.3911     -117.379    0.1089324   -117.27007   -3146.5278    4.2901342    4.2901342    4.2901342   -3146.5278   -1700.1343   -1873.7545   -5865.6945   -1362.3819    537.67924   -1915.6035    78.961001 
   55600    60.499856   -117.32516  0.054741541   -117.27041    1669.7982    4.2893166    4.2893166    4.2893166    1669.7982    4719.7574    1960.5222   -1670.8849    494.24847   -691.72376    1887.9412    78.915865 
   55700    143.75419   -117.39996   0.13007181   -117.26989   -2397.5768    4.2887184    4.2887184    4.2887184   -2397.5768   -2529.4151   -1423.1805   -3240.1349    1201.3206    471.66071    -390.5536    78.882849 
   55800    50.160359   -117.31593  0.045386147   -117.27055    3543.8706    4.2885386    4.2885386    4.2885386    3543.8706    4536.0297     5659.936    435.64612   -16.968538   -1536.4923    969.48633     78.87293 
   55900    130.14862   -117.38789   0.11776121   -117.27013   -2871.3258    4.2896753    4.2896753    4.2896753   -2871.3258    -3550.846   -2510.0841   -2553.0473   -1444.0992    957.46007   -794.75853    78.935663 
   56000    70.476709   -117.33421  0.063768808   -117.27044    2360.6224     4.289016     4.289016     4.289016    2360.6224    3192.7009    5516.5942   -1627.4279   -1295.3456    298.78231    98.980033    78.899274 
   56100    119.22943   -117.37792   0.10788129   -117.27004   -419.49529    4.2888364    4.2888364    4.2888364   -419.49529   -1470.4212   -350.24121    562.17651    849.59022     -460.786    743.46991    78.889361 
   56200    97.319805    -117.3583  0.088057005   -117.27025   -293.05839    4.2886572    4.2886572    4.2886572   -293.05839   -1566.5714    4537.3585   -3849.9622    362.54947   -1206.2124   -497.86171    78.879476 
   56300    76.002425   -117.33915  0.068768591   -117.27039    563.68731    4.2899456    4.2899456    4.2899456    563.68731   -1351.5468    3273.6437   -231.03494   -248.31446   -996.11778    1005.0836    78.950583 
   56400    124.80424   -117.38291    0.1129255   -117.26998   -1906.6275    4.2895352    4.2895352    4.2895352   -1906.6275   -2585.6931    1303.4432   -4437.6327   -1204.9545    1370.5524   -1218.9983    78.927927 
   56500    67.031965     -117.331  0.060651931   -117.27034     2080.484    4.2877592    4.2877592    4.2877592     2080.484    1523.2286    5825.3787   -1107.1554    438.81008   -1512.0998    1686.0274    78.829936 
   56600    136.89688   -117.39399   0.12386717   -117.27012   -3944.6943    4.2903522    4.2903522    4.2903522   -3944.6943   -3664.5813   -2566.6483   -5602.8532    111.72456    302.26607   -1036.6175    78.973035 
   56700    62.533397   -117.32709  0.056581531   -117.27051    1459.6336    4.2895738    4.2895738    4.2895738    1459.6336    4780.4709    1961.7557   -2363.3258    575.56745   -730.67133    807.38443    78.930059 
   56800    130.40534   -117.38792    0.1179935   -117.26993   -1943.0516    4.2883275    4.2883275    4.2883275   -1943.0516   -4073.5588    26.555111    -1782.151   -809.70818    524.03086   -295.07441    78.861285 
   56900    80.415172   -117.34297  0.072761337   -117.27021     1677.515    4.2889673    4.2889673    4.2889673     1677.515    505.89814    5148.6367   -621.98992   -49.001267   -897.15039     -403.353    78.896586 
   57000    103.74536   -117.36403  0.093870983   -117.27016   -374.17031    4.2895836    4.2895836    4.2895836   -374.17031   -920.65025   -1943.8026    1741.9419    10.050494   -84.955628    538.48394    78.930598 
   57100    103.85734   -117.36423  0.093972303   -117.27025    12.640914    4.2888732    4.2888732    4.2888732    12.640914   -1424.5562    3853.1322   -2390.6533   -624.63633    866.05327    158.43869    78.891394 
   57200    94.402473   -117.35558  0.085417342   -117.27017    1512.9143    4.2886911    4.2886911    4.2886911    1512.9143   -1230.8119    2138.9071    3630.6475    353.13121   -177.53956    727.19753    78.881344 
   57300    124.86714   -117.38304   0.11298241   -117.27006   -987.05436    4.2888324    4.2888324    4.2888324   -987.05436   -1754.0333    2267.0182    -3474.148     -1093.68   -599.08092   -1461.4974    78.889142 
   57400    71.911318   -117.33548  0.065066872   -117.27041    1443.5847    4.2894697    4.2894697    4.2894697    1443.5847   -756.92529    4727.3335     360.3458    443.53093   -1642.8245    700.19434    78.924313 
   57500    121.85665    -117.3804   0.11025846   -117.27014   -1969.8587    4.2895705    4.2895705    4.2895705   -1969.8587   -3438.4756   -140.21012   -2330.8906   -867.66668    918.24525    134.59999     78.92988 
   57600    86.694219   -117.34884  0.078442752    -117.2704    1170.9931    4.2878465    4.2878465    4.2878465    1170.9931   -386.78365    4019.1829   -119.42003    623.19127   -576.85874    1794.8313    78.834751 
   57700    118.21436   -117.37715   0.10696283   -117.27018   -2079.0119    4.2901536    4.2901536    4.2901536   -2079.0119   -582.56835   -2374.0245   -3280.4428   -357.65787   -13.170626   -1520.6108    78.962071 
   57800    89.946928   -117.35168   0.08138587   -117.27029   -923.80387     4.290111     4.290111     4.290111   -923.80387     252.6776   -75.214053   -2948.8752   -91.945141   -641.64027   -986.24811    78.959717 
   57900    108.49984   -117.36817  0.098172936   -117.26999   -548.93825    4.2879304    4.2879304    4.2879304   -548.93825   -2243.9709   -185.27223     782.4284   -157.96515    636.48142    518.13483    78.839376 
   58000    99.515972   -117.36025  0.090044143    -117.2702     854.5198    4.2892123    4.2892123    4.2892123     854.5198    275.83756    2593.6099   -305.88808   -694.32971   -630.58676     1091.173    78.910109 
   58100    99.707434   -117.36054  0.090217381   -117.27032   -154.90233    4.2898715    4.2898715    4.2898715   -154.90233   -1787.3834   -2037.8689    3360.5453    786.61836     -96.7519    250.45284    78.946496 
   58200    101.47868   -117.36214  0.091820042   -117.27032   -56.135012     4.288389     4.288389     4.288389   -56.135012   -582.82215    1040.2658    -625.8487   -1208.0152    112.29698   -1126.7035    78.864675 
   58300    96.962664    -117.3579  0.087733856   -117.27016    1402.8717    4.2888962    4.2888962    4.2888962    1402.8717   -2308.4193    2233.2782    4283.7564    363.51192    -69.78815    371.16219    78.892659 
   58400    120.52462   -117.37906   0.10905321   -117.27001   -657.18544    4.2890851    4.2890851    4.2890851   -657.18544    1304.7722     -338.057   -2938.2715   -656.79674    12.766551   -93.300265    78.903086 
   58500    78.948439   -117.34181  0.071434207   -117.27038    712.63747    4.2890278    4.2890278    4.2890278    712.63747   -2534.3204    3750.6128    921.61998    498.07866   -1675.2304    1472.0042    78.899923 
   58600    116.56125   -117.37567   0.10546707    -117.2702   -1497.2538    4.2896535    4.2896535    4.2896535   -1497.2538   -974.55466   -2148.3664   -1368.8402    30.178776    787.43341   -833.05085    78.934462 
   58700    78.829287   -117.34167  0.071326395   -117.27034    1912.8744    4.2877973    4.2877973    4.2877973    1912.8744    1700.0932     2173.321    1865.2089   -480.66079   -1088.8788    1213.6785    78.832034 
   58800    125.52491   -117.38353   0.11357758   -117.26995    -2687.069    4.2898641    4.2898641    4.2898641    -2687.069   -2235.0414   -2630.1633   -3196.0022   -492.69337    492.29844    -707.9553    78.946086 
   58900    80.057201    -117.3428  0.072437438   -117.27036    -123.8602    4.2902463    4.2902463    4.2902463    -123.8602    2136.5971   -2054.6871   -453.49057     -487.714   -617.91939   -16.532845    78.967187 
   59000    113.52914   -117.37292   0.10272356    -117.2702   -753.35687     4.287864     4.287864     4.287864   -753.35687   -2143.7621   -1153.4649    1037.1564    765.71794    967.95449    196.69046    78.835712 
   59100    93.808981   -117.35528  0.084880337    -117.2704    677.25683    4.2892058    4.2892058    4.2892058    677.25683    1480.0349    318.77868     232.9569   -415.31108   -403.60287    503.44024     78.90975 
   59200    96.119126    -117.3573  0.086970605   -117.27033    -390.5099    4.2903605    4.2903605    4.2903605    -390.5099   -4478.2955     -1613.78    4920.5459   -249.78057   -486.44275    485.71354    78.973492 
   59300    107.06375   -117.36699  0.096873533   -117.27012   -325.78285    4.2880771    4.2880771    4.2880771   -325.78285    1765.1286   -2047.1129   -695.36422   -1657.0399    484.57813   -1317.5806    78.847469 
   59400    78.438108   -117.34117  0.070972448   -117.27019    2048.9814    4.2887596    4.2887596    4.2887596    2048.9814   -1667.2686    3212.5034    4601.7093    137.06706   -524.44299    1082.8809    78.885124 
   59500    139.15032   -117.39581   0.12590613   -117.26991   -2807.1495    4.2898675    4.2898675    4.2898675   -2807.1495   -1677.7497   -2720.0901   -4023.6088    571.83513    169.44693   -281.87906    78.946271 
   59600    63.966078   -117.32841  0.057877852   -117.27053    2184.3897    4.2883724    4.2883724    4.2883724    2184.3897    1187.8484    3065.4566    2299.8641    417.65154   -2004.6701     1387.519    78.863758 
   59700    125.64138   -117.38389   0.11368296    -117.2702   -1907.5867    4.2897046    4.2897046    4.2897046   -1907.5867   -3000.7723   -898.83794   -1823.1499   -891.03364     891.3948    -1339.171    78.937281 
   59800     64.42457   -117.32868  0.058292705   -117.27039    2472.2622     4.288116     4.288116     4.288116    2472.2622    2999.8398    948.43414    3468.5125   -652.22021   -243.14757    1093.3433    78.849617 
   59900    131.68214   -117.38904   0.11914877   -117.26989    -2439.358    4.2892325    4.2892325    4.2892325    -2439.358   -4381.7055   -937.46131   -1998.9073    421.62236   -58.887595    550.27376    78.911223 
   60000    87.827185   -117.34979  0.079467882   -117.27032    418.46848    4.2902601    4.2902601    4.2902601    418.46848    3434.0245   -3080.9203    902.30129    69.537746   -987.65276    93.143142    78.967952 
   60100    100.11487   -117.36087  0.090586035   -117.27028   -208.92872    4.2878335    4.2878335    4.2878335   -208.92872   -1991.4218    587.85647     776.7792    21.254621    537.43096   -726.58181    78.834032 
   60200    108.50178   -117.36839  0.098174695   -117.27022   -1071.6319    4.2890894    4.2890894    4.2890894   -1071.6319   -1916.4419   -2595.8533    1297.3995   -1434.5561    319.21483   -761.28222    78.903321 
   60300    78.557993   -117.34131  0.071080923   -117.27023    1119.6963    4.2906474    4.2906474    4.2906474    1119.6963   -2012.3593    1037.6774    4333.7707    552.15587   -535.10611    1641.4097    78.989339 
   60400    125.08309   -117.38306   0.11317781   -117.26989   -1795.6263    4.2882486    4.2882486    4.2882486   -1795.6263     -1404.67   -2440.8396   -1541.3693   -633.94711   -435.42251   -1002.3424     78.85693 
   60500    66.512765   -117.33046  0.060182147   -117.27027     1653.344    4.2886324    4.2886324    4.2886324     1653.344   -1281.4288    3586.7178    2654.7432   -347.33143   -33.062545    708.07662    78.878102 
   60600    138.42177   -117.39521   0.12524693   -117.26997   -3029.3483    4.2905747    4.2905747    4.2905747   -3029.3483   -4327.3031   -1060.8657   -3699.8759   -781.87721    498.18732   -1475.1932    78.985326 
   60700    78.598129   -117.34145  0.071117239   -117.27034    2213.7459    4.2880524    4.2880524    4.2880524    2213.7459    2965.1666    1981.6427    1694.4284   -314.20237   -1660.5632     1156.924    78.846109 
   60800    109.98786   -117.36967  0.099519327   -117.27015   -581.17376    4.2891886    4.2891886    4.2891886   -581.17376   -3962.0364    3108.9096   -890.39451    677.20932   -101.41656   -161.03449    78.908797 
   60900    78.796422   -117.34159  0.071296659   -117.27029    1220.5766     4.288921     4.288921     4.288921    1220.5766     136.5821   -1360.9603    4886.1079   -690.16956   -264.05806    742.81968     78.89403 
   61000    112.42603   -117.37181   0.10172544   -117.27009   -212.03323    4.2886062    4.2886062    4.2886062   -212.03323   -674.23462    2222.8447   -2184.7098    391.02197    1317.8885   -178.19571     78.87666 
   61100    111.37053   -117.37094    0.1007704   -117.27017   -603.41967    4.2901374    4.2901374    4.2901374   -603.41967   -968.02297    -3076.965    2234.7289   -950.45987   -868.12958   -745.59759    78.961178 
   61200    88.305902   -117.35015  0.079901036   -117.27025    148.94695    4.2882659    4.2882659    4.2882659    148.94695   -860.12006    1654.2225   -347.26163    625.56379     28.96831   -346.47006    78.857883 
   61300    106.76849    -117.3667  0.096606372   -117.27009   -1198.1872    4.2886061    4.2886061    4.2886061   -1198.1872   -2689.0131   -3046.9039    2141.3555   -877.24888   -535.28474   -946.16141    78.876652 
   61400     85.76734   -117.34774  0.077604092   -117.27013    546.52485    4.2907533    4.2907533    4.2907533    546.52485   -1420.5288    645.31249    2414.7909   -295.26265   -367.40278    1644.4382    78.995186 
   61500     112.6512   -117.37192   0.10192917   -117.26999      -1342.7     4.288369     4.288369     4.288369      -1342.7   -2659.3112   -550.70073   -818.08791    211.82187    60.227642   -2364.5865    78.863574 
   61600    91.409678   -117.35298  0.082709397   -117.27027   -312.97468    4.2884291    4.2884291    4.2884291   -312.97468   -2395.6026    225.54735    1231.1312   -682.48731   -488.80261    336.37511    78.866886 
   61700    106.31029   -117.36643  0.096191783   -117.27024    -949.5995     4.290862     4.290862     4.290862    -949.5995   -1095.0174     2032.997   -3786.7781    292.40847    803.27013   -1281.1451    79.001193 
   61800    105.17127   -117.36516  0.095161178      -117.27    447.93493    4.2883486    4.2883486    4.2883486    447.93493    -59.86975   -1041.4081    2445.0826   -1340.7778   -1903.7506    1621.6739    78.862446 
   61900    94.102186    -117.3552  0.085145635   -117.27005    1317.4489    4.2884242    4.2884242    4.2884242    1317.4489   -1252.6842    5056.0326    148.99824    401.82576   -293.59999   -783.81116    78.866619 
   62000    88.986487   -117.35072  0.080516843   -117.27021    929.05032    4.2896177    4.2896177    4.2896177    929.05032   -416.32251    -2489.787    5693.2605   -273.58734   -358.21571   -550.19134    78.932483 
   62100    106.19158   -117.36621  0.096084372   -117.27013    -54.17818    4.2884923    4.2884923    4.2884923    -54.17818    819.07933    1325.3313   -2306.9452    145.02263     991.9493   -285.47308    78.870374 
   62200    108.22519   -117.36805  0.097924425   -117.27012    -395.6139    4.2896171    4.2896171    4.2896171    -395.6139     -1289.29   -2761.0683    2863.5166   -637.04737   -180.79004   -712.47813    78.932452 
   62300    110.69282   -117.37015   0.10015719   -117.26999   -1149.6051    4.2891362    4.2891362    4.2891362   -1149.6051    -1493.937   -705.66023   -1249.2182   -672.46714   -729.66989    328.74424    78.905907 
   62400    73.009217   -117.33643  0.066060274   -117.27037    691.27029    4.2881444    4.2881444    4.2881444    691.27029    1901.1572   -1838.5824    2011.2361    126.45408     140.2796   -2827.8342    78.851182 
   62500    116.74254   -117.37578    0.1056311   -117.27015   -2578.6944    4.2907589    4.2907589    4.2907589   -2578.6944   -4709.8978    -3727.792    701.60669   -226.63921   -55.777241     1662.344    78.995499 
   62600    83.185596   -117.34561  0.075268075   -117.27034    819.96201    4.2886269    4.2886269    4.2886269    819.96201     764.2026    1488.1579    207.52549    91.784578   -30.550644   -2374.2213    78.877799 
   62700     119.7943   -117.37856    0.1083924   -117.27017    -1661.927    4.2881381    4.2881381    4.2881381    -1661.927   -1532.3822   -2857.8546   -595.54434   -1112.6101   -992.28816    176.31547    78.850836 
   62800    89.655074   -117.35145  0.081121795   -117.27033   -273.07076    4.2907031    4.2907031    4.2907031   -273.07076   -864.28815     2328.095   -2283.0191   -32.819803    243.00099   -1639.6845    78.992413 
   62900    100.05917   -117.36059  0.090535642   -117.27006    674.18656    4.2887425    4.2887425    4.2887425    674.18656    703.66347   -1651.5618     2970.458    576.42665    106.75345    801.05873    78.884182 
   63000    113.99472   -117.37307   0.10314481   -117.26993    1207.2894    4.2878855    4.2878855    4.2878855    1207.2894   -408.72883    3219.3594    811.23776    422.82488    -132.8613    83.540715    78.836899 
   63100    66.408552   -117.33044  0.060087853   -117.27035    2816.9919    4.2897148    4.2897148    4.2897148    2816.9919    2547.4727    -773.7584    6677.2613   -1029.9383   -618.73213   -1679.6711    78.937843 
   63200    134.32153   -117.39153   0.12153694   -117.26999   -2811.3133    4.2890745    4.2890745    4.2890745   -2811.3133   -2769.2149   -2136.6132    -3528.112   -783.14426   -392.43086    44.393962    78.902502 
   63300    71.777353   -117.33531  0.064945657   -117.27036    2378.0376    4.2886424    4.2886424    4.2886424    2378.0376     2717.742   -78.769343    4495.1401   -146.97435   -213.53238   -2139.7501    78.878659 
   63400    142.25802   -117.39861   0.12871805   -117.26989   -3072.2558    4.2899434    4.2899434    4.2899434   -3072.2558    -3746.407   -2660.9573   -2809.4031    743.56155    603.99752    1334.6067    78.950463 
   63500    52.061819   -117.31766  0.047106628   -117.27056    1240.4187    4.2880931    4.2880931    4.2880931    1240.4187    1474.4917    -379.5209    2626.2852   -350.13235   -392.57519    -3714.277    78.848351 
   63600    121.29125   -117.38001   0.10974687   -117.27026   -3656.4371    4.2903757    4.2903757    4.2903757   -3656.4371   -3759.2587   -5688.4329   -1521.6198   -1378.1983   -62.428278    1028.6005    78.974336 
   63700    95.572945   -117.35666  0.086476409   -117.27019    143.36651    4.2893672    4.2893672    4.2893672    143.36651   -687.55187    1651.3007   -533.64928    -111.1394    -992.3258   -1773.2381    78.918656 
   63800    100.35343   -117.36085  0.090801893   -117.27005   -50.645109    4.2876853    4.2876853    4.2876853   -50.645109    1193.6488   -1396.2214    50.637266   -459.72545   -214.86548   -1011.8158    78.825856 
   63900    113.79437   -117.37307   0.10296354    -117.2701   -2023.7942    4.2903377    4.2903377    4.2903377   -2023.7942   -5096.5968    1071.8322    -2046.618    440.76877    902.88409   -948.43062    78.972238 
   64000    64.356044   -117.32868  0.058230701   -117.27045    3589.2983    4.2889919    4.2889919    4.2889919    3589.2983    4370.7997    1958.8397    4438.2553   -893.26951   -500.95242   -464.08731    78.897941 
   64100    144.90184   -117.40118   0.13111023   -117.27007   -292.17553    4.2876649    4.2876649    4.2876649   -292.17553   -2816.2691    1327.4592    612.28334    529.72433   -29.551564    1453.2744    78.824731 
   64200     57.13575   -117.32232  0.051697628   -117.27062    3594.7519     4.289392     4.289392     4.289392    3594.7519    1234.6883    2109.1172    7440.4502   -130.11234   -814.63949    -2699.711    78.920026 
   64300    137.51747   -117.39453    0.1244287    -117.2701    -3134.851    4.2897495    4.2897495    4.2897495    -3134.851   -2631.6253   -2175.6089   -4597.3188   -101.18533    1272.5065   -122.91357     78.93976 
   64400    71.139736   -117.33478  0.064368728   -117.27041    2458.4782    4.2881428    4.2881428    4.2881428    2458.4782    1034.1927    2446.8393    3894.4027   -242.31608   -124.93762   -2615.4868    78.851091 
   64500    125.17653   -117.38321   0.11326236   -117.26995   -2161.0011    4.2899099    4.2899099    4.2899099   -2161.0011   -3833.4014   -931.84931   -1717.7525   -764.00607   -461.75209    1942.1092    78.948613 
   64600    85.084222   -117.34721  0.076985992   -117.27022   -1234.6868    4.2888543    4.2888543    4.2888543   -1234.6868   -3228.6023    13.782279   -489.24034    771.56683     -747.775   -2992.1263    78.890351 
   64700    91.350739   -117.35288  0.082656068   -117.27023   -1611.3448      4.28946      4.28946      4.28946   -1611.3448      487.511   -3816.7551   -1504.7904   -1478.2077   0.40305996   -1382.8221    78.923776 
   64800    125.03552   -117.38331   0.11313476   -117.27017   -2442.9453    4.2901629    4.2901629    4.2901629   -2442.9453   -5900.6826    795.42603   -2223.5793    389.47168    911.37437   -627.13903    78.962582 
   64900     82.26597   -117.34474  0.074435978   -117.27031    1532.6241    4.2876525    4.2876525    4.2876525    1532.6241     942.6127      2758.13    897.12949   -731.52152   -816.60301   -1211.2179    78.824046 
   65000    117.85423   -117.37703   0.10663698   -117.27039   -1174.6337    4.2895006    4.2895006    4.2895006   -1174.6337   -3897.6851    1634.0266   -1260.2426    53.309397   -21.268076    259.23696    78.926018 
   65100    70.198068   -117.33423  0.063516687   -117.27072    3009.9689    4.2896065    4.2896065    4.2896065    3009.9689    1404.4892    3995.9258    3629.4918   -459.93874   -513.09188   -2080.9729    78.931865 
   65200    134.39218   -117.39172   0.12160087   -117.27012    72.869666    4.2876846    4.2876846    4.2876846    72.869666   -2441.6018    1166.6269     1493.584   -667.38444   -41.180634    1232.2572    78.825817 
   65300    87.876863   -117.34975  0.079512832   -117.27024    2254.2746    4.2889171    4.2889171    4.2889171    2254.2746   -1721.5148    3373.4125    5110.9262    638.34199    69.508822   -1977.9421    78.893817 
   65400    110.31706   -117.36987  0.099817198   -117.27006   -1002.8953    4.2901296    4.2901296    4.2901296   -1002.8953    161.41684   -188.17176   -2981.9311   -438.94773    86.794779    417.90225    78.960747 
   65500    83.013011   -117.34541  0.075111917    -117.2703      591.425    4.2882487    4.2882487    4.2882487      591.425   -2968.3391    2826.9895    1915.6246    243.80641    228.09724   -2715.5229    78.856933 
   65600    110.34824   -117.36999  0.099845408   -117.27015   -1411.2462    4.2894619    4.2894619    4.2894619   -1411.2462   -3208.4181   -175.12971   -850.19073   -1206.6562   -18.949223    545.82268     78.92388 
   65700    102.94033   -117.36343  0.093142572   -117.27029   -1895.0111    4.2894948    4.2894948    4.2894948   -1895.0111   -3191.4765   -205.01118   -2288.5457    40.475357   -698.82026   -1592.2598    78.925698 
   65800    92.857398   -117.35436  0.084019325   -117.27034   -2050.4931     4.289096     4.289096     4.289096   -2050.4931   -188.39212   -3386.8414   -2576.2457   -313.97352    494.92493   -1972.3325    78.903688 
   65900    107.65034   -117.36775  0.097404286   -117.27034   -1954.3837    4.2899379    4.2899379    4.2899379   -1954.3837    -5378.008     1025.064   -1510.2071   -40.548791    108.43805    111.20052     78.95016 
   66000    90.219593   -117.35191  0.081632583   -117.27028      1568.16    4.2882043    4.2882043    4.2882043      1568.16   -417.10573    4837.6851    283.90056   -142.97843    3.6279714   -1832.7371    78.854483 
   66100     107.1319   -117.36706   0.09693519   -117.27012    345.95419    4.2887513    4.2887513    4.2887513    345.95419   -180.85051    1484.1285   -265.41545   -625.40006     -345.573    545.45615    78.884666 
   66200    81.536658   -117.34403  0.073776082   -117.27026    1165.4692    4.2900827    4.2900827    4.2900827    1165.4692   -1915.5818     2798.473    2613.5164   -81.201247   -9.4351987   -1952.0336    78.958155 
   66300    122.95076   -117.38107   0.11124843   -117.26982    127.35365    4.2882087    4.2882087    4.2882087    127.35365   -335.21503   -30.067926     747.3439    212.03684    839.06039    1264.4054    78.854728 
   66400    89.506601   -117.35116  0.080987454   -117.27017    2729.5512    4.2882068    4.2882068    4.2882068    2729.5512   -722.27499    4068.9088    4842.0197   -71.777098   -1053.9273   -1759.7889    78.854623 
   66500    105.26188   -117.36548  0.095243157   -117.27024   -1036.2803    4.2903324    4.2903324    4.2903324   -1036.2803   -1211.2853   -70.816649    -1826.739   -1049.8189    170.89836   -238.59067    78.971944 
   66600    71.349457     -117.335  0.064558488   -117.27044    275.62109    4.2885596    4.2885596    4.2885596    275.62109   -2107.2586    2597.9388    336.18305   -646.29597   -1053.1804   -1869.5823    78.874086 
   66700    113.89929   -117.37324   0.10305847   -117.27018   -1812.5608    4.2890329    4.2890329    4.2890329   -1812.5608   -2819.1068   -2153.5458   -465.02971   -308.94253    1247.8804    111.78417    78.900206 
   66800    103.26575   -117.36369   0.09343702   -117.27025   -1643.5494    4.2897996    4.2897996    4.2897996   -1643.5494   -2026.7104   -611.13309   -2292.8048    835.19352   -119.44788   -207.08712    78.942522 
   66900     94.23137   -117.35551  0.085262524   -117.27025   -2415.3041    4.2891322    4.2891322    4.2891322   -2415.3041   -2012.0075   -2123.9653   -3109.9394   -1197.6054   -647.13428   -3031.7371    78.905686 
   67000    93.781552   -117.35511  0.084855519   -117.27026   -1007.7313    4.2895071    4.2895071    4.2895071   -1007.7313   -2683.5845    1396.2867    -1735.896   -974.48131    343.79634    324.09099    78.926377 
   67100    86.375632   -117.34835  0.078154487    -117.2702    2083.3536    4.2885167    4.2885167    4.2885167    2083.3536   -601.93604    5908.0225    943.97452   -478.40283   -1078.5376   -1215.5143    78.871719 
   67200    118.68785   -117.37742   0.10739126   -117.27003   -338.88846    4.2885331    4.2885331    4.2885331   -338.88846   -571.20488    -142.4234   -303.03711    506.29488    1306.2482    1257.4995    78.872628 
   67300    79.577055   -117.34232  0.072002992   -117.27032    1316.5195    4.2898594    4.2898594    4.2898594    1316.5195   -1151.7606    3102.7827    1998.5364    40.532975   -679.03535   -2012.8719    78.945825 
   67400    124.45747   -117.38259   0.11261174   -117.26998   -269.49765    4.2887588    4.2887588    4.2887588   -269.49765   -429.35512   -958.87273     579.7349   -979.64621    682.31829    522.46302    78.885078 
   67500    78.452596   -117.34128  0.070985557   -117.27029    3334.7272    4.2878106    4.2878106    4.2878106    3334.7272   -197.38279    6040.3812    4161.1832    508.95631   -614.91883   -812.46842    78.832771 
   67600    118.73181   -117.37755   0.10743104   -117.27012   -1759.4744    4.2903295    4.2903295    4.2903295   -1759.4744   -3595.0336    -209.8631   -1473.5265   -314.19879   -79.565189   -365.14057    78.971785 
   67700    74.556205   -117.33781  0.067460021   -117.27035    274.26082    4.2890784    4.2890784    4.2890784    274.26082   -233.51008    1802.0778   -745.78526    301.76651    482.15004   -1397.7542    78.902714 
   67800    117.37308   -117.37625   0.10620163   -117.27005   -2102.9521    4.2887007    4.2887007    4.2887007   -2102.9521     -2827.86   -2810.7667   -670.22975   -1778.3451    -703.1953   -1047.1094    78.881872 
   67900    110.04725   -117.36968  0.099573068   -117.27011   -1659.5374    4.2897969    4.2897969    4.2897969   -1659.5374   -3833.2983    848.27908   -1993.5931    33.177093    322.47734    1171.7659    78.942376 
   68000    93.463537    -117.3548  0.084567773   -117.27023    -1063.167    4.2891669    4.2891669    4.2891669    -1063.167   -1577.6204    1454.4752   -3066.3556    565.40454   -1290.1308   -2970.8363    78.907601 
   68100    104.93503   -117.36516  0.094947418   -117.27021   -973.16981     4.289219     4.289219     4.289219   -973.16981   -2829.6968    1820.1784    -1909.991   -470.38999    1020.8997   -166.07926    78.910475 
   68200    80.891945   -117.34345  0.073192732   -117.27025    2268.2863    4.2887048    4.2887048    4.2887048    2268.2863   -1962.7381    7553.8484    1213.7487   -417.41834   -66.918981   -814.21839      78.8821 
   68300    145.79634   -117.40177    0.1319196   -117.26985   -1714.1646    4.2887449    4.2887449    4.2887449   -1714.1646   -2588.0893   -1055.9248   -1498.4797   -1137.1607   -279.75331     1848.974    78.884312 
   68400    75.732681   -117.33889  0.068524521   -117.27037    2741.4505      4.28947      4.28947      4.28947    2741.4505   -130.64897    5539.8208    2815.1796    444.05488   -372.21576   -1191.9271    78.924329 
   68500    130.17602   -117.38783     0.117786   -117.27004   -895.01819    4.2891137    4.2891137    4.2891137   -895.01819   -1855.7422   -296.72091   -532.59143   -204.90095   -241.34852   -1200.2889    78.904663 
   68600    70.179062    -117.3339   0.06349949    -117.2704    3425.1857    4.2876456    4.2876456    4.2876456    3425.1857   -1537.9576    7734.1569    4079.3577   -53.587605    425.17795   -63.460883    78.823667 
   68700    132.23885   -117.38972   0.11965249   -117.27007   -1828.9496     4.290162     4.290162     4.290162   -1828.9496   -3789.9628   -267.13005   -1429.7559   -333.83015   -149.59695    673.58632    78.962532 
   68800    89.756086   -117.35157  0.081213193   -117.27036   -248.41308    4.2894611    4.2894611    4.2894611   -248.41308    -1522.526    1365.8636   -588.57684   -260.37435   -104.85786   -422.54879    78.923841 
   68900    104.34459   -117.36464  0.094413182   -117.27023   -1836.9708    4.2885755    4.2885755    4.2885755   -1836.9708   -3360.6577   -1617.9874   -532.26727   -569.49901   -364.04775   -2804.6871    78.874965 
   69000    119.92791   -117.37867   0.10851329   -117.27016   -2183.0144    4.2897675    4.2897675    4.2897675   -2183.0144   -5799.8674    2022.8286   -2772.0045   -535.16804    330.66645    412.50605     78.94075 
   69100     75.26004   -117.33846  0.068096866   -117.27037     1550.727    4.2890844    4.2890844    4.2890844     1550.727    -390.0458    5246.3089   -204.08222    131.66018   -853.84823   -676.31462    78.903048 
   69200    125.91992   -117.38404   0.11393499    -117.2701   -2373.8905    4.2891874    4.2891874    4.2891874   -2373.8905     -4109.06    978.12723   -3990.7387    52.467888    396.57684    886.68419    78.908734 
   69300    59.418292    -117.3242  0.053762919   -117.27044    2737.9345     4.288629     4.288629     4.288629    2737.9345   -3012.8045     7915.409    3311.1991   -254.72765   -361.26013   -1161.7125    78.877918 
   69400    153.25772   -117.40855    0.1386708   -117.26988   -2361.0103    4.2888723    4.2888723    4.2888723   -2361.0103   -1709.7902    -2509.953   -2863.2875   -125.50074    373.34738   -71.786045    78.891343 
   69500    68.431437   -117.33231  0.061918202   -117.27039     3264.881    4.2891516    4.2891516    4.2891516     3264.881   -1119.5097    6754.1252    4160.0274    78.383737   -289.53085   -343.04919    78.906757 
   69600    113.66991   -117.37298   0.10285092   -117.27013   -1062.9703    4.2891979    4.2891979    4.2891979   -1062.9703   -1905.2588    -395.1614   -888.49057   -57.448558   -154.77232   -150.22523    78.909312 
   69700    71.212661   -117.33475  0.064434712   -117.27032    2071.3712    4.2877502    4.2877502    4.2877502    2071.3712   -1713.3838    5405.1943    2522.3031    76.440237    318.50225    61.767397    78.829435 
   69800    107.17028   -117.36698  0.096969924   -117.27001   -392.51311    4.2898252    4.2898252    4.2898252   -392.51311   -1455.2782   -1446.7897    1724.5285   -650.16331   -1044.3144   -280.07722    78.943941 
   69900    114.52916    -117.3737   0.10362839   -117.27007   -2423.3993    4.2898282    4.2898282    4.2898282   -2423.3993   -3373.2238   -452.93991   -3444.0342    249.99466    736.10123   -789.99954    78.944105 
   70000     67.62074   -117.33158  0.061184666   -117.27039    105.63335    4.2881694    4.2881694    4.2881694    105.63335   -1973.5382   -612.74877     2903.187   -537.84806   -1195.1077   -2176.1139    78.852561 
   70100     119.7629   -117.37858   0.10836399   -117.27021   -2576.7058    4.2897465    4.2897465    4.2897465   -2576.7058   -4332.0328    1357.5434   -4755.6282    -35.14348    1366.6641    900.49443    78.939596 
   70200    59.759186   -117.32455  0.054071367   -117.27048     2325.761    4.2891481    4.2891481    4.2891481     2325.761   -1459.9325    5963.9231    2473.2923    -102.8126   -986.49042    12.228514    78.906563 
   70300    126.35633   -117.38447   0.11432987   -117.27014   -2779.3104    4.2891761    4.2891761    4.2891761   -2779.3104   -2394.7282   -1452.5885   -4490.6144   -502.71482   -349.16726    171.12801    78.908107 
   70400    64.493382    -117.3288  0.058354967   -117.27045      1732.84    4.2888496    4.2888496    4.2888496      1732.84   -3324.9562    5410.6893    3112.7869   -1.7850231    268.28724   -1390.3067    78.890089 
   70500    120.80299   -117.37929   0.10930508   -117.26998   -1137.0026    4.2888876    4.2888876    4.2888876   -1137.0026    1012.7064   -3259.5979   -1164.1162   -429.60027   -843.18094    83.399525    78.892187 
   70600    89.647086   -117.35128  0.081114567   -117.27017    947.00146    4.2892673    4.2892673    4.2892673    947.00146   -3118.8373    4802.8778    1156.9639    346.86404    1134.2724    514.87637     78.91314 
   70700    89.254178   -117.35096  0.080759056    -117.2702    537.81478    4.2891095    4.2891095    4.2891095    537.81478   -374.43708   -579.49732    2567.3788   -565.83618   -1484.9306   -113.51358    78.904434 
   70800    90.776949   -117.35237  0.082136891   -117.27023    359.91882    4.2880059    4.2880059    4.2880059    359.91882     107.1564    2623.1122   -1650.5121     3.572261    1241.4619     -1210.06    78.843543 
   70900    92.277077   -117.35368  0.083494239   -117.27019   -72.543732    4.2896585    4.2896585    4.2896585   -72.543732    -1795.867   -2955.4682     4533.704    343.62038   -1012.5762   -679.33998    78.934738 
   71000    126.42002   -117.38448   0.11438749   -117.27009     -2551.56    4.2899645    4.2899645    4.2899645     -2551.56   -1966.0879    -580.8055   -5107.7865   -15.856676    498.68774   -36.986599    78.951631 
   71100    80.100124   -117.34288  0.072476275    -117.2704     980.0691    4.2879986    4.2879986    4.2879986     980.0691   -1734.9128    864.19989    3810.9202   -593.54278   -529.79003   -1382.4378    78.843138 
   71200    103.16234   -117.36358  0.093343453   -117.27024   -987.82019    4.2894862    4.2894862    4.2894862   -987.82019   -1168.6612    2065.4287    -3860.228   -964.56681     -553.833    383.90537    78.925223 
   71300    91.692803   -117.35318  0.082965575   -117.27022    198.51288    4.2895113    4.2895113    4.2895113    198.51288   -4852.5757    4823.9949    624.11943    879.30346    841.20908   -262.39237    78.926608 
   71400    118.11141   -117.37692   0.10686969   -117.27005   -522.50866    4.2887904    4.2887904    4.2887904   -522.50866     1085.925   -1100.4689   -1552.9821    1134.0717   -1249.2691   -106.54681    78.886824 
   71500    101.66351   -117.36223  0.091987281   -117.27024    242.22943    4.2891679    4.2891679    4.2891679    242.22943    -3208.549    3937.5004   -2.2630907   -844.27797    1254.4298   -1074.4661    78.907656 
   71600    104.05359    -117.3643  0.094149878   -117.27015    -479.0435    4.2889582    4.2889582    4.2889582    -479.0435   -35.990247   -2378.6132    977.47292    -1398.225    -1390.102    205.19919    78.896083 
   71700    107.25599   -117.36724  0.097047476   -117.27019    214.16787    4.2892754    4.2892754    4.2892754    214.16787   -1772.1613    4322.7977   -1908.1328   -326.35199    490.03859    676.24237    78.913588 
   71800    108.35883   -117.36825  0.098045346    -117.2702    933.91376    4.2892558    4.2892558    4.2892558    933.91376   -1813.2588     380.0861     4234.914    1344.5661   -763.13721   -227.14209    78.912506 
   71900    95.995726   -117.35712   0.08685895   -117.27026     554.9484     4.287986     4.287986     4.287986     554.9484     2504.888    2786.6133   -3626.6561    198.21017    448.19106   -2524.3492    78.842446 
   72000     114.5036    -117.3737   0.10360527    -117.2701   -1564.8577     4.289598     4.289598     4.289598   -1564.8577   -5150.9908    -3240.315    3696.7329   -1469.6664    -177.8568   -743.74196    78.931398 
   72100    114.91461   -117.37404   0.10397715   -117.27007   -46.213618    4.2898225    4.2898225    4.2898225   -46.213618     1389.952    1704.1995   -3232.7924   -359.58983   -390.97095    1099.8755    78.943787 
   72200    110.27217   -117.36989   0.09977658   -117.27011      557.605    4.2879025    4.2879025    4.2879025      557.605   -2969.0004    2758.6558    1883.1595    264.98346    175.51629   -524.76608    78.837837 
   72300    92.003718    -117.3535  0.083246898   -117.27026   -47.281967    4.2892526    4.2892526    4.2892526   -47.281967   -1457.8867    3070.8601   -1754.8193    439.38185   -824.84522   -1176.3273    78.912328 
   72400    104.00524   -117.36435  0.094106129   -117.27024    -465.7302    4.2898544    4.2898544    4.2898544    -465.7302   -4824.4049    4097.5401    -670.3258   -1242.9499    792.13062   -1356.7062    78.945549 
   72500    121.89229   -117.38037   0.11029071   -117.27008   -31.991143     4.288535     4.288535     4.288535   -31.991143    54.213488   -645.94534    495.75842   -225.44433   -1625.7268    1293.8923    78.872732 
   72600    102.56377   -117.36299  0.092801853   -117.27019     150.8548    4.2891782    4.2891782    4.2891782     150.8548   -2100.5078    3569.6768   -1016.6046    585.45246    1027.8878    -60.36218    78.908222 
   72700    104.82433   -117.36496  0.094847256   -117.27011   -1266.5075    4.2892521    4.2892521    4.2892521   -1266.5075   -4136.8654   -1975.6417    2312.9846    151.00104   -675.27033   -452.01133    78.912304 
   72800    85.091762   -117.34718  0.076992814   -117.27019    1305.3919    4.2889284    4.2889284    4.2889284    1305.3919    2820.8278    4064.0889   -2968.7409   -328.43833    888.42684   -1822.6159    78.894439 
   72900    117.02064   -117.37584   0.10588273   -117.26996   -432.45673    4.2896728    4.2896728    4.2896728   -432.45673    -5852.955    70.338677    4485.2461   -922.56167   -835.60905     486.7286    78.935527 
   73000     86.42066   -117.34837   0.07819523   -117.27018    232.65984    4.2882572    4.2882572    4.2882572    232.65984    2207.7772    2059.9993    -3569.797    324.64404   -382.57809   -974.93643    78.857405 
   73100    103.64854   -117.36398  0.093783379    -117.2702   -1725.4528    4.2893352    4.2893352    4.2893352   -1725.4528   -4168.0654   -3266.1415    2257.8485    41.874421    34.628778   -1192.5115    78.916891 
   73200    99.637911   -117.36033  0.090154476   -117.27018   -301.69389    4.2901608    4.2901608    4.2901608   -301.69389    120.20224    715.11157   -1740.3955    221.46979   -712.96674   -217.94732    78.962467 
   73300    95.228539   -117.35627  0.086164784    -117.2701    589.28663    4.2878341    4.2878341    4.2878341    589.28663   -2148.4613    2863.9862    1052.3351   -255.50112    1343.1716   -1371.1878    78.834065 
   73400    89.908131   -117.35151  0.081350767   -117.27016    -314.8857    4.2888418    4.2888418    4.2888418    -314.8857   -3168.5088    2010.5398    213.31192   -578.71198   -1630.7186    478.96162     78.88966 
   73500    74.825125   -117.33801  0.067703346   -117.27031    403.18193    4.2901403    4.2901403    4.2901403    403.18193   -593.75495    2141.9756   -338.67481   -465.44942    1289.5556   -1121.6978    78.961338 
   73600    117.16923   -117.37596   0.10601718   -117.26995   -1433.8098    4.2885295    4.2885295    4.2885295   -1433.8098    -3488.997   -2686.0666    1873.6344   -72.754845   -2040.2047    941.58841    78.872427 
   73700    86.717947   -117.34853  0.078464221   -117.27006    720.78299    4.2888274    4.2888274    4.2888274    720.78299    95.581779    2306.4839   -239.71666    410.16955    544.26386   -1474.5731    78.888863 
   73800    94.816644   -117.35595  0.085792092   -117.27016   -965.63671    4.2896033    4.2896033    4.2896033   -965.63671   -3940.7298    -2922.616    3966.4357   -280.55393   -163.07772   -210.92702    78.931686 
   73900    73.066792   -117.33652  0.066112369   -117.27041    449.76416    4.2886162    4.2886162    4.2886162    449.76416    3630.4279    1042.7541   -3323.8895   -1016.3652   -48.114313   -1403.0956    78.877208 
   74000    97.605737   -117.35857  0.088315722   -117.27025   -414.67478    4.2895071    4.2895071    4.2895071   -414.67478   -4936.2158   -871.94685    4564.1383   -174.23858     249.0157    316.17809    78.926377 
   74100    100.03464   -117.36063  0.090513449   -117.27012   -621.77117    4.2887883    4.2887883    4.2887883   -621.77117    407.42665   -194.51458   -2078.2256    236.66803   -1325.7215   -892.28631    78.886706 
   74200    79.028682   -117.34167  0.071506813   -117.27016   -546.98472    4.2887981    4.2887981    4.2887981   -546.98472    1198.0995   -3768.8356      929.782    386.30944    1443.1147   -2749.9391    78.887246 
   74300    107.45969    -117.3672   0.09723179   -117.26997   -2411.7495    4.2905831    4.2905831    4.2905831   -2411.7495   -3728.3831   -2597.9222   -908.94322   -198.74058   -1047.5065    516.20624    78.985789 
   74400    82.988759    -117.3451  0.075089973   -117.27001    1565.0223    4.2881283    4.2881283    4.2881283    1565.0223    816.84351    2193.8486    1684.3748   -910.13056    962.83774   -1251.6322    78.850291 
   74500    108.72429   -117.36843  0.098376025   -117.27005   -316.93176    4.2883331    4.2883331    4.2883331   -316.93176   -1446.5441    142.22622    353.52263     226.3322   -1657.0332    845.13832    78.861592 
   74600    72.777849   -117.33625  0.065850927    -117.2704    513.01396    4.2903488    4.2903488    4.2903488    513.01396   -60.881525    339.98739     1259.936   -213.12207    744.87573   -2180.2983    78.972848 
   74700    114.84512    -117.3739   0.10391428   -117.26998   -831.75564     4.288585     4.288585     4.288585   -831.75564   -2030.7675   -3429.5143    2965.0149    793.12801    375.85309    354.00156    78.875487 
   74800    107.84597   -117.36756  0.097581303   -117.26998    1450.7685    4.2881036    4.2881036    4.2881036    1450.7685    1717.6392    720.68444     1913.982   -261.42847   -178.10181   -963.98354     78.84893 
   74900    98.494374   -117.35932  0.089119779    -117.2702    104.84023    4.2900109    4.2900109    4.2900109    104.84023   -717.19298   -3403.2496    4434.9632   -809.92366   -362.19579   -5.7818234    78.954189 
   75000    100.81948   -117.36153  0.091223588   -117.27031   -1248.4263     4.288866     4.288866     4.288866   -1248.4263    1423.8987   -1960.5401   -3208.6375     -895.266   -1234.5125    -1124.081    78.890992 
   75100    90.108101   -117.35183  0.081531704    -117.2703     1209.913     4.288888     4.288888     4.288888     1209.913   -308.82269   -147.85567    4086.4174     110.4557    592.79806   -1418.8845    78.892211 
   75200    135.38176   -117.39244   0.12249626   -117.26995    -1571.219    4.2895062    4.2895062    4.2895062    -1571.219   -965.72885   -1944.2842   -1803.6439    1267.8701    361.21001   -166.22868    78.926328 
   75300    79.026997   -117.34192  0.071505287   -117.27042    285.25251     4.288481     4.288481     4.288481    285.25251    1555.3474   -3054.6584    2355.0685   -774.56213    509.89404   -3300.5928     78.86975 
   75400    129.68937   -117.38762   0.11734567   -117.27028   -3167.0779    4.2903188    4.2903188    4.2903188   -3167.0779   -2301.9376   -4540.7627   -2658.5334   -794.91806   -970.70365    1067.6784    78.971193 
   75500    93.369959   -117.35493  0.084483101   -117.27045     1985.041    4.2887945    4.2887945    4.2887945     1985.041    566.89017     606.7852    4781.4477     -748.329    182.62311   -1370.9548     78.88705 
   75600    130.56709   -117.38822   0.11813985   -117.27008   -413.09632    4.2880742    4.2880742    4.2880742   -413.09632    670.82582   -960.82118   -949.29361    1298.5786   -268.26253    172.51808    78.847312 
   75700    90.045404   -117.35183  0.081474974   -117.27035    705.99652    4.2902155    4.2902155    4.2902155    705.99652   -2007.2606   -734.35198    4859.6021   -27.423193    1027.6569   -2365.5734     78.96549 
   75800     105.5791   -117.36566  0.095530189   -117.27012    1098.6189    4.2889098    4.2889098    4.2889098    1098.6189    570.20496   -1533.6493    4259.3011   -1207.8289   -910.87828   -258.07983    78.893409 
   75900    123.17369   -117.38151   0.11145014   -117.27006    1286.2477    4.2876848    4.2876848    4.2876848    1286.2477    1308.9582   -1252.7212    3802.5061   -81.487986    489.34128    160.73705    78.825828 
   76000    105.24457   -117.36545  0.095227499   -117.27022    412.44419    4.2899674    4.2899674    4.2899674    412.44419   -2363.8959    -1715.927    5317.1555    677.71884    420.55614   -1074.7616    78.951787 
   76100    118.09101   -117.37712   0.10685123   -117.27026   -2012.1243    4.2893174    4.2893174    4.2893174   -2012.1243    2549.4791   -4614.1674   -3971.6845    796.82029    809.99744   -642.99875    78.915905 
   76200    81.877182   -117.34451  0.074084195   -117.27042    1206.5208    4.2883107    4.2883107    4.2883107    1206.5208    -103.9157   -680.50789    4403.9859   -1491.7095   -139.57247   -2743.6867    78.860354 
   76300    131.78348   -117.38921   0.11924046   -117.26997   -2178.0056    4.2898878    4.2898878    4.2898878   -2178.0056   -2438.8439   -2321.5308   -1773.6421   -641.91529   -1354.7307    1292.4494    78.947396 
   76400    80.564884   -117.34319    0.0728968    -117.2703    347.74353    4.2886744    4.2886744    4.2886744    347.74353   -595.54834   -2280.5277    3919.3066    160.92235    879.01618   -3454.2396    78.880424 
   76500    113.04218   -117.37256   0.10228294   -117.27027   -2164.8433    4.2896065    4.2896065    4.2896065   -2164.8433      58.3179   -3746.6002   -2806.2476    677.60331    263.37358   -466.98345    78.931863 
   76600    92.040951   -117.35365  0.083280587   -117.27037    587.63898    4.2893292    4.2893292    4.2893292    587.63898   -1847.6535   -2398.5281    6009.0985   -141.88163    1678.1444   -792.16717    78.916558 
   76700     124.9471   -117.38292   0.11305476   -117.26987   -440.58575    4.2881615    4.2881615    4.2881615   -440.58575   -945.22491     76.77598   -453.30833   -705.93967    -1344.188    184.63865    78.852125 
   76800    79.381831    -117.3422  0.071826349   -117.27038    1908.7697    4.2895044    4.2895044    4.2895044    1908.7697    1318.7369   -2640.1636    7047.7356    -384.4877     -152.232    -688.2977     78.92623 
   76900    96.415167   -117.35766  0.087238469   -117.27043    161.47982     4.289515     4.289515     4.289515    161.47982   -2103.0158    282.16363    2305.2916   -403.18992   -470.25228   -2121.4591    78.926816 
   77000    89.616951   -117.35142    0.0810873   -117.27033    1528.9041    4.2876628    4.2876628    4.2876628    1528.9041     1221.904   -1432.9691    4797.7774    274.27173     809.4955    760.99942    78.824616 
   77100    110.29081   -117.36982   0.09979344   -117.27003   -443.57025    4.2897748    4.2897748    4.2897748   -443.57025   -3086.4349   -461.33371    2217.0579    182.26838    780.42462   -1405.5144    78.941157 
   77200    93.070279    -117.3543  0.084211944   -117.27009   -1296.6446    4.2898853    4.2898853    4.2898853   -1296.6446    2825.6838   -3692.9652   -3022.6523    205.36044   -124.19901    1204.1211    78.947256 
   77300    77.167953   -117.33997  0.069823185   -117.27015   -928.21404    4.2883331    4.2883331    4.2883331   -928.21404   -835.89515   -3448.2329    1499.4859   -760.16792    192.22271   -3053.9757    78.861592 
   77400    105.69374   -117.36552  0.095633919   -117.26988   -1696.9912    4.2896448    4.2896448    4.2896448   -1696.9912   -4172.3582   -361.80653   -556.80871   -246.11342    -688.4372    595.66142    78.933977 
   77500    79.618435   -117.34211  0.072040433   -117.27007    387.09569    4.2892289    4.2892289    4.2892289    387.09569    1623.5361   -3213.8235    2751.5744    2.6053909    694.52007   -1925.8705    78.911024 
   77600    101.23726   -117.36167  0.091601597   -117.27007   -2390.4953    4.2890965    4.2890965    4.2890965   -2390.4953   -2197.6657   -1595.0489   -3378.7712    186.83982    467.11775   -1193.1388    78.903715 
   77700    70.260054   -117.33382  0.063572773   -117.27025    549.53551    4.2892811    4.2892811    4.2892811    549.53551   -1256.1186   -3580.9034    6485.6285    -202.4576    834.26422    241.55342    78.913904 
   77800      122.038   -117.38028   0.11042255   -117.26985   -499.90301    4.2885612    4.2885612    4.2885612   -499.90301   -684.30249    652.58436   -1467.9909   -5.0894699   -258.95131   -715.60613    78.874176 
   77900     77.91746   -117.34077  0.070501355   -117.27027    2058.1585    4.2888143    4.2888143    4.2888143    2058.1585    3314.7414   -3504.6696    6364.4037   -257.87261    125.80412    465.76028    78.888142 
   78000    92.397238   -117.35404  0.083602962   -117.27044   -493.05925    4.2895732    4.2895732    4.2895732   -493.05925   -2200.4088    45.111797    676.11922   -656.51557   -48.689255   -2082.0001    78.930024 
   78100    83.192934   -117.34567  0.075274715    -117.2704    1310.6661    4.2879925    4.2879925    4.2879925    1310.6661    588.27374    351.29397    2992.4305   -19.107612    763.94734    1474.6153    78.842802 
   78200    109.09383   -117.36872   0.09871039   -117.27001    76.567959    4.2891471    4.2891471    4.2891471    76.567959    1553.6627   -1589.6179    265.65904   -13.371465   -821.72736   -1212.8063    78.906507 
   78300    99.313185   -117.36001  0.089860657   -117.27015   -1311.7143    4.2900433    4.2900433    4.2900433   -1311.7143   -1282.2174   -642.40721   -2010.5183    305.46737    369.48025    1044.1684    78.955978 
   78400    85.388733   -117.34754   0.07726152   -117.27028   -1017.6338    4.2885228    4.2885228    4.2885228   -1017.6338    2103.4165   -4847.1908   -309.12694   -1240.4031    47.359192   -2118.9718    78.872055 
   78500    96.258099   -117.35738  0.087096351   -117.27029    -469.4856    4.2890568    4.2890568    4.2890568    -469.4856   -2298.1702    812.30725    77.406113   -99.770527    825.78441    35.460951    78.901527 
   78600    107.50127   -117.36733  0.097269407   -117.27006   -811.93228     4.289796     4.289796     4.289796   -811.93228    151.36895   -4237.8107     1650.645    566.77009    370.79091    72.414386    78.942324 
   78700    103.38734   -117.36361  0.093547042   -117.27006   -1140.7844    4.2888696    4.2888696    4.2888696   -1140.7844   -467.54882   -23.834535   -2930.9698    179.70163   -1286.5902   -1851.1258    78.891193 
   78800    89.570322   -117.35131  0.081045109   -117.27026    228.94192    4.2889967    4.2889967    4.2889967    228.94192   -791.52659   -3042.3543    4520.7067    -798.0648    1375.6253    98.104053    78.898207 
   78900    114.81369   -117.37401   0.10388584   -117.27012   -32.863622    4.2891249    4.2891249    4.2891249   -32.863622    1977.3677   -480.19327   -1595.7653   -796.10697   -703.94996   -912.02793    78.905284 
   79000      103.432   -117.36363  0.093587446   -117.27005    1154.0373    4.2887278    4.2887278    4.2887278    1154.0373    543.04434   -1636.9273    4555.9947    1292.5697     1701.382    1397.4572     78.88337 
   79100    114.26352   -117.37343   0.10338804   -117.27004   -160.33875    4.2893453    4.2893453    4.2893453   -160.33875    1025.1864   -1139.0607   -367.14202    20.633149   -1220.4091   -1329.2646    78.917445 
   79200    80.974372   -117.34357  0.073267313    -117.2703    1930.8549    4.2884011    4.2884011    4.2884011    1930.8549    1003.9087         2743     2045.656   -601.75675    411.39884    724.41786    78.865342 
   79300    138.73167    -117.3954   0.12552733   -117.26987   -1725.0474    4.2890363    4.2890363    4.2890363   -1725.0474   -82.820114   -3454.8264   -1637.4957   -1093.9444    619.91395     -992.176    78.900392 
   79400      91.7746   -117.35345  0.083039587   -117.27041    1545.5891    4.2894484    4.2894484    4.2894484    1545.5891    751.32743    3213.2956    672.14431    684.95481   -159.41813     611.8431    78.923139 
   79500    127.09175   -117.38547   0.11499528   -117.27048   -1713.3032    4.2889661    4.2889661    4.2889661   -1713.3032    667.18467   -4493.6893   -1313.4049    507.40954    525.38441   -212.75814    78.896519 
   79600    78.393782   -117.34175  0.070932342   -117.27081    903.46206    4.2885734    4.2885734    4.2885734    903.46206    268.33662    981.48019    1460.5694   -1181.5832   -1554.6179   -383.74784     78.87485 
   79700    123.09623   -117.38164   0.11138006   -117.27026   -1401.2728    4.2899052    4.2899052    4.2899052   -1401.2728    -3977.316   -2430.2173    2203.7149   -790.62495    1919.7322    70.413089    78.948356 
   79800    126.58111   -117.38458   0.11453325   -117.27005    -773.6829    4.2891844    4.2891844    4.2891844    -773.6829    1050.1126   -271.45372   -3099.7076    -194.4229   -496.06277   -1729.6151    78.908569 
   79900    74.997433    -117.3383  0.067859254   -117.27044    1647.0726    4.2884157    4.2884157    4.2884157    1647.0726   -340.33736   -225.89686     5507.452    823.22363    1221.6255    160.90417    78.866148 
   80000    139.89865   -117.39671   0.12658324   -117.27013   -3121.7713    4.2896577    4.2896577    4.2896577   -3121.7713   -2136.0693   -3487.0414   -3742.2033   -396.63838   -1263.0309    467.43946    78.934692 
   80100    63.659571   -117.32806  0.057600518   -117.27046    3835.7881    4.2887164    4.2887164    4.2887164    3835.7881    4092.6817    2178.2722    5236.4104   -341.88304    -115.8608    1419.0981     78.88274 
   80200     159.7216   -117.41439   0.14451946   -117.26987   -2803.0663    4.2892541    4.2892541    4.2892541   -2803.0663   -2225.8124   -3578.2044    -2605.182   -354.49525    826.27023   -1926.9604    78.912414 
   80300    49.582559   -117.31549  0.044863341   -117.27063    3026.6605    4.2885223    4.2885223    4.2885223    3026.6605    1470.4928    4813.7131    2795.7757   -52.400256     55.94292    66.429581    78.872032 
   80400    138.88374   -117.39569   0.12566492   -117.27002   -2935.9792    4.2894079    4.2894079    4.2894079   -2935.9792   -2638.4944   -3738.5319   -2430.9112    276.69775    1119.1485    489.34687    78.920902 
   80500    89.877965   -117.35175  0.081323472   -117.27043    1969.3113    4.2890556    4.2890556    4.2890556    1969.3113    1572.5264    2580.1044    1755.3031    195.74103   -1079.3581    1515.6947    78.901457 
   80600     98.98614   -117.35982   0.08956474   -117.27026    417.20305    4.2888359    4.2888359    4.2888359    417.20305   -207.97505   -891.22173    2350.8059    71.736998    167.21742   -731.30783    78.889332 
   80700     103.2778   -117.36364  0.093447922   -117.27019   -1536.5326    4.2888431    4.2888431    4.2888431   -1536.5326   -2541.9275   -2190.2507    122.58043    -927.0951   -483.69001   -1604.8426     78.88973 
   80800    62.425344   -117.32684  0.056483763   -117.27036    1895.9645    4.2892375    4.2892375    4.2892375    1895.9645    118.47416     875.9257    4693.4937   -843.59274    445.48119    276.15403    78.911496 
   80900    158.93781   -117.41376   0.14381027   -117.26995   -4011.7591    4.2898752    4.2898752    4.2898752   -4011.7591   -4399.4116   -4156.2093   -3479.6563    251.39673    416.32607    699.95669    78.946698 
   81000    40.331703   -117.30733  0.036492972   -117.27084    2871.9625    4.2882011    4.2882011    4.2882011    2871.9625    679.58173    2345.8263    5590.4794    330.14554    343.83809    67.753464    78.854309 
   81100    134.60034   -117.39216   0.12178921   -117.27037   -4544.1302    4.2897359    4.2897359    4.2897359   -4544.1302   -3670.2416   -6304.9727   -3657.1762   -321.15687   -254.30232   -1474.8129    78.939006 
   81200    41.257864   -117.30803  0.037330983    -117.2707     3157.185    4.2893066    4.2893066    4.2893066     3157.185    4577.6784    1135.1828    3758.6938   -384.08235   -14.264026    1304.1628    78.915313 
   81300    135.40156   -117.39236   0.12251418   -117.26985   -2529.1891    4.2890019    4.2890019    4.2890019   -2529.1891   -2762.0031   -3563.4714   -1262.0928   -532.84671   -342.69757    -730.7822    78.898497 
   81400    72.057266   -117.33552  0.065198928   -117.27032    980.12868    4.2885196    4.2885196    4.2885196    980.12868   -470.97615    1564.0913    1847.2709   -20.460117    602.84188    1101.3076    78.871878 
   81500    85.870814   -117.34796  0.077697717   -117.27026   -309.61401    4.2895644    4.2895644    4.2895644   -309.61401    1645.7809   -1330.1216   -1244.5013   -265.32246    46.019236   -577.47957    78.929544 
   81600    115.14359   -117.37434   0.10418434   -117.27016   -990.42794    4.2891772    4.2891772    4.2891772   -990.42794   -3037.0876   -2975.2133    3041.0171    535.24691    413.22388    725.16181    78.908167 
   81700    61.304216    -117.3258  0.055469343   -117.27033    3439.7229    4.2881759    4.2881759    4.2881759    3439.7229    2479.4571    3759.5945     4080.117    72.465366    416.51605    62.749527    78.852921 
   81800    123.44192   -117.38175   0.11169284   -117.27005   -2218.2589    4.2892418    4.2892418    4.2892418   -2218.2589   -2563.1052   -5674.6189    1582.9474   -621.81643    -799.1186   -761.35542    78.911735 
   81900    43.930157    -117.3104  0.039748929   -117.27065    2284.9124    4.2888613    4.2888613    4.2888613    2284.9124    2054.7407    807.89874    3992.0978   -596.34301    217.25566    225.86633    78.890736 
   82000    143.96546   -117.40027   0.13026298      -117.27   -3913.3151    4.2897177    4.2897177    4.2897177   -3913.3151   -4708.0711   -5094.0869   -1937.7872    42.406246   -787.30343   -630.84063    78.938005 
   82100    73.262557   -117.33667  0.066289502   -117.27038    1399.9749    4.2885276    4.2885276    4.2885276    1399.9749    147.43091    558.23053    3494.2632     885.4611     1564.679    946.32474    78.872325 
   82200     101.3221   -117.36187  0.091678367   -117.27019   -2042.5603    4.2891469    4.2891469    4.2891469   -2042.5603    1053.1334   -5012.8861   -2167.9282   -1201.2942   -424.78332   -2165.0615    78.906495 
   82300    76.595564   -117.33971  0.069305276    -117.2704   -703.04799    4.2899177    4.2899177    4.2899177   -703.04799    264.09299   -4073.1174    1699.8804   -416.35254   -149.16309     1730.424    78.949047 
   82400    104.87265   -117.36505   0.09489098   -117.27016   -97.526071    4.2889221    4.2889221    4.2889221   -97.526071    1668.6908   -522.22112   -1439.0479   -12.727746    -1041.784   -856.52189    78.894092 
   82500    116.73119   -117.37592   0.10562083    -117.2703   -170.76215    4.2883182    4.2883182    4.2883182   -170.76215    154.50891   -2925.3656    2258.5702    830.88573    265.74919    280.63256     78.86077 
   82600     80.32855   -117.34325   0.07268296   -117.27056    631.33139    4.2897046    4.2897046    4.2897046    631.33139    2514.8836    1002.6167   -1623.5062   -523.63204    1273.8571   -682.51433    78.937283 
   82700    116.76592   -117.37587   0.10565226   -117.27022   -795.75891    4.2892723    4.2892723    4.2892723   -795.75891   -2406.6126   -4850.9443    4870.2802   -1313.7644   -379.06975    114.22123    78.913419 
   82800    90.556379    -117.3521  0.081937315   -117.27016    3445.0961     4.287745     4.287745     4.287745    3445.0961    2627.2312    4173.9907    3534.0662    400.53234    101.39047    1171.5079    78.829152 
   82900      117.542   -117.37631   0.10635447   -117.26996    -19.68127     4.289317     4.289317     4.289317    -19.68127     1052.966   -3723.0589     2611.049     377.5732   -1001.7327   -1343.5807    78.915888 
   83000    88.144454   -117.34999  0.079754955   -117.27023   -501.09278    4.2893465    4.2893465    4.2893465   -501.09278   -983.91755    -2210.155    1690.7942    488.20625    1412.8288    258.09256    78.917512 
   83100    116.49209    -117.3754   0.10540449      -117.27   -1357.9112    4.2890404    4.2890404    4.2890404   -1357.9112    -309.3265   -1773.3463   -1991.0608   -1322.7101    501.16256   -2231.2694     78.90062 
   83200    115.72738   -117.37469   0.10471256   -117.26998   -247.12242    4.2890653    4.2890653    4.2890653   -247.12242   -134.01498   -2813.3383     2205.986   -93.492265   -309.79526    1887.1545    78.901994 
   83300    103.62907   -117.36388  0.093765764   -117.27011   -1251.4191    4.2889475    4.2889475    4.2889475   -1251.4191    335.53327   -1697.3238   -2392.4667     22.01129   -621.45258   -1997.2293    78.895493 
   83400     94.08027   -117.35547  0.085125805   -117.27034   -1214.7235    4.2896482    4.2896482    4.2896482   -1214.7235     1907.346   -6033.2759    481.75938    418.39717    -379.5944    626.75096    78.934164 
   83500    111.67822   -117.37128    0.1010488   -117.27023     109.2549    4.2891998    4.2891998    4.2891998     109.2549    1441.0362    703.05748    -1816.329    302.62263    940.22123   -576.76222    78.909418 
   83600    119.15778   -117.37793   0.10781647   -117.27011    495.51434    4.2880942    4.2880942    4.2880942    495.51434    1159.7624   -2895.7708    3222.5515   -658.17414    190.00326   -1190.3198    78.848413 
   83700    111.00397   -117.37062   0.10043872   -117.27018   -406.73011    4.2896804    4.2896804    4.2896804   -406.73011   -174.05575    1030.8196   -2076.9542    -314.5126   -597.43759    540.83549    78.935944 
   83800    95.071127   -117.35629  0.086022353   -117.27026    1282.1837     4.289455     4.289455     4.289455    1282.1837    141.04072   -2150.5452    5856.0555   -380.00833   -409.13207   -759.21358    78.923501 
   83900     113.4925   -117.37286    0.1026904   -117.27017    1532.9223     4.287701     4.287701     4.287701    1532.9223    843.33417    1265.7762    2489.6566    1014.9751   -268.56837     1419.563    78.826727 
   84000    106.11965   -117.36621  0.096019292   -117.27019    808.22081    4.2892061    4.2892061    4.2892061    808.22081   -1033.1026    921.77141    2535.9936   -98.241229    669.77448   -2511.2072    78.909762 
   84100    105.33724   -117.36551   0.09531135    -117.2702   -1043.5865    4.2898658    4.2898658    4.2898658   -1043.5865    733.90768   -3851.2328   -13.434321   -741.72495    104.99096    656.16205    78.946182 
   84200    102.39961   -117.36282  0.092653322   -117.27016   -929.70159     4.288572     4.288572     4.288572   -929.70159   -2029.7409    335.21385   -1094.5777   -1107.6029   -215.07993   -1787.9068    78.874773 
   84300    103.27714   -117.36343  0.093447329   -117.26999   -695.70048    4.2892608    4.2892608    4.2892608   -695.70048   -530.30416    -3219.015    1662.2177    733.64333    596.93409    1345.3724    78.912782 
   84400    112.18172   -117.37144   0.10150438   -117.26993   -1725.7638    4.2893486    4.2893486    4.2893486   -1725.7638   -1473.4419   -1238.7282   -2465.1213    956.25854   -266.61046   -1947.9474    78.917628 
   84500    78.935619   -117.34168  0.071422607   -117.27026    105.59462    4.2889965    4.2889965    4.2889965    105.59462    3273.0307   -4692.5461    1736.2993    -456.5317     546.8816   -1804.4472    78.898198 
   84600    109.18751   -117.36895  0.098795154   -117.27015   -1409.0809    4.2895166    4.2895166    4.2895166   -1409.0809   -63.467474   -1342.1816   -2821.5937   -972.15482   -827.35972    962.09824    78.926904 
   84700    91.991013    -117.3533  0.083235402   -117.27007    1126.5423    4.2882006    4.2882006    4.2882006    1126.5423   -1436.7288   -851.34514    5667.7008   -282.14741    606.87862    -1593.214    78.854282 
   84800    114.54215   -117.37354   0.10364015    -117.2699    -427.1094    4.2892882    4.2892882    4.2892882    -427.1094    2133.3682   -1085.6713    -2329.025    1074.0258    155.64269    668.94059    78.914294 
   84900    77.196927   -117.34013  0.069849402   -117.27028    1313.4371    4.2897051    4.2897051    4.2897051    1313.4371     -2986.35   -334.28932    7260.9506    8.8545893    266.11529    -2260.646    78.937306 
   85000    101.48649   -117.36205  0.091827112   -117.27023    182.22985    4.2878925    4.2878925    4.2878925    182.22985   -363.59171    -1263.946    2174.2272    269.00667    -447.4126    1517.5331    78.837289 
   85100    93.429697   -117.35482  0.084537153   -117.27029    953.91028    4.2890006    4.2890006    4.2890006    953.91028   -220.73249     1756.346    1326.1174    -750.9042   -774.64023   -1532.3138    78.898422 
   85200    94.394074   -117.35558  0.085409742   -117.27017   -518.16589      4.29027      4.29027      4.29027   -518.16589    932.72339   -3694.0279    1206.8068     41.08819    436.88148   -172.18846    78.968497 
   85300    91.863995    -117.3533  0.083120473   -117.27018   -1260.4244    4.2883219    4.2883219    4.2883219   -1260.4244   -2514.0564   -439.92113    -827.2958   -466.44209     -204.306   -1486.0275    78.860973 
   85400    85.236335   -117.34733  0.077123627   -117.27021   -219.35287    4.2890449    4.2890449    4.2890449   -219.35287   -964.75747   -2002.5544    2309.2532    389.55931    946.41859   -126.35404     78.90087 
   85500    108.60252   -117.36837  0.098265844    -117.2701   -1629.6719    4.2900369    4.2900369    4.2900369   -1629.6719    845.75212   -3850.7806   -1883.9873    647.70979   -428.97675    187.17471    78.955625 
   85600     78.04289   -117.34082  0.070614847    -117.2702   -232.10342    4.2885754    4.2885754    4.2885754   -232.10342    700.30823   -3609.0712    2212.4527   -750.06481   -212.16834   -3389.2505    78.874959 
   85700    103.91299     -117.364  0.094022655   -117.26997   -1530.3259    4.2893443    4.2893443    4.2893443   -1530.3259    1498.0048   -3432.5326   -2656.4498   -250.95582   -701.82486    793.84336    78.917392 
   85800    78.705047   -117.34132  0.071213981   -117.27011    1777.9158    4.2886251    4.2886251    4.2886251    1777.9158    184.23873   -1146.5184     6296.027   -762.00263    231.87515   -1702.3711    78.877702 
   85900     116.8772   -117.37566   0.10575295   -117.26991   -975.51116    4.2888258    4.2888258    4.2888258   -975.51116    1279.5819    -3036.995   -1169.1204    1469.4613     910.0984    1008.0565    78.888775 
   86000    77.095938   -117.34012  0.069758025   -117.27036    1044.3864     4.289632     4.289632     4.289632    1044.3864   -1972.4566    -305.8098    5411.4257   -536.79951    422.71333   -1868.5203    78.933272 
   86100    110.64674   -117.37033   0.10011549   -117.27021   -268.76779    4.2883683    4.2883683    4.2883683   -268.76779   -973.32403   -1936.7369    2103.7575   -39.833188   -819.09926    228.50382    78.863531 
   86200    89.958383   -117.35174  0.081396235   -117.27035     1185.464    4.2885639    4.2885639    4.2885639     1185.464    2797.2516    64.982023    694.15834    -227.7607   -653.09591   -513.13328    78.874327 
   86300    102.79322    -117.3632  0.093009468   -117.27019   -951.98117    4.2905248    4.2905248    4.2905248   -951.98117    -691.6313   -2138.9226    -25.38963     462.2756    602.10663   -934.57287     78.98257 
   86400    100.12594   -117.36075   0.09059605   -117.27016   -174.34606    4.2882949    4.2882949    4.2882949   -174.34606   -92.162075    -1131.956    701.07989    564.48546    1319.2841   -131.97788    78.859484 
   86500    87.650716   -117.34963   0.07930821   -117.27032    1023.1522    4.2884168    4.2884168    4.2884168    1023.1522    2398.4864   -727.24641    1398.2165   -1283.4059   -219.42076   -1439.4578     78.86621 
   86600    128.72773   -117.38653   0.11647555   -117.27006    -2835.157    4.2906703    4.2906703    4.2906703    -2835.157   -2057.0936   -5090.2034    -1358.174    255.00223   -1291.3887    1208.5362    78.990606 
   86700    81.486127   -117.34402   0.07373036   -117.27029    807.26388    4.2884257    4.2884257    4.2884257    807.26388    3106.9362   -2336.4496     1651.305   -556.73266   -152.47926   -3406.5141    78.866702 
   86800    126.97271   -117.38487   0.11488758   -117.26999   -1484.5325    4.2889028    4.2889028    4.2889028   -1484.5325    1407.1923   -3556.7339   -2304.0558    1213.8638    459.90405    350.93633    78.893023 
   86900    75.136009    -117.3383   0.06798464   -117.27032    1711.1399      4.28939      4.28939      4.28939    1711.1399    1436.4884   -2170.8235    5867.7549   -674.34926    1330.7657   -851.49343    78.919912 
   87000     127.3971   -117.38527   0.11527157      -117.27   -1860.3784    4.2888091    4.2888091    4.2888091   -1860.3784   -705.38218   -2738.9916   -2136.7614   -393.12565   -1839.3676    449.64486    78.887857 
   87100    96.702735   -117.35766  0.087498667   -117.27016    1144.2946    4.2891699    4.2891699    4.2891699    1144.2946    123.10152   -270.87148    3580.6537   -516.96128    18.369773   -987.37033    78.907764 
   87200    112.02234   -117.37135   0.10136017   -117.26999     143.8974    4.2888086    4.2888086    4.2888086     143.8974    282.36817   -669.01921    818.34324   -305.01089   -208.64417    -1123.571     78.88783 
   87300    113.94735   -117.37305   0.10310196   -117.26995    -664.9106    4.2884334    4.2884334    4.2884334    -664.9106   -1624.5464   -810.22589    440.04048    1558.6755    952.02347    916.54571    78.867127 
   87400    86.693142   -117.34863  0.078441777   -117.27019    1562.5111    4.2898914    4.2898914    4.2898914    1562.5111    4016.8325    1114.3143   -443.61344   -581.63185    247.88489   -1160.0161    78.947595 
   87500    126.80496   -117.38481   0.11473579   -117.27007   -627.74124    4.2888202    4.2888202    4.2888202   -627.74124   -2496.3409   -673.11487    1286.2321   -426.59448   -726.84594    528.77769    78.888468 
   87600    78.293726   -117.34123  0.070841809   -117.27039    1687.2604    4.2879054    4.2879054    4.2879054    1687.2604    2770.2848    681.62039    1609.8759   -1015.9026    748.59793   -2382.7213    78.837998 
   87700    136.93725   -117.39396    0.1239037   -117.27005   -3190.8435    4.2908251    4.2908251    4.2908251   -3190.8435   -3488.2221   -3764.8379   -2319.4703    1112.4359   -464.20204    1047.9675    78.999155 
   87800    89.705376    -117.3514  0.081167309   -117.27023    1016.0186    4.2888541    4.2888541    4.2888541    1016.0186    2045.2892    -1415.662    2418.4287     567.1297    1123.4663   -1731.1376    78.890339 
   87900     108.6059   -117.36837  0.098268898    -117.2701   -652.33515    4.2881871    4.2881871    4.2881871   -652.33515    1442.4097   -1264.3619   -2135.0533    -927.2969   -1226.2942   -525.05681    78.853535 
   88000    94.738871     -117.356  0.085721722   -117.27028   -802.33538    4.2899847    4.2899847    4.2899847   -802.33538   -3612.7982   -2414.5498    3620.3419   -1607.5207    1148.6815   -83.630713    78.952746 
   88100    90.728966   -117.35236  0.082093475   -117.27026    225.03887    4.2889898    4.2889898    4.2889898    225.03887    2092.3882   -421.01524   -996.25632    90.599401   -971.74073    -624.5821    78.897828 
   88200    121.54887   -117.37997   0.10997997   -117.26999   -1468.6224    4.2889549    4.2889549    4.2889549   -1468.6224   -4174.7682   -1044.3791    813.28019    1385.3024    575.78756     483.0932    78.895902 
   88300    85.191838   -117.34719  0.077083366    -117.2701    551.66472    4.2891941    4.2891941    4.2891941    551.66472    138.06741    1298.4384    218.48838   -524.47103   -279.58128   -1281.6149      78.9091 
   88400    113.94763    -117.3731   0.10310221      -117.27   -992.39936    4.2886658    4.2886658    4.2886658   -992.39936   -3349.1766   -369.66275    741.64128   -906.09874   -429.39292     1287.354    78.879946 
   88500    79.301092   -117.34202  0.071753295   -117.27026    1980.3238    4.2892356    4.2892356    4.2892356    1980.3238    4228.2719    2312.0882   -599.38872    -656.7899    777.78913   -1309.4174    78.911391 
   88600    97.710156   -117.35856  0.088410202   -117.27015    330.42347    4.2888573    4.2888573    4.2888573    330.42347   -2743.3951    1452.9078    2281.7577    591.41841   -425.23957    177.43217    78.890516 
   88700    93.355794   -117.35456  0.084470284   -117.27009    93.786483    4.2880179    4.2880179    4.2880179    93.786483   -633.59247    490.96431    423.98761    181.62878    1398.5177    -1262.063    78.844201 
   88800    97.574605   -117.35831  0.088287553   -117.27002   -625.76829    4.2902275    4.2902275    4.2902275   -625.76829    763.41845   -1674.8856   -965.83768   -152.59064   -1111.9645     378.1303    78.966148 
   88900    105.29422   -117.36525  0.095272425   -117.26998   -1530.2157    4.2895362    4.2895362    4.2895362   -1530.2157    -3433.624   -2710.7887    1553.7657   -528.67192    695.78249   -628.10921    78.927987 
   89000    81.767028   -117.34419  0.073984525    -117.2702    62.653242    4.2878748    4.2878748    4.2878748    62.653242    1625.0453    549.62166   -1986.7073   -50.930222   -1310.9839   -1887.2488    78.836311 
   89100     87.95826   -117.34992  0.079586483   -117.27034   -669.85173    4.2900422    4.2900422    4.2900422   -669.85173   -2037.2685   -2909.6605    2937.3739   -1143.7216    1538.0657    635.95051    78.955916 
   89200    88.212392   -117.35003  0.079816426   -117.27021   -689.42029    4.2895363    4.2895363    4.2895363   -689.42029    825.35895   -1402.5895   -1491.0303   -221.08018   -109.12579    74.534911    78.927988 
   89300    98.651143   -117.35929  0.089261628   -117.27003   -860.60774     4.288287     4.288287     4.288287   -860.60774   -3607.4966   -456.10992    1481.7833    446.22946    177.99523      644.825    78.859047 
   89400    102.40718   -117.36271  0.092660167   -117.27005   -586.08913    4.2894505    4.2894505    4.2894505   -586.08913    698.35769    64.997108   -2521.6222    -245.1887   -117.49973   -1696.5541    78.923254 
   89500    90.354351   -117.35196  0.081754515   -117.27021    455.97098    4.2890492    4.2890492    4.2890492    455.97098   -362.24874   -414.55766    2144.7193   -344.32788   -492.99696    240.60541    78.901104 
   89600    92.274575   -117.35364  0.083491975   -117.27015    435.57472    4.2888628    4.2888628    4.2888628    435.57472    2543.9917    552.83442    -1790.102   -1073.9624    1628.1198    355.67839    78.890817 
   89700    92.177147   -117.35346   0.08340382   -117.27006    1183.9514    4.2889263    4.2889263    4.2889263    1183.9514     -590.442    2407.4942    1734.8018    580.89718   -637.94291    458.87296    78.894323 
   89800    89.168202   -117.35077  0.080681263   -117.27009    1215.3521    4.2881968    4.2881968    4.2881968    1215.3521    2524.5077   -691.39993    1812.9484   -484.84999    1660.1386    -1010.074     78.85407 
   89900    117.25341   -117.37613   0.10609335   -117.27004   -2138.9764    4.2898384    4.2898384    4.2898384   -2138.9764   -324.72642   -2665.2366   -3426.9661   -210.03112   -1795.5797   -697.30294    78.944666 
   90000     90.05493   -117.35176  0.081483593   -117.27027   -10.246118    4.2893717    4.2893717    4.2893717   -10.246118   -730.55146   -2804.8608    3504.6739   -727.08184    1255.2616    66.454311    78.918905 
   90100    115.13876   -117.37431   0.10417997   -117.27013   -915.10472    4.2881456    4.2881456    4.2881456   -915.10472    2624.2475   -1204.4569   -4165.1048    211.04793   -1043.1507   -909.77843    78.851247 
   90200     80.63712   -117.34331  0.072962161   -117.27035    181.10414    4.2897895    4.2897895    4.2897895    181.10414    1220.0156   -3421.0981    2744.3949   -254.85972    1530.4342    212.61639    78.941966 
   90300    101.87156   -117.36231  0.092175528   -117.27013   -1473.2494    4.2900218    4.2900218    4.2900218   -1473.2494    1523.3911   -2960.5471   -2982.5921   -1285.4172    -29.86004     27.53787    78.954791 
   90400    116.05421   -117.37492   0.10500829   -117.26991       -290.1    4.2880696    4.2880696    4.2880696       -290.1   -1324.0134   -311.19414    764.90752   -7.8515185   -661.17356    588.68113    78.847053 
   90500    94.293911   -117.35547  0.085319112   -117.27016    1179.0324    4.2891789    4.2891789    4.2891789    1179.0324    6695.7316   -949.74236   -2208.8922   -470.86496     1094.106   -1178.8626    78.908263 
   90600    135.06053   -117.39224   0.12220561   -117.27004   -2428.5619    4.2898586    4.2898586    4.2898586   -2428.5619   -2798.8638   -2429.3254   -2057.4963    681.98726   -546.24158   -83.848321    78.945785 
   90700    73.476321   -117.33685   0.06648292   -117.27037    3365.6337    4.2879703    4.2879703    4.2879703    3365.6337    8214.9691    827.63639    1054.2955   -477.46988    2736.6944    263.79675    78.841576 
   90800    136.06839   -117.39309   0.12311753   -117.26998   -311.39374    4.2889802    4.2889802    4.2889802   -311.39374    265.76692     888.9349    -2088.883    -536.7018    -1748.574    616.87365    78.897296 
   90900    77.491151   -117.34047  0.070115622   -117.27035    1997.4745    4.2888116    4.2888116    4.2888116    1997.4745    3194.2188   -702.25258    3500.4574   -1137.7489    2111.0063   -578.10802    78.887991 
   91000    127.37677   -117.38536   0.11525318   -117.27011   -2029.2036    4.2893736    4.2893736    4.2893736   -2029.2036    1173.1525    -2474.679   -4786.0843    -370.1711   -1004.9334   -809.24956    78.919008 
   91100    110.18443   -117.36986  0.099697185   -117.27016    231.82057    4.2890971    4.2890971    4.2890971    231.82057   -58.494145   -2338.8034    3092.7592    481.64517    1576.5887     450.2814    78.903749 
   91200    103.96371   -117.36415  0.094068554   -117.27008    95.556884     4.288367     4.288367     4.288367    95.556884    5044.5536   -1826.7427   -2931.1402   -58.559315   -671.53033   -476.26193    78.863461 
   91300    121.28396   -117.37981   0.10974028   -117.27007   -2432.8634    4.2897114    4.2897114    4.2897114   -2432.8634    -1962.147   -4163.1915   -1173.2515   -1123.3368   -53.416975    75.304256    78.937654 
   91400    73.841179   -117.33719  0.066813051   -117.27038    1914.6363      4.28943      4.28943      4.28943    1914.6363    7239.4113   -1624.3036    128.80123   -1755.0078    1834.0246   -507.22346    78.922124 
   91500    134.10344   -117.39143   0.12133961    -117.2701   -1372.9533    4.2883575    4.2883575    4.2883575   -1372.9533    -1890.165   -914.27538   -1314.4196    360.31305   -752.33925    1014.3587    78.862935 
   91600    81.520137   -117.34419  0.073761133   -117.27043    1076.1817    4.2891788    4.2891788    4.2891788    1076.1817    4868.3749   -779.91794   -859.91187     770.3129    1871.8592   -218.08609    78.908257 
   91700    130.80617   -117.38848   0.11835617   -117.27012   -2243.8222    4.2903398    4.2903398    4.2903398   -2243.8222    707.39232   -2405.6984   -5033.1606   -592.50012   -2026.1336   -152.83067    78.972353 
   91800    82.569206   -117.34494  0.074710353   -117.27023     2225.317    4.2879507    4.2879507    4.2879507     2225.317    4491.6848    477.59024    1706.6761   -908.13209    3002.8637   -105.40977    78.840498 
   91900    119.31127   -117.37783   0.10795534   -117.26988   -949.92244    4.2888617    4.2888617    4.2888617   -949.92244   -562.98313    260.91687   -2547.7011    134.06873   -597.73464   -311.02147    78.890755 
   92000    82.030725    -117.3445  0.074223124   -117.27027    805.79814    4.2895616    4.2895616    4.2895616    805.79814    620.48248   -330.03931    2126.9513    493.91617    1425.3079    328.05299    78.929387 
   92100    97.150508   -117.35817  0.087903821   -117.27026   -144.47386    4.2887596    4.2887596    4.2887596   -144.47386    1905.8665   -745.95692   -1593.3312   -350.76162   -295.78892   -395.64932    78.885123 
   92200    98.283124   -117.35922  0.088928636   -117.27029   -625.69734    4.2887596    4.2887596    4.2887596   -625.69734   -1323.6987   -1957.3879    1403.9945   -1898.7076    177.90472    827.15992    78.885125 
   92300    99.492855   -117.36017  0.090023226   -117.27014   -1109.4643    4.2893338    4.2893338    4.2893338   -1109.4643    446.31995   -2487.9927   -1286.7202    190.94214    1319.1056   -749.44419    78.916814 
   92400    104.90579   -117.36516  0.094920959   -117.27024   -1328.9692    4.2894026    4.2894026    4.2894026   -1328.9692    2441.1468   -3933.2964   -2494.7579    100.18021   -917.96582   -590.23604    78.920611 
   92500    74.314562   -117.33768  0.067241377   -117.27044    842.07675      4.28883      4.28883      4.28883    842.07675    2636.4077   -1922.0106    1811.8331   -643.92392    2179.6424   -94.526455    78.889011 
   92600    105.92248   -117.36595  0.095840885   -117.27011    -1043.477    4.2885865    4.2885865    4.2885865    -1043.477   -1204.1396   -1331.8851   -594.40642   -961.45786   -1219.6375    1451.8223     78.87557 
   92700    65.945685   -117.32987  0.059669041    -117.2702     2003.435    4.2889578    4.2889578    4.2889578     2003.435    6095.9418   -298.06817    212.43151   -361.56864     2005.549    619.49036    78.896061 
   92800     122.1915   -117.38051   0.11056144   -117.26995   -2475.0907    4.2899824    4.2899824    4.2899824   -2475.0907   -667.70671   -2306.8549   -4450.7105     899.4798    -1190.483   -963.05339     78.95262 
   92900    62.392892   -117.32681    0.0564544   -117.27035    1406.4496    4.2881417    4.2881417    4.2881417    1406.4496    3016.4115    57.570842    1145.3663   -932.63669    1989.3481   -220.60015    78.851033 
   93000    123.88401   -117.38206   0.11209285   -117.26997   -2262.5634    4.2891595    4.2891595    4.2891595   -2262.5634   -2739.5602   -1680.3994   -2367.7305    165.04616    529.43339     97.86233     78.90719 
   93100    72.928134   -117.33638  0.065986908   -117.27039    1113.4479     4.289883     4.289883     4.289883    1113.4479    3428.9339    -1488.682    1400.0919   -613.71451   -164.98745    624.99344    78.947127 
   93200    87.653982    -117.3496  0.079311165   -117.27029   -385.72164    4.2884974    4.2884974    4.2884974   -385.72164   -1518.7955   -778.54326    1140.1739    1020.7952    376.61237   -544.47373    78.870654 
   93300    94.637171    -117.3558  0.085629701   -117.27017   -331.39484    4.2884143    4.2884143    4.2884143   -331.39484   -416.18225   -1771.3849    1193.3826   -1058.3715     -435.489    242.95593    78.866074 
   93400    82.334326   -117.34463  0.074497828   -117.27013    917.31135    4.2897057    4.2897057    4.2897057    917.31135    4468.6517   -1992.7931    276.07537   -712.28739    1971.0333    158.64359     78.93734 
   93500    127.07803   -117.38493   0.11498287   -117.26995   -2671.0306    4.2893683    4.2893683    4.2893683   -2671.0306    -116.9221   -5017.4119   -2878.7578    294.41504   -936.10756   -36.822936    78.918714 
   93600    69.024537    -117.3329  0.062454851   -117.27044    1461.7003    4.2883011    4.2883011    4.2883011    1461.7003    5159.7465   -2669.0638    1894.4182   -535.20594    1012.1354   -550.81608    78.859827 
   93700    116.08378   -117.37521   0.10503504   -117.27018   -1133.8018    4.2893396    4.2893396    4.2893396   -1133.8018    1722.5368   -3923.5592   -1200.3832    879.16266   -766.56413    447.07716    78.917131 
   93800    79.127267   -117.34191  0.071596014   -117.27031    1218.0004    4.2891592    4.2891592    4.2891592    1218.0004    4703.2383   -1860.4512    811.21405   -1266.1534    1881.2663     918.3212    78.907178 
   93900    112.94271    -117.3723   0.10219294    -117.2701   -1213.1304    4.2890255    4.2890255    4.2890255   -1213.1304    1347.3052   -2203.2744    -2783.422    753.19614   -152.02776   -202.16669    78.899794 
   94000    91.655241   -117.35323  0.082931588    -117.2703     630.1958    4.2884962    4.2884962    4.2884962     630.1958    2847.5202   -392.37024   -564.56252   -1037.6032    644.14991    112.10532    78.870589 
   94100    109.38356   -117.36904  0.098972542   -117.27006   -802.70352    4.2892639    4.2892639    4.2892639   -802.70352    1517.7139   -2256.2691   -1669.5554    346.30284    359.93415   -241.88101    78.912954 
   94200    112.69431   -117.37198   0.10196818   -117.27001   -1037.7272    4.2897971    4.2897971    4.2897971   -1037.7272    824.89064   -3559.6212    -378.4509    204.25589    43.475876    515.71642    78.942385 
   94300    98.901569   -117.35954  0.089488218   -117.27005    1040.8717     4.288312     4.288312     4.288312    1040.8717    2067.2174   -869.95329    1925.3512    -218.1626    1234.0311   -787.34506    78.860428 
   94400    104.01444   -117.36423  0.094114449   -117.27012     627.5044    4.2884818    4.2884818    4.2884818     627.5044    3491.1599    -2120.613    511.96629    73.345397   -510.33835    512.33397    78.869794 
   94500    104.14185    -117.3644  0.094229736   -117.27017    -145.7713     4.289968     4.289968     4.289968    -145.7713    1421.1037   -2374.1191     515.7015   -1183.8834    989.38308    474.27563     78.95182 
   94600    115.99498   -117.37497    0.1049547   -117.27001    166.68762    4.2887828    4.2887828    4.2887828    166.68762    5774.1798   -3384.6155   -1889.5014    1221.4701    -1148.749    358.97471    78.886402 
   94700    106.63471   -117.36666  0.096485331   -117.27017    1089.9975    4.2880018    4.2880018    4.2880018    1089.9975    4438.9716   -2166.0245    997.04547   -877.99976    1403.6879   -397.90196    78.843315 
   94800    113.60338   -117.37294   0.10279073   -117.27015   -1448.9702    4.2899124    4.2899124    4.2899124   -1448.9702      3331.38   -5543.1058   -2135.1848    277.09692   -304.32924   -909.30859    78.948753 
   94900    97.988752   -117.35893  0.088662282   -117.27027   -223.37539    4.2894082    4.2894082    4.2894082   -223.37539    3565.5523   -3685.9766   -549.70185   -482.84906    1331.4578    1495.3028    78.920921 
   95000    124.85156   -117.38309   0.11296832   -117.27012   -535.63447    4.2885309    4.2885309    4.2885309   -535.63447    2051.8788   -2309.6776   -1349.1047    605.42069   -801.79722   -230.85775    78.872507 
   95100    88.728228   -117.35067  0.080283166   -117.27039    667.33058    4.2888474    4.2888474    4.2888474    667.33058    4216.2092    157.72442   -2371.9419   -51.630521    32.350783    713.47955    78.889971 
   95200    112.87255   -117.37241   0.10212946   -117.27028   -1978.4311    4.2897059    4.2897059    4.2897059   -1978.4311   -2579.9466   -1913.6982   -1441.6484   -1026.1194    1293.6288   -607.77378    78.937352 
   95300     108.7607   -117.36864  0.098408965   -117.27023    319.97544     4.289028     4.289028     4.289028    319.97544    4005.4228   -2310.3413   -735.15523    207.33655   -97.021295    150.95101    78.899935 
   95400    105.22053   -117.36544  0.095205751   -117.27023    1297.2208    4.2882601    4.2882601    4.2882601    1297.2208    1511.2996    4.7463247    2375.6164    80.686883    872.46184   -197.02242    78.857563 
   95500    111.32885   -117.37096   0.10073268   -117.27023   -640.37207    4.2890226    4.2890226    4.2890226   -640.37207    1600.2055   -3447.7432    -73.57852    633.61923   -1499.9941   -84.982149    78.899634 
   95600    86.192132   -117.34826  0.077988453   -117.27027    1283.3262    4.2896701    4.2896701    4.2896701    1283.3262     4712.485   -1410.1778    547.67127   -1016.1491    1868.5753    1164.7086    78.935377 
   95700    116.59213   -117.37541   0.10549501   -117.26992    453.65103     4.288492     4.288492     4.288492    453.65103    3351.1665   -1803.9447   -186.26865    499.09751   -663.93532   -540.74557    78.870357 
   95800    91.549555   -117.35283  0.082835961   -117.26999    1042.0751    4.2881471    4.2881471    4.2881471    1042.0751     3498.849   -145.62353         -227   -314.41829    845.96782    411.01165    78.851332 
   95900    101.43949   -117.36183  0.091784578   -117.27005   -1587.0341    4.2901411    4.2901411    4.2901411   -1587.0341    1954.2275   -4885.7599     -1829.57    141.22265   -869.08333   -1150.9767    78.961381 
   96000     98.21232   -117.35891  0.088864571   -117.27005   -1040.9773    4.2893503    4.2893503    4.2893503   -1040.9773    2735.4091   -3835.9651   -2022.3757   -234.87501     379.8993    1527.6077     78.91772 
   96100    93.282189   -117.35443  0.084403685   -117.27003   -301.45161    4.2881479    4.2881479    4.2881479   -301.45161    517.37448   -2268.5721    846.84281    547.99695    1361.9116    218.26323    78.851373 
   96200    107.34726   -117.36715  0.097130057   -117.27002   -2276.9818    4.2896994    4.2896994    4.2896994   -2276.9818   -580.93537   -2692.9803   -3557.0296    547.51601   -1087.6953   -741.47362    78.936992 
   96300     75.34917   -117.33842  0.068177513   -117.27025   -35.108451    4.2895753    4.2895753    4.2895753   -35.108451     1574.625   -384.25226   -1295.6981   -1298.6971    1248.3311    397.07876    78.930141 
   96400    102.59724   -117.36294  0.092832141    -117.2701   -602.72209     4.288628     4.288628     4.288628   -602.72209   -969.86368    -959.9852    121.68262   -611.71347   -1208.1226    -101.2094    78.877861 
   96500    92.574882   -117.35389  0.083763699   -117.27013    946.01991    4.2883807    4.2883807    4.2883807    946.01991    756.65825    948.99571    1132.4058     322.4723    1315.9331    845.76089    78.864216 
   96600     87.81449   -117.34968  0.079456396   -117.27022    1105.2451    4.2891519    4.2891519    4.2891519    1105.2451    5144.8323   -2809.6444    980.54736    1270.2869   -492.64184   -1339.2455    78.906771 
   96700    104.92935    -117.3652  0.094942277   -117.27026   -449.47153    4.2893843    4.2893843    4.2893843   -449.47153    663.78802   -2429.1363    416.93368   -1066.8028    640.77399    613.18863      78.9196 
   96800    79.488413   -117.34227  0.071922787   -117.27035    1645.7446    4.2882129    4.2882129    4.2882129    1645.7446    4293.0019   -1208.4791    1852.7109   -285.17943   -145.86134    244.36643     78.85496 
   96900    107.99642   -117.36789  0.097717427   -117.27017   -551.94785    4.2887687    4.2887687    4.2887687   -551.94785    887.21563   -1872.9485   -670.11069   -78.390837   -569.81168    807.57449    78.885623 
   97000    82.735859   -117.34517  0.074861143   -117.27031   -504.66464    4.2900519    4.2900519    4.2900519   -504.66464    4015.8624   -3487.7607   -2042.0957    1299.1203   -39.611228    -643.1494    78.956452 
   97100    86.453477   -117.34844  0.078224923   -117.27022   -1398.3703    4.2890055    4.2890055    4.2890055   -1398.3703   -156.96941   -3054.6981   -983.44343   -56.840657   -500.44442   -445.67188     78.89869 
   97200    101.21646   -117.36165  0.091582779   -117.27007   -1642.6213    4.2884285    4.2884285    4.2884285   -1642.6213   -987.54479   -3880.8147   -59.504397   -1113.1045    1671.7906    1067.6953    78.866855 
   97300    95.822911   -117.35673  0.086702584   -117.27003   -1483.4088     4.290009     4.290009     4.290009   -1483.4088     2919.781   -4782.9932   -2587.0142    353.00998   -974.32302   -651.07246    78.954087 
   97400    102.77173   -117.36303  0.092990023   -117.27004   -2049.2011     4.289642     4.289642     4.289642   -2049.2011   -1966.6087   -2329.7698   -1851.2249   -596.51353    38.535146    700.04203    78.933825 
   97500     88.70872   -117.35037  0.080265514   -117.27011    707.62454    4.2881471    4.2881471    4.2881471    707.62454    2036.2551   -909.53279    996.15128    559.59754    -908.1504   -397.42512    78.851331 
   97600    96.397083   -117.35733  0.087222106    -117.2701    1529.2931    4.2888515    4.2888515    4.2888515    1529.2931    3234.1425   -151.88374    1505.6206   -603.61725     533.1496    427.62251    78.890195 
   97700    103.98879   -117.36412  0.094091243   -117.27003    819.30333    4.2892172    4.2892172    4.2892172    819.30333    4926.4007   -2137.4218   -331.06893    441.64419     721.8399   -787.73688    78.910379 
   97800    97.189427   -117.35804  0.087939036    -117.2701    1425.6429    4.2886301    4.2886301    4.2886301    1425.6429    2891.0062   -1822.5576      3208.48   -1056.8791    3.7244935    249.03916    78.877979 
   97900    113.94131   -117.37312   0.10309649   -117.27003    610.80157    4.2884288    4.2884288    4.2884288    610.80157    4330.1373   -3182.3765    684.64386    137.73594   -405.37005    633.02826    78.866872 
   98000    101.83154   -117.36219  0.092139314   -117.27005    300.34975    4.2889834    4.2889834    4.2889834    300.34975     3962.221   -3244.4623    183.29056    446.67532   -684.19366    383.74396    78.897476 
   98100    101.18307   -117.36171  0.091552565   -117.27016   -923.86319     4.289809     4.289809     4.289809   -923.86319    2020.5602   -3496.8532   -1295.2966    361.11792    418.52131   -57.559315    78.943045 
   98200    106.82084   -117.36689  0.096653741   -117.27023   -1116.0791    4.2888816    4.2888816    4.2888816   -1116.0791    1278.7864   -3060.0545   -1566.9692   -83.250266    129.93543   -1106.7877    78.891856 
   98300    82.377101   -117.34495  0.074536532   -117.27041    32.262195     4.288482     4.288482     4.288482    32.262195    2549.3629   -3745.3928    1292.8164   -2091.5806    159.35212    1342.6645    78.869807 
   98400    136.74534    -117.3938   0.12373006   -117.27007   -4311.2325    4.2904997    4.2904997    4.2904997   -4311.2325   -2198.1185    -6300.298   -4435.2811    1208.0066   -1241.2279   -436.68183    78.981181 
   98500    93.250003   -117.35469  0.084374562   -117.27031     504.0942      4.28903      4.28903      4.28903     504.0942    3247.9295   -2783.6177    1047.9708   -378.97607   -44.803434    331.03601    78.900045 
   98600    116.84818   -117.37593   0.10572669   -117.27021    107.35707    4.2880971    4.2880971    4.2880971    107.35707    2896.5164   -2102.6458   -471.79937    230.64409    316.54694   -487.29253    78.848573 
   98700    97.987151   -117.35894  0.088660833   -117.27028    1126.5752    4.2893032    4.2893032    4.2893032    1126.5752    2361.0286   -1414.8252    2433.5222   -1289.5281    620.87534    168.86517    78.915122 
   98800    96.591689   -117.35757  0.087398191   -117.27017    2245.6633    4.2891045    4.2891045    4.2891045    2245.6633    5881.3006    14.899928    840.78936    423.63259   -1219.6617   -216.71217    78.904159 
   98900    125.62668   -117.38367   0.11366966      -117.27    1004.1847    4.2882998    4.2882998    4.2882998    1004.1847    1422.2078   -1056.0491    2646.3954    366.75908   -414.71747   -224.41109    78.859757 
   99000     86.76605   -117.34872  0.078507745   -117.27021    1961.2477    4.2886904    4.2886904    4.2886904    1961.2477    5726.3794   -2298.5728    2455.9365   -827.22989    519.75715    812.03937    78.881307 
   99100    129.18343   -117.38686   0.11688788   -117.26997   -2326.5669    4.2895079    4.2895079    4.2895079   -2326.5669   -943.56303    -4767.377   -1268.7607   -400.89968    530.80029   -198.08271    78.926421 
   99200    86.284585   -117.34832  0.078072106   -117.27024    730.82457    4.2892004    4.2892004    4.2892004    730.82457    3796.4063   -3514.6691    1910.7365   -1172.1788    60.401353    871.04781    78.909451 
   99300    113.46548    -117.3727   0.10266595   -117.27003   -1962.0469    4.2890409    4.2890409    4.2890409   -1962.0469   -998.95899   -2624.7656   -2262.4161     1546.523   -1951.4795   -1387.7845    78.900648 
   99400    85.617938   -117.34762  0.077468909   -117.27015   -1436.1688    4.2889144    4.2889144    4.2889144   -1436.1688   -2121.4575   -3287.2929    1100.2438   -1599.4084    775.90197    1202.0972    78.893665 
   99500    101.71377   -117.36203  0.092032752      -117.27    -1967.866    4.2901462    4.2901462    4.2901462    -1967.866    229.37167   -3780.3812   -2352.5886    110.48389   -196.80326   -242.79536    78.961663 
   99600    111.39686   -117.37073   0.10079422   -117.26993    -1039.372    4.2891792    4.2891792    4.2891792    -1039.372   -356.66505   -3613.3515    851.90046   -1085.1236    359.78878   -329.00297    78.908278 
   99700     92.46656   -117.35374  0.083665687   -117.27008    710.55859    4.2879572    4.2879572    4.2879572    710.55859    2529.6249   -1675.2765    1277.3274   -768.06419   -733.70079    108.49977    78.840855 
   99800    102.83643   -117.36335  0.093048561    -117.2703    139.68672    4.2896028    4.2896028    4.2896028    139.68672    236.18704   -2805.0254    2987.8985    335.54014   -121.41367   -41.017278     78.93166 
   99900    90.630996    -117.3523  0.082004829    -117.2703    2063.5693    4.2890777    4.2890777    4.2890777    2063.5693    4217.7468    55.252616    1917.7085   -101.65365    217.11092    626.04195     78.90268 
  100000    100.95316   -117.36159   0.09134454   -117.27025    1488.0427    4.2879289    4.2879289    4.2879289    1488.0427   -404.24706    930.04405    3938.3311    750.57096   -913.16414    -1549.331    78.839297 
Loop time of 22.4473 on 1 procs for 100000 steps with 8 atoms

Pair  time (%) = 7.1176 (31.7081)
Kspce time (%) = 5.3393 (23.786)
Neigh time (%) = 0 (0)
Comm  time (%) = 1.07594 (4.7932)
Outpt time (%) = 0.0252666 (0.11256)
Other time (%) = 8.88916 (39.6002)

Nlocal:    8 ave 8 max 8 min
Histogram: 1 0 0 0 0 0 0 0 0 0
Nghost:    2189 ave 2189 max 2189 min
Histogram: 1 0 0 0 0 0 0 0 0 0
Neighs:    2344 ave 2344 max 2344 min
Histogram: 1 0 0 0 0 0 0 0 0 0

Total # of neighbors = 2344
Ave neighs/atom = 293
Neighbor list builds = 0
Dangerous builds = 0
unfix 20
unfix 21
print "seeds:2897269"
seeds:2897269
