LAMMPS (10 Feb 2015)
# ---- initialize simulations
clear
units metal
dimension 3
boundary p p p
atom_style charge
atom_modify map array
# ---- create atoms
read_data /Users/eugeneragasa/pyflamestk_git/pypospack/tests/tests_integration/workflow/WorkflowLammpsThermalExpansion/param_2856/MgO_NaCl_unit.npt.T900/lammps.structure
  triclinic box = (0 0 0) to (4.2565 4.2565 4.2565) with tilt (0 0 0)
  1 by 1 by 1 MPI processor grid
  reading atoms ...
  8 atoms
# ---- define interatomic potential
include potential.mod
mass 1 24.305
mass 2 15.999

group Mg type 1
4 atoms in group Mg
group O type 2
4 atoms in group O

set group Mg charge 1.71287520642
  4 settings made for charge
set group O charge -1.71287520642
  4 settings made for charge

variable R_cut equal 10.0

pair_style buck/coul/long ${R_cut}
pair_style buck/coul/long 10
pair_coeff 1 1 0.0 0.5 0.0 ${R_cut}
pair_coeff 1 1 0.0 0.5 0.0 10
pair_coeff 1 2 1268.25800143 0.292150986054 0.0 ${R_cut}
pair_coeff 1 2 1268.25800143 0.292150986054 0.0 10
pair_coeff 2 2 34972.2762623 0.190168709461 15.9037418312 ${R_cut}
pair_coeff 2 2 34972.2762623 0.190168709461 15.9037418312 10

kspace_style pppm 1.0e-5

neighbor 1.0 bin
neigh_modify every 1 delay 0 check yes
# ---- define settings
compute eng all pe/atom
compute eatoms all reduce sum c_eng
# ---- run minimization
reset_timestep 0
fix 1 all box/relax iso 0.0 vmax 0.001
thermo 10
thermo_style custom step pe lx ly lz xy xz yz press pxx pyy pzz pxy pxz pyz c_eatoms
min_style cg
minimize 1e-25 1e-25 5000 10000
PPPM initialization ...
  G vector (1/distance) = 0.353245
  grid = 8 8 8
  stencil order = 5
  estimated absolute RMS force accuracy = 4.15075e-05
  estimated relative force accuracy = 2.88254e-06
  using double precision FFTs
  3d grid and FFT values/proc = 3375 512
Neighbor list info ...
  1 neighbor list requests
  update every 1 steps, delay 0 steps, check yes
  master list distance cutoff = 11
Memory usage per processor = 4.06549 Mbytes
Step PotEng Lx Ly Lz Xy Xz Yz Press Pxx Pyy Pzz Pxy Pxz Pyz eatoms 
       0    -118.2398       4.2565       4.2565       4.2565            0            0            0    92099.563    92099.563    92099.563    92099.563 -2.6648665e-10 1.3518399e-10 2.2028947e-10    -118.2398 
      10   -118.33067     4.299065     4.299065     4.299065            0            0            0    34673.493    34673.493    34673.493    34673.493 -1.1760899e-11 -1.3745134e-10 -5.0678772e-11   -118.33067 
      18   -118.34767    4.3277342    4.3277342    4.3277342            0            0            0    -4.391814    -4.391814    -4.391814    -4.391814 -1.1240186e-10 -1.6034703e-10 -8.891662e-11   -118.34767 
Loop time of 0.0119941 on 1 procs for 18 steps with 8 atoms

Minimization stats:
  Stopping criterion = linesearch alpha is zero
  Energy initial, next-to-last, final = 
        -118.239795936     -118.347671294     -118.347671294
  Force two-norm initial, final = 13.2992 0.00175014
  Force max component initial, final = 13.2992 0.000655584
  Final line search alpha, max atom move = 0.00390625 2.56088e-06
  Iterations, force evaluations = 18 35

Pair  time (%) = 0.00322104 (26.8551)
Kspce time (%) = 0.00194407 (16.2085)
Neigh time (%) = 0 (0)
Comm  time (%) = 0.000364542 (3.03934)
Outpt time (%) = 1.19209e-05 (0.0993897)
Other time (%) = 0.00645256 (53.7977)

Nlocal:    8 ave 8 max 8 min
Histogram: 1 0 0 0 0 0 0 0 0 0
Nghost:    2189 ave 2189 max 2189 min
Histogram: 1 0 0 0 0 0 0 0 0 0
Neighs:    2344 ave 2344 max 2344 min
Histogram: 1 0 0 0 0 0 0 0 0 0

Total # of neighbors = 2344
Ave neighs/atom = 293
Neighbor list builds = 0
Dangerous builds = 0
unfix 1
# ---- define output variables ----
variable natoms equal "count(all)"
variable tot_energy equal "c_eatoms"
variable length_x equal "lx"
variable length_y equal "ly"
variable length_z equal "lz"
variable tilt_xy equal "xy"
variable tilt_xz equal "xz"
variable tilt_yz equal "yz"
variable tot_press equal "press"
variable press_xx equal "pxx"
variable press_yy equal "pyy"
variable press_zz equal "pzz"
variable press_xy equal "pxy"
variable press_xz equal "pxz"
variable press_yz equal "pyz"

# ---- output ----
print "pypospack:output_section:begin"
pypospack:output_section:begin
print "tot_energy = ${tot_energy}"
tot_energy = -118.347671293792
print "num_atoms = ${natoms}"
num_atoms = 8
print "xx = ${length_x}"
xx = 4.32773421076983
print "yy = ${length_y}"
yy = 4.32773421076983
print "zz = ${length_z}"
zz = 4.32773421076983
print "xy = ${tilt_xy}"
xy = 0
print "xz = ${tilt_xz}"
xz = 0
print "yz = ${tilt_yz}"
yz = 0
print "tot_press = ${tot_press}"
tot_press = -4.39181402043263
print "pxx = ${press_xx}"
pxx = -4.39181402021402
print "pyy = ${press_yy}"
pyy = -4.39181402042068
print "pzz = ${press_zz}"
pzz = -4.39181402066319
print "pxy = ${press_xy}"
pxy = -1.12401857084108e-10
print "pxz = ${press_xz}"
pxz = -1.60347032595802e-10
print "pyz = ${press_yz}"
pyz = -8.89166196817966e-11
print "pypospack:output_section:done"
pypospack:output_section:done
print "pypospack:lammps_sim:done"
pypospack:lammps_sim:done
#------------------------------------------------------------------------------
# RUN THERMOSTAT
# running using an NPT Nose-Hoover style thermostat
#------------------------------------------------------------------------------
variable tempdamp equal 0.1
variable pressdamp equal 1.0
# set initial velocities
velocity all create 900 3605424 mom yes dist gaussian loop all
# fix for Nose-Hoover style thermostat
fix 20 all npt temp 900 900 0.1 aniso 0.0 0.0 1.0 drag 1.0 couple xyz
variable boxx equal lx
variable boxy equal ly
variable boxz equal lz
variable boxp equal press
variable boxt equal temp
# calculate averages every 10000 steps
reset_timestep 0
fix 21 all ave/time 10 10 100 v_boxx v_boxy v_boxz v_boxp v_boxt file lattice.out
thermo_style custom step temp pe ke etotal press lx ly lz press pxx pyy pzz pxy pxz pyz vol
thermo_modify flush yes
thermo 100
run 100000
PPPM initialization ...
  G vector (1/distance) = 0.352508
  grid = 8 8 8
  stencil order = 5
  estimated absolute RMS force accuracy = 4.29555e-05
  estimated relative force accuracy = 2.9831e-06
  using double precision FFTs
  3d grid and FFT values/proc = 3375 512
Memory usage per processor = 3.06549 Mbytes
Step Temp PotEng KinEng TotEng Press Lx Ly Lz Press Pxx Pyy Pzz Pxy Pxz Pyz Volume 
       0          900   -118.34768   0.81433891   -117.53334    10724.668    4.3277342    4.3277342    4.3277342    10724.668    5092.6557     9941.279     17140.07   -262.81664   -1011.0777    3430.0586    81.055361 
     100    455.15043   -117.84701   0.41182967   -117.43518    1934.0316     4.363818     4.363818     4.363818    1934.0316   -11437.875   -649.81302    17889.783    -1969.408     1481.757   -3980.3163    83.099784 
     200    704.57569   -117.84233   0.63751489   -117.20482   -24417.672    4.3815251    4.3815251    4.3815251   -24417.672   -35400.896   -40539.002    2686.8816    1613.5975   -4703.0182   -3095.5616    84.115478 
     300    1056.7944   -117.96236   0.95620981   -117.00615     13244.35    4.3511187    4.3511187    4.3511187     13244.35   -164.99177    8616.1814    31281.861    883.51172    683.05258     1308.884    82.376399 
     400    1307.1603   -118.06088    1.1827461   -116.87814   -18509.796     4.372844     4.372844     4.372844   -18509.796   -15759.554   -32441.425   -7328.4096   -1313.0762    2084.5787   -3559.1779    83.616491 
     500    1139.8466    -117.8155    1.0313572   -116.78415   -25143.516    4.3946233    4.3946233    4.3946233   -25143.516   -39422.215   -29360.041   -6648.2916    1069.0333    1528.0755    2825.1294    84.872105 
     600    737.68803   -117.40445   0.66747563   -116.73698    21738.305    4.3720053    4.3720053    4.3720053    21738.305    1265.9325    5029.8886    58919.093   -1221.4007    7660.6743   -3279.2048     83.56839 
     700    623.99635   -117.29775   0.56460501   -116.73314    18116.606    4.3702621    4.3702621    4.3702621    18116.606    8933.8348   -32715.019    78131.001    2434.7548   -6806.4117    7232.0459    83.468468 
     800    543.40829   -117.22986   0.49168724   -116.73818   -3112.4824    4.3880575    4.3880575    4.3880575   -3112.4824       -25304   -42747.958    58714.511    2934.8212    10358.898    -2070.584     84.49226 
     900    873.44998   -117.52808    0.7903159   -116.73776   -9226.3217    4.3737816    4.3737816    4.3737816   -9226.3217    14720.926   -46917.701    4517.8099   -1768.9363     -3109.53    -2113.157    83.670293 
    1000    1001.1844   -117.64797   0.90589266   -116.74208    1782.6159    4.3703243    4.3703243    4.3703243    1782.6159    6066.0671    5756.0429   -6474.2623   -1932.1178   -727.44261    5152.4331    83.472032 
    1100     770.7461   -117.43645   0.69738727   -116.73906    -6966.729    4.3875696    4.3875696    4.3875696    -6966.729   -11244.049    -29332.79    19676.652    3955.9013    661.53648   -21.878634     84.46408 
    1200    417.65075   -117.10698   0.37789917   -116.72908    10253.067    4.3744196    4.3744196    4.3744196    10253.067    12505.227   -42425.038    60679.013   -4183.8505   -10339.856   -2041.3369    83.706913 
    1300    732.15297   -117.39265   0.66246739   -116.73019   -7205.1931    4.3730954    4.3730954    4.3730954   -7205.1931   -19312.617   -32996.428    30693.466    -466.8475    5404.3622   -3423.6313    83.630913 
    1400    1102.7912   -117.72483   0.99782864     -116.727    -28181.19    4.3831959    4.3831959    4.3831959    -28181.19    -18161.46   -40178.325   -26203.785   -2719.9296   -7416.4207     6677.886    84.211743 
    1500    965.13433   -117.60365   0.87327383   -116.73038     14619.31    4.3678644    4.3678644    4.3678644     14619.31    3914.1311    24205.528     15738.27   -4766.7885    727.36871    899.08736    83.331162 
    1600    805.77109   -117.46315   0.72907861   -116.73407    12360.901     4.371825     4.371825     4.371825    12360.901   -18970.582   -13467.911    69521.197     4801.839    3301.2743    1622.6552     83.55805 
    1700    895.17207   -117.53265    0.8099705   -116.72268   -22895.889    4.3881068    4.3881068    4.3881068   -22895.889   -31127.815   -22412.362   -15147.489   -7828.8707   -3519.8297    7665.2671     84.49511 
    1800    1177.4689   -117.76979    1.0653986   -116.70439   -1443.4368    4.3664415    4.3664415    4.3664415   -1443.4368   -331.29073   -8746.8031    4747.7834   -7107.3378   -3193.6714    -7067.471    83.249752 
    1900    1002.9189   -117.62382   0.90746213   -116.71636    14670.974    4.3676394    4.3676394    4.3676394    14670.974   -13180.166    7033.6667    50159.422   -156.81613    -2607.986    5826.0034    83.318288 
    2000     569.6163   -117.24415    0.5154008   -116.72875    3569.5553    4.3867284    4.3867284    4.3867284    3569.5553   -29933.321   -23658.258    64300.245   -6660.0274    9861.5022    4544.0723    84.415506 
    2100    1022.0616   -117.65643   0.92478283   -116.73165    3825.0632    4.3671667    4.3671667    4.3671667    3825.0632   -14681.427    -15805.12    41961.737   -91.464097   -2068.6636    216.70497    83.291238 
    2200    1196.7798   -117.82474    1.0828716   -116.74187     2336.144    4.3671141    4.3671141    4.3671141     2336.144    -9425.975    17624.031   -1189.6239    4480.2142   -4430.4182    871.38243    83.288224 
    2300    1070.4797   -117.70707   0.96859257   -116.73848   -32914.442    4.3943261    4.3943261    4.3943261   -32914.442   -26747.511   -56385.661   -15610.155   -12116.113    3476.8882   -5163.0179    84.854883 
    2400    622.40953   -117.29237   0.56316922    -116.7292    16883.277     4.365725     4.365725     4.365725    16883.277   -16818.444   -15217.424      82685.7   -6745.7304    1179.8827    3054.4125    83.208774 
    2500    680.63741    -117.3577   0.61585503   -116.74185    11208.645    4.3633826    4.3633826    4.3633826    11208.645   -10998.222   -22681.461     67305.62     6817.352   -230.21911   -4242.9427    83.074914 
    2600    539.41249   -117.23409   0.48807176   -116.74601    3932.6395    4.3932625    4.3932625    4.3932625    3932.6395   -23906.636    -13266.31    48970.863   -7105.5843   -5758.4906    6105.5831    84.793284 
    2700    1179.3488   -117.80656    1.0670996   -116.73946   -14984.877     4.371856     4.371856     4.371856   -14984.877   -19546.951    -23402.75     -2004.93   -89.529582    4622.0832   -6345.9096    83.559831 
    2800    1075.7433   -117.71121   0.97335512   -116.73786   -8060.4065    4.3610571    4.3610571    4.3610571   -8060.4065   -12254.472   -17446.212    5519.4643     3238.762   -7762.3384   -469.85272    82.942153 
    2900    1101.5174   -117.74568    0.9966761     -116.749   -30845.164    4.3884167    4.3884167    4.3884167   -30845.164   -14891.824   -58096.862   -19546.806    649.22764    1665.8275    3267.3759    84.513014 
    3000    920.90571   -117.58171   0.83325484   -116.74845    2190.7629    4.3761749    4.3761749    4.3761749    2190.7629   -21206.984   -2928.1626    30707.435    7029.1348    -386.7572   -9788.3095    83.807716 
    3100    521.41576   -117.21468   0.47178794    -116.7429    38088.178    4.3571606    4.3571606    4.3571606    38088.178   -3623.9926    11735.866    106152.66   -2100.1268   -3648.8166     5023.302    82.720031 
    3200    483.86414   -117.19397   0.43781044   -116.75616   -3920.2072     4.384354     4.384354     4.384354   -3920.2072   -17678.492   -21911.697    27829.567    6491.0328    575.84887   -475.66928    84.278507 
    3300    1145.5131   -117.77627    1.0364843   -116.73979   -19754.802    4.3857664    4.3857664    4.3857664   -19754.802   -21269.967   -39147.181    1152.7439   -3167.7414   -6725.1048    6383.0979    84.359986 
    3400    1228.9835   -117.84602    1.1120101   -116.73401    7106.3277    4.3550442    4.3550442    4.3550442    7106.3277   -14163.744    29343.376    6139.3514   -2482.9568    5161.8473   -6997.6894    82.599552 
    3500    1235.6077   -117.87054    1.1180038   -116.75254   -15612.639    4.3696646    4.3696646    4.3696646   -15612.639    -25928.13   -9439.7009   -11470.086    3912.0924    -6755.722   -1199.5321    83.434237 
    3600    504.73829   -117.19915   0.45669781   -116.74245    8145.3669    4.3938357    4.3938357    4.3938357    8145.3669   -21096.812   -3110.6243    48643.537   -7722.8902    41.764315     3700.052     84.82648 
    3700    1136.5906   -117.74981     1.028411    -116.7214    1635.0141    4.3659012    4.3659012    4.3659012    1635.0141    -22890.69   -6352.8364    34148.569    8034.1019   -6970.3264   -7005.5089    83.218851 
    3800    1131.8558   -117.74857    1.0241269   -116.72445    11550.656    4.3533223    4.3533223    4.3533223    11550.656   -9377.5483    22395.742    21633.772     5375.385    2654.7385    10198.498    82.501615 
    3900    1168.6221   -117.80028    1.0573938   -116.74288    -26901.48     4.386231     4.386231     4.386231    -26901.48   -31274.054   -25508.942   -23921.444    1117.7324   -4218.8113   -11593.245    84.386799 
    4000    876.73135   -117.52536   0.79328495   -116.73208   -9384.0039    4.3827641    4.3827641    4.3827641   -9384.0039   -29137.737   -10374.745    11360.471    3779.7035   -721.95636    9330.3183    84.186854 
    4100    733.56152   -117.38557   0.66374188   -116.72183     45467.53    4.3454435    4.3454435    4.3454435     45467.53    4525.0771     26137.64    105739.87   -6319.5626    679.33474   -711.36441    82.054484 
    4200    568.06296   -117.25982   0.51399531   -116.74582    13122.711    4.3722084    4.3722084    4.3722084    13122.711   -2489.9831   -6541.8864    48400.003   -3973.0031   -9363.7343   -8784.1612     83.58004 
    4300    1076.8411   -117.70958   0.97434842   -116.73524   -35067.538    4.3939987    4.3939987    4.3939987   -35067.538   -34259.668   -49411.948   -21530.998    180.97179    9630.5535    8341.5641    84.835922 
    4400    1249.6677   -117.85834    1.1307256   -116.72761      9543.11    4.3512074    4.3512074    4.3512074      9543.11   -1905.0489    7463.3011    23071.078    4595.1349   -1992.2035   -15732.591    82.381436 
    4500    816.66983   -117.48292   0.73894003   -116.74398    10275.265    4.3576475    4.3576475    4.3576475    10275.265   -3000.9651    7150.4433    26676.316    1225.3055    970.86093    12379.267    82.747766 
    4600    430.70419   -117.11942    0.3897102   -116.72971   -5575.2308    4.3936192    4.3936192    4.3936192   -5575.2308   -22689.008   -48839.625    54802.941   -6880.9632   -552.01851   -4933.9724    84.813939 
    4700     1088.142   -117.70663   0.98457379   -116.72206   -15574.622    4.3676759    4.3676759    4.3676759   -15574.622   -12318.883   -40948.471    6543.4894   -216.90191   -2403.0215    2623.4819    83.320372 
    4800    1069.1818   -117.69067   0.96741814   -116.72325    12921.618    4.3490601    4.3490601    4.3490601    12921.618    2223.8075    27774.884    8766.1615    3664.3549    8804.8677    23.011068     82.25953 
    4900    946.61345   -117.60109   0.85651575   -116.74458   -24809.443    4.3865026    4.3865026    4.3865026   -24809.443   -27557.254   -35482.772   -11388.303    3003.9065   -8948.9964   -8456.2022    84.402474 
    5000    711.55107   -117.37751   0.64382636   -116.73368   -1718.5541    4.3752224    4.3752224    4.3752224   -1718.5541   -10978.633   -37805.179     43628.15    4558.8702   -2603.6068    359.21247    83.753008 
    5100    731.09421   -117.38113    0.6615094   -116.71962    24594.728    4.3503607    4.3503607    4.3503607    24594.728    6687.4738   -3817.8214    70914.531   -1659.4763    11882.686   -6407.9016    82.333351 
    5200    1073.8855    -117.7004   0.97167414   -116.72872   -20929.341    4.3776344    4.3776344    4.3776344   -20929.341   -37967.072   -9642.6917   -15178.258   -1535.0573   -1762.2483    8720.3106    83.891597 
    5300    913.17219    -117.5478   0.82625738   -116.72155   -12319.584    4.3833444    4.3833444    4.3833444   -12319.584   -27124.432   -9640.4426   -193.87802   -1644.0277   -3094.3911    -2388.713    84.220297 
    5400    755.23041   -117.39954   0.68334835   -116.71619    34612.242    4.3501526    4.3501526    4.3501526    34612.242   -1982.2921    -5637.442    111456.46   -2506.2254    57.740415    -3984.987    82.321538 
    5500    482.05844    -117.1813    0.4361766   -116.74512   -3498.4646    4.3728654    4.3728654    4.3728654   -3498.4646   -34738.585   -20832.015    45075.206    2095.9054    5338.6433    1282.6502    83.617721 
    5600    769.30702   -117.43496   0.69608515   -116.73888   -10823.742    4.3823735    4.3823735    4.3823735   -10823.742   -47576.019   -18375.519    33480.312   -445.14973    5159.4383   -3995.3053    84.164347 
    5700    1303.1439   -117.90966     1.179112   -116.73055   -3824.3499    4.3575949    4.3575949    4.3575949   -3824.3499   -19748.295    -493.6232    8768.8688    52.677917   -7936.9876    3324.3256     82.74477 
    5800    991.09076   -117.63559   0.89675975   -116.73883   -6979.3605    4.3655383    4.3655383    4.3655383   -6979.3605    -30854.39   -6280.1263    16196.434    3510.0617    10032.996   -6284.9053    83.198103 
    5900    497.51676   -117.18543   0.45016362   -116.73527   -7042.1972    4.3813811    4.3813811    4.3813811   -7042.1972   -46812.587   -16622.475     42308.47   -358.10548    12124.155    6901.0722    84.107183 
    6000    610.01119   -117.28651   0.55195094   -116.73456    21968.259    4.3604475    4.3604475    4.3604475    21968.259   -20454.952   -4823.6471    91183.376    -3127.492   -3126.9097     2362.385    82.907378 
    6100    938.45554   -117.58766    0.8491343   -116.73853    13227.158    4.3595373    4.3595373    4.3595373    13227.158   -25736.491    14813.126     50604.84   -2383.7242    -5430.199   -10152.694    82.855472 
    6200    1064.9422   -117.70292   0.96358205   -116.73934   -21415.663    4.3729639    4.3729639    4.3729639   -21415.663    -36849.25   -15727.021   -11670.719   -311.27433    8075.1419    2662.1245     83.62337 
    6300    846.24783   -117.49723   0.76570282   -116.73153    301.18574    4.3701758    4.3701758    4.3701758    301.18574   -12379.025    5545.7633    7736.8189    4408.4864    6141.1009    5074.9021    83.463527 
    6400    804.59715    -117.4499   0.72801641   -116.72188    26950.437    4.3636868    4.3636868    4.3636868    26950.437   -13222.653    10780.492    83293.472   -1202.6199   -446.46993    8805.0847    83.092289 
    6500    1147.7481   -117.75948    1.0385066   -116.72097   -8145.8411    4.3664465    4.3664465    4.3664465   -8145.8411   -29823.024   -9951.8216    15337.322   -5636.2698    7762.0366    1844.1783    83.250034 
    6600    1209.6456   -117.82417    1.0945127   -116.72966   -11835.849    4.3681024    4.3681024    4.3681024   -11835.849   -10855.941    1261.2304   -25912.838   -4282.0467   -3813.2067     -4217.51    83.344788 
    6700    924.82732   -117.57312    0.8368032   -116.73631    7131.0253    4.3712112    4.3712112    4.3712112    7131.0253    -5480.883    9353.2317    17520.727    1142.2956    4849.1265   -2172.3525    83.522865 
    6800    926.56591   -117.56741   0.83837631   -116.72903    4256.9061    4.3657031    4.3657031    4.3657031    4256.9061    -15264.31   -13247.918    41282.947    6319.2209     5574.256    6712.8112    83.207524 
    6900    963.91588   -117.59975   0.87217134   -116.72758    7200.9043    4.3657308    4.3657308    4.3657308    7200.9043   -11479.678    4373.3104    28709.081    1824.4787    4200.6515   -5693.4718    83.209105 
    7000    1274.5065   -117.88363    1.1532003   -116.73042    -21505.79    4.3740801    4.3740801    4.3740801    -21505.79   -13405.109   -33583.113   -17529.148   -552.56132   -1789.1804    1283.5381    83.687425 
    7100    786.40723   -117.44059   0.71155779   -116.72903     9189.114    4.3650007    4.3650007    4.3650007     9189.114   -8396.3265    6013.8837    29949.785   -5992.4372   -2560.3137    9050.3188     83.16737 
    7200    711.35346   -117.37099   0.64364756   -116.72735    12747.989     4.362632     4.362632     4.362632    12747.989   -21813.937   -16302.246     76360.15    5470.6245    1237.3068    -6975.219    83.032047 
    7300     921.9766   -117.57012   0.83422381    -116.7359   -17283.871    4.3806212    4.3806212    4.3806212   -17283.871   -35268.773   -23613.931    7031.0912     5009.463    2766.3328    9007.3727    84.063427 
    7400    1080.7364   -117.70486   0.97787296   -116.72699   -11420.304    4.3683114    4.3683114    4.3683114   -11420.304   -20809.903   -19182.659    5731.6497   -8718.3113   -9475.7542    2822.4008    83.356751 
    7500    691.01989   -117.34709   0.62524932   -116.72184    19272.925    4.3564096    4.3564096    4.3564096    19272.925   -11108.561    11077.596     57849.74    1874.7333     3076.114    4476.9887    82.677268 
    7600    553.78441   -117.22954   0.50107577   -116.72847   -8522.6787    4.3770265    4.3770265    4.3770265   -8522.6787   -49361.434   -9564.4468    33357.845   -1107.9452   -4154.1508   -2159.7362    83.856652 
    7700     902.0275   -117.53298   0.81617344    -116.7168   -25005.171    4.3749344    4.3749344    4.3749344   -25005.171   -51088.618   -19701.852   -4225.0432    -5244.418    2899.3591    7375.0069    83.736467 
    7800    959.71627   -117.57993   0.86837145   -116.71156    1890.0094    4.3547224    4.3547224    4.3547224    1890.0094   -21861.587   -10815.292    38346.907    6417.2081    1249.0569     12642.65    82.581245 
    7900    468.58011   -117.16031   0.42398114   -116.73633    8035.2146    4.3699509    4.3699509    4.3699509    8035.2146   -43626.763    11221.374    56511.033    1608.9307   -3976.2593   -6192.8919    83.450641 
    8000    618.88654   -117.29781   0.55998155   -116.73782    178.39388    4.3758572    4.3758572    4.3758572    178.39388   -35803.073   -13487.613    49825.867   -942.71753     6155.876    1113.7205    83.789466 
    8100    1006.9306   -117.63785   0.91109201   -116.72676   -12682.104    4.3650582    4.3650582    4.3650582   -12682.104   -28556.431   -12734.963    3245.0818    3087.2579    1310.1967     2665.031    83.170651 
    8200    971.24014   -117.60664   0.87879849   -116.72784   -12378.352    4.3687967    4.3687967    4.3687967   -12378.352   -44647.278    5793.2005    1719.0221    1764.6012    1674.1224    1270.8177    83.384531 
    8300    726.18666   -117.38326   0.65706895   -116.72619    9570.4352    4.3734277    4.3734277    4.3734277    9570.4352   -23519.096    3120.2871    49110.114   -2318.2675   -12928.988    5434.9847    83.649984 
    8400     807.0168    -117.4545   0.73020576    -116.7243    14553.778    4.3689123    4.3689123    4.3689123    14553.778    -8580.052   -5696.4529    57937.839    197.55491    888.14127   -4862.9915    83.391152 
    8500    1104.6592   -117.72834   0.99951885   -116.72882   -2731.3348    4.3686254    4.3686254    4.3686254   -2731.3348   -21440.993    7697.6483    5549.3407    4757.3968    9930.5436    9316.7895    83.374729 
    8600    1354.4931   -117.95731    1.2255738   -116.73174   -14655.117    4.3693491    4.3693491    4.3693491   -14655.117   -18942.477   -20539.817   -4483.0568    1651.7767   -6213.2274   -5603.6524     83.41617 
    8700    939.04996   -117.57539   0.84967214   -116.72571    14189.913    4.3686717    4.3686717    4.3686717    14189.913   -7670.2383    12737.761    37502.215    870.46882   -5405.9074   -749.30023    83.377375 
    8800    1107.2115   -117.72504    1.0018282   -116.72321    4003.6259    4.3653602    4.3653602    4.3653602    4003.6259   -4487.6503   -16701.964    33200.492    297.65151    3708.3218    12805.826    83.187918 
    8900    1222.2741   -117.83121    1.1059393   -116.72527    -5046.459    4.3683911    4.3683911    4.3683911    -5046.459   -7842.2366   -7686.4389    389.29862    4997.7064   -13084.403   -3578.7738    83.361311 
    9000    1024.9552   -117.64981   0.92740096   -116.72241      777.644    4.3783328    4.3783328    4.3783328      777.644   -16352.818    -9161.687    27847.437    10401.846    7616.1553    5850.4249    83.931755 
    9100      851.163   -117.48977   0.77015017   -116.71962    11658.749     4.365503     4.365503     4.365503    11658.749   -16007.097   -20610.149    71593.492    2542.8801    11052.602   -5003.3143    83.196079 
    9200    901.83431   -117.54858   0.81599864   -116.73258    7078.8685    4.3568752    4.3568752    4.3568752    7078.8685    -3216.099   -3982.6395    28435.344    2746.7017    -10242.21   -815.51458    82.703783 
    9300    1206.0876   -117.82815    1.0912934   -116.73686   -26665.922    4.3801185    4.3801185    4.3801185   -26665.922   -41969.511   -15040.821   -22987.433   -1755.2545    -9127.906    4280.4941    84.034491 
    9400    881.29546   -117.52225   0.79741465   -116.72484    -23.84622    4.3749059    4.3749059    4.3749059    -23.84622   -22529.902   -22399.493    44857.856   -602.69097    3469.9716   -5761.9071    83.734829 
    9500    599.78467    -117.2599   0.54269777    -116.7172     24543.49    4.3515437    4.3515437    4.3515437     24543.49   -4253.6121    1548.5354    76335.547    9185.8733    1394.3519   -3290.7578    82.400541 
    9600    691.96165   -117.36144   0.62610144   -116.73533   -10537.713    4.3733953    4.3733953    4.3733953   -10537.713   -53447.372   -10475.969    32310.203    6082.1491   -8715.8581     8443.594    83.648122 
    9700     1150.242   -117.76543    1.0407631   -116.72467   -38100.233    4.3813778    4.3813778    4.3813778   -38100.233    -63009.84   -32734.913   -18555.947    229.01431   -8071.1799    -9587.727    84.106991 
    9800    792.44837   -117.43748   0.71702394   -116.72046    14878.001    4.3514567    4.3514567    4.3514567    14878.001   -8266.6747    2910.7653    49989.912    4595.5141    1633.5208    5990.1828    82.395597 
    9900    440.71109   -117.13093   0.39876465   -116.73217    9764.6803    4.3652866    4.3652866    4.3652866    9764.6803   -28341.579    915.19915     56720.42     3494.385     924.1354   -4257.4938    83.183709 
   10000    954.14677   -117.58183   0.86333205    -116.7185   -31046.374    4.3825548    4.3825548    4.3825548   -31046.374   -66106.686   -23798.478   -3233.9579    1354.6923    3333.3786   -2435.3015    84.174797 
   10100    667.43449   -117.30756   0.60390875   -116.70365    4868.6899    4.3660757    4.3660757    4.3660757    4868.6899   -30584.771    1943.4241    43247.417    7336.2683   -3796.7246    -73.10959    83.228831 
   10200    731.59922   -117.36375   0.66196635   -116.70178    4697.0347    4.3644527    4.3644527    4.3644527    4697.0347   -23040.079    2936.6989    34194.484    5760.8461    1708.2264   -4160.4035     83.13605 
   10300    974.14417   -117.58279   0.88142612   -116.70137   -17990.136    4.3781712    4.3781712    4.3781712   -17990.136   -33778.339    -20706.28     514.2107   -2939.8141   -6167.8878    239.71889    83.922465 
   10400    769.99866   -117.39673   0.69671097   -116.70002    15567.638     4.363856     4.363856     4.363856    15567.638   -12395.218    3468.4659    55629.668    -626.4762   -730.04019     5805.396    83.101953 
   10500    1045.1323     -117.655   0.94565767   -116.70934    -12289.91    4.3679933    4.3679933    4.3679933    -12289.91   -29939.144   -12765.984    5835.3992    10477.522   -14147.305   -7919.7213    83.338542 
   10600    1209.2062   -117.81104    1.0941152   -116.71693   -19579.105    4.3722142    4.3722142    4.3722142   -19579.105   -32536.389   -7129.6132   -19071.314    6924.4764    837.80885    3536.8299    83.580372 
   10700    864.32514    -117.5044   0.78205955   -116.72234    30009.583    4.3618992    4.3618992    4.3618992    30009.583   -11059.176    13566.841    87521.082   -786.31648   -3411.0037   -5190.1292    82.990212 
   10800    849.16972   -117.49982   0.76834661   -116.73147   -1563.8851    4.3799285    4.3799285    4.3799285   -1563.8851   -25267.682   -20307.895    40883.922    5956.6954   -4026.6602    11348.189    84.023559 
   10900    1170.0539   -117.78672    1.0586894   -116.72803   -12969.074    4.3712939    4.3712939    4.3712939   -12969.074   -27067.061   -2547.5728   -9292.5901     412.3356   -328.87143    4083.1987    83.527601 
   11000    1205.9414   -117.81216    1.0911611     -116.721    11286.515    4.3574006    4.3574006    4.3574006    11286.515    -2967.333    18187.823    18639.055    4624.5065   -5510.4617   -6133.4316    82.733705 
   11100    773.67836   -117.42293   0.70004044   -116.72289   -35.166776    4.3812246    4.3812246    4.3812246   -35.166776   -32238.021   -17929.288    50061.808    14717.579   -389.65719    8703.8733     84.09817 
   11200    963.56992   -117.58827   0.87185832   -116.71642   -14256.638    4.3738732    4.3738732    4.3738732   -14256.638   -49118.463   -4143.0808    10491.629    3054.9918    8094.3517   -7647.6058    83.675546 
   11300    1214.1827    -117.8104     1.098618   -116.71179    2932.4848    4.3513616    4.3513616    4.3513616    2932.4848   -17247.413    15380.742    10664.126   -491.89578   -13077.049    2431.9315    82.390192 
   11400    478.89792     -117.163   0.43331691   -116.72968    5072.1377    4.3772161    4.3772161    4.3772161    5072.1377   -29842.404    2.5940775    45056.223     9105.225    4510.5985   -6077.9465    83.867553 
   11500    759.61335   -117.40286   0.68731412   -116.71555   -10495.337    4.3769156    4.3769156    4.3769156   -10495.337   -50269.345   -1994.3802    20777.712    4159.8115    7022.6316   -2621.2891    83.850277 
   11600    892.94163   -117.52222   0.80795236   -116.71427   -6670.1158    4.3609313    4.3609313    4.3609313   -6670.1158   -47486.654    12404.843    15071.463   -1650.7427   -3430.7995   -9430.0573    82.934977 
   11700    722.66082   -117.37991    0.6538787   -116.72603   -12115.672    4.3705053    4.3705053    4.3705053   -12115.672   -56458.634   -3979.7455    24091.363    6219.2188    4461.7503    10057.538    83.482403 
   11800    636.78909   -117.29551   0.57618015   -116.71933   -2462.4392    4.3773637    4.3773637    4.3773637   -2462.4392   -41007.871   -12789.287    46409.841    4285.0321    2714.4522   -6144.0706    83.876036 
   11900    834.14863   -117.46381   0.75475521   -116.70906    -4900.546    4.3709535    4.3709535    4.3709535    -4900.546   -30906.571    17481.182   -1276.2488    -431.8033   -9225.9508    15384.282    83.508092 
   12000    570.78102   -117.22527   0.51645466   -116.70881    11394.389    4.3629402    4.3629402    4.3629402    11394.389    -31366.22   -8562.9884    74112.374    8488.3851    249.86491   -372.30772    83.049644 
   12100    984.71159   -117.60401   0.89098774   -116.71303    -12143.74    4.3712434    4.3712434    4.3712434    -12143.74   -45277.357    14892.752   -6046.6151     856.9141   -4872.8173   -97.398184     83.52471 
   12200    707.05695   -117.35018   0.63975999   -116.71042    2249.5124    4.3827795    4.3827795    4.3827795    2249.5124   -35962.648   -9551.8531    52263.039    -2465.882    2709.8487    52.442138    84.187745 
   12300    1142.3167   -117.73762    1.0335921   -116.70403    5820.8437    4.3606782    4.3606782    4.3606782    5820.8437   -16436.034     5825.277    28073.288    10997.225   -2805.6052   -9557.8718    82.920538 
   12400    1105.7566   -117.71227    1.0005118   -116.71175    5131.5963    4.3623114    4.3623114    4.3623114    5131.5963   -15005.731    8245.8699     22154.65     7124.816    13984.035   -2246.1601    83.013742 
   12500    935.56491   -117.56312   0.84651879    -116.7166   -8461.4523     4.385659     4.385659     4.385659   -8461.4523   -30282.542   -36717.612    41615.797   -10722.017   -6083.0343   -2440.1445    84.353786 
   12600    938.57909   -117.56777   0.84924608   -116.71853    18428.088    4.3665418    4.3665418    4.3665418    18428.088   -13117.313   -1634.4428     70036.02   -809.61131   -9982.1295    2380.3563    83.255489 
   12700    1178.1645   -117.79978     1.066028   -116.73375    8095.0228    4.3607654    4.3607654    4.3607654    8095.0228   -14813.157   -835.81566    39934.041    9649.5172    5852.6828     5501.063    82.925512 
   12800    1179.5816   -117.80604    1.0673102   -116.73873   -28482.781    4.3832471    4.3832471    4.3832471   -28482.781   -38221.255    -36564.67   -10662.417   -2816.1667    4628.0101   -9886.3824    84.214694 
   12900    729.05936   -117.38001   0.65966823   -116.72035    21823.078     4.369446     4.369446     4.369446    21823.078   -3145.3647     3721.822    64892.775    3509.6035   -6169.8075    2607.2883     83.42172 
   13000    1195.0071   -117.79177    1.0812675   -116.71051   -6722.0525    4.3712017    4.3712017    4.3712017   -6722.0525   -25593.574   -11539.624    16967.041     2428.507    11223.329     2519.019    83.522319 
   13100    820.94712   -117.45303    0.7428102   -116.71022   -9378.8556    4.3780721    4.3780721    4.3780721   -9378.8556   -39673.789   -26982.291    38519.513   -9094.8866   -4690.3401   -6536.3859    83.916764 
   13200    640.69625   -117.28876   0.57971543   -116.70905    18228.392    4.3641127    4.3641127    4.3641127    18228.392   -3723.9879     6755.877    51653.286   -1757.7159    1107.0074    2868.3097    83.116619 
   13300    1089.0839   -117.69944   0.98542599   -116.71401   -19776.811    4.3794307    4.3794307    4.3794307   -19776.811   -52372.587   -17499.666    10541.821    5595.8046   -7092.6199    -1920.199    83.994909 
   13400    617.84154   -117.27185   0.55903601   -116.71281   -8146.8814      4.38251      4.38251      4.38251   -8146.8814   -65245.253    2646.4728    38158.136   -1757.6257    485.44297    375.54334    84.172211 
   13500    445.08884   -117.11504   0.40272573   -116.71232    29727.366    4.3573975    4.3573975    4.3573975    29727.366   -30379.672    8365.2034    111196.57   -3921.1371    3634.3379    13297.843    82.733525 
   13600    545.02621   -117.23052   0.49315117   -116.73737    4801.3503    4.3763304    4.3763304    4.3763304    4801.3503   -35938.728    5592.5985    44750.181    3786.9669   -4619.7467   -10067.183    83.816654 
   13700    981.07095   -117.61917   0.88769362   -116.73148    -32483.66    4.3788825    4.3788825    4.3788825    -32483.66   -68676.552   -15295.805   -13478.624   -1328.8064    -985.0475    6125.0012    83.963371 
   13800    466.55133   -117.14172   0.42214545   -116.71958    21055.056    4.3574301    4.3574301    4.3574301    21055.056   -27673.217    36436.683    54401.703   -8179.1616    5729.0139   -8944.1368    82.735382 
   13900    928.55501   -117.55912   0.84017608   -116.71894   -3781.0164    4.3754242    4.3754242    4.3754242   -3781.0164   -37541.017   -7047.8643    33245.832    625.40002   -6420.1525   -10976.965    83.764598 
   14000    974.79939   -117.59067   0.88201897   -116.70865   -13263.263    4.3820646    4.3820646    4.3820646   -13263.263   -42539.819     8878.644    -6128.614   -7332.3859    8361.5105    5215.8999    84.146554 
   14100    599.28423   -117.25034   0.54224496   -116.70809    17618.147    4.3598595    4.3598595    4.3598595    17618.147   -22995.262    16595.369    59254.334   -8785.4313    7010.7252   -2731.3955    82.873842 
   14200    1203.7907   -117.80675    1.0892152   -116.71753   -239.99083    4.3662931    4.3662931    4.3662931   -239.99083   -25824.274   -5005.6329    30109.934     6290.293    -4263.338    12063.208    83.241264 
   14300    1196.3084   -117.80887     1.082445   -116.72642   -17330.468    4.3864996    4.3864996    4.3864996   -17330.468   -41298.814    18542.027   -29234.617   -72.464188    6290.5561   -2427.2656    84.402297 
   14400    942.11935    -117.5786   0.85244939   -116.72615    13038.827    4.3632702    4.3632702    4.3632702    13038.827   -17620.555    4434.2633    52302.772   -14273.363   -1061.3084    -3757.995    83.068493 
   14500    848.16788   -117.49002   0.76744012   -116.72258    27465.803    4.3618488    4.3618488    4.3618488    27465.803   -5465.5526    42645.234    45217.728   -4385.5803   -6206.9546    4646.6109    82.987335 
   14600    1383.0899   -117.96979    1.2514488   -116.71834   -25749.628    4.3848988    4.3848988    4.3848988   -25749.628    -34472.27   -10660.908   -32115.708    6712.0445    4371.0758   -932.76565    84.309928 
   14700      950.496   -117.57734   0.86002875   -116.71731    2920.5256     4.367889     4.367889     4.367889    2920.5256     -20487.4    1295.1727    27953.804   -4821.9939   -3726.2998   -7722.9174    83.332569 
   14800    993.02547   -117.60921   0.89851031    -116.7107    23925.874    4.3543077    4.3543077    4.3543077    23925.874   -1035.2755    6586.8219    66226.076   -1735.1989    6512.8164    4076.2065    82.557656 
   14900    1249.6011   -117.84506    1.1306654    -116.7144   -30555.144    4.3852834    4.3852834    4.3852834   -30555.144    -41016.59   -26114.481   -24534.361   -436.86268   -1152.7224   -6331.8285    84.332116 
   15000    645.42132   -117.29623   0.58399077   -116.71223   -8200.2554    4.3748172    4.3748172    4.3748172   -8200.2554   -38080.507   -33504.494    46984.234   -8752.2629    3296.8854    14147.559    83.729741 
   15100    767.29159   -117.40543   0.69426155   -116.71117    24166.959    4.3469175    4.3469175    4.3469175    24166.959   -20215.267    31044.481    61671.663   -1622.3045    461.84143   -6874.7065    82.138015 
   15200    1043.4043   -117.67442   0.94409409   -116.73033   -21286.871    4.3803116    4.3803116    4.3803116   -21286.871   -43840.623    4530.5371   -24550.526    3114.2623    4610.0875    5841.9767    84.045606 
   15300    480.81647   -117.16069   0.43505285   -116.72563   -14855.893    4.3821315    4.3821315    4.3821315   -14855.893   -56692.307     2616.225    9508.4028   -3711.5991   -7972.9586    2600.4318    84.150403 
   15400    406.48893   -117.07521   0.36779972   -116.70741    36955.887    4.3434148    4.3434148    4.3434148    36955.887   -24189.553     75076.14    59981.075   -4060.5068     10419.18   -1743.7378    81.939618 
   15500    992.23534   -117.62072   0.89779539   -116.72293   -21887.136    4.3740401    4.3740401    4.3740401   -21887.136   -65298.166    12773.468    -13136.71    3556.9638   -5897.2371   -11998.177    83.685128 
   15600    317.03582   -116.99427   0.28686067   -116.70741   -1220.0397    4.3868481    4.3868481    4.3868481   -1220.0397    -39194.38    3177.7488    32356.512    3872.2917    1341.7777    4515.0483    84.422417 
   15700    999.79123   -117.59395   0.90463212   -116.68932    7272.3635    4.3541318    4.3541318    4.3541318    7272.3635    1110.1734    8969.6309    11737.286   -4743.6263   -10.957997    5745.4525    82.547649 
   15800    803.52082   -117.42929   0.72704252   -116.70225    3204.3488    4.3706494    4.3706494    4.3706494    3204.3488   -31485.411     3504.793    37593.665   -3235.8249     6391.389   -1359.9347    83.490661 
   15900    1064.8226   -117.66366   0.96347385   -116.70018   -32285.545    4.3791956    4.3791956    4.3791956   -32285.545   -35407.553   -39532.775   -21916.306    2454.4372    872.85433    10363.589    83.981387 
   16000    743.87427    -117.3719   0.67307307   -116.69883    17288.794    4.3595206    4.3595206    4.3595206    17288.794   -4948.4312    14633.725    42181.086   -5015.8988   -6075.2828    3644.4252     82.85452 
   16100    1135.4746   -117.73046    1.0274013   -116.70306   -6731.0336     4.376738     4.376738     4.376738   -6731.0336   -13202.463   -3569.6338   -3421.0035   -10459.431    4241.3196    1800.9343    83.840075 
   16200    916.10121   -117.52856   0.82890762   -116.69966    10358.793    4.3737696    4.3737696    4.3737696    10358.793   -9403.7848    19812.697    20667.466   -3034.3198    619.35941   -8248.4692    83.669604 
   16300    1022.7984   -117.62436   0.92544948   -116.69891    7486.9278    4.3603726    4.3603726    4.3603726    7486.9278   -2774.5989    30296.406   -5061.0239   -1444.2588    5456.3089    3385.4329    82.903107 
   16400     1003.755   -117.61662   0.90821864    -116.7084   -8912.2741    4.3780389    4.3780389    4.3780389   -8912.2741   -22019.069    -11372.12     6654.366    2279.3163   -392.45985    3518.2694    83.914853 
   16500    1294.3525   -117.87098    1.1711574   -116.69983   -5838.7743    4.3708811    4.3708811    4.3708811   -5838.7743   -14089.667    22080.248   -25506.904    1754.1647   -7610.7879   -528.14511    83.503941 
   16600    1046.0312   -117.64975   0.94647103   -116.70328    2730.3647    4.3626427    4.3626427    4.3626427    2730.3647   -3681.6193   -14753.127     26625.84    2493.1389    6818.7928   -2664.0753    83.032659 
   16700    1150.3923   -117.75131    1.0408991   -116.71041   -27162.569      4.37469      4.37469      4.37469   -27162.569    -14308.13   -34195.326   -32984.251    8962.2287    5988.5601    17712.488    83.722432 
   16800    1182.0046   -117.77454    1.0695026   -116.70503   -11002.306    4.3723628    4.3723628    4.3723628   -11002.306   -18529.543    -5012.093   -9465.2826    4064.8676    1292.4581   -4546.5462    83.588891 
   16900    938.89447   -117.55483   0.84953145    -116.7053     7922.706    4.3669797    4.3669797    4.3669797     7922.706   -20716.665     37071.73     7413.053    4101.9702   -4752.8386     288.7305    83.280539 
   17000    1066.2693   -117.67021   0.96478286   -116.70543    -8055.618    4.3672109    4.3672109    4.3672109    -8055.618   -18568.113    3834.8874   -9433.6279   -988.48938    4053.8295    9641.2565    83.293766 
   17100     768.2619   -117.40844   0.69513951    -116.7133    4949.6479    4.3723872    4.3723872    4.3723872    4949.6479   -17631.748      18354.5    14126.191    -7835.523   -1075.3017    4042.6976    83.590293 
   17200    1089.0098   -117.69661   0.98535897   -116.71125    -7952.407    4.3712489    4.3712489    4.3712489    -7952.407   -33664.568     30942.91   -21135.563   -573.62553   -10425.178   -1324.9294    83.525022 
   17300    818.85454   -117.45153   0.74091679   -116.71061    8975.5016    4.3633655    4.3633655    4.3633655    8975.5016   -24829.261   -1216.7664    52972.533   -12518.935    63.564472    5002.6862    83.073934 
   17400    836.06094   -117.47018   0.75648551   -116.71369   -25569.873       4.3749       4.3749       4.3749   -25569.873   -41663.002   -11195.645   -23850.973   -475.92057    7063.3489    7863.8476     83.73449 
   17500    967.62273   -117.58042   0.87552538    -116.7049   -10242.707    4.3666588    4.3666588    4.3666588   -10242.707   -29638.771    4612.3897   -5701.7413    2863.7356   -2391.6765     4241.733    83.262179 
   17600    705.11721   -117.34462   0.63800487   -116.70662    17848.173    4.3657539    4.3657539    4.3657539    17848.173   -15451.411    31130.203    37865.725    1972.2669    667.39817   -3605.7813    83.210429 
   17700    768.65534    -117.4015   0.69549551     -116.706   -23043.606    4.3776707    4.3776707    4.3776707   -23043.606   -49379.938    6219.3927   -25970.273    104.81798    8289.6254    8784.2481    83.893684 
   17800    584.99967   -117.23281   0.52931999   -116.70349    2461.7949    4.3611052    4.3611052    4.3611052    2461.7949   -41305.417    30588.619    18102.182   -3253.5383   -468.12094    4307.3424    82.944903 
   17900    1042.5436   -117.65231   0.94331539     -116.709   -8667.7469    4.3653506    4.3653506    4.3653506   -8667.7469   -34421.201    17741.858   -9323.8976    7527.9281   -1475.9863   -12398.634    83.187367 
   18000    648.14321   -117.29435    0.5864536   -116.70789   -1831.0202    4.3798682    4.3798682    4.3798682   -1831.0202   -14041.982   -460.46964    9009.3906    1419.9891   -4075.8957    9766.4885    84.020085 
   18100    1101.9242   -117.69948   0.99704422   -116.70243   -18533.706    4.3617333    4.3617333    4.3617333   -18533.706   -23719.363   -6987.9468   -24893.809    7219.1326     4072.907    15940.692    82.980743 
   18200    853.46095   -117.48341   0.77222941   -116.71118     8256.073    4.3601472    4.3601472    4.3601472     8256.073   -11179.322    16889.041      19058.5     353.9389    1670.6091   -2389.5681     82.89025 
   18300    955.96742   -117.57691   0.86497941   -116.71193   -10480.722     4.380128     4.380128     4.380128   -10480.722   -24422.139    14357.266   -21377.294   -458.10439    458.25852    1509.2196    84.035039 
   18400    958.65818   -117.57672   0.86741407    -116.7093    12985.844    4.3616453    4.3616453    4.3616453    12985.844      6590.73    23408.004    8958.7963   -5403.2412    2589.0083    9988.6059    82.975723 
   18500    799.94545   -117.43696   0.72380745   -116.71316    25196.281    4.3626342    4.3626342    4.3626342    25196.281    20488.052    51618.253    3482.5376   -5823.0395     1109.572     7085.071    83.032171 
   18600    1045.6298   -117.65266   0.94610786   -116.70655   -12772.844    4.3838298    4.3838298    4.3838298   -12772.844   -8898.6951   -10627.077    -18792.76    4256.0172    2655.0262   -5205.5276    84.248281 
   18700     1068.233   -117.66245   0.96655964   -116.69589    5319.1255     4.362791     4.362791     4.362791    5319.1255    7320.7688    6071.4263    2565.1815   -6812.7224    3306.8349    2024.9979    83.041127 
   18800    1048.6658   -117.64882   0.94885487   -116.69996    10155.831    4.3592962    4.3592962    4.3592962    10155.831    19309.276     16326.21   -5167.9924    8017.6074   -7933.5323    7232.9163    82.841728 
   18900    971.97001   -117.58228   0.87945889   -116.70282   -11527.599    4.3806357    4.3806357    4.3806357   -11527.599   -9444.9152   -18954.874   -6183.0074    3940.8055    2970.2001   -1954.9764    84.064266 
   19000    1066.5413   -117.66597   0.96502901   -116.70095   -5217.4349    4.3665781    4.3665781    4.3665781   -5217.4349    -8646.282   -5161.0587   -1844.9639   -2636.9582    2960.4649   -2694.1868    83.257565 
   19100    708.19577   -117.35042   0.64079041   -116.70962    21484.065    4.3579736    4.3579736    4.3579736    21484.065    15299.286    33111.539    16041.369    3496.3242   -1605.3211    14687.675    82.766344 
   19200    892.93327   -117.51896   0.80794479   -116.71102   -9845.3197    4.3757323    4.3757323    4.3757323   -9845.3197    -20420.11    24067.456   -33183.304    7633.8918   -3078.2856   -3120.1678     83.78229 
   19300    725.45097   -117.36143   0.65640328   -116.70503   -5643.2173    4.3726501    4.3726501    4.3726501   -5643.2173   -18484.331   -19644.711    21199.391    11605.543   -4035.3881   -4881.7772    83.605368 
   19400     906.4219   -117.51792   0.82014959   -116.69777   -5181.9384    4.3584707    4.3584707    4.3584707   -5181.9384    1727.2649   -7115.8407   -10157.239      -4126.1    7301.6338    6214.0638    82.794672 
   19500    629.74373    -117.2785   0.56980536   -116.70869    16413.144    4.3667274    4.3667274    4.3667274    16413.144    15174.198    17765.131    16300.104   -1689.3261   -9506.3189     3782.999    83.266101 
   19600    887.98354   -117.50894   0.80346617   -116.70547   -6166.2356    4.3729318    4.3729318    4.3729318   -6166.2356     -24969.3    3087.9041    3382.6886   -1981.3171    -3533.556   -11204.723    83.621529 
   19700    551.59902   -117.20475   0.49909839   -116.70565    6122.3508     4.361597     4.361597     4.361597    6122.3508   -6462.4386    9992.7009     14836.79    3156.8147    3481.8759   -3455.4953    82.972966 
   19800    645.27603   -117.29417   0.58385931   -116.71031    4255.8777    4.3635599    4.3635599    4.3635599    4255.8777    -24473.54    30441.922    6799.2511   -8449.5003   -5457.3685    9090.5309    83.085041 
   19900    779.35203   -117.41182   0.70517409   -116.70665    2809.4453    4.3752537    4.3752537    4.3752537    2809.4453   -12274.002    39543.974   -18841.636    3015.6707    777.39639   -2724.1967    83.754804 
   20000    650.07763   -117.29302    0.5882039   -116.70481   -3477.2768    4.3695278    4.3695278    4.3695278   -3477.2768   -10750.637   -18336.572    18655.378    5694.3295    3788.6428    -6881.529    83.426401 
   20100    775.46632   -117.40144   0.70165822   -116.69978   -6221.0478    4.3572225    4.3572225    4.3572225   -6221.0478   -22156.216    6235.9312    -2742.859    -4780.955    838.56996   -2644.9527     82.72356 
   20200    838.91831   -117.46714   0.75907091   -116.70807    996.27783    4.3681152    4.3681152    4.3681152    996.27783   -29208.013    22526.102    9670.7439    4282.9405    1003.0384    4879.1426    83.345519 
   20300        747.7   -117.38392   0.67653468   -116.70739   -7488.0881    4.3731756    4.3731756    4.3731756   -7488.0881   -28871.978    21581.409   -15173.695   -4354.3034    4059.1613   -4169.6183    83.635519 
   20400    634.20455   -117.27777    0.5738416   -116.70393     12668.49    4.3633708    4.3633708    4.3633708     12668.49    10460.056     17985.48    9559.9338    8673.7981   -1250.5537   -9454.0093    83.074237 
   20500    1015.5826   -117.62228   0.91892046   -116.70335   -6705.4017    4.3723998    4.3723998    4.3723998   -6705.4017   -24985.424    21042.703   -16173.484    131.21183    2910.7353     3127.619    83.591016 
   20600    749.76501   -117.38288   0.67840314   -116.70447    11288.159    4.3652091    4.3652091    4.3652091    11288.159   -3462.8955    16648.865    20678.508    -77.99568    2207.6702   -6930.0564     83.17928 
   20700    933.83843   -117.55271   0.84495663   -116.70776   -6548.9024    4.3661868    4.3661868    4.3661868   -6548.9024   -2170.4775    2564.5724   -20040.802   -4895.3498   -247.19372    765.54224    83.235181 
   20800    873.39907    -117.4946   0.79026983   -116.70433   -2315.7189    4.3780268    4.3780268    4.3780268   -2315.7189   -19099.155   -6073.9172    18225.915   -812.67007    -2676.905    6354.9935     83.91416 
   20900    1184.8265   -117.76812    1.0720559   -116.69607    17804.622    4.3528156    4.3528156    4.3528156    17804.622    27313.323    23090.428    3010.1151    7517.5281    -3452.005   -2755.7525    82.472813 
   21000    537.01783   -117.20503   0.48590502   -116.71913    18095.553    4.3668841    4.3668841    4.3668841    18095.553   -5844.4382    40228.201    19902.897   -3539.0892    3346.7157   -10465.055    83.275066 
   21100    1078.2817   -117.68013   0.97565194   -116.70448   -33929.002    4.3851709    4.3851709    4.3851709   -33929.002   -32318.884    -26722.59   -42745.533   -3461.2673   -2101.3629   -9064.5732    84.325623 
   21200    1121.1775   -117.70662    1.0144649   -116.69215    27661.579    4.3447758    4.3447758    4.3447758    27661.579    23113.719    18200.077     41670.94   -4582.9135   -3870.1412    1848.2442    82.016665 
   21300    889.60754   -117.51974    0.8049356   -116.71481   -405.83552    4.3671714    4.3671714    4.3671714   -405.83552   -1604.5146   -5479.7557    5866.7637    10772.268    8470.5954   -7281.0513    83.291506 
   21400    941.01134   -117.55854   0.85144684   -116.70709   -30082.194    4.3819594    4.3819594    4.3819594   -30082.194   -37473.771   -32101.104   -20671.708    4791.7443    232.11902   -16728.461    84.140492 
   21500    1005.3014   -117.60724   0.90961779   -116.69762    24662.408    4.3487433    4.3487433    4.3487433    24662.408    40596.789    1671.1217    31719.312   -10202.962     -1274.86    6399.9752    82.241555 
   21600    1286.6865   -117.87251     1.164221   -116.70829    -20281.66     4.370772     4.370772     4.370772    -20281.66   -16035.657   -19384.044    -25425.28    6259.4868    6119.0088    6716.4334    83.497692 
   21700    851.29269   -117.47917   0.77026752    -116.7089   -11409.866    4.3723617    4.3723617    4.3723617   -11409.866   -10931.558    -16053.35   -7244.6914    4492.5566    12732.801       2381.7    83.588829 
   21800    1194.0737   -117.77867     1.080423   -116.69824    11431.013     4.351105     4.351105     4.351105    11431.013     18440.98    21034.275   -5182.2153    6680.4087   -1034.3012   -10013.748    82.375617 
   21900    905.08493   -117.53339   0.81893987   -116.71445   -4605.9582    4.3829363    4.3829363    4.3829363   -4605.9582     -1916.33   -6548.2765    -5353.268   -1416.9202    3667.5469   -297.09992    84.196777 
   22000    1244.9728   -117.83651    1.1264775   -116.71003   -21575.257    4.3694999    4.3694999    4.3694999   -21575.257   -28115.736   -16550.165    -20059.87     -10853.5    3310.6472    1749.4176    83.424806 
   22100    648.07975   -117.28599   0.58639618   -116.69959     48117.75    4.3417248    4.3417248    4.3417248     48117.75    44843.362    58384.432    41125.457     1925.199    3347.5068    -9728.184    81.844005 
   22200    1037.6067   -117.65197   0.93884835   -116.71312   -26113.059     4.387402     4.387402     4.387402   -26113.059   -29527.424   -19864.145   -28947.607   -4607.7796   -6597.4299    2284.0187    84.454402 
   22300    1068.3979   -117.67212   0.96670883   -116.70541   -11732.299    4.3693958    4.3693958    4.3693958   -11732.299     4714.299   -6256.0322   -33655.165   -607.33233    64.018767     5209.622    83.418843 
   22400    893.60313   -117.49717   0.80855089   -116.68862     39987.45    4.3318298    4.3318298    4.3318298     39987.45    20391.903    66150.102    33420.346    7885.9326    6044.5164   -12936.003    81.285703 
   22500    968.94428   -117.58893   0.87672115   -116.71221   -30453.393    4.3869018    4.3869018    4.3869018   -30453.393   -21070.303    -35059.25   -35230.626   -489.14411    2812.8694    5059.0069     84.42552 
   22600    884.19279   -117.50418   0.80003622   -116.70414   -19412.775    4.3750857    4.3750857    4.3750857   -19412.775   -23439.176    1716.5819   -36515.732    2823.8816    4093.7895     21547.81    83.745157 
   22700    1009.5521   -117.59325     0.913464   -116.67978    24773.349    4.3322207    4.3322207    4.3322207    24773.349    32349.526    48298.484   -6327.9612    3274.6148   -2673.2371   -1118.8928    81.307706 
   22800    706.11318   -117.34811   0.63890604    -116.7092   -1413.8791    4.3776545    4.3776545    4.3776545   -1413.8791   -28297.857    29879.751   -5823.5317   -4193.1129    7853.3601   -19221.601    83.892756 
   22900    1038.9371   -117.64321   0.94005215   -116.70316   -23046.668    4.3781187    4.3781187    4.3781187   -23046.668   -31026.283   -4195.2093    -33918.51    1177.9508    7918.1481    12349.518    83.919446 
   23000    682.50488   -117.31017   0.61754475   -116.69263    26247.369    4.3406056    4.3406056    4.3406056    26247.369     21020.07     47462.88    10259.155   -1551.9081    -959.1564    21111.161     81.78073 
   23100    956.47584   -117.57567   0.86543944   -116.71023   -13150.581    4.3715055    4.3715055    4.3715055   -13150.581    -33867.97    9071.7123   -14655.486   -8724.7584    10027.922   -7939.5719    83.539733 
   23200    942.01403   -117.55351    0.8523541   -116.70116    1102.4915     4.376527     4.376527     4.376527    1102.4915   -14345.808    32313.608   -14660.325    2753.9997    1097.2179   -1877.4931    83.827946 
   23300    778.18068    -117.4027   0.70411423   -116.69858    25906.839      4.35067      4.35067      4.35067    25906.839    12398.523    53380.807    11941.189   -6823.5322   -3724.2211    27743.623    82.350915 
   23400    794.20719   -117.43118   0.71861536   -116.71256   -4032.5367    4.3685481    4.3685481    4.3685481   -4032.5367   -25546.084    16603.747   -3155.2725   -213.60946    7981.6682     3295.041    83.370301 
   23500    1209.3322   -117.79886    1.0942292   -116.70463   -11912.867    4.3685621    4.3685621    4.3685621   -11912.867   -23018.225   -7187.2863   -5533.0879   -2279.6269    467.21884   -10896.494    83.371104 
   23600    768.55187    -117.3989   0.69540188    -116.7035    24807.477    4.3535924    4.3535924    4.3535924    24807.477    2842.0386    57123.313    14457.078    195.83023    58.718929    11709.014    82.516973 
   23700    930.49983   -117.54998    0.8419358   -116.70805   -17939.962    4.3735806    4.3735806    4.3735806   -17939.962   -7638.5675   -25953.055   -20228.263   -3386.3567     5182.814    9682.3832    83.658755 
   23800    1160.5188   -117.75074    1.0500618   -116.70068   -8225.6846    4.3675562    4.3675562    4.3675562   -8225.6846   -24310.352    8139.9329   -8506.6349    8699.0017   -7067.1296   -9769.7642    83.313525 
   23900    869.09823   -117.49045   0.78637834   -116.70408    13796.486    4.3577216    4.3577216    4.3577216    13796.486    8839.6813    36868.826   -4319.0491    3839.5464    3027.9127    10693.751    82.751989 
   24000    887.81718   -117.51264   0.80331564   -116.70933   -19696.387    4.3705674    4.3705674    4.3705674   -19696.387   -12695.762    -21999.84   -24393.558    783.68146     3907.665    20043.978    83.485962 
   24100    959.88748     -117.573   0.86852636   -116.70447   -1284.8672    4.3659129    4.3659129    4.3659129   -1284.8672    7782.6892   -6427.8214   -5209.4692    7765.5038   -2340.5745    1981.2262    83.219518 
   24200    1118.4462   -117.71438    1.0119936   -116.70239    9307.3966    4.3593188    4.3593188    4.3593188    9307.3966    5008.0264    16701.151    6213.0128   -14883.331     1262.374    2213.3645    82.843015 
   24300    814.08751   -117.44915   0.73660348   -116.71255   -1558.6703    4.3664901    4.3664901    4.3664901   -1558.6703    5712.3664   -3670.5916   -6717.7855    5720.7981    -867.3755    10153.076    83.252532 
   24400    725.63477   -117.36951   0.65656959   -116.71294    1054.7469    4.3702507    4.3702507    4.3702507    1054.7469   -2057.7694    33933.429   -28711.419   -3350.8078    8703.9448    1328.7025    83.467819 
   24500     1221.907   -117.80721    1.1056072   -116.70161    4215.7564    4.3583199    4.3583199    4.3583199    4215.7564    7588.4072   -4705.6721    9764.5342    -8445.794    2001.9827   -7015.1649    82.786076 
   24600    610.08962   -117.26119   0.55202191   -116.70917    23428.404    4.3585384    4.3585384    4.3585384    23428.404    14522.064    54768.646    994.50195   -5603.8443   -6471.1656    9709.2913    82.798531 
   24700    757.13391   -117.40184   0.68507068   -116.71677   -27008.758    4.3777826    4.3777826    4.3777826   -27008.758   -16558.364   -15501.467   -48966.445    496.86773    11591.277    9287.1735    83.900118 
   24800    1072.8563   -117.67478   0.97074292   -116.70404    9623.9564    4.3537966    4.3537966    4.3537966    9623.9564    15625.917    23040.611   -9794.6593   -4553.3703    424.27475     2748.061    82.528584 
   24900    806.09766   -117.43754    0.7293741   -116.70817     15347.64    4.3548991    4.3548991    4.3548991     15347.64    4.6722608    45085.336    952.91061    1618.3244   -2026.7249     11088.81    82.591299 
   25000    401.09784   -117.07214   0.36292176   -116.70922   -21600.475    4.3842231    4.3842231    4.3842231   -21600.475    -18874.46    9952.1321   -55879.099     198.4044    14325.118    19623.818     84.27096 
   25100     1196.304   -117.78185     1.082441   -116.69941   -944.36026    4.3513201    4.3513201    4.3513201   -944.36026   -5570.6331     21901.91   -19164.358    9739.6937   -1658.3017   -938.07577    82.387838 
   25200     870.0631   -117.49797   0.78725138   -116.71072    17891.067    4.3511746    4.3511746    4.3511746    17891.067    32309.053    31136.685   -9772.5365   -4500.0441   -4158.3033    7757.5164    82.379575 
   25300    784.00604   -117.41658   0.70938514    -116.7072   -41017.563    4.3843465    4.3843465    4.3843465   -41017.563    -36676.36   -35384.544   -50991.784   -6947.8314    3317.1101    12462.862    84.278077 
   25400    722.28935   -117.35531   0.65354258   -116.70177    16464.036    4.3535137    4.3535137    4.3535137    16464.036    2129.6095     53699.64   -6437.1406   -2998.2248    2094.5239   -2541.9675    82.512502 
   25500    1019.2918   -117.62364    0.9222766   -116.70136    16287.323    4.3501045    4.3501045    4.3501045    16287.323   -2310.3385    54530.862   -3358.5563   -1774.9622    3124.9525   -2397.2046    82.318807 
   25600     658.6582   -117.31053   0.59596778   -116.71456   -15604.156    4.3786237    4.3786237    4.3786237   -15604.156    1303.7946   -7116.6242   -40999.638   -10163.436    57.482861    2935.9125    83.948486 
   25700    907.56905   -117.53095   0.82118755   -116.70976   -3985.2217     4.359505     4.359505     4.359505   -3985.2217    -5781.175    13445.467   -19619.957   -2720.3553    11923.491        10708    82.853628 
   25800    1072.1005   -117.67028   0.97005906   -116.70022    25306.546    4.3455425    4.3455425    4.3455425    25306.546    9592.6645    44214.768    22112.205    6796.4889   -2438.9921   -6092.7964    82.060092 
   25900    960.77917   -117.58048   0.86933319   -116.71114   -16340.536    4.3740588    4.3740588    4.3740588   -16340.536   -21181.702    2724.1241   -30564.029    3514.8562   -6670.0977    14946.457    83.686201 
   26000    781.33173   -117.41644   0.70696537   -116.70947   -849.34033    4.3673327    4.3673327    4.3673327   -849.34033    11611.446    3763.4251   -17922.892   -3367.9329    12861.672    6542.1246    83.300736 
   26100    1196.2197   -117.78426    1.0823647    -116.7019    27066.386    4.3408142    4.3408142    4.3408142    27066.386    3771.1935    61520.783    15907.181    2414.4318   -3396.8531   -5456.6408    81.792523 
   26200    995.06423   -117.61756   0.90035503   -116.71721   -3919.4914    4.3675546    4.3675546    4.3675546   -3919.4914    9844.8244   -11293.824   -10309.474    4754.3943   -1512.2434    12379.923    83.313434 
   26300    982.57077   -117.59471   0.88905068   -116.70566    -28123.01    4.3757632    4.3757632    4.3757632    -28123.01   -36765.032   -22976.088   -24627.909   -7111.4924    4825.3803    14469.363    83.784066 
   26400    966.30422     -117.567   0.87433236   -116.69267    39976.734    4.3392024    4.3392024    4.3392024    39976.734    53384.514    35861.253    30684.434   -954.66611   -547.06693   -9487.9666    81.701442 
   26500     1121.176   -117.72601    1.0144636   -116.71155   -10996.455    4.3613124    4.3613124    4.3613124   -10996.455   -26978.017   -2264.1477   -3747.1991   -1036.2106   -4264.6871   -6.6503238    82.956723 
   26600    706.23129   -117.34867   0.63901291   -116.70966   -19529.139    4.3735489    4.3735489    4.3735489   -19529.139   -29280.556   -11456.128   -17850.731    8859.4823    2518.6756    10561.709    83.656934 
   26700    982.94631   -117.58405   0.88939048   -116.69466    16843.588       4.3478       4.3478       4.3478    16843.588     7373.671    26771.504    16385.589   -7565.6525    11347.792    -1100.866    82.188051 
   26800    960.05486   -117.56842   0.86867782   -116.69974   -809.82356    4.3630777    4.3630777    4.3630777   -809.82356    2660.0357    6049.2566   -11138.763    2412.7147   -11169.955    3997.1653    83.057496 
   26900    769.97842   -117.40138   0.69669265   -116.70469   -8891.5533    4.3622815    4.3622815    4.3622815   -8891.5533   -12690.105   -2462.8789   -11521.676     7171.455    4161.2188    3106.9579    83.012035 
   27000    767.54399    -117.4015   0.69448993   -116.70701    6820.5883    4.3528649    4.3528649    4.3528649    6820.5883    15645.826    29345.546   -24529.607    3179.2591    10423.232    4194.2971    82.475614 
   27100    889.25491   -117.51054   0.80461653   -116.70592   -11187.613    4.3693383    4.3693383    4.3693383   -11187.613    7541.1396    3406.2618    -44510.24    7873.7364   -10359.555    37.878827     83.41555 
   27200    811.06705   -117.43637   0.73387051    -116.7025    2534.4932    4.3569103    4.3569103    4.3569103    2534.4932    16107.618   -4964.4898   -3539.6483    -408.7494   -12520.345    7952.9486    82.705776 
   27300    681.02235   -117.32157   0.61620333   -116.70537    3156.7808    4.3576929    4.3576929    4.3576929    3156.7808    12173.195    488.41821   -3191.2711    4950.7929    4012.9401    10271.767    82.750352 
   27400     935.1883   -117.54701   0.84617803   -116.70083   -13778.894    4.3710491    4.3710491    4.3710491   -13778.894   -24416.128    330.03076   -17250.585    929.31723    7851.8362    -3668.186    83.513573 
   27500    820.35355   -117.44257   0.74227313    -116.7003     8088.496    4.3602528    4.3602528    4.3602528     8088.496    24207.927   -3259.2774    3316.8386     3436.953   -14318.116    5647.4257    82.896273 
   27600    678.23235   -117.32064   0.61367888   -116.70696   -4290.0468    4.3639836    4.3639836    4.3639836   -4290.0468    345.52127   -1958.5572   -11257.104    4587.9407    7233.0452    17193.616    83.109241 
   27700     786.8585   -117.41439   0.71196611   -116.70243    8034.7102    4.3599397    4.3599397    4.3599397    8034.7102    33335.567   -3265.9463   -5965.4899    -7199.957    19527.709    5394.6044    82.878416 
   27800    957.71331    -117.5685   0.86655913   -116.70194    846.20436    4.3601779    4.3601779    4.3601779    846.20436    50275.872   -20772.049   -26965.209   -6291.0166   -1948.5577   -226.40482    82.892004 
   27900    742.11554   -117.38051   0.67148174   -116.70903   -13060.145    4.3713838    4.3713838    4.3713838   -13060.145    14560.056   -13431.785   -40308.705   -795.37163   -5591.2603    8941.4988    83.532755 
   28000    928.93135   -117.54441   0.84051661   -116.70389    10078.962    4.3538628    4.3538628    4.3538628    10078.962    20838.081    10431.308   -1032.5026    1732.3922    4137.4058   -515.58669    82.532349 
   28100    1341.8253   -117.91874    1.2141117   -116.70463   -11504.984    4.3601797    4.3601797    4.3601797   -11504.984    7286.6955   -18815.905   -22985.743   -3715.7398    1531.4598    3565.8451    82.892107 
   28200    923.42998    -117.5412   0.83553885   -116.70566   -20424.219    4.3756307    4.3756307    4.3756307   -20424.219   -5302.8872   -18625.619   -37344.151   -749.90075   -12970.698    14133.564    83.776456 
   28300    1010.3614   -117.61262   0.91419626   -116.69842    10777.396    4.3519911    4.3519911    4.3519911    10777.396    18553.305    26116.106   -12337.222    5947.6791    4889.3685   -1627.1461    82.425957 
   28400    1179.8998   -117.77078    1.0675982   -116.70318    5437.4688    4.3555385    4.3555385    4.3555385    5437.4688    14789.293   -8162.6205    9685.7343    2398.0217    13603.524   -4817.8366    82.627683 
   28500    836.84245    -117.4681   0.75719263    -116.7109    5170.6562    4.3621055    4.3621055    4.3621055    5170.6562    25066.187    318.11342   -9872.3322   -2475.1031   -4036.9058    3690.4584     83.00199 
   28600     928.5936   -117.55202   0.84021101   -116.71181    3847.7586    4.3604421    4.3604421    4.3604421    3847.7586    8097.5437    -2361.217    5806.9489    8664.0614     -3381.31    2699.4367    82.907068 
   28700     933.4312   -117.55217   0.84458817   -116.70758    197.18268    4.3653057    4.3653057    4.3653057    197.18268    12261.388   -5583.3815   -6086.4582    7333.0469     5040.222    2371.1839    83.184804 
   28800    1023.5548   -117.62963    0.9261339   -116.70349     14153.96    4.3491579    4.3491579    4.3491579     14153.96   -6323.5356    17905.397    30880.019   -10986.632    5290.7009   -910.80033    82.265078 
   28900    846.97342   -117.48181   0.76635935   -116.71545   -11268.518     4.369192     4.369192     4.369192   -11268.518   -15775.264   -19127.418    1097.1267   -8813.0518   -9456.3424    374.35488    83.407173 
   29000    928.47581   -117.54558   0.84010443   -116.70548   -2091.3089    4.3666411    4.3666411    4.3666411   -2091.3089   -1525.4025   -16014.891    11266.367    2929.3862   -4861.8536     -4416.72    83.261167 
   29100    1118.1681    -117.7068     1.011742   -116.69506    28908.588    4.3399022    4.3399022    4.3399022    28908.588    44540.635    21921.024    20264.106    547.04175    2281.8151    521.09803    81.740979 
   29200    667.63375   -117.31754   0.60408905   -116.71345   -14883.601    4.3737753    4.3737753    4.3737753   -14883.601   -9744.0482   -30898.418    -4008.337   -7573.8212   -6169.3709    13244.483    83.669928 
   29300    934.76199   -117.54738   0.84579229   -116.70159   -19719.877    4.3693584    4.3693584    4.3693584   -19719.877   -27418.703   -31970.307    229.37825   -6021.7909   -9331.6074   -3147.7758    83.416702 
   29400    1064.1869   -117.65144   0.96289868   -116.68854    40302.607    4.3398567    4.3398567    4.3398567    40302.607    67514.644    17470.446    35922.732    1366.9454    4434.6165   -1110.3637    81.738405 
   29500    916.87712   -117.53307   0.82960968   -116.70346   -27128.285    4.3760307    4.3760307    4.3760307   -27128.285   -32972.183   -35450.041   -12962.631   -6797.1127   -2920.3717    2676.1125    83.799431 
   29600    749.46519   -117.37973   0.67813185   -116.70159   -14692.953    4.3659209    4.3659209    4.3659209   -14692.953    -21867.92   -24852.601    2641.6606   -6382.9982   -783.54449   -2772.0927    83.219975 
   29700    1232.5493   -117.80359    1.1152365   -116.68836    22003.756     4.341117     4.341117     4.341117    22003.756    35752.378    10844.116    19414.775     6481.848    4726.1666    8920.5434    81.809636 
   29800    974.84921   -117.58807   0.88206405   -116.70601   -9119.2431    4.3714979    4.3714979    4.3714979   -9119.2431   -17285.108   -30063.048    19990.427   -6094.7072   -2918.2793    3946.8039    83.539296 
   29900    710.88175   -117.35782   0.64322075    -116.7146   -15909.513    4.3632086    4.3632086    4.3632086   -15909.513   -4325.2283   -23805.939   -19597.372   -15099.485    2404.1679    1019.3331    83.064973 
   30000    979.58313   -117.58837    0.8863474   -116.70202    12146.747    4.3430048    4.3430048    4.3430048    12146.747     11112.86    664.83529    24662.546    5093.5945   -13507.254     -13748.3    81.916411 
   30100     1097.339   -117.70159   0.99289541    -116.7087   -3580.1591    4.3686715    4.3686715    4.3686715   -3580.1591   -9256.4855   -18366.234    16882.242    8555.4656   -4852.0321    4981.2452    83.377368 
   30200     890.5761   -117.51211   0.80581197    -116.7063   -8844.5106    4.3650289    4.3650289    4.3650289   -8844.5106    3491.1127   -24916.673   -5107.9716   -3577.3707    3013.7538    7941.5795    83.168979 
   30300    676.14407   -117.31191   0.61178936   -116.70012    9626.3307    4.3468465    4.3468465    4.3468465    9626.3307    12107.803   -2407.2287    19178.418   -10804.177    -8310.468   -12807.531    82.133991 
   30400    1167.0161   -117.76096    1.0559407   -116.70502    -21909.26    4.3654472    4.3654472    4.3654472    -21909.26   -26404.143   -22098.425   -17225.212    5094.2761    2968.9261   -2314.9409    83.192892 
   30500    811.61336   -117.43506   0.73436483    -116.7007    9739.8021    4.3638251    4.3638251    4.3638251    9739.8021    4758.6898    1178.3342    23282.382    1269.3972   -6964.6171    652.02543    83.100187 
   30600    921.15076   -117.53353   0.83347657   -116.70006    1321.8359    4.3494319    4.3494319    4.3494319    1321.8359    17273.718   -5501.1159    -7807.095   -11207.851    -1478.196    5341.5223    82.280629 
   30700    809.56217   -117.44309   0.73250887   -116.71058   -18736.823    4.3677641    4.3677641    4.3677641   -18736.823   -27228.539   -13863.666   -15118.264    3732.6392   -8635.6414   -7422.3127    83.325421 
   30800    937.39205   -117.55312   0.84817202   -116.70494    5838.8928    4.3594368    4.3594368    4.3594368    5838.8928   -7158.8294    7710.7009    16964.807    6839.3112   -10404.805   -2690.2454    82.849744 
   30900    1031.6349   -117.63689   0.93344497   -116.70345    10193.136     4.350419     4.350419     4.350419    10193.136    4974.4227    8878.2678    16726.717   -10438.296    11714.904    2725.8564    82.336663 
   31000     624.4236   -117.27539   0.56499159    -116.7104   -25023.392    4.3676216    4.3676216    4.3676216   -25023.392   -40191.555   -5609.8317   -29268.788   -13562.547   -16495.675   -3407.1434    83.317266 
   31100    788.51575   -117.42105   0.71346562   -116.70758    -9189.105    4.3558444    4.3558444    4.3558444    -9189.105   -28125.004    19852.039    -19294.35    5970.5638   -11100.405    2425.9047    82.645093 
   31200    924.41459   -117.54398   0.83642975   -116.70755    22609.156    4.3584749    4.3584749    4.3584749    22609.156    9406.0257     14371.85    44049.592    6262.3591    8218.7084   -1894.5009     82.79491 
   31300     959.0422   -117.57647   0.86776154   -116.70871   -11276.475    4.3651333    4.3651333    4.3651333   -11276.475   -26725.289    5124.0907   -12228.226   -6220.2549   -12450.591   -2038.1382    83.174949 
   31400    381.77739   -117.05773    0.3454402   -116.71229    10824.013    4.3523527    4.3523527    4.3523527    10824.013    6603.7603    19721.899    6146.3791    5265.1569   -5741.0539   -2157.8453    82.446501 
   31500    981.13842   -117.60081   0.88775466   -116.71306   -10718.403    4.3666712    4.3666712    4.3666712   -10718.403    4521.9735   -15332.945   -21344.237    9376.7864   -6522.2722   -4210.6679     83.26289 
   31600    862.90817   -117.48902   0.78077745   -116.70825    23953.267    4.3583002    4.3583002    4.3583002    23953.267    12923.574    17095.172    41841.054    6129.0894   -1250.7288    3779.9094    82.784955 
   31700    673.19827   -117.31979   0.60912394   -116.71067    5041.4824    4.3495929    4.3495929    4.3495929    5041.4824    19490.335    8137.0942   -12502.982    1060.9695   -11412.202     1874.193    82.289769 
   31800    558.38116   -117.22055   0.50523501   -116.71531   -27705.364    4.3699769    4.3699769    4.3699769   -27705.364   -15409.788   -38431.697   -29274.607    4932.8508   -7557.2492   -7369.4257    83.452131 
   31900    954.08607   -117.56798   0.86327713    -116.7047    8358.6298     4.354972     4.354972     4.354972    8358.6298    3537.3115   -12120.795    33659.373     1667.438     13540.89    3620.3509    82.595444 
   32000    864.76026   -117.48942   0.78245326   -116.70697    15978.354    4.3509422    4.3509422    4.3509422    15978.354    3447.0627    11337.388    33150.611   -4328.9004   -12816.034    5877.3049    82.366373 
   32100    654.77861   -117.30152   0.59245745   -116.70906   -24566.704    4.3687539    4.3687539    4.3687539   -24566.704   -30273.167   -26165.698   -17261.248    1743.8194   -7963.2108   -6579.3113    83.382086 
   32200     750.3449   -117.38133   0.67892783    -116.7024   -9912.6436    4.3579904    4.3579904    4.3579904   -9912.6436   -11587.125   -37624.527    19473.721    225.75304    1665.1138   -4901.7912    82.767305 
   32300     728.0084   -117.36017    0.6587173   -116.70146    18885.403    4.3506643    4.3506643    4.3506643    18885.403    13717.303   -13892.155     56831.06   -3588.3901   -4586.1221   -867.95728    82.350589 
   32400    763.46396   -117.39833   0.69079824   -116.70754   -16545.315    4.3627613    4.3627613    4.3627613   -16545.315   -23956.763   -8703.7041   -16975.479   -1908.1085   -5759.6378      4272.47    83.039429 
   32500    462.96377   -117.12699   0.41889935   -116.70809   -4466.9002    4.3594663    4.3594663    4.3594663   -4466.9002   -11787.689   -27203.816    25590.804   -3916.7406   -6473.4259   -2451.6478    82.851424 
   32600     797.4446   -117.42782   0.72154463   -116.70627   -7131.8141    4.3531813    4.3531813    4.3531813   -7131.8141    8626.9506   -39898.115    9875.7216   -1044.6894    8166.2698   -6446.5092    82.493603 
   32700    626.13356   -117.27665   0.56653881   -116.71011   -5172.6838    4.3597237    4.3597237    4.3597237   -5172.6838    12339.794   -32796.221    4938.3759   -1376.9037   -10986.294    7980.7252    82.866101 
   32800    580.41013   -117.23624   0.52516728   -116.71107   -19054.235    4.3643413    4.3643413    4.3643413   -19054.235   -13945.552   -27352.911   -15864.241   -2641.8931   -11005.575   -4927.1467    83.129679 
   32900     774.5458   -117.40694   0.70082532   -116.70612    1584.3757    4.3497381    4.3497381    4.3497381    1584.3757    15246.765   -14776.165    4282.5266   -2610.8879    5995.2898   -7029.5849    82.298006 
   33000    663.17734   -117.31057   0.60005679   -116.71052    13881.013    4.3551769    4.3551769    4.3551769    13881.013    33407.232   -22703.322    30939.129   -1651.7377   -5521.3903    13571.235    82.607104 
   33100    722.81201   -117.36316    0.6540155   -116.70914   -25876.679    4.3706514    4.3706514    4.3706514   -25876.679   -34771.396   -33577.819   -9280.8228   -2480.6698   -15590.853    1518.2442     83.49078 
   33200      720.996   -117.35586   0.65237233   -116.70349    5287.5636    4.3504019    4.3504019    4.3504019    5287.5636   -3514.0589     -10356.4     29733.15    1668.5052   -4501.5823   -7005.4162    82.335693 
   33300    993.64819   -117.60618   0.89907376   -116.70711    4361.1444    4.3515838    4.3515838    4.3515838    4361.1444    12614.417   -13361.764    13830.781   -1599.8143    8136.9217    10701.181    82.402818 
   33400     749.0021   -117.38525   0.67771284   -116.70754   -10142.742    4.3703091    4.3703091    4.3703091   -10142.742   -29309.971   -22622.789    21504.535    670.11507   -6069.9697    5856.8902    83.471161 
   33500    914.23442   -117.53352   0.82721851    -116.7063   -1159.4545    4.3523473    4.3523473    4.3523473   -1159.4545   -777.79112   -4823.6125      2123.04    7664.6044   -8948.5111   -679.28292    82.446197 
   33600    872.16202   -117.50102   0.78915052   -116.71187    3200.0462    4.3553958    4.3553958    4.3553958    3200.0462    -4951.028   -14186.061    28737.227    -514.3689    6233.0571    9524.4717    82.619561 
   33700    725.93043   -117.36343   0.65683711   -116.70659   -12994.546    4.3771186    4.3771186    4.3771186   -12994.546    2492.0354   -39362.347   -2113.3266    4099.2129   -9651.3856    12475.322    83.861945 
   33800    822.71892   -117.45099   0.74441337   -116.70658    14444.561    4.3461506    4.3461506    4.3461506    14444.561    7414.6538    7920.7306    27998.299    4179.0221   -18446.923    4834.5289     82.09455 
   33900    769.60928   -117.40755   0.69635865   -116.71119    17907.398    4.3455882    4.3455882    4.3455882    17907.398    17210.728    8919.9598    27591.506    2739.4232   -9966.4737    125.67065    82.062684 
   34000    851.66592   -117.47884   0.77060522   -116.70823   -22062.999    4.3779151    4.3779151    4.3779151   -22062.999    5447.7383   -35353.135     -36283.6    4135.4964    8015.3015    9259.7104    83.907737 
   34100    923.71122   -117.54195   0.83579332   -116.70616    2164.6793    4.3541151    4.3541151    4.3541151    2164.6793    393.55417   -4608.7587    10709.242   -1347.1869   -13240.359    1489.8172    82.546703 
   34200    1118.9817   -117.71252    1.0124781   -116.70004     7545.374     4.342747     4.342747     4.342747     7545.374   -2839.4311     12950.29    12525.263   -921.80075   -8742.4212   -5555.7998    81.901826 
   34300    843.49344   -117.47226   0.76321059   -116.70905   -19682.995    4.3709375    4.3709375    4.3709375   -19682.995   -12654.553   -27889.019   -18505.413    5237.0745    12383.483     13636.49    83.507173 
   34400    803.16184   -117.43259   0.72671771   -116.70588    546.96291    4.3598216    4.3598216    4.3598216    546.96291    26215.317   -21461.525   -3112.9034   -2895.1914   -1108.2837    2432.7613    82.871683 
   34500    967.36415   -117.57519   0.87529141    -116.6999     13171.58    4.3472155    4.3472155    4.3472155     13171.58    2594.0071    6851.4149    30069.319   -1558.8253   -14390.428   -8170.5971    82.154906 
   34600    959.58876   -117.57618   0.86825607   -116.70792    474.00479    4.3562009    4.3562009    4.3562009    474.00479    15217.888   -15555.521    1759.6473    2387.2995   -6071.4665    8800.6414    82.665389 
   34700    746.65105   -117.38827   0.67558556   -116.71269   -6154.3769    4.3672086    4.3672086    4.3672086   -6154.3769    212.80651   -32699.577    14023.639    -6672.462    13277.956    2373.7228    83.293635 
   34800    959.54831   -117.57811   0.86821947   -116.70989   -8738.2919    4.3572784    4.3572784    4.3572784   -8738.2919    10299.491   -28197.814   -8316.5526    4196.5839     3641.182   -16589.808    82.726745 
   34900    1063.0155   -117.66758   0.96183873   -116.70574    13738.358    4.3420945    4.3420945    4.3420945    13738.358   -2399.8632    5885.3036    37729.632    1280.0093    -3761.262     2966.662    81.864914 
   35000    790.31733   -117.43055   0.71509573   -116.71546   -23257.876    4.3703692    4.3703692    4.3703692   -23257.876    7267.3047   -46576.564   -30464.368   -2270.3876    4832.6175    8361.4861    83.474608 
   35100    648.39522   -117.30044   0.58668162   -116.71375   -5353.2281    4.3571886    4.3571886    4.3571886   -5353.2281    26821.077   -33224.494   -9656.2665    847.93376    11480.509   -15300.598    82.721631 
   35200    910.43635   -117.52615   0.82378194   -116.70236    21697.828    4.3378221    4.3378221    4.3378221    21697.828    36316.532      4443.14    24333.812    -298.2416    2371.7807   -1725.9456      81.6235 
   35300    890.32892   -117.51806   0.80558831   -116.71247   -9801.8391    4.3645252    4.3645252    4.3645252   -9801.8391    7314.9193   -28670.323    -8050.114    3093.8159   -13094.043    9321.3373    83.140192 
   35400    639.34188   -117.28865   0.57848997   -116.71016   -5173.6191     4.360187     4.360187     4.360187   -5173.6191    28369.369   -40117.877   -3772.3497   -540.24705    7012.7468   -16858.868     82.89252 
   35500    796.08378   -117.42415   0.72031333   -116.70384    2638.8861    4.3504573    4.3504573    4.3504573    2638.8861    981.87819   -20717.115    27651.895   -5727.4577    8306.8942   -9772.3705    82.338836 
   35600    1003.9815    -117.6095   0.90842354   -116.70108   -7808.7122    4.3567622    4.3567622    4.3567622   -7808.7122    3631.4559   -28246.226    1188.6333    6626.7812    3686.4723    8433.8984    82.697343 
   35700    618.81148   -117.26698   0.55991363   -116.70707    299.58181    4.3576023    4.3576023    4.3576023    299.58181    25996.165   -38242.021    13144.602    1212.5308    1941.0322    -5538.878    82.745193 
   35800    527.02034   -117.18653   0.47685908   -116.70967   -1312.3373    4.3598825    4.3598825    4.3598825   -1312.3373    37875.886   -31052.312   -10760.586   -4978.3888    9839.9538   -13353.052    82.875158 
   35900    730.11251   -117.36699   0.66062114   -116.70637    5346.6807    4.3510574    4.3510574    4.3510574    5346.6807    16512.655   -17590.559    17117.946    3695.4596    11995.522    698.07413    82.372913 
   36000    821.76654   -117.45326   0.74355164   -116.70971   -7889.4504    4.3553059    4.3553059    4.3553059   -7889.4504    16594.481   -39046.543   -1216.2895    -1360.838   -7818.7096   -1211.5708    82.614444 
   36100    571.14904    -117.2255   0.51678765   -116.70871   -14174.309    4.3667896    4.3667896    4.3667896   -14174.309    26834.171   -47504.751   -21852.347    2629.9045    6738.7075   -21246.147    83.269661 
   36200     894.6213   -117.51349   0.80947215   -116.70402   -266.54969    4.3485553    4.3485553    4.3485553   -266.54969    5880.6116   -8919.6664    2239.4057   -6857.8859    1958.8365   -1978.3508    82.230889 
   36300    788.20605   -117.42171    0.7131854   -116.70852   -3785.3098    4.3540914    4.3540914    4.3540914   -3785.3098   -752.88487    -29024.42    18421.375    2342.9464    3675.7934    3011.1345    82.545353 
   36400    700.14616   -117.34089   0.63350696   -116.70739   -20499.489    4.3656847    4.3656847    4.3656847   -20499.489    30924.497   -59800.645   -32622.319    5037.7579   -7233.8207   -20757.972    83.206471 
   36500    656.32303   -117.29675   0.59385487    -116.7029    14158.444    4.3491427    4.3491427    4.3491427    14158.444    48394.658   -12082.705    6163.3791   -4207.8535    10889.583   -3553.8334    82.264219 
   36600    871.76517   -117.49352   0.78879144   -116.70473     -5540.05    4.3536501    4.3536501    4.3536501     -5540.05    1271.0392   -22072.914    4181.7248   -4112.4386    11165.036    1886.6162    82.520259 
   36700    510.91278   -117.17267   0.46228462   -116.71038   -736.54229    4.3589155    4.3589155    4.3589155   -736.54229    41822.406   -44255.099    223.06578    1483.5154    2184.4516   -15135.635    82.820024 
   36800    964.28788   -117.57939   0.87250794   -116.70688   -7482.9134    4.3558601    4.3558601    4.3558601   -7482.9134    6453.2794   -29557.834    655.81404    5433.7013    2563.5754   -4221.0924    82.645984 
   36900     935.7652   -117.55235   0.84670001   -116.70565   -7905.1076    4.3578452    4.3578452    4.3578452   -7905.1076   -18664.885   -15233.139    10182.702   -3215.2094    2424.4002    399.25946    82.759029 
   37000    852.82091   -117.48015   0.77165028    -116.7085   -11307.508    4.3489783    4.3489783    4.3489783   -11307.508   -3450.8188   -26878.748   -3592.9576   -3359.9509    6568.7121   -15874.924     82.25489 
   37100    841.77076   -117.47495   0.76165187    -116.7133   -232.77911    4.3561055    4.3561055    4.3561055   -232.77911    22158.123   -28364.508     5508.047   -5005.3896   -11952.482   -9460.6207    82.659955 
   37200    1091.5015    -117.6914   0.98761353   -116.70378   -17869.599    4.3716122    4.3716122    4.3716122   -17869.599   -20398.734   -27884.757   -5325.3054   -1235.6606    5783.6905    8677.8394    83.545853 
   37300    1020.0728   -117.62329   0.92298329   -116.70031    5106.3111    4.3432984    4.3432984    4.3432984    5106.3111     14035.73   -10105.978    11389.181   -333.16358    7827.2832   -10965.906     81.93303 
   37400    656.81768   -117.30695   0.59430244   -116.71265    21311.343    4.3473817    4.3473817    4.3473817    21311.343    52433.349   -19560.055    31060.736    629.07152    5316.7794   -12233.468    82.164329 
   37500    1101.1877   -117.70288   0.99637778    -116.7065   -23456.249    4.3747578    4.3747578    4.3747578   -23456.249   -6138.9057   -42181.794   -22048.046   -6980.9223    2496.4541    14754.805    83.726328 
   37600     958.4648   -117.56909   0.86723909   -116.70185    28078.073    4.3405159    4.3405159    4.3405159    28078.073    30154.288   -92.117313    54172.048   -14772.491    36.475046   -5785.1596    81.775658 
   37700    1026.1345   -117.64112   0.92846803   -116.71266   -4224.3808    4.3495133    4.3495133    4.3495133   -4224.3808    24636.876   -26774.233   -10535.785    636.79093     3574.827   -14536.695    82.285252 
   37800    819.26954   -117.44503   0.74129229   -116.70374   -19517.454    4.3713608    4.3713608    4.3713608   -19517.454   -878.40502   -46075.258   -11598.701     2185.198    -5464.552    2100.4247     83.53144 
   37900    1179.5924   -117.76302      1.06732    -116.6957    7318.9355    4.3444269    4.3444269    4.3444269    7318.9355    11352.208   -7600.6383    18205.237   -12852.029   -847.27987    6768.8502    81.996907 
   38000     1041.957   -117.64879   0.94278462   -116.70601   -5441.8561    4.3510787    4.3510787    4.3510787   -5441.8561   -3960.9009   -25012.491    12647.823   -8872.9599   -2265.3292   -13736.991    82.374125 
   38100    967.00427   -117.58301   0.87496578   -116.70805   -11453.972    4.3591357    4.3591357    4.3591357   -11453.972   -727.66689   -38097.796    4463.5454    3062.0544   -2294.8152   -559.64369    82.832574 
   38200    948.30573   -117.56733   0.85804695   -116.70928    3798.7617    4.3553213    4.3553213    4.3553213    3798.7617   -3565.0356   -24399.428    39360.748   -7125.4557    2020.1422    13456.158     82.61532 
   38300     1062.447   -117.66802   0.96132433    -116.7067    4800.2601    4.3527748    4.3527748    4.3527748    4800.2601   -12407.193   -16625.438    43433.412   -4937.2709   -5691.4792   -8778.8469    82.470496 
   38400    946.30941   -117.56424   0.85624064     -116.708    2394.5907    4.3542257    4.3542257    4.3542257    2394.5907    9376.9714   -35694.646    33501.446   -1828.8106    7067.0418   -587.85492    82.552988 
   38500    779.00398   -117.41253   0.70485917   -116.70768   -14531.449    4.3636158    4.3636158    4.3636158   -14531.449   -7289.9176   -49781.501     13477.07   -6027.5535    -28.89126    11420.252    83.088233 
   38600    997.38584   -117.60425   0.90245566    -116.7018     7656.406    4.3460636    4.3460636    4.3460636     7656.406    14974.252   -16972.946    24967.912   -1889.4444    -2972.699    3132.2187    82.089617 
   38700    893.06242   -117.51539   0.80806164   -116.70732    8421.5484    4.3484139    4.3484139    4.3484139    8421.5484    5627.4663   -16821.791     36458.97    589.78947   -7995.8008   -2475.5611    82.222869 
   38800    633.46233   -117.28282   0.57317003   -116.70965   -29804.521    4.3673117    4.3673117    4.3673117   -29804.521   -4789.3947       -68782   -15842.169    3505.9094   -4880.0739    15381.245    83.299533 
   38900    752.61719   -117.38657   0.68098385   -116.70559    1325.3552    4.3463309    4.3463309    4.3463309    1325.3552    23858.161    -37740.68    17858.585    -703.3988    2272.9946    9960.2341    82.104764 
   39000     949.9636   -117.56527   0.85954703   -116.70572    6889.1576    4.3502824    4.3502824    4.3502824    6889.1576    4739.6442    -20282.76    36210.588   -2803.5488   -18653.419   -7778.3292    82.328909 
   39100    769.46493   -117.40551   0.69622804   -116.70928   -21184.066    4.3619558    4.3619558    4.3619558   -21184.066     2704.765   -54084.767   -12172.196    2290.9794   -3499.9819    11466.556     82.99344 
   39200    504.18837   -117.16807   0.45620023   -116.71187    8744.5407    4.3467828    4.3467828    4.3467828    8744.5407    33310.164   -39805.365    32728.823    5112.2589    40.241771    11579.883    82.130377 
   39300    1088.7788   -117.69463   0.98514995   -116.70948    5050.7953    4.3497436    4.3497436    4.3497436    5050.7953    18902.918   -30244.119    26493.587   -1641.6593   -9826.6078   -6201.6514    82.298322 
   39400     869.0135   -117.49646   0.78630168   -116.71016     8387.972    4.3559829    4.3559829    4.3559829     8387.972    16401.961   -35462.531    44224.486    1080.6168     5394.217    7113.4581    82.652977 
   39500    526.19847   -117.18938   0.47611543   -116.71326   -15781.189    4.3597189    4.3597189    4.3597189   -15781.189    19184.402   -46961.964   -19566.006    5584.2218    4159.6296    18236.066    82.865826 
   39600    790.39729   -117.42327   0.71516808    -116.7081    967.34912    4.3461172    4.3461172    4.3461172    967.34912    20646.369   -25655.872    7911.5501   -4337.3503    8654.5122   -11091.872    82.092653 
   39700    1053.5327   -117.66167   0.95325855   -116.70841    18059.886    4.3484498    4.3484498    4.3484498    18059.886    26494.726   -16041.699     43726.63    4986.7693    -973.1368   -4722.1087    82.224904 
   39800    852.60894    -117.4832   0.77145849   -116.71175   -19965.069    4.3642801    4.3642801    4.3642801   -19965.069    3718.3606   -45884.833   -17728.734    681.86838   -7069.4758    15072.174    83.126187 
   39900    537.86703   -117.19656   0.48667339   -116.70989    9916.8667    4.3450277    4.3450277    4.3450277    9916.8667    37610.376   -19569.595     11709.82   -3376.7283    8541.6681   -2975.5985    82.030933 
   40000    1227.5711   -117.81911    1.1107321   -116.70838   -456.13132    4.3484884    4.3484884    4.3484884   -456.13132    1009.1556    -12856.63     10479.08    2745.4058   -485.20468    -8775.215    82.227094 
   40100    987.79329   -117.59979   0.89377613   -116.70602    4839.3323    4.3620714    4.3620714    4.3620714    4839.3323    4400.0737   -23573.042    33690.965   -8105.8428    1243.6682    8874.5446    83.000043 
   40200    872.68584   -117.49845   0.78962449   -116.70883   -9264.3429    4.3519871    4.3519871    4.3519871   -9264.3429    12070.628   -31791.466   -8072.1904     1683.441   -1814.4471   -1920.4759     82.42573 
   40300    966.90647   -117.58481   0.87487729   -116.70993   -6600.5971    4.3498411    4.3498411    4.3498411   -6600.5971    11582.033   -18032.783   -13351.042    -1212.479   -1340.5324   -17352.956    82.303858 
   40400    1167.9752   -117.76293    1.0568085   -116.70612   -3660.9163    4.3593486    4.3593486    4.3593486   -3660.9163   -19663.633   -12415.077    21095.961   -7287.3424    12683.446     9421.356    82.844712 
   40500    991.72331   -117.60521   0.89733209   -116.70788   -8252.2141    4.3524416    4.3524416    4.3524416   -8252.2141    12033.393   -23420.205   -13369.831   -3935.0364   -7694.0336   -2885.2937    82.451558 
   40600    762.36658   -117.40047    0.6898053   -116.71066   -6680.5693    4.3482944    4.3482944    4.3482944   -6680.5693    29089.593   -22707.906   -26423.395   -1706.7309    3009.6287   -24042.708    82.216089 
   40700    1144.1078   -117.74211    1.0352127   -116.70689   -9996.3008     4.358841     4.358841     4.358841   -9996.3008   -6604.5947   -17775.179   -5609.1283   -1616.9352    7022.8221    1019.0768    82.815779 
   40800    1076.0181   -117.67977   0.97360383   -116.70617    2212.6016    4.3529633    4.3529633    4.3529633    2212.6016    51.143533   -16552.788    23139.449   -3025.4553   -2230.0954    4791.4104    82.481208 
   40900    638.73024   -117.28751   0.57793654   -116.70958    10016.781    4.3467928    4.3467928    4.3467928    10016.781    44213.343   -19299.348    5136.3479    158.87092     1421.173   -11845.745    82.130946 
   41000    947.02977    -117.5661   0.85689244   -116.70921   -12680.063    4.3614428    4.3614428    4.3614428   -12680.063    7121.0197   -30676.493   -14484.714   -1324.7718   -7054.9456   -15477.959    82.964164 
   41100    1092.0212   -117.69196   0.98808371   -116.70387    18655.476      4.34992      4.34992      4.34992    18655.476    23094.205   -9099.5512    41971.774   -3019.1729    -1202.491    1844.9613    82.308334 
   41200    835.03856   -117.46649   0.75556043   -116.71093    2148.5019    4.3494699    4.3494699    4.3494699    2148.5019    30500.197   -22652.224   -1402.4675   -2587.2106   -1373.4932    -12206.73    82.282788 
   41300    629.68119   -117.28279   0.56974877   -116.71304    -16227.81    4.3581907    4.3581907    4.3581907    -16227.81    25697.465   -40143.192   -34237.703    4952.0406    801.11933   -13003.813    82.778717 
   41400    1127.0894   -117.72406    1.0198142   -116.70425    9206.4031    4.3490994    4.3490994    4.3490994    9206.4031    16601.067   -12569.436    23587.578     3488.351    11441.222    6582.0822     82.26176 
   41500    1028.1972   -117.63762   0.93033446   -116.70729   -8379.2807    4.3615818    4.3615818    4.3615818   -8379.2807   -5952.9781   -35633.151    16448.287   -3884.4571   -6462.9864   -14631.564    82.972097 
   41600    666.58901   -117.31738   0.60314375   -116.71424   -1728.9207    4.3464688    4.3464688    4.3464688   -1728.9207    20939.837    -37771.69    11645.091    2344.0138   -6002.4367   -11958.774    82.112583 
   41700     813.2928   -117.45307   0.73588442   -116.71718    7118.2763     4.345268     4.345268     4.345268    7118.2763    9568.8998   -24871.816    36657.745    1566.9141   -1904.7916    6189.8691    82.044541 
   41800     1158.051   -117.75453    1.0478289    -116.7067   -14323.394    4.3691884    4.3691884    4.3691884   -14323.394   -17937.331    -34211.99    9179.1386    -2109.725    1110.5867    5464.1396    83.406962 
   41900    959.73192   -117.57394   0.86838561   -116.70556     11821.38    4.3457709    4.3457709    4.3457709     11821.38     25433.17   -31574.992    41605.963   -1339.5769    446.50019   -17266.283    82.073034 
   42000    673.48088   -117.32267   0.60937965   -116.71329   -4098.6783    4.3493953    4.3493953    4.3493953   -4098.6783    12814.074   -51051.417    25941.308    3409.3018   -14422.767    4132.3482    82.278553 
   42100    916.71464   -117.53468   0.82946267   -116.70522   -24797.752    4.3701986    4.3701986    4.3701986   -24797.752   -17312.366   -60390.708    3309.8174   -1472.9865    852.51502     16178.44     83.46483 
   42200    953.37758   -117.56095   0.86263607   -116.69832    11009.781    4.3488727    4.3488727    4.3488727    11009.781    363.21788   -15733.448    48399.573   -1526.9748    8051.5155   -10598.192    82.248899 
   42300    768.09939   -117.40164   0.69499247   -116.70665   -9232.6957    4.3471201    4.3471201    4.3471201   -9232.6957    16787.252   -46001.059    1515.7203    125.89554    6212.6341   -1198.0081      82.1495 
   42400    891.10415   -117.51873   0.80628976   -116.71244   -17836.847    4.3541587    4.3541587    4.3541587   -17836.847    9913.0098   -55156.425   -8267.1253    92.686603   -6746.6887     18408.53    82.549178 
   42500    1002.6054    -117.6192   0.90717844   -116.71203    2684.4966    4.3567185    4.3567185    4.3567185    2684.4966   -8269.9012   -31363.845    47687.236    1545.7797     58.41901   -4633.4533    82.694856 
   42600    932.42579   -117.55548   0.84367845    -116.7118    4081.4315     4.351253     4.351253     4.351253    4081.4315    13960.005   -29250.272    27534.562    -1592.996    11858.569   -5307.0319    82.384025 
   42700    703.62352   -117.35114   0.63665334   -116.71449    12254.277    4.3473354    4.3473354    4.3473354    12254.277    23613.214   -39368.338    52517.954     4011.112   -2132.7717    21546.854    82.161706 
   42800    1089.5348    -117.6977   0.98583401   -116.71187   -9378.7586    4.3616578    4.3616578    4.3616578   -9378.7586    964.96063   -39312.257     10211.02   -491.27958    2666.1029    7354.0223    82.976437 
   42900    1107.9494   -117.70966    1.0024959   -116.70717    13028.451    4.3489739    4.3489739    4.3489739    13028.451    21563.183   -6749.2647    24271.433   -3673.1988    247.81973   -3883.4236    82.254638 
   43000    800.36536   -117.43723    0.7241874   -116.71304    4033.4537    4.3478868    4.3478868    4.3478868    4033.4537     5521.874   -25725.662    32304.149    7284.2717    2776.8239    10586.956     82.19297 
   43100    742.40809    -117.3875   0.67174644   -116.71575   -16825.249    4.3624711    4.3624711    4.3624711   -16825.249    8336.8298   -51366.923   -7445.6526    6381.4888    1502.4586    11349.899     83.02286 
   43200    1126.4511   -117.72474    1.0192366    -116.7055    17356.391    4.3456892    4.3456892    4.3456892    17356.391    18589.521     1285.211     32194.44   -3050.4735    883.37448   -5563.1438    82.068404 
   43300    1099.5539   -117.70356    0.9948995   -116.70866   -4102.3656    4.3543235    4.3543235    4.3543235   -4102.3656     4394.987   -17695.648    993.56398    756.57912    19449.633     9558.433    82.558555 
   43400    607.51328   -117.26362   0.54969079   -116.71393   -6902.8228    4.3576014    4.3576014    4.3576014   -6902.8228    14655.165   -35796.975    433.34169    7146.6695   -1837.1889    16274.871    82.745144 
   43500    1028.7027   -117.63788   0.93079183   -116.70709    9579.5213    4.3433924    4.3433924    4.3433924    9579.5213    27659.347   -7973.8388    9053.0563    4233.7781    1618.8062   -14052.318    81.938347 
   43600    1071.2846   -117.67909   0.96932084   -116.70977   -865.42209    4.3594023    4.3594023    4.3594023   -865.42209    14670.858    -12080.27   -5186.8543   -2634.6868    -2122.493    962.02169    82.847773 
   43700    1042.0603   -117.65281   0.94287809   -116.70993   -85.983928    4.3498143    4.3498143    4.3498143   -85.983928   -723.46003   -14727.154    15192.662   -8197.0064   -4008.4569    16360.696    82.302335 
   43800    792.59582   -117.42843   0.71715735   -116.71128    9972.2794    4.3465225    4.3465225    4.3465225    9972.2794    31283.511   -13066.827    11700.155    5902.9737   -1709.6438   -5411.0023    82.115621 
   43900    923.75955   -117.54565   0.83583705   -116.70981   -18939.842    4.3644952    4.3644952    4.3644952   -18939.842   -12774.718   -25631.534   -18413.275   -5357.4589    -14207.46   -10716.513    83.138476 
   44000    1080.6591   -117.68139    0.9778031   -116.70359    796.89952    4.3474522    4.3474522    4.3474522    796.89952   -2962.3729   -9892.1584     15245.23   -5924.6331    5216.0213    11980.667    82.168328 
   44100    733.50821    -117.3729   0.66369364   -116.70921      2226.46    4.3534094    4.3534094    4.3534094      2226.46    16587.344   -24950.502    15042.538    550.15328    2644.7427   -733.34653     82.50657 
   44200    703.47598   -117.34422   0.63651985    -116.7077   -13341.075    4.3624477    4.3624477    4.3624477   -13341.075    15512.158       -40389   -15146.385   -7822.9547    1485.8733    -17799.47    83.021526 
   44300     656.2281   -117.29882   0.59376897   -116.70505    16424.638    4.3476566    4.3476566    4.3476566    16424.638     34852.39   -13446.958    27868.481   -12834.119    940.69837    4757.5963    82.179917 
   44400    765.08413   -117.40175    0.6922642   -116.70949   -7053.9042    4.3568799    4.3568799    4.3568799   -7053.9042    23374.136   -36925.657   -7610.1925   -493.85896    867.43867   -1671.6468    82.704048 
   44500    579.10102   -117.23251   0.52398277   -116.70852    2563.2446    4.3546043    4.3546043    4.3546043    2563.2446    39264.418   -36067.065    4492.3812   -1603.8707    6691.8328   -12661.988    82.574525 
   44600    878.90501   -117.50161   0.79525172   -116.70636   -6421.4396    4.3520019    4.3520019    4.3520019   -6421.4396   -3791.4214   -25789.617     10316.72   -12650.165   -7041.6741    407.20995    82.426573 
   44700    702.46186   -117.34489   0.63560225   -116.70929   -21450.482     4.360212     4.360212     4.360212   -21450.482   -13754.098   -36828.834   -13768.515   -2845.0933   -9050.8392    2294.6357    82.893947 
   44800    752.08647   -117.38715   0.68050364   -116.70665   -2277.7185    4.3432864    4.3432864    4.3432864   -2277.7185    9037.9303   -24233.396    8362.3102    4610.2995    5285.0476   -17332.904     81.93235 
   44900    647.28552   -117.29698   0.58567754    -116.7113    9370.4751    4.3556304    4.3556304    4.3556304    9370.4751    28644.726   -34101.355    33568.054   -5370.9149   -1918.9938   -9648.5791    82.632914 
   45000    811.43964   -117.44131   0.73420764    -116.7071   -14371.131    4.3620002    4.3620002    4.3620002   -14371.131    588.44454   -46977.304    3275.4651   -9907.4883   -6444.6831    5817.6597    82.995979 
   45100    431.00902   -117.09633   0.38998602   -116.70634     17100.63    4.3367042    4.3367042    4.3367042     17100.63     49943.46   -26126.097    27484.526    1770.6053   -3392.9399   -21337.271     81.56041 
   45200    553.33407   -117.21881   0.50066829   -116.71814   -316.63023    4.3574407    4.3574407    4.3574407   -316.63023    22193.268   -36732.315    13589.157    4225.4088    53.643926   -13962.665    82.735987 
   45300    1031.1298   -117.63798   0.93298794   -116.70499   -4532.2013    4.3593154    4.3593154    4.3593154   -4532.2013    4119.3337   -32578.069    14862.131   -1627.7651    2579.9259    5359.2369    82.842819 
   45400    596.78134   -117.24636    0.5399803   -116.70638   -870.78169    4.3432693    4.3432693    4.3432693   -870.78169    7968.5563   -29350.926    18770.025   -154.85949   -11707.192   -16179.691    81.931378 
   45500    453.80393   -117.12608   0.41061133   -116.71547   -23131.633    4.3561937    4.3561937    4.3561937   -23131.633   -12526.401   -55492.341   -1376.1571    9415.8256   -4797.5796   -17027.811    82.664974 
   45600    834.61007   -117.46475   0.75517273   -116.70957    3387.1249    4.3563735    4.3563735    4.3563735    3387.1249     1530.194   -29528.357    38159.538    3602.9147    1187.6941    6369.1288    82.675215 
   45700    925.31186   -117.54587   0.83724162   -116.70863   -6515.7367    4.3532591    4.3532591    4.3532591   -6515.7367   -7403.0207   -24282.882    12138.692   -2332.1518   -6070.3547   -5336.9005    82.498025 
   45800    518.03458    -117.1844   0.46872857   -116.71567   -7554.7925    4.3442007    4.3442007    4.3442007   -7554.7925    11191.338   -33663.196   -192.52043    143.53945   -1789.1379   -22937.856    81.984104 
   45900    499.39152    -117.1736   0.45185995   -116.72174    5065.2925     4.351631     4.351631     4.351631    5065.2925    33070.841   -39376.493     21501.53    7753.1082    3307.9657    6436.2467    82.405495 
   46000    1076.4879   -117.68101   0.97402883   -116.70698   -21089.244    4.3654577    4.3654577    4.3654577   -21089.244   -25187.194   -34167.675   -3912.8627    4171.6857    5552.5502    9219.2071    83.193492 
   46100    809.68286   -117.43838   0.73261807   -116.70576    5460.6625    4.3414102    4.3414102    4.3414102    5460.6625     2015.936   -1008.7626    15374.814   -1395.8143   -6011.8546   -18364.511    81.826216 
   46200    480.19571   -117.15022   0.43449117   -116.71572    2517.8569    4.3461017    4.3461017    4.3461017    2517.8569    8358.7208   -25623.414    24818.264    6346.5007   -5417.5247   -8487.4609    82.091775 
   46300    810.72053     -117.445   0.73355697   -116.71144   -17151.984    4.3640165    4.3640165    4.3640165   -17151.984   -16756.293   -46813.639     12113.98   -432.36471     1732.549    16252.541    83.111121 
   46400    882.37638   -117.50534   0.79839269   -116.70695    7903.3367    4.3470268    4.3470268    4.3470268    7903.3367   -15340.563   -9420.2145    48470.787   -6634.4556   -8250.5413   -2030.8281    82.144211 
   46500     826.7229   -117.45753   0.74803626   -116.70949   -2806.2222    4.3441015    4.3441015    4.3441015   -2806.2222   -2435.7381   -5094.2637   -888.66501    2737.6846   -7147.5706   -16496.189    81.978487 
   46600    724.58919   -117.36836   0.65562353   -116.71274   -15005.708     4.358099     4.358099     4.358099   -15005.708   -13869.828   -32577.056    1429.7589    8144.8009   -6177.5905    4884.1868    82.773493 
   46700    872.72805   -117.49961   0.78966268   -116.70994   -968.84875    4.3533599    4.3533599    4.3533599   -968.84875   -7955.6571   -26294.881    31343.992   -7252.4915    7608.2828    11611.288    82.503753 
   46800    1029.7948   -117.63857   0.93178001   -116.70679    5215.2253    4.3461303    4.3461303    4.3461303    5215.2253   -6952.0459     1359.642     21238.08   -9227.2824   -1074.7896   -614.43123    82.093395 
   46900    847.93839   -117.48004   0.76723247    -116.7128   -5998.5425    4.3546315    4.3546315    4.3546315   -5998.5425   -23053.221   -18230.978    23288.571    8735.4318   -13116.238   -4147.0059    82.576076 
   47000    673.17955   -117.32309     0.609107   -116.71398    -4108.395    4.3544242    4.3544242    4.3544242    -4108.395   -22521.651   -33529.719    43726.185   -8076.3882    6104.8161     11203.17    82.564279 
   47100    1049.2659   -117.66016   0.94939783   -116.71076    5463.5144    4.3443626    4.3443626    4.3443626    5463.5144   -763.02137   -9607.3745    26760.939   -13282.502   -220.35698    397.84612     81.99327 
   47200    1309.3235   -117.89564    1.1847034   -116.71094   -6417.5673    4.3540579    4.3540579    4.3540579   -6417.5673    -7689.709   -6414.7096   -5148.2834    7657.8227   -1207.6483    1783.4418    82.543445 
   47300    937.19843    -117.5646   0.84799683    -116.7166   -7246.9395    4.3549076    4.3549076    4.3549076   -7246.9395   -18078.903   -25951.668    22289.752   -5635.8049   -11804.985     5321.593    82.591783 
   47400     917.7539   -117.54597   0.83040302   -116.71556    8186.5935    4.3420437    4.3420437    4.3420437    8186.5935    17742.637   -22260.225    29077.368   -14844.305    1983.6492    5228.3868    81.862042 
   47500    1079.4498   -117.69136   0.97670884   -116.71465    6709.5249    4.3599719    4.3599719    4.3599719    6709.5249    5165.6926   -21062.545    36025.427    4250.9936   -650.40699   -2506.6851    82.880252 
   47600    1259.5667   -117.85104    1.1396824   -116.71136    3604.6198    4.3533477    4.3533477    4.3533477    3604.6198     388.7205   -7393.7753    17818.914   -1887.2773   -8304.0234   -17.257689    82.503061 
   47700    904.93045   -117.53102   0.81880008   -116.71222    25713.322    4.3333538    4.3333538    4.3333538    25713.322    32137.149   -3162.1356    48164.954   -8637.3962    4058.0002    7253.9989    81.371521 
   47800    894.52939   -117.52816   0.80938899   -116.71877   -15863.983     4.360075     4.360075     4.360075   -15863.983   -3915.5684   -42323.827   -1352.5524    -2350.527   -7389.2457   -1714.5393    82.886132 
   47900    1239.8244   -117.83358    1.1218192   -116.71176   -8434.7721    4.3546755    4.3546755    4.3546755   -8434.7721    4547.3588   -18450.628   -11401.047   -327.37231    1250.1408   -8736.0015    82.578576 
   48000    1166.0467   -117.76275    1.0550636   -116.70769    20239.985    4.3357116    4.3357116    4.3357116    20239.985    22732.352    8928.5668    29059.037   -7208.4204   -11632.244    5557.1532    81.504418 
   48100    923.40793    -117.5491    0.8355189   -116.71358   -11123.844     4.354505     4.354505     4.354505   -11123.844    -8046.568   -30509.639    5184.6754   -6655.2241    5516.3507    12536.507    82.568877 
   48200     720.9692   -117.36561   0.65234808   -116.71326   -258.36747    4.3535252    4.3535252    4.3535252   -258.36747    685.27441   -34926.692    33466.316     9462.972    3105.5586   -9949.6763    82.513157 
   48300    1058.4529   -117.66605   0.95771042   -116.70834    3146.3434    4.3463693    4.3463693    4.3463693    3146.3434    6079.5064    -17138.87    20498.394    1753.4159   -16502.226   -15541.509    82.106943 
   48400    1009.7623   -117.62293   0.91365418   -116.70927    3178.0581    4.3495582    4.3495582    4.3495582    3178.0581   -13761.595   -16307.329    39603.098   -5722.1253    7054.8728    4798.7201    82.287796 
   48500    773.95311   -117.41574   0.70028904   -116.71545   -5569.5864    4.3490806    4.3490806    4.3490806   -5569.5864   -4661.6199   -27479.529    15432.389    4512.1214   -12.264288    6281.5881    82.260695 
   48600    726.45305   -117.37604   0.65730999   -116.71873   -17312.142    4.3509692    4.3509692    4.3509692   -17312.142    3964.5047   -39360.951   -16539.981    4457.9052    466.78916   -16306.201    82.367907 
   48700    831.62538   -117.46753   0.75247212   -116.71506    2965.8043    4.3482816    4.3482816    4.3482816    2965.8043    1905.3844   -21185.999    28178.027   -2381.6961   -1715.0035   -10917.072    82.215366 
   48800    986.06176   -117.60443    0.8922094   -116.71222   -2537.6695    4.3479029    4.3479029    4.3479029   -2537.6695   -17694.828   -24874.496    34956.316    5733.0037   -6544.2879    3034.4079    82.193883 
   48900    551.99673   -117.21798   0.49945824   -116.71852   -4403.4976    4.3532469    4.3532469    4.3532469   -4403.4976    3771.2581   -36724.787    19743.036    8315.5052    1372.3314   -12515.645    82.497331 
   49000    542.73678    -117.2063   0.49107964   -116.71522   -2844.2123      4.35436      4.35436      4.35436   -2844.2123    5353.0343   -28177.473    14291.802    -6093.131   -11657.778   -10592.232    82.560629 
   49100    993.50395   -117.60567   0.89894325   -116.70673   -4529.1856    4.3434557    4.3434557    4.3434557   -4529.1856   -5956.3069   -16693.787     9062.537    850.66106   -4783.1717    8157.9442    81.941929 
   49200    806.93738   -117.44202    0.7301339   -116.71188   -7725.7532    4.3489964    4.3489964    4.3489964   -7725.7532   -542.36729   -31321.257    8686.3642      10143.3    5131.6967   -5192.9074    82.255915 
   49300     501.7557   -117.16769   0.45399911   -116.71369   -1953.7569    4.3576996    4.3576996    4.3576996   -1953.7569    7476.6201   -35614.063    22276.173    2526.9157   -26.143429   -18149.756    82.750737 
   49400    756.58085   -117.39592   0.68457026   -116.71135    7905.2946    4.3437879    4.3437879    4.3437879    7905.2946    18161.206   -16498.684    22053.362   -325.70829   -5739.9535    9888.2943    81.960734 
   49500    767.31938   -117.40499    0.6942867    -116.7107    8157.3019    4.3447835    4.3447835    4.3447835    8157.3019    13934.836   -25197.312    35734.382    4441.5341    3976.3199      5427.26    82.017103 
   49600    746.02819   -117.38596   0.67502199   -116.71094   -20386.622    4.3617075    4.3617075    4.3617075   -20386.622   -9110.2397   -44538.567    -7511.061    7920.9107    7258.3872   -12271.855     82.97927 
   49700    674.46655   -117.31983   0.61027151   -116.70956   -483.60012    4.3469579    4.3469579    4.3469579   -483.60012    26157.238   -27886.934    278.89548     959.1159   -869.04828    4482.0124    82.140305 
   49800    793.04286   -117.42371   0.71756184   -116.70614    11488.453     4.338001     4.338001     4.338001    11488.453    36419.478   -9456.1537    7502.0347   -120.21037   -3135.9835    16745.541    81.633598 
   49900    789.24031    -117.4248   0.71412122   -116.71068   -16502.365    4.3625743    4.3625743    4.3625743   -16502.365   -20467.509   -37124.439    8084.8521    11433.568   -5372.9453   -4445.4525    83.028754 
   50000    656.42032   -117.30476    0.5939429   -116.71082   -1893.5801    4.3512097    4.3512097    4.3512097   -1893.5801    7546.4673   -42506.301    29279.094    4826.8536    2115.4556   -8432.0626    82.381568 
   50100    614.54773   -117.26482    0.5560557   -116.70877    16350.216     4.339793     4.339793     4.339793    16350.216    38148.761   -19986.043    30887.931   -5770.5297   -9129.3537     23908.26    81.734807 
   50200    849.93079   -117.47617   0.76903524   -116.70714   -9351.5655    4.3613546    4.3613546    4.3613546   -9351.5655    1500.2034   -28127.795   -1427.1048    3119.6088    -1527.188    9427.7602    82.959131 
   50300    1051.4072   -117.65538   0.95133533   -116.70405   -11639.127    4.3530214    4.3530214    4.3530214   -11639.127   -380.70436   -28751.674   -5785.0017     6466.786    9337.3425   -5720.7036    82.484511 
   50400    603.43338   -117.25329    0.5459992   -116.70729    12522.277    4.3397422    4.3397422    4.3397422    12522.277    43156.402   -24011.337    18421.766   -297.54764   -1059.9079    16769.611    81.731938 
   50500    836.58574   -117.46645   0.75696036   -116.70949   -8888.1375    4.3591846    4.3591846    4.3591846   -8888.1375    17513.662   -39298.579   -4879.4955    2809.3157    4264.7228    13807.706    82.835365 
   50600    1114.7805   -117.71269    1.0086768   -116.70402    -645.0958    4.3556868    4.3556868    4.3556868    -645.0958   -7802.8906   -13904.326    19771.929    9110.8313    10171.295   -10767.687     82.63612 
   50700     735.0023   -117.37072   0.66504553   -116.70567     21544.08    4.3379079    4.3379079    4.3379079     21544.08    26236.067   -6354.7571     44750.93   -1442.8635    9737.7208    8113.5874    81.628341 
   50800    699.77997   -117.35058   0.63317562    -116.7174   -12092.002    4.3558657    4.3558657    4.3558657   -12092.002    27725.762   -49755.029   -14246.739   -2706.1471   -1716.9849    24302.924    82.646304 
   50900      1162.48   -117.75974    1.0518364    -116.7079   -8996.6341    4.3565891    4.3565891    4.3565891   -8996.6341    12869.137   -27493.108   -12365.931     3522.378    1469.6297   -5005.5684    82.687487 
   51000     1205.684   -117.79428    1.0909282   -116.70335    15673.952    4.3401555    4.3401555    4.3401555    15673.952    23743.424      11307.6    11970.832    297.91076    8957.5242    3058.6798     81.75529 
   51100    689.12418   -117.34012   0.62353404   -116.71658    3298.7554    4.3508891    4.3508891    4.3508891    3298.7554    30526.919   -34301.776    13671.123   -401.43724   -4755.9675    23620.046    82.363355 
   51200    935.30162   -117.55925   0.84628056   -116.71297   -1675.6585    4.3571534    4.3571534    4.3571534   -1675.6585    17146.534   -36162.903    13989.393   -3689.1963   -4770.2762    808.40511    82.719622 
   51300    1243.1192   -117.82882    1.1248003   -116.70401    18874.262    4.3472358    4.3472358    4.3472358    18874.262    26223.621    2198.9907    28200.175    493.89179   -6112.2552   -8151.2455    82.156059 
   51400    1108.7648   -117.71247    1.0032337   -116.70924    7021.8125    4.3457102    4.3457102    4.3457102    7021.8125     24585.51   -8642.4843    5122.4114    434.00618   -681.96234    17714.308    82.069593 
   51500    876.81857   -117.50791   0.79336386   -116.71454   -10428.631    4.3532249    4.3532249    4.3532249   -10428.631    14677.411   -29160.191   -16803.112   -2182.9017    7901.0925    7407.0483     82.49608 
   51600    1152.6054   -117.75331    1.0429016   -116.71041    6925.4524    4.3497595    4.3497595    4.3497595    6925.4524     18121.69   -3140.6947    5795.3614     2553.108   -1650.8661    -16829.32    82.299224 
   51700    1373.0444   -117.94887    1.2423594   -116.70651    8634.6331    4.3480823    4.3480823    4.3480823    8634.6331     17246.04   -6610.3228    15268.182   -3507.5755    2328.3774     11572.25    82.204063 
   51800    987.47333   -117.60522   0.89348662   -116.71173    8891.4315    4.3479498    4.3479498    4.3479498    8891.4315    8025.6546   -5823.2017    24471.841   -3743.9874    7367.7821    22208.307    82.196543 
   51900    929.60865   -117.55529   0.84112944   -116.71416    3007.1793    4.3526746    4.3526746    4.3526746    3007.1793    11236.601   -13509.505    11294.442    351.21709    3678.1437   -12092.749    82.464799 
   52000    1347.6557   -117.92726    1.2193872   -116.70788    2790.6265    4.3474773    4.3474773    4.3474773    2790.6265    5831.7055   -8507.0606    11047.235    2510.9023    1345.5754   -17826.723     82.16975 
   52100    1266.5756   -117.85535    1.1460242   -116.70933     10913.67    4.3424981    4.3424981    4.3424981     10913.67    9875.3775    14892.162    7973.4724    2830.9848   -11794.358    18323.607    81.887744 
   52200     1025.338    -117.6423   0.92774737   -116.71455   -13683.723    4.3558642    4.3558642    4.3558642   -13683.723   -790.19644   -21682.347   -18578.624   -6194.0219    1743.6906    2166.6101     82.64622 
   52300    1161.8434   -117.76182    1.0512604   -116.71056   -1459.0502    4.3479776    4.3479776    4.3479776   -1459.0502    9789.1627   -15477.336    1311.0226   -3510.4272    3136.4155   -22570.097    82.198122 
   52400    1239.8401   -117.83077    1.1218334   -116.70894     9766.528    4.3446054    4.3446054    4.3446054     9766.528   -9412.4779    18602.322     20109.74   -2574.0852   -16723.739    2149.9743    82.007019 
   52500    1008.1585   -117.62235     0.912203   -116.71015    26.618348     4.354901     4.354901     4.354901    26.618348    1023.8618   -6110.5773    5166.5706   -2210.3541    1203.4701    13282.942    82.591406 
   52600    1155.6372   -117.75331    1.0456449   -116.70767   -2546.9308    4.3477762    4.3477762    4.3477762   -2546.9308    12548.778   -25494.707    5305.1366     6317.887    5109.3322   -8025.9189    82.186702 
   52700    1163.0182    -117.7605    1.0523233   -116.70817    7537.9705    4.3476062    4.3476062    4.3476062    7537.9705    2991.7122    9237.1666    10385.033    6291.0694   -11588.428   -11676.237     82.17706 
   52800    1260.6444   -117.84832    1.1406576   -116.70766   -6895.2418     4.351747     4.351747     4.351747   -6895.2418   -19789.327    7739.6278   -8636.0262   -2931.4618   -11328.279    10453.624     82.41209 
   52900     1195.662   -117.79016    1.0818601    -116.7083    1409.2313    4.3473414    4.3473414    4.3473414    1409.2313     21020.66   -19933.764    3140.7981   -9408.1106    2172.7426    4082.4491    82.162045 
   53000    1157.1076   -117.75791    1.0469753   -116.71094     770.7642    4.3518709    4.3518709    4.3518709     770.7642    823.04256   -5607.2905    7096.5406   -1621.8162    1009.4251   -13161.213    82.419128 
   53100    1130.8598    -117.7334    1.0232257   -116.71018    2484.0653    4.3506111    4.3506111    4.3506111    2484.0653   -16600.199    12687.595    11364.799    5110.8333   -14128.633   -4455.7083    82.347572 
   53200    1187.5573   -117.78373    1.0745268    -116.7092    8164.9129     4.343746     4.343746     4.343746    8164.9129    1676.7637   -3245.0736    26063.049    3901.9118   -8750.1584    3391.6385    81.958361 
   53300    1117.2235   -117.72251    1.0108873   -116.71162    -3826.609     4.353806     4.353806     4.353806    -3826.609     12351.39    -13904.06   -9927.1569    1667.0844    9854.7333   -775.34055    82.529122 
   53400    1154.5389   -117.75469     1.044651   -116.71004   -4170.4807    4.3486799    4.3486799    4.3486799   -4170.4807   -10153.252    7787.3276   -10145.518    -2216.763   -17536.837   -6696.8692    82.237961 
   53500    1213.4378    -117.8068    1.0979441   -116.70885    531.68978    4.3428275    4.3428275    4.3428275    531.68978   -10824.618    15169.608   -2749.9203   -2135.3399   -21436.431    5732.1603     81.90638 
   53600    1151.2666   -117.75126    1.0416902   -116.70957   -17127.716    4.3561437    4.3561437    4.3561437   -17127.716   -2196.3511   -24260.074   -24926.723   -5151.1615      6002.86    1437.2071    82.662132 
   53700    1129.8375   -117.73174    1.0223007   -116.70944   -5800.0957    4.3477822    4.3477822    4.3477822   -5800.0957    4109.4621    -9605.829    -11903.92    4387.5111   -3295.7589   -9718.3356    82.187039 
   53800    1220.1948   -117.81215    1.1040579   -116.70809    8710.2667    4.3424285    4.3424285    4.3424285    8710.2667   -8983.3792      17317.2    17796.979    6182.0337   -6473.7652   -914.35214     81.88381 
   53900    1199.6637    -117.7952    1.0854809   -116.70972   -4091.4847    4.3560845    4.3560845    4.3560845   -4091.4847    -9195.783   -18604.979    15526.307   -3450.4508   -2040.0207    13742.999     82.65876 
   54000    1030.8067   -117.64559   0.93269559    -116.7129    540.54103    4.3478192    4.3478192    4.3478192    540.54103     10119.04   -15330.584    6833.1669   -2847.6354    5778.7709    5566.0163     82.18914 
   54100    1117.4022   -117.72422     1.011049   -116.71317    9332.9835    4.3423623    4.3423623    4.3423623    9332.9835    9781.5841    5381.9584    12835.408    2311.5682    5903.0283   -13790.115    81.880062 
   54200    1399.7363   -117.97554    1.2665108   -116.70903   -7132.6549    4.3569458    4.3569458    4.3569458   -7132.6549   -14664.673   -14468.217    7734.9259    8027.8918   -7297.6082   -141.09472    82.707803 
   54300    1181.6231   -117.77857    1.0691574   -116.70942   -8557.5317    4.3534921    4.3534921    4.3534921   -8557.5317   -6150.3358   -15085.145   -4437.1142   -803.88944    2138.0989    19422.667    82.511273 
   54400    836.87258   -117.46943    0.7572199   -116.71221    6694.6217    4.3439616    4.3439616    4.3439616    6694.6217    13608.375   -9849.8015    16325.291   -822.22749    8330.8831   -7461.6636    81.970567 
   54500    1125.9927   -117.73047    1.0188219   -116.71165    1879.4432    4.3525834    4.3525834    4.3525834    1879.4432   -2462.2027   -17342.895    25443.428    8937.3925   -5259.4334   -16680.936    82.459614 
   54600    1235.3066   -117.82397    1.1177314   -116.70624    2036.6481    4.3525528    4.3525528    4.3525528    2036.6481   -9492.1129   -5515.2237    21117.281    213.03197    597.75906    13574.677    82.457877 
   54700    933.67652   -117.55691   0.84481014    -116.7121   -9833.0742    4.3460822    4.3460822    4.3460822   -9833.0742    7122.0661   -18730.215   -17891.074    1721.3274    4748.2567    9581.6732    82.090672 
   54800     853.3979   -117.48633   0.77217235   -116.71415   -6172.8068    4.3464418    4.3464418    4.3464418   -6172.8068    13979.355   -30432.024    -2065.752    7222.9173     -5221.23   -26871.226     82.11105 
   54900    1242.5888   -117.83258    1.1243204   -116.70826   -1658.8888    4.3562607    4.3562607    4.3562607   -1658.8888   -9802.7228   -381.71688    5207.7734   -298.77314   -5191.6835   -1209.0205    82.668789 
   55000    1130.9783   -117.73101    1.0233329   -116.70768   -10231.896    4.3539194    4.3539194    4.3539194   -10231.896   -10646.376   -18074.991   -1974.3208   -6668.9733   -211.09356    9092.0875    82.535571 
   55100    567.90473    -117.2247   0.51385214   -116.71085    5650.3871     4.339307     4.339307     4.339307    5650.3871    19633.005   -20111.681    17429.838    3645.9499    6406.8177   -15647.004    81.707349 
   55200    779.24501   -117.41958   0.70507726   -116.71451   -5234.6394    4.3546525    4.3546525    4.3546525   -5234.6394   -6270.1897   -23649.215    14215.487    10821.182    2788.2312   -15850.244    82.577271 
   55300    1211.0659   -117.80052    1.0957979   -116.70472   -3393.8989     4.352934     4.352934     4.352934   -3393.8989   -16268.386   -6454.7383    12541.427   -1316.2226   -4829.5885     2016.173    82.479545 
   55400    893.53834   -117.51741   0.80849227   -116.70892    -1603.383    4.3413733    4.3413733    4.3413733    -1603.383     10484.64    -12207.84   -3086.9496    587.39026    6394.3467   -13480.733     81.82413 
   55500    583.74548   -117.24528   0.52818517   -116.71709   -19327.461    4.3521742    4.3521742    4.3521742   -19327.461   -1994.0576   -35910.542   -20077.783    5220.3167    2505.4514   -17962.949    82.436358 
   55600    902.67392   -117.52926   0.81675833   -116.71251   -1149.0262    4.3510957    4.3510957    4.3510957   -1149.0262    -11138.75   -11657.633    19349.304    -1127.144   -9334.5262    5539.8097    82.375093 
   55700    926.29616   -117.54629   0.83813223   -116.70815    5657.7959    4.3499881    4.3499881    4.3499881    5657.7959   -3724.6317     -363.176    21061.195   -244.14817   -3603.7844   -2873.2645    82.312197 
   55800    686.87988   -117.33334   0.62150335   -116.71183   -679.98278    4.3466138    4.3466138    4.3466138   -679.98278    23489.029   -33124.604    7595.6258    7351.9821    3073.6722   -21024.738    82.120796 
   55900    652.81766   -117.30313   0.59068314   -116.71244    280.10213    4.3483914    4.3483914    4.3483914    280.10213    6011.0533   -23367.928    18197.181    6495.1712   -2499.3467   -3512.8301     82.22159 
   56000     871.9414   -117.49842   0.78895091   -116.70947   -6373.1565    4.3530554    4.3530554    4.3530554   -6373.1565    890.60425   -9875.4083   -10134.665   -8753.7766   -11690.226     8593.279    82.486443 
   56100    867.63764   -117.49246   0.78505677    -116.7074    2382.7755    4.3464943    4.3464943    4.3464943    2382.7755    24755.971   -18339.621    731.97749    196.74705    338.84498   -15372.542    82.114026 
   56200     799.9531   -117.43304   0.72381438   -116.70923   -11595.034    4.3519224    4.3519224    4.3519224   -11595.034    5995.5756   -37970.172   -2810.5047    13057.021    5435.6897   -17458.886    82.422051 
   56300    723.96565   -117.36358   0.65505933   -116.70852    -4132.191    4.3537546    4.3537546    4.3537546    -4132.191    4683.5188   -26347.956    9267.8641   -6215.3745   -3395.2008    7437.7039    82.526196 
   56400    670.04563   -117.31451   0.60627137   -116.70824    11212.002    4.3485411    4.3485411    4.3485411    11212.002     19437.28   -19597.537    33796.263   -8204.9304    -5818.477    6159.6619    82.230085 
   56500    806.18094   -117.43792   0.72944946   -116.70847    4575.8789    4.3490061    4.3490061    4.3490061    4575.8789   -5672.8481   -24431.557    43832.041    8652.5031     5119.827    -10620.81    82.256468 
   56600    630.88835   -117.28133   0.57084104   -116.71049    2969.1008    4.3524414    4.3524414    4.3524414    2969.1008    7450.6361     -26647.4    28104.066    6358.8538     1874.687   -3797.0764    82.451545 
   56700    662.89414   -117.30943   0.59980055   -116.70963   -5582.9039    4.3528316    4.3528316    4.3528316   -5582.9039    1401.5655   -28144.274    9993.9963   -9296.8748   -4728.5841    12553.642    82.473723 
   56800    788.50023   -117.41931   0.71345158   -116.70586    1557.4867    4.3478377    4.3478377    4.3478377    1557.4867    1746.4096   -11017.186    13943.236   -4632.7526   -12897.346   -2875.5343    82.190188 
   56900    794.68038   -117.42452   0.71904351   -116.70548   -15.863938    4.3518795    4.3518795    4.3518795   -15.863938    2426.9118   -10892.867    8418.3632    14341.062    2922.6084   -8780.0711    82.419618 
   57000    815.95758   -117.44425   0.73829556   -116.70596   -11143.823    4.3515278    4.3515278    4.3515278   -11143.823    464.15453   -27915.053   -5980.5701   -3692.4115    -3586.387    7088.2817    82.399633 
   57100    796.92406   -117.42887   0.72107364    -116.7078   -7922.7756    4.3477752    4.3477752    4.3477752   -7922.7756   -8216.2267   -17847.946    2295.8457   -8255.8415   -17708.314    7130.0837    82.186642 
   57200    755.21805   -117.39311   0.68333716   -116.70977   -2959.2731    4.3538339    4.3538339    4.3538339   -2959.2731    468.24182   -14148.747    4802.6856    14732.768   -1659.4198    -4369.272    82.530709 
   57300    945.59261   -117.56369   0.85559206   -116.70809    1924.0539    4.3466053    4.3466053    4.3466053    1924.0539    3379.8951   -13783.964    16176.231    8135.9388    1491.7487   -13387.502    82.120315 
   57400    800.45602   -117.43401   0.72426943   -116.70974   -660.35396    4.3483051    4.3483051    4.3483051   -660.35396   -3535.6143   -22235.345    23789.898    -11988.28   -6633.7831    5524.3494    82.216696 
   57500    711.37197   -117.35468   0.64366431   -116.71102   -13238.649    4.3547396    4.3547396    4.3547396   -13238.649    -16153.85   -24738.509    1176.4113   -5389.8772   -6482.6889     4146.857    82.582225 
   57600    759.82325   -117.39737   0.68750405   -116.70987    10847.609     4.343365     4.343365     4.343365    10847.609    4573.4354   -7063.0544    35032.445    19751.055    2170.2872   -13849.223    81.936795 
   57700    918.61212   -117.54122   0.83117956   -116.71004   -2020.6097    4.3509231    4.3509231    4.3509231   -2020.6097   -5948.4002   -20133.649     20020.22    8346.5472    5257.8055    3122.0255    82.365286 
   57800    812.35581   -117.44587   0.73503661   -116.71084   -9059.5464    4.3522667    4.3522667    4.3522667   -9059.5464   -14039.374   -6326.2277   -6813.0375    -16759.41   -11611.367    12485.906    82.441618 
   57900    685.10449   -117.33251   0.61989694   -116.71261    4465.3202    4.3427343    4.3427343    4.3427343    4465.3202    5131.8765   -5436.7386    13700.823    6467.3066   -9015.6318    2067.5189     81.90111 
   58000    803.43544   -117.44101   0.72696527   -116.71404   -5278.9637    4.3530177    4.3530177    4.3530177   -5278.9637   -4540.8075   -10373.248   -922.83569      10573.8    5162.6502   -14004.915    82.484303 
   58100    1076.6875   -117.68274   0.97420952   -116.70853   -5173.1939    4.3495832    4.3495832    4.3495832   -5173.1939   -3127.2594    6043.4728   -18435.795   -5342.2136   -1062.5367    -6732.367    82.289216 
   58200    919.91765    -117.5423   0.83236082   -116.70994   -7941.4977    4.3464128    4.3464128    4.3464128   -7941.4977   -1866.9511   -10169.459   -11788.083    4916.2583   -7236.2317    9672.9663    82.109408 
   58300     614.8761   -117.27142   0.55635281   -116.71507   -9330.8759    4.3514386    4.3514386    4.3514386   -9330.8759   -6800.2227   -1605.1587   -19587.246    9948.2295   -3385.7088   -18245.517    82.394569 
   58400     987.1742   -117.60656   0.89321596   -116.71334   -2162.4643    4.3472965    4.3472965    4.3472965   -2162.4643    659.69482    9602.3534   -16749.441    9957.3003    33.750852   -12251.329    82.159498 
   58500    1233.0929   -117.82491    1.1157284   -116.70918    1468.6252    4.3482848    4.3482848    4.3482848    1468.6252    6545.0174    13397.385   -15536.526   -3317.2478   -3890.7721    10951.921    82.215546 
   58600    849.07853   -117.48268    0.7682641   -116.71441   -2772.8527    4.3484074    4.3484074    4.3484074   -2772.8527   -15440.239    28854.207   -21732.526    5948.6787   -8822.8871   -7330.1272    82.222502 
   58700    616.06126   -117.27707   0.55742518   -116.71965   -5374.6636    4.3473338    4.3473338    4.3473338   -5374.6636    942.29314    2837.1266    -19903.41    15571.842     3260.683   -17799.334    82.161612 
   58800    1042.7998   -117.65882   0.94354719   -116.71527    146.09145    4.3509767    4.3509767    4.3509767    146.09145   -3058.2593    11322.748   -7826.2146   -12574.549     4718.148    2139.1852    82.368333 
   58900    1217.1573   -117.80831    1.1013095     -116.707   -3143.0583    4.3509591    4.3509591    4.3509591   -3143.0583   -16955.438     18996.92   -11470.657   -3924.6816   -3434.7277   -1887.9031     82.36733 
   59000     684.4867   -117.33296   0.61933795   -116.71362   -8901.8355    4.3467013    4.3467013    4.3467013   -8901.8355   -6980.5437    1338.2348   -21063.198    16913.099   -6204.6509   -21917.276    82.125757 
   59100    582.38699   -117.24483   0.52695598   -116.71788    2371.7148    4.3477169    4.3477169    4.3477169    2371.7148   -840.39554    7457.0565    498.48355    127.17207    4289.2005   -9093.7755    82.183336 
   59200     1124.089   -117.72779    1.0170993   -116.71069   -3025.8583    4.3537768    4.3537768    4.3537768   -3025.8583   -19950.445    11791.618   -918.74813   -4277.6058    10857.314    3439.2341    82.527461 
   59300    1023.8692   -117.63575   0.92641833   -116.70934    8746.2645    4.3456361    4.3456361    4.3456361    8746.2645    5388.0297    20098.993    751.77077    5946.3886     2420.304   -9149.0614    82.065397 
   59400    576.21461   -117.23487   0.52137109    -116.7135    10936.128    4.3487126    4.3487126    4.3487126    10936.128     3380.323    9650.0085    19778.053    6900.7347     3981.141   -17842.789    82.239812 
   59500    892.62137   -117.51403   0.80766257   -116.70637    -11385.77    4.3601516    4.3601516    4.3601516    -11385.77   -26141.279    438.10906   -8454.1405   -1346.6056    8094.1537    4116.2985      82.8905 
   59600    1074.5026     -117.674   0.97223257   -116.70177    12242.582    4.3430738    4.3430738    4.3430738    12242.582    11030.159    21267.451    4430.1363   -5365.4796    101.20397    2256.0127    81.920316 
   59700    931.84528   -117.54951   0.84315319   -116.70636    11094.124    4.3411997    4.3411997    4.3411997    11094.124     21568.07    8605.4602    3108.8402    7938.9909   -246.14141   -17477.602    81.814312 
   59800    855.76777   -117.48557   0.77431666   -116.71125   -23288.857    4.3614464    4.3614464    4.3614464   -23288.857   -28852.735    -10461.61   -30552.226    8795.0805    7410.6969   -4328.6733    82.964372 
   59900    931.58632   -117.55388   0.84291888   -116.71096    1509.5986    4.3457798    4.3457798    4.3457798    1509.5986   -4601.3499    24032.315    -14902.17   -13910.199    9725.4273    16126.722    82.073537 
   60000    1036.3052   -117.64516   0.93767072   -116.70749      16059.7    4.3393604    4.3393604    4.3393604      16059.7     30408.98    15080.926    2689.1951   -3141.2548   -1762.7917    631.51569    81.710369 
   60100    1019.5188   -117.63117   0.92248204   -116.70869   -12369.831    4.3606702    4.3606702    4.3606702   -12369.831   -16243.624   -3984.3205   -16881.548    13710.673   -7161.1695   -15790.597    82.920085 
   60200    834.42023   -117.46332   0.75500095   -116.70832      9189.97     4.348629     4.348629     4.348629      9189.97   -3738.2211    33329.652   -2021.5205   -4893.9659    2953.4593    572.51349    82.235072 
   60300    964.73762   -117.57963   0.87291487   -116.70671    14146.015    4.3394591    4.3394591    4.3394591    14146.015      15082.3    11686.553    15669.193   -8343.6597    2700.1865    11438.392    81.715942 
   60400    964.78708   -117.58235   0.87295963   -116.70939   -3711.9633    4.3549405    4.3549405    4.3549405   -3711.9633   -11601.547   -605.34749    1071.0044    -337.6436   -717.04703   -8824.1006    82.593656 
   60500    956.07812   -117.57476   0.86507957   -116.70968    2645.3196    4.3488409    4.3488409    4.3488409    2645.3196   -6294.5576    1455.3145    12775.202    9400.2896    5157.4792   -17211.417    82.247094 
   60600    1032.7163   -117.64439   0.93442337   -116.70997   -209.48362     4.342857     4.342857     4.342857   -209.48362   -5252.5596   -14043.073    18667.181    1851.1527    2138.9036    4047.3902    81.908051 
   60700    940.96615   -117.56396   0.85140594   -116.71255   -11821.771    4.3511479    4.3511479    4.3511479   -11821.771   -15470.116    -14372.94   -5622.2569   -11870.952   -6994.4268    2910.1573    82.378056 
   60800     888.4656   -117.51685   0.80390235   -116.71295   -6421.8097    4.3489584    4.3489584    4.3489584   -6421.8097   -6480.2865   -17787.622     5002.479    12362.491   -6470.7376   -7727.3852    82.253762 
   60900    1150.6342    -117.7505     1.041118   -116.70938   -8986.5452    4.3459902    4.3459902    4.3459902   -8986.5452   -21060.919   -21413.583    15514.866    8408.6554    5492.4276     565.5167    82.085458 
   61000    1094.8676   -117.70032   0.99065918   -116.70966   -4964.8006    4.3490877    4.3490877    4.3490877   -4964.8006   -5658.0343   -13760.415    4524.0479   -15679.594    6349.8808    4636.4795    82.261099 
   61100    809.42885   -117.44463   0.73238824   -116.71225   -518.66038    4.3492448    4.3492448    4.3492448   -518.66038   -6780.9381   -3800.5341     9025.491    3438.1343   -4216.9376   -4391.2083     82.27001 
   61200    944.90728   -117.56596   0.85497197   -116.71099   -5500.5128    4.3472948    4.3472948    4.3472948   -5500.5128   -20974.318   -21223.484    25696.263    18209.896   -8628.4355    -11517.59    82.159402 
   61300    1184.4998   -117.77999    1.0717603   -116.70823    7611.0971    4.3453291    4.3453291    4.3453291    7611.0971   -6451.9382    4887.1158    24398.114    1682.0758    675.68331    2262.0776    82.048004 
   61400    979.45426   -117.59802    0.8862308   -116.71179    11110.839    4.3492566    4.3492566    4.3492566    11110.839    627.41948    10145.561    22559.536    -10425.18   -1983.9404    5794.3529    82.270681 
   61500    742.30759   -117.38691    0.6716555   -116.71525   -9334.6363    4.3504993    4.3504993    4.3504993   -9334.6363   -12463.194   -21072.416    5531.7007    3522.9643    -4305.002   -5115.4645    82.341223 
   61600    796.84415   -117.43463   0.72100133   -116.71363    9491.2236     4.341847     4.341847     4.341847    9491.2236   -7047.1775    17962.406    17558.442    12122.644   -2988.4391   -6708.8368    81.850917 
   61700    1194.0467   -117.79165    1.0803986   -116.71125    5590.1272    4.3477454    4.3477454    4.3477454    5590.1272   -12939.097    6402.0564    23307.422    2.9903326   -4030.0693    5958.2204    82.184954 
   61800    883.59726   -117.51228   0.79949737   -116.71278   -5127.0368    4.3536878    4.3536878    4.3536878   -5127.0368    1039.0843   -15933.825   -486.36953   -758.31991   -5731.4947    12017.749      82.5224 
   61900    478.67754   -117.14865    0.4331175   -116.71553    2346.5271    4.3413373    4.3413373    4.3413373    2346.5271    -5849.736    15187.288   -2297.9707    13418.803   -7896.5507   -3650.7032    81.822093 
   62000    904.97927   -117.53168   0.81884426   -116.71284   -11629.616    4.3464664    4.3464664    4.3464664   -11629.616   -35517.605   -9627.7527     10256.51    5483.6017     6955.929    -9457.967    82.112444 
   62100    966.81217   -117.58193   0.87479197   -116.70714   -6713.6856    4.3553644    4.3553644    4.3553644   -6713.6856   -22773.351   -5743.0631    8375.3574   -1357.0074    6842.5337    10478.646    82.617773 
   62200    614.50147   -117.26646   0.55601385   -116.71045    3644.0688     4.344966     4.344966     4.344966    3644.0688    6531.8022      3453.55     946.8541    8141.9422   -11205.972    11847.424    82.027439 
   62300    476.11708   -117.14512   0.43080074   -116.71432   -14700.651    4.3473509    4.3473509    4.3473509   -14700.651   -40104.367   -5640.9894    1643.4017    15060.385    2964.4168   -10896.948    82.162582 
   62400     739.1993   -117.37951   0.66884306   -116.71067   -8155.0467    4.3510679    4.3510679    4.3510679   -8155.0467   -38476.699    3407.2875    10604.272   -365.95877    11053.894   -8152.8312    82.373513 
   62500    980.08217   -117.59375   0.88679895   -116.70696   -523.11064    4.3479972    4.3479972    4.3479972   -523.11064   -12782.939    4317.8316    6895.7755   -7578.3626   -2482.1894    6928.0744    82.199233 
   62600    426.11829   -117.10025   0.38556079   -116.71468   -977.50753    4.3488964    4.3488964    4.3488964   -977.50753    -12273.85   -4855.8922    14197.219    14790.232   -3618.6664   -1578.2101     82.25024 
   62700    460.37465   -117.13084   0.41655666   -116.71429    -6282.298    4.3481217    4.3481217    4.3481217    -6282.298   -22988.274   -8867.7705     13009.15    7285.2156    5934.6541   -13431.458    82.206297 
   62800    900.89806   -117.52346    0.8151515   -116.70831   -6691.7933    4.3548457    4.3548457    4.3548457   -6691.7933   -20577.696    5547.5666   -5045.2505   -9862.6467    9870.0127   -2786.8757    82.588261 
   62900    828.14801    -117.4553   0.74932572   -116.70597    1281.9446    4.3518129    4.3518129    4.3518129    1281.9446   -6347.5994   -7201.0715    17394.505    5803.2948   -2859.1099    1389.7353     82.41583 
   63000    503.27772   -117.16631   0.45537626   -116.71093    4695.5473    4.3410442    4.3410442    4.3410442    4695.5473    6298.1818   -8030.5752    15819.035    9646.4722   -5156.0674   -9070.4531     81.80552 
   63100    595.66511   -117.25478   0.53897031   -116.71581   -14945.965    4.3544999    4.3544999    4.3544999   -14945.965   -23511.443    2227.8104   -23554.264    1950.1545     9749.684   -8859.3798    82.568588 
   63200    1094.5943   -117.69803   0.99041188   -116.70762   -11641.782    4.3515116    4.3515116    4.3515116   -11641.782   -25322.825   -11780.529    2178.0094   -563.59297    2620.4989    127.44456    82.398712 
   63300    920.43399   -117.53999   0.83282802   -116.70716    14523.859    4.3380951    4.3380951    4.3380951    14523.859    10914.499   -1243.2625    33900.341     7630.432   -2136.5634    -1756.998    81.638909 
   63400     653.7329   -117.30593   0.59151126   -116.71442   -12431.461    4.3558793    4.3558793    4.3558793   -12431.461   -14075.821    -4680.631    -18537.93    8616.9398    10869.422   -8706.3227    82.647082 
   63500    927.82316   -117.54973   0.83951389   -116.71022   -14462.641    4.3529642    4.3529642    4.3529642   -14462.641    -22619.97   -15977.361   -4790.5921    -2614.899    5492.4625   -3436.7437    82.481259 
   63600    1058.1662   -117.66267   0.95745097   -116.70522    19190.683    4.3346459    4.3346459    4.3346459    19190.683    300.52806     6923.948    50347.574    9064.0793   -2534.9249     7483.563    81.444335 
   63700    947.21653    -117.5687   0.85706143   -116.71164    1718.2657    4.3537567    4.3537567    4.3537567    1718.2657    5514.0573   -10090.887    9731.6262    11333.438    3953.0485   -5028.8628     82.52632 
   63800    979.20804   -117.59469   0.88600801   -116.70868   -7833.5034     4.355898     4.355898     4.355898   -7833.5034   -16260.319   -15358.368     8118.177   -2919.1225    12048.423   -8802.1112    82.648142 
   63900    902.11191   -117.52163   0.81624981   -116.70538    15315.809    4.3375908    4.3375908    4.3375908    15315.809    10522.326    7465.7858    27959.314   -1978.3623    1012.3446    5614.4109    81.610441 
   64000    998.91684   -117.61564   0.90384095    -116.7118   -7911.8104    4.3500612    4.3500612    4.3500612   -7911.8104   -5955.5419   -29142.802    11362.913    12765.339   -9316.6899    11849.791    82.316349 
   64100    1043.3675    -117.6539   0.94406087   -116.70984    440.03985    4.3521486    4.3521486    4.3521486    440.03985    7686.1892   -13905.384    7539.3148    6740.2647     5986.908    873.06172    82.434908 
   64200    1088.9543   -117.69252   0.98530878   -116.70721    5908.7771    4.3433184    4.3433184    4.3433184    5908.7771     9935.038    12487.473   -4696.1795   -8947.5781    12167.927   -4347.0151    81.934162 
   64300    906.37858    -117.5323   0.82011039   -116.71219   -15231.132     4.350246     4.350246     4.350246   -15231.132   -9267.7598   -38011.254    1585.6188    8762.4966   -2072.2433    3709.8965    82.326843 
   64400    832.68758   -117.46736   0.75343322   -116.71393    -588.2547    4.3482849    4.3482849    4.3482849    -588.2547    13268.258   -29432.059    14399.037    12971.959    -3710.149     3091.275    82.215551 
   64500    1126.0939    -117.7281    1.0189134   -116.70919    7659.9812    4.3477958    4.3477958    4.3477958    7659.9812    9267.6543    7604.3851    6107.9043   -1294.5918    1265.2506   -1885.0238    82.187811 
   64600    1095.8463   -117.70032   0.99154477   -116.70877    -4673.171    4.3513317    4.3513317    4.3513317    -4673.171    856.08153   -20893.773    6018.1784    8864.9028    7001.5161    1523.9669    82.388494 
   64700    763.94831   -117.40382   0.69123649   -116.71258    5210.3173    4.3456643    4.3456643    4.3456643    5210.3173    12088.337   -32565.523    36108.138    17327.338   -1560.4345    7163.9739    82.066994 
   64800    849.96892   -117.48233   0.76906974   -116.71326    1277.1406    4.3490087    4.3490087    4.3490087    1277.1406    3621.6347   -17861.414    18071.201     3441.914    6531.4962    2133.8645    82.256612 
   64900    1018.6617   -117.63103   0.92170652   -116.70932   -329.36983    4.3484486    4.3484486    4.3484486   -329.36983    15378.284   -12257.081   -4109.3124   -4288.8396    18364.959   -11354.685    82.224837 
   65000    950.22624   -117.56993   0.85978467   -116.71014   -3950.5852     4.349074     4.349074     4.349074   -3950.5852    4160.3162   -29257.231    13245.159    19828.859    1015.3273   -2778.6185    82.260322 
   65100    874.05529    -117.5006    0.7908636   -116.70974    -8857.569    4.3494458    4.3494458    4.3494458    -8857.569   -604.14376    -30797.12    4828.5565    14323.352    9178.3244    7307.6113     82.28142 
   65200    860.08004   -117.48809    0.7782185   -116.70987   -2110.3361     4.343941     4.343941     4.343941   -2110.3361    21052.089   -7872.6325   -19510.465   -7171.9587    16862.212   -1141.0387      81.9694 
   65300    890.89278   -117.51799   0.80609851   -116.71189   -14141.087    4.3544176    4.3544176    4.3544176   -14141.087    6373.9221   -32590.921   -16206.261    12242.454   -1959.4887   -7342.4706    82.563907 
   65400    1067.3575   -117.67374   0.96576753   -116.70797   -6922.6373    4.3490259    4.3490259    4.3490259   -6922.6373     632.1803   -26042.129     4642.037    16525.693   -6023.2132    2190.6587    82.257591 
   65500    950.42031   -117.56825   0.85996027   -116.70829    9025.8184    4.3405049    4.3405049    4.3405049    9025.8184    30221.163    500.06972   -3643.7774   -4391.2482    13028.208    9.6461148    81.775038 
   65600    768.71712   -117.40719   0.69555141   -116.71164   -15786.466    4.3619559    4.3619559    4.3619559   -15786.466    287.47142   -30192.053   -17454.817    2294.4432    15719.863   -9274.3126    82.993446 
   65700     1106.765   -117.70792    1.0014243    -116.7065   -2509.1397    4.3471941    4.3471941    4.3471941   -2509.1397    3247.8121   -15201.257    4426.0255     14699.96   -10993.713    -3523.398    82.153696 
   65800      1031.43   -117.63756   0.93325957    -116.7043    23020.592    4.3320194    4.3320194    4.3320194    23020.592    35961.155    18782.039    14318.582    1741.2446   -7231.5056    6573.1481    81.296375 
   65900    729.03984   -117.37353   0.65965057   -116.71388   -17234.018    4.3603994    4.3603994    4.3603994   -17234.018   -6989.4038   -27098.339   -17614.312   -9293.5041    23183.392   -596.59899    82.904635 
   66000    801.24835   -117.44074   0.72498635   -116.71575   -2813.2563    4.3467448    4.3467448    4.3467448   -2813.2563     22332.51   -22194.517    -8577.762   -10196.795     9368.528     -7948.83    82.128226 
   66100    1072.2913   -117.67917    0.9702317   -116.70894    17668.607    4.3335678    4.3335678    4.3335678    17668.607    30138.128    14482.343    8385.3494    3897.9928   -14554.818    4976.8583     81.38358 
   66200    802.43353   -117.43837   0.72605872   -116.71231   -10555.046    4.3594333    4.3594333    4.3594333   -10555.046    4807.6437   -17933.159   -18539.624    6151.2883   -3374.6855    1664.7889     82.84954 
   66300    725.29726   -117.36696    0.6562642    -116.7107   -2153.0118    4.3496149    4.3496149    4.3496149   -2153.0118    25709.166   -22707.559   -9460.6432   -13838.887    19279.846   -8692.4616    82.291017 
   66400    906.77258   -117.52627   0.82046689    -116.7058    8857.3838    4.3412051    4.3412051    4.3412051    8857.3838    27193.021   -4037.6916    3416.8218   -6956.3949   -182.92609   -1342.4345    81.814617 
   66500    1056.7608    -117.6629   0.95617935   -116.70672   -6827.3391     4.349642     4.349642     4.349642   -6827.3391    6066.3816   -14272.015   -12276.384    4715.3534   -16827.344    3620.6574    82.292553 
   66600    779.36024   -117.41653   0.70518153   -116.71135    11662.983    4.3447338    4.3447338    4.3447338    11662.983    41401.742   -5047.3045   -1365.4885   -770.19884    9681.5502    1721.4189    82.014288 
   66700    786.34351   -117.42674   0.71150013   -116.71524    -7245.097    4.3507675    4.3507675    4.3507675    -7245.097    9797.7101   -25780.492   -5752.5089   -13244.423    7081.9752   -981.70464     82.35645 
   66800     946.7232   -117.56864   0.85661504   -116.71202    3849.2271    4.3434879    4.3434879    4.3434879    3849.2271    28892.094   -17771.923    427.51021   -7948.6507   -9980.3517     123.6987    81.943754 
   66900     985.6972   -117.60428   0.89187954    -116.7124    6823.5297    4.3461513    4.3461513    4.3461513    6823.5297    35165.955   -9835.0866   -4860.2793    8936.9435   -7702.7913    1164.2438    82.094588 
   67000     662.1285   -117.31217   0.59910778   -116.71307   -16530.719    4.3570197    4.3570197    4.3570197   -16530.719    -4878.277    -29042.74   -15671.139   -6045.6767    11779.002   -6782.4573     82.71201 
   67100    680.34366   -117.32683   0.61558924   -116.71125    6492.5011    4.3343615    4.3343615    4.3343615    6492.5011    19274.129   -17992.777    18196.152   -23052.205     3238.212   -1760.4251    81.428303 
   67200    1081.9242   -117.69317   0.97894773   -116.71423   -6231.9895    4.3465111    4.3465111    4.3465111   -6231.9895    4492.6565   -14222.439   -8966.1861   -4070.9386   -15644.841    2828.8262    82.114979 
   67300    838.68264    -117.4704   0.75885768   -116.71154   -18644.008    4.3580306    4.3580306    4.3580306   -18644.008   -7544.2677   -27269.515   -21118.241    757.59255    8338.4981    -2960.086    82.769597 
   67400     525.6232   -117.18764   0.47559492   -116.71204    9914.4484    4.3299661    4.3299661    4.3299661    9914.4484    20618.362   -22080.069    31205.052   -23137.842    15784.054   -4614.0941    81.180831 
   67500    764.07533   -117.41077   0.69135141   -116.71942   -8221.3128    4.3505532    4.3505532    4.3505532   -8221.3128    10556.535   -31424.994   -3795.4791    -11081.74   -8256.1156   -2438.0671     82.34428 
   67600    1141.0868   -117.73879    1.0324793   -116.70631   -7670.7217    4.3542849    4.3542849    4.3542849   -7670.7217    16927.773   -23670.122   -16269.816    8686.3576   -301.88196    464.74339    82.556356 
   67700    626.69757   -117.27714   0.56704913   -116.71009    13008.465    4.3325269    4.3325269    4.3325269    13008.465    33714.056   -16243.203    21554.543   -16700.651     12006.46   -5004.4941    81.324949 
   67800    364.11461    -117.0487   0.32945855   -116.71925   -16333.232    4.3516225    4.3516225    4.3516225   -16333.232   -19466.721   -44655.763     15122.79   -23993.339    3806.1961   -1963.8715    82.405017 
   67900    1108.0561   -117.71013    1.0025925   -116.70753   -7207.3029    4.3485402    4.3485402    4.3485402   -7207.3029    10749.761   -28243.248   -4128.4215    7907.4256   -154.16534    3229.7649    82.230035 
   68000    867.14423   -117.49394   0.78461032   -116.70932    2893.7749    4.3438145    4.3438145    4.3438145    2893.7749    26013.521   -18605.951    1273.7546   -2874.4472    5280.0284   -3696.7018    81.962241 
   68100    409.42105     -117.088   0.37045277   -116.71755   -13339.813    4.3455124    4.3455124    4.3455124   -13339.813   -19515.628    -28629.76    8125.9494   -33769.618    12704.548   -385.22914    82.058386 
   68200    636.06175   -117.29192   0.57552204   -116.71639    8825.1967    4.3427527    4.3427527    4.3427527    8825.1967    32362.737   -27929.754    22042.606   -6807.1251    2600.2456   -521.96665    81.902149 
   68300     1059.598   -117.66599   0.95874652   -116.70725   -13247.397    4.3571484    4.3571484    4.3571484   -13247.397    12719.417   -39049.987    -13411.62    8246.6071   -4822.4028    549.86918    82.719341 
   68400    581.57723   -117.23987    0.5262233   -116.71365   -92.614676    4.3393155    4.3393155    4.3393155   -92.614676    7074.1807   -15155.119    7803.0938   -21163.683    12739.947    1919.3488    81.707829 
   68500    454.66404    -117.1296   0.41138958   -116.71821     11228.75    4.3370325    4.3370325    4.3370325     11228.75    19546.758     943.8481    13195.643   -18867.103    12283.196   -7088.0277    81.578938 
   68600    940.03663   -117.55733    0.8505649   -116.70677   -21940.652     4.362923     4.362923     4.362923   -21940.652   -7114.8547   -42530.997   -16176.103    8632.8521   -4077.9675    9029.4377    83.048662 
   68700    777.71641   -117.41325   0.70369415   -116.70955    3083.9235    4.3356552    4.3356552    4.3356552    3083.9235    21806.094   -19714.204    7159.8812   -3472.7002    1534.7075    10295.176    81.501241 
   68800    422.74725    -117.0994    0.3825106   -116.71689   -1831.4354    4.3355647    4.3355647    4.3355647   -1831.4354   -5512.5572   -420.81321    439.06432   -29850.207    18095.351     1115.646    81.496137 
   68900    639.17453   -117.28872   0.57833855   -116.71038   -21736.416    4.3617666    4.3617666    4.3617666   -21736.416   -23589.215   -20925.273   -20694.761   -2213.4807    8660.8527     5491.601    82.982645 
   69000    927.86879   -117.54435   0.83955518   -116.70479    7376.2492    4.3382501    4.3382501    4.3382501    7376.2492    23842.283   -15317.498    13603.963    12003.052   -6541.5428   -386.82445    81.647665 
   69100    451.44734   -117.12014   0.40847904   -116.71166   -5435.1231    4.3410609    4.3410609    4.3410609   -5435.1231   -11377.273   -14523.001    9594.9056   -23366.131    10818.025    3950.2253    81.806464 
   69200    521.33936   -117.18333   0.47171881   -116.71161   -18019.225    4.3550122    4.3550122    4.3550122   -18019.225   -33289.061    -13024.02    -7744.594   -15527.988    6284.7034   -3042.7493    82.597734 
   69300    836.16319   -117.46127   0.75657803   -116.70469    14160.144    4.3418851    4.3418851    4.3418851    14160.144    22969.754    4958.1889    14552.487    4775.8954   -1831.7403    5617.3483     81.85307 
   69400    731.58994   -117.37011   0.66195795   -116.70815   -6439.5933    4.3447259    4.3447259    4.3447259   -6439.5933    1700.4154   -18529.421    -2489.774   -12487.077     2125.428    9606.5136    82.013842 
   69500     456.7255   -117.12724   0.41325483   -116.71399   -11453.716    4.3461407    4.3461407    4.3461407   -11453.716   -12027.209   -16054.668   -6279.2696    -19840.49    10936.508   -3670.4672    82.093984 
   69600    771.55871   -117.40892   0.69812253    -116.7108    3994.7106    4.3456037    4.3456037    4.3456037    3994.7106    12677.832   -493.42463   -200.27503    347.42204    10483.171    1968.4668    82.063561 
   69700    840.93072   -117.46944   0.76089179   -116.70855    4283.2149    4.3485874    4.3485874    4.3485874    4283.2149    17841.125    2638.5594     -7630.04    3911.4634   -8496.9515    2678.6969    82.232709 
   69800    547.83891   -117.20756   0.49569616   -116.71186   -617.42594     4.339773     4.339773     4.339773   -617.42594    17341.176   -18719.091   -474.36248   -22014.621    4399.5588    2122.0415     81.73368 
   69900    498.68832   -117.16728   0.45122367   -116.71606   -606.92132    4.3464788    4.3464788    4.3464788   -606.92132    6897.6271   -15632.185    6913.7935   -11695.724     13070.18   -1389.3969    82.113149 
   70000    995.33606   -117.60712   0.90060098   -116.70652    2597.6885    4.3501214    4.3501214    4.3501214    2597.6885    4945.1042    1972.3687    875.59259    8863.4573   -3939.4229   -2549.1079    82.319769 
   70100    808.46363   -117.44062   0.73151488   -116.70911    11806.713    4.3371539    4.3371539    4.3371539    11806.713    33048.256   -4694.8163    7066.6977   -9697.9931   -1113.9594    6239.6301    81.585788 
   70200    344.72417   -117.03138   0.31191368   -116.71947   -16695.625    4.3465222    4.3465222    4.3465222   -16695.625   -17643.121   -29884.658   -2559.0963    -20919.83    10746.363    2692.9057    82.115605 
   70300    783.87741   -117.42187   0.70926876   -116.71261   -8459.4708    4.3489902    4.3489902    4.3489902   -8459.4708   -6084.0886   -11160.813   -8133.5105   -1887.4961    18209.121      2964.34    82.255567 
   70400    1199.0543   -117.79071    1.0849295   -116.70578    8536.6302    4.3435241    4.3435241    4.3435241    8536.6302    21077.403   -5178.0379    9710.5259   -2308.7747   -2891.1081    1817.8717    81.945802 
   70500    525.32207   -117.19174   0.47532245   -116.71642   -10286.263    4.3476245    4.3476245    4.3476245   -10286.263   -8279.9667   -23061.104    482.28128   -20559.651    5073.0661    1706.6122    82.178098 
   70600    468.25538   -117.14097    0.4236873   -116.71728   -9311.4216    4.3417301    4.3417301    4.3417301   -9311.4216   -1423.3416   -16257.925   -10252.998   -4710.0512    19068.579   -339.04053    81.844307 
   70700    1144.0454   -117.74706    1.0351563   -116.71191   -1414.8579     4.348139     4.348139     4.348139   -1414.8579    19230.335   -19624.208   -3850.7008    9908.8914   -4992.1359   -7248.7165    82.207278 
   70800    985.02915   -117.60221   0.89127507   -116.71094     3983.734    4.3473617    4.3473617    4.3473617     3983.734    6516.4428   -15162.886    20597.645   -12873.035    174.83355     1321.529    82.163193 
   70900    533.34564   -117.19888   0.48258235    -116.7163    3550.5207    4.3390266    4.3390266    4.3390266    3550.5207     6621.838   -5827.9146    9857.6388   -18805.962    18510.273    2263.8271    81.691513 
   71000    889.76881   -117.51726   0.80508151   -116.71217   -19028.419    4.3546196    4.3546196    4.3546196   -19028.419   -2172.9822   -29773.117   -25139.159      2563.73    11302.061   -3915.2171    82.575396 
   71100    1128.9884   -117.72803    1.0215325    -116.7065    5033.6841    4.3437659    4.3437659    4.3437659    5033.6841    13008.419   -20402.646    22495.279    726.13513   -5887.0697   -2372.2701    81.959487 
   71200    892.09115   -117.51826   0.80718282   -116.71108    9252.7245    4.3351736    4.3351736    4.3351736    9252.7245     5976.971   -1845.9204    23627.123   -10240.143     9068.618   -685.12617    81.474083 
   71300    628.98966   -117.28343   0.56912306   -116.71431   -20012.965    4.3563722    4.3563722    4.3563722   -20012.965   -20134.192   -14750.933   -25153.771   -767.24886    24098.301   -3741.3008    82.675141 
   71400    994.58874   -117.60875   0.89992479   -116.70882   -4403.6606    4.3438341    4.3438341    4.3438341   -4403.6606    13815.791    -23792.89   -3233.8827    3505.7854   -5982.9911   -5475.8984    81.963349 
   71500    910.09704   -117.53072   0.82347493   -116.70725    11324.156    4.3375489    4.3375489    4.3375489    11324.156    17850.677    -14552.69    30674.482   -9659.0343     2598.765    318.73469    81.608081 
   71600    775.94792   -117.41327   0.70209398   -116.71118   -17102.462    4.3520485    4.3520485    4.3520485   -17102.462   -26540.798   -8243.0594    -16523.53   -9728.2137    25097.967    1400.0494    82.429216 
   71700    752.10722   -117.39043   0.68052242   -116.70991    136.46141    4.3442523    4.3442523    4.3442523    136.46141    1610.3231   -5919.0048     4718.066    6475.6287    5582.5073   -3478.3708    81.987022 
   71800    966.45065    -117.5828   0.87446486   -116.70833   -4006.5424    4.3427338    4.3427338    4.3427338   -4006.5424    18002.341   -30044.932    22.963428    4904.6337   -2018.4306   -3286.6086    81.901082 
   71900    665.17422   -117.31511   0.60186361   -116.71325    1900.2884    4.3445761    4.3445761    4.3445761    1900.2884   -6761.0673   -1734.2406    14196.173    -6746.933    16941.759    4582.7384    82.005356 
   72000    775.28576   -117.41378   0.70149485   -116.71228   -1697.4472    4.3455521    4.3455521    4.3455521   -1697.4472   -16844.839    679.10113    11073.397   -3267.0058    19875.802    260.24808    82.060635 
   72100    968.08174   -117.58566    0.8759407   -116.70972   -4046.9346    4.3474662    4.3474662    4.3474662   -4046.9346    9675.1164   -20209.227   -1606.6936   -658.36956   -7909.0795   -455.77153    82.169122 
   72200    694.40161   -117.33954   0.62830917   -116.71123    13385.897    4.3403042    4.3403042    4.3403042    13385.897    10389.769    231.03552    29536.888     -3415.38    2991.7154    4245.5493    81.763694 
   72300    613.29637   -117.26863   0.55492344   -116.71371    -6924.917    4.3495145    4.3495145    4.3495145    -6924.917   -22934.337   -5294.2784    7453.8642   -1175.4815    25233.642   -2481.3321    82.285319 
   72400    880.10769   -117.50449   0.79633994   -116.70815   -6151.4204    4.3466011    4.3466011    4.3466011   -6151.4204    -10855.94   -6644.7364   -953.58472    984.25372   -3590.7509    3256.9805    82.120076 
   72500    903.87055   -117.52527   0.81784107   -116.70743    7364.4907    4.3381304    4.3381304    4.3381304    7364.4907    7478.1185    6888.3935    7726.9601    40.547569   -4325.2691    5968.9188    81.640902 
   72600    518.86543    -117.1849   0.46948034   -116.71542   -12984.747    4.3497045    4.3497045    4.3497045   -12984.747   -21514.828   -12868.397    -4571.016   -7441.9435    22841.268   -2661.6919      82.2961 
   72700    609.22331   -117.26523   0.55123805   -116.71399   -8345.4745    4.3433833    4.3433833    4.3433833   -8345.4745   -26331.025     4764.495   -3469.8937   -3570.1218    8195.1991   -983.06393    81.937831 
   72800    924.13834   -117.54583   0.83617979   -116.70965   -1169.2108    4.3437855    4.3437855    4.3437855   -1169.2108   -15185.478     2422.335    9255.5101    2891.0323   -18148.804   -1024.4873    81.960599 
   72900    850.54494   -117.47881   0.76959094   -116.70922   -7287.3727    4.3482644    4.3482644    4.3482644   -7287.3727   -17541.946    -3372.958     -947.214   -1908.6199    8290.9534    2836.5555    82.214387 
   73000    362.76186   -117.04119   0.32823456   -116.71296    4698.2325    4.3431377    4.3431377    4.3431377    4698.2325    -24015.29    6238.8259    31871.161   -1583.8602     16960.88    2100.2998    81.923933 
   73100    621.45622   -117.27516   0.56230664   -116.71286   -11173.712    4.3472213    4.3472213    4.3472213   -11173.712   -30780.151    2397.3807   -5138.3668   -2426.8232   -20685.878   -4371.1801    82.155238 
   73200     998.3926   -117.61062   0.90336661   -116.70725    3316.1873    4.3398767    4.3398767    4.3398767    3316.1873   -2929.0056     2599.204    10278.364   -495.65233   -6946.2748     3811.346    81.739539 
   73300    609.79976    -117.2673   0.55175964   -116.71554    2847.2408    4.3456375    4.3456375    4.3456375    2847.2408   -21156.619    6340.6783    23357.663    -1889.018    16380.001   -2825.8817    82.065473 
   73400    403.99639   -117.08255   0.36554443   -116.71701   -13925.277    4.3504627    4.3504627    4.3504627   -13925.277   -31774.433   -4383.3705   -5618.0265   -5132.6837   -268.50087   -5739.9018    82.339142 
   73500    739.59215   -117.37862   0.66919852   -116.70942     7153.968     4.338312     4.338312     4.338312     7153.968    5805.1142    7864.9663    7791.8235    3006.4017   -14063.037    3584.0237    81.651159 
   73600     865.4674   -117.49183   0.78309309   -116.70873   -8552.7297    4.3490826    4.3490826    4.3490826   -8552.7297    -23258.08   -11557.997    9157.8879    1227.1467    5256.5907    -2480.461    82.260808 
   73700    487.55081    -117.1539   0.44114622   -116.71275   -668.44313     4.346717     4.346717     4.346717   -668.44313    -33276.97    869.54936    30402.091   -3560.6575    13355.434   -2979.9064     82.12665 
   73800    713.77701   -117.35548   0.64584044   -116.70964    4480.0555    4.3370107    4.3370107    4.3370107    4480.0555    -9210.028    9617.7609    13032.434   -2474.2093   -16144.817   -5872.4225    81.577705 
   73900    750.48686   -117.38926   0.67905628    -116.7102   -8336.5181    4.3505821    4.3505821    4.3505821   -8336.5181   -15519.679   -13777.088     4287.212     5869.035   -6832.3847    3744.7086    82.345922 
   74000    683.61336   -117.33001   0.61854773   -116.71146   -8729.9533    4.3452784    4.3452784    4.3452784   -8729.9533    -24973.33   -25407.253    24190.723    9939.0784    10443.047    11320.881    82.045133 
   74100    625.56408   -117.27724   0.56602352   -116.71122    11828.088    4.3402517    4.3402517    4.3402517    11828.088   -11295.698    16577.633     30202.33   -7683.0177   -594.93518   -3063.4664    81.760729 
   74200    956.81725   -117.57244   0.86574835    -116.7067   -11108.489    4.3497615    4.3497615    4.3497615   -11108.489   -19418.765   -6363.4817   -7543.2204   -1998.9076    -5280.309    3862.0193    82.299336 
   74300    555.87143   -117.21416   0.50296415   -116.71119    619.67574    4.3415998    4.3415998    4.3415998    619.67574    7694.8074   -28358.147    22522.367    15193.696   -1336.0729    5922.8779    81.836938 
   74400     466.5532   -117.13825   0.42214714    -116.7161   -8676.3381    4.3454009    4.3454009    4.3454009   -8676.3381   -15266.243    -25613.12    14850.349   -1841.9846    13671.842   -791.31083    82.052071 
   74500    816.44373   -117.44973   0.73873544   -116.71099    461.54136    4.3461575    4.3461575    4.3461575    461.54136   -17956.405    8297.8499     11043.18     -10456.7     2612.974    2192.2418    82.094937 
   74600    901.32198     -117.524   0.81553507   -116.70847   -1352.0045    4.3419135    4.3419135    4.3419135   -1352.0045    3798.7787    -19399.67    11544.878    16392.634   -5610.4471     1692.893    81.854679 
   74700    357.71974   -117.03843   0.32367233   -116.71476   -20496.713    4.3513858    4.3513858    4.3513858   -20496.713   -22653.797   -46710.903    7874.5592    11807.466     6400.734    8508.5422    82.391566 
   74800    594.96227     -117.251   0.53833436   -116.71266   -3974.1356     4.341349     4.341349     4.341349   -3974.1356   -12139.646   -11983.256    12200.496   -17496.846    9979.1606   -818.93999    81.822757 
   74900    920.33635   -117.54093   0.83273967   -116.70819    6876.8435    4.3402038    4.3402038    4.3402038    6876.8435   -1470.0982   -494.16916    22594.798    4391.2879     7424.132   -6962.8875    81.758018 
   75000    740.35119   -117.38163   0.66988532   -116.71175   -17165.209    4.3513063    4.3513063    4.3513063   -17165.209   -21929.658    -36210.14    6644.1705    19962.815   -4641.9781    2822.7508    82.387053 
   75100    450.32952   -117.12137   0.40746762   -116.71391     752.0214    4.3414051    4.3414051    4.3414051     752.0214     10621.75   -20058.962    11693.276   -10816.682    10353.709    275.74221     81.82593 
   75200    691.84418   -117.33821   0.62599515   -116.71221    2378.9311    4.3441661    4.3441661    4.3441661    2378.9311    7107.0939   -18828.427    18858.127   -13251.259    10313.374   -3015.8575    81.982144 
   75300    924.97777   -117.54561   0.83693932   -116.70867    486.63023    4.3457551    4.3457551    4.3457551    486.63023    3892.8408   -9642.5024    7209.5524    9512.9723   -10338.056    -7830.374    82.072138 
   75400    762.71933   -117.40064   0.69012447   -116.71052    4451.2485    4.3414709    4.3414709    4.3414709    4451.2485    13019.035   -9408.9058    9743.6161    4081.5297    9619.4904    4109.0886    81.829647 
   75500    540.39906    -117.2034   0.48896443   -116.71444   -14049.157    4.3502514    4.3502514    4.3502514   -14049.157    39.949915   -33014.168   -9173.2531   -18654.802    9622.3157    1094.4964    82.327147 
   75600    781.07039   -117.41818    0.7067289   -116.71145     4665.188    4.3403801    4.3403801    4.3403801     4665.188    14030.752   -5747.6973     5712.509   -1370.5275   -3233.9335    -13520.17    81.767986 
   75700    1027.1973   -117.63838   0.92942971   -116.70896    3707.2343    4.3424713    4.3424713    4.3424713    3707.2343    13526.718    -2481.925    76.910305    5972.6234    -1917.616    487.63599    81.886227 
   75800    757.63498   -117.39853   0.68552405   -116.71301    -20557.61    4.3520408    4.3520408    4.3520408    -20557.61   -17564.037   -31793.717   -12315.076    -19440.59     5821.047    8725.0768    82.428782 
   75900    454.63354   -117.12667   0.41136198   -116.71531    7182.2387    4.3361444    4.3361444    4.3361444    7182.2387    25987.448   -9598.0952    5157.3636   -11201.424    12016.242   -5549.0767     81.52883 
   76000    943.86352   -117.56795   0.85402755   -116.71392    1208.9005    4.3465364    4.3465364    4.3465364    1208.9005    15014.511   -14155.856    2768.0464    4901.0508   -8994.2232   -12843.139    82.116409 
   76100    1019.6804   -117.62965   0.92262826   -116.70702   -8536.3227    4.3533413    4.3533413    4.3533413   -8536.3227   -3438.4447   -20783.168   -1387.3558   -3638.8368   -485.85082    6426.1016    82.502699 
   76200    517.21989   -117.17995   0.46799143   -116.71196    2051.6696    4.3346692    4.3346692    4.3346692    2051.6696    17852.116   -12443.703     746.5958   -15821.934    10053.197     4555.041    81.445645 
   76300    617.58422   -117.27571   0.55880318    -116.7169    -8506.503    4.3442851    4.3442851    4.3442851    -8506.503    18087.452   -21307.574   -22299.387   -6407.1458   -802.75028   -22653.671    81.988882 
   76400    1077.8905   -117.68267   0.97529794   -116.70737   -5113.1465    4.3509915    4.3509915    4.3509915   -5113.1465    3215.2904   -12374.651    -6180.079    9101.1251    1756.8234   -7140.7543    82.369171 
   76500     789.8231   -117.42462   0.71464854   -116.70997   -2414.9838    4.3432559    4.3432559    4.3432559   -2414.9838    12413.659   -8853.2853   -10805.325   -10146.895    3621.7571    9130.8061    81.930624 
   76600    486.94519   -117.15328   0.44059824   -116.71269   -16171.483    4.3456762    4.3456762    4.3456762   -16171.483    5200.0896   -15172.441   -38542.098   -14498.873    12476.392   -10908.297    82.067667 
   76700    794.67679   -117.42747   0.71904026   -116.70843   -1343.2345    4.3451921    4.3451921    4.3451921   -1343.2345     17023.89   -2245.0058   -18808.588    7097.5987    1000.2162   -9707.5737    82.040245 
   76800    877.60508    -117.5015   0.79407552   -116.70743   -164.03148    4.3467672    4.3467672    4.3467672   -164.03148    4629.1011    2633.5661   -7754.7616    7661.9652   -6426.7981    6419.8669    82.129492 
   76900    526.90793   -117.18932   0.47675737   -116.71256    -3252.888    4.3439451    4.3439451    4.3439451    -3252.888    5900.9696     2930.622   -18590.256   -9783.9808    12864.163    2647.7054    81.969634 
   77000    508.76361   -117.17392   0.46034001   -116.71358    1193.3769     4.343183     4.343183     4.343183    1193.3769    10687.561    522.86789   -7630.2979    -3830.918    5591.6323   -9851.9818    81.926495 
   77100    718.71755   -117.35938   0.65031074   -116.70907   -6123.5156    4.3516574    4.3516574    4.3516574   -6123.5156    1712.8057   -9233.4345   -10849.918    21403.496   -2564.6988   -1411.1784    82.406997 
   77200    670.73361   -117.31411   0.60689387   -116.70722   -489.63518    4.3433487    4.3433487    4.3433487   -489.63518    1432.5481     5894.903   -8796.3567    6239.0526    4238.8498    11470.643    81.935874 
   77300    501.02738    -117.1638    0.4533401   -116.71046   -582.97626    4.3402861    4.3402861    4.3402861   -582.97626    9123.9923    5356.8051   -16229.726   -17315.538     11249.88    143.68248    81.762673 
   77400    510.62297   -117.17378    0.4620224   -116.71175   -15258.747    4.3517412    4.3517412    4.3517412   -15258.747   -3920.1317   -23259.947   -18596.163    11939.311    6709.6169   -8616.4768     82.41176 
   77500    736.77587    -117.3742   0.66665029   -116.70755   -3622.5498    4.3446247    4.3446247    4.3446247   -3622.5498    3460.0984   -7889.0196    -6438.728     21228.18    -5912.839    1531.9605     82.00811 
   77600    758.45786   -117.39344   0.68626861   -116.70717   -3144.8881    4.3405265    4.3405265    4.3405265   -3144.8881    8961.6034    12885.652    -31281.92   -10091.757    14690.963   -855.89203    81.776257 
   77700    522.24548   -117.18578   0.47253868   -116.71324   -13528.779    4.3476219    4.3476219    4.3476219   -13528.779    2985.1593   -18126.005   -25445.492   -1806.9196    11137.386   -10344.516     82.17795 
   77800     533.0932   -117.19508   0.48235393   -116.71272   -3284.3085    4.3465071    4.3465071    4.3465071   -3284.3085    16668.426   -27978.456    1457.1043    22981.572   -7498.1544   -5006.3676    82.114753 
   77900    944.15704   -117.56117   0.85429313   -116.70688   -4988.7409    4.3431699    4.3431699    4.3431699   -4988.7409    7100.6351    3147.6162   -25214.474    8089.7837    10300.084    939.57125    81.925757 
   78000    755.66162   -117.39387   0.68373852   -116.71013    1400.6965    4.3419844    4.3419844    4.3419844    1400.6965    20292.737    12934.314   -29024.962   -8816.3017    9761.4294   -1430.9437    81.858686 
   78100     552.0163   -117.21367   0.49947595   -116.71419   -6470.9912    4.3486594    4.3486594    4.3486594   -6470.9912    9113.9275   -30831.264    2304.3628    14692.323    -210.0024   -11897.472    82.236796 
   78200    699.40544   -117.34512   0.63283674   -116.71228   -1267.6814    4.3457309    4.3457309    4.3457309   -1267.6814    11653.392   -17623.383    2166.9475    16166.022    183.30586   -837.12711    82.070765 
   78300    927.53445   -117.54771   0.83925266   -116.70846    11539.966    4.3365595    4.3365595    4.3365595    11539.966    20040.279     23050.81   -8471.1902   -5476.0228    7334.6557    8012.6082    81.552246 
   78400    799.98846   -117.43651   0.72384637   -116.71266   -445.96448    4.3488365    4.3488365    4.3488365   -445.96448    2501.6365   -1108.4276   -2731.1023    2245.9025    8864.4123    -4095.329    82.246843 
   78500    702.33077   -117.34787   0.63548364   -116.71239    2144.6063    4.3484899    4.3484899    4.3484899    2144.6063    1309.9651   -14058.081    19181.935    13389.942   -6465.9321   -4213.9647    82.227178 
   78600    787.86786   -117.42195   0.71287939   -116.70907    13117.854    4.3360923    4.3360923    4.3360923    13117.854    24569.033    3393.1854    11391.344    5352.7411    11666.372    4573.2137    81.525893 
   78700    800.47925   -117.43641   0.72429045   -116.71212   -2575.7275    4.3460138    4.3460138    4.3460138   -2575.7275    -3518.973    14796.061   -19004.271   -5434.5723    16635.687    9066.6722    82.086795 
   78800    946.57428    -117.5658    0.8564803   -116.70932   -3809.3165    4.3489078    4.3489078    4.3489078   -3809.3165   -8592.9197    244.95547   -3079.9853    5882.6877   -6903.2656   -2313.5927    82.250888 
   78900    905.04473   -117.52784   0.81890349   -116.70893    6130.2358     4.340012     4.340012     4.340012    6130.2358    9935.9535   -13102.463    21557.217    8943.9245    1218.9865   -3386.5945    81.747185 
   79000    708.60075   -117.35426   0.64115685   -116.71311    -9164.463    4.3443823    4.3443823    4.3443823    -9164.463    418.22028    1370.1142   -29281.723   -2201.7663    20725.309    9730.6926    81.994383 
   79100    778.44961   -117.41778   0.70435757   -116.71343   -7070.6199     4.345833     4.345833     4.345833   -7070.6199   -7831.7212    2309.2357   -15689.374    5245.8393    7837.3337   -413.10377    82.076551 
   79200    1029.1297   -117.64042   0.93117821   -116.70924   -1003.9021    4.3454877    4.3454877    4.3454877   -1003.9021   -6636.8411   -16456.983    20082.118    9575.0901   -12157.912   -714.78703    82.056989 
   79300    812.39725   -117.44547    0.7350741    -116.7104   -3868.2172    4.3462331    4.3462331    4.3462331   -3868.2172   -10882.737   -11591.091    10869.176    2642.6479    16623.329    6286.1077    82.099222 
   79400    652.26608   -117.30243   0.59018406   -116.71225   -6034.5618    4.3419114    4.3419114    4.3419114   -6034.5618   -6034.5272    1123.5585   -13192.717   -2571.4014    19702.883    9632.3149     81.85456 
   79500    784.61293   -117.42221   0.70993427   -116.71227    -10557.82    4.3461684    4.3461684    4.3461684    -10557.82   -20373.424   -6532.9118   -4767.1237    12479.431   -13903.322    3380.5681    82.095554 
   79600     865.7337   -117.49395   0.78333405   -116.71062    -6325.817    4.3455244    4.3455244    4.3455244    -6325.817   -24399.001   -5554.9056    10976.455    11402.597    1064.8597   -4832.7947    82.059069 
   79700    784.76234   -117.42088   0.71006945   -116.71081   -2435.7766    4.3429416    4.3429416    4.3429416   -2435.7766   -15483.433    15237.022   -7060.9187   -3012.8501    22403.958     8874.451    81.912835 
   79800    631.35419   -117.28215   0.57126254   -116.71089   -9677.0861    4.3502011    4.3502011    4.3502011   -9677.0861   -18563.223    5325.7326   -15793.768    4554.7619   -5644.6176    5224.0122     82.32429 
   79900    727.62078   -117.36613   0.65836657   -116.70776   -7712.6387    4.3464245    4.3464245    4.3464245   -7712.6387   -24772.109     3423.553   -1789.3602    7624.2314   -15595.392   -8674.1974    82.110069 
   80000    709.65805    -117.3509   0.64211351   -116.70878    8915.6961    4.3393365    4.3393365    4.3393365    8915.6961   -15404.828    22910.776     19241.14    1162.5107    17682.314   -8078.7979    81.709018 
   80100    851.08729   -117.48117   0.77008166   -116.71108    259.88952    4.3452479    4.3452479    4.3452479    259.88952   -11872.715    10671.686    1980.6972   -4775.3469     17443.67    6360.8632    82.043404 
   80200    649.49759   -117.30071   0.58767907   -116.71304    1608.4332    4.3494087    4.3494087    4.3494087    1608.4332   -10668.225    11702.795    3790.7294    3439.5164   -19233.908    3420.9529    82.279311 
   80300    756.59466   -117.39532   0.68458275   -116.71074   -192.51323    4.3457797    4.3457797    4.3457797   -192.51323   -6628.9197    1470.0805    4581.2996     7989.706   -4436.3092   -19115.539     82.07353 
   80400    1002.8636   -117.61259   0.90741205   -116.70518    6180.4523    4.3442717    4.3442717    4.3442717    6180.4523   -5203.2259    2881.0079    20863.575    -3395.394    14313.658   -2244.0841    81.988122 
   80500    1036.1934   -117.64417   0.93756954    -116.7066   -3549.3417    4.3466451    4.3466451    4.3466451   -3549.3417   -9101.4536   -500.52092   -1046.0506   -2529.9089   -5807.3396    12618.779    82.122574 
   80600    843.77878   -117.47421   0.76346877   -116.71074   -1247.6603    4.3451926    4.3451926    4.3451926   -1247.6603    7493.6722   -13451.195    2214.5418    7741.2213   -6821.2369   -5237.2909     82.04027 
   80700    1066.0337   -117.67438   0.96456967   -116.70981   -3876.6843    4.3449028    4.3449028    4.3449028   -3876.6843   -2288.0385   -23165.907    13823.893     6736.521    3451.3562    -7738.287    82.023856 
   80800    1265.2911   -117.85209     1.144862   -116.70723   -3483.5168    4.3461971    4.3461971    4.3461971   -3483.5168   -15744.128   -13253.819    18547.396   -9620.7676    3193.8839    5468.4018    82.097185 
   80900    982.81463   -117.60072   0.88927133   -116.71145     36.05488    4.3461425    4.3461425    4.3461425     36.05488    785.75173   -5948.7867    5271.1996    408.66522   -6405.9923    2366.5244    82.094091 
   81000    946.47121   -117.56807   0.85638704   -116.71168   -3575.6421    4.3475178    4.3475178    4.3475178   -3575.6421   -2389.5461   -12810.764    4473.3835    11538.924   -3208.3177   -15580.753    82.172046 
   81100    1147.6258   -117.74619    1.0383959   -116.70779    5032.9903    4.3447894    4.3447894    4.3447894    5032.9903   -15947.882    6379.0689    24667.784   -4682.5832    11184.058   -1919.8102    82.017438 
   81200    1137.2085   -117.73763    1.0289701   -116.70866    2560.5154    4.3449028    4.3449028    4.3449028    2560.5154   -9311.6743    431.41835    16561.802   -11125.132   -6322.9405     1971.163    82.023856 
   81300    912.02495    -117.5376   0.82521934   -116.71238    1675.3926    4.3467431    4.3467431    4.3467431    1675.3926   -159.81272   -156.35711    5342.3477    4658.2131   -10020.789   -18639.496    82.128126 
   81400    1006.4586   -117.62283   0.91066491   -116.71217    2844.9746    4.3457472    4.3457472    4.3457472    2844.9746   -8614.7547   -11194.922    28344.601     3400.523     637.1159   -12216.328    82.071688 
   81500    1173.2239   -117.77058    1.0615576   -116.70902     249.9267    4.3482714    4.3482714    4.3482714     249.9267   -17624.271   -16108.236    34482.287   -14801.426     -452.252    1059.3728    82.214785 
   81600     1098.755   -117.70225    0.9941766   -116.70807   -1540.0909    4.3482344    4.3482344    4.3482344   -1540.0909   -5054.8663   -7671.1025     8105.696   -3657.9442   -3590.8606   -3386.8925    82.212688 
   81700    995.58276   -117.60828   0.90082421   -116.70745      3229.35    4.3454726    4.3454726    4.3454726      3229.35    3482.0418   -16183.777    22389.785    5249.1404   -8085.4625   -10363.514    82.056131 
   81800    1096.1575   -117.69942   0.99182638    -116.7076   -4658.1351    4.3446432    4.3446432    4.3446432   -4658.1351   -7429.8158   -28835.848    22291.259   -14425.579   -221.92866    661.63126    82.009158 
   81900    1107.7449   -117.71014    1.0023109   -116.70783   -5454.6642    4.3473461    4.3473461    4.3473461   -5454.6642   -5019.1667   -15462.333     4117.507   -13289.397   -8609.3244    2377.4089    82.162311 
   82000    1055.6547   -117.66262   0.95517851   -116.70744   -1811.7201    4.3486433    4.3486433    4.3486433   -1811.7201    7163.3274   -12524.181   -74.306264    3419.0609   -12879.993   -11892.947    82.235882 
   82100    1011.5534   -117.62234   0.91527482   -116.70706   -2728.8088    4.3454909    4.3454909    4.3454909   -2728.8088    9185.2972   -23322.746    5951.0222   -2673.2203    4615.9161    2370.5446     82.05717 
   82200    865.33482   -117.49143   0.78297313   -116.70846   -6205.5652     4.346055     4.346055     4.346055   -6205.5652   -634.26992   -21096.931    3114.5057   -15598.228   -812.57993    6685.3729    82.089131 
   82300    964.04242   -117.58036   0.87228584   -116.70808   -3256.3844    4.3467988    4.3467988    4.3467988   -3256.3844    3830.3082   -6673.7781   -6925.6832   -521.69745   -1781.9605   -7211.5169    82.131284 
   82400    942.26227   -117.56091   0.85257871   -116.70833    7848.3066    4.3451489    4.3451489    4.3451489    7848.3066    23455.565   -9497.6043     9586.959    2934.9917   -42.864868   -8790.0515      82.0378 
   82500     793.5974   -117.42832   0.71806361   -116.71026    -1114.743    4.3473441    4.3473441    4.3473441    -1114.743    6532.5973   -19820.531    9943.7043   -16569.942    3165.1402    3666.0857    82.162197 
   82600    735.70908   -117.37501   0.66568504   -116.70933   -2789.2085    4.3469922    4.3469922    4.3469922   -2789.2085   -3069.4706   -8425.2156    3127.0607   -2644.6663    1588.9686   -1199.8194    82.142246 
   82700    820.23913    -117.4499    0.7421696   -116.70773    1132.5374    4.3466942    4.3466942    4.3466942    1132.5374     10768.92    3878.3158   -11249.623    10889.019   -11747.626   -13916.893    82.125353 
   82800    817.14002   -117.44603   0.73936547   -116.70667    1628.2393    4.3481127    4.3481127    4.3481127    1628.2393    9780.6043   -4844.1582   -51.728252   -10157.013     575.3166   -4301.1442    82.205782 
   82900    812.80686   -117.44262   0.73544473   -116.70717    675.90813    4.3439005    4.3439005    4.3439005    675.90813      7942.27   -7319.2731    1404.7275   -8541.3076    1471.5619    616.96063    81.967108 
   83000    670.18297   -117.31711   0.60639564   -116.71072   -5194.8586     4.346561     4.346561     4.346561   -5194.8586    11049.562    3138.3283   -29772.466    9572.2643   -8286.2272   -6191.4404    82.117805 
   83100      663.601   -117.31231   0.60044013   -116.71187   -1813.4318    4.3473153    4.3473153    4.3473153   -1813.4318    20476.806    9332.3844   -35249.486    969.55227   -7194.0737   -5686.1611    82.160563 
   83200    998.41709    -117.6102   0.90338876   -116.70681     6305.405    4.3424702    4.3424702    4.3424702     6305.405    27936.628    1709.5486   -10729.962   -6487.3244   -496.32999    5521.4054    81.886164 
   83300     735.2924   -117.37651   0.66530801    -116.7112   -7201.1848    4.3485747    4.3485747    4.3485747   -7201.1848    10034.418   -1745.8509   -29892.122    1558.4701    21.584651   -3826.1153    82.231992 
   83400    380.63602   -117.06036   0.34440747   -116.71595   -11811.995    4.3453265    4.3453265    4.3453265   -11811.995    182.17185    7788.3541   -43406.512    9463.9321   -10818.801   -7556.5299    82.047858 
   83500    693.70745   -117.34235   0.62768108   -116.71467    11008.277    4.3398126    4.3398126    4.3398126    11008.277    15411.105    15440.229    2173.4971   -1552.1159   -3803.8492    3289.2396    81.735917 
   83600    1106.2124   -117.71019    1.0009243   -116.70927   -3011.0164     4.348196     4.348196     4.348196   -3011.0164    10070.697    281.76217   -19385.508   -3810.4262    4255.8886    2524.5971     82.21051 
   83700    380.91142   -117.06235   0.34465666   -116.71769   -3288.2934    4.3464461    4.3464461    4.3464461   -3288.2934   -529.02007    7045.0741   -16380.934    13318.076   -5940.6099   -1987.9382    82.111293 
   83800    384.74578   -117.06526   0.34812607   -116.71713   -3986.7817    4.3449759    4.3449759    4.3449759   -3986.7817    4052.5989    7112.3517   -23125.296    3751.6288   -5078.8768   -5355.8026    82.027998 
   83900    1024.7634    -117.6354   0.92722747   -116.70818    4740.8386    4.3450089    4.3450089    4.3450089    4740.8386    21171.892    12573.962   -19523.337   -5748.4042    -18.47077     1740.325    82.029869 
   84000    901.13891   -117.52591   0.81536942   -116.71054    893.81885    4.3422918    4.3422918    4.3422918    893.81885    17249.383    9995.4416   -24563.368    3851.1393   -3638.4419   -1992.3655    81.876076 
   84100    416.36308    -117.0953   0.37673406   -116.71856   -11238.438    4.3484681    4.3484681    4.3484681   -11238.438    12048.845    5428.6453   -51192.805    8461.2652   -7272.0648   -7984.9466    82.225942 
   84200    602.43899   -117.25852   0.54509946   -116.71342    3297.4462    4.3461443    4.3461443    4.3461443    3297.4462    13749.685    4286.4891   -8143.8355   -1678.4154   -4337.4214   -1753.7118    82.094192 
   84300     866.4411   -117.49122   0.78397411   -116.70724    6006.7759    4.3438002    4.3438002    4.3438002    6006.7759    16663.501    2215.7701   -858.94314   -14755.962    6944.2135   -424.16875    81.961429 
   84400    631.38971   -117.28123   0.57129468   -116.70994   -7168.8517    4.3487999    4.3487999    4.3487999   -7168.8517    19438.218   -8760.5947   -32184.178     2821.684   -5963.4121   -10369.101    82.244766 
   84500    471.81717   -117.13855   0.42691009   -116.71164    1422.9205    4.3429937    4.3429937    4.3429937    1422.9205    5166.3173    7543.2393    -8440.795     7553.932   -9452.8936   -8854.5815    81.915786 
   84600    588.77622   -117.24472   0.53273709   -116.71198   -1189.5258    4.3449445    4.3449445    4.3449445   -1189.5258   -6209.1433   -8547.4827    11188.048   -23570.313    3335.4843    662.25737     82.02622 
   84700    773.42426    -117.4082   0.69981052   -116.70839    -10630.99    4.3508342    4.3508342    4.3508342    -10630.99    7950.2311   -15483.934   -24359.268   -13320.201   -2833.0166   -5046.1408    82.360241 
   84800    809.39454   -117.44025   0.73235719   -116.70789   -3919.1818     4.341806     4.341806     4.341806   -3919.1818    12911.674    7886.1904   -32555.409    7011.2489   -9269.3483   -5093.4831      81.8486 
   84900    466.26911   -117.13474   0.42189009   -116.71285   -2453.0863    4.3454695    4.3454695    4.3454695   -2453.0863   -6510.4795   -3516.4213     2667.642   -19753.717     -8661.41   -2953.3729    82.055959 
   85000    649.79565   -117.29898   0.58794876   -116.71103   -15716.891     4.351378     4.351378     4.351378   -15716.891    1549.6607    -25636.34   -23063.995   -14975.739    4492.3783    1333.6685    82.391123 
   85100    876.91714   -117.49893   0.79345305   -116.70548    1653.1863    4.3408558    4.3408558    4.3408558    1653.1863    27074.297    4709.0611   -26823.799    10673.005   -2957.6379   -7064.1423    81.794873 
   85200    651.50231   -117.29917   0.58949298   -116.70967    3092.0981    4.3438241    4.3438241    4.3438241    3092.0981     11651.49   -195.31946   -2179.8764   -14092.076   -9830.9371   -3280.4667    81.962782 
   85300     450.1592    -117.1213    0.4073135   -116.71399    -9389.038    4.3495402    4.3495402    4.3495402    -9389.038   -2070.2038   -22375.491   -3721.4192   -24435.282    3012.1627    4715.7146    82.286775 
   85400    668.05006   -117.31473   0.60446573   -116.71027    -2235.805    4.3416968    4.3416968    4.3416968    -2235.805    7606.5693   -13647.237   -666.74699    9651.7726    3854.4407   -2712.5595    81.842424 
   85500     777.3168   -117.41321   0.70333258   -116.70987   -2983.3681    4.3453322    4.3453322    4.3453322   -2983.3681    12145.314   -2754.3998   -18341.018    7975.8891    3543.5687   -5166.5362    82.048178 
   85600    593.13168   -117.24777   0.53667801   -116.71109    -5032.016    4.3479178    4.3479178    4.3479178    -5032.016    1687.5111   -15979.449   -804.10981    -24313.46   -4996.2686   -900.34292    82.194731 
   85700    495.17804   -117.15984    0.4480475   -116.71179   -2596.4593    4.3396847    4.3396847    4.3396847   -2596.4593   -5331.7222   -19315.375     16857.72   -1096.6481   -3056.5233    4466.8185     81.72869 
   85800    623.26632   -117.27627   0.56394446   -116.71232   -14552.209    4.3469564    4.3469564    4.3469564   -14552.209   -767.31538   -14701.679   -28187.632    26593.803    5521.3523   -2814.0404    82.140221 
   85900     777.0749   -117.41115    0.7031137   -116.70803   -9817.8165    4.3480816    4.3480816    4.3480816   -9817.8165    11538.682   -11694.182   -29297.949   -11997.348   -3487.8662    -1786.572    82.204022 
   86000    559.71351   -117.21648   0.50644055   -116.71004    7024.0583    4.3387433    4.3387433    4.3387433    7024.0583    9332.0429   -9286.2055    21026.338   -14595.621   -830.73201    1738.5016    81.675514 
   86100    399.59684   -117.07613   0.36156362   -116.71456   -13318.055      4.34699      4.34699      4.34699   -13318.055   -7703.9943   -26882.383   -5367.7879    28693.061    1433.7177   -3253.4473    82.142126 
   86200    625.70939   -117.27782     0.566155   -116.71166   -12820.632    4.3483901    4.3483901    4.3483901   -12820.632    13587.061   -14578.749   -37470.208    9652.5248    3741.2818   -3684.9629    82.221521 
   86300    883.42808   -117.50604   0.79934429   -116.70669    3638.1131    4.3386455    4.3386455    4.3386455    3638.1131    22976.639   -1606.6354   -10455.665   -17297.982     2172.415   -2115.5003    81.669987 
   86400    405.66852   -117.08236    0.3670574    -116.7153   -2490.3859     4.346661     4.346661     4.346661   -2490.3859   -7513.0567   -23899.309    23941.208     19910.92   -4861.0404    2189.3995    82.123473 
   86500    483.43408   -117.15308   0.43742131   -116.71566   -15748.567    4.3497445    4.3497445    4.3497445   -15748.567   -4050.8393   -20546.612   -22648.249    22308.007    9887.1784   -3613.4366    82.298372 
   86600    878.15032   -117.50132   0.79456887   -116.70675     1108.482    4.3434773    4.3434773    4.3434773     1108.482      21344.2    3349.8944   -21368.648   -8555.3345    6199.2398   -2110.0722    81.943151 
   86700    723.11801   -117.36287   0.65429237   -116.70858   -1398.1485    4.3455725    4.3455725    4.3455725   -1398.1485    13890.533   -20853.529    2768.5504    16623.142    195.54436   -1382.2509    82.061791 
   86800    423.88842   -117.09745   0.38354315   -116.71391   -3442.4641    4.3454872    4.3454872    4.3454872   -3442.4641    14970.421   -20677.389   -4620.4238    26676.501    3756.8885   -1833.5553     82.05696 
   86900    674.10491    -117.3217   0.60994429   -116.71176   -5848.7762    4.3462519    4.3462519    4.3462519   -5848.7762    12797.179   -227.09369   -30116.413   -6259.2646    6781.1165    396.67193    82.100287 
   87000    788.51076   -117.42178    0.7134611   -116.70831   -7990.1579    4.3469005    4.3469005    4.3469005   -7990.1579    17730.164   -6575.4951   -35125.142    4895.4634    1008.3879    589.46066    82.137048 
   87100    620.14569   -117.27196   0.56112085   -116.71084   -2983.4048    4.3429105    4.3429105    4.3429105   -2983.4048    3385.5612    -23053.26    10717.484    28267.942   -8893.9485    2117.7277    81.911079 
   87200    640.07478   -117.28976   0.57915312    -116.7106   -8166.7232    4.3460403    4.3460403    4.3460403   -8166.7232    -3871.653   -6636.8824   -13991.634   -285.65207    3987.8231    -2089.541    82.088296 
   87300     646.9867   -117.29564   0.58540716   -116.71023   -12014.412    4.3490341    4.3490341    4.3490341   -12014.412    6652.2268     1787.832   -44483.295   -9785.7481    4262.4808   -572.43307    82.258056 
   87400    629.41406   -117.28021   0.56950707    -116.7107    2027.9468    4.3421913    4.3421913    4.3421913    2027.9468    13117.649   -4257.3021    -2776.507    16667.822   -4598.7213    445.02974    81.870388 
   87500    705.13142   -117.34744   0.63801773   -116.70942    6331.8319     4.343517     4.343517     4.343517    6331.8319    19462.179    -12126.15    11659.466    7456.7004    6113.9444    4784.0343    81.945402 
   87600    493.42814   -117.15817   0.44646415   -116.71171   -9282.6993     4.351966     4.351966     4.351966   -9282.6993    5004.3649   -7745.4082   -25107.055   -20032.127    5176.2441      2696.04    82.424529 
   87700    618.01151   -117.27038    0.5591898   -116.71119   -6467.6638    4.3437672    4.3437672    4.3437672   -6467.6638    1679.9003    12958.651   -34041.542    2165.5296    -2477.452    874.41822    81.959564 
   87800    822.63722   -117.45236   0.74433944   -116.70802    10652.367    4.3401604    4.3401604    4.3401604    10652.367    17890.338    3888.0462    10178.717    10932.097   -7398.3521   -764.03132    81.755566 
   87900    719.74529   -117.36134   0.65124067    -116.7101   -10878.134    4.3502312    4.3502312    4.3502312   -10878.134     -1573.45   -18503.646   -12557.308   -20292.686    3785.1673   -3064.3919    82.325998 
   88000    495.86916   -117.16202   0.44867284   -116.71335   -12600.525    4.3457555    4.3457555    4.3457555   -12600.525    -5194.942    12984.396   -45591.029   -8972.9816   -3373.8528    3799.8944    82.072159 
   88100    795.47096   -117.42945   0.71975884   -116.70969    48.624396    4.3429277    4.3429277    4.3429277    48.624396    13427.019    19780.252   -33061.398    7311.9696   -12983.483   -1270.4884    81.912049 
   88200    963.98139   -117.57901   0.87223062   -116.70678   -43.451114    4.3478183    4.3478183    4.3478183   -43.451114    12469.815   -12463.057   -137.11146   -13859.327    5406.8524    1082.2353    82.189086 
   88300    634.37395   -117.28593   0.57399488   -116.71193   -7317.4133    4.3461367    4.3461367    4.3461367   -7317.4133   -1131.0569   -2629.1203   -18192.063   -14517.835      475.478   -2444.5244    82.093762 
   88400    553.24682   -117.21466   0.50058935   -116.71407   -8738.2398    4.3447037    4.3447037    4.3447037   -8738.2398   -4776.2055    28370.471   -49808.985    1285.2699   -10389.485   -4003.3092    82.012581 
   88500    976.98701   -117.59301   0.88399838   -116.70902    1260.8801    4.3441252    4.3441252    4.3441252    1260.8801      9477.29     5878.531   -11573.181    355.22803   -63.594132    1019.9981    81.979829 
   88600    880.62513   -117.50574   0.79680813   -116.70894    5891.1613    4.3471363    4.3471363    4.3471363    5891.1613    7533.5011   -9839.3549    19979.338   -15894.762    558.73687   -3402.1048    82.150415 
   88700    617.96206   -117.27229   0.55914506   -116.71314   -9046.3177    4.3468219    4.3468219    4.3468219   -9046.3177   -6809.9039    14808.985   -35138.034   -7547.7056     936.8535    2632.6009    82.132594 
   88800    676.96461   -117.32491   0.61253181   -116.71238    1183.5207    4.3421319    4.3421319    4.3421319    1183.5207    9439.7981    21481.857   -27371.093    10557.751    -2307.587   -2268.0307    81.867028 
   88900    1090.0525   -117.69382   0.98630244   -116.70752    3415.5318    4.3466358    4.3466358    4.3466358    3415.5318    13049.131   -3218.5091    415.97311   -7188.6673   -2576.2434   -698.40947    82.122046 
   89000      969.395   -117.58579   0.87712896   -116.70866    5197.4618    4.3446933    4.3446933    4.3446933    5197.4618    16988.033    3522.4658   -4918.1131    -11843.71   -806.59564    266.39218    82.011992 
   89100    582.29848   -117.24139    0.5268759   -116.71451   -7171.3955     4.343823     4.343823     4.343823   -7171.3955    1920.7942    16944.736   -40379.716    4580.1765    581.25104   -3436.5126    81.962722 
   89200    851.51259    -117.4849   0.77046649   -116.71444   -11475.069    4.3475601    4.3475601    4.3475601   -11475.069   -3152.2661    1021.0468   -32293.988    3373.9924    4411.8156    2021.9371    82.174447 
   89300    1253.4078   -117.84103    1.1341097   -116.70692    12568.284    4.3410903    4.3410903    4.3410903    12568.284    20643.592    2785.1633    14276.096    3410.5336   -668.87427     2040.929    81.808129 
   89400    899.74607   -117.52717   0.81410916   -116.71306   -1613.3852    4.3449691    4.3449691    4.3449691   -1613.3852    2818.4352    8816.3713   -16474.962   -82.607936   -3926.0989    3636.9391    82.027612 
   89500    510.70346   -117.18133   0.46209523   -116.71924   -10944.646    4.3479953    4.3479953    4.3479953   -10944.646   -12985.636    8415.3977   -28263.698    5434.2845    3589.0814    2695.6851    82.199126 
   89600    1116.4564   -117.72262    1.0101933   -116.71243    6740.5871    4.3431453    4.3431453    4.3431453    6740.5871    19781.168   -3540.6969    3981.2905    13422.195     846.8732    1331.1488    81.924362 
   89700    1240.8934   -117.83079    1.1227864     -116.708    11446.645    4.3452513    4.3452513    4.3452513    11446.645    20256.836    444.67467    13638.425   -6307.7771   -4677.0142    -1209.735    82.043599 
   89800    670.61317   -117.32304   0.60678489   -116.71626   -877.39405    4.3451218    4.3451218    4.3451218   -877.39405    4987.7429    12766.246   -20386.171    39.764134     2530.281    2716.7822    82.036261 
   89900    821.81827   -117.45947   0.74359845   -116.71587   -7018.3471    4.3453259    4.3453259    4.3453259   -7018.3471   -8007.7145    5863.6601   -18910.987    13735.419    3099.7715    4350.1225    82.047823 
   90000     1347.153   -117.92594    1.2189323   -116.70701   -210.52413    4.3462465    4.3462465    4.3462465   -210.52413    3612.0224   -13970.068     9726.473   -5678.1939    2422.3908    1454.3453     82.09998 
   90100     962.7757   -117.58241   0.87113968   -116.71127    954.00188    4.3450812    4.3450812    4.3450812    954.00188     122.4178    6453.6377   -3714.0498   -8681.4881    1802.5903    3768.1826    82.033964 
   90200    817.02846   -117.45358   0.73926452   -116.71432   -11000.397    4.3453668    4.3453668    4.3453668   -11000.397   -16389.816    11596.698   -28208.072    3725.9465    965.15408   -3861.7333    82.050139 
   90300    1115.3168   -117.71885    1.0091621   -116.70968   -798.44416    4.3458431    4.3458431    4.3458431   -798.44416     3555.033   -10380.615    4430.2494    216.66968    1138.2102   -1417.1253    82.077124 
   90400    1135.0012   -117.73551     1.026973   -116.70854    874.40645    4.3474952    4.3474952    4.3474952    874.40645    13078.488   -19078.388    8623.1193   -16170.316   -1035.7409    1422.6681    82.170767 
   90500    823.76608   -117.45875   0.74536086   -116.71339    1446.5234    4.3447092    4.3447092    4.3447092    1446.5234   -4149.7052    10441.996   -1952.7203   -9423.8062    1107.6217   -405.47218    82.012895 
   90600    948.07823   -117.57136   0.85784111   -116.71352    2869.1919    4.3426323    4.3426323    4.3426323    2869.1919   -1104.2964    10644.007   -932.13495    6399.2655   -2366.9602    651.43936    81.895336 
   90700    1201.7462   -117.79751    1.0873653   -116.71015   -1136.4138    4.3494626    4.3494626    4.3494626   -1136.4138     3998.875   -20900.435    13492.318   -14773.098   -1313.6972   -4658.7159    82.282369 
   90800    975.81677   -117.59439   0.88293952   -116.71145    8145.6035     4.345484     4.345484     4.345484    8145.6035     975.8023   -3328.0032    26789.011   -14901.547    6978.6526    -2931.458    82.056781 
   90900    849.90175   -117.48146   0.76900897   -116.71245    10717.119    4.3407626    4.3407626    4.3407626    10717.119    14261.362    24130.074   -6240.0799    10268.814   -5997.5819   -4012.5245    81.789601 
   91000    960.37932   -117.58117   0.86897139    -116.7122   -2278.6338     4.349518     4.349518     4.349518   -2278.6338   -3379.1159   -4718.9796     1262.194    -4961.333   -5864.9524   -772.79508    82.285514 
   91100    1172.7634   -117.76841     1.061141   -116.70727    4365.4629    4.3434177    4.3434177    4.3434177    4365.4629    949.65052   -11902.488    24049.226   -12306.435    1667.6327    2450.9588    81.939782 
   91200    912.87465   -117.53751   0.82598817   -116.71152    6388.0042    4.3409927    4.3409927    4.3409927    6388.0042    7031.0828    15000.438   -2867.5077    -1281.919    -4336.218   -221.25705    81.802613 
   91300    776.76481   -117.41759   0.70283313   -116.71475    -11602.83     4.350268     4.350268     4.350268    -11602.83   -28196.139    15892.353   -22504.703    980.27835   -7892.0707   -2411.0404     82.32809 
   91400     1155.973   -117.75406    1.0459487   -116.70811    871.65268    4.3429727    4.3429727    4.3429727    871.65268   -5015.9305   -687.78136    8318.6699    -2877.373   -1798.2395    49.631661    81.914595 
   91500    1189.5355   -117.78402    1.0763167    -116.7077    2053.7653    4.3433404    4.3433404    4.3433404    2053.7653    11568.876   -7385.2049     1977.625   -12591.099   -2588.7485    7246.6164    81.935405 
   91600    618.35936   -117.27621   0.55950455   -116.71671   -7658.1854    4.3482285    4.3482285    4.3482285   -7658.1854   -14458.527     15751.83   -24267.859    5075.9319   -11007.985    4371.2593    82.212352 
   91700    817.03175   -117.45562    0.7392675   -116.71635    1138.8506     4.340697     4.340697     4.340697    1138.8506   -15030.646    25510.898   -7063.7004    4539.0879   -1305.8574   -718.23391    81.785898 
   91800       1343.2   -117.92515    1.2153556    -116.7098    5600.0691    4.3460989    4.3460989    4.3460989    5600.0691     14120.68    -11967.44    14646.967    -7539.802    5389.6047    1033.1374    82.091621 
   91900    998.53753   -117.61776   0.90349774   -116.71426   -5892.3072    4.3495932    4.3495932    4.3495932   -5892.3072   -2331.2206   -1814.0178   -13531.683    4024.4329   -10501.662    3553.8321    82.289785 
   92000    584.31191   -117.24661   0.52869769   -116.71791    1391.7304    4.3384253    4.3384253    4.3384253    1391.7304   -16452.211    30213.579   -9586.1764    2513.8178    -6052.314    2382.4329    81.657554 
   92100    1049.6823    -117.6646   0.94977456   -116.71483    2593.1219    4.3481282    4.3481282    4.3481282    2593.1219    8897.6664    1710.1855   -2828.4861    6687.0361    7789.4147     2280.508    82.206663 
   92200    1405.1797   -117.97769    1.2714361   -116.70625    -197.9791    4.3489768    4.3489768    4.3489768    -197.9791    13540.761   -14706.115    571.41631    3377.0349   -2766.4938    4548.9196    82.254807 
   92300    787.26102   -117.42615   0.71233031   -116.71382    13789.053    4.3352646    4.3352646    4.3352646    13789.053    27668.646    21562.356   -7863.8424   -2305.9055   -11539.162    550.33577    81.479213 
   92400    784.70929   -117.42822   0.71002145    -116.7182   -9790.4809    4.3497839    4.3497839    4.3497839   -9790.4809   -1467.2065    4421.3151   -32325.551     13467.81    7375.3637   -690.18495    82.300611 
   92500    1287.3533   -117.87324    1.1648243   -116.70842    5226.1453    4.3465332    4.3465332    4.3465332    5226.1453    19187.915   -4536.5022    1027.0234   -2403.9863    8348.8716    880.16029    82.116227 
   92600    1197.4131   -117.79197    1.0834446   -116.70852    18359.048    4.3354089    4.3354089    4.3354089    18359.048    33528.213    9388.0791    12160.853   -13337.425   -7299.6222    2450.8667    81.487349 
   92700    860.23703   -117.49302   0.77836054   -116.71466   -15405.657    4.3520496    4.3520496    4.3520496   -15405.657    -8175.039    4842.1243   -42884.057     5989.643    1348.5435    2374.2302    82.429279 
   92800     974.7841   -117.59239   0.88200514   -116.71038   -2192.8521    4.3460052    4.3460052    4.3460052   -2192.8521    12721.684    2295.3295    -21595.57   -2924.5515    7832.3563   -3321.3343    82.086306 
   92900    1197.9279   -117.79002    1.0839103   -116.70611    15499.596    4.3383742    4.3383742    4.3383742    15499.596    28197.602    6003.5923    12297.595   -13625.314    1543.9914   -2601.9998    81.654668 
   93000     975.2872   -117.59231   0.88246035   -116.70985   -6456.7496    4.3514133    4.3514133    4.3514133   -6456.7496    6783.7082   -4429.9817   -21723.975   -5698.8446   -4269.9275   -1033.2815    82.393133 
   93100    833.57843   -117.46547   0.75423928   -116.71123   -1592.1977    4.3434094    4.3434094    4.3434094   -1592.1977    9106.3008    17149.444   -31032.338    4122.6716    3683.7987   -2610.1415    81.939311 
   93200    1014.9004    -117.6283   0.91830317      -116.71    2162.2139    4.3400793    4.3400793    4.3400793    2162.2139    13849.468    1112.2863   -8475.1131   -8849.2841     1773.552    -342.8515    81.750988 
   93300    1070.6586   -117.67753   0.96875444   -116.70877   -4408.7107    4.3508653    4.3508653    4.3508653   -4408.7107     6484.366   -13119.945   -6590.5526   -19815.594   -10965.531   -1441.4802    82.362005 
   93400    895.59853   -117.52038   0.81035637   -116.71002    4792.9388    4.3435655    4.3435655    4.3435655    4792.9388    14246.447    16064.932   -15932.562     4751.359    4458.7837   -2350.5008    81.948146 
   93500    774.92202   -117.41296   0.70116573   -116.71179    4084.4569    4.3416271    4.3416271    4.3416271    4084.4569    23346.245     14567.76   -25660.635   -255.09053    12916.496   -6594.8934    81.838481 
   93600    907.13644   -117.53165   0.82079611   -116.71085   -4237.4636    4.3487569    4.3487569    4.3487569   -4237.4636    18288.428   -23375.252   -7625.5672    -22235.84    893.55477    -4236.699     82.24233 
   93700     930.2398   -117.55079   0.84170052   -116.70909    4238.0892    4.3435599    4.3435599    4.3435599    4238.0892    14629.944    275.80807   -2191.4845   -4624.6239    167.88923    2845.3284    81.947825 
   93800    755.38698   -117.39562   0.68349001   -116.71213   -4591.8517    4.3445053    4.3445053    4.3445053   -4591.8517    2307.5837    13620.384   -29703.523     3104.558    9634.5786   -1981.0036    82.001351 
   93900    790.56135   -117.42667   0.71531652   -116.71136    -9763.425    4.3478682    4.3478682    4.3478682    -9763.425    1734.7882   -8621.8142   -22403.249   -13153.746    5582.9633   -4470.5284    82.191917 
   94000    1034.8253   -117.64441   0.93633166   -116.70808    -3393.407     4.342156     4.342156     4.342156    -3393.407    11101.538   -16633.301   -4648.4577   -12268.174   -3283.8118    1339.4794    81.868391 
   94100    728.84968    -117.3735    0.6594785   -116.71402   -3193.9962     4.343953     4.343953     4.343953   -3193.9962    9902.6757     3875.959   -23360.623    4693.4387    421.85058   -880.47155    81.970081 
   94200    573.33718    -117.2349   0.51876753   -116.71614   -4442.8197    4.3490025    4.3490025    4.3490025   -4442.8197    17928.687     160.1641    -31417.31    1214.4807    914.23121   -6964.3743    82.256262 
   94300    992.46376    -117.6073   0.89800206    -116.7093    1528.9693    4.3444125    4.3444125    4.3444125    1528.9693    24503.741   -6112.9087   -13803.925   -10697.222    -1313.385    1609.9458    81.996094 
   94400    973.85869   -117.59107   0.88116781    -116.7099   -627.88355    4.3437158    4.3437158    4.3437158   -627.88355    26439.455   -8045.5259    -20277.58   -438.73502    299.41521    10822.595     81.95665 
   94500    606.88942   -117.26419    0.5491263   -116.71506   -13060.562    4.3503394    4.3503394    4.3503394   -13060.562   -3030.6722   -276.81859   -35874.194      9652.16    11102.079   -3077.7226    82.332146 
   94600     892.9478   -117.51836   0.80795793    -116.7104   -2678.0745    4.3445305    4.3445305    4.3445305   -2678.0745    11997.284    4195.4117   -24226.919   -712.20337    5177.4302    -2915.328    82.002776 
   94700    1045.4755   -117.65396   0.94596817   -116.70799    5016.5748    4.3423809    4.3423809    4.3423809    5016.5748    42115.412   -1163.7736   -25901.914   -1094.8648    -634.8079    11946.217    81.881116 
   94800    782.67129   -117.42197   0.70817743   -116.71379   -10184.682     4.347261     4.347261     4.347261   -10184.682    15393.066   -9012.2932    -36934.82    11078.623    4368.7258    6109.2948    82.157487 
   94900    597.84945    -117.2562   0.54094675   -116.71525     2035.213    4.3453975    4.3453975    4.3453975     2035.213    12563.492    8070.7155   -14528.568    5726.0605    3716.8553   -5333.1899     82.05188 
   95000    928.02942   -117.55122   0.83970052   -116.71152   -1193.6622    4.3415724    4.3415724    4.3415724   -1193.6622    15011.879    5458.7814   -24051.647   -400.78867   -1709.7838    7874.5893    81.835385 
   95100    918.38515   -117.54261   0.83097418   -116.71163   -118.01737    4.3439502    4.3439502    4.3439502   -118.01737     20139.14    -5371.424   -15121.769   -343.49943    20.638625    18324.867    81.969921 
   95200    766.43914    -117.4065   0.69349024   -116.71301   -7713.0864    4.3503954    4.3503954    4.3503954   -7713.0864   -11750.392   -7121.6032   -4267.2638    8803.1378    8626.2647   -2525.5458    82.335323 
   95300    750.89038    -117.3917    0.6794214   -116.71228    1089.4092    4.3401946    4.3401946    4.3401946    1089.4092    2970.1888    14794.637   -14496.599    4930.6479    3306.2076   -216.10786      81.7575 
   95400    764.38965   -117.40476   0.69163582   -116.71313    3712.9156    4.3420329    4.3420329    4.3420329    3712.9156    27575.713   -7707.0823   -8729.8843   -10880.353   -4257.7827    18576.142    81.861433 
   95500    881.49939   -117.50745   0.79759918   -116.70985   -10608.189    4.3533069    4.3533069    4.3533069   -10608.189   -953.15621    -12778.47   -18092.941    4072.4982    4617.5432    5424.4698    82.500741 
   95600    871.30005   -117.49692    0.7883706   -116.70855    7678.3099    4.3384935    4.3384935    4.3384935    7678.3099    20899.541    17195.151   -15059.762    12002.424    14716.408   -3456.1283    81.661405 
   95700    620.28688   -117.27675    0.5612486    -116.7155   -2674.5499    4.3402377    4.3402377    4.3402377   -2674.5499   -333.02721    5817.0891   -13507.712   -6376.6594    854.03603     11206.57    81.759935 
   95800    717.24393   -117.36315   0.64897738   -116.71417   -17092.911    4.3501703    4.3501703    4.3501703   -17092.911   -8657.1154    -12836.41   -29785.209   -17235.418   -6804.3432     14924.78    82.322541 
   95900    1008.0514   -117.61925   0.91210609   -116.70715   -977.70973    4.3449292    4.3449292    4.3449292   -977.70973    2302.8466    17623.894    -22859.87   -695.27901    4170.6239   -4124.3754    82.025352 
   96000    829.93357   -117.46014   0.75094133    -116.7092   -8138.2593    4.3446803    4.3446803    4.3446803   -8138.2593   -13308.839    11756.841   -22862.779    8566.2453     7840.215     1467.517    82.011259 
   96100    591.60185   -117.24901   0.53529378   -116.71372   -4152.2794    4.3400925    4.3400925    4.3400925   -4152.2794    -8453.577    14252.231   -18255.492    -11336.52   -3476.1094    18742.442     81.75173 
   96200    869.35717   -117.50165   0.78661263   -116.71504   -6944.1247    4.3473301    4.3473301    4.3473301   -6944.1247   -629.64425    1983.7752   -22186.505   -13930.713   -8301.0859    2247.3208    82.161406 
   96300    1158.5033   -117.75847    1.0482381   -116.71024   -4103.0831     4.346631     4.346631     4.346631   -4103.0831   -4319.5376    9025.7213   -17015.433    10821.106    4767.5646   -6637.7221    82.121774 
   96400    806.61387   -117.44337   0.72984118   -116.71353    14970.064    4.3348824    4.3348824    4.3348824    14970.064    21143.235    20102.012    3664.9454   -1385.3059    2399.1801     10913.01    81.457665 
   96500    636.74154   -117.29477   0.57613712   -116.71863   -13270.764     4.353264     4.353264     4.353264   -13270.764    -5404.331   -16775.198   -17632.764   -20793.668   -7887.1795    10516.004    82.498303 
   96600    1129.0652   -117.73106    1.0216019   -116.70946    -7755.576    4.3475085    4.3475085    4.3475085    -7755.576   -9785.3254    1153.6596   -14635.062   -3301.2613   -1772.5196   -4127.2693    82.171518 
   96700    1175.0036   -117.76727     1.063168   -116.70411    17923.318    4.3327918    4.3327918    4.3327918    17923.318    25525.859    27679.394    564.70068    8340.5183     2632.316    358.63645    81.339866 
   96800     701.7794   -117.35014   0.63498475   -116.71515   -16269.203    4.3537687    4.3537687    4.3537687   -16269.203    -17792.37   -21198.955   -9816.2842   -15684.957    3336.7491    16031.445    82.527001 
   96900    763.32386   -117.40796   0.69067147   -116.71729   -1276.5362    4.3428807    4.3428807    4.3428807   -1276.5362   -14358.256    10080.278    448.36951    -18274.49    -9111.558     4110.877    81.909392 
   97000    1305.8498   -117.89166    1.1815603    -116.7101    12304.843    4.3363341    4.3363341    4.3363341    12304.843    18481.233    24586.027   -6152.7331    1297.2965   -5441.1244   -6498.5569    81.539531 
   97100    1115.2517   -117.72238    1.0091031   -116.71327   -8219.2994    4.3517631    4.3517631    4.3517631   -8219.2994    2391.8605   -9322.9661   -17726.793   -849.33258    7205.2714    16003.783    82.413005 
   97200      602.237   -117.26262   0.54491669   -116.71771    11410.427    4.3411911    4.3411911    4.3411911    11410.427    8534.4764    8566.8079    17129.997   -20128.708   -6327.1326    15924.101     81.81383 
   97300    1011.7003   -117.62792   0.91540773   -116.71252    1217.7163     4.346858     4.346858     4.346858    1217.7163    3755.8193    9403.1051   -9505.7757   -5019.2053   -6362.7613   -498.05895    82.134639 
   97400    1273.0286   -117.85881     1.151863   -116.70695    1251.3076      4.34543      4.34543      4.34543    1251.3076    12832.017    3124.5534   -12202.648    5824.8269    1936.4314    1877.8907    82.053719 
   97500    984.92199   -117.60345   0.89117812   -116.71227    9850.4797     4.334567     4.334567     4.334567    9850.4797    26546.191   -1921.8007    4927.0491   -20483.891   -237.81416    11313.185    81.439885 
   97600    753.52857   -117.39932   0.68180849   -116.71751   -12788.685    4.3526654    4.3526654    4.3526654   -12788.685   -18384.176   -10232.024   -9749.8565   -16504.934   -11793.766    6255.1488    82.464277 
   97700    1078.9369   -117.68797   0.97624475   -116.71172   -2991.6364    4.3430583    4.3430583    4.3430583   -2991.6364   -7171.3129    13641.099   -15444.696    10097.104   -10832.002   -2542.7477    81.919439 
   97800      1126.53   -117.72832     1.019308   -116.70902    6670.6963    4.3359623    4.3359623    4.3359623    6670.6963    20322.977     2398.653   -2709.5413    2305.1158    6856.3608    10641.817    81.518559 
   97900    978.02377   -117.59626   0.88493646   -116.71132   -17804.483    4.3531452    4.3531452    4.3531452   -17804.483   -8631.9359   -24571.928   -20209.585   -12726.084   -6206.3447    4709.3537    82.491552 
   98000    916.02341   -117.53866   0.82883723   -116.70983    5134.1412    4.3410912    4.3410912    4.3410912    5134.1412   -2512.7143     15436.73    2478.4084   -2675.3434   -18364.672   -8734.6454    81.808179 
   98100    946.64102   -117.56631   0.85654068   -116.70977    3050.1635    4.3409061    4.3409061    4.3409061    3050.1635    8670.8168     7197.451   -6717.7771    7827.9674     4181.288    5796.2731    81.797714 
   98200    1018.0268   -117.62964     0.921132   -116.70851   -8936.8451    4.3492861    4.3492861    4.3492861   -8936.8451     5764.875   -21720.374   -10855.036   -2252.1446    7440.0542    14942.232    82.272357 
   98300    1001.3888   -117.61499   0.90607759   -116.70891    8820.1507    4.3394437    4.3394437    4.3394437    8820.1507     10692.87    404.20267    15363.379   -8769.0568   -12204.569    3955.8952    81.715075 
   98400    818.52479   -117.45513   0.74061843   -116.71451    1012.9204    4.3441928    4.3441928    4.3441928    1012.9204   -4717.1817    6161.5248    1594.4181    4240.9466   -7000.2997   -7009.5985    81.983657 
   98500    873.37337   -117.50356   0.79024658   -116.71331   -312.83376    4.3449742    4.3449742    4.3449742   -312.83376     3983.357   -3316.6677   -1605.1906    7112.9782     11796.21    8198.8551    82.027903 
   98600    1012.1143   -117.62511   0.91578224   -116.70933    6000.0937     4.343683     4.343683     4.343683    6000.0937    10669.622   -2086.5277     9417.187   -1984.5993    1279.8251    10370.166    81.954795 
   98700    950.94324   -117.56951   0.86043343   -116.70908   -6247.0632    4.3484567    4.3484567    4.3484567   -6247.0632   -4060.6066   -5330.6379    -9349.945   -3958.8763   -18775.809   -5899.4338    82.225295 
   98800    752.55925    -117.3922   0.68093143   -116.71127    7025.1542    4.3369249    4.3369249    4.3369249    7025.1542    5375.2718    12487.128     3213.063    3578.7067    3277.9094     5129.616    81.572862 
   98900    838.71315   -117.47276   0.75888528   -116.71388   -212.67634    4.3431526    4.3431526    4.3431526   -212.67634    5237.7672   -6269.5844    393.78812    7738.7591    16747.439    8884.5399    81.924775 
   99000    1013.0818   -117.62698   0.91665772   -116.71033   -13224.754    4.3514378    4.3514378    4.3514378   -13224.754    2859.7147   -24897.486   -17636.491    -4059.242   -12520.531   -3295.4461    82.394524 
   99100    839.90149    -117.4708   0.75996052   -116.71084    13118.362    4.3341941    4.3341941    4.3341941    13118.362    15856.222     9143.894    14354.971   -3118.7507   -7977.2494    -5751.978    81.418871 
   99200    653.68041   -117.30787   0.59146377    -116.7164   -6795.7606    4.3442745    4.3442745    4.3442745   -6795.7606   -9715.8586   -5868.1746   -4803.2484    8424.7061    18227.695    6806.1812    81.988278 
   99300     733.2658   -117.37606    0.6634743   -116.71258   -14819.362    4.3517237    4.3517237    4.3517237   -14819.362    3891.9126   -35621.291   -12728.708     5717.614    5969.2629    4722.5288    82.410762 
   99400    1052.4481   -117.65811   0.95227718   -116.70583    8000.6089    4.3345078    4.3345078    4.3345078    8000.6089    29879.162   -11955.167    6077.8322    357.28057   -6572.8053   -13109.147     81.43655 
   99500    754.66872   -117.39621   0.68284012   -116.71337   -1865.7253     4.343495     4.343495     4.343495   -1865.7253   -3458.4956   -4650.0453    2511.3649    3512.2978    11330.286   -748.17181    81.944155 
   99600    463.38501   -117.13618    0.4192805    -116.7169    -11952.49    4.3481859    4.3481859    4.3481859    -11952.49    6004.6308   -25638.867   -16223.235    6290.0912    20865.355    11071.352    82.209934 
   99700    793.47835    -117.4303   0.71795589   -116.71235    6973.8207    4.3395951    4.3395951    4.3395951    6973.8207    35072.136   -19151.146     5000.472    4135.3078    -115.0703   -3456.9274    81.723626 
   99800     1112.439    -117.7146    1.0065582   -116.70805   -362.86007    4.3437175    4.3437175    4.3437175   -362.86007    17821.541    -16270.94   -2639.1813   -3415.9319   -3711.8105    -5256.946    81.956749 
   99900    608.75467   -117.26738   0.55081402   -116.71657   -925.73575    4.3421363    4.3421363    4.3421363   -925.73575     16535.06   -19798.099    485.83211    3436.8545    21084.852    5926.7426    81.867279 
  100000    459.70739   -117.13601   0.41595291   -116.72006   -6059.0231    4.3433419    4.3433419    4.3433419   -6059.0231    12227.031    -23128.04   -7276.0604    6911.3218    7679.4301    7642.3377    81.935489 
Loop time of 22.5408 on 1 procs for 100000 steps with 8 atoms

Pair  time (%) = 7.02373 (31.1601)
Kspce time (%) = 5.52376 (24.5056)
Neigh time (%) = 0 (0)
Comm  time (%) = 1.10492 (4.90186)
Outpt time (%) = 0.0382535 (0.169708)
Other time (%) = 8.85012 (39.2627)

Nlocal:    8 ave 8 max 8 min
Histogram: 1 0 0 0 0 0 0 0 0 0
Nghost:    2189 ave 2189 max 2189 min
Histogram: 1 0 0 0 0 0 0 0 0 0
Neighs:    2056 ave 2056 max 2056 min
Histogram: 1 0 0 0 0 0 0 0 0 0

Total # of neighbors = 2056
Ave neighs/atom = 257
Neighbor list builds = 0
Dangerous builds = 0
unfix 20
unfix 21
print "seeds:3605424"
seeds:3605424
