LAMMPS (10 Feb 2015)
# ---- initialize simulations
clear
units metal
dimension 3
boundary p p p
atom_style charge
atom_modify map array
# ---- create atoms
read_data /Users/eugeneragasa/pyflamestk_git/pypospack/tests/tests_integration/workflow/WorkflowLammpsThermalExpansion/param_7521/MgO_NaCl_unit.npt.T1800/lammps.structure
  triclinic box = (0 0 0) to (4.2565 4.2565 4.2565) with tilt (0 0 0)
  1 by 1 by 1 MPI processor grid
  reading atoms ...
  8 atoms
# ---- define interatomic potential
include potential.mod
mass 1 24.305
mass 2 15.999

group Mg type 1
4 atoms in group Mg
group O type 2
4 atoms in group O

set group Mg charge 1.63791250839
  4 settings made for charge
set group O charge -1.63791250839
  4 settings made for charge

variable R_cut equal 10.0

pair_style buck/coul/long ${R_cut}
pair_style buck/coul/long 10
pair_coeff 1 1 0.0 0.5 0.0 ${R_cut}
pair_coeff 1 1 0.0 0.5 0.0 10
pair_coeff 1 2 1465.92328509 0.282476486176 0.0 ${R_cut}
pair_coeff 1 2 1465.92328509 0.282476486176 0.0 10
pair_coeff 2 2 5816.20442115 0.096233749689 18.932341092 ${R_cut}
pair_coeff 2 2 5816.20442115 0.096233749689 18.932341092 10

kspace_style pppm 1.0e-5

neighbor 1.0 bin
neigh_modify every 1 delay 0 check yes
# ---- define settings
compute eng all pe/atom
compute eatoms all reduce sum c_eng
# ---- run minimization
reset_timestep 0
fix 1 all box/relax iso 0.0 vmax 0.001
thermo 10
thermo_style custom step pe lx ly lz xy xz yz press pxx pyy pzz pxy pxz pyz c_eatoms
min_style cg
minimize 1e-25 1e-25 5000 10000
PPPM initialization ...
  G vector (1/distance) = 0.35267
  grid = 8 8 8
  stencil order = 5
  estimated absolute RMS force accuracy = 3.88211e-05
  estimated relative force accuracy = 2.69597e-06
  using double precision FFTs
  3d grid and FFT values/proc = 3375 512
Neighbor list info ...
  1 neighbor list requests
  update every 1 steps, delay 0 steps, check yes
  master list distance cutoff = 11
Memory usage per processor = 4.06549 Mbytes
Step PotEng Lx Ly Lz Xy Xz Yz Press Pxx Pyy Pzz Pxy Pxz Pyz eatoms 
       0   -108.70031       4.2565       4.2565       4.2565            0            0            0    82041.316    82041.316    82041.316    82041.316 -4.6499549e-11 -1.1702618e-10 1.7098221e-10   -108.70031 
      10   -108.77917     4.299065     4.299065     4.299065            0            0            0    28384.418    28384.418    28384.418    28384.418 -2.893711e-10 1.1285336e-10 8.1895601e-11   -108.77917 
      19   -108.79132    4.3240425    4.3240425    4.3240425            0            0            0 -0.024351241 -0.024351241 -0.024351241 -0.024351241 1.5580285e-11 -3.1606067e-12 1.2588801e-10   -108.79132 
Loop time of 0.00879312 on 1 procs for 19 steps with 8 atoms

Minimization stats:
  Stopping criterion = linesearch alpha is zero
  Energy initial, next-to-last, final = 
        -108.700309346      -108.79131697      -108.79131697
  Force two-norm initial, final = 11.8468 7.13952e-05
  Force max component initial, final = 11.8468 1.5084e-05
  Final line search alpha, max atom move = 0.5 7.54202e-06
  Iterations, force evaluations = 19 24

Pair  time (%) = 0.00238609 (27.1359)
Kspce time (%) = 0.00144267 (16.4068)
Neigh time (%) = 0 (0)
Comm  time (%) = 0.000297785 (3.38657)
Outpt time (%) = 2.59876e-05 (0.295545)
Other time (%) = 0.00464058 (52.7751)

Nlocal:    8 ave 8 max 8 min
Histogram: 1 0 0 0 0 0 0 0 0 0
Nghost:    2189 ave 2189 max 2189 min
Histogram: 1 0 0 0 0 0 0 0 0 0
Neighs:    2344 ave 2344 max 2344 min
Histogram: 1 0 0 0 0 0 0 0 0 0

Total # of neighbors = 2344
Ave neighs/atom = 293
Neighbor list builds = 0
Dangerous builds = 0
unfix 1
# ---- define output variables ----
variable natoms equal "count(all)"
variable tot_energy equal "c_eatoms"
variable length_x equal "lx"
variable length_y equal "ly"
variable length_z equal "lz"
variable tilt_xy equal "xy"
variable tilt_xz equal "xz"
variable tilt_yz equal "yz"
variable tot_press equal "press"
variable press_xx equal "pxx"
variable press_yy equal "pyy"
variable press_zz equal "pzz"
variable press_xy equal "pxy"
variable press_xz equal "pxz"
variable press_yz equal "pyz"

# ---- output ----
print "pypospack:output_section:begin"
pypospack:output_section:begin
print "tot_energy = ${tot_energy}"
tot_energy = -108.791316969709
print "num_atoms = ${natoms}"
num_atoms = 8
print "xx = ${length_x}"
xx = 4.32404254484564
print "yy = ${length_y}"
yy = 4.32404254484564
print "zz = ${length_z}"
zz = 4.32404254484564
print "xy = ${tilt_xy}"
xy = 0
print "xz = ${tilt_xz}"
xz = 0
print "yz = ${tilt_yz}"
yz = 0
print "tot_press = ${tot_press}"
tot_press = -0.0243512411551094
print "pxx = ${press_xx}"
pxx = -0.0243512413415371
print "pyy = ${press_yy}"
pyy = -0.0243512409516822
print "pzz = ${press_zz}"
pzz = -0.024351241172109
print "pxy = ${press_xy}"
pxy = 1.55802849425254e-11
print "pxz = ${press_xz}"
pxz = -3.16060668162342e-12
print "pyz = ${press_yz}"
pyz = 1.25888006757422e-10
print "pypospack:output_section:done"
pypospack:output_section:done
print "pypospack:lammps_sim:done"
pypospack:lammps_sim:done
#------------------------------------------------------------------------------
# RUN THERMOSTAT
# running using an NPT Nose-Hoover style thermostat
#------------------------------------------------------------------------------
variable tempdamp equal 0.1
variable pressdamp equal 1.0
# set initial velocities
velocity all create 1800 2174752 mom yes dist gaussian loop all
# fix for Nose-Hoover style thermostat
fix 20 all npt temp 1800 1800 0.1 aniso 0.0 0.0 1.0 drag 1.0 couple xyz
variable boxx equal lx
variable boxy equal ly
variable boxz equal lz
variable boxp equal press
variable boxt equal temp
# calculate averages every 10000 steps
reset_timestep 0
fix 21 all ave/time 10 10 100 v_boxx v_boxy v_boxz v_boxp v_boxt file lattice.out
thermo_style custom step temp pe ke etotal press lx ly lz press pxx pyy pzz pxy pxz pyz vol
thermo_modify flush yes
thermo 100
run 100000
PPPM initialization ...
  G vector (1/distance) = 0.351996
  grid = 8 8 8
  stencil order = 5
  estimated absolute RMS force accuracy = 4.00454e-05
  estimated relative force accuracy = 2.781e-06
  using double precision FFTs
  3d grid and FFT values/proc = 3375 512
Memory usage per processor = 3.06549 Mbytes
Step Temp PotEng KinEng TotEng Press Lx Ly Lz Press Pxx Pyy Pzz Pxy Pxz Pyz Volume 
       0         1800   -108.79133    1.6286778   -107.16265    21515.334    4.3240425    4.3240425    4.3240425    21515.334    22300.867    13699.681    28545.455   -1930.8464   -9785.5723    13824.413    80.848111 
     100    414.48194   -107.33655   0.37503197   -106.96152     26890.51    4.3473256    4.3473256    4.3473256     26890.51    70669.788    6749.0457    3252.6951    6518.7287    5388.7117   -35844.074    82.161148 
     200    1612.9158   -107.95981    1.4594001   -106.50041   -30447.465     4.389298     4.389298     4.389298   -30447.465   -10330.602   -38584.068   -42427.725   -1241.1948   -15170.147    -1224.162    84.563936 
     300    1051.1144   -107.08394   0.95107039   -106.13287    2176.4158    4.3929836    4.3929836    4.3929836    2176.4158     90532.81   -44691.852   -39311.711   -4744.6872    4423.9772   -22842.894    84.777137 
     400    1909.7591   -107.52147    1.7279902   -105.79348   -12181.554    4.3762812    4.3762812    4.3762812   -12181.554    -3514.215   -18988.578   -14041.869   -36.711795   -12279.856   -22312.752    83.813824 
     500    1626.8606    -107.0778    1.4720176   -105.60578    10870.407    4.3786027    4.3786027    4.3786027    10870.407    106395.64   -27025.451   -46758.965    3203.0554    2857.4551   -22303.511     83.94728 
     600    1667.5393   -107.01309    1.5088246   -105.50426   -17905.904    4.3945155    4.3945155    4.3945155   -17905.904    30415.442   -52790.478   -31342.676    436.80758   -5496.4683   -22844.995    84.865854 
     700    2099.2216   -107.35698    1.8994198   -105.45756   -24363.257    4.4122362    4.4122362    4.4122362   -24363.257     40101.61   -81567.923   -31623.456    5644.1601   -23012.858   -23431.198    85.896658 
     800    1577.8175   -106.86765    1.4276424      -105.44   -6053.8355    4.4100609    4.4100609    4.4100609   -6053.8355    72164.036   -55033.099   -35292.443    3871.4586    33607.781   -13170.378    85.769672 
     900    1750.5992   -107.00607    1.5839789   -105.42209   -2315.7522    4.4000031    4.4000031    4.4000031   -2315.7522    24406.119   -1665.4956    -29687.88    6325.2411   -24177.816   -24939.899    85.184177 
    1000    1544.8782   -106.83872    1.3978383   -105.44088    17828.545    4.3908141    4.3908141    4.3908141    17828.545     153588.3   -41811.832   -58290.833   -7306.8116   -4224.6037   -25479.967    84.651595 
    1100    1939.0884    -107.2171     1.754528   -105.46257    1009.1091    4.3923535    4.3923535    4.3923535    1009.1091    12670.824    17969.869   -27613.367   -1615.8906    942.64326   -19607.308    84.740661 
    1200    2067.4237   -107.35065    1.8706484      -105.48   -27950.147    4.4048555    4.4048555    4.4048555   -27950.147    17539.709   -59400.204   -41989.947   -8581.2566   -24143.097   -49911.703    85.466319 
    1300    1474.0415   -106.80339    1.3337438   -105.46965    20377.334    4.4099674    4.4099674    4.4099674    20377.334    70558.306    14126.731   -23553.035    7308.7114    4265.4259   -20142.374    85.764216 
    1400    2086.5665   -107.34597    1.8879692     -105.458   -50023.263    4.4098979    4.4098979    4.4098979   -50023.263   -22191.846   -63397.731   -64480.211   -16372.493    -26333.08   -38662.515    85.760162 
    1500    1825.7404   -107.08767    1.6519683   -105.43571    22941.477    4.3954349    4.3954349    4.3954349    22941.477    66620.163    20747.969   -18543.702    7297.4601   -9339.3943    -191.5969    84.919133 
    1600    1778.5811   -107.06329    1.6092975   -105.45399    7338.8328    4.3855558    4.3855558    4.3855558    7338.8328    70173.305   -22791.886    -25364.92   -5109.3824   -12032.428   -57026.423    84.347831 
    1700    2195.0594   -107.45124    1.9861359   -105.46511    1003.5712    4.3933564    4.3933564    4.3933564    1003.5712   -6113.1876    10619.497    -1495.596    -3108.292   -1176.1204    9980.2744    84.798725 
    1800    1462.5144   -106.79477    1.3233138   -105.47145    6109.0245    4.3880777    4.3880777    4.3880777    6109.0245    83846.469   -8049.8129   -57469.582   -2785.9177    2287.5847   -54225.858    84.493425 
    1900    1953.7858    -107.2152    1.7678264   -105.44738    19986.297    4.3926074    4.3926074    4.3926074    19986.297    40927.778    2997.0242    16034.088    -3846.895    4833.1919    9398.7557    84.755357 
    2000     1258.615   -106.59763    1.1388213   -105.45881   -8984.8478    4.3919266    4.3919266    4.3919266   -8984.8478    67223.236   -7894.5589   -86283.221   -10515.851     13699.05     -61585.2    84.715958 
    2100    2511.9141   -107.72179    2.2728327   -105.44896     7270.453    4.3879732    4.3879732    4.3879732     7270.453   -9443.2865    11960.175    19294.471    6938.0734    18610.206    20697.868    84.487393 
    2200    1067.6492   -106.43629   0.96603143   -105.47026    3239.7051     4.394047     4.394047     4.394047    3239.7051    72195.337   -5574.5897   -56901.632   -13768.844   -5098.9873   -88664.307    84.838718 
    2300    2515.4234   -107.71983    2.2760079   -105.44382    4811.3521    4.3988939    4.3988939    4.3988939    4811.3521     22734.16    -18349.98    10049.877    10274.312    15623.282    21535.757    85.119774 
    2400    1070.2212   -106.43374    0.9683586   -105.46538   -13025.247    4.4108457    4.4108457    4.4108457   -13025.247    17245.493   -46247.582   -10073.653   -4605.0759    5142.1365     -58366.7    85.815474 
    2500    2673.3432   -107.83942    2.4188971   -105.42053   -6995.8098    4.4092467    4.4092467    4.4092467   -6995.8098    3519.4332   -7660.3269   -16846.536   -13535.806   -5453.0873    8670.1941    85.722177 
    2600    980.27436   -106.33867   0.88697284    -105.4517   -4408.1613    4.4012126    4.4012126    4.4012126   -4408.1613     29506.99   -72146.555    29415.081   -10222.234    1839.8382   -62541.849    85.254446 
    2700    2304.6626   -107.51074    2.0853071   -105.42543    9349.7645    4.3908949    4.3908949    4.3908949    9349.7645    12464.352   -8587.3232    24172.265   -24008.846   -11240.317    5140.7704    84.656268 
    2800    1896.4891   -107.15713    1.7159832   -105.44115   -42109.487     4.411089     4.411089     4.411089   -42109.487    4512.2174   -81548.976   -49291.702   -10530.989   -10506.852   -49101.252    85.829673 
    2900    2147.5653   -107.36337    1.9431622    -105.4202   -23101.944    4.4245344    4.4245344    4.4245344   -23101.944   -31189.307   -8559.3277   -29557.196   -7345.1861    7351.7267    2047.0999    86.616916 
    3000    2252.7806   -107.43795    2.0383632   -105.39959   -24292.502    4.3992208    4.3992208    4.3992208   -24292.502   -11181.866     -44189.3   -17506.341   -11631.072    917.91643    -46751.32    85.138751 
    3100    2043.0135   -107.25807    1.8485616   -105.40951     18644.68    4.3850928    4.3850928    4.3850928     18644.68   -7786.5158    53997.591     9722.966   -2476.9581   -16279.976   -5158.6827    84.321119 
    3200    1661.6875   -106.93496    1.5035298   -105.43143   -11245.662    4.3979353    4.3979353    4.3979353   -11245.662    34541.208   -23343.266   -44934.928    9071.1066   -15610.138   -53632.249    85.064141 
    3300    2330.3066   -107.53445    2.1085104   -105.42594   -4208.0065    4.4060919    4.4060919    4.4060919   -4208.0065    27791.021   -10920.591   -29494.449   -6342.9518    -7241.142    12418.637    85.538306 
    3400    1079.9496   -106.41632   0.97716114   -105.43916   -40968.409    4.4149343    4.4149343    4.4149343   -40968.409    26471.136   -86765.757   -62610.606   -4116.7527   -13469.739   -65984.254    86.054334 
    3500    2433.7904   -107.61615    2.2021447   -105.41401    4918.0559    4.3891071    4.3891071    4.3891071    4918.0559    50256.956    896.70721   -36399.496   -18498.896    3882.4747   -11100.091    84.552906 
    3600    1221.4443   -106.55365    1.1051885   -105.44846    4591.4377    4.3803262    4.3803262    4.3803262    4591.4377    99485.174   -49502.978   -36207.883    1840.6596   -10652.198    -44667.32    84.046445 
    3700     1954.705   -107.22228    1.7686582   -105.45362    20659.909    4.3978881    4.3978881    4.3978881    20659.909     62190.15    28807.882   -29018.306   -15111.005   -9761.3451   -219.20121    85.061402 
    3800    1726.9486   -107.01617    1.5625794   -105.45359   -37664.372    4.4108214    4.4108214    4.4108214   -37664.372    18680.029   -25381.513   -106291.63   -11243.732   -3864.2659   -44698.042    85.814054 
    3900    1558.1805   -106.84417    1.4098745   -105.43429     4739.832    4.4035871    4.4035871    4.4035871     4739.832    66640.814     23620.15   -76041.469    7694.1836    -9717.877   -20567.005     85.39251 
    4000    1879.8098   -107.12696    1.7008914   -105.42607     7691.774    4.3812682    4.3812682    4.3812682     7691.774    61007.085    330.85753   -38262.621   -12308.871    873.10468   -46057.629    84.100683 
    4100    2018.8645    -107.2757     1.826711   -105.44899   -15241.777    4.3816618    4.3816618    4.3816618   -15241.777    25170.411   -19558.134   -51337.608   -3555.2215   -298.05015   -16594.442    84.123349 
    4200    1658.4138   -106.95743    1.5005677   -105.45686    9907.5314     4.394407     4.394407     4.394407    9907.5314    78066.489    18335.387   -66679.282   -18928.546   -10450.865   -33022.834    84.859573 
    4300    2038.7971    -107.3053    1.8447465   -105.46055   -38214.047    4.4139938    4.4139938    4.4139938   -38214.047   -10553.303   -35275.913   -68812.924    10216.807     893.5585   -11883.756    85.999346 
    4400    1820.0448   -107.10297    1.6468148   -105.45615   -9111.1287    4.4017093    4.4017093    4.4017093   -9111.1287     53276.88   -35805.896    -44804.37    9194.5398   -22312.544   -17214.307    85.283317 
    4500    1953.4078   -107.20271    1.7674844   -105.43523    10096.554    4.3742397    4.3742397    4.3742397    10096.554    33426.039    20269.617   -23405.995   -4243.3626   -8996.6663   -30458.897    83.696586 
    4600    1599.3558   -106.91496    1.4471307   -105.46783    4149.0654    4.3917553    4.3917553    4.3917553    4149.0654    9190.7001    20636.291   -17379.795    16885.702    5474.3282    14813.502    84.706045 
    4700    1737.4646   -107.03788    1.5720944   -105.46578   -33132.015     4.407987     4.407987     4.407987   -33132.015     38446.71   -69918.919   -67923.836    3111.5874   -2701.7307   -70028.639    85.648726 
    4800    1398.9736   -106.69771    1.2658207   -105.43189    45579.217    4.3962906    4.3962906    4.3962906    45579.217    62796.387    26210.544    47730.719   -4119.6124   -5073.4346    11734.512    84.968738 
    4900    1662.5946   -106.93925    1.5043505    -105.4349   -12863.375    4.3942599    4.3942599    4.3942599   -12863.375    41032.959   -47630.013   -31993.071     10538.66    11744.748   -72442.412     84.85105 
    5000    2272.8919   -107.47885    2.0565603   -105.42229    26351.696    4.3934517    4.3934517    4.3934517    26351.696   -10420.019    27342.464    62132.643   -1662.4899    1124.9114    2648.2857    84.804238 
    5100     1428.607   -106.74888    1.2926336   -105.45625   -33551.773    4.3991202    4.3991202    4.3991202   -33551.773    -2687.271   -47557.971   -50410.076    9325.5457    7238.2571    -59561.92    85.132912 
    5200    2261.3714   -107.49715    2.0461363   -105.45102    11020.168    4.4046414    4.4046414    4.4046414    11020.168   -36078.828     20639.31    48500.021   -5763.8334    6765.1645    31619.892    85.453856 
    5300    1276.3478   -106.61279    1.1548664   -105.45792    16920.722    4.4007038    4.4007038    4.4007038    16920.722    2716.7997    66615.331   -18569.964     21054.97   -3139.6111   -55782.455    85.224882 
    5400    2135.0588   -107.39841    1.9318461   -105.46656   -19887.769    4.3982392    4.3982392    4.3982392   -19887.769   -17394.642   -33269.628   -8999.0351    4122.0727    19085.975    21481.608    85.081774 
    5500    1720.1754   -107.03936    1.5564509   -105.48291    24048.961    4.3799859    4.3799859    4.3799859    24048.961   -17801.218    26922.901      63025.2   -14205.757   -1964.6138   -45996.276     84.02686 
    5600    1399.3576   -106.78255    1.2661682   -105.51638    26595.249    4.3762642    4.3762642    4.3762642    26595.249    15909.287    18302.897    45573.562    31963.581    6365.0204   -34768.052     83.81285 
    5700    2281.6079   -107.56976    2.0644468   -105.50531    29505.234    4.3906055    4.3906055    4.3906055    29505.234    8599.7609    56895.965    23019.977    -19626.01    8696.4367   -7293.2936    84.639533 
    5800    1093.6157    -106.4887   0.98952646   -105.49917   -26580.365    4.4137646    4.4137646    4.4137646   -26580.365   -18787.902   -42884.525   -18068.667    23678.192   -5158.1269   -39184.588    85.985951 
    5900    2250.8596   -107.47418    2.0366251   -105.43755   -12491.493    4.4039592    4.4039592    4.4039592   -12491.493   -75004.053    24917.066    12612.509    21548.636    5545.9621    16367.235    85.414156 
    6000    1497.2355   -106.79731    1.3547301   -105.44258    35504.556    4.3823561    4.3823561    4.3823561    35504.556    76507.859    24451.493    5554.3142   -12183.851    13122.928   -34125.578    84.163348 
    6100    1846.9773   -107.13638    1.6711839    -105.4652   -1924.4335    4.3961909    4.3961909    4.3961909   -1924.4335    8339.6018   -12504.317    -1608.585     26623.33    10178.878    11186.472    84.962959 
    6200    1898.9058   -107.16941    1.7181699   -105.45124   -10044.486    4.4071866    4.4071866    4.4071866   -10044.486    35461.115   -30022.571   -35572.001   -11469.608     9652.082   -41569.221    85.602082 
    6300    1891.9466   -107.15112     1.711873   -105.43925   -29280.572    4.4120588    4.4120588    4.4120588   -29280.572    -26267.98   -35878.795   -25694.942    15447.283    1852.8945    124.43666    85.886297 
    6400    1482.9432   -106.77739    1.3417981   -105.43559     8301.551     4.392639     4.392639     4.392639     8301.551    -11571.72    26949.313    9527.0597   -3401.0186    6340.0611    -13640.06    84.757186 
    6500    1823.8183   -107.08776    1.6502291   -105.43753    14737.996    4.3735998    4.3735998    4.3735998    14737.996    44259.251    1812.9091   -1858.1713    16081.583    4664.2091   -31237.786     83.65986 
    6600    2262.8988   -107.51971    2.0475184   -105.47219   -24084.665     4.390533     4.390533     4.390533   -24084.665   -51013.846   -29886.002    8645.8537    12609.611   -10869.001     54.25701    84.635337 
    6700    1271.5763   -106.64005     1.150549    -105.4895   -8998.9748    4.4022531    4.4022531    4.4022531   -8998.9748    38705.143   -22714.432   -42987.635    3199.5324    16280.836   -44821.776    85.314925 
    6800     2336.196   -107.59157    2.1138392   -105.47773    4045.3238     4.399756     4.399756     4.399756    4045.3238    9068.6878   -22031.731    25099.014     5548.214   -8527.5569    13253.607     85.16983 
    6900     1546.909   -106.88374    1.3996757   -105.48406   -15077.514    4.3970252    4.3970252    4.3970252   -15077.514    19855.882    -13922.22   -51166.205    178.14877    13220.777   -46897.287    85.011339 
    7000    1571.3145   -106.89659    1.4217584   -105.47483    2310.7464     4.380192     4.380192     4.380192    2310.7464   -16551.411    16555.953    6927.6978    -8847.755     3172.178   -12530.076     84.03872 
    7100    2268.7125   -107.53259    2.0527787   -105.47981    2709.2574    4.3874844    4.3874844    4.3874844    2709.2574    29432.739    -7291.474   -14013.493    9570.8022    3684.8949   -1029.6285    84.459161 
    7200    1360.5638   -106.72048    1.2310667   -105.48941   -32940.012    4.4020065    4.4020065    4.4020065   -32940.012   -39202.797    -43052.88   -16564.359   -18691.698    23597.005   -40452.519    85.300589 
    7300    1944.9627   -107.23765    1.7598431   -105.47781   -4441.5056    4.3948453    4.3948453    4.3948453   -4441.5056   -43845.366    18834.045    11686.805   -456.42521    8787.0492    23423.299    84.884967 
    7400    1950.4901   -107.24862    1.7648445   -105.48378   -6324.8241    4.3853116    4.3853116    4.3853116   -6324.8241    8039.1845   -50056.604    23042.947   -1383.4989   -2520.5061    -11872.38    84.333745 
    7500    1688.3189   -107.01584    1.5276264   -105.48822   -1996.8513    4.3727184    4.3727184    4.3727184   -1996.8513   -48088.409    29603.799    12494.056   -32061.144     18374.13   -10063.861     83.60929 
    7600    2129.3305    -107.4192     1.926663   -105.49254    11216.007    4.3855353    4.3855353    4.3855353    11216.007    5959.1364   -30212.901    57901.785    8350.9811   -3851.0876    6306.3505    84.346651 
    7700    1381.3283   -106.73951    1.2498548   -105.48965    1413.5576    4.4043268    4.4043268    4.4043268    1413.5576    4391.2026   -28437.659    28287.129   -22158.138   -5301.4529   -24435.298    85.435546 
    7800    2038.2343   -107.29679    1.8442373   -105.45256   -35307.217    4.4102547    4.4102547    4.4102547   -35307.217    -34597.67    -19126.76    -52197.22   -3203.5657    11230.135     9786.927     85.78098 
    7900     1579.378   -106.87514    1.4290544   -105.44609   -932.82989    4.3955002    4.3955002    4.3955002   -932.82989   -41492.511    -58886.81    97580.831   -13186.133   -1150.7541    649.06322    84.922917 
    8000    1737.0305   -107.04179    1.5717017   -105.47009    4974.2291    4.3778609    4.3778609    4.3778609    4974.2291   -29384.384   -22464.985    66772.056   -16296.471    5039.4514   -17967.846    83.904623 
    8100    2274.3376   -107.55333    2.0578685   -105.49546   -1416.6768     4.393179     4.393179     4.393179   -1416.6768   -40854.061    44129.569    -7525.538   -14157.389     4942.835    12249.365    84.788449 
    8200    1230.7586   -106.61627    1.1136162   -105.50266   -32352.415    4.4081861    4.4081861    4.4081861   -32352.415   -22317.923   -63969.603   -10769.719   -40402.273   -7800.4912    -25452.17    85.660332 
    8300    2092.2145   -107.35648    1.8930796    -105.4634   -361.57749     4.409041     4.409041     4.409041   -361.57749     -35245.2    38149.006   -3988.5389    12369.546    525.96978   -17167.253    85.710181 
    8400    2040.8957   -107.29741    1.8466453   -105.45077   -20269.962    4.4045397    4.4045397    4.4045397   -20269.962   -59683.153   -14664.405    13537.673   -54995.083   -12432.568   -12341.431    85.447936 
    8500    1277.6152    -106.6157     1.156013   -105.45969    29108.838    4.3715028    4.3715028    4.3715028    29108.838     22550.25    38123.669    26652.594   -6345.9372    17168.393   -30246.199    83.539577 
    8600    2419.7051   -107.66463       2.1894   -105.47523    16789.702    4.3765155    4.3765155    4.3765155    16789.702    21621.667    22177.226    6570.2117    8063.2194   -5397.8669    8841.5278    83.827287 
    8700    1899.5599   -107.20305    1.7187617   -105.48429   -14733.856    4.4004484    4.4004484    4.4004484   -14733.856   -35313.977    22582.841   -31470.431   -9261.9267    12326.349   -19234.865    85.210047 
    8800    1887.7351   -107.17506    1.7080624   -105.46699   -28049.118    4.4119989    4.4119989    4.4119989   -28049.118   -40326.673   -6568.7694   -37251.912    28967.671    12246.208    14226.971    85.882798 
    8900    2046.6982   -107.29177    1.8518956   -105.43987   -6556.5062    4.4144657    4.4144657    4.4144657   -6556.5062    38949.556   -45385.103   -13233.972   -1550.5841    13886.526    18141.034    86.026931 
    9000    1836.4606   -107.09377    1.6616681   -105.43211   -29963.187    4.4099955    4.4099955    4.4099955   -29963.187   -23209.263   -59076.792   -7603.5076    35618.058    4850.8923   -10476.957    85.765856 
    9100     2341.668   -107.54037    2.1187904   -105.42157   -23755.696    4.3952463    4.3952463    4.3952463   -23755.696   -27686.543   -24371.007   -19209.538    27469.624   -3839.1538    23768.215    84.908202 
    9200    2015.0974   -107.25359    1.8233025   -105.43028   -16777.263    4.3994476    4.3994476    4.3994476   -16777.263   -24410.099    6616.8435   -32538.533    18017.597    12045.917    4189.3182     85.15192 
    9300    1207.2433   -106.53956    1.0923391   -105.44722   -7672.3021    4.4067996    4.4067996    4.4067996   -7672.3021   -25410.589   -5741.2172    8134.8996    42821.484    11673.963    12983.398     85.57953 
    9400    2275.6624    -107.5031    2.0590672   -105.44403    15096.099    4.3930947    4.3930947    4.3930947    15096.099   -24668.582    85788.624   -15831.745    -19985.08   -1093.2489    14752.785    84.783572 
    9500    1495.2478   -106.82133    1.3529316    -105.4684   -5707.7596    4.3855869    4.3855869    4.3855869   -5707.7596    -14801.65    10416.378   -12738.007    50009.923    6435.6595   -8605.1146    84.349626 
    9600    1984.3688   -107.27161    1.7954986   -105.47611   -16487.678    4.3879614    4.3879614    4.3879614   -16487.678    7011.6507   -27242.358   -29232.327   -7630.3632    6192.2127    19330.679    84.486707 
    9700    1806.9962   -107.11913    1.6350081   -105.48413    11871.741    4.3869528    4.3869528    4.3869528    11871.741    905.60148    80154.664   -45445.043    21289.031    19816.044    10669.082    84.428462 
    9800    1954.2485   -107.24735    1.7682451    -105.4791    10915.625    4.3894415    4.3894415    4.3894415    10915.625    3866.6803     31543.77   -2663.5755     33542.66   -14155.444    -17330.53    84.572233 
    9900    1437.8684   -106.78876    1.3010136   -105.48775    15910.012     4.386791     4.386791     4.386791    15910.012   -24894.595    68293.221      4331.41   -39968.054    9516.4125     17153.09     84.41912 
   10000    2563.6464   -107.79778    2.3196411   -105.47814    -4295.159    4.3897255    4.3897255    4.3897255    -4295.159   -8906.4621   -7228.8936    3249.8788     34056.37   -7556.0272   -15940.309    84.588647 
   10100    1168.3774   -106.53134    1.0571724   -105.47416   -17147.616    4.4042237    4.4042237    4.4042237   -17147.616   -63377.209    29380.531   -17446.169   -17882.556   -4621.3168    5063.6348    85.429548 
   10200    1662.4052   -106.94947    1.5041791   -105.44529   -1313.1464    4.4120133    4.4120133    4.4120133   -1313.1464   -36783.554     6835.622    26008.493   -30510.884   -8427.3097    1977.1754    85.883637 
   10300    1850.7055   -107.10652    1.6745572   -105.43197    31270.264    4.3869681    4.3869681    4.3869681    31270.264    8374.4656    61330.423    24105.902   -2744.7242   -30569.701   -8341.9353    84.429345 
   10400    1366.7035   -106.67768     1.236622   -105.44105    2570.9671    4.3754893    4.3754893    4.3754893    2570.9671    21237.658   -23277.624    9752.8674   -18481.805    5850.6224    19014.024    83.768334 
   10500    2698.9175   -107.89205    2.4420373   -105.45002   -28412.099    4.3936689    4.3936689    4.3936689   -28412.099   -39938.692   -16790.099   -28507.507    21377.953   -12954.712   -7698.3263    84.816821 
   10600    1671.6061   -106.96807    1.5125043   -105.45557   -258.05114      4.40162      4.40162      4.40162   -258.05114    15260.968   -24490.633    8455.5116   -21197.278   -2031.9401   -1381.1352    85.278124 
   10700    1897.3026   -107.15881    1.7167193    -105.4421    -1504.341     4.401448     4.401448     4.401448    -1504.341   -15714.322    14114.071   -2912.7714    13469.742   -5302.0081   -3523.1747    85.268127 
   10800    1656.3288    -106.9454    1.4986811   -105.44672    -12707.72    4.3845607    4.3845607    4.3845607    -12707.72   -30229.071   -13122.584     5228.495   -17316.995    5057.7127   -4532.0889    84.290426 
   10900    2011.9074   -107.26781    1.8204161    -105.4474    13339.915    4.3651347    4.3651347    4.3651347    13339.915    25013.966     7618.261    7387.5188    14056.139   -12168.001    27182.849    83.175027 
   11000    1547.0898   -106.88546    1.3998393   -105.48562   -7997.4158    4.3858253    4.3858253    4.3858253   -7997.4158   -72506.466    11730.295    36783.923    28937.567   -19107.745    -2806.562    84.363381 
   11100     1826.408   -107.11215    1.6525723   -105.45957   -2055.8728    4.3898136    4.3898136    4.3898136   -2055.8728    28491.825   -10943.757   -23715.686   -33281.353   -7494.5792    21383.948    84.593744 
   11200    1591.3818   -106.90169    1.4399157   -105.46177   -5205.5596    4.3779335    4.3779335    4.3779335   -5205.5596   -27298.825   -28136.259    39818.405    63283.303   -7717.1833    11326.884    83.908792 
   11300    2194.6999   -107.44659    1.9858106   -105.46078    3054.4039    4.3893827    4.3893827    4.3893827    3054.4039     3459.889    37460.747   -31757.425   -24848.009   -32280.662    12353.487    84.568831 
   11400    1243.7826   -106.59714    1.1254006   -105.47174   -17126.368     4.386141     4.386141     4.386141   -17126.368    14724.378   -63692.207   -2411.2755    25890.875    7183.3134     35640.19    84.381604 
   11500    1966.1941   -107.23193    1.7790537   -105.45288   -3085.7132    4.3843076    4.3843076    4.3843076   -3085.7132    6024.4308    18021.855   -33303.426    27679.319   -28736.774   -8089.2631    84.275832 
   11600     1863.572    -107.1441    1.6861991    -105.4579   -14221.157    4.3941284    4.3941284    4.3941284   -14221.157    1178.5686     22584.22   -66426.261      9073.73   -11808.028    11691.757    84.843431 
   11700    1304.1032   -106.63653    1.1799799   -105.45655    14830.763     4.388637     4.388637     4.388637    14830.763    44513.851    883.46528   -905.02816    25000.975    5406.9051    7173.1716    84.525741 
   11800    2153.0162   -107.40029    1.9480943   -105.45219   -18938.419    4.3883119    4.3883119    4.3883119   -18938.419   -2521.3868   -7309.6349   -46984.234     -405.949   -13350.798   -28942.875    84.506957 
   11900    1974.8452    -107.2516    1.7868815   -105.46472   -26314.469    4.3917659    4.3917659    4.3917659   -26314.469   -32157.087    -39475.32   -7311.0007     43248.58   -247.88048    22233.863    84.706659 
   12000    1213.6182   -106.58295    1.0981072   -105.48484    -10489.51    4.3748422    4.3748422    4.3748422    -10489.51    69779.557   -41848.286     -59399.8   -11882.626     13555.15    -35769.21    83.731174 
   12100    2191.1023   -107.46799    1.9825554   -105.48543    49004.931    4.3608639    4.3608639    4.3608639    49004.931    72939.627    83306.418   -9231.2527   -4565.7929    -4460.214   -2789.0768    82.931135 
   12200    1164.0858   -106.58356    1.0532893   -105.53027    -3963.373    4.3877101    4.3877101    4.3877101    -3963.373    28043.432    11055.921   -50989.472    27951.628    19719.698   -20035.228    84.472192 
   12300    2059.7321   -107.35301    1.8636889   -105.48932   -8623.6122    4.4071516    4.4071516    4.4071516   -8623.6122    11598.252    19897.246   -57366.335   -9233.1262   -4420.9002   -12620.187     85.60004 
   12400    1633.8933   -106.93793     1.478381   -105.45955   -11259.858    4.4063397    4.4063397    4.4063397   -11259.858    -22566.23   -845.04298   -10368.301    29757.416    18567.467   -4158.9904    85.552743 
   12500    1648.0421   -106.93539    1.4911831   -105.44421   -14761.581    4.3864877    4.3864877    4.3864877   -14761.581   -26334.399    307.75131   -18258.096    26439.736    10884.941   -32827.653    84.401613 
   12600     2417.068   -107.62411    2.1870139    -105.4371    20519.458    4.3728815    4.3728815    4.3728815    20519.458   -15728.488    70075.721    7211.1401    1637.3199   -2317.0843    9526.9424    83.618646 
   12700    1211.5787   -106.59601    1.0962619   -105.49974   -17689.385    4.3871419    4.3871419    4.3871419   -17689.385   -41812.878    1414.9656   -12670.242    36973.874    5244.2925   -41710.897    84.439382 
   12800    2114.6405   -107.39561    1.9133712   -105.48224    12546.481    4.4061713    4.4061713    4.4061713    12546.481    8392.1775    16654.937    12592.329   -21644.051    16875.799     1270.865     85.54293 
   12900    1047.5741   -106.41425   0.94786708   -105.46638   -4935.1688    4.4183956    4.4183956    4.4183956   -4935.1688     27943.11   -50858.226    8109.6101    26486.353    16754.635   -31092.162     86.25689 
   13000    2221.2559    -107.4171     2.009839   -105.40726   -19522.809    4.4087619    4.4087619    4.4087619   -19522.809   -38426.223   -37930.949    17788.743    4450.7709    3770.2008   -32537.371    85.693906 
   13100    1855.6439   -107.09521    1.6790256   -105.41619    23854.041    4.3810512    4.3810512    4.3810512    23854.041   -21619.273    67835.236    25346.161    2419.4284    7176.9185     10105.35    84.088185 
   13200    1662.2581   -106.95537     1.504046   -105.45132   -10463.772    4.3634523    4.3634523    4.3634523   -10463.772    18583.864   -55854.525    5879.3459    24193.588    9111.5277   -29704.416    83.078894 
   13300    1831.6448   -107.15978    1.6573107   -105.50247    36470.469    4.3901352    4.3901352    4.3901352    36470.469    2788.8378    51251.893    55370.675   -26128.642    1090.5614    1447.3068    84.612336 
   13400    1033.1064   -106.42022   0.93477634   -105.48545   -7655.0308    4.4249508    4.4249508    4.4249508   -7655.0308   -55606.447    39703.041   -7061.6868     39222.04   -1148.3276   -8068.1255    86.641378 
   13500    1596.6364   -106.88113    1.4446701   -105.43646   -9121.3889    4.4148297    4.4148297    4.4148297   -9121.3889   -66029.196    52876.906   -14211.878   -42662.878   -8604.1127    5573.8129    86.048216 
   13600    1892.5697   -107.12642    1.7124368   -105.41398    8659.5208    4.3831629    4.3831629    4.3831629    8659.5208    36635.495   -16142.283      5485.35     -7600.98    12806.957    10587.578    84.209841 
   13700    2016.6682   -107.27836    1.8247237   -105.45364   -25072.115    4.3875097    4.3875097    4.3875097   -25072.115   -11887.585   -23537.265   -39791.497    24434.917   -8556.9415   -25130.113     84.46062 
   13800    2076.8227   -107.34343    1.8791529   -105.46428   -1944.4496    4.3958716    4.3958716    4.3958716   -1944.4496   -17867.176    17691.313   -5657.4859   -30737.069    567.72767    6267.4853    84.944449 
   13900    1477.7551   -106.79866    1.3371038   -105.46155    47256.364    4.3851701    4.3851701    4.3851701    47256.364    18777.105    60787.108    62204.879    46596.131   -8217.7106   -1040.1598     84.32558 
   14000    1902.3088   -107.18532     1.721249   -105.46407    2780.8838    4.4034872    4.4034872    4.4034872    2780.8838    32346.881     19741.45    -43745.68   -9325.7363   -12199.215    -4041.457    85.386696 
   14100    1193.1008   -106.53767    1.0795427   -105.45812   -6555.1143    4.4038804    4.4038804    4.4038804   -6555.1143   -37602.824    -5784.445    23721.926    25398.463    29802.228       8653.9    85.409573 
   14200    2021.0962   -107.27642    1.8287303   -105.44769    12990.018    4.3722975    4.3722975    4.3722975    12990.018    51760.127      22550.1   -35340.172    27552.868   -19891.241    -2270.675    83.585147 
   14300    1853.2955   -107.14402    1.6769008   -105.46712    19310.887    4.3719619    4.3719619    4.3719619    19310.887    28058.395    18189.156     11685.11    7199.7162    7263.3603    15790.306    83.565901 
   14400    1652.3067   -106.98699    1.4950418   -105.49195   -28136.859    4.3891493    4.3891493    4.3891493   -28136.859    -19283.39   -47426.215   -17700.974    40446.979      9345.48   -7102.5931    84.555344 
   14500    2161.9375   -107.43029    1.9561665   -105.47412    12383.886    4.4044043    4.4044043    4.4044043    12383.886    68143.568   -20652.978   -10338.932    -25627.28   -10040.928    2526.9138     85.44006 
   14600    1446.0764   -106.77359    1.3084403   -105.46515   -24366.178    4.4073408    4.4073408    4.4073408   -24366.178     14990.02   -69224.077   -18864.477    29327.551    18733.812    2089.7051    85.611065 
   14700    2122.5663   -107.34686    1.9205426   -105.42632    26981.704    4.4020298    4.4020298    4.4020298    26981.704     92516.65   -40282.796    28711.258    6090.5055   -16380.326   -1401.8793    85.301945 
   14800    1767.8907   -107.04719    1.5996247   -105.44756    -11325.44    4.3906198    4.3906198    4.3906198    -11325.44   -24824.104   -7768.0951   -1384.1218    11448.003    14688.085    1085.1527    84.640361 
   14900    1765.3646   -107.06843     1.597339    -105.4711   -9960.0442    4.3827817    4.3827817    4.3827817   -9960.0442    27999.299   -44980.104   -12899.328    24055.555    24337.725   -20782.472     84.18787 
   15000    2733.9888   -107.95157    2.4737706    -105.4778   -10610.356    4.3993385    4.3993385    4.3993385   -10610.356   -12899.141   -17204.291   -1727.6361   -22476.403   -10707.804    17429.002    85.145588 
   15100    723.58427   -106.13383   0.65471426   -105.47912   -6563.6332    4.4149746    4.4149746    4.4149746   -6563.6332    7671.4848   -42393.957    15031.573    19913.957    25895.169   -17968.946     86.05669 
   15200    2537.1271   -107.73011    2.2956459   -105.43447   -20187.621    4.4063899    4.4063899    4.4063899   -20187.621   -26606.461    1322.5637   -35278.966   -14428.358   -17088.802   -1192.1957    85.555664 
   15300    1399.7918   -106.71188     1.266561   -105.44532    37768.889    4.3724539    4.3724539    4.3724539    37768.889    102153.92    5104.6734    6048.0701    20291.409    38488.208   -540.64872    83.594119 
   15400    1915.9593   -107.20873    1.7336002   -105.47513     14113.86    4.3720341    4.3720341    4.3720341     14113.86    37271.456   -15468.814    20538.937   -2519.9675   -13128.277   -15335.825    83.570044 
   15500    2337.6628   -107.59328    2.1151665   -105.47811   -10466.631    4.3907325    4.3907325    4.3907325   -10466.631     -27748.7   -6078.1555    2426.9623    5245.9985    374.39193     5514.155    84.646876 
   15600    1121.8839   -106.50688    1.0151041   -105.49177    19153.453    4.3903288    4.3903288    4.3903288    19153.453    49478.792    18579.808    -10598.24     25235.26    34591.568   -34604.876    84.623531 
   15700    2197.8181   -107.46247     1.988632   -105.47384    34154.069    4.3981686    4.3981686    4.3981686    34154.069    7729.8518    27585.157    67147.198    6668.3321   -12233.776   -674.73442    85.077676 
   15800    1343.4017   -106.68664    1.2155381    -105.4711   -9073.7708    4.3895737    4.3895737    4.3895737   -9073.7708   -44680.999    2721.3556    14738.331    32696.137    26635.024   -1383.5164    84.579877 
   15900    2005.9993    -107.2566    1.8150703   -105.44153    33456.848    4.3861045    4.3861045    4.3861045    33456.848     58129.39    11478.483    30762.671    4160.5745    8334.8045   -18479.113    84.379493 
   16000    1461.3188   -106.76942     1.322232   -105.44718   -41276.782    4.4123468    4.4123468    4.4123468   -41276.782   -48222.357   -52155.426   -23452.563    20025.345    19983.049      13598.7    85.903114 
   16100    1361.6684   -106.66911    1.2320662   -105.43704   -25707.866    4.3972295    4.3972295    4.3972295   -25707.866   -42928.003   -25786.468   -8409.1276    10547.673    20067.706   -26641.082    85.023192 
   16200    2493.2891   -107.67293    2.2559803   -105.41695    43780.827    4.3743485    4.3743485    4.3743485    43780.827    32339.249    20278.473     78724.76    4787.6154    802.07896    25456.287     83.70283 
   16300    1299.7996   -106.65193     1.176086   -105.47585    19475.751    4.3764469    4.3764469    4.3764469    19475.751    14416.753    46775.155   -2764.6545    33996.451    33955.841   -4607.9517    83.823346 
   16400    1990.6536   -107.27762    1.8011852   -105.47643    10529.133    4.4033519    4.4033519    4.4033519    10529.133   -15944.162   -13197.432    60728.992    -6374.007    -25875.92    8355.1552    85.378829 
   16500    1867.9144     -107.126    1.6901282   -105.43587   -36624.517    4.4225304    4.4225304    4.4225304   -36624.517   -68580.145   -34859.861   -6433.5463    27830.915    17260.607     5238.134    86.499278 
   16600    2312.8492   -107.49876    2.0927146   -105.40604   -20725.241    4.3986195    4.3986195    4.3986195   -20725.241   -23768.477   -8305.8724   -30101.375   -5168.1378   -15850.949   -1949.2884    85.103847 
   16700    1012.8839   -106.35014    0.9164786   -105.43366    29435.373    4.3699957    4.3699957    4.3699957    29435.373   -42648.778   -10366.128    141321.02    58102.364   -31524.629    7395.8484    83.453209 
   16800    2659.6755   -107.85448    2.4065303   -105.44795    1905.3022    4.3671657    4.3671657    4.3671657    1905.3022   -17862.646    3205.8735    20372.679   -1584.6635    20739.374    13531.207    83.291177 
   16900    864.66714   -106.29993     0.782369   -105.51757   -3366.5243    4.3979322    4.3979322    4.3979322   -3366.5243   -80238.428   -20988.922    91127.778    34773.087   -38206.969   -20150.376    85.063961 
   17000    2371.0799   -107.60546    2.1454029   -105.46006   -30015.492    4.4145113    4.4145113    4.4145113   -30015.492    -64891.27   -25651.048    495.84211   -2778.7314   -18428.459    18985.642    86.029597 
   17100    1890.7897   -107.17116    1.7108263   -105.46033   -2814.0895    4.3829164    4.3829164    4.3829164   -2814.0895   -40888.291   -36820.836    69266.859    26818.951    1122.2018   -7345.3864     84.19563 
   17200     1237.526   -106.60341    1.1197396   -105.48367    32820.688    4.3599209    4.3599209    4.3599209    32820.688   -41617.758    30918.666    109161.16    13869.994   -33315.077   -1279.7872    82.877343 
   17300    2184.3148   -107.47387     1.976414   -105.49746    23063.152    4.3823457    4.3823457    4.3823457    23063.152   -16419.795    8343.0347    77266.216    7391.4503    13843.309   -11628.442    84.162747 
   17400    1399.1837   -106.76752    1.2660109   -105.50151   -18774.747      4.40778      4.40778      4.40778   -18774.747   -46951.617   -56339.763    46967.139    18168.858   -39002.572    6158.7162    85.636662 
   17500     1869.164   -107.15946    1.6912588    -105.4682   -9518.2612    4.4069724    4.4069724    4.4069724   -9518.2612    -48536.66    5916.1774    14065.699   -16997.097        24592   -8642.7593    85.589599 
   17600    1700.1067   -106.99853    1.5382922   -105.46024    21077.419    4.3761038    4.3761038    4.3761038    21077.419   -14019.941    52138.774    25113.423    20857.028    363.28385     15958.47    83.803635 
   17700     1886.795   -107.17885    1.7072117   -105.47163     11793.27    4.3696956    4.3696956    4.3696956     11793.27    18235.936    29799.507   -12655.633   -19287.989   -31317.093   -3049.8855    83.436015 
   17800    1652.9332   -106.98203    1.4956087   -105.48642   -6584.0863    4.3883771    4.3883771    4.3883771   -6584.0863   -52609.138     27157.92    5698.9589    1853.7712    49134.348   -3773.8698    84.510726 
   17900    1891.6598   -107.17481    1.7116136    -105.4632   -11804.306    4.4090408    4.4090408    4.4090408   -11804.306   -36183.834   -7100.2803    7871.1951   -9465.8412   -33678.171    30296.796    85.710171 
   18000    1293.0144   -106.61385    1.1699466    -105.4439   -21590.182    4.4144815    4.4144815    4.4144815   -21590.182   -45811.847    6116.1044   -25074.803   -2327.0269    35941.024    6105.6858    86.027857 
   18100    2118.2044   -107.33232    1.9165958   -105.41572   -8437.0073    4.3952374    4.3952374    4.3952374   -8437.0073    -35852.23   -49664.322     60205.53    20116.995    713.97706     18259.87    84.907686 
   18200    1941.9075   -107.17141    1.7570787   -105.41433    31085.887    4.3585276    4.3585276    4.3585276    31085.887    15070.503    21289.985    56897.173   -3444.2497    37130.012   -10615.713    82.797915 
   18300    1585.1173   -106.91544    1.4342474   -105.48119    7810.7463    4.3721421    4.3721421    4.3721421    7810.7463   -4436.3108   -12400.877    40269.427   -907.98955   -2816.3124    9073.1246    83.576234 
   18400    1862.5679   -107.16192    1.6852906   -105.47663   -2031.2834    4.4133041    4.4133041    4.4133041   -2031.2834    17078.126   -31357.785    8185.8087    1650.6236   -25177.331   -5145.9355    85.959041 
   18500    1221.2938    -106.5423    1.1050523   -105.43725    -1801.888    4.4261922    4.4261922    4.4261922    -1801.888   -2376.7743   -36270.271    33241.381    14834.361    10639.694   -5247.9346    86.714319 
   18600    1843.9188   -107.05536    1.6684165   -105.38695    16885.399     4.412172     4.412172     4.412172    16885.399    6237.0486   -19506.568    63925.716    2995.7075   -37131.923    21888.774    85.892905 
   18700    1473.7833   -106.72796    1.3335101   -105.39445    17059.719    4.3909104    4.3909104    4.3909104    17059.719    102259.97   -25935.296   -25145.518    2841.6947   -19207.713   -31492.679    84.657168 
   18800    1786.1818   -107.03318    1.6161748     -105.417    19340.855    4.3908456    4.3908456    4.3908456    19340.855    36097.319   -25224.394    47149.641   -4440.4781   -24829.541    11376.778    84.653417 
   18900    1559.0102   -106.85887    1.4106252   -105.44825   -41046.999     4.403785     4.403785     4.403785   -41046.999     4717.374   -41379.229   -86479.144    4655.8296   -43123.295   -28371.855    85.404025 
   19000    1987.3499   -107.23056    1.7981959   -105.43237    17062.395    4.3876718    4.3876718    4.3876718    17062.395    1325.0933   -17735.653    67597.745    -8512.397   -6629.9575   -570.10143    84.469984 
   19100     1451.938   -106.76414     1.313744    -105.4504     12338.36      4.36833      4.36833      4.36833     12338.36    34356.055   -3784.9605    6443.9861   -6666.7025   -58735.007   -32330.557    83.357815 
   19200    1971.0726   -107.26027    1.7834679   -105.47681    2427.5673    4.3872975    4.3872975    4.3872975    2427.5673   -17238.592   -48584.607    73105.902    -8965.514   -7816.8503   -7084.8175    84.448364 
   19300    1392.8486    -106.7235    1.2602787   -105.46322    5473.3494    4.4173161    4.4173161    4.4173161    5473.3494   -10144.794   -27905.892    54470.735    1320.9176   -30314.312   -10981.107    86.193681 
   19400    1684.5755   -106.94419    1.5242393   -105.41995    -9698.502     4.419995     4.419995     4.419995    -9698.502     24626.39     7912.735   -61634.631   -20734.689   -9889.0134   -21199.162    86.350595 
   19500    1515.7696   -106.76811    1.3715002   -105.39661    23473.314    4.3959991    4.3959991    4.3959991    23473.314    22336.281    39566.389    8517.2732    -19993.46     1841.293   -7832.8384    84.951837 
   19600    1700.7357   -106.95174    1.5388614   -105.41288    33073.704    4.3766783    4.3766783    4.3766783    33073.704    41831.942    47437.257    9951.9126   -8229.4346   -19275.033   -53953.046    83.836643 
   19700    1834.3112   -107.09448    1.6597233   -105.43476    44765.066    4.3915907    4.3915907    4.3915907    44765.066    85677.519    75061.099   -26443.419   -29468.818    3500.6604    16805.009    84.696522 
   19800    969.25919   -106.33877   0.87700608   -105.46176     3039.175    4.4168766    4.4168766    4.4168766     3039.175    52815.065   -9068.9709   -34628.569   -7680.6058   -12062.933   -57386.524    86.167959 
   19900    2289.7569   -107.48494    2.0718201   -105.41312    1736.3488    4.4141421    4.4141421    4.4141421    1736.3488    29173.962   -16224.317   -7740.5986     -18165.3     5721.389    21473.831    86.008018 
   20000    1501.6509   -106.77662    1.3587253   -105.41789    883.44886    4.3791137    4.3791137    4.3791137    883.44886    60470.643    4131.3507   -61951.647   -20480.434    7289.5899    -54808.95    83.976675 
   20100    1903.2073   -107.16182     1.722062   -105.43976     28524.79    4.3716363    4.3716363    4.3716363     28524.79    44693.203     19359.99    21521.176    388.39483    6168.0892     20368.75    83.547234 
   20200    1601.1298   -106.92122    1.4487359   -105.47248   -312.76546    4.3891981    4.3891981    4.3891981   -312.76546    75441.696   -10519.543    -65860.45   -33527.413   -13311.745   -22530.099    84.558165 
   20300    1845.8451   -107.13518    1.6701594   -105.46502   -13916.422    4.4082259    4.4082259    4.4082259   -13916.422    17048.904   -29491.895   -29306.276    14428.564    15295.019   -9703.7698    85.662656 
   20400    2055.0117   -107.30848    1.8594177   -105.44906   -35853.639    4.3940842    4.3940842    4.3940842   -35853.639    -12308.96   -57973.154   -37278.803   -18736.678   -3965.3614     4185.703    84.840872 
   20500    1642.7541   -106.92521    1.4863984   -105.43881    35601.009    4.3734588    4.3734588    4.3734588    35601.009    103830.63    -19346.49    22318.886   -18671.576   -9059.1883   -42329.666    83.651765 
   20600    2038.2969   -107.30001    1.8442939   -105.45571   -8863.6849    4.3918131    4.3918131    4.3918131   -8863.6849   -7763.9292   -28877.444    10050.318    1398.1604    14792.072     28675.47     84.70939 
   20700    1237.5312   -106.58488    1.1197442   -105.46514    -25079.56     4.400809     4.400809     4.400809    -25079.56    35212.529   -93102.109     -17349.1   -8379.0622    -7932.159   -57280.666    85.230994 
   20800    2432.7968   -107.63822    2.2012457   -105.43697    10223.348     4.387454     4.387454     4.387454    10223.348     50714.64     -21553.4    1508.8023    3826.8926    20209.666    25376.741    84.457406 
   20900    1166.5061   -106.52964    1.0554792   -105.47416    1987.8479    4.3779942    4.3779942    4.3779942    1987.8479    43508.167    -86373.08    48828.457   -22807.656   -5212.9267   -55204.923    83.912283 
   21000    2719.9055   -107.92864    2.4610277   -105.46761   -2445.6407    4.3866721    4.3866721    4.3866721   -2445.6407    17786.443   -38309.571    13186.206      2614.28    11241.859    22574.349    84.412258 
   21100    1109.1722   -106.47305    1.0036023   -105.46945   -35570.798    4.4078373    4.4078373    4.4078373   -35570.798   -19370.287   -85613.686   -1728.4201   -14906.675    10748.529   -53883.613    85.640003 
   21200    1964.1674   -107.22876      1.77722   -105.45154   -54311.449    4.3957675    4.3957675    4.3957675   -54311.449   -54631.485   -83038.552    -25264.31   -35829.584   -9829.7249   -11401.007    84.938412 
   21300    1936.8874   -107.19926    1.7525364   -105.44672    11829.784     4.372382     4.372382     4.372382    11829.784   -15983.343    54768.625   -3295.9309    15967.891    11413.839   -3941.5131    83.589993 
   21400    1597.9624   -106.93242    1.4458699   -105.48655   -15933.943    4.3867168    4.3867168    4.3867168   -15933.943   -21993.703    7218.8574   -33026.983   -27953.891   -7042.6997   -42634.644    84.414839 
   21500    1494.4491   -106.83031     1.352209    -105.4781   -5985.4742    4.3994162    4.3994162    4.3994162   -5985.4742   -51064.244    1347.4173    31760.404    34742.261    8086.1479    14360.317    85.150098 
   21600    1922.9383   -107.19988     1.739915   -105.45997   -10316.364    4.3884706    4.3884706    4.3884706   -10316.364    869.94381   -17153.544   -14665.491    2025.5051   -17149.661   -21608.447    84.516127 
   21700    2234.6708   -107.48107    2.0219771    -105.4591   -32287.718    4.3870448    4.3870448    4.3870448   -32287.718   -33613.146   -29530.872   -33719.136    8008.6025   -17723.122   -19338.683    84.433774 
   21800    2263.3406   -107.49707    2.0479182   -105.44916   -30781.123    4.3984886    4.3984886    4.3984886   -30781.123   -33325.175   -27051.765   -31966.428    27632.289   -6115.8123   -1244.5593    85.096248 
   21900    1171.5022   -106.51483    1.0599998   -105.45483   -30649.796    4.3938716    4.3938716    4.3938716   -30649.796   -28960.948   -66990.705     4002.266    -16930.72   -31369.244   -8076.5666    84.828556 
   22000    2684.0717   -107.87357    2.4286045   -105.44496    9759.6317    4.3853906    4.3853906    4.3853906    9759.6317   -32195.552    40483.701    20990.746    26903.713   -8667.3989    5135.6406    84.338299 
   22100    1162.9202    -106.5356    1.0522347   -105.48337    7116.2554    4.3856262    4.3856262    4.3856262    7116.2554    20245.256   -50471.823    51575.333   -7879.3013    -26359.29   -11783.438    84.351894 
   22200      1796.14   -107.11218    1.6251852   -105.48699   -7622.7028     4.388028     4.388028     4.388028   -7622.7028   -36640.713     13897.24   -124.63572   -14744.928   -20524.194    2239.8647    84.490555 
   22300    1887.7488   -107.19482    1.7080747   -105.48674    20722.945     4.385386     4.385386     4.385386    20722.945   -38542.347    65110.166    35601.016     12409.84    28074.424   -8376.7683    84.338038 
   22400    1688.5842   -107.01341    1.5278665   -105.48555   -469.87131    4.3823449    4.3823449    4.3823449   -469.87131    -14409.37    13446.437    -446.6806   -28997.903   -21017.816   -10068.424    84.162698 
   22500    1469.9297    -106.8164    1.3300233   -105.48638    7650.9047    4.3936421    4.3936421    4.3936421    7650.9047   -52906.724    58619.728    17239.709    17479.887    26942.574    1693.5887    84.815268 
   22600     2458.479   -107.69164    2.2244834   -105.46715   -25433.408    4.3954232    4.3954232    4.3954232   -25433.408   -26264.353   -34755.547   -15280.322   -38815.219   -13757.992   -12968.722    84.918455 
   22700    1239.1046   -106.60277    1.1211679    -105.4816    28272.514    4.3821721    4.3821721    4.3821721    28272.514   -4516.5936    16559.345    72774.789    16506.025     -6999.73    -7479.045    84.152747 
   22800    1870.7953   -107.17183    1.6927349   -105.47909    1829.3194    4.3805597    4.3805597    4.3805597    1829.3194    4666.3187   -26537.765    27359.405   -29200.614    1869.9128    18122.979    84.059889 
   22900    1924.4026   -107.21802    1.7412399   -105.47678   -7527.1452    4.3917534    4.3917534    4.3917534   -7527.1452   -30248.297   -28579.513    36246.374   -22142.668   -1870.3504   -8954.7706    84.705937 
   23000     1688.996   -107.00914    1.5282391    -105.4809   -23173.296    4.3874896    4.3874896    4.3874896   -23173.296    19677.584   -42080.122   -47117.349    9458.0776    11491.308    28724.635    84.459461 
   23100    2011.3679   -107.29525     1.819928   -105.47532    3124.3654    4.3867243    4.3867243    4.3867243    3124.3654    15847.761   -15884.787    9410.1227   -34684.465   -6077.0122    11918.312    84.415269 
   23200    2028.7864   -107.30464    1.8356886   -105.46895   -27150.604    4.3988531    4.3988531    4.3988531   -27150.604   -15696.331   -5028.5065   -60726.973    8563.1624   -3071.9397    4240.7067    85.117403 
   23300    1868.5647   -107.13907    1.6907166   -105.44835   -37318.627     4.411869     4.411869     4.411869   -37318.627   -26599.824   -12654.069   -72701.989   -16800.738    8850.2839    35775.778    85.875213 
   23400    1977.7188   -107.19984    1.7894815   -105.41036   -30384.051    4.4243936    4.4243936    4.4243936   -30384.051   -44304.262    4686.7382   -51534.629    8168.6939   -12495.875   -7261.9687     86.60865 
   23500    1172.3574   -106.48446    1.0607736   -105.42368   -44931.193    4.4015637    4.4015637    4.4015637   -44931.193   -41285.048   -10776.333   -82732.197   -3264.3085    51867.658    43956.144    85.274851 
   23600    2176.8955   -107.36638    1.9697008   -105.39668     34750.92    4.3512275    4.3512275    4.3512275     34750.92    25102.893    78728.799    421.06747   -6501.4064   -53605.165   -6072.3146    82.382575 
   23700    1313.4028   -106.64684    1.1883944   -105.45844   -8869.6907    4.3557306    4.3557306    4.3557306   -8869.6907   -3155.1247    19182.079   -42636.027    4270.7137    45185.659    36307.639    82.638617 
   23800    1710.8338   -107.04271    1.5479984   -105.49472   -31299.882    4.3880974    4.3880974    4.3880974   -31299.882   -31571.139    4785.3969   -67113.905   -175.18978    -7233.586    23350.678    84.494563 
   23900    2249.2517   -107.51169    2.0351702   -105.47652   -27687.105    4.4095807    4.4095807    4.4095807   -27687.105    -19889.47   -9835.2354    -53336.61   -7502.5087   -11972.785    3.9689799    85.741661 
   24000     1025.804   -106.39229   0.92816898   -105.46412    -46564.14    4.4148812    4.4148812    4.4148812    -46564.14    -43043.76   -39999.149   -56649.512    29893.932    32912.717    21564.216    86.051228 
   24100    2721.1875   -107.89501    2.4621877   -105.43283    8725.8794     4.365892     4.365892     4.365892    8725.8794   -6852.9126    34464.607   -1434.0558   -12535.486    -23764.64    4645.9149    83.218323 
   24200    1198.2021   -106.54078    1.0841584   -105.45662    2682.6473    4.3483966    4.3483966    4.3483966    2682.6473    15117.573    28075.966   -35145.598   -9852.3093    35141.886    34857.909    82.221886 
   24300    2487.6634   -107.73395    2.2508901   -105.48306    10394.588    4.3847713    4.3847713    4.3847713    10394.588    9438.1233    30036.152   -8290.5128    30527.678    3791.2918   -11500.887    84.302575 
   24400    1712.5575   -107.02325     1.549558   -105.47369   -59297.405    4.4155119    4.4155119    4.4155119   -59297.405   -33022.557   -84733.124   -60136.532    -21370.84    6889.1126     39979.81    86.088113 
   24500    1868.9603    -107.1395    1.6910746   -105.44842   -18120.578    4.4022528    4.4022528    4.4022528   -18120.578   -19043.226    6438.9322   -41757.441   -12433.604    23307.552    -10578.54    85.314907 
   24600    1687.3297   -106.96142    1.5267314   -105.43469    9012.3414    4.3735506    4.3735506    4.3735506    9012.3414    52846.004   -168.36744   -25640.612    11122.201   -28304.218     33173.81    83.657033 
   24700    1780.7675   -107.05844    1.6112759   -105.44717   -7827.6724    4.3627282    4.3627282    4.3627282   -7827.6724    11671.333    1181.6734   -36336.024   -17264.018    60244.007    19583.752    83.037539 
   24800    1630.0956   -106.95124    1.4749447   -105.47629    13833.914    4.3786135    4.3786135    4.3786135    13833.914    29301.851    39110.304   -26910.414    13171.145   -43486.728    13389.424      83.9479 
   24900    1977.6584   -107.25695    1.7894268   -105.46752   -56702.857    4.4079415    4.4079415    4.4079415   -56702.857   -39751.489   -47420.719   -82936.363    112.04947    29800.693    46228.647    85.646074 
   25000    2216.6068   -107.45403    2.0056324    -105.4484   -11798.261    4.3936116    4.3936116    4.3936116   -11798.261   -11183.557    24191.734   -48402.962   -12890.404   -11496.255   -10424.632    84.813498 
   25100     1620.687   -106.91592    1.4664317   -105.44949    5641.0714    4.3570785    4.3570785    4.3570785    5641.0714    55620.246    -18576.27   -20120.762    683.76828   -1339.2103    70764.893    82.715359 
   25200    2266.8115   -107.51593    2.0510587   -105.46487    42151.061    4.3632516    4.3632516    4.3632516    42151.061    59723.718    63231.206    3498.2595    16434.077     21374.06   -13006.271     83.06743 
   25300    1158.1015   -106.54343    1.0478745   -105.49556   -40712.384     4.405949     4.405949     4.405949   -40712.384    -8138.128   -33151.419   -80847.605   -5736.7914    -24255.22    59030.931    85.529987 
   25400    2275.7405   -107.48312    2.0591379   -105.42398   -6944.7271    4.4176622    4.4176622    4.4176622   -6944.7271   -10856.832    6471.4344   -16448.783    4425.6043    23868.199    5104.6392    86.213947 
   25500    1569.5625   -106.86177    1.4201731   -105.44159   -13724.742    4.3829838    4.3829838    4.3829838   -13724.742    13741.211    23255.416   -78170.853    8159.7257   -35813.009    16104.572    84.199517 
   25600    1835.2983   -107.09872    1.6606164   -105.43811    30415.575    4.3484376    4.3484376    4.3484376    30415.575    56042.314    21041.493    14162.917   -8825.2043    11546.644    44058.748    82.224211 
   25700    2139.3963   -107.41165    1.9357707   -105.47588     11263.73    4.3703782    4.3703782    4.3703782     11263.73   -6590.3204    41194.837   -813.32671    363.56423   -14505.291   -15511.187    83.475124 
   25800    1364.5239   -106.73145    1.2346499   -105.49681   -43919.162    4.3997235    4.3997235    4.3997235   -43919.162    7463.1921   -44134.255   -95086.424   -813.05323   -27107.757    48675.059    85.167944 
   25900    2398.2895   -107.62176    2.1700227   -105.45174    13247.219    4.4055348    4.4055348    4.4055348    13247.219   -30061.378    39746.804    30056.229   -3840.3843      12878.7   -12185.182    85.505868 
   26000    1245.1389   -106.58674    1.1266279   -105.46011   -29343.641    4.3946007    4.3946007    4.3946007   -29343.641    7481.5816   -27375.356   -68137.148    77.594226    -19343.48    65463.099    84.870794 
   26100    2165.1451   -107.39905    1.9590688   -105.43998    29593.179    4.3663422    4.3663422    4.3663422    29593.179    7129.6055    53005.004    28644.928   -3586.0385    21228.309   -10294.593     83.24407 
   26200    1687.4867   -107.00326    1.5268734   -105.47639    2070.3497     4.373039     4.373039     4.373039    2070.3497   -8926.3843    27804.614    -12667.18   -425.15882    8401.6834    23507.434    83.627683 
   26300    1594.4999   -106.92343     1.442737    -105.4807    3233.0838    4.3976259    4.3976259    4.3976259    3233.0838    13662.076   -22166.149    18203.324   -8200.5961    -7460.557    20699.678    85.046189 
   26400     1794.939   -107.08549    1.6240985   -105.46139   -26776.435    4.4158549    4.4158549    4.4158549   -26776.435   -40226.848   -8755.8378   -31346.618    10062.624      47323.2    200.29994    86.108177 
   26500    1966.8363   -107.23287    1.7796348   -105.45323   -17674.201    4.3887078    4.3887078    4.3887078   -17674.201    789.01343   -3861.1424   -49950.473   -13968.808   -27162.256    45512.879    84.529829 
   26600    1413.2607   -106.71374     1.278748   -105.43499    37186.679    4.3481443    4.3481443    4.3481443    37186.679    30477.991    46805.582    34276.463   -3139.2929     39277.86   -14606.921    82.207578 
   26700    1907.3341   -107.20736    1.7257959   -105.48156    8060.6697     4.373526     4.373526     4.373526    8060.6697    55794.348   -6212.8801   -25399.459   -17.794398   -7765.4713    1423.6509    83.655622 
   26800    1655.4572   -106.98889    1.4978924     -105.491   -8737.8381    4.3963304    4.3963304    4.3963304   -8737.8381   -56530.764    21251.453    9065.7976    7130.3636    9674.7419    3815.0659     84.97105 
   26900    1683.3599   -106.99808    1.5231394   -105.47494   -8520.4542      4.41075      4.41075      4.41075   -8520.4542   -6869.4754   -9786.1764   -8905.7106   -4659.7061    11227.016   -20729.728    85.809888 
   27000    2465.4146   -107.66465    2.2307589   -105.43389   -25577.445    4.4011119    4.4011119    4.4011119   -25577.445   -64619.713   -1725.2976   -10387.324     14990.57   -8115.3143    26510.842    85.248593 
   27100    1127.2183   -106.45472    1.0199308   -105.43479    34465.097    4.3587674    4.3587674    4.3587674    34465.097    62072.148    41277.736    45.409292   -7213.0754    11468.303   -40729.987    82.811584 
   27200    2208.1999   -107.45242    1.9980257    -105.4544      30733.2    4.3576689    4.3576689    4.3576689      30733.2    54573.516    1068.3324    36557.752    20775.275    -11538.93    24966.534    82.748988 
   27300    1576.4836   -106.90633    1.4264355    -105.4799   -17330.091    4.3895316    4.3895316    4.3895316   -17330.091   -23925.587    11380.177   -39444.862    4743.2721     4689.934   -3936.1203     84.57744 
   27400     2035.681   -107.30402    1.8419269   -105.46209   -15433.474    4.3972441    4.3972441    4.3972441   -15433.474    8316.5784   -29003.774   -25613.226    7061.4711    5460.9197   -197.02647    85.024036 
   27500    957.02212   -106.33338   0.86593373   -105.46745    620.56207    4.3846553    4.3846553    4.3846553    620.56207   -6743.4664    3512.2317    5092.9209    4703.0235   -3163.5366    43582.942    84.295884 
   27600    2351.0336   -107.57582    2.1272646   -105.44855     26718.02    4.3716409    4.3716409    4.3716409     26718.02    7332.0168    52835.649    19986.394     10060.51   -9089.6989    11812.637    83.547494 
   27700    1351.8941   -106.70459    1.2232222   -105.48137   -10852.238    4.3822543    4.3822543    4.3822543   -10852.238    35561.373   -40144.965   -27973.123    9228.9405   -313.29197    43088.599     84.15748 
   27800    1841.1034   -107.14271     1.665869   -105.47684    3910.2256     4.399605     4.399605     4.399605    3910.2256    11595.524     19791.08   -19655.927    10787.431   -38.939569   -13962.586    85.161058 
   27900    1871.0818   -107.14366    1.6929942   -105.45067   -28177.209    4.4203222    4.4203222    4.4203222   -28177.209    15804.179   -43455.869   -56879.935    22337.106   -7038.8588    17893.859    86.369776 
   28000    1575.1692   -106.85831    1.4252462   -105.43307   -33639.572    4.4016413    4.4016413    4.4016413   -33639.572   -44414.592   -2696.8711   -53807.253    7611.2541   -4028.1658    6159.3589    85.279361 
   28100    2276.5825    -107.4653    2.0598997    -105.4054    19859.651    4.3605719    4.3605719    4.3605719    19859.651    75201.172   -3382.0847   -12240.135   -3541.5247    7357.3957    -41973.02    82.914477 
   28200    1690.0283   -106.98308    1.5291731   -105.45391    14770.762     4.363334     4.363334     4.363334    14770.762   -15138.756    14866.978    44584.062    27185.291   -11339.035    20383.757    83.072136 
   28300    1425.1179   -106.76642    1.2894767   -105.47694    12077.282     4.394752     4.394752     4.394752    12077.282    36618.231   -25267.776     24881.39   -10213.484   -23633.871   -66355.788    84.879559 
   28400    1869.1945   -107.13463    1.6912865   -105.44334    14125.159    4.4229552    4.4229552    4.4229552    14125.159   -13590.557   -57141.525    113107.56    11344.771   -8128.1511   -8331.8272    86.524206 
   28500    1115.1061   -106.41886    1.0089714   -105.40988    3075.8601    4.4261369    4.4261369    4.4261369    3075.8601     23832.08   -38420.678    23816.178   -9743.6816   -13525.637   -59164.407    86.711066 
   28600    2111.4652   -107.27092    1.9104981   -105.36042    3464.2573    4.4027452    4.4027452    4.4027452    3464.2573   -8591.0987    10458.419     8525.452    15448.516    7387.2659   -6968.4463    85.343541 
   28700    1570.9014   -106.76316    1.4213846   -105.34178    15541.798    4.3796107    4.3796107    4.3796107    15541.798    53800.571   -15189.901    8014.7242    10232.111   -5800.4514   -78316.502    84.005268 
   28800    2063.9915   -107.26084    1.8675429    -105.3933    21693.315    4.3939377    4.3939377    4.3939377    21693.315   -905.15867    49874.292     16110.81    6264.2258    18008.583   -701.40354    84.832387 
   28900    1175.9304   -106.47192    1.0640065   -105.40791   -52005.982    4.4160589    4.4160589    4.4160589   -52005.982   -10076.748   -63587.562   -82353.635    16783.666    16152.056   -84020.446     86.12011 
   29000    2469.9144   -107.62259    2.2348305   -105.38776    4553.3222    4.3985024    4.3985024    4.3985024    4553.3222   -6029.5065    42578.043    -22888.57   -8538.6262   -7681.0903   -730.11926    85.097047 
   29100    1284.7057   -106.56603    1.1624287    -105.4036    -11738.61    4.3846275    4.3846275    4.3846275    -11738.61    52142.712   -48773.586   -38584.954     20623.21    6433.2781   -76965.699    84.294281 
   29200    2149.0513   -107.36539    1.9445068   -105.42088    17885.364     4.376394     4.376394     4.376394    17885.364    9677.5866    47170.554   -3192.0489   -2757.2038   -13289.759   -3257.6494    83.820308 
   29300    1368.5406   -106.69549    1.2382843   -105.45721   -12250.857     4.393203     4.393203     4.393203   -12250.857    62397.866   -32641.286   -66509.151   -2405.4451     1737.239    -62747.38    84.789842 
   29400    2520.4595   -107.70823    2.2805647   -105.42767   -15176.389     4.397879     4.397879     4.397879   -15176.389    21719.586   -29756.345   -37492.408    4042.1659    4230.9608   -889.85957    85.060869 
   29500    1068.2652   -106.39379   0.96658882    -105.4272    5463.6644    4.3878652    4.3878652    4.3878652    5463.6644    49629.943    29211.139   -62450.089   -1054.5204   -8999.1828   -71583.852     84.48115 
   29600    2254.7103   -107.46655    2.0401093   -105.42644    5211.3508    4.3906844    4.3906844    4.3906844    5211.3508    44884.206   -23270.821   -5979.3331    -11175.61   -7230.1535     10617.27    84.644093 
   29700    1217.5477   -106.53295    1.1016628   -105.43129    217.13957    4.3941211    4.3941211    4.3941211    217.13957    3351.2495    15270.645   -17970.475   -12594.514   -1426.7211   -68826.433    84.843007 
   29800    2154.8392   -107.37481    1.9497438   -105.42507   -12709.759    4.3854905    4.3854905    4.3854905   -12709.759   -23631.935    18203.712   -32701.053    11399.907   -22661.139   -11671.173    84.344066 
   29900    1705.9859   -106.98868    1.5436119   -105.44507   -8320.2744    4.3769753    4.3769753    4.3769753   -8320.2744   -164.23278   -31913.967    7117.3763   -15784.835    9833.0557   -63262.979    83.853711 
   30000    1481.2372   -106.80823    1.3402545   -105.46797    15856.788    4.3740914    4.3740914    4.3740914    15856.788   -9600.9212   -1732.5497    58903.835    3708.1269   -20814.862   -30192.231    83.688074 
   30100     1830.453   -107.13006    1.6562323   -105.47383   -14096.297    4.3797628    4.3797628    4.3797628   -14096.297    22138.029   -33768.327   -30658.593    9528.4376   -3574.7827   -25835.706    84.014019 
   30200    1400.8238   -106.73396    1.2674948   -105.46647    2887.0962    4.3878554    4.3878554    4.3878554    2887.0962    60195.629   -39340.374   -12193.967   -16163.936    752.33211   -52372.731    84.480588 
   30300    2067.1359   -107.30119     1.870388    -105.4308   -18635.086    4.3944214    4.3944214    4.3944214   -18635.086   -42997.405    30188.043   -43095.896    6001.7595   -7310.6633    1593.0589    84.860405 
   30400    1353.8155   -106.66271    1.2249607   -105.43775   -19891.895    4.3804084    4.3804084    4.3804084   -19891.895   -2508.1709   -42671.791   -14495.722    -10075.12    3623.1201   -77270.271    84.051179 
   30500    2567.7504   -107.75171    2.3233545   -105.42835     4669.252    4.3683208    4.3683208    4.3683208     4669.252     2729.149    23697.242   -12418.635   -10419.377   -7644.7279      12409.9    83.357286 
   30600    1005.7359   -106.37242     0.910011   -105.46241    -9340.896    4.3838011    4.3838011    4.3838011    -9340.896    10704.238   -51150.416     12423.49    15622.981   -14087.475   -59846.564    84.246626 
   30700    2593.8756   -107.77059    2.3469931   -105.42359    1190.2011    4.3898434    4.3898434    4.3898434    1190.2011    59016.794   -30039.511   -25406.679    -13782.12    731.72209    15717.758    84.595463 
   30800    954.85656   -106.30154   0.86397428   -105.43757   -5601.4066    4.3941914    4.3941914    4.3941914   -5601.4066    37700.643   -51608.064   -2896.7992   -425.53684    7276.8674   -69141.761    84.847084 
   30900    2437.3474   -107.61771    2.2053632   -105.41235    8701.4136    4.3857634    4.3857634    4.3857634    8701.4136    20881.529    1922.3887    3300.3232    9942.6703     5195.969    17850.974    84.359808 
   31000    1191.6199   -106.51154    1.0782027   -105.43334    26083.241    4.3716125    4.3716125    4.3716125    26083.241    90291.896    5579.9342   -17622.106   -4164.4713   -11107.913   -67158.741    83.545871 
   31100    2266.0012   -107.47379    2.0503255   -105.42346   -1626.6577    4.3825209    4.3825209    4.3825209   -1626.6577    16226.878   -25545.834    4438.9826    21654.007   -2855.1887    7733.5984    84.172842 
   31200    1468.3624    -106.7717    1.3286051   -105.44309   -19979.812    4.3761795    4.3761795    4.3761795   -19979.812    43121.602   -50796.828    -52264.21    8253.2464   -15523.985   -65378.795    83.807982 
   31300    2025.9896   -107.27077     1.833158   -105.43761    31768.675    4.3755337    4.3755337    4.3755337    31768.675   -5082.5996    39614.415     60774.21    3020.4515   -12168.581    27444.951    83.770882 
   31400    1163.1894   -106.50666    1.0524782   -105.45419   -27676.949    4.3854376    4.3854376    4.3854376   -27676.949    34278.541   -43805.039   -73504.349    25724.951   -3101.0186   -78651.818     84.34101 
   31500    2284.5376   -107.50128    2.0670976   -105.43419    14505.796    4.3838358    4.3838358    4.3838358    14505.796   -4506.1168    32475.685    15547.821    717.50535    12025.623    30474.207    84.248627 
   31600    1447.6854   -106.78031    1.3098962   -105.47041   -40742.589    4.3798142    4.3798142    4.3798142   -40742.589    36025.456   -78389.789   -79863.433    6120.0335    -1759.556   -94911.958    84.016981 
   31700    2433.6742   -107.65519    2.2020395   -105.45315     14552.77     4.360537     4.360537     4.360537     14552.77   -2707.2502    39310.889    7054.6695    9962.5382    849.63064    69.613337    82.912483 
   31800    1219.3338   -106.58152    1.1032788   -105.47824     1588.661    4.3628032    4.3628032    4.3628032     1588.661    31721.797   -37189.215      10233.4    5125.3528    8162.1385   -73800.894    83.041824 
   31900     1964.294   -107.25496    1.7773345   -105.47763   -12012.782    4.3783887    4.3783887    4.3783887   -12012.782    14512.762   -56279.868    5728.7597    9909.6358   -11670.723   -7518.9532     83.93497 
   32000    1689.5474   -106.99724     1.528738   -105.46851   -6640.0619    4.3879326    4.3879326    4.3879326   -6640.0619   -5606.1694   -21767.085    7453.0688   -1218.3253   -5573.5437   -21829.194    84.485046 
   32100    1585.5576   -106.90286    1.4346459   -105.46821   -29342.822    4.3800509    4.3800509    4.3800509   -29342.822    1230.0358   -42732.039   -46526.463    11179.131   -10321.078   -45692.932    84.030602 
   32200    1704.8642   -107.00158    1.5425969   -105.45899     30085.84    4.3599754    4.3599754    4.3599754     30085.84    8103.4376     21386.78    60767.302    3331.8744     2729.942    56620.321    82.880455 
   32300    1892.3026   -107.18783    1.7121951   -105.47564    -9862.773    4.3788971    4.3788971    4.3788971    -9862.773   -9809.8874    2347.9805   -22126.412   -5469.2861   -10603.741   -51811.725    83.964212 
   32400    1432.3779   -106.76285    1.2960456   -105.46681   -29494.656    4.3882467    4.3882467    4.3882467   -29494.656   -59009.629   -49618.329    20143.988    45539.436   -7298.1689    29332.481    84.503193 
   32500    2160.7963   -107.40088    1.9551339   -105.44575   -20215.978    4.3791115    4.3791115    4.3791115   -20215.978   -5658.0211   -6851.2174   -48138.694    -33221.78   -11150.686   -3029.9457    83.976544 
   32600    1947.5349   -107.21581    1.7621705   -105.45364     2661.071     4.369518     4.369518     4.369518     2661.071   -18399.829   -15131.033    41514.075    52848.998    11559.912   -12717.586     83.42584 
   32700    1584.7335   -106.90531    1.4339002   -105.47141    390.78481    4.3632519    4.3632519    4.3632519    390.78481     6852.675    7017.5906   -12697.911   -5184.7562   -15738.258    31076.808    83.067449 
   32800    1994.9818   -107.28374    1.8051014   -105.47864   -7400.5843    4.3766158    4.3766158    4.3766158   -7400.5843   -38742.515    21980.352   -5439.5893    -1544.211    140.54705   -4817.5927    83.833051 
   32900    1821.3645   -107.13129    1.6480089   -105.48328    -10160.05    4.3872873    4.3872873    4.3872873    -10160.05   -29295.781   -37062.952    35878.583    54012.841   -1014.6257     18025.99    84.447777 
   33000    1926.7918   -107.20781    1.7434017   -105.46441    1754.5927    4.3895159    4.3895159    4.3895159    1754.5927   -24016.394    17429.544    11850.628   -57289.041     2611.056    20779.484    84.576536 
   33100    1694.4968   -106.98798    1.5332163   -105.45477    -2492.485    4.3778036    4.3778036    4.3778036    -2492.485   -37155.566    11206.297    18471.813    52340.636    6061.7138    6295.3256    83.901324 
   33200    1732.7602   -107.02093    1.5678379    -105.4531    41625.799    4.3632846    4.3632846    4.3632846    41625.799     34294.36    61452.195    29130.842   -29150.233    16697.133    53153.475    83.069312 
   33300    2158.8903   -107.41413    1.9534093   -105.46073   -13595.368    4.3764201    4.3764201    4.3764201   -13595.368   -42803.167    -27273.52    29290.583    19048.994    7843.6593    724.47491    83.821804 
   33400    1538.0058   -106.85559      1.39162   -105.46397    26323.029    4.3773063    4.3773063    4.3773063    26323.029    11830.143   -15833.523    82972.466    7860.2261   -302.19308    39712.463    83.872737 
   33500    1802.5687   -107.09544     1.631002   -105.46444   -24839.558    4.3808719    4.3808719    4.3808719   -24839.558   -39918.102   -47527.609    12927.038   -14342.564    663.07584    23297.692    84.077861 
   33600    1938.4074   -107.21428    1.7539117   -105.46037    6269.3495    4.3764686    4.3764686    4.3764686    6269.3495   -17676.521   -40752.576    77237.146    26726.782   -5830.3013    14436.195    83.824595 
   33700    1550.0359   -106.86779    1.4025051   -105.46528   -2750.0921    4.3693464    4.3693464    4.3693464   -2750.0921    32947.124   -31865.175   -9332.2256   -20958.471    3658.2946    57860.201    83.416014 
   33800    2033.7868   -107.29103    1.8402131   -105.45082    -1532.105    4.3801995    4.3801995    4.3801995    -1532.105   -28121.663   -11945.589    35470.938    13502.746    12330.047    -20113.19    84.039153 
   33900    1383.6767   -106.71278    1.2519797    -105.4608   -9797.7272    4.3807419    4.3807419    4.3807419   -9797.7272    63510.616   -52371.214   -40532.583    -7949.342   -15065.287     81486.78    84.070381 
   34000    2240.3543   -107.46777    2.0271197   -105.44065     33915.56    4.3743144    4.3743144    4.3743144     33915.56    21267.631    -8150.606    88629.656   -15440.758    11477.951   -41127.763    83.700871 
   34100    1111.6848   -106.47115    1.0058758   -105.46528   -18629.596    4.3813852    4.3813852    4.3813852   -18629.596    27315.614   -64893.981   -18310.419    10082.349   -21769.333    79511.349    84.107418 
   34200    2827.0052   -108.00703    2.5579338   -105.44909    13771.967     4.374129     4.374129     4.374129    13771.967   -11091.652    7974.9853    44432.566   -9592.3437    18678.137   -26294.415    83.690229 
   34300    1022.9029   -106.41939   0.92554408   -105.49385   -12438.728    4.3713261    4.3713261    4.3713261   -12438.728    57258.426    -75790.77   -18783.839    5459.8635    19350.586    81346.561    83.529451 
   34400    2314.5943   -107.56967    2.0942936   -105.47538    10760.714    4.3743634    4.3743634    4.3743634    10760.714    31548.315   -24908.479    25642.307    8040.8107   -1487.6548   -5394.8531    83.703687 
   34500    1431.8287   -106.77543    1.2955487   -105.47988   -585.63691    4.3789601    4.3789601    4.3789601   -585.63691    16635.667   -8352.5405   -10040.037   -5431.8669    14460.661    54111.071    83.967839 
   34600    1545.5316    -106.8669    1.3984294   -105.46847    20849.481    4.3740533    4.3740533    4.3740533    20849.481    18270.948   -45160.265    89437.759     19794.31   -3819.7746    28316.983    83.685882 
   34700    2169.8149   -107.43592    1.9632941   -105.47263   -4546.5899    4.3688023    4.3688023    4.3688023   -4546.5899    40815.134   -25772.112   -28682.792   -17969.332    1094.9895    17641.705    83.384852 
   34800    1431.3538   -106.76315     1.295119   -105.46803    48438.963    4.3626427    4.3626427    4.3626427    48438.963    71818.404    2216.9972    71281.487    10623.893     22354.79    38727.513    83.032656 
   34900    1793.3861   -107.08646    1.6226935   -105.46377   -11981.276    4.3764495    4.3764495    4.3764495   -11981.276    8846.4946   -42100.399   -2689.9242   -2803.3729   -8730.5647    520.63872    83.823492 
   35000    1733.9934   -107.02628    1.5689537   -105.45732   -1824.4514    4.3715955    4.3715955    4.3715955   -1824.4514    46487.363   -40291.965   -11668.752   -16153.657    23353.994    41451.374    83.544894 
   35100    1815.1862    -107.0951    1.6424186   -105.45268    8675.2654    4.3566545    4.3566545    4.3566545    8675.2654   -8317.4161    1943.6049    32399.607    47069.029     5165.209   -12882.051    82.691212 
   35200    1726.6732   -107.02882    1.5623302   -105.46649   -10239.385    4.3655625    4.3655625    4.3655625   -10239.385    -11952.49   -35124.466    16358.802   -43049.504   -9065.0809    44438.302    83.199486 
   35300    2119.5342   -107.37926    1.9177991   -105.46146   -9065.3455    4.3718156    4.3718156    4.3718156   -9065.3455    7465.7568   -34543.235   -118.55863    56903.912    14752.275   -5942.1945    83.557511 
   35400    1671.3293   -106.97721    1.5122539   -105.46495   -8573.1041    4.3839501    4.3839501    4.3839501   -8573.1041   -12797.271   -44607.933    31685.891   -20927.397   -18632.765    22130.238    84.255218 
   35500    1799.3525   -107.08782    1.6280919   -105.45973   -30901.837    4.3779413    4.3779413    4.3779413   -30901.837   -35432.554   -73320.548    16047.591    14330.265   -902.25242    11758.149    83.909243 
   35600    1791.1833   -107.07002    1.6207003   -105.44932    43464.565    4.3527153    4.3527153    4.3527153    43464.565    63683.399   -2428.5661    69138.862    25444.895    9279.2882    839.27003    82.467115 
   35700    1442.9966   -106.77438    1.3056537   -105.46873   -20072.919    4.3595019    4.3595019    4.3595019   -20072.919    -5455.443   -25962.941   -28800.374   -19528.328    3764.4639    26314.317    82.853455 
   35800    2039.8873   -107.31386    1.8457329   -105.46813   -7644.5717    4.3708283    4.3708283    4.3708283   -7644.5717    -24869.51   -16776.609    18712.404    56227.851   -183.29206   -4317.6373    83.500914 
   35900    1560.8625   -106.88799    1.4123012   -105.47569   -32699.568    4.3848766    4.3848766    4.3848766   -32699.568   -37619.377    -19062.11   -41417.218   -39123.935    19197.462    26831.955    84.308648 
   36000    1695.0745   -107.00219     1.533739   -105.46845    -31983.39    4.3775059    4.3775059    4.3775059    -31983.39   -48629.542   -50448.556    3127.9282    23611.991    4941.5363    12251.038    83.884212 
   36100    1909.9416   -107.18086    1.7281553    -105.4527    5922.0984     4.353392     4.353392     4.353392    5922.0984    41448.046   -8649.9189   -15031.832    2459.5555    16205.448   -5789.8227    82.505582 
   36200    1572.7573   -106.89597    1.4230639   -105.47291   -15127.214    4.3687785    4.3687785    4.3687785   -15127.214   -21539.742   -66200.165    42358.266   -41897.895    11591.517    23689.773    83.383494 
   36300    2334.0896   -107.55678    2.1119333   -105.44485    16337.559    4.3741572    4.3741572    4.3741572    16337.559    19496.142    21700.096    7816.4377     7864.059    14917.313    -19689.72    83.691849 
   36400     950.5708    -106.3205   0.86009644   -105.46041    6502.9635    4.3793593    4.3793593    4.3793593    6502.9635    39525.863   -35871.951    15854.978   -39322.271    12277.233    27809.457    83.990805 
   36500    2115.3399    -107.3497     1.914004   -105.43569     10782.43    4.3880627    4.3880627    4.3880627     10782.43   -2032.1948   -1625.7375    36005.223   -7209.8256    6750.7488    4479.2615    84.492562 
   36600    1094.2315   -106.43536   0.99008363   -105.44527    28084.916    4.3703238    4.3703238    4.3703238    28084.916    123820.74   -38199.954   -1366.0339   -24477.342    35223.617   -1363.4378    83.472004 
   36700    2339.2815   -107.54368    2.1166311   -105.42705    23221.554    4.3738447    4.3738447    4.3738447    23221.554     36278.66   -39943.904    73329.905   -11188.189    3753.8656     13060.59    83.673912 
   36800    1115.2864   -106.47636    1.0091346   -105.46723   -10442.597    4.3911987    4.3911987    4.3911987   -10442.597     11140.74   -46859.823    4391.2914    15762.886    2984.1409   -3241.5737     84.67384 
   36900    2617.6821   -107.79706    2.3685337   -105.42852    -2138.611    4.4077288    4.4077288    4.4077288    -2138.611     21799.13   -62566.569    34351.606   -6085.3096   -9872.1201    2454.1445    85.633679 
   37000    1009.9234   -106.36644   0.91379988   -105.45264   -25985.828    4.3839392    4.3839392    4.3839392   -25985.828   -35876.724    -26632.83   -15447.929     49210.91    -3065.871   -7778.8131    84.254592 
   37100    1673.0067   -106.93534    1.5137716   -105.42157     75257.77    4.3496396    4.3496396    4.3496396     75257.77    103384.15    48169.657    74219.501   -16436.127    21028.778   -7453.0999    82.292418 
   37200     1759.673   -107.05551    1.5921891   -105.46332    10225.903    4.3693398    4.3693398    4.3693398    10225.903   -4105.6834    -21629.07    56412.463   -10739.229    3360.5886   -10806.315    83.415637 
   37300    1707.6378   -107.00656    1.5451066   -105.46146    6630.7587    4.4040196    4.4040196    4.4040196    6630.7587    2287.5374    13986.914    3617.8244    1650.2669    7637.8632   -6044.0808    85.417669 
   37400    1283.8268   -106.57815    1.1616335   -105.41651   -25851.909    4.4316752    4.4316752    4.4316752   -25851.909   -51487.727   -34595.252    8527.2511   -41227.068    16224.527   -10920.237    87.036969 
   37500    1666.4254   -106.90557    1.5078167   -105.39775   -20136.389    4.3992586    4.3992586    4.3992586   -20136.389   -19042.781    15873.497   -57239.883    25645.733    32182.596     -6014.25    85.140947 
   37600    1707.6614   -106.92139    1.5451279   -105.37626    34961.905    4.3267847    4.3267847    4.3267847    34961.905    18694.919   -18277.169    104467.96   -94414.966    3263.7498   -179.45255    81.002023 
   37700     2131.564   -107.34238    1.9286839    -105.4137    53563.017    4.3297878    4.3297878    4.3297878    53563.017    105310.99     28391.05    26987.015    32275.328    13974.565    4522.9245    81.170803 
   37800    1254.5558   -106.62626    1.1351485   -105.49111   -22903.095     4.386054     4.386054     4.386054   -22903.095   -87158.683   -18243.095    36692.494   -76264.304    3595.9389    4797.0787    84.376582 
   37900    2212.2951   -107.42839    2.0017311   -105.42665     -43172.7    4.4223478    4.4223478    4.4223478     -43172.7   -25668.412   -65538.963   -38310.723     34858.54   -2560.1756    21523.507    86.488565 
   38000    1733.3204   -106.97599    1.5683447   -105.40765   -16130.339    4.3947403    4.3947403    4.3947403   -16130.339   -25347.041   -46609.637    23565.662   -39493.258    3612.0515   -21487.772     84.87888 
   38100    1747.9227   -106.97133    1.5815572   -105.38978     43648.65    4.3403094    4.3403094    4.3403094     43648.65     88262.25     29461.08    13222.619    2827.0205    14038.692    42022.643     81.76399 
   38200    1876.8046    -107.1249    1.6981723   -105.42672    21148.185    4.3313385    4.3313385    4.3313385    21148.185    39004.796   -24054.856    48494.615    25016.627   -16384.448   -19777.662    81.258049 
   38300    2200.9736   -107.45968    1.9914872   -105.46819    2018.7918    4.3769137    4.3769137    4.3769137    2018.7918    46037.714   -19261.464   -20719.874   -18833.151    -3072.153    34382.772    83.850168 
   38400    1235.0283   -106.58126    1.1174796   -105.46378   -76691.651    4.4003529    4.4003529    4.4003529   -76691.651   -25833.131   -120536.47   -83705.354    55469.165   -13377.131    19127.007    85.204497 
   38500    2311.3838   -107.52057    2.0913887   -105.42918    2044.4186    4.3677859    4.3677859    4.3677859    2044.4186    40696.091   -28154.153    -6408.682    3445.3137    8481.6992   -18650.872    83.326672 
   38600    1683.7283   -106.95859    1.5234727   -105.43512   -25858.811    4.3599639    4.3599639    4.3599639   -25858.811    35529.986   -78817.788   -34288.631     17343.57   -3660.8392     63625.68    82.879795 
   38700    1946.9141   -107.20442    1.7616088   -105.44281   -17749.896     4.371435     4.371435     4.371435   -17749.896    2461.6751   -38018.101   -17693.261    18252.529    6217.5159   -58790.529    83.535691 
   38800    1798.8434   -107.07304    1.6276313   -105.44541   -15098.005    4.3869529    4.3869529    4.3869529   -15098.005    18418.383   -12838.555   -50873.844   -16732.166    2291.5188    66338.595    84.428472 
   38900    1888.0401   -107.14453    1.7083384   -105.43619   -21370.862    4.3856077    4.3856077    4.3856077   -21370.862    40484.477   -59268.112   -45328.951    20041.694   -7435.6259   -64769.959    84.350828 
   39000    1598.5627   -106.87928    1.4464132   -105.43287    33313.531      4.36567      4.36567      4.36567    33313.531    93324.927   -24142.997    30758.663   -20049.955    17413.535    60003.856    83.205631 
   39100    1858.2676   -107.12701    1.6813996   -105.44561    18446.328    4.3668577    4.3668577    4.3668577    18446.328    78753.017   -14268.912   -9145.1216    20522.809   -818.92827   -59198.818    83.273558 
   39200    1357.5126   -106.68021     1.228306   -105.45191    23960.646    4.3841481    4.3841481    4.3841481    23960.646    83547.682   -29066.181    17400.438    6790.5106    -13421.05    46511.285    84.266632 
   39300    2182.8008   -107.39641    1.9750441   -105.42137   -5529.6684    4.3961425    4.3961425    4.3961425   -5529.6684    21021.604   -46468.822    8858.2136    5885.0368   -405.90633   -43539.151    84.960154 
   39400    1360.3688   -106.65601    1.2308903   -105.42512   -15712.959    4.3917552    4.3917552    4.3917552   -15712.959    17991.125   -33712.439   -31417.563    23561.612    10786.335    29066.159    84.706039 
   39500    1980.7774   -107.20471    1.7922491   -105.41246    40934.617    4.3669003    4.3669003    4.3669003    40934.617    68232.275    7842.1374    46729.438   -9494.8553   -10498.022    1591.0532    83.275994 
   39600    1130.3787    -106.4564    1.0227904   -105.43361    43014.499    4.3558158    4.3558158    4.3558158    43014.499     113019.3    28559.584   -12535.381    20450.779   -4060.2365   -16375.003    82.643466 
   39700    2396.1881   -107.60955    2.1681214   -105.44142   -3307.5959    4.3769617    4.3769617    4.3769617   -3307.5959    27283.896   -23410.604    -13796.08    3657.1807    2942.7294    45592.893    83.852927 
   39800    1585.9783   -106.87119    1.4350265   -105.43617   -2126.1033    4.3881965    4.3881965    4.3881965   -2126.1033    12126.556    3061.5099   -21566.376    3428.7733    6320.2565   -45883.283     84.50029 
   39900    1903.8321   -107.14848    1.7226273   -105.42585    11175.142    4.3869199    4.3869199    4.3869199    11175.142    47554.051   -6849.0166   -7179.6072    37190.002   -6357.8975    45106.784    84.426566 
   40000    1670.9722   -106.94366    1.5119307   -105.43173   -6241.1413    4.3741987    4.3741987    4.3741987   -6241.1413    15515.792   -49532.407    15293.191   -30450.776   -11447.361   -42505.462    83.694233 
   40100    1851.4383   -107.10264    1.6752203   -105.42742    15092.347    4.3562494    4.3562494    4.3562494    15092.347     65502.54   -12704.088   -7521.4108    46810.988    6397.2763    43968.512    82.668145 
   40200    1590.2592   -106.89133       1.4389   -105.45243    18980.277    4.3648664    4.3648664    4.3648664    18980.277     74391.75   -48013.992    30563.072   -37794.839   -28847.133   -45151.983    83.159691 
   40300    1558.7849   -106.86581    1.4104213   -105.45539   -1103.4953    4.3905085    4.3905085    4.3905085   -1103.4953     48399.58   -71542.229    19832.163    30783.729   -12498.744    18418.107     84.63392 
   40400    1525.6803    -106.8061    1.3804676   -105.42563    25232.575    4.3953093    4.3953093    4.3953093    25232.575     102816.4   -53719.851    26601.178   -11230.556   -24689.635   -22006.268    84.911855 
   40500    1420.2199   -106.68944    1.2850448   -105.40439    20603.427    4.3973903    4.3973903    4.3973903    20603.427    46932.275    -55947.68    70825.687     15134.27   -19194.584    7110.9349    85.032517 
   40600    1931.3633    -107.1197    1.7475381   -105.37216   -15667.029    4.3952085    4.3952085    4.3952085   -15667.029   -13632.149   -47006.098    13637.161    2261.9994   -2970.2835   -18418.089     84.90601 
   40700     1622.673   -106.86426    1.4682287   -105.39603   -4796.0902    4.3705638    4.3705638    4.3705638   -4796.0902    26610.578   -33010.083   -7988.7658   -7223.9532   -645.12103   -28720.676    83.485755 
   40800     2631.189   -107.77441    2.3807551   -105.39365     12519.42    4.3637561    4.3637561    4.3637561     12519.42    7570.5981    15845.214    14142.448     26405.38    15338.095    7018.7347    83.096246 
   40900    1064.2897   -106.41162   0.96299167   -105.44863   -6394.2583    4.3701732    4.3701732    4.3701732   -6394.2583    31203.665   -28560.564   -21825.875   -33447.858   -9771.1365   -50003.839    83.463374 
   41000      2697.65   -107.86767    2.4408904   -105.42677    4195.2267    4.3918846    4.3918846    4.3918846    4195.2267    9909.4879    15172.188   -12495.996    19601.912    11331.835    25013.027    84.713525 
   41100    798.49886   -106.14168   0.72249855   -105.41919   -52182.264    4.4006036    4.4006036    4.4006036   -52182.264   -4505.2659   -107428.87   -44612.658   -24745.291    -23206.16   -67550.177    85.219062 
   41200    2841.3696   -107.94383    2.5709309    -105.3729    5699.7825    4.3705541    4.3705541    4.3705541    5699.7825   -10652.395    22594.955    5156.7877   -5337.4107    8311.2015     39099.02      83.4852 
   41300    1157.9587    -106.4717    1.0477454   -105.42396   -25062.149    4.3625795    4.3625795    4.3625795   -25062.149    21738.097   -56898.066   -40026.478   -11348.589    -10395.38   -94056.234    83.029046 
   41400    2036.1984   -107.29433    1.8423951   -105.45193   -1869.0424    4.3524391    4.3524391    4.3524391   -1869.0424   -43191.987    15933.908    21650.952   -41872.066    -14488.78    6855.5293    82.451415 
   41500    2036.3563   -107.32317     1.842538   -105.48063    -6636.759    4.3634867    4.3634867    4.3634867    -6636.759    42524.833   -18371.651   -44063.459    8730.3056    9867.0816   -59468.207    83.080858 
   41600    1421.2235   -106.77209    1.2859529   -105.48613   -37591.282    4.3841334    4.3841334    4.3841334   -37591.282   -31160.309   -40047.772   -41565.764   -19678.511    -21284.63   -18138.606    84.265785 
   41700    2087.3464   -107.34281    1.8886749   -105.45413    273.68896    4.3684375    4.3684375    4.3684375    273.68896    11088.368    36956.042   -47223.343    5568.8312   -5495.7238   -34397.978    83.363971 
   41800     1661.761   -106.96325    1.5035963   -105.45965   -8882.8511    4.3696905    4.3696905    4.3696905   -8882.8511    36806.257   -25045.121   -38409.689   -24315.744    7084.1274   -22401.569    83.435722 
   41900    2192.6601   -107.43192     1.983965   -105.44795    164.29582    4.3638096    4.3638096    4.3638096    164.29582   -13377.697    35281.926   -21411.342   -10640.221   -17050.077   -12361.289    83.099302 
   42000    1146.1456    -106.5114    1.0370566   -105.47434    18120.322    4.3557606    4.3557606    4.3557606    18120.322    109345.11    22486.484   -77470.627    17318.309    34050.868   -48940.673    82.640323 
   42100    2209.5542   -107.46832    1.9992511   -105.46907   -10389.222    4.3676959    4.3676959    4.3676959   -10389.222    3544.1557   -4584.9629   -30126.858    11032.057    18350.799    15332.783    83.321519 
   42200    1438.2092   -106.78203    1.3013219   -105.48071    17015.182    4.3658585    4.3658585    4.3658585    17015.182    129922.09    -12571.68   -66304.867   -2901.6241   -4522.2413   -66926.463    83.216411 
   42300    2281.2046   -107.53391    2.0640818   -105.46983   -11330.079    4.3743706    4.3743706    4.3743706   -11330.079    20071.898   -14230.606   -39831.528    4803.0494    38216.327    20799.077    83.704096 
   42400    1265.2122   -106.63117    1.1447906   -105.48638   -31403.609    4.3609329    4.3609329    4.3609329   -31403.609    24396.812   -82069.565   -36538.072   -11092.608   -7198.5237   -81750.979    82.935069 
   42500    2276.3783   -107.52252    2.0597149   -105.46281    43099.988    4.3527528    4.3527528    4.3527528    43099.988    88618.419    33760.569    6920.9759    -4446.951    14100.752     19219.33    82.469243 
   42600    1277.3767   -106.63968    1.1557973   -105.48389   -22863.559    4.3694541    4.3694541    4.3694541   -22863.559    45938.756   -65145.108   -49384.326    6472.1384    8297.6196   -60780.994    83.422183 
   42700     2022.751   -107.29707    1.8302276   -105.46684    5490.2153    4.3667567    4.3667567    4.3667567    5490.2153    3166.8614    -17405.02    30708.805   -6604.0131    -18259.61    8133.7401    83.267779 
   42800     1725.322   -107.02728    1.5611076   -105.46617   -176.55747    4.3725485    4.3725485    4.3725485   -176.55747    84910.418   -15350.992   -70089.098    1061.5648    4405.6351   -66293.133    83.599541 
   42900    1725.5835   -107.01957    1.5613442   -105.45823   -3772.4574     4.364267     4.364267     4.364267   -3772.4574    24613.821    11978.751   -47909.944    21649.854   -30099.399   -1771.4706    83.125437 
   43000    1252.9074   -106.60106    1.1336569    -105.4674   -817.89334    4.3631931    4.3631931    4.3631931   -817.89334    38894.085    2533.2021   -43880.967    17354.626   -2429.7111   -49649.108    83.064089 
   43100    1882.0358   -107.16462    1.7029055   -105.46171    3872.8971    4.3709814    4.3709814    4.3709814    3872.8971    86694.935    -10144.83   -64931.414    3565.6026    13317.513    -25896.39    83.509692 
   43200    1535.5359   -106.84698    1.3893851    -105.4576    9023.3256    4.3710463    4.3710463    4.3710463    9023.3256    45936.347   -18523.652   -342.71856    29108.929   -14170.849   -31122.382    83.513408 
   43300    1452.7389   -106.78125    1.3144687   -105.46678   -593.08079    4.3761686    4.3761686    4.3761686   -593.08079    65105.844   -54928.793   -11956.294   -13458.969    1896.6754   -39629.646    83.807353 
   43400    2095.5188    -107.3485    1.8960695   -105.45244    20679.771    4.3634078    4.3634078    4.3634078    20679.771    62521.813   -25273.106    24790.607    15041.231    17069.681   -11502.848    83.076353 
   43500    1188.4373   -106.54153     1.075323   -105.46621     23255.42    4.3561301    4.3561301    4.3561301     23255.42    78493.272   -26240.909    17513.897    19665.401   -20570.009   -60788.386    82.661357 
   43600    2146.3954   -107.40282    1.9421037   -105.46071   -2718.7102    4.3685034    4.3685034    4.3685034   -2718.7102    9488.1804   -10429.577    -7214.734   -171.27866    6890.1323   -2953.2311    83.367742 
   43700    1464.2695   -106.79646    1.3249018   -105.47156    -23156.46     4.370799     4.370799     4.370799    -23156.46    44214.919   -77354.221   -36330.077    5940.6584    6767.3921   -80748.476    83.499237 
   43800     2289.682   -107.53064    2.0717524   -105.45889   -11825.807    4.3724759    4.3724759    4.3724759   -11825.807   -36392.811    74.965685    840.42501    24667.067   -22505.585    18938.062    83.595378 
   43900    1083.1538   -106.44826   0.98006035    -105.4682   -22120.719     4.372604     4.372604     4.372604   -22120.719    32675.267   -55123.124     -43914.3   -6530.2519    7690.7013   -84760.458    83.602728 
   44000    2672.5261   -107.85247    2.4181578   -105.43432     19505.71    4.3643749    4.3643749    4.3643749     19505.71    23259.373   -9681.4038     44939.16    7478.7195    5371.7394    22796.275    83.131599 
   44100     1146.175   -106.51275    1.0370832   -105.47566   -17348.512    4.3660705    4.3660705    4.3660705   -17348.512    30812.976     -20226.9   -62631.612    623.28515   -12812.921    -68677.28     83.22853 
   44200    2225.5704   -107.47899    2.0137429   -105.46524    7394.7114    4.3647752    4.3647752    4.3647752    7394.7114    -22283.73   -4860.8977    49328.762   -19044.929    16826.143    14032.285    83.154478 
   44300    1568.9627   -106.89032    1.4196305   -105.47069   -12167.652    4.3660188    4.3660188    4.3660188   -12167.652    67978.479   -62566.297   -41915.138    146.09467    4640.7722   -58275.404    83.225572 
   44400    2084.6736   -107.33797    1.8862565   -105.45171   -6051.1856    4.3776676    4.3776676    4.3776676   -6051.1856   -23112.432    5674.6303   -715.75552   -13540.896   -25094.374    9516.1441    83.893504 
   44500    1504.8227   -106.80896    1.3615952   -105.44737   -20264.026    4.3803114    4.3803114    4.3803114   -20264.026    42639.635   -67487.112   -35944.601   -25797.221    1153.8769   -69083.188    84.045596 
   44600    2157.8627   -107.38694    1.9524795   -105.43446    4711.7849    4.3677752    4.3677752    4.3677752    4711.7849    24141.534    14618.695   -24624.874    6218.1493   -20238.319      1535.75    83.326058 
   44700    1483.1299   -106.79455    1.3419671   -105.45259   -423.44208    4.3552888    4.3552888    4.3552888   -423.44208    32273.601   -33171.673   -372.25395   -20226.838   -10996.209   -48378.311    82.613475 
   44800     1766.121   -107.07083    1.5980234   -105.47281    17186.313    4.3535425    4.3535425    4.3535425    17186.313    61176.028    15427.398   -25044.487   -12849.049   -1658.9133   -30924.136    82.514138 
   44900    2028.6156   -107.30821     1.835534   -105.47268   -12357.274     4.367985     4.367985     4.367985   -12357.274    10892.464   -13935.052   -34029.233    10726.192   -26739.618    -5777.741    83.338065 
   45000    1463.1384   -106.80313    1.3238784   -105.47925   -8279.1837    4.3683631    4.3683631    4.3683631   -8279.1837    10712.751   -14120.068   -21430.234   -36572.117    14570.069   -63311.217    83.359708 
   45100    1955.7227   -107.23465     1.769579   -105.46507    5006.1927    4.3636338    4.3636338    4.3636338    5006.1927   -2292.9398    32660.781   -15349.263    8757.4713    7207.8905     18679.52    83.089262 
   45200    1608.8536   -106.92719    1.4557245   -105.47146   -10271.364    4.3649443    4.3649443    4.3649443   -10271.364    3414.2472   -11806.167   -22422.172    8608.8374   -13016.413   -76367.277    83.164142 
   45300    2202.7838   -107.45394    1.9931251   -105.46081   -8529.0449    4.3702575    4.3702575    4.3702575   -8529.0449   -34974.179    37495.143   -28108.099   -9146.4311    32965.007    27251.696    83.468204 
   45400    1117.0336   -106.49321    1.0107154   -105.48249   -35997.131    4.3587774    4.3587774    4.3587774   -35997.131    7651.5208   -73482.672   -42160.242    16993.108   -21566.816   -62690.126    82.812153 
   45500    2298.9603   -107.54129    2.0801476   -105.46114    18914.107    4.3500533    4.3500533    4.3500533    18914.107    14328.692    43255.097   -841.46629    9104.8846    29574.206    5330.5716    82.315903 
   45600    1638.5967   -106.96541    1.4826368   -105.48277   -22989.372    4.3640689    4.3640689    4.3640689   -22989.372   -16458.371    8488.1899   -60997.936   -2496.1017    3256.6108   -12080.094    83.114114 
   45700    2223.8815   -107.48277    2.0122147   -105.47056   -6084.8996    4.3745212    4.3745212    4.3745212   -6084.8996    12317.136   -17291.881   -13279.954    18861.483   -11261.655   -25837.675    83.712742 
   45800    1436.1962   -106.76887    1.2995005   -105.46937   -29241.746    4.3823429    4.3823429    4.3823429   -29241.746   -63320.926    31465.097   -55869.409    -5198.974    27261.088    17289.872    84.162587 
   45900     2088.229   -107.33536    1.8894735   -105.44589    4072.5539    4.3688915    4.3688915    4.3688915    4072.5539    3382.7499     20985.37   -12150.458    4376.9778       -27037   -27870.126     83.38996 
   46000    1891.5326   -107.15295    1.7114984   -105.44145   -10397.703    4.3666383    4.3666383    4.3666383   -10397.703   -30226.752    6603.2821   -7569.6377    16086.877    39370.584    32617.958    83.261005 
   46100    1292.5453   -106.63307    1.1695221   -105.46355   -10057.639    4.3680214    4.3680214    4.3680214   -10057.639   -41933.437    32829.523   -21069.004    910.43382   -44571.005   -29112.275    83.340147 
   46200    2344.5424   -107.57664    2.1213913   -105.45525    12906.956    4.3652217    4.3652217    4.3652217    12906.956    5001.5281    8345.6909    25373.648   -3500.4728    29406.931    12642.413    83.180002 
   46300    1722.1044   -107.03392    1.5581962   -105.47572   -20040.645     4.365889     4.365889     4.365889   -20040.645   -38395.014    33777.444   -55504.364    12556.569   -13939.845      603.705    83.218153 
   46400    1971.9707    -107.2556    1.7842806   -105.47132   -637.49732    4.3598426    4.3598426    4.3598426   -637.49732   -32931.255     11642.09    19376.673   -19329.821   -33958.062   -8176.3625    82.872879 
   46500    1960.2496    -107.2417    1.7736751   -105.46802    5617.9641    4.3626659    4.3626659    4.3626659    5617.9641    20671.056    23260.695   -27077.859    8588.9126    13322.658    15953.625    83.033982 
   46600     1456.981   -106.79708     1.318307   -105.47878   -32133.074    4.3641203    4.3641203    4.3641203   -32133.074   -59988.101    7228.6373   -43639.758   -16072.647   -61473.435   -19730.458    83.117057 
   46700    2078.9842   -107.34998    1.8811086   -105.46887    9970.1759    4.3537076    4.3537076    4.3537076    9970.1759    15118.286   -29652.731    44444.972   -2407.4844    22620.708     11379.95    82.523524 
   46800    1692.9986   -107.01767    1.5318608   -105.48581   -12483.303    4.3582062    4.3582062    4.3582062   -12483.303   -33695.077    31536.895   -35291.728     2861.243   -57518.268   -14279.298    82.779601 
   46900    2150.4725   -107.42571    1.9457928   -105.47992   -454.34648    4.3684105    4.3684105    4.3684105   -454.34648   -9227.3375     -33420.7    41284.998   -12337.235    11741.164     149.9614    83.362421 
   47000    1254.0696   -106.61959    1.1347085   -105.48488   -13041.237    4.3706649    4.3706649    4.3706649   -13041.237   -36253.776   -6694.3037    3824.3688    18567.196   -32865.291    14401.511    83.491552 
   47100    1973.0187   -107.27011    1.7852288   -105.48488    271.08663    4.3544677    4.3544677    4.3544677    271.08663   -9039.0714    27895.705   -18043.373   -4666.4765   -19664.031   -44497.558    82.566753 
   47200    2439.0199    -107.6877    2.2068765   -105.48082    26156.277     4.344249     4.344249     4.344249    26156.277    40012.601    5898.4849    32557.745   -9703.3578   -4986.4386    49137.828    81.986839 
   47300    1049.6686    -106.4668   0.94976218   -105.51704     8528.853    4.3540572    4.3540572    4.3540572     8528.853    1477.5622    24796.312   -687.31532    4619.1782    -69561.23   -27167.688    82.543408 
   47400    2346.7922    -107.6125    2.1234269   -105.48908    8359.5135    4.3798608    4.3798608    4.3798608    8359.5135   -957.19182    1501.5973    24534.135   -6216.5303    13332.259   -3786.7458     84.01966 
   47500    1415.5062   -106.77728    1.2807797    -105.4965   -20234.461    4.3768243    4.3768243    4.3768243   -20234.461   -16346.416    3214.1764   -47571.143   -7148.7919   -56988.767    34273.163    83.845032 
   47600    1305.5197   -106.67358    1.1812617   -105.49232    18430.483    4.3408377    4.3408377    4.3408377    18430.483    26609.302    3886.7548    24795.392    14153.155   -21645.259   -49137.348    81.793851 
   47700    2359.9229   -107.61798    2.1353078   -105.48267    34212.241    4.3334924    4.3334924    4.3334924    34212.241    26488.848    51543.367    24604.508   -6542.7878   -11641.232    21858.852    81.379334 
   47800    1191.1028   -106.59904    1.0777349    -105.5213      28490.2    4.3560104    4.3560104    4.3560104      28490.2    48346.325    59900.049   -22775.774   -13455.945    -51683.24   -32670.899    82.654541 
   47900    1837.0263   -107.14489      1.66218   -105.48271   -12706.285    4.3895602    4.3895602    4.3895602   -12706.285   -32129.322   -33843.818    27854.284    19909.821    5209.7257   -14613.932    84.579094 
   48000    2019.2703   -107.28819    1.8270782   -105.46112   -13560.395     4.378765     4.378765     4.378765   -13560.395   -22038.125    14995.608   -33638.667   -4615.2861   -60867.569   -2440.9639    83.956615 
   48100    1391.2366   -106.72057    1.2588201   -105.46175    27617.142    4.3350093    4.3350093    4.3350093    27617.142    6715.0045    13539.171     62597.25    18344.379   -6256.3743   -30642.462    81.464818 
   48200    1776.0639   -107.08483    1.6070199   -105.47781    11956.028    4.3305731    4.3305731    4.3305731    11956.028    -48323.62    13221.198    70970.507    8232.6989   -5974.9923   -1395.6302    81.214978 
   48300    2047.6621   -107.34124    1.8527677   -105.48847    9050.8977     4.361011     4.361011     4.361011    9050.8977   -9094.3205     18750.76    17496.253    2714.3136   -12618.061    9991.6841    82.939523 
   48400    1536.0432   -106.88025    1.3898442    -105.4904   -40269.281    4.3848893    4.3848893    4.3848893   -40269.281   -87598.532   -80071.837    46862.527    41838.489     23163.35   -13814.685    84.309382 
   48500    1940.9273   -107.21684    1.7561919   -105.46065   -12362.689    4.3723272    4.3723272    4.3723272   -12362.689   -16766.165    2420.5075   -22742.409   -19865.517    12993.135     39486.12    83.586851 
   48600    1906.5847   -107.16977    1.7251179   -105.44465    2463.5963    4.3468429    4.3468429    4.3468429    2463.5963    -18354.37   -4420.8209    30165.979    62206.289   -5437.2428    993.72059    82.133786 
   48700     1496.573   -106.82147    1.3541307   -105.46734    -18070.37     4.352569     4.352569     4.352569    -18070.37   -17392.886   -15257.466   -21560.757   -8417.8891    31419.777    21062.463    82.458799 
   48800    2092.6522   -107.37087    1.8934757   -105.47739    854.32702    4.3620864    4.3620864    4.3620864    854.32702    26317.258   -4802.3183   -18951.958   -3813.0301    -13189.43    34624.392    83.000898 
   48900    2060.1827   -107.34857    1.8640966   -105.48447   -8781.2451    4.3675437    4.3675437    4.3675437   -8781.2451     -17264.4    11129.639   -20208.973    35253.399     9664.955   -16144.441    83.312807 
   49000    864.61645   -106.28898   0.78232313   -105.50666   -23683.457    4.3588733    4.3588733    4.3588733   -23683.457    31530.997   -50940.315   -51641.053   -29414.234    19626.765    65316.348     82.81762 
   49100    2930.2843   -108.11487    2.6513828   -105.46349    12239.594    4.3580622    4.3580622    4.3580622    12239.594   -1294.2823    32761.264       5251.8    26222.425   -16236.628   -29403.005    82.771397 
   49200    952.93135   -106.33786   0.86223231   -105.47563   -49337.328    4.3739813    4.3739813    4.3739813   -49337.328   -1689.5314   -52195.195   -94127.258   -15188.284    55580.454    67977.057     83.68175 
   49300    2103.5369   -107.37801    1.9033244   -105.47469   -384.91923    4.3522727    4.3522727    4.3522727   -384.91923    4150.6174   -28296.844    22991.469   -13168.017   -33166.406    2218.3226    82.441957 
   49400    1838.8974     -107.143     1.663873   -105.47913    15551.276    4.3321278    4.3321278    4.3321278    15551.276   -466.77619      45071.7    2048.9048    23932.559    47921.914    9197.2857    81.302477 
   49500    1575.1408   -106.93209    1.4252205   -105.50686   -3874.9699    4.3435279    4.3435279    4.3435279   -3874.9699    9719.1171   -33188.215    11844.188   -34486.899    2978.5878    51307.507    81.946016 
   49600    1973.3652   -107.28393    1.7855423   -105.49839    4250.3264    4.3611662    4.3611662    4.3611662    4250.3264   -15629.898   -2990.7351    31371.612     5022.028   -5153.1943   -11593.317    82.948383 
   49700    1824.7392   -107.14247    1.6510624   -105.49141   -10402.001     4.367798     4.367798     4.367798   -10402.001   -24984.598   -5370.4931   -850.91146    4475.8604    39413.273    23458.634    83.327362 
   49800    1527.4688    -106.8757    1.3820858   -105.49361   -13768.559    4.3539739    4.3539739    4.3539739   -13768.559    -21454.93   -57108.383    37257.635   -70381.595   -26677.888    5573.7792    82.538672 
   49900    2286.8526   -107.54388    2.0691923   -105.47469    22176.358    4.3368283    4.3368283    4.3368283    22176.358    31723.464    11383.453    23422.156    50488.815    14746.249    1074.8756    81.567414 
   50000    937.34344   -106.36294   0.84812804   -105.51482   -12620.139    4.3436345    4.3436345    4.3436345   -12620.139   -7279.3955   -82050.934    51469.914   -106036.96    13597.458    10696.315    81.952052 
   50100    2671.5081   -107.91759    2.4172367   -105.50035    12152.718    4.3565367    4.3565367    4.3565367    12152.718    46592.445   -27178.067    17043.776    3421.8527   -929.61049    4672.7848    82.684502 
   50200    1471.2412   -106.84868      1.33121   -105.51747   -30339.742    4.3673487    4.3673487    4.3673487   -30339.742   -60526.955   -73105.583    42613.313   -63888.285   -7872.7058     3341.264    83.301649 
   50300     1641.548   -106.97385    1.4853071   -105.48854    1052.2727    4.3571971    4.3571971    4.3571971    1052.2727   -5847.8162   -57529.018    66533.652   -6587.5494    18883.103     14729.63    82.722116 
   50400    1906.2765   -107.19145    1.7248391   -105.46661    26574.348    4.3447559    4.3447559    4.3447559    26574.348     11923.66   -10021.639    77821.022   -42239.435   -12800.897   -11095.104    82.015538 
   50500    1782.1989   -107.08402     1.612571   -105.47145   -6969.0945    4.3505466    4.3505466    4.3505466   -6969.0945   -29224.837   -6844.9366     15162.49   -31448.273   -3843.4975    27340.398    82.343907 
   50600    1492.9314   -106.83988    1.3508357   -105.48904   -2954.5235    4.3469613    4.3469613    4.3469613   -2954.5235    2218.9584   -47644.966    36562.437    37309.186    10011.245     -6137.92    82.140496 
   50700    2679.6322   -107.90436    2.4245876   -105.47978    15288.535     4.354409     4.354409     4.354409    15288.535    -6001.492    7676.9569    44190.139   -18012.464   -23645.286   -7125.2376    82.563419 
   50800    914.12405    -106.3297   0.82711866   -105.50258   -21825.505    4.3628061    4.3628061    4.3628061   -21825.505   -573.45784   -50336.792   -14566.265    34855.623   -14431.083    36749.978    83.041986 
   50900     2428.233   -107.66654    2.1971163   -105.46942   -3903.5896    4.3619664    4.3619664    4.3619664   -3903.5896      20732.7   -32348.682   -94.787358     17695.03    2620.0331   -25990.071    82.994045 
   51000    1651.3453   -106.97747     1.494172    -105.4833   -22987.709    4.3561726    4.3561726    4.3561726   -22987.709   -19396.369   -12514.141   -37052.618   -3001.0381    -37936.12     20879.13    82.663777 
   51100     1995.522   -107.28545    1.8055902   -105.47986    4100.6913    4.3378085    4.3378085    4.3378085    4100.6913     30495.91   -29727.381    11533.545    51827.235    11273.511    25608.342    81.622731 
   51200    1671.0701   -106.99765    1.5120193   -105.48563   -2345.4036    4.3480457    4.3480457    4.3480457   -2345.4036   -6969.8229    5483.3497   -5549.7377   -46734.817   -37368.679   -16470.609    82.201983 
   51300    1524.8735   -106.86015    1.3797376   -105.48041    -32336.81    4.3673781    4.3673781    4.3673781    -32336.81   -2395.3552   -50280.956   -44334.118    29857.486    7221.7103    36908.177    83.303334 
   51400    2184.0664   -107.44185    1.9761892   -105.46566   -8341.0289    4.3632991    4.3632991    4.3632991   -8341.0289   -4511.6355   -27163.203    6651.7519   -26394.394   -4187.9728    5934.4433    83.070144 
   51500    1770.8228   -107.07257    1.6022777   -105.47029   -14158.037    4.3559142    4.3559142    4.3559142   -14158.037   -30337.314   -4607.9541   -7528.8442   -2406.8761    -25007.32     14917.92    82.649064 
   51600    1358.0446   -106.71442    1.2287873   -105.48564   -14129.661    4.3415735    4.3415735    4.3415735   -14129.661    7661.8688   -44504.034   -5546.8177    12357.561    18808.584    38282.604    81.835452 
   51700    2391.0932   -107.64339    2.1635113   -105.47988    31631.272    4.3468546    4.3468546    4.3468546    31631.272    24730.687    39823.826    30339.303   -28088.309   -17679.462   -26214.876    82.134448 
   51800    1350.2854   -106.70829    1.2217666   -105.48652   -46015.483    4.3694787    4.3694787    4.3694787   -46015.483   -10891.579   -82446.127   -44708.741    36115.721    1364.5711    56678.665    83.423591 
   51900    1671.8688   -106.99479    1.5127421   -105.48205    2956.3578     4.354137     4.354137     4.354137    2956.3578    26809.911    11727.021   -29667.858   -17684.513    16427.379   -46836.459    82.547947 
   52000    2202.8019   -107.45962    1.9931414   -105.46648    21469.841    4.3489713    4.3489713    4.3489713    21469.841     47203.97    1934.3372    15271.214    17406.375   -15211.055    27664.132    82.254491 
   52100    1366.2616   -106.72921    1.2362222   -105.49298   -14306.084    4.3520218    4.3520218    4.3520218   -14306.084    68095.761    -60461.87   -50552.145    21237.526    13255.412   -25714.682    82.427703 
   52200    2235.8412   -107.50607    2.0230361   -105.48303     18350.71    4.3530518    4.3530518    4.3530518     18350.71    45896.792    18794.556   -9639.2169   -14315.487   -10006.539   -1860.7281    82.486237 
   52300    820.41591      -106.25   0.74232956   -105.50767   -32053.991    4.3621216    4.3621216    4.3621216   -32053.991    5836.3125   -74326.653   -27671.632    33163.461   -8907.3548   -7626.2658    83.002908 
   52400    2611.3948   -107.83889    2.3628449   -105.47604    9638.8011    4.3514902    4.3514902    4.3514902    9638.8011    62174.245    1116.8825   -34374.724   -11660.751    11119.746   -28437.149    82.397501 
   52500    1721.4601   -107.04782    1.5576133    -105.4902   -17326.584    4.3487157    4.3487157    4.3487157   -17326.584    19694.256   -51883.617    -19790.39    12589.935   -15294.888    24966.271    82.239989 
   52600    1402.0438   -106.76381    1.2685987   -105.49521   -26119.418     4.356734     4.356734     4.356734   -26119.418   -15498.069    -30907.15   -31953.036    18979.863    7492.6887   -33003.665     82.69574 
   52700    2087.8205   -107.37281    1.8891038    -105.4837   -6973.3252    4.3505307    4.3505307    4.3505307   -6973.3252   -1131.1068    27628.054   -47416.922   -6261.7278    40957.877    23166.824    82.343003 
   52800    1722.0759   -107.05031    1.5581704   -105.49214   -21102.218    4.3542716    4.3542716    4.3542716   -21102.218    21865.517   -80248.081   -4924.0886    16999.235   -14193.958   -5948.3287    82.555603 
   52900    2188.2676   -107.46191    1.9799905   -105.48192    3287.2838    4.3532803    4.3532803    4.3532803    3287.2838    23955.241    30274.069   -44367.458    3349.0895    46544.484   -8896.1506    82.499228 
   53000     1010.937   -106.41329   0.91471706   -105.49858   -1750.1238     4.349724     4.349724     4.349724   -1750.1238    40826.744   -31175.372   -14901.744    10553.183     447.1458    23799.937    82.297207 
   53100    2284.6147   -107.55721    2.0671674   -105.49005   -7618.4301    4.3586515    4.3586515    4.3586515   -7618.4301    1320.0334   -20106.146   -4069.1775    9686.3998   -13977.807    -11371.92    82.804977 
   53200     1878.262   -107.19202    1.6994909   -105.49253    14101.699    4.3542785    4.3542785    4.3542785    14101.699    77903.555    -22088.59   -13509.869   -3943.8186    12499.416     25288.52    82.555991 
   53300    1130.7376   -106.52516    1.0231151   -105.50205   -17786.791    4.3553948    4.3553948    4.3553948   -17786.791   -38167.958   -13410.463   -1781.9509    28193.535   -12616.503    4749.5846    82.619502 
   53400    2586.0155   -107.81913    2.3398812   -105.47925    5835.5618    4.3496762    4.3496762    4.3496762    5835.5618    23868.433    30681.738   -37043.486   -19251.138   -20234.262    20519.171    82.294496 
   53500    963.83929   -106.37578   0.87210204   -105.50368    25971.967    4.3432384    4.3432384    4.3432384    25971.967    70713.966    11991.526   -4789.5908    31974.685    8236.6356     24714.64    81.929634 
   53600    2876.3343   -108.08214    2.6025677   -105.47957    13973.671    4.3555661    4.3555661    4.3555661    13973.671    22045.796     18576.87     1298.347    10462.315   -16060.935   -3774.4606    82.629252 
   53700    899.83132   -106.32037   0.81418629   -105.50618    3901.7019     4.358734     4.358734     4.358734    3901.7019    48544.339    8713.3065    -45552.54   -9419.8001    9292.5056    48309.002    82.809678 
   53800    2158.3957   -107.43205    1.9529618   -105.47909    10155.636    4.3611811    4.3611811    4.3611811    10155.636    28024.904    16990.534    -14548.53    33269.214   -2448.9057   -25870.658     82.94923 
   53900    1604.2419    -106.9245    1.4515518   -105.47295    20555.167    4.3581394    4.3581394    4.3581394    20555.167    65723.105     8412.784    -12470.39   -29875.086   -11467.729     49009.74    82.775791 
   54000    1845.4286   -107.13688    1.6697826    -105.4671     2085.811    4.3572601    4.3572601    4.3572601     2085.811    25655.747      12199.1   -31597.414    23253.295    5684.5696   -25791.777    82.725701 
   54100    2020.3814   -107.29325    1.8280835   -105.46517   -12151.078    4.3555675    4.3555675    4.3555675   -12151.078    2347.5941     21708.81   -60509.636   -22067.936     -17094.7    35470.419    82.629333 
   54200    1375.4011   -106.72499    1.2444918   -105.48049   -739.19264    4.3468942    4.3468942    4.3468942   -739.19264    2538.0419    5875.7178   -10631.338    -3790.456   -4857.2062   -7393.2254    82.136693 
   54300    2475.9563   -107.71552    2.2402973   -105.47522    7829.3893    4.3554609    4.3554609    4.3554609    7829.3893    45720.879    19964.496   -42197.208    15366.895   -9930.5944   -10426.348    82.623265 
   54400    1291.2085   -106.67143    1.1683125   -105.50312   -19961.443    4.3581622    4.3581622    4.3581622   -19961.443   -2668.3311    3658.8144   -60874.813   -21273.934   -13940.527    39401.306    82.777093 
   54500    2263.3713   -107.53988     2.047946   -105.49194    18113.416    4.3571445    4.3571445    4.3571445    18113.416    40737.199    37234.828    -23631.78    -2923.553    10561.576   -45098.585    82.719119 
   54600    1542.0265   -106.88629    1.3952579   -105.49103   -4009.8508    4.3654027    4.3654027    4.3654027   -4009.8508    31811.729    24095.349   -67936.631   -2678.3443     988.7445    46838.988    83.190348 
   54700    1710.4266   -107.02793    1.5476299    -105.4803   -8202.0708    4.3590224    4.3590224    4.3590224   -8202.0708    18787.681   -13354.075   -30039.819   -33740.368   -15172.153   -12052.657     82.82612 
   54800    1796.8959   -107.10055    1.6258692   -105.47468    9257.1455    4.3559992    4.3559992    4.3559992    9257.1455    37661.397    40914.363   -50804.323    15853.772    53923.726    8955.5262    82.653903 
   54900    1873.6371   -107.18033    1.6953062   -105.48502    -2118.797    4.3553376    4.3553376    4.3553376    -2118.797     27139.34   -5048.2948   -28447.437   -17392.497   -13949.453    41850.523    82.616252 
   55000    1939.3086   -107.23488    1.7547272   -105.48016    8516.1518    4.3636941    4.3636941    4.3636941    8516.1518    5845.9156    54917.404   -35214.864     1607.163    42059.918   -10362.598    83.092702 
   55100    1362.6415    -106.7123    1.2329466   -105.47936   -34028.055    4.3716779    4.3716779    4.3716779   -34028.055   -20311.588   -3910.1658    -77862.41    20045.955    21197.989    40163.955    83.549615 
   55200    2377.1845   -107.60385    2.1509265   -105.45292    6854.1373     4.355636     4.355636     4.355636    6854.1373   -5391.1626    43376.571   -17422.996   -17745.597    11113.672    5102.0885    82.633231 
   55300    1469.5076   -106.80956    1.3296414   -105.47992    -10039.47    4.3549268    4.3549268    4.3549268    -10039.47    31616.808    8377.1942   -70112.412   -1385.4501     71093.73    19575.328    82.592877 
   55400    2332.4088   -107.58462    2.1104125   -105.47421    4490.9452    4.3538362    4.3538362    4.3538362    4490.9452    32385.316    1631.7518   -20544.232    6067.8567   -28586.734    26613.073    82.530838 
   55500    1005.6789   -106.40348   0.90995939   -105.49352    18700.219    4.3576141    4.3576141    4.3576141    18700.219    56693.664    66103.256   -66696.261   -17385.013    77638.384   -10795.352    82.745868 
   55600    2401.0451   -107.64267     2.172516   -105.47016   -8897.4931    4.3717437    4.3717437    4.3717437   -8897.4931    54854.517   -40885.955   -40661.042   -11352.408   -16893.428    33123.252    83.553392 
   55700    1543.8553    -106.8655    1.3969127   -105.46858     25535.35    4.3570135    4.3570135    4.3570135     25535.35    55609.176    72071.607   -51074.732   -1672.3243     66058.87   -12263.236    82.711656 
   55800    1811.8199   -107.09837    1.6393727     -105.459    1816.6599    4.3595572    4.3595572    4.3595572    1816.6599    25227.015    17522.802   -37299.838   -12058.568   -18080.753    33533.225    82.856609 
   55900    1830.7433   -107.11507     1.656495   -105.45858     6858.802    4.3590351    4.3590351    4.3590351     6858.802    24136.108    33783.728    -37343.43    971.38193     61891.68    4366.0539    82.826839 
   56000    1590.3656   -106.90687    1.4389962   -105.46788    13073.239    4.3670323    4.3670323    4.3670323    13073.239    21002.014    41008.675   -22790.972     8682.533   -18301.426    15577.756    83.283544 
   56100    1845.7895   -107.12047    1.6701092   -105.45036   -23842.469    4.3747169    4.3747169    4.3747169   -23842.469   -9310.6518    1458.6824   -63675.438   -5252.6392    10110.047    15555.612    83.723981 
   56200    1856.7725   -107.12459    1.6800467   -105.44455    13314.499    4.3535668    4.3535668    4.3535668    13314.499    18795.071    58429.395    -37280.97     15807.63    30307.503   -3441.5329    82.515517 
   56300    1744.1278   -107.03707    1.5781235   -105.45895   -16110.583     4.352263     4.352263     4.352263   -16110.583   -18112.403    21100.071   -51319.418   -2151.4298   -70003.693    19721.828    82.441407 
   56400    1956.8429   -107.22164    1.7705926   -105.45104    2744.7336    4.3583211    4.3583211    4.3583211    2744.7336     32599.91    12445.938   -36811.648    12947.013    51107.982    9915.3499    82.786149 
   56500     1479.361   -106.80414    1.3385569   -105.46558   -20872.965    4.3723666    4.3723666    4.3723666   -20872.965   -42439.415     35836.64    -56016.12    12440.478   -93296.517   -1935.6643    83.589109 
   56600    2381.6734   -107.59724    2.1549882   -105.44226   -11537.266    4.3716987    4.3716987    4.3716987   -11537.266    47324.513   -31727.494   -50208.818   -3593.8518    31614.616    41717.463     83.55081 
   56700     1636.297   -106.92655    1.4805559   -105.44599   -16439.362    4.3564366    4.3564366    4.3564366   -16439.362    -39855.43    53834.089   -63296.745    3205.0136   -89217.491   -13339.524    82.678807 
   56800    2167.7635   -107.40379    1.9614379   -105.44235    15762.129    4.3521327    4.3521327    4.3521327    15762.129    83339.689   -12452.761   -23600.542    6393.4025    17684.345    38571.968    82.434004 
   56900    1420.8852   -106.75034    1.2856468   -105.46469   -39249.259    4.3650413    4.3650413    4.3650413   -39249.259   -37221.401    3007.9426   -83534.317   -4610.9647   -88625.047    14033.447    83.169689 
   57000    2512.5313    -107.7222    2.2733911   -105.44881    7614.8341    4.3725463    4.3725463    4.3725463    7614.8341     55202.34    2374.2346   -34732.073    11154.203    33787.171   -9924.4069    83.599416 
   57100    1489.6864    -106.8074    1.3478996    -105.4595   -45411.784    4.3751177    4.3751177    4.3751177   -45411.784   -21233.649   -12927.567   -102074.14    6241.7914   -84668.927    23511.561    83.746991 
   57200    2059.3091   -107.31211    1.8633062    -105.4488    1076.8655    4.3634929    4.3634929    4.3634929    1076.8655    19887.816    3522.4207    -20179.64   -2927.6506      7652.16   -3926.0791    83.081209 
   57300    1947.2137   -107.21426    1.7618799   -105.45238   -18667.204    4.3623117    4.3623117    4.3623117   -18667.204   -43567.362    31652.616   -44086.866    10460.649   -49176.299   -1173.4304    83.013757 
   57400    1613.8769   -106.91859    1.4602697   -105.45832   -33380.278    4.3682579    4.3682579    4.3682579   -33380.278   -25021.811   -36230.966   -38888.055   -3790.2975   -34218.282     23611.41    83.353684 
   57500    2323.6919    -107.5418    2.1025253   -105.43928   -19332.501    4.3760157    4.3760157    4.3760157   -19332.501   -42323.216    6846.9578   -22521.245    -322.7116   -33164.914   -10098.134    83.798571 
   57600    1604.4962   -106.89396    1.4517819   -105.44218   -33858.822     4.376739     4.376739     4.376739   -33858.822   -28781.614   -2372.4259   -70422.425    3179.3709   -51183.974    8731.5949     83.84013 
   57700    2148.5463   -107.37317    1.9440498   -105.42912    3207.0824    4.3608359    4.3608359    4.3608359    3207.0824     129.2437   -3428.2661    12920.269   -2475.0767   -13666.336    1936.4808    82.929537 
   57800    1798.2272   -107.07446    1.6270738   -105.44739   -5402.4397    4.3568746    4.3568746    4.3568746   -5402.4397   -35622.765    41126.663   -21711.218    13688.809   -58088.583   -5052.6697    82.703749 
   57900    2140.2273   -107.38134    1.9365226   -105.44482   -4028.1531    4.3651152    4.3651152    4.3651152   -4028.1531     7231.718   -6653.3529   -12662.824    7325.9754   -528.69306    24970.872     83.17391 
   58000     1385.682   -106.72167    1.2537942   -105.46788   -3618.7296    4.3742955    4.3742955    4.3742955   -3618.7296   -42811.846    56552.305   -24596.648   -7498.4019   -71055.918   -9458.7644    83.699787 
   58100    2360.0293   -107.57409    2.1354041   -105.43869   -9745.2635    4.3768409    4.3768409    4.3768409   -9745.2635   -14499.452   -5940.8087   -8795.5294    11431.121    12741.288    34062.031     83.84599 
   58200    987.27335   -106.35381   0.89330567   -105.46051    18226.786    4.3733555    4.3733555    4.3733555    18226.786    -9878.657     110645.8   -46086.786   -21280.723   -66783.118    8299.0974    83.645841 
   58300    2060.1616   -107.28473    1.8640775   -105.42066    3159.6745    4.3868673    4.3868673    4.3868673    3159.6745    3761.8679    44958.406   -39241.251    1718.3592    29671.559    478.04183    84.423526 
   58400    948.84422   -106.29186   0.85853419   -105.43332   -16081.395    4.3874059    4.3874059    4.3874059   -16081.395   -52288.638    95348.307   -91303.855   -4770.2435   -71318.928    22717.284    84.454627 
   58500    2692.3371   -107.84435    2.4360832   -105.40826     22609.08    4.3687882    4.3687882    4.3687882     22609.08    45438.534    43007.219   -20618.513   -6261.9201    22027.254    -7256.834    83.384047 
   58600    1076.4988   -106.42731   0.97403878   -105.45327   -10822.845    4.3541436    4.3541436    4.3541436   -10822.845   -63960.891    104818.19   -73325.829    3234.1916    -63134.95    18081.577    82.548321 
   58700    2323.4177   -107.54718    2.1022771    -105.4449     25201.17    4.3620715    4.3620715    4.3620715     25201.17    64546.187    9735.0645    1322.2597   -6792.3706    20401.753    18723.948    83.000048 
   58800    1310.3966   -106.65488    1.1856743    -105.4692   -32749.727    4.3864329    4.3864329    4.3864329   -32749.727   -56405.516    48223.334   -90066.998    1272.1391   -79694.378   -4891.2115    84.398448 
   58900     2019.317   -107.27998    1.8271205   -105.45286   -22711.858    4.3746284    4.3746284    4.3746284   -22711.858    150.86258   -19873.801   -48412.636   -1237.2992    43486.597    31887.424    83.718897 
   59000    1563.2514   -106.87057    1.4144627   -105.45611    24720.339    4.3476928    4.3476928    4.3476928    24720.339    37563.283    55214.379   -18616.647   -7584.0455   -60785.966   -22788.385    82.181969 
   59100    1839.1619   -107.12996    1.6641124   -105.46584    5595.1929     4.346216     4.346216     4.346216    5595.1929   -3994.5993    34592.696   -13812.518     3565.201    41989.268    40630.268    82.098252 
   59200     1444.195   -106.79446     1.306738   -105.48772   -10084.956    4.3701933    4.3701933    4.3701933   -10084.956     50785.42    -21967.22   -59073.066    4564.4293   -15793.099    -19269.22    83.464525 
   59300    2359.2002   -107.58732    2.1346539   -105.45267   -6754.9638    4.3784794    4.3784794    4.3784794   -6754.9638   -10101.439    47750.001   -57913.453    21571.296    10715.181    523.44019    83.940185 
   59400    857.14329   -106.24945   0.77556126   -105.47389   -23713.438     4.366971     4.366971     4.366971   -23713.438     11760.12   -5640.4178   -77260.016   -722.29166    45375.088    23484.381    83.280042 
   59500    2846.1858   -108.01936    2.5752887   -105.44407    20973.964    4.3599912    4.3599912    4.3599912    20973.964    29462.062    23835.244    9624.5857    7992.8345   -16792.697    -32830.77    82.881356 
   59600    890.01854   -106.28628   0.80530748   -105.48097    20623.333    4.3592426    4.3592426    4.3592426    20623.333   -8109.3776    91052.396   -21073.019    15303.028    33640.689      28526.6    82.838669 
   59700    2420.6858     -107.654    2.1902874   -105.46371   -6254.5324    4.3693227    4.3693227    4.3693227   -6254.5324    540.63054    5925.8639   -25230.092    7509.3846    -9138.591     103.8996    83.414657 
   59800    1566.3895   -106.88316    1.4173021   -105.46586   -2277.8287    4.3762391    4.3762391    4.3762391   -2277.8287   -21079.446    46979.259   -32733.299    10547.889   -18023.114   -184.48167    83.811404 
   59900    1395.7269   -106.72514    1.2628831   -105.46225     12757.06    4.3731099    4.3731099    4.3731099     12757.06      8871.17    17573.894    11826.115    11966.861    32253.612    19980.919    83.631749 
   60000    1662.7181   -106.94925    1.5044622   -105.44478    20429.287    4.3638063    4.3638063    4.3638063    20429.287   -36249.559    88618.652     8918.767    3596.9966   -63171.817   -34745.029    83.099112 
   60100    1626.2356   -106.91653    1.4714522   -105.44507    3947.4506     4.369901     4.369901     4.369901    3947.4506    26509.913    10308.283   -24975.844    8558.8969    52708.888    36390.783     83.44778 
   60200     1325.922   -106.64679    1.1997221   -105.44707    11094.331    4.3794613    4.3794613    4.3794613    11094.331   -16072.181    74294.766   -24939.591     19464.52   -62430.383   -16060.243    83.996671 
   60300    2099.0128    -107.3248    1.8992309   -105.42557   -13082.548    4.3908733    4.3908733    4.3908733   -13082.548   -11335.655      14276.5    -42188.49     10659.04    37869.416    4418.3214    84.655022 
   60400    1018.6099   -106.36216   0.92165968    -105.4405   -10144.398    4.3778678    4.3778678    4.3778678   -10144.398   -4097.8753     36369.33    -62704.65    8302.8796   -39565.976    21319.251    83.905015 
   60500    2458.1243   -107.64719    2.2241625   -105.42302    29450.129    4.3511863    4.3511863    4.3511863    29450.129    9507.9316    89697.752   -10855.295    18352.995   -14439.714   -16036.692    82.380239 
   60600    1154.0426   -106.50581     1.044202   -105.46161    23469.471    4.3544679    4.3544679    4.3544679    23469.471    53891.066    41012.046     -24494.7    2089.3303   -3066.2707    46910.859    82.566765 
   60700     2368.428   -107.60394    2.1430034   -105.46094     3050.905    4.3888739    4.3888739    4.3888739     3050.905   -8479.8471     6849.154    10783.408    5422.2245   -32628.226   -1961.7681    84.539427 
   60800    1289.6127   -106.58104    1.1668686   -105.41417   -58076.027    4.4145397    4.4145397    4.4145397   -58076.027   -23927.682   -63252.403   -87047.997   -7653.6375    16057.086    13417.567    86.031257 
   60900    2555.4617   -107.68628    2.3122354   -105.37404   -6653.4966    4.3853131    4.3853131    4.3853131   -6653.4966    33135.003   -23423.027   -29672.466    8010.4222   -31665.536   -1788.2748    84.333827 
   61000    1100.0956   -106.38735   0.99538965   -105.39196    4910.1288    4.3440021    4.3440021    4.3440021    4910.1288    42888.151   -6136.2583   -22021.506   -3561.7937    21392.898   -14518.512    81.972861 
   61100    2705.8942   -107.87122      2.44835   -105.42287    38826.366    4.3480289    4.3480289    4.3480289    38826.366    73547.986    30827.956    12103.158    10667.085   -7454.6476    16070.688    82.201033 
   61200    780.00783   -106.17349   0.70576747   -105.46772    8809.7947    4.3824625    4.3824625    4.3824625    8809.7947   -6398.9367    42609.458   -9781.1373    4512.1011    9783.3539   -15432.022    84.169474 
   61300    2387.0136   -107.58764      2.15982   -105.42782   -2499.8893    4.4067203    4.4067203    4.4067203   -2499.8893   -16514.628     38776.41   -29761.449    6331.5076    5495.7238     9836.772    85.574914 
   61400      1069.66   -106.39588   0.96785088   -105.42803   -24447.637     4.396243     4.396243     4.396243   -24447.637   -30785.773    62111.982   -104669.12    8491.9286    2135.5364   -13532.854    84.965983 
   61500     2151.441   -107.33608     1.946669   -105.38941    48222.623    4.3593286    4.3593286    4.3593286    48222.623     61389.76    42790.834    40487.275    672.14529    12235.189   -2556.7515    82.843572 
   61600    1199.1641   -106.50514    1.0850289   -105.42011    20297.595    4.3477668    4.3477668    4.3477668    20297.595    22260.887    90879.395   -52247.498    2840.9818   -38531.521   -4183.1596    82.186169 
   61700    2243.9308   -107.47552    2.0303558   -105.44516    15136.813    4.3680839    4.3680839    4.3680839    15136.813    40988.016    10259.062   -5836.6394   -8398.1534    43168.142   -16480.669    83.343725 
   61800    1375.2095   -106.68889    1.2443184   -105.44457   -528.90624     4.382348     4.382348     4.382348   -528.90624   -7208.7016    65606.448   -59984.466    5612.2025   -71342.417    2907.1286    84.162879 
   61900    1995.6857   -107.23342    1.8057383   -105.42768    12098.081    4.3760738    4.3760738    4.3760738    12098.081    32219.371    17172.559   -13097.688   -16097.886    50732.724   -20511.938    83.801911 
   62000    1378.5526   -106.67873    1.2473433   -105.43139   -19692.285    4.3695867    4.3695867    4.3695867   -19692.285   -60959.555    63735.004   -61852.305    11691.837   -88948.514    7077.2731    83.429775 
   62100    2164.4039   -107.38769    1.9583982   -105.42929    7913.4213    4.3463875    4.3463875    4.3463875    7913.4213    3844.5068    28583.115   -8687.3582   -20200.117     28768.39   -17661.673     82.10797 
   62200    1453.1259   -106.76805    1.3148188   -105.45323   -10179.189    4.3590475    4.3590475    4.3590475   -10179.189   -70892.461    92456.425   -52101.531     10016.61   -82998.779   -113.08484     82.82755 
   62300    2070.7253   -107.30537    1.8736358   -105.43173   -24923.399     4.381755     4.381755     4.381755   -24923.399   -47163.192     5311.281   -32918.285   -12418.095    10641.135   -21666.022    84.128718 
   62400    1508.0621   -106.78611    1.3645263   -105.42159   -9334.2316    4.3847807    4.3847807    4.3847807   -9334.2316   -34857.476    51334.971   -44480.189    2363.4269   -73358.006   -15270.377    84.303116 
   62500    2473.0519   -107.63573    2.2376693   -105.39806    -18418.34    4.3824917    4.3824917    4.3824917    -18418.34   -32901.196   -33028.471    10674.647    4884.7102    11971.029    -8913.833    84.171159 
   62600    1195.9835   -106.49828     1.082151   -105.41613   -6594.5403    4.3628242    4.3628242    4.3628242   -6594.5403   -30202.585    70978.747   -60559.783   -6860.0603   -87184.369   -74.433594     83.04302 
   62700    2520.2231   -107.68309    2.2803508   -105.40274    22732.531    4.3583416    4.3583416    4.3583416    22732.531        23792    13814.762     30590.83    19907.954    23548.745   -14074.588    82.787317 
   62800    1152.2077   -106.48534    1.0425417    -105.4428   -10505.751    4.3835721    4.3835721    4.3835721   -10505.751   -65885.561    67416.139   -33047.832   -1269.9084   -87032.192     18944.23    84.233423 
   62900    2213.5025   -107.39522    2.0028236    -105.3924    12752.759    4.3939121    4.3939121    4.3939121    12752.759   -9351.1205    44027.541    3581.8557    8334.8855    25311.034    21435.746    84.830902 
   63000    590.63284   -105.94283   0.53441701   -105.40841   -3139.4232     4.392533     4.392533     4.392533   -3139.4232   -82762.569    88906.615   -15562.316    13267.619   -81137.949     18608.66     84.75105 
   63100    2847.3563   -107.93157    2.5763478   -105.35522    27125.845    4.3815744    4.3815744    4.3815744    27125.845    46663.944     7156.569    27557.022   -18454.606    21958.218    9602.2517    84.118313 
   63200    804.08575   -106.13696   0.72755368   -105.40941   -5280.0505    4.3646434    4.3646434    4.3646434   -5280.0505   -41238.027    88683.945    -63286.07     9664.211   -92353.953    3893.6609    83.146945 
   63300    2879.5031   -108.00039     2.605435   -105.39496    18668.649    4.3669635    4.3669635    4.3669635    18668.649    70856.783   -4270.8421   -10579.992   -8940.1473    28397.817   -7333.3571     83.27961 
   63400    1003.6431   -106.34001   0.90811736   -105.43189    -1065.619    4.3718043    4.3718043    4.3718043    -1065.619     30117.46    23773.812   -57088.129   -3967.0069   -91345.268    12125.135    83.556864 
   63500    2721.7174   -107.87503    2.4626671   -105.41236    14748.054    4.3750534    4.3750534    4.3750534    14748.054    4731.5498    15465.364    24047.247    180.34662    21649.093   -20512.189      83.7433 
   63600    833.75483    -106.1956   0.75439889    -105.4412   -23383.922    4.3754042    4.3754042    4.3754042   -23383.922    -41630.67    47621.653   -76142.747   -15025.338   -101159.19    15463.519    83.763444 
   63700    2492.5356   -107.66724    2.2552986   -105.41194    257.72829     4.368061     4.368061     4.368061    257.72829    15077.307   -20770.088    6465.9661    21680.648    23569.569   -6877.3878    83.342418 
   63800    1395.1732   -106.69883     1.262382   -105.43645   -17698.171    4.3701325    4.3701325    4.3701325   -17698.171   -28374.371    49152.674   -73872.816   -10603.095   -91162.958    4425.7629    83.461045 
   63900    1950.5652   -107.20539    1.7649124   -105.44048    10856.964    4.3737435    4.3737435    4.3737435    10856.964    18769.331   -4819.2482    18620.808   -10389.365    599.07606    28060.542    83.668107 
   64000    1684.9312   -106.95104    1.5245612   -105.42648   -12408.024    4.3861421    4.3861421    4.3861421   -12408.024   -27757.715    29957.489   -39423.846   -1268.5733   -84175.192   -5371.4735    84.381666 
   64100    2011.4881   -107.23021    1.8200367   -105.41017   -7455.9409    4.3829678    4.3829678    4.3829678   -7455.9409   -19618.073   -30605.703    27855.953   -9515.4312    563.86165    34478.334    84.198596 
   64200    1437.2015   -106.71777    1.3004101   -105.41736   -2020.6719    4.3656615    4.3656615    4.3656615   -2020.6719   -32901.781    45557.224   -18717.459   -5816.5881   -79269.125    5946.2775    83.205143 
   64300    2449.9586   -107.62646    2.2167741   -105.40968    23251.751    4.3590697    4.3590697    4.3590697    23251.751    842.87556    5937.4226    62974.954   -4624.5049   -9602.7934    7708.0935    82.828813 
   64400     1228.634   -106.56572    1.1116939   -105.45403   -10993.455    4.3624197    4.3624197    4.3624197   -10993.455   -39625.257    15828.228   -9183.3359    -16319.15    -67566.82    17006.317    83.019925 
   64500    1972.8674   -107.25014    1.7850919   -105.46505   -14084.663    4.3732089    4.3732089    4.3732089   -14084.663   -17411.008    9808.3225   -34651.305    13435.112   -34910.565    -3411.536    83.637427 
   64600     1881.924   -107.16525    1.7028043   -105.46244   -5081.7156    4.3682229    4.3682229    4.3682229   -5081.7156   -15414.171    -3613.544    3782.5677   -7.9580379   -44519.578    1021.6047    83.351684 
   64700    1403.4796   -106.75251    1.2698979   -105.48261       -19551    4.3622574    4.3622574    4.3622574       -19551   -36453.201    9467.2042   -31667.002    -18428.08   -61730.032    16012.237    83.010662 
   64800    2116.6797   -107.37328    1.9152163   -105.45807    30779.009    4.3577936    4.3577936    4.3577936    30779.009    79813.419    -6456.197    18979.806    6439.1596    -16316.37    5392.1641    82.756092 
   64900    1261.8629   -106.62995    1.1417601   -105.48819   -32412.905     4.368831     4.368831     4.368831   -32412.905   -55284.895   -2289.5386   -39664.282   -12894.039   -88872.187   -5358.2973    83.386497 
   65000    2216.4361   -107.45534     2.005478   -105.44987    6553.7818     4.372738     4.372738     4.372738    6553.7818    26024.875   -16403.376    10039.847   -7780.1567    20492.791    13328.445    83.610413 
   65100    1304.7057   -106.63296    1.1805252   -105.45243    6448.7671    4.3624388    4.3624388    4.3624388    6448.7671   -19563.304    69632.411   -30722.805   -6597.4912   -95883.351   -12762.595    83.021018 
   65200    2357.5167   -107.56204    2.1331306   -105.42891    5030.6342    4.3722297    4.3722297    4.3722297    5030.6342    1350.7485   -29667.759    43408.913   -29321.806    24040.546   -10484.544    83.581261 
   65300    1359.5129   -106.67956    1.2301158   -105.44944   -34527.465    4.3689259    4.3689259    4.3689259   -34527.465   -77454.022    44183.683   -70312.056    3115.6452   -114973.03     4845.575    83.391934 
   65400    2343.6535   -107.54704    2.1205869   -105.42646    30083.076    4.3614955    4.3614955    4.3614955    30083.076    51183.228   -5065.6315    44131.632   -22948.781    33691.543   -28217.451     82.96717 
   65500    1150.0537   -106.50552    1.0405928   -105.46493   -53304.676    4.3701419    4.3701419    4.3701419   -53304.676   -108203.24    22581.321   -74292.111   -22697.279   -121319.18    6686.4224    83.461582 
   65600    2467.7348   -107.66875    2.2328583   -105.43589     22804.78    4.3651265    4.3651265    4.3651265     22804.78    55699.597    -10288.48    23003.225    19948.607     30911.26   -21580.188     83.17456 
   65700    1024.2751   -106.39494   0.92678561   -105.46816   -28178.163    4.3682498    4.3682498    4.3682498   -28178.163   -47374.573    7148.2448    -44308.16   -29855.598    -96012.98   -8930.6578    83.353226 
   65800    2566.5187   -107.77088    2.3222401   -105.44864   -5676.1901    4.3706804    4.3706804    4.3706804   -5676.1901   -7386.9571   -25417.929    15776.316   -753.38647    12812.841    7321.9158    83.492438 
   65900    1168.9475   -106.52985    1.0576882   -105.47216   -9568.8514    4.3633922    4.3633922    4.3633922   -9568.8514   -33965.149    58016.039   -52757.445    10978.362   -59832.612   -16487.477    83.075461 
   66000    2041.3652   -107.30531    1.8470701   -105.45824    4131.7389    4.3626189    4.3626189    4.3626189    4131.7389    2108.7855   -12029.029     22315.46   -23950.342   -19980.657    14712.475      83.0313 
   66100    1576.7606   -106.89242    1.4266861   -105.46573   -19812.996    4.3700722    4.3700722    4.3700722   -19812.996   -16213.262    6074.1301   -49299.855   -3156.8138   -30012.123   -16000.208     83.45759 
   66200    1794.3108   -107.08245    1.6235301   -105.45892    510.98132    4.3721411    4.3721411    4.3721411    510.98132    4481.1314    29853.873    -32802.06     8948.819   -42152.387    3369.3997    83.576181 
   66300    1583.9273   -106.89057    1.4331707    -105.4574   -19606.603     4.370212     4.370212     4.370212   -19606.603    1699.1042   -39472.725   -21046.188   -13813.772    4754.3049    12996.168      83.4656 
   66400    1916.8059   -107.18566    1.7343663   -105.45129   -9995.8463    4.3627704    4.3627704    4.3627704   -9995.8463   -21735.452    39494.429   -47746.516    527.85135    -58520.12   -15125.861    83.039951 
   66500    1675.8462   -106.97236    1.5163408   -105.45602   -15825.031    4.3640684    4.3640684    4.3640684   -15825.031   -6003.9686    -37470.88   -4000.2452    8781.6695    19956.197    43585.614    83.114086 
   66600    1970.6138   -107.23638    1.7830528   -105.45333   -1259.5746    4.3685037    4.3685037    4.3685037   -1259.5746   -16599.043    43628.473   -30808.154   -10947.968   -32975.504   -14983.873     83.36776 
   66700    1493.1398   -106.80868    1.3510242   -105.45765   -8419.5778    4.3732936    4.3732936    4.3732936   -8419.5778    33764.412   -40582.691   -18440.455    23408.823     7824.176    33745.777    83.642287 
   66800    1771.9364   -107.05946    1.6032853   -105.45618    20401.145    4.3715346    4.3715346    4.3715346    20401.145      69188.6   -6739.8084   -1245.3566    -17150.48    19054.613    6085.6025    83.541402 
   66900    1884.2159   -107.15498    1.7048781    -105.4501    16189.697     4.376153     4.376153     4.376153    16189.697    71241.292    3473.6582   -26145.861    24789.072   -6240.9514   -1052.6229     83.80646 
   67000    1324.7674   -106.65828    1.1986774    -105.4596   -28690.626    4.3804193    4.3804193    4.3804193   -28690.626    20286.255   -33829.623   -72528.511    4964.1023    22724.344    28907.648    84.051804 
   67100    2528.4437   -107.73706     2.287789   -105.44927     13974.99    4.3582787    4.3582787    4.3582787     13974.99    25848.578     52687.04   -36610.647   -13108.593    17653.204   -17949.223    82.783733 
   67200    1099.9844   -106.48656   0.99528903   -105.49127   -25062.251    4.3548969    4.3548969    4.3548969   -25062.251   -1998.7079   -43203.548   -29984.498    33481.444   -9950.9577    24510.888    82.591175 
   67300    2566.3079   -107.79391    2.3220493   -105.47186    10003.281    4.3661893    4.3661893    4.3661893    10003.281    -13964.89    65765.967   -21791.233   -7908.7127     15909.63   -3333.5575    83.235326 
   67400    1195.0518   -106.57964     1.081308   -105.49833   -43588.113    4.3791085    4.3791085    4.3791085   -43588.113    -34911.37   -70203.394   -25649.573    6156.5553   -1864.0769    17075.709    83.976375 
   67500    2309.8378   -107.55899    2.0899898     -105.469   -31218.638    4.3783521    4.3783521    4.3783521   -31218.638    -15465.03    -38291.53   -39899.354    32251.315   -17159.949    23007.509    83.932863 
   67600    1821.8431   -107.10776    1.6484419   -105.45932   -3601.6429    4.3608884    4.3608884    4.3608884   -3601.6429    22804.301   -35936.567    2327.3376   -60067.312    3046.2932     3923.988    82.932528 
   67700    1664.5773   -106.97268    1.5061445   -105.46654   -9585.9724    4.3609475    4.3609475    4.3609475   -9585.9724     1080.658    626.09457    -30464.67    44750.322   -7552.1686    25439.692    82.935902 
   67800     1695.083    -107.0045    1.5337467   -105.47075    15323.958    4.3689465    4.3689465    4.3689465    15323.958    7143.4573    15612.025     23216.39   -68408.833     6290.418    70.154947    83.393114 
   67900    1494.2475   -106.81964    1.3520265   -105.46761    2201.6091    4.3858064    4.3858064    4.3858064    2201.6091   -38215.917     55247.05   -10426.306    10839.021   -23331.123    27701.505    84.362294 
   68000    1291.6609   -106.62005     1.168722   -105.45133    3917.2389    4.3797809    4.3797809    4.3797809    3917.2389   -63451.686    38386.113    36817.289   -27463.197    9374.9809    10733.373     84.01506 
   68100    2166.4801   -107.38257    1.9602768    -105.4223    14478.389    4.3766404    4.3766404    4.3766404    14478.389   -21796.475    65096.467    135.17596   -30398.757    -4991.329    9686.4235    83.834467 
   68200    1194.5204   -106.52234    1.0808272   -105.44151   -141.97529    4.3821219    4.3821219    4.3821219   -141.97529   -27511.127    7488.6706    19596.531    -6717.233   -12622.818    32636.675    84.149852 
   68300    1692.2074   -106.95496    1.5311448   -105.42381    34844.371     4.374083     4.374083     4.374083    34844.371    41423.274    47438.035    15671.803   -36732.331    14387.501    63.082141    83.687587 
   68400    1743.6941   -107.00412    1.5777311   -105.42639   -17831.494    4.3801736    4.3801736    4.3801736   -17831.494   -17959.027    42801.722   -78337.176   -5690.5993   -25226.597   -4695.7955    84.037665 
   68500    1997.3234   -107.23994    1.8072202   -105.43272    3201.7738    4.3698701    4.3698701    4.3698701    3201.7738     39209.99   -25035.534   -4569.1341   -27954.264    9823.8138    6986.4772    83.446009 
   68600    1658.9484   -106.95306    1.5010513   -105.45201    209.30159    4.3591434    4.3591434    4.3591434    209.30159   -5596.7387    40838.899   -34614.256   -955.62539   -36852.207   -53094.816    82.833016 
   68700    2234.3966   -107.48157     2.021729   -105.45984   -4502.5575    4.3669853    4.3669853    4.3669853   -4502.5575   -8227.7431   -1248.4937   -4031.4357     9741.654    23277.734    15489.076    83.280859 
   68800    1400.0685    -106.7374    1.2668114   -105.47059   -22695.077     4.370839     4.370839     4.370839   -22695.077    17916.332   -49280.854   -36720.707   -4927.4571   -21979.937    -62137.16    83.501527 
   68900    2378.6156   -107.61096    2.1522214   -105.45874   -16617.904    4.3740255    4.3740255    4.3740255   -16617.904   -47533.139    21858.166    -24178.74    10922.943   -46317.628    13832.159    83.684291 
   69000    1802.4168   -107.09197    1.6308646   -105.46111   -30250.706    4.3768552    4.3768552    4.3768552   -30250.706   -4053.2834    -46383.01   -40315.823   -12373.198    22346.466    -42979.45    83.846806 
   69100    1673.2087   -106.97934    1.5139543   -105.46538   -26603.936    4.3630915    4.3630915    4.3630915   -26603.936    -26209.73    8953.9868   -62556.065    3949.6269    -89156.03   -16786.706    83.058286 
   69200     2558.793   -107.76891    2.3152497   -105.45366    6999.3234    4.3629698    4.3629698    4.3629698    6999.3234    31084.211    -12851.38    2765.1389    10301.888    18799.736    2542.9949    83.051338 
   69300    759.03556    -106.1678   0.68679133   -105.48101   -30700.771    4.3808835    4.3808835    4.3808835   -30700.771   -276.98195   -19522.224   -72303.108   -20487.725   -52163.157   -52744.172    84.078531 
   69400    2586.2424   -107.78513    2.3400865   -105.44505    2685.0971     4.379294     4.379294     4.379294    2685.0971    7466.6602   -622.69828    1211.3295    26149.377   -10353.437    22830.071    83.987047 
   69500    1355.5412   -106.68111    1.2265222   -105.45459    -17674.89    4.3764257    4.3764257    4.3764257    -17674.89   -34142.751    -16924.36   -1957.5589   -23711.452   -12207.635    -32270.85     83.82213 
   69600    1511.6221    -106.8243    1.3677474   -105.45655    14423.308    4.3581199    4.3581199    4.3581199    14423.308    1082.8545    10048.664    32138.406    21690.758   -38646.236   -1962.2417    82.774684 
   69700    2195.8537   -107.45295    1.9868546    -105.4661    32023.192     4.352584     4.352584     4.352584    32023.192    41514.236    6015.9164    48539.425    19072.493    21238.825    21909.551    82.459649 
   69800    1644.1648   -106.98153    1.4876749   -105.49386   -30465.253    4.3731858    4.3731858    4.3731858   -30465.253   -56777.091    9961.6511   -44580.319   -9175.7255   -74589.886   -19184.849    83.636103 
   69900    2116.5614   -107.39634    1.9151092   -105.48123    4219.5365    4.3741031    4.3741031    4.3741031    4219.5365   -10930.675   -48490.561    72079.845    41805.447    12602.899    22218.878    83.688743 
   70000    1179.6921   -106.55873    1.0674102   -105.49132    16178.373    4.3608343    4.3608343    4.3608343    16178.373     4762.726    41009.144    2763.2498     -27922.2   -44870.505    17966.543    82.929446 
   70100    2014.8415   -107.30534    1.8230709   -105.48227    17947.579    4.3572661    4.3572661    4.3572661    17947.579   -3069.6804    13766.473    43145.943    20381.933   -22093.383   -4431.4739    82.726041 
   70200    2383.9658   -107.64093    2.1570624   -105.48387   -19520.359    4.3712309    4.3712309    4.3712309   -19520.359   -17372.683   -24225.931   -16962.463   -1335.3726   -15586.847     14037.42    83.523991 
   70300    1303.1448   -106.67862    1.1791128    -105.4995   -33190.884    4.3774288    4.3774288    4.3774288   -33190.884   -54919.212    4187.6113   -48841.052   -19404.708   -59245.955    9391.3304    83.879779 
   70400    2479.5931   -107.71565     2.243588   -105.47206    9888.4985    4.3722935    4.3722935    4.3722935    9888.4985    15107.728   -14916.086    29473.854    9255.3599    21578.821   -26480.006    83.584916 
   70500    1146.7838   -106.52685    1.0376341   -105.48922   -4325.5112    4.3664687    4.3664687    4.3664687   -4325.5112   -74636.982    14624.522    47035.927   -31567.763   -74869.397    5982.2761    83.251307 
   70600     2186.533   -107.45539     1.978421   -105.47697      18616.3    4.3510634    4.3510634    4.3510634      18616.3    16862.932    21394.315    17591.651    3916.9349    17840.322   -9504.2313    82.373256 
   70700    1581.4024   -106.93319    1.4308861    -105.5023    8527.1389    4.3526341    4.3526341    4.3526341    8527.1389    4748.4526    58099.255   -37266.291   -16512.307    -42487.21   -26968.499    82.462496 
   70800    2010.1975   -107.31188    1.8188689   -105.49301    -19467.18    4.3805692    4.3805692    4.3805692    -19467.18   -43157.943     2290.222   -17533.819   -30043.586   -15483.815    15917.987    84.060434 
   70900    2006.8608   -107.29407    1.8158498   -105.47822    10076.418    4.3719799    4.3719799    4.3719799    10076.418     199.9537    43449.669   -13420.367    16540.447    6276.5416   -21021.062    83.566933 
   71000    1273.4961   -106.63232     1.152286   -105.48003    7645.4355    4.3593019    4.3593019    4.3593019    7645.4355   -39000.976    28069.837    33867.444    -28017.74   -52351.883    342.45753    82.842053 
   71100    2546.3209   -107.75695    2.3039646   -105.45299    13996.683    4.3720972    4.3720972    4.3720972    13996.683   -24840.686    13033.186    53797.549    12241.705    24121.445    8972.4451    83.573662 
   71200    643.21479   -106.05817   0.58199426   -105.47618   -8833.4039    4.3811119    4.3811119    4.3811119   -8833.4039   -33090.251     36023.66   -29433.621   -18129.231   -61479.562   -38506.734     84.09168 
   71300    2296.1504   -107.53426    2.0776052   -105.45666    6768.9238    4.3724084    4.3724084    4.3724084    6768.9238    -16772.67    -23768.85    60848.291    3499.8417    18575.724    17835.103     83.59151 
   71400     1789.302    -107.0937    1.6189981    -105.4747    4663.5049    4.3547711    4.3547711    4.3547711    4663.5049   -9759.3295    52131.587   -28381.743    4311.1844   -47552.982   -12888.379    82.584014 
   71500    1447.2589    -106.7996    1.3095103   -105.49009    17303.015    4.3499171    4.3499171    4.3499171    17303.015   -5995.6587    37491.264    20413.439   -24609.245   -21177.472   -23480.808     82.30817 
   71600    2364.5911   -107.62062    2.1395317   -105.48108   -12463.681    4.3717361    4.3717361    4.3717361   -12463.681   -27038.523    8016.3531   -18368.873     21311.16   -8326.5838    22363.136    83.552958 
   71700    1406.0752   -106.75166    1.2722464   -105.47942   -42326.112    4.3842051    4.3842051    4.3842051   -42326.112   -45259.814   -25497.935   -56220.587   -35344.478    -48871.54   -8669.3595    84.269923 
   71800    2510.4969   -107.72774    2.2715503   -105.45619     3612.063    4.3606123    4.3606123    4.3606123     3612.063     25328.86   -20653.793    6161.1225   -785.25498    15577.029    3367.2488    82.916781 
   71900    1525.0171   -106.84998    1.3798675   -105.47011    -5931.561    4.3535921    4.3535921    4.3535921    -5931.561    4748.7878    17261.472   -39804.943   -10894.018   -34322.886    19986.631    82.516958 
   72000     1396.419   -106.76475    1.2635093   -105.50124   -12739.464    4.3639149    4.3639149    4.3639149   -12739.464   -6553.7252    -62482.55    30817.885   -66037.587   -20805.024   -7038.0945     83.10532 
   72100    2789.7014   -107.99417    2.5241804   -105.46999    14202.313    4.3735187    4.3735187    4.3735187    14202.313    52356.437    4068.5851   -13818.083    22529.492    5434.2632    6702.7955    83.655206 
   72200    979.52916   -106.38362   0.88629857   -105.49732    -42941.53    4.3735551    4.3735551    4.3735551    -42941.53   -40484.106   -64969.916   -23370.567   -86928.509   -38524.585    6452.6272    83.657292 
   72300    2476.2332   -107.71938    2.2405478   -105.47883    8185.3973    4.3571279    4.3571279    4.3571279    8185.3973    6007.2496    4261.0548    14287.888    42308.109    125.82115     5459.584    82.718169 
   72400     1691.469   -107.01588    1.5304767   -105.48541    27613.676    4.3464338    4.3464338    4.3464338    27613.676    15019.011    8574.8269    59247.189   -52537.986    26467.283    5761.6895    82.110594 
   72500     1618.979   -106.97094    1.4648862   -105.50605   -11169.886    4.3665564    4.3665564    4.3665564   -11169.886   -45977.289    16457.056   -3989.4245     -8117.29   -69840.773    3471.7545    83.256324 
   72600       2260.5    -107.5241    2.0453479   -105.47875    -19873.64    4.3807444    4.3807444    4.3807444    -19873.64   -41911.024   -37079.283    19369.388    7720.4908     31398.26    4588.6348     84.07052 
   72700    915.88984   -106.31725   0.82871637   -105.48853    3615.1701     4.362086     4.362086     4.362086    3615.1701   -51366.444    16639.808    45572.147   -30455.446   -60431.157    5761.6292    83.000873 
   72800    2213.2004   -107.48282    2.0025502   -105.48027    4471.8527    4.3541044    4.3541044    4.3541044    4471.8527   -31001.959    33292.743    11124.774    2237.8222   -41476.549    7057.6159    82.546091 
   72900    1719.7372    -107.0356    1.5560544   -105.47954    25787.061    4.3554956    4.3554956    4.3554956    25787.061     18495.67   -1058.0117    59923.525   -17590.459   -35049.757    1025.6568     82.62524 
   73000    1557.3428   -106.90046    1.4091165   -105.49134   -23413.516    4.3736469    4.3736469    4.3736469   -23413.516   -54863.942    9310.5871   -24687.193   -23297.229   -60428.494    12543.009     83.66256 
   73100    1982.8243   -107.26358    1.7941011   -105.46948    7511.7266    4.3749591    4.3749591    4.3749591    7511.7266    57521.064   -12108.808   -22877.076    4592.2879     18888.32   -5980.3261    83.737886 
   73200    1500.3661   -106.81775    1.3575628   -105.46018    1440.0284    4.3577947    4.3577947    4.3577947    1440.0284   -11105.002     17912.87   -2487.7834    -31510.87    -77049.46   -5384.0696    82.756152 
   73300    2203.0075   -107.45009    1.9933275   -105.45676    25270.448    4.3618292    4.3618292    4.3618292    25270.448    46120.251    14497.779    15193.314   -1261.6737    37707.977    16039.169    82.986217 
   73400    1319.6844   -106.67251    1.1940781   -105.47843   -14213.147    4.3642572    4.3642572    4.3642572   -14213.147   -21165.597    35738.084   -57211.927   -16197.815   -66505.548   -20597.503    83.124879 
   73500    1909.1071   -107.19352    1.7274002   -105.46612    25950.769    4.3616735    4.3616735    4.3616735    25950.769    949.19545    41625.343    35277.769   -31763.884    20670.096    11423.161    82.977328 
   73600    1848.2624   -107.14447    1.6723467   -105.47213   -32450.745     4.376998     4.376998     4.376998   -32450.745   -10959.454   -18963.986   -67428.794    16438.103   -24815.843   -27192.635    83.855016 
   73700    1746.7988   -107.04718    1.5805403   -105.46664    2931.2671    4.3637978    4.3637978    4.3637978    2931.2671    -16249.58    29086.087   -4042.7054   -40210.202   -17009.967   -15585.433    83.098631 
   73800    1855.8499     -107.141    1.6792119   -105.46179    34177.792    4.3497134    4.3497134    4.3497134    34177.792    57514.904    42260.833     2757.639   -397.57445    25004.837    6598.8157    82.296608 
   73900    1616.4222   -106.93746    1.4625727   -105.47489   -7047.1251    4.3659982    4.3659982    4.3659982   -7047.1251   -14274.855    23720.177   -30586.697    -3155.876   -40662.806   -37904.765    83.224394 
   74000    1982.2221   -107.26235    1.7935562   -105.46879   -14583.411    4.3669916    4.3669916    4.3669916   -14583.411   -21444.173   -12149.559   -10156.501   -41605.322    41204.137    16198.775    83.281219 
   74100    1675.1161   -106.98346    1.5156802   -105.46778    5148.3264    4.3679077    4.3679077    4.3679077    5148.3264    16011.987    64278.794   -64845.801    24581.964   -43613.619    -43048.16    83.333641 
   74200    1847.5204   -107.14158    1.6716753   -105.46991   -26406.563    4.3633532    4.3633532    4.3633532   -26406.563   -52911.705   -29174.112    2866.1286   -59437.463    34845.399    11408.306    83.073233 
   74300    1530.1351   -106.86395    1.3844984   -105.47945    23974.239    4.3584635    4.3584635    4.3584635    23974.239    3772.1162    112252.32   -44101.716   -11100.877   -22705.811    -20144.49     82.79426 
   74400    2097.2955   -107.37848     1.897677   -105.48081   -7906.4079     4.361386     4.361386     4.361386   -7906.4079   -24730.741    12361.989   -11350.472   -14149.028     890.8697   -24087.438    82.960926 
   74500    1228.0413   -106.60872    1.1111576   -105.49757    9316.8653    4.3648313    4.3648313    4.3648313    9316.8653   -37530.854    80389.811   -14908.361   -40449.162    8155.8569    16121.418    83.157683 
   74600    2416.8848   -107.66156    2.1868482   -105.47471    -2198.555    4.3738985    4.3738985    4.3738985    -2198.555    4492.9172    42099.496   -53188.078    27486.673   -38032.946   -14549.818    83.676998 
   74700    1456.7049   -106.80059    1.3180572   -105.48253   -10419.275    4.3579156    4.3579156    4.3579156   -10419.275   -58192.484    31722.479   -4787.8208   -56182.551    45474.194    5493.9485    82.763041 
   74800    2073.3613    -107.3514    1.8760209   -105.47538    33681.791     4.357378     4.357378     4.357378    33681.791    21236.767    103793.48   -23984.872    10725.285   -43094.434    1943.8627    82.732414 
   74900    1570.4756   -106.89375    1.4209993   -105.47275   -22088.342    4.3767877    4.3767877    4.3767877   -22088.342   -64251.807   -15466.393    13453.173   -37841.121    43992.081    5638.5549    83.842928 
   75000    1741.6657   -107.04209    1.5758957    -105.4662    15303.438    4.3704749    4.3704749    4.3704749    15303.438    -9679.705    50690.275    4899.7451   -10888.891   -13134.724   -15935.095    83.480664 
   75100    2345.6134   -107.57772    2.1223603   -105.45536   -15064.434    4.3690789    4.3690789    4.3690789   -15064.434   -20469.786    11134.079   -35857.595   -6648.3606    21233.789    35729.418    83.400695 
   75200     1020.429   -106.40701   0.92330562   -105.48371     -38819.1    4.3618142    4.3618142    4.3618142     -38819.1   -93299.435   -21538.869    -1618.996   -40559.815    30978.254   -4509.7832     82.98536 
   75300    2605.4585   -107.81497    2.3574736   -105.45749    19942.458    4.3666287    4.3666287    4.3666287    19942.458    9723.3518    34623.411     15480.61    14771.291   -5592.1345   -6841.7966    83.260456 
   75400    641.74543   -106.05603   0.58066476   -105.47536   -58115.061    4.3881952    4.3881952    4.3881952   -58115.061   -136497.72   -35890.348   -1957.1121   -58408.784    53072.614    12455.345    84.500215 
   75500    2558.3777   -107.73414    2.3148739   -105.41926    20889.329    4.3642172    4.3642172    4.3642172    20889.329    21557.661    21189.818    19920.508    16842.271   -10027.144   -19932.075    83.122588 
   75600    1267.7873   -106.59929    1.1471206   -105.45217   -47841.366    4.3635974    4.3635974    4.3635974   -47841.366   -85878.388   -35702.363   -21943.349   -53587.797     34583.13     -2992.43    83.087183 
   75700    2122.9894    -107.3692    1.9209254   -105.44828    2803.7613    4.3627152    4.3627152    4.3627152    2803.7613   -7834.5493   -2628.7709    18874.604   -30128.737    15624.744    5074.8415    83.036795 
   75800    1572.7353   -106.88217    1.4230439   -105.45913    55226.539    4.3524632    4.3524632    4.3524632    55226.539    56435.713    29607.014     79636.89   -12111.331    -5527.971    -19247.93    82.452784 
   75900    1951.3833   -107.22752    1.7656526   -105.46187   -24009.857     4.385046     4.385046     4.385046   -24009.857   -44899.457   -26655.294   -474.82078   -31983.672    23281.822    13582.989    84.318421 
   76000    1777.3791   -107.06564    1.6082099   -105.45743   -20860.412    4.3731488    4.3731488    4.3731488   -20860.412    15658.606   -53086.905   -25152.936    47682.447   -3188.9907   -21134.772    83.633978 
   76100    1803.5904   -107.07324    1.6319265   -105.44131    58120.865    4.3477119    4.3477119    4.3477119    58120.865    32982.278    31456.013     109924.3   -38528.914     10980.95   -3790.9471    82.183052 
   76200    1634.9434   -106.94323    1.4793312    -105.4639   -24245.243    4.3615119    4.3615119    4.3615119   -24245.243   -27309.447   -69125.242    23698.962    65080.829   -2326.1293   -2850.6466    82.968106 
   76300    1668.0146   -106.98031    1.5092546   -105.47105    8981.2346    4.3638292    4.3638292    4.3638292    8981.2346    40375.148   -13531.899    100.45473   -17074.406   -2294.6891   -33259.413    83.100421 
   76400    1920.0201   -107.20486    1.7372745   -105.46758   -9163.5922    4.3758989    4.3758989    4.3758989   -9163.5922   -50468.634   -55906.683     78884.54    64012.285   -6303.0689     1621.762    83.791861 
   76500    1641.6046   -106.94598    1.4853583   -105.46062   -26266.064    4.3732393    4.3732393    4.3732393   -26266.064    13099.152   -60909.118   -30988.227    7999.5479   -7796.3007   -44898.452    83.639174 
   76600    1654.1025   -106.94858    1.4966667   -105.45191    2767.8726    4.3584226    4.3584226    4.3584226    2767.8726   -16935.382   -52442.139    77681.139    47418.027   -2885.2316    11628.125     82.79193 
   76700    1939.3029   -107.19987     1.754722   -105.44515    18563.059    4.3638173    4.3638173    4.3638173    18563.059    2625.5126   -33464.024    86527.687    18107.583    -2107.442   -8470.5014    83.099742 
   76800    1271.0167    -106.6024    1.1500426   -105.45236    2132.4197    4.3820452    4.3820452    4.3820452    2132.4197    24722.087   -60486.319    42161.491    13040.922     14433.54    925.33722    84.145432 
   76900    1726.2718   -106.99708     1.561967   -105.43512    1009.3566    4.3946739    4.3946739    4.3946739    1009.3566   -12609.049   -21541.247    37178.365     18615.87    -7635.085    20588.085    84.875033 
   77000    1703.4856   -106.96607    1.5413495   -105.42472    4538.2047    4.3796007    4.3796007    4.3796007    4538.2047    44894.108   -33716.065    2436.5705   -14402.333    10838.286   -20969.095    84.004692 
   77100    1422.7858   -106.72071    1.2873665   -105.43335    30815.534    4.3532619    4.3532619    4.3532619    30815.534    3763.4319    27942.374    60740.795     47978.88    3735.1149    48766.198    82.498183 
   77200       1857.5   -107.12635     1.680705   -105.44565     51578.33    4.3580187    4.3580187    4.3580187     51578.33    39747.806    50745.723    64241.462   -49084.961    6766.5847   -5464.5006    82.768914 
   77300    1506.5009   -106.82394    1.3631137   -105.46083   -8957.0684    4.3863837    4.3863837    4.3863837   -8957.0684   -13271.157   -33995.728    20395.679    62948.108    8219.2401    20911.024     84.39561 
   77400    2056.8816   -107.30361    1.8611097    -105.4425    -17844.04    4.3865697    4.3865697    4.3865697    -17844.04   -36607.706   -48129.459    31205.045   -45809.106   -1993.8384     8471.499    84.406347 
   77500    2507.8402   -107.70042    2.2691466   -105.43127   -349.99597    4.3707824    4.3707824    4.3707824   -349.99597    31292.683   -27293.994   -5048.6775    25417.843   -775.60999     5669.106    83.498284 
   77600     1168.148   -106.53068    1.0569648   -105.47371    -19267.13    4.3559878    4.3559878    4.3559878    -19267.13   -46528.967   -50999.105    39726.683    -1866.763    5542.6046    17423.404    82.653254 
   77700    2547.1036   -107.78246    2.3046729   -105.47778    21522.899    4.3607534    4.3607534    4.3607534    21522.899    35111.964   -5428.3253    34885.057   -30276.832   -8138.3959   -9220.9926    82.924829 
   77800     1619.845   -106.95089    1.4656698   -105.48522   -26817.678    4.3884742    4.3884742    4.3884742   -26817.678   -72946.392    19496.176   -27002.818     17407.82   -35.174557    1589.1675    84.516332 
   77900    1823.3023    -107.1075    1.6497622   -105.45774   -10296.155    4.3849571    4.3849571    4.3849571   -10296.155   -31136.445   -41231.168    41479.149   -25129.897    6727.4278   -7729.8114     84.31329 
   78000    1694.7963   -106.98096    1.5334874   -105.44747    12849.843    4.3614275    4.3614275    4.3614275    12849.843   -4045.7008    33668.953     8926.278    8153.0302    5691.1315   -31536.631    82.963289 
   78100    1809.2782   -107.09292     1.637073   -105.45584   -1028.3904    4.3577194    4.3577194    4.3577194   -1028.3904   -50043.058    8895.0486    38062.838   -19202.935    15524.667    6175.1015    82.751864 
   78200     2500.029   -107.72221    2.2620788   -105.46013    18086.859    4.3595819    4.3595819    4.3595819    18086.859    39768.546    -1587.738    16079.769   -12190.988   -22.710683   -17152.587    82.858016 
   78300    788.47905   -106.21652   0.71343241   -105.50308   -13737.621    4.3776957    4.3776957    4.3776957   -13737.621   -18108.367    14498.543    -37603.04    2911.9211    2980.9625    5158.7642    83.895123 
   78400    2549.9993   -107.76531     2.307293   -105.45802    2527.3847    4.3907326    4.3907326    4.3907326    2527.3847    27785.832    -39390.66    19186.982   -6210.3911   -10827.546    33402.434    84.646885 
   78500    1425.2501   -106.75922    1.2895962   -105.46963    557.23366    4.3722802    4.3722802    4.3722802    557.23366    -21331.09    22016.756     986.0352   -4298.7082   -9496.7786   -10143.606    83.584154 
   78600    1493.7505    -106.8222    1.3515768   -105.47063    21464.754    4.3478517    4.3478517    4.3478517    21464.754   -18293.321    5962.0833    76725.501    18876.655    -7136.175    20394.604    82.190982 
   78700    2005.2733   -107.30064    1.8144134   -105.48623    24987.056    4.3454517    4.3454517    4.3454517    24987.056    33607.471   -10140.385    51494.083   -30122.205   -5834.7756    1207.4972    82.054948 
   78800    1732.0255   -107.09037    1.5671731    -105.5232   -10430.815    4.3613659    4.3613659    4.3613659   -10430.815   -34238.261    17890.426   -14944.612    24867.244   -8699.6387   -8182.7817    82.959775 
   78900    2069.3976   -107.37441    1.8724345   -105.50198   -8284.1945    4.3806634    4.3806634    4.3806634   -8284.1945   -24648.656   -12322.679    12118.752   -32799.477    11648.198    5937.8478     84.06586 
   79000    1686.1328   -107.00133    1.5256484   -105.47569   -6973.1119    4.3828533    4.3828533    4.3828533   -6973.1119    19361.142   -20242.647   -20037.831   -21871.686   -2960.9012   -24528.586    84.191997 
   79100    1723.2357   -107.02685    1.5592199   -105.46763   -1970.8647    4.3653457    4.3653457    4.3653457   -1970.8647   -37980.594   -9149.8029    41217.803    7408.2791    20213.859    9504.8192    83.187089 
   79200    1451.3434    -106.7941     1.313206   -105.48089    4168.4053    4.3461828    4.3461828    4.3461828    4168.4053   -26199.412    7813.4592    30891.169   -79498.516    6613.5021   -32801.103    82.096372 
   79300    2719.2147   -107.94624    2.4604026   -105.48584     36462.48    4.3543323    4.3543323    4.3543323     36462.48    25022.402    61332.691    23032.346    27965.471    5433.0287   -16648.375    82.559056 
   79400    1097.9589   -106.51691   0.99345626   -105.52345   -40259.199    4.3735308    4.3735308    4.3735308   -40259.199   -106734.59   -67290.179    53247.171      -101497    7413.8755    16010.745    83.655899 
   79500    1832.5336   -107.14941    1.6581149    -105.4913   -1908.8528    4.3698909    4.3698909    4.3698909   -1908.8528   -13924.224    24197.198   -15999.532    36088.187   -10805.462   -41726.946    83.447203 
   79600    2338.8069   -107.59531    2.1162016   -105.47911   -22731.977    4.3729293    4.3729293    4.3729293   -22731.977   -61382.881   -32548.164    25735.114   -46549.368    2731.4071    22206.619    83.621388 
   79700    1454.0355   -106.80451    1.3156419   -105.48886    3382.1861    4.3565397    4.3565397    4.3565397    3382.1861   -19750.865     34000.25   -4102.8269    -15331.96    9946.4882   -26490.584    82.684676 
   79800    1574.2478   -106.91491    1.4244125    -105.4905    50596.133    4.3440865    4.3440865    4.3440865    50596.133    34701.692    30076.667    87010.038    33138.348   -10260.478   -11629.203    81.977638 
   79900    2571.8195   -107.80525    2.3270363   -105.47821   -1040.5752    4.3752749    4.3752749    4.3752749   -1040.5752   -20894.894    37362.617   -19589.448   -19150.932    20816.609    4632.5307     83.75602 
   80000    789.40401   -106.20513   0.71426934   -105.49086   -32653.326    4.3778192    4.3778192    4.3778192   -32653.326    -56996.18   -971.98344   -39991.814    52026.822    16506.016   -36081.885    83.902222 
   80100    2532.9101    -107.7497    2.2918303   -105.45787    20993.154     4.369484     4.369484     4.369484    20993.154   -19386.618    18043.762    64322.318   -10236.604   -11657.007    8661.9496    83.423894 
   80200    1560.0681   -106.89759    1.4115824   -105.48601   -26287.035    4.3621083    4.3621083    4.3621083   -26287.035   -38615.064    5503.5844   -45749.625    145.52739    33894.853   -30324.368    83.002146 
   80300    1462.4058   -106.81172    1.3232155   -105.48851    17504.037    4.3403555    4.3403555    4.3403555    17504.037   -8009.9121     27628.95    32893.074     37833.61   -3578.9837   -11522.112    81.766595 
   80400    2022.6166   -107.33284     1.830106   -105.50273   -11672.286    4.3638011    4.3638011    4.3638011   -11672.286   -54393.783    1017.1326    18359.792    -61178.71    7057.8806    4223.0027    83.098818 
   80500    1302.2967   -106.66532    1.1783454   -105.48698   -40182.229    4.3843223    4.3843223    4.3843223   -40182.229   -36542.393   -26863.285    -57141.01    54232.676    24563.305   -38168.016    84.276678 
   80600    1874.3922   -107.17051    1.6959895   -105.47452   -22150.865    4.3653394    4.3653394    4.3653394   -22150.865   -54923.966   -41768.175    30239.545     -38734.6   -8580.0362    8098.7117    83.186728 
   80700    2029.6055   -107.30224    1.8364297   -105.46581   -9198.1954    4.3544837    4.3544837    4.3544837   -9198.1954    3107.0987    73.174657   -30774.859    5488.6272    6392.4382   -34673.538    82.567663 
   80800    1396.6003   -106.74192    1.2636733   -105.47825   -13243.602    4.3559927    4.3559927    4.3559927   -13243.602   -16961.442   -38136.629    15367.264    35420.746    23225.874   -11699.358    82.653537 
   80900    2093.1411    -107.3797    1.8939181   -105.48578   -21873.591    4.3615607    4.3615607    4.3615607   -21873.591   -52626.473   -12585.485   -408.81387   -45992.691   -29882.285   -3589.8748    82.970894 
   81000     1421.018    -106.7893    1.2857669   -105.50354   -13318.633    4.3698793    4.3698793    4.3698793   -13318.633    -14265.01   -373.96052   -25316.928    30306.833   -922.92339   -43571.999     83.44654 
   81100    2058.3809   -107.34867    1.8624663    -105.4862    852.90616    4.3629713    4.3629713    4.3629713    852.90616   -34024.062   -8512.9568    45095.737    11673.447    6855.0672    8825.1483    83.051424 
   81200    1268.3704   -106.65099    1.1476482   -105.50334    1552.6707     4.355592     4.355592     4.355592    1552.6707    24932.968    15303.774    -35578.73   -34717.866   -31019.045   -54457.122    82.630727 
   81300    2022.3634    -107.3254    1.8298769   -105.49552     5350.242    4.3632808    4.3632808    4.3632808     5350.242    4234.9139   -19885.089    31700.901    42617.156    18231.378    3941.9712    83.069096 
   81400    1669.7194   -106.99882    1.5107972   -105.48802   -16278.715    4.3775699    4.3775699    4.3775699   -16278.715   -280.88019   -14444.711   -34110.553   -11514.314   -28001.252   -33145.308    83.887891 
   81500    1776.0999   -107.07956    1.6070525    -105.4725    -13372.23    4.3730766    4.3730766    4.3730766    -13372.23   -8506.0115   -14351.662   -17259.017     5910.301   -11300.652   -50015.176    83.629837 
   81600    2386.3481   -107.61584    2.1592179   -105.45662    -12747.06    4.3635383    4.3635383    4.3635383    -12747.06   -4795.1033   -27772.855    -5673.221    28429.191      6660.05    14680.301    83.083806 
   81700    626.06962   -106.06619   0.56648095   -105.49971   -17485.509    4.3534288    4.3534288    4.3534288   -17485.509    61847.448   -31786.541   -82517.433   -18426.152   -32091.161   -77495.657    82.507672 
   81800    2794.8352    -108.0128    2.5288257   -105.48397    35094.146    4.3496661    4.3496661    4.3496661    35094.146     11851.58    85116.882    8313.9759   -5884.8204    7737.5772    15427.028    82.293923 
   81900    1766.1485   -107.11165    1.5980483    -105.5136   -8354.8252    4.3671773    4.3671773    4.3671773   -8354.8252    28879.844   -8819.7737   -45124.546    12672.633   -10624.585   -68385.197    83.291844 
   82000    1195.0182   -106.59489    1.0812776   -105.51362    1190.3517    4.3632958    4.3632958    4.3632958    1190.3517   -28525.801    45967.079   -13870.223   -25698.582   -16381.538   -1675.8719    83.069951 
   82100    2314.2651   -107.58477    2.0939957   -105.49078    20403.505    4.3586438    4.3586438    4.3586438    20403.505    24598.713    15318.729    21293.074    10474.983    18266.367    2521.7272    82.804536 
   82200    1783.8416   -107.11106    1.6140574     -105.497    5203.8116     4.358877     4.358877     4.358877    5203.8116   -38848.018     48712.02    5747.4334    -9607.396   -37417.684   -34925.875    82.817828 
   82300    1839.4508   -107.16405    1.6643737   -105.49968   -9808.9875    4.3603417    4.3603417    4.3603417   -9808.9875   -18846.074   -32760.625    22179.737   -20031.227    3947.6353    30888.534    82.901347 
   82400    2094.9237   -107.38474     1.895531   -105.48921    15865.005    4.3604646    4.3604646    4.3604646    15865.005   -6107.4135    24029.219     29673.21    21429.358   -18513.654    12254.967    82.908355 
   82500    1633.2685   -106.98463    1.4778156   -105.50681    3450.2284     4.358124     4.358124     4.358124    3450.2284   -41544.734    40533.734    11361.685   -41518.558   -36588.304   -8109.5814    82.774914 
   82600    1954.7273   -107.26667    1.7686783   -105.49799   -1970.8247    4.3622274    4.3622274    4.3622274   -1970.8247   -13128.479    3867.5194     3348.486    5099.0179    4868.1423    31994.375    83.008945 
   82700     1449.665    -106.8112    1.3116874   -105.49952    13833.858    4.3636745    4.3636745    4.3636745    13833.858   -34577.477    96533.227   -20454.177   -6964.1811     -44771.7    16446.465    83.091587 
   82800    2345.5617   -107.59907    2.1223135   -105.47676    1771.0197    4.3673026    4.3673026    4.3673026    1771.0197    2443.9807    1778.7923    1090.2861   -44455.498    13245.422   -103.45181    83.299011 
   82900    760.71022     -106.195   0.68830659   -105.50669   -21677.975    4.3626741    4.3626741    4.3626741   -21677.975   -12947.005   -28619.009    -23467.91    36493.391   -47866.495    45205.644    83.034451 
   83000    2550.1878   -107.79548    2.3074635   -105.48802    22020.964    4.3548339    4.3548339    4.3548339    22020.964    35580.933    34827.738   -4345.7801   -1820.1865   -7505.5843   -11146.324    82.587587 
   83100    1657.0568   -107.00597    1.4993398   -105.50663    -10566.88    4.3671823    4.3671823    4.3671823    -10566.88   -22487.671   -347.73103    -8865.238   -1563.2828   -14801.897    25417.356    83.292131 
   83200    997.59582   -106.40699   0.90264567   -105.50434   -25542.566    4.3727254    4.3727254    4.3727254   -25542.566    -76865.94   -10939.568    11177.809    49441.438   -39171.342    8742.6352    83.609691 
   83300    2994.8054   -108.18201    2.7097628   -105.47225    8828.2871    4.3628487    4.3628487    4.3628487    8828.2871   -708.63664    19620.686    7572.8121   -24631.618    11319.245   -16916.188     83.04442 
   83400    1161.2607   -106.56475    1.0507331   -105.51402   -15114.946    4.3514373    4.3514373    4.3514373   -15114.946   -55439.009    43700.536   -33606.365    46417.709   -51292.455     29882.33    82.394491 
   83500    1949.2733   -107.26599    1.7637434   -105.50225    15896.647    4.3483842    4.3483842    4.3483842    15896.647   -5510.7775    389.26522    52811.453   -15166.503    17402.418   -15107.387    82.221182 
   83600    1895.5799   -107.20957    1.7151605   -105.49441   -19594.711    4.3667007    4.3667007    4.3667007   -19594.711   -54796.589     6659.688   -10647.233    -17516.79   -40848.531    4977.3919    83.264575 
   83700     1465.651    -106.8132    1.3261518   -105.48705   -16929.522    4.3702144    4.3702144    4.3702144   -16929.522   -51368.932     7522.801   -6942.4363    48538.703   -24295.839     14657.32    83.465736 
   83800    2310.9852   -107.55877     2.091028   -105.46774   -7887.4883    4.3649957    4.3649957    4.3649957   -7887.4883   -12468.944   -10584.123   -609.39811   -49543.203    1759.9931   -8306.0952    83.167081 
   83900    1184.1908   -106.56823    1.0714807   -105.49675    -17813.16    4.3564556    4.3564556    4.3564556    -17813.16   -56339.965    3653.4301   -752.94528    54317.296   -43169.034    5009.8073    82.679886 
   84000      2034.83   -107.32793    1.8411569   -105.48678    13563.556    4.3468268    4.3468268    4.3468268    13563.556    -17834.25   -25568.709    84093.627     47993.39     7773.507    23601.318    82.132872 
   84100    2102.6887   -107.39541     1.902557   -105.49285   -954.17191    4.3653914    4.3653914    4.3653914   -954.17191   -22761.395    17317.934     2580.946   -10930.269   -16861.856   -17851.815    83.189703 
   84200    850.03534   -106.26392   0.76912983   -105.49479   -28604.596    4.3792336    4.3792336    4.3792336   -28604.596   -65846.809   -24810.919    4843.9399    79490.555   -5868.9927    9326.9372     83.98357 
   84300    2908.1653   -108.07101    2.6313691   -105.43964    4249.7418    4.3745394    4.3745394    4.3745394    4249.7418   -6226.8593   -6685.7039    25661.789   -24410.551   -7650.7458    8078.0137    83.713788 
   84400    927.26394   -106.31683    0.8390079   -105.47783    -42179.32    4.3704461    4.3704461    4.3704461    -42179.32   -93538.611   -51882.131    18882.782    93698.369   -31858.066   -229.43985    83.479014 
   84500     2379.153    -107.6201    2.1527077   -105.46739    16626.527    4.3380206    4.3380206    4.3380206    16626.527    31774.378    16601.249    1503.9529   -26498.847    7326.9709    8797.7547    81.634706 
   84600    1418.8047    -106.7797    1.2837643   -105.49593   -7705.5025    4.3375853    4.3375853    4.3375853   -7705.5025   -51423.438    -19970.12     48277.05    48049.932   -23759.595     2800.992    81.610133 
   84700    1890.4072   -107.20838    1.7104801    -105.4979   -13274.978    4.3642923    4.3642923    4.3642923   -13274.978   -33373.886   -16426.972     9975.924    24651.569   -14864.533   -18310.777    83.126884 
   84800    1436.2957   -106.78976    1.2995905   -105.49017   -15854.309    4.3805273    4.3805273    4.3805273   -15854.309   -19538.668    -58802.96      30778.7   -1341.0784     11959.85   -9823.5928    84.058022 
   84900    2415.3226   -107.63774    2.1854346   -105.45231   -2209.0433    4.3739139    4.3739139    4.3739139   -2209.0433   -43171.171   -21756.401    58300.442    31664.412   -7319.0363   -6301.6863    83.677882 
   85000    922.73693    -106.3089   0.83491177   -105.47399   -16465.507    4.3551276    4.3551276    4.3551276   -16465.507    30959.184   -48497.896   -31857.807   -19292.417     5757.195   -44468.604      82.6043 
   85100     1969.655   -107.25843    1.7821852   -105.47625    3359.4827    4.3437806    4.3437806    4.3437806    3359.4827   -4256.8088   -8391.7186    22726.975     17314.93    9588.8097    32264.829    81.960318 
   85200    1971.1305   -107.28036    1.7835203   -105.49684    9887.4183     4.348574     4.348574     4.348574    9887.4183   -3907.7984    13756.807    19813.247   -18460.849    -21684.57   -32206.022    82.231951 
   85300    1405.8515   -106.79056     1.272044   -105.51852   -20905.049    4.3674358    4.3674358    4.3674358   -20905.049    2013.9714   -65242.648    513.52971   -15982.437    20842.048    21972.414    83.306636 
   85400    1768.0745   -107.08412     1.599791   -105.48433   -12438.547    4.3774084    4.3774084    4.3774084   -12438.547   -68372.342    49758.422   -18701.722    -449.5172   -59523.199    3995.9737    83.878606 
   85500    2428.8649   -107.65955     2.197688   -105.46186   -11457.389     4.363773     4.363773     4.363773   -11457.389   -21111.535   -47984.605    34723.972   -25927.187    22740.093    124.26284    83.097212 
   85600    1006.7613   -106.39309    0.9109388   -105.48215    546.54764    4.3394778    4.3394778    4.3394778    546.54764   -22321.502    60593.553   -36632.408   -4834.2175   -79910.789     12075.21    81.716999 
   85700    2239.2828   -107.50734    2.0261502   -105.48119    4913.8105     4.343547     4.343547     4.343547    4913.8105   -28423.228    37403.734    5760.9261    2016.9118    40885.274    4096.3975    81.947097 
   85800    1797.5154   -107.11548    1.6264297   -105.48905   -25818.488    4.3679706    4.3679706    4.3679706   -25818.488   -54222.784   -13085.433   -10147.247   -20470.384   -52558.315   -1661.4158    83.337241 
   85900    1409.9128   -106.75226    1.2757188   -105.47654   -30978.957     4.375512     4.375512     4.375512   -30978.957   -47382.089    29712.439    -75267.22      344.864    5417.5655    15381.424    83.769637 
   86000    2144.2345   -107.40044    1.9401484    -105.4603   -6122.9238    4.3623787    4.3623787    4.3623787   -6122.9238   -23693.422    3615.0678    1709.5824   -4687.8789    36804.498   -15818.611    83.017587 
   86100     2085.169    -107.3469    1.8867047   -105.46019   -4050.6392    4.3557407    4.3557407    4.3557407   -4050.6392   -9791.4389     5523.136   -7883.6146   -6112.1853   -30511.081    4575.1706    82.639191 
   86200    1458.0745   -106.79093    1.3192964   -105.47163   -7657.9825    4.3550424    4.3550424    4.3550424   -7657.9825   -11429.079    5746.9354   -17291.804    1720.4376    65514.892    5258.3629     82.59945 
   86300    2122.3765   -107.40226    1.9203708   -105.48189   -5209.8716    4.3616783    4.3616783    4.3616783   -5209.8716    1857.4677   -36942.545    19455.462    -2432.788   -27319.607   -56964.033    82.977606 
   86400    2132.8553   -107.40661    1.9298523   -105.47675    1782.4511     4.363837     4.363837     4.363837    1782.4511   -27621.852     21486.98    11482.225   -6340.6216    43714.689    20823.532    83.100866 
   86500    1267.5344   -106.63663    1.1468918   -105.48973   -8055.8401    4.3624346    4.3624346    4.3624346   -8055.8401    42624.812   -43076.553    -23715.78    5383.9109    11562.872   -73286.372    83.020773 
   86600    2535.8437   -107.76563    2.2944847   -105.47114    7304.4262    4.3584227    4.3584227    4.3584227    7304.4262    2713.1627   -1358.5359    20558.652   -14158.205   -17039.194    30642.867     82.79194 
   86700    1213.9325   -106.58638    1.0983916   -105.48799   -8858.8381    4.3561543    4.3561543    4.3561543   -8858.8381    49090.023   -53743.762   -21922.775    9623.3615    32917.905    -92806.46    82.662733 
   86800    2491.0539   -107.73201    2.2539579   -105.47806   -4318.0126    4.3589266    4.3589266    4.3589266   -4318.0126    26146.389   -9818.2609   -29282.166   -6310.9669   -29620.368    9723.1704    82.820656 
   86900    1401.0503   -106.76031    1.2676998   -105.49261   -15997.359    4.3613911    4.3613911    4.3613911   -15997.359    19132.212   -23802.909    -43321.38    5484.2576   -22961.198   -58446.478    82.961214 
   87000    1662.1977   -106.99877    1.5039914   -105.49478   -8480.6576     4.363756     4.363756     4.363756   -8480.6576    19016.974     6289.045   -50747.992    5432.6999    29237.718   -39044.406     83.09624 
   87100    2278.9335    -107.5307    2.0620269   -105.46867    23870.157    4.3637146    4.3637146    4.3637146    23870.157     29483.95    20820.758    21305.764     13265.13   -25956.857   -21172.723    83.093874 
   87200    1006.7108    -106.3992   0.91089305   -105.48831    1231.1135    4.3609896    4.3609896    4.3609896    1231.1135     1436.277    42532.866   -40275.802    9231.4329     9782.725   -65286.402    82.938304 
   87300    2229.7436    -107.4859    2.0175189   -105.46838   -5943.2221    4.3586941    4.3586941    4.3586941   -5943.2221   -19508.882    18868.584   -17189.367    12398.528    27581.507    16706.798    82.807407 
   87400    1782.6576   -107.09433     1.612986   -105.48135    5308.0934    4.3524903    4.3524903    4.3524903    5308.0934    58572.474   -24725.967   -17922.227   -20203.729   -6136.1368   -76882.609    82.454324 
   87500    1887.9467   -107.19497    1.7082538   -105.48672   -2035.9818    4.3629115    4.3629115    4.3629115   -2035.9818   -42146.227    68476.216   -32437.934    6845.9518    36181.162    21243.738    83.048009 
   87600    1841.6912   -107.14378    1.6664009   -105.47738   -5147.1614    4.3661821    4.3661821    4.3661821   -5147.1614    30357.079   -35951.571   -9846.9923   -22531.083   -15838.405    -19434.67    83.234914 
   87700    1442.1437   -106.78763    1.3048819   -105.48275   -3446.2382    4.3605621    4.3605621    4.3605621   -3446.2382   -27536.119    4394.4758    12802.929   -21592.394    41699.688   -16133.165    82.913914 
   87800    2401.7294   -107.63977    2.1731352   -105.46664   -4231.1905    4.3599584    4.3599584    4.3599584   -4231.1905    28176.441   -22605.152    -18264.86    2928.7211   -15339.132    13060.744    82.879483 
   87900    1220.9998   -106.58472    1.1047863   -105.47993   -2055.1532    4.3580377    4.3580377    4.3580377   -2055.1532    13886.634   -8821.8729    -11230.22   -5036.6214    23804.431    -14763.26    82.769999 
   88000    2487.2108   -107.72162    2.2504806   -105.47114    4591.5069    4.3563949    4.3563949    4.3563949    4591.5069   -21022.258    21523.484    13273.294   -2269.5209    34466.676    44.656317    82.676429 
   88100    1502.3345   -106.84554    1.3593439   -105.48619   -16644.628    4.3652771    4.3652771    4.3652771   -16644.628    8008.7463   -66974.942    9032.3112    13520.958   -6498.0463   -10357.324    83.183165 
   88200    1716.5487    -107.0332    1.5531693   -105.48003   -11517.514     4.365358     4.365358     4.365358   -11517.514   -20060.569     22185.23   -36677.202   -8739.6255    54058.865    10859.399     83.18779 
   88300    1809.8787    -107.1153    1.6376162   -105.47768    10681.641    4.3532634    4.3532634    4.3532634    10681.641   -9148.5145   -4755.4002    45948.839    12831.286   -64571.273    -701.9414     82.49827 
   88400    1991.5398    -107.2841    1.8019871   -105.48211   -11060.876    4.3558907    4.3558907    4.3558907   -11060.876   -11140.143   -21174.459   -868.02435    12758.746    33701.639   -15671.614    82.647729 
   88500    1586.5277   -106.92489    1.4355236   -105.48937   -2141.2719    4.3576194    4.3576194    4.3576194   -2141.2719   -38071.754    58152.149   -26504.211   -17827.549   -55731.772    3344.7424    82.746165 
   88600    1794.9993   -107.11502     1.624153   -105.49087     5182.344    4.3617668    4.3617668    4.3617668     5182.344   -45516.847    2178.7519    58885.128    18191.226   -11204.047   -9598.4011    82.982654 
   88700    2312.1101   -107.55239    2.0920458   -105.46035   -8987.8996    4.3770484    4.3770484    4.3770484   -8987.8996   -19597.475    22963.368   -30329.592   -8455.9395   -41516.732    3371.3811    83.857914 
   88800    1524.2227   -106.83901    1.3791487   -105.45987   -10675.968    4.3743988    4.3743988    4.3743988   -10675.968    -42592.31   -1518.8494    12083.254    9469.4304   -33094.101    7631.6572    83.705719 
   88900    1715.8957   -107.01781    1.5525785   -105.46523    3285.3712    4.3604209    4.3604209    4.3604209    3285.3712   -65345.238    33662.206    41539.146    10469.911    28803.265   -8681.0571    82.905863 
   89000    2755.1613   -107.95499    2.4929278   -105.46207    33197.137    4.3494076    4.3494076    4.3494076    33197.137    16833.442    51405.038     31352.93    1734.7521   -18769.242    9697.0158     82.27925 
   89100     1031.126   -106.44994   0.93298451   -105.51696   -9623.2993    4.3445571    4.3445571    4.3445571   -9623.2993   -55947.224   -33759.184     60836.51    35497.992    22847.666     5533.855     82.00428 
   89200    1931.5761    -107.2668    1.7477307   -105.51907    17648.439    4.3597149    4.3597149    4.3597149    17648.439    9371.9599    60105.021   -16531.663   -23715.059    30693.545    1102.6299    82.865596 
   89300    1694.0211   -107.02762    1.5327859   -105.49483   -30505.523    4.3792118    4.3792118    4.3792118   -30505.523   -11054.426   -57800.539   -22661.603    43700.935   -19290.723    11099.614    83.982319 
   89400     1877.917   -107.17196    1.6991788   -105.47278   -5711.7663    4.3616523    4.3616523    4.3616523   -5711.7663    -30245.67   -39519.514    52629.885   -3839.7056    31821.163   -7923.8131    82.976119 
   89500    1558.7772   -106.88682    1.4104144    -105.4764   -5058.6073    4.3446187    4.3446187    4.3446187   -5058.6073    1088.1932    12040.949   -28304.965    4460.0928   -35775.861    20552.528    82.007768 
   89600    1157.7305   -106.55871    1.0475389   -105.51117   -17859.737    4.3451831    4.3451831    4.3451831   -17859.737    7196.1205   -64828.421    4053.0886    34467.003   -13215.569   -18439.947    82.039734 
   89700    2919.4975   -108.14359    2.6416227   -105.50196    13014.504    4.3572778    4.3572778    4.3572778    13014.504    3167.7063    4248.9675    31626.837   -6503.5084    15830.067    5073.5012    82.726708 
   89800    1278.3394   -106.67636    1.1566684   -105.51969   -36942.834    4.3657468    4.3657468    4.3657468   -36942.834   -9013.2509   -57028.222   -44787.031    31959.738    -32526.66    5644.2923    83.210022 
   89900    1896.7496   -107.20581    1.7162189   -105.48959    7547.8197    4.3562887    4.3562887    4.3562887    7547.8197   -18603.225    18974.662    22272.023     13373.04    40461.318   -14465.651    82.670387 
   90000    2080.9493   -107.36062    1.8828866   -105.47774   -9749.9516    4.3588432    4.3588432    4.3588432   -9749.9516   -23166.411   -12154.651    6071.2066   -7092.7266    24598.503     19936.12      82.8159 
   90100    1639.7811   -106.96599    1.4837084   -105.48228    9480.4949    4.3477342    4.3477342    4.3477342    9480.4949     592.9882   -1407.4788    29255.975    37524.333    16414.006   -24014.853    82.184319 
   90200    1669.2828   -107.00118    1.5104021   -105.49078    14581.337    4.3566758    4.3566758    4.3566758    14581.337   -10462.821    35202.273    19004.559   -17699.648    58549.105    4445.5511    82.692423 
   90300     2318.173   -107.57149    2.0975317   -105.47396   -1161.8442    4.3654737    4.3654737    4.3654737   -1161.8442   -12637.174   -28995.961    38147.603    23810.205   -21427.869    2650.7798    83.194407 
   90400    1215.3371   -106.59367    1.0996626   -105.49401    13335.741    4.3454253    4.3454253    4.3454253    13335.741   -1335.7343    36941.068    4401.8888    11997.611     79618.43    -25088.98    82.053455 
   90500    2440.2902   -107.68843    2.2080259    -105.4804    21593.814    4.3447706    4.3447706    4.3447706    21593.814    22653.409    4395.3876    37732.645   -15295.745   -42542.367    14678.638    82.016369 
   90600    1304.6103   -106.68228    1.1804388   -105.50184   -9896.2275    4.3544562    4.3544562    4.3544562   -9896.2275   -19003.577    5488.5269   -16173.632    31181.679    57931.483    6980.2421    82.566101 
   90700    1968.8774   -107.27689    1.7814817   -105.49541     26713.75    4.3626819    4.3626819    4.3626819     26713.75    24452.176    36387.255    19301.818   -20323.452    9067.8846   -44463.479    83.034894 
   90800    2090.9594   -107.38514     1.891944    -105.4932    10799.171    4.3616639    4.3616639    4.3616639    10799.171     16129.47    17573.698   -1305.6557    17880.396    5959.2893    27254.641    82.976783 
   90900    1025.3938   -106.43142   0.92779786   -105.50363   -7314.6876    4.3495895    4.3495895    4.3495895   -7314.6876    14195.448    13653.894   -49793.405     17591.51    43945.885     -43998.1    82.289573 
   91000    2636.8371   -107.86735    2.3858656   -105.48149    26566.688    4.3520044    4.3520044    4.3520044    26566.688    43747.319    21482.221    14470.523   -11827.655    -23180.51   -21101.698    82.426714 
   91100    1354.6795   -106.72496    1.2257424   -105.49921    1013.6226    4.3616706    4.3616706    4.3616706    1013.6226   -1171.2427    20565.621   -16353.511    32161.291    37641.713    1150.1033    82.977168 
   91200    1886.8584   -107.18491    1.7072692   -105.47764   -2626.7941    4.3704438    4.3704438    4.3704438   -2626.7941    34368.416    4087.3571   -46336.155   -4044.2313   -6658.3613   -38044.928    83.478883 
   91300    2192.0711   -107.45159     1.983432   -105.46815   -26697.031    4.3632857    4.3632857    4.3632857   -26697.031    -49425.38   -3666.7325   -26998.979     6809.692   -24512.869    16436.288    83.069377 
   91400    1603.6398   -106.91845     1.451007   -105.46744    28111.938    4.3427412    4.3427412    4.3427412    28111.938    79344.747     7181.062   -2189.9942    24441.185    28779.404   -47838.817    81.901499 
   91500    1716.3654   -107.04089    1.5530034   -105.48789      2317.03    4.3441995    4.3441995    4.3441995      2317.03   -7272.1292    27715.969   -13492.749    -29902.16   -67032.745    7893.9817    81.984031 
   91600    1955.9643   -107.26238    1.7697976   -105.49259    9179.6266    4.3531675    4.3531675    4.3531675    9179.6266    39624.766   -32048.169    19962.284    22118.334    4228.5072   -16099.445    82.492818 
   91700    1731.2367   -107.05858    1.5664594   -105.49212   -2225.3862    4.3657223    4.3657223    4.3657223   -2225.3862    16349.317   -1378.2172   -21647.259    979.29039   -38735.633   -28324.172    83.208621 
   91800    1934.8423   -107.22952     1.750686   -105.47883   -15720.278    4.3689493    4.3689493    4.3689493   -15720.278   -67078.606   -3851.1462    23768.918    5648.4074   -27902.628    19517.888    83.393271 
   91900    1488.2792   -106.82054    1.3466263   -105.47391   -3411.4369    4.3499748    4.3499748    4.3499748   -3411.4369     41836.63   -68280.836    16209.895    36750.785    3165.3302   -54698.084    82.311447 
   92000    1661.8082   -106.97995     1.503639   -105.47631   -3370.9967     4.345391     4.345391     4.345391   -3370.9967   -13922.822     31001.11   -27191.278   -6347.8724   -56901.472     2976.574    82.051511 
   92100    2158.2356   -107.42784     1.952817   -105.47502   -1121.2526    4.3536205    4.3536205    4.3536205   -1121.2526    732.28539    -41402.97    37306.926    40177.022    31276.127   -9100.5602    82.518575 
   92200    1414.6031   -106.77347    1.2799626   -105.49351   -18227.564     4.357524     4.357524     4.357524   -18227.564    6295.6434   -7604.8129   -53373.522    10847.506   -63929.263   -34494.753    82.740732 
   92300    2094.2353    -107.3735    1.8949081   -105.47859   -2834.6632    4.3607775    4.3607775    4.3607775   -2834.6632    10320.388     9099.543   -27923.921     4449.666    7089.7131    13236.685    82.926203 
   92400    1662.0252   -106.98962    1.5038353   -105.48579   -20323.413    4.3560986    4.3560986    4.3560986   -20323.413    -26044.24   -7685.4207   -27240.578    20686.587   -9560.1367   -8992.1202     82.65956 
   92500     1449.024   -106.81702    1.3111073   -105.50591    7653.6257    4.3421583    4.3421583    4.3421583    7653.6257     46661.13    34872.844   -58573.097   -2752.9883   -81218.527   -25801.389    81.868526 
   92600    2633.6911    -107.8731    2.3830191   -105.49008    43426.826    4.3370244    4.3370244    4.3370244    43426.826    34352.186    65307.166    30621.125   -7500.9493    36821.483    6449.4905    81.578479 
   92700    869.97479   -106.31129   0.78717147   -105.52412    -24480.47    4.3559238    4.3559238    4.3559238    -24480.47   -19132.496    44481.698   -98790.611    12825.173   -85508.798   -19674.217    82.649615 
   92800    2239.0623   -107.50824    2.0259506   -105.48229   -1515.3355    4.3676318    4.3676318    4.3676318   -1515.3355    19104.359    8970.1721   -32620.538   -5945.2638    19317.468   -24982.188    83.317852 
   92900    1947.6016   -107.23879    1.7622309   -105.47656   -11992.947    4.3607602    4.3607602    4.3607602   -11992.947   -45486.489    64165.443   -54657.794    194.75606   -77595.335    3625.3409    82.925219 
   93000    1232.4069   -106.60216    1.1151077   -105.48706   -11239.915    4.3437862    4.3437862    4.3437862   -11239.915    40327.394   -34679.113   -39368.027     19120.73   -273.19992   -54800.239    81.960639 
   93100    2405.6022   -107.65047    2.1766394   -105.47383    26065.921    4.3343812    4.3343812    4.3343812    26065.921    20776.689    63174.413   -5753.3388   -20125.857   -8703.8333    14122.286    81.429415 
   93200    1363.8949    -106.7351    1.2340808   -105.50102   -16423.692    4.3538832    4.3538832    4.3538832   -16423.692    18317.889   -26496.102   -41092.862    21331.715   -19621.284   -51282.144    82.533512 
   93300    1443.5665   -106.80055    1.3061693   -105.49438   -17934.023    4.3650306    4.3650306    4.3650306   -17934.023    35474.556   -50411.831   -38864.794    12466.167    21857.114   -27249.317    83.169073 
   93400    2539.1485   -107.76249    2.2974749   -105.46501    -5050.516    4.3660205    4.3660205    4.3660205    -5050.516    -1652.877    4740.9683   -18239.639   -17369.294   -670.76249   -9549.9383    83.225673 
   93500    1011.4191   -106.41054   0.91515326   -105.49538   -33098.569    4.3532812    4.3532812    4.3532812   -33098.569    11931.525   -85453.887   -25773.345    36657.021   -816.52286   -77858.826     82.49928 
   93600    2234.5079   -107.49581    2.0218297   -105.47398    55299.876    4.3268543    4.3268543    4.3268543    55299.876    43742.979    85954.329    36202.319   -7075.7782    41629.673    19769.161     81.00593 
   93700    1789.8565    -107.1168    1.6194998    -105.4973    -5716.956    4.3456598    4.3456598    4.3456598    -5716.956    64657.938   -53672.693   -28136.112    16668.919   -14134.676    -75607.54     82.06674 
   93800    1829.1738   -107.14484    1.6550749   -105.48977   -15317.849     4.361427     4.361427     4.361427   -15317.849   -33584.127   -4916.6125   -7452.8089    29793.837     35963.75    4807.8142    82.963264 
   93900    1744.9714    -107.0577    1.5788868   -105.47882    1068.5549    4.3633473    4.3633473    4.3633473    1068.5549    63108.102   -7824.4655   -52077.972     -12028.8   -5617.8022   -46737.508    83.072895 
   94000    1811.4322   -107.11983    1.6390219   -105.48081   -15985.162    4.3577046    4.3577046    4.3577046   -15985.162    23447.759   -37779.723   -33623.522    20566.543    5875.0076   -12280.772    82.751019 
   94100    1745.8532   -107.06231    1.5796846   -105.48263    7030.5687    4.3347224    4.3347224    4.3347224    7030.5687    801.85756    41516.079   -21226.231    19466.649    33589.835   -4174.0562    81.448644 
   94200     2462.117   -107.70334    2.2277752   -105.47556     23458.69    4.3500935    4.3500935    4.3500935     23458.69    68486.196    13576.551   -11686.676   -14594.845   -22045.312   -25910.292    82.318181 
   94300    702.77031    -106.1397   0.63588135   -105.50382   -49970.456    4.3640047    4.3640047    4.3640047   -49970.456   -71863.116   -35565.785   -42482.468    23827.064    56339.855    34431.732    83.110448 
   94400    2507.3802   -107.75108    2.2687303   -105.48235    28523.168    4.3508452    4.3508452    4.3508452    28523.168    6740.1356    78724.737    104.63118    9671.6283   -3288.2329   -15398.219    82.360866 
   94500    1653.5207    -106.9938    1.4961403   -105.49766     -19894.1    4.3587133    4.3587133    4.3587133     -19894.1   -40872.404    24452.865   -43262.762   -15609.792    14785.632    16940.404    82.808501 
   94600    1492.6072   -106.84063    1.3505423   -105.49009   -17493.717    4.3548153    4.3548153    4.3548153   -17493.717   -34229.186    163.33233   -18415.299    30645.039    36017.979    15355.178    82.586529 
   94700    2138.6824   -107.41001    1.9351248   -105.47488   -14079.921    4.3574245    4.3574245    4.3574245   -14079.921    -10271.85    18247.179   -50215.092   -6805.6486   -35624.919   -41287.354    82.735067 
   94800    1805.2172   -107.11705    1.6333985   -105.48365   -12891.635    4.3533984    4.3533984    4.3533984   -12891.635   -27081.061    24309.934    -35903.78    10956.066    57839.507    16118.609    82.505944 
   94900    1789.2177   -107.10089    1.6189218   -105.48196    6887.5979    4.3454518    4.3454518    4.3454518    6887.5979    10820.367    19964.312   -10121.885    16418.098   -44507.741   -34876.092    82.054955 
   95000    1766.0149   -107.08685    1.5979274   -105.48892   -26701.728    4.3607521    4.3607521    4.3607521   -26701.728   -45759.308    26655.409   -61001.285   -5093.9722    23953.975    -26685.91    82.924753 
   95100    2140.4667   -107.40775    1.9367392   -105.47101    21126.174    4.3535302    4.3535302    4.3535302    21126.174    13177.709    18792.955    31407.859    15082.226    4646.7514    3964.9838    82.513438 
   95200    1278.6782   -106.64587    1.1569749   -105.48889   -4357.1788    4.3578184    4.3578184    4.3578184   -4357.1788   -6434.8895    25684.691   -32321.338   -135.86046   -38739.759   -50301.185    82.757503 
   95300    2790.3172   -107.97312    2.5247377   -105.44838    9598.1506    4.3672795    4.3672795    4.3672795    9598.1506   -3278.1359    15307.521    16765.067   -13164.555    21015.692    24851.328     83.29769 
   95400    503.82297   -105.94687   0.45586961     -105.491    -11934.46     4.359893     4.359893     4.359893    -11934.46   -33757.048    6959.6013   -9005.9332    4428.6817   -54972.906   -23422.075    82.875756 
   95500    2325.0396   -107.58589    2.1037447   -105.48214     6643.188    4.3536317    4.3536317    4.3536317     6643.188   -11899.592     33970.22    -2141.064   -6559.0164    23116.855   -26247.288    82.519207 
   95600    1857.7441   -107.17478    1.6809259   -105.49386    32388.895    4.3386955    4.3386955    4.3386955    32388.895   -28601.498    90403.441    35364.741   -5098.4893   -11046.087    6810.0363    81.672813 
   95700    1247.9993   -106.63312     1.129216    -105.5039   -17779.683    4.3510829    4.3510829    4.3510829   -17779.683   -39918.722    33186.749   -46607.077    14178.734    -17465.22   -36953.817    82.374366 
   95800    1958.0757   -107.25935     1.771708   -105.48764   -5718.7106     4.360823     4.360823     4.360823   -5718.7106   -49115.177    60630.073   -28671.028    -2317.631    68275.055    366.66109      82.9288 
   95900    2250.1913   -107.51521    2.0360204   -105.47919    9195.2954    4.3566633    4.3566633    4.3566633    9195.2954   -16967.204    25225.059    19328.032     9565.283   -41439.928   -6224.3915    82.691716 
   96000    871.46034   -106.29007   0.78851563   -105.50156   -37229.912    4.3556254    4.3556254    4.3556254   -37229.912   -82449.562     33626.71   -62866.883    14726.856    85447.041   -25225.483    82.632626 
   96100    2550.6282   -107.78633     2.307862   -105.47847    13092.338    4.3414859    4.3414859    4.3414859    13092.338    22085.679    324.86989    16866.464   -19473.532   -17704.947    39608.956    81.830497 
   96200    1429.0401   -106.79452    1.2930256   -105.50149   -1373.9267    4.3473728    4.3473728    4.3473728   -1373.9267    -23284.96    47690.416   -28527.236    18409.773    62668.814   -23444.111    82.163823 
   96300     1957.449   -107.26143     1.771141   -105.49029   -24157.171    4.3601699    4.3601699    4.3601699   -24157.171   -20505.583   -37970.215   -13995.716   -13257.364    16614.183   -6102.3631    82.891548 
   96400    2265.1585   -107.53133     2.049563   -105.48176    11100.613    4.3535677    4.3535677    4.3535677    11100.613     41193.42    13811.526   -21703.108   -8791.8834    1524.2905    15885.817    82.515568 
   96500    935.66367   -106.35324   0.84660816   -105.50663   -30430.393    4.3561411    4.3561411    4.3561411   -30430.393   -35267.116   -10524.024    -45500.04    22420.745    52949.501   -54804.664    82.661981 
   96600    2978.5156   -108.16455    2.6950235   -105.46953     18193.85    4.3549198    4.3549198    4.3549198     18193.85    38079.306    6072.2235     10430.02   -932.67051   -17201.567    2317.0411    82.592473 
   96700    1191.6995   -106.57717    1.0782748    -105.4989   -27295.278    4.3577299    4.3577299    4.3577299   -27295.278   -5767.7907    5437.8585   -81555.902    5917.8668    55587.941   -40503.317    82.752462 
   96800    1975.6987   -107.27032    1.7876537   -105.48267   -10408.492    4.3613797    4.3613797    4.3613797   -10408.492    12923.459   -46497.908    2348.9726    22752.013   -25425.389   -21172.636    82.960566 
   96900    2141.0095   -107.41391    1.9372304   -105.47668   -11032.073    4.3506561    4.3506561    4.3506561   -11032.073    5741.4877    11707.615    -50545.32   -7027.5059    42208.936    32463.351    82.350123 
   97000    1376.7741   -106.73144    1.2457342   -105.48571   -378.31969    4.3422236    4.3422236    4.3422236   -378.31969    6904.5912   -7288.2568   -751.29347    17910.768    9272.0754   -69853.259    81.872217 
   97100    2078.8849    -107.3609    1.8810187   -105.47988     870.8447    4.3515131    4.3515131    4.3515131     870.8447    105.28144   -12571.903    15079.155    7848.8619     -1870.21    49025.586      82.3988 
   97200    1565.5598    -106.9071    1.4165514   -105.49055   -6573.6004    4.3562424    4.3562424    4.3562424   -6573.6004    23046.136   -18006.006   -24760.931   -697.55912    31687.701   -54357.311    82.667748 
   97300    1711.6763   -107.04035    1.5487607   -105.49159   -10223.453    4.3602123    4.3602123    4.3602123   -10223.453    12554.649   -49006.232    5781.2226    12815.321   -5681.7253   -30212.078    82.893964 
   97400    2410.4773   -107.65163    2.1810505   -105.47058   -502.61209    4.3590919    4.3590919    4.3590919   -502.61209    15146.343   -416.94604   -16237.233   -12995.182    11036.473   -17216.634    82.830076 
   97500    1150.9497   -106.53348    1.0414035   -105.49207   -18697.312    4.3477553    4.3477553    4.3477553   -18697.312    35454.584    -67738.52   -23808.001    20619.419    17652.087   -84165.415    82.185514 
   97600    2171.9101    -107.4417    1.9651899   -105.47651    40960.331    4.3394771    4.3394771    4.3394771    40960.331    41371.467    45180.159    36329.365   -1466.2999   -13705.608    23671.297     81.71696 
   97700    1815.7208   -107.13243    1.6429023   -105.48953    4805.5273    4.3536291    4.3536291    4.3536291    4805.5273    52028.053   -11332.739   -26278.733   -8492.5174       9329.2   -69397.996     82.51906 
   97800    1641.4344   -106.96459    1.4852043   -105.47938   -11143.055    4.3647994    4.3647994    4.3647994   -11143.055    -54082.96   -33693.845     54347.64    40230.611    7451.9336     15787.48    83.155861 
   97900    1773.1927   -107.08736     1.604422   -105.48294   -19438.605    4.3542708    4.3542708    4.3542708   -19438.605    27946.376   -46856.699   -39405.493   -31609.757   -14150.928   -39546.394    82.555554 
   98000    1842.7445   -107.14429    1.6673539   -105.47694    16076.414    4.3395316    4.3395316    4.3395316    16076.414    2337.5275   -977.02484    46868.741    55058.269    -12133.23   -14702.077    81.720037 
   98100    1868.2257   -107.17044    1.6904099   -105.48003    3024.6918     4.351531     4.351531     4.351531    3024.6918   -28551.107   -10798.402    48423.585    2423.7968    1584.7384    5653.9759    82.399819 
   98200    1385.6755   -106.74151    1.2537883   -105.48772    -6815.724    4.3585249    4.3585249    4.3585249    -6815.724    -21643.77    6256.1305   -5059.5323    3221.1599   -25196.533    -24592.81    82.797762 
   98300    1954.8665   -107.25722    1.7688043   -105.48842    5365.8974    4.3560778    4.3560778    4.3560778    5365.8974   -32286.321    9377.4058    39006.607    72446.424    1913.5967    3960.4161    82.658381 
   98400    2185.1626   -107.44891     1.977181   -105.47173     17868.83    4.3568047    4.3568047    4.3568047     17868.83   -3740.3078     53436.73    3910.0675   -40924.996   -13501.906    4746.8285    82.699763 
   98500    1115.1932   -106.49728    1.0090502   -105.48823    -16836.77    4.3516069    4.3516069    4.3516069    -16836.77   -35051.989    -16050.17    591.84963    85084.972   -20900.614   -20902.022    82.404129 
   98600    2587.5515    -107.8096     2.341271   -105.46833    18867.164     4.352147     4.352147     4.352147    18867.164    62026.295     13080.73   -18505.534    -20194.09    13967.715    30845.098    82.434815 
   98700    1542.7109   -106.88246    1.3958772   -105.48658   -19696.664    4.3555978    4.3555978    4.3555978   -19696.664   -67232.485   -1801.6948    9944.1891     65548.84   -33126.263   -10297.608    82.631057 
   98800     1537.526   -106.88726    1.3911858   -105.49607    -8619.891    4.3470339    4.3470339    4.3470339    -8619.891    20366.236   -18469.059    -27756.85    18182.218   -214.16431    9294.9369     82.14461 
   98900    2215.2992   -107.48812    2.0044493   -105.48367    14506.434     4.347727     4.347727     4.347727    14506.434     4677.778    33652.488    5189.0348    9251.4866   -8152.2518    25000.619    82.183912 
   99000    1494.5386   -106.85077    1.3522899   -105.49848   -22766.956    4.3537443    4.3537443    4.3537443   -22766.956   -40723.003   -28962.835    1384.9688    58905.041    -21489.37   -23712.121    82.525612 
   99100    1800.4606   -107.11239    1.6290946   -105.48329   -18220.015    4.3555413    4.3555413    4.3555413   -18220.015     44077.76   -46232.337   -52505.469    -19541.23    15205.082    19790.553    82.627844 
   99200    2031.1602   -107.31581    1.8378364   -105.47797   -9994.5067    4.3530354    4.3530354    4.3530354   -9994.5067   -51749.913   -2826.7158    24593.108    59991.907   -1081.1857    6905.9374    82.485305 
   99300    1763.3458   -107.07169    1.5955124   -105.47618   -102.56806    4.3514538    4.3514538    4.3514538   -102.56806    51795.116   -874.97805   -51227.842    80.024906    7597.9959   -14134.038    82.395429 
   99400    1289.7059   -106.65242     1.166953   -105.48547   -7793.9472    4.3509724    4.3509724    4.3509724   -7793.9472     1755.332    16186.173   -41323.347    9130.1368    17847.375    25628.464    82.368085 
   99500    2370.4541   -107.61606    2.1448367   -105.47123   -301.36272    4.3527651    4.3527651    4.3527651   -301.36272    -7434.736    33979.398    -27448.75    26691.519   -14156.626   -17418.143    82.469944 
   99600    1212.8254   -106.59364    1.0973899   -105.49625   -18232.461    4.3500597    4.3500597    4.3500597   -18232.461     64988.57   -57896.316   -61789.636   -13838.632    547.72119    4427.0481    82.316266 
   99700    2694.2669   -107.90784    2.4378293   -105.47001    15659.384      4.34539      4.34539      4.34539    15659.384    1470.1228    33884.021    11624.009    12658.668   -3866.6622    10467.572    82.051454 
   99800    1042.9104    -106.4334   0.94364723   -105.48976   -19372.056    4.3599421    4.3599421    4.3599421   -19372.056    44276.114   -31743.196   -70649.086    7048.1738   -27439.888    -22224.44    82.878552 
   99900    1933.6616   -107.21566    1.7496177   -105.46604   -12937.227    4.3658187    4.3658187    4.3658187   -12937.227    2814.9107    6305.2402   -47931.833   -14055.534    26257.409    17636.169    83.214131 
  100000    2126.2033    -107.3794    1.9238334   -105.45557    4316.8028    4.3596771    4.3596771    4.3596771    4316.8028   -26221.072    90086.765   -50915.284   -557.20988    6314.1528   -24762.327    82.863443 
Loop time of 21.9904 on 1 procs for 100000 steps with 8 atoms

Pair  time (%) = 6.77496 (30.8087)
Kspce time (%) = 5.28951 (24.0537)
Neigh time (%) = 0.246832 (1.12245)
Comm  time (%) = 0.998213 (4.53931)
Outpt time (%) = 0.0249486 (0.113452)
Other time (%) = 8.65597 (39.3624)

Nlocal:    8 ave 8 max 8 min
Histogram: 1 0 0 0 0 0 0 0 0 0
Nghost:    2020 ave 2020 max 2020 min
Histogram: 1 0 0 0 0 0 0 0 0 0
Neighs:    2097 ave 2097 max 2097 min
Histogram: 1 0 0 0 0 0 0 0 0 0

Total # of neighbors = 2097
Ave neighs/atom = 262.125
Neighbor list builds = 3094
Dangerous builds = 0
unfix 20
unfix 21
print "seeds:2174752"
seeds:2174752
