LAMMPS (16 Mar 2018)
include init.mod
# ---- init.mod file
variable up equal 1.0e-6
units metal
dimension 3
boundary p p p
atom_style charge
atom_modify map array
variable cfac equal 1.0e-4
variable cunits string GPa
# ---- define minimization parameters
variable etol equal 0.0
variable ftol equal 1.0e-10
variable maxiter equal 100
variable maxeval equal 1000
variable dmax equal 1.0e-2
# --- read data structure
read_data lammps.structure
  triclinic box = (0 0 0) to (4.2565 4.2565 4.2565) with tilt (0 0 0)
  1 by 1 by 1 MPI processor grid
  reading atoms ...
  8 atoms
include potential.mod
mass 1 24.305
mass 2 15.999

group Mg type 1
4 atoms in group Mg
group O type 2
4 atoms in group O

set group Mg charge 1.7021668946670072
  4 settings made for charge
set group O charge -1.7021668946670072
  4 settings made for charge

variable R_cut equal 10.0

pair_style buck/coul/long ${R_cut}
pair_style buck/coul/long 10
pair_coeff 1 1 0.0 0.5 0.0 ${R_cut}
pair_coeff 1 1 0.0 0.5 0.0 10
pair_coeff 1 2 916.5060146451578 0.3165879285797405 0.0 ${R_cut}
pair_coeff 1 2 916.5060146451578 0.3165879285797405 0.0 10
pair_coeff 2 2 19497.471952374297 0.16852015749762614 35.9670850530772 ${R_cut}
pair_coeff 2 2 19497.471952374297 0.16852015749762614 35.9670850530772 10

kspace_style pppm 1.0e-5

neighbor 1.0 bin
neigh_modify every 1 delay 0 check yes
thermo	1
thermo_style custom step temp pe press pxx pyy pzz pxy pxz pyz lx ly lz vol
thermo_modify norm no
# ---- Compute initial state
fix 3 all box/relax aniso 0.0
minimize ${etol} ${ftol} ${maxiter} ${maxeval}
minimize 0 ${ftol} ${maxiter} ${maxeval}
minimize 0 1e-10 ${maxiter} ${maxeval}
minimize 0 1e-10 100 ${maxeval}
minimize 0 1e-10 100 1000
PPPM initialization ...
  using 12-bit tables for long-range coulomb (../kspace.cpp:321)
  G vector (1/distance) = 0.353168
  grid = 8 8 8
  stencil order = 5
  estimated absolute RMS force accuracy = 4.11128e-05
  estimated relative force accuracy = 2.85512e-06
  using double precision FFTs
  3d grid and FFT values/proc = 3375 512
Neighbor list info ...
  update every 1 steps, delay 0 steps, check yes
  max neighbors/atom: 2000, page size: 100000
  master list distance cutoff = 11
  ghost atom cutoff = 11
  binsize = 5.5, bins = 1 1 1
  1 neighbor lists, perpetual/occasional/extra = 1 0 0
  (1) pair buck/coul/long, perpetual
      attributes: half, newton on
      pair build: half/bin/newton/tri
      stencil: half/bin/3d/newton/tri
      bin: standard
Per MPI rank memory allocation (min/avg/max) = 4.629 | 4.629 | 4.629 Mbytes
Step Temp PotEng Press Pxx Pyy Pzz Pxy Pxz Pyz Lx Ly Lz Volume 
       0            0   -111.65132    250501.18    250501.18    250501.18    250501.18 2.8363295e-11 1.1304629e-10 1.3540937e-10       4.2565       4.2565       4.2565    77.118383 
       1            0   -111.65494    249822.28    249822.28    249822.28    249822.28 -1.2355569e-10 -6.8108977e-11 1.4797029e-11    4.2569257    4.2569257    4.2569257    77.141521 
       2            0   -111.65855    249144.02    249144.02    249144.02    249144.02 -4.9249931e-13 1.667366e-10 -3.3307087e-11    4.2573513    4.2573513    4.2573513    77.164663 
       3            0   -111.66214    248467.96    248467.96    248467.96    248467.96 -7.2064257e-11 -1.6258211e-10 -9.3072782e-12     4.257777     4.257777     4.257777     77.18781 
       4            0   -111.66572    247792.47    247792.47    247792.47    247792.47 2.6304455e-10 1.1136059e-10 -8.6675347e-11    4.2582026    4.2582026    4.2582026    77.210962 
       5            0   -111.66928    247117.99    247117.99    247117.99    247117.99 9.822822e-11 6.1764743e-11 2.1816657e-10    4.2586283    4.2586283    4.2586283    77.234118 
       6            0   -111.67284    246443.76    246443.76    246443.76    246443.76 4.0981535e-10 1.4873976e-10 -1.161305e-10    4.2590539    4.2590539    4.2590539    77.257279 
       7            0    -111.6764    245769.79    245769.79    245769.79    245769.79 6.4655354e-11 2.2675466e-10 3.2804516e-11    4.2594796    4.2594796    4.2594796    77.280445 
       8            0   -111.67994     245096.7     245096.7     245096.7     245096.7 -1.1592126e-10 7.1478558e-11 1.8922322e-10    4.2599052    4.2599052    4.2599052    77.303615 
       9            0    -111.6835    244424.55    244424.55    244424.55    244424.55 2.2494199e-10 -9.8348367e-11 -3.1120842e-11    4.2603309    4.2603309    4.2603309     77.32679 
      10            0   -111.68707     243752.1     243752.1     243752.1     243752.1 -3.5365575e-11 1.156351e-11 -3.7577794e-10    4.2607565    4.2607565    4.2607565    77.349969 
      11            0   -111.69061    243080.98    243080.98    243080.98    243080.98 1.5204348e-10 -6.2086378e-11 -9.2380401e-11    4.2611822    4.2611822    4.2611822    77.373153 
      12            0    -111.6941    242411.84    242411.84    242411.84    242411.84 -2.3074368e-11 1.5857579e-10 9.8591775e-11    4.2616078    4.2616078    4.2616078    77.396342 
      13            0   -111.69758    241743.35    241743.35    241743.35    241743.35 2.1846051e-11 8.0983129e-11 -3.9181088e-12    4.2620335    4.2620335    4.2620335    77.419536 
      14            0   -111.70107    241075.43    241075.43    241075.43    241075.43 -2.0058563e-11 -6.3875414e-12 2.3220065e-11    4.2624591    4.2624591    4.2624591    77.442734 
      15            0   -111.70453    240408.54    240408.54    240408.54    240408.54 -5.2873297e-11 3.049347e-11 7.9371961e-11    4.2628848    4.2628848    4.2628848    77.465936 
      16            0     -111.708    239741.81    239741.81    239741.81    239741.81 -8.9762951e-12 -7.0291315e-11 -4.6709819e-10    4.2633104    4.2633104    4.2633104    77.489144 
      17            0   -111.71151    239074.79    239074.79    239074.79    239074.79 4.481588e-12 -2.6956915e-11 1.9237511e-10    4.2637361    4.2637361    4.2637361    77.512355 
      18            0    -111.7135    238436.23    238436.23    238436.23    238436.23 4.436434e-11 -4.890291e-12 -4.9088579e-11    4.2641617    4.2641617    4.2641617    77.535572 
      19            0   -111.71697    237770.87    237770.87    237770.87    237770.87 4.6491919e-13 5.3644128e-11 1.7198849e-11    4.2645874    4.2645874    4.2645874    77.558793 
      20            0    -111.7204    237107.89    237107.89    237107.89    237107.89 1.6056043e-10 -4.1993228e-11 -1.9221752e-11     4.265013     4.265013     4.265013    77.582019 
      21            0    -111.7238    236446.25    236446.25    236446.25    236446.25 2.4159856e-11 1.3853768e-11 7.8185078e-11    4.2654387    4.2654387    4.2654387     77.60525 
      22            0   -111.72718    235785.06    235785.06    235785.06    235785.06 -2.0191289e-10 1.4409217e-12 -9.7869702e-11    4.2658643    4.2658643    4.2658643    77.628485 
      23            0   -111.73059     235123.9     235123.9     235123.9     235123.9 3.0328243e-11 4.4748606e-11 1.1130269e-10      4.26629      4.26629      4.26629    77.651724 
      24            0   -111.73402    234462.31    234462.31    234462.31    234462.31 1.4474348e-10 7.869159e-12 1.0190512e-10    4.2667156    4.2667156    4.2667156    77.674969 
      25            0   -111.73742    233801.62    233801.62    233801.62    233801.62 4.2069203e-11 4.1296776e-11 3.0242039e-11    4.2671413    4.2671413    4.2671413    77.698218 
      26            0   -111.74085    233141.78    233141.78    233141.78    233141.78 9.3656102e-11 -3.2300723e-11 1.1942403e-10    4.2675669    4.2675669    4.2675669    77.721471 
      27            0   -111.74425    232482.85    232482.85    232482.85    232482.85 9.2271137e-11 4.2491249e-11 3.4074059e-10    4.2679926    4.2679926    4.2679926     77.74473 
      28            0   -111.74762    231825.21    231825.21    231825.21    231825.21 3.1135569e-10 -1.5279976e-10 2.6423062e-10    4.2684182    4.2684182    4.2684182    77.767993 
      29            0   -111.75094    231169.72    231169.72    231169.72    231169.72 5.4262596e-11 -5.8585554e-11 6.4406443e-11    4.2688439    4.2688439    4.2688439     77.79126 
      30            0   -111.75426    230514.08    230514.08    230514.08    230514.08 -7.0247348e-11 3.5201458e-11 -1.8705454e-11    4.2692695    4.2692695    4.2692695    77.814532 
      31            0   -111.75763    229857.89    229857.89    229857.89    229857.89 -1.7475938e-11 -1.3909276e-10 -1.9468004e-10    4.2696952    4.2696952    4.2696952    77.837809 
      32            0   -111.76098    229203.02    229203.02    229203.02    229203.02 -1.4119176e-11 -1.1482688e-11 2.5058703e-11    4.2701208    4.2701208    4.2701208    77.861091 
      33            0   -111.76431    228548.96    228548.96    228548.96    228548.96 1.3485397e-10 1.7355421e-10 2.2273675e-10    4.2705465    4.2705465    4.2705465    77.884377 
      34            0   -111.76764    227895.58    227895.58    227895.58    227895.58 2.1226407e-10 -7.8831223e-11 -1.9518127e-12    4.2709721    4.2709721    4.2709721    77.907668 
      35            0   -111.77094    227243.18    227243.18    227243.18    227243.18 3.3919903e-11 4.2274494e-11 1.821554e-11    4.2713978    4.2713978    4.2713978    77.930963 
      36            0   -111.77425    226591.21    226591.21    226591.21    226591.21 1.4492908e-11 -1.3954462e-10 -2.3474779e-10    4.2718234    4.2718234    4.2718234    77.954263 
      37            0   -111.77753    225940.55    225940.55    225940.55    225940.55 4.4513387e-11 1.5320923e-10 -6.6908639e-11    4.2722491    4.2722491    4.2722491    77.977568 
      38            0   -111.78083     225290.2     225290.2     225290.2     225290.2 1.2268064e-10 -7.4362055e-11 -1.3563427e-10    4.2726747    4.2726747    4.2726747    78.000877 
      39            0   -111.78409    224640.94    224640.94    224640.94    224640.94 1.4180738e-10 6.9323614e-11 -2.4750826e-10    4.2731004    4.2731004    4.2731004    78.024191 
      40            0   -111.78737    223991.97    223991.97    223991.97    223991.97 -9.4437902e-11 1.2627685e-11 4.6156141e-12     4.273526     4.273526     4.273526     78.04751 
      41            0   -111.79061    223344.22    223344.22    223344.22    223344.22 1.1370576e-10 9.2247214e-11 5.4375888e-11    4.2739517    4.2739517    4.2739517    78.070833 
      42            0   -111.79384    222697.02    222697.02    222697.02    222697.02 9.4657758e-11 -9.1970681e-13 9.6660087e-12    4.2743773    4.2743773    4.2743773    78.094161 
      43            0   -111.79708    222050.94    222050.94    222050.94    222050.94 -9.5272926e-11 -1.2057329e-11 5.6061303e-11     4.274803     4.274803     4.274803    78.117494 
      44            0   -111.80034    221404.63    221404.63    221404.63    221404.63 6.5420181e-11 2.621537e-11 -8.9417927e-11    4.2752286    4.2752286    4.2752286    78.140831 
      45            0   -111.80361    220758.08    220758.08    220758.08    220758.08 9.4286105e-11 6.9955031e-11 2.7115842e-10    4.2756543    4.2756543    4.2756543    78.164173 
      46            0   -111.80679    220114.35    220114.35    220114.35    220114.35 -1.6928131e-11 1.6667136e-10 1.8937453e-11    4.2760799    4.2760799    4.2760799    78.187519 
      47            0   -111.80998    219471.09    219471.09    219471.09    219471.09 5.5484101e-11 5.8960743e-12 -1.5652221e-10    4.2765056    4.2765056    4.2765056    78.210871 
      48            0   -111.81315    218828.72    218828.72    218828.72    218828.72 -3.4387592e-12 -1.9255759e-11 -1.951805e-10    4.2769312    4.2769312    4.2769312    78.234226 
      49            0   -111.81631    218187.64    218187.64    218187.64    218187.64 9.1583601e-11 -1.0877046e-10 1.3287366e-10    4.2773569    4.2773569    4.2773569    78.257587 
      50            0   -111.81947    217547.03    217547.03    217547.03    217547.03 1.488949e-10 1.3501023e-10 3.1693506e-10    4.2777825    4.2777825    4.2777825    78.280952 
      51            0   -111.82266    216905.98    216905.98    216905.98    216905.98 -1.7070293e-10 -3.7796358e-11 -1.9057923e-10    4.2782082    4.2782082    4.2782082    78.304322 
      52            0   -111.82585     216265.2     216265.2     216265.2     216265.2 -2.6306005e-11 5.9851439e-11 2.2952151e-10    4.2786338    4.2786338    4.2786338    78.327696 
      53            0   -111.82903    215624.65    215624.65    215624.65    215624.65 2.2091288e-10 -2.668737e-11 1.9066671e-10    4.2790595    4.2790595    4.2790595    78.351075 
      54            0   -111.83219    214985.68    214985.68    214985.68    214985.68 4.7040539e-11 -4.8316219e-11 5.1514533e-11    4.2794851    4.2794851    4.2794851    78.374459 
      55            0   -111.83528    214349.19    214349.19    214349.19    214349.19 5.8941795e-11 6.0845585e-13 1.4386822e-10    4.2799108    4.2799108    4.2799108    78.397847 
      56            0   -111.83838     213713.1     213713.1     213713.1     213713.1 -6.4079365e-11 1.570029e-10 3.4786768e-10    4.2803364    4.2803364    4.2803364     78.42124 
      57            0   -111.84146    213077.82    213077.82    213077.82    213077.82 -4.8564248e-11 1.1328821e-10 1.6446697e-10    4.2807621    4.2807621    4.2807621    78.444638 
      58            0   -111.84459    212442.01    212442.01    212442.01    212442.01 3.2488171e-11 8.6403386e-11 7.8917188e-11    4.2811877    4.2811877    4.2811877     78.46804 
      59            0    -111.8477    211806.71    211806.71    211806.71    211806.71 -6.8273571e-11 8.3538459e-11 1.5076588e-10    4.2816134    4.2816134    4.2816134    78.491447 
      60            0   -111.85081    211172.17    211172.17    211172.17    211172.17 -1.8688538e-10 1.3172509e-10 -2.6676328e-12     4.282039     4.282039     4.282039    78.514859 
      61            0   -111.85391    210538.18    210538.18    210538.18    210538.18 -9.7118851e-11 -1.5893663e-11 -2.5997334e-11    4.2824647    4.2824647    4.2824647    78.538275 
      62            0   -111.85701    209904.95    209904.95    209904.95    209904.95 -9.0415169e-11 5.0459122e-11 -4.3174398e-11    4.2828903    4.2828903    4.2828903    78.561696 
      63            0   -111.86003    209273.91    209273.91    209273.91    209273.91 -5.8770436e-11 2.9257775e-10 2.7928546e-11     4.283316     4.283316     4.283316    78.585122 
      64            0   -111.86305    208643.64    208643.64    208643.64    208643.64 8.7871246e-11 -8.8572405e-11 -1.3733665e-10    4.2837416    4.2837416    4.2837416    78.608552 
      65            0    -111.8661     208012.9     208012.9     208012.9     208012.9 9.2069381e-11 -8.4499381e-11 -3.659977e-11    4.2841673    4.2841673    4.2841673    78.631987 
      66            0   -111.86914    207383.52    207383.52    207383.52    207383.52 -4.0162724e-11 -1.2328492e-10 -9.9686019e-11    4.2845929    4.2845929    4.2845929    78.655427 
      67            0   -111.87217    206754.92    206754.92    206754.92    206754.92 9.7184253e-11 -5.129801e-11 -2.9917538e-10    4.2850186    4.2850186    4.2850186    78.678871 
      68            0   -111.87519    206126.33    206126.33    206126.33    206126.33 -3.4391099e-11 -1.7906813e-10 -1.8366008e-10    4.2854442    4.2854442    4.2854442     78.70232 
      69            0   -111.87821    205498.37    205498.37    205498.37    205498.37 -3.437942e-11 -8.8863429e-11 1.7811032e-10    4.2858699    4.2858699    4.2858699    78.725773 
      70            0   -111.88122    204870.96    204870.96    204870.96    204870.96 -1.2895294e-10 -9.8460631e-11 4.8379619e-12    4.2862955    4.2862955    4.2862955    78.749232 
      71            0   -111.88421    204244.71    204244.71    204244.71    204244.71 -3.4384583e-11 -1.6802423e-10 -1.7527681e-10    4.2867212    4.2867212    4.2867212    78.772694 
      72            0   -111.88719     203619.9     203619.9     203619.9     203619.9 3.1751276e-11 3.0417835e-11 1.3239543e-10    4.2871468    4.2871468    4.2871468    78.796162 
      73            0   -111.89017    202995.61    202995.61    202995.61    202995.61 -9.8524145e-11 3.421668e-11 1.4636122e-10    4.2875725    4.2875725    4.2875725    78.819634 
      74            0   -111.89312    202372.15    202372.15    202372.15    202372.15 1.9198326e-10 -1.1203965e-11 6.5846457e-11    4.2879981    4.2879981    4.2879981    78.843111 
      75            0   -111.89607    201749.02    201749.02    201749.02    201749.02 5.9858053e-11 -9.8551851e-11 -4.612489e-11    4.2884238    4.2884238    4.2884238    78.866593 
      76            0   -111.89902       201126       201126       201126       201126 -1.0387351e-10 -1.5450277e-10 -1.3280236e-10    4.2888494    4.2888494    4.2888494    78.890079 
      77            0   -111.90197    200504.18    200504.18    200504.18    200504.18 1.1949234e-10 -3.5860377e-12 1.2259183e-10    4.2892751    4.2892751    4.2892751     78.91357 
      78            0   -111.90493    199882.81    199882.81    199882.81    199882.81 -2.630639e-10 7.2477586e-11 -1.37901e-10    4.2897007    4.2897007    4.2897007    78.937065 
      79            0   -111.90789    199261.34    199261.34    199261.34    199261.34 8.8496449e-11 -7.7358504e-11 -1.4721561e-10    4.2901264    4.2901264    4.2901264    78.960565 
      80            0   -111.91081    198641.86    198641.86    198641.86    198641.86 -6.518443e-12 1.0141256e-10 -4.5670924e-11     4.290552     4.290552     4.290552     78.98407 
      81            0    -111.9137    198023.37    198023.37    198023.37    198023.37 -6.4715045e-11 9.5098306e-11 -1.1642612e-10    4.2909777    4.2909777    4.2909777     79.00758 
      82            0   -111.91659    197405.58    197405.58    197405.58    197405.58 2.2781576e-11 2.0376891e-10 4.5359903e-11    4.2914033    4.2914033    4.2914033    79.031094 
      83            0   -111.91947    196788.31    196788.31    196788.31    196788.31 1.0022397e-10 1.4253744e-12 -5.5170874e-11     4.291829     4.291829     4.291829    79.054613 
      84            0   -111.92234    196171.87    196171.87    196171.87    196171.87 2.776151e-11 -1.1806408e-10 -2.6609936e-10    4.2922546    4.2922546    4.2922546    79.078136 
      85            0   -111.92524    195555.27    195555.27    195555.27    195555.27 1.062928e-11 6.7361231e-11 -1.6709698e-10    4.2926803    4.2926803    4.2926803    79.101664 
      86            0   -111.92814     194938.9     194938.9     194938.9     194938.9 1.532665e-10 -1.3238402e-10 -7.0591272e-12    4.2931059    4.2931059    4.2931059    79.125197 
      87            0   -111.93102    194323.14    194323.14    194323.14    194323.14 4.2173722e-11 5.3159723e-12 1.4098961e-10    4.2935316    4.2935316    4.2935316    79.148735 
      88            0   -111.93389    193708.49    193708.49    193708.49    193708.49 1.5791801e-10 2.2235736e-11 1.685413e-11    4.2939572    4.2939572    4.2939572    79.172277 
      89            0    -111.9367    193096.46    193096.46    193096.46    193096.46 7.3053192e-11 -2.0869229e-10 -4.2808638e-11    4.2943829    4.2943829    4.2943829    79.195824 
      90            0   -111.93951    192485.09    192485.09    192485.09    192485.09 9.1328429e-11 9.5232291e-11 1.8579078e-11    4.2948085    4.2948085    4.2948085    79.219375 
      91            0   -111.94231    191873.77    191873.77    191873.77    191873.77 2.1591633e-10 4.5620587e-11 6.0748534e-11    4.2952342    4.2952342    4.2952342    79.242931 
      92            0   -111.94513    191262.24    191262.24    191262.24    191262.24 -3.9596299e-11 -7.3753381e-11 4.2815192e-11    4.2956598    4.2956598    4.2956598    79.266492 
      93            0   -111.94796    190650.93    190650.93    190650.93    190650.93 -1.4712336e-10 -8.3782532e-11 -4.753454e-11    4.2960855    4.2960855    4.2960855    79.290058 
      94            0   -111.95077     190040.5     190040.5     190040.5     190040.5 -7.0191106e-11 -5.1090349e-11 1.2738977e-11    4.2965111    4.2965111    4.2965111    79.313628 
      95            0   -111.95359    189430.84    189430.84    189430.84    189430.84 -1.0941167e-10 1.0877634e-10 -1.4407287e-10    4.2969368    4.2969368    4.2969368    79.337203 
      96            0   -111.95639    188822.13    188822.13    188822.13    188822.13 -1.855326e-10 -7.4467638e-11 -1.7850157e-10    4.2973624    4.2973624    4.2973624    79.360782 
      97            0   -111.95915    188215.18    188215.18    188215.18    188215.18 3.3529353e-11 -4.4927278e-11 -3.2898174e-10    4.2977881    4.2977881    4.2977881    79.384366 
      98            0   -111.96187    187609.24    187609.24    187609.24    187609.24 -8.638471e-11 5.8235952e-11 8.3197733e-11    4.2982137    4.2982137    4.2982137    79.407955 
      99            0   -111.96463    187002.55    187002.55    187002.55    187002.55 1.8005497e-10 -1.3577175e-10 -1.655467e-10    4.2986394    4.2986394    4.2986394    79.431549 
     100            0   -111.96739    186396.68    186396.68    186396.68    186396.68 -2.3646861e-10 -1.0281307e-10 1.4463609e-11     4.299065     4.299065     4.299065    79.455147 
Loop time of 0.175251 on 1 procs for 100 steps with 8 atoms

35.4% CPU use with 1 MPI tasks x no OpenMP threads

Minimization stats:
  Stopping criterion = max iterations
  Energy initial, next-to-last, final = 
        -111.651315512     -111.964630865     -111.967388414
  Force two-norm initial, final = 20.8842 15.8522
  Force max component initial, final = 12.0575 9.15226
  Final line search alpha, max atom move = 1.0893e-05 9.96957e-05
  Iterations, force evaluations = 100 100

MPI task timing breakdown:
Section |  min time  |  avg time  |  max time  |%varavg| %total
---------------------------------------------------------------
Pair    | 0.044659   | 0.044659   | 0.044659   |   0.0 | 25.48
Kspace  | 0.014284   | 0.014284   | 0.014284   |   0.0 |  8.15
Neigh   | 0          | 0          | 0          |   0.0 |  0.00
Comm    | 0.0012567  | 0.0012567  | 0.0012567  |   0.0 |  0.72
Output  | 0.015008   | 0.015008   | 0.015008   |   0.0 |  8.56
Modify  | 0          | 0          | 0          |   0.0 |  0.00
Other   |            | 0.1        |            |       | 57.09

Nlocal:    8 ave 8 max 8 min
Histogram: 1 0 0 0 0 0 0 0 0 0
Nghost:    2189 ave 2189 max 2189 min
Histogram: 1 0 0 0 0 0 0 0 0 0
Neighs:    2344 ave 2344 max 2344 min
Histogram: 1 0 0 0 0 0 0 0 0 0

Total # of neighbors = 2344
Ave neighs/atom = 293
Neighbor list builds = 0
Dangerous builds = 0

variable tmp equal pxx
variable pxx0 equal ${tmp}
variable pxx0 equal 186396.678342581
variable tmp equal pyy
variable pyy0 equal ${tmp}
variable pyy0 equal 186396.67834258
variable tmp equal pzz
variable pzz0 equal ${tmp}
variable pzz0 equal 186396.678342581
variable tmp equal pyz
variable pyz0 equal ${tmp}
variable pyz0 equal 1.44636089699892e-11
variable tmp equal pxz
variable pxz0 equal ${tmp}
variable pxz0 equal -1.0281306859269e-10
variable tmp equal pxy
variable pxy0 equal ${tmp}
variable pxy0 equal -2.36468607734815e-10

variable tmp equal lx
variable lx0 equal ${tmp}
variable lx0 equal 4.29906500000002
variable tmp equal ly
variable ly0 equal ${tmp}
variable ly0 equal 4.29906500000002
variable tmp equal lz
variable lz0 equal ${tmp}
variable lz0 equal 4.29906500000002

 # ---- define the derivatives w.r.t. strain components
variable d1 equal -(v_pxx1-${pxx0})/(v_delta/v_len0)*${cfac}
variable d1 equal -(v_pxx1-186396.678342581)/(v_delta/v_len0)*${cfac}
variable d1 equal -(v_pxx1-186396.678342581)/(v_delta/v_len0)*0.0001
variable d2 equal -(v_pyy1-${pyy0})/(v_delta/v_len0)*${cfac}
variable d2 equal -(v_pyy1-186396.67834258)/(v_delta/v_len0)*${cfac}
variable d2 equal -(v_pyy1-186396.67834258)/(v_delta/v_len0)*0.0001
variable d3 equal -(v_pzz1-${pzz0})/(v_delta/v_len0)*${cfac}
variable d3 equal -(v_pzz1-186396.678342581)/(v_delta/v_len0)*${cfac}
variable d3 equal -(v_pzz1-186396.678342581)/(v_delta/v_len0)*0.0001
variable d4 equal -(v_pyz1-${pyz0})/(v_delta/v_len0)*${cfac}
variable d4 equal -(v_pyz1-1.44636089699892e-11)/(v_delta/v_len0)*${cfac}
variable d4 equal -(v_pyz1-1.44636089699892e-11)/(v_delta/v_len0)*0.0001
variable d5 equal -(v_pxz1-${pxz0})/(v_delta/v_len0)*${cfac}
variable d5 equal -(v_pxz1--1.0281306859269e-10)/(v_delta/v_len0)*${cfac}
variable d5 equal -(v_pxz1--1.0281306859269e-10)/(v_delta/v_len0)*0.0001
variable d6 equal -(v_pxy1-${pxy0})/(v_delta/v_len0)*${cfac}
variable d6 equal -(v_pxy1--2.36468607734815e-10)/(v_delta/v_len0)*${cfac}
variable d6 equal -(v_pxy1--2.36468607734815e-10)/(v_delta/v_len0)*0.0001

# ---- write restart files
unfix 3
write_restart restart.equil
PPPM initialization ...
  using 12-bit tables for long-range coulomb (../kspace.cpp:321)
  G vector (1/distance) = 0.35273
  grid = 8 8 8
  stencil order = 5
  estimated absolute RMS force accuracy = 4.19559e-05
  estimated relative force accuracy = 2.91368e-06
  using double precision FFTs
  3d grid and FFT values/proc = 3375 512
# ---- uxx Perturbation
variable dir equal 1
include displace.mod
# NOTE: This script should not need to be
# modified. See in.elastic for more info.
# Find which reference length to use

if "${dir} == 1" then    "variable len0 equal ${lx0}"
variable len0 equal ${lx0}
variable len0 equal 4.29906500000002
if "${dir} == 2" then    "variable len0 equal ${ly0}"
if "${dir} == 3" then    "variable len0 equal ${lz0}"
if "${dir} == 4" then    "variable len0 equal ${lz0}"
if "${dir} == 5" then    "variable len0 equal ${lz0}"
if "${dir} == 6" then    "variable len0 equal ${ly0}"

# Reset box and simulation parameters

clear
read_restart restart.equil remap
  triclinic box = (-0.0212825 -0.0212825 -0.0212825) to (4.27778 4.27778 4.27778) with tilt (0 0 0)
  1 by 1 by 1 MPI processor grid
  8 atoms
include potential.mod
mass 1 24.305
mass 2 15.999

group Mg type 1
4 atoms in group Mg
group O type 2
4 atoms in group O

set group Mg charge 1.7021668946670072
  4 settings made for charge
set group O charge -1.7021668946670072
  4 settings made for charge

variable R_cut equal 10.0

pair_style buck/coul/long ${R_cut}
pair_style buck/coul/long 10
pair_coeff 1 1 0.0 0.5 0.0 ${R_cut}
pair_coeff 1 1 0.0 0.5 0.0 10
pair_coeff 1 2 916.5060146451578 0.3165879285797405 0.0 ${R_cut}
pair_coeff 1 2 916.5060146451578 0.3165879285797405 0.0 10
pair_coeff 2 2 19497.471952374297 0.16852015749762614 35.9670850530772 ${R_cut}
pair_coeff 2 2 19497.471952374297 0.16852015749762614 35.9670850530772 10

kspace_style pppm 1.0e-5

neighbor 1.0 bin
neigh_modify every 1 delay 0 check yes
thermo	1
thermo_style custom step temp pe press pxx pyy pzz pxy pxz pyz lx ly lz vol
thermo_modify norm no

# Negative deformation

variable delta equal -${up}*${len0}
variable delta equal -1e-06*${len0}
variable delta equal -1e-06*4.29906500000002
if "${dir} == 1" then    "change_box all x delta 0 ${delta} remap units box"
change_box all x delta 0 ${delta} remap units box
change_box all x delta 0 -4.29906500000002e-06 remap units box
  triclinic box = (-0.0212825 -0.0212825 -0.0212825) to (4.27778 4.27778 4.27778) with tilt (0 0 0)
if "${dir} == 2" then    "change_box all y delta 0 ${delta} remap units box"
if "${dir} == 3" then    "change_box all z delta 0 ${delta} remap units box"
if "${dir} == 4" then    "change_box all yz delta ${delta} remap units box"
if "${dir} == 5" then    "change_box all xz delta ${delta} remap units box"
if "${dir} == 6" then    "change_box all xy delta ${delta} remap units box"

# Relax atoms positions

minimize ${etol} ${ftol} ${maxiter} ${maxeval}
minimize 0 ${ftol} ${maxiter} ${maxeval}
minimize 0 1e-10 ${maxiter} ${maxeval}
minimize 0 1e-10 100 ${maxeval}
minimize 0 1e-10 100 1000
PPPM initialization ...
  using 12-bit tables for long-range coulomb (../kspace.cpp:321)
  G vector (1/distance) = 0.35273
  grid = 8 8 8
  stencil order = 5
  estimated absolute RMS force accuracy = 4.19559e-05
  estimated relative force accuracy = 2.91368e-06
  using double precision FFTs
  3d grid and FFT values/proc = 3375 512
Neighbor list info ...
  update every 1 steps, delay 0 steps, check yes
  max neighbors/atom: 2000, page size: 100000
  master list distance cutoff = 11
  ghost atom cutoff = 11
  binsize = 5.5, bins = 1 1 1
  1 neighbor lists, perpetual/occasional/extra = 1 0 0
  (1) pair buck/coul/long, perpetual
      attributes: half, newton on
      pair build: half/bin/newton/tri
      stencil: half/bin/3d/newton/tri
      bin: standard
Per MPI rank memory allocation (min/avg/max) = 4.629 | 4.629 | 4.629 Mbytes
Step Temp PotEng Press Pxx Pyy Pzz Pxy Pxz Pyz Lx Ly Lz Volume 
     100            0   -111.96739    186397.29    186398.79    186396.55    186396.55 -3.0129154e-10 -1.9274763e-10 -3.0847655e-10    4.2990607     4.299065     4.299065    79.455067 
     101            0   -111.96739    186397.28    186398.97    186396.44    186396.44 -3.5177061e-10 -5.8611352e-10 -7.0355826e-10    4.2990607     4.299065     4.299065    79.455067 
     102            0   -111.96739    186397.28    186398.97    186396.44    186396.44 -3.5177061e-10 -5.8611352e-10 -7.0355826e-10    4.2990607     4.299065     4.299065    79.455067 
Loop time of 0.00710011 on 1 procs for 2 steps with 8 atoms

28.2% CPU use with 1 MPI tasks x no OpenMP threads

Minimization stats:
  Stopping criterion = linesearch alpha is zero
  Energy initial, next-to-last, final = 
        -111.967390394     -111.967393102     -111.967393102
  Force two-norm initial, final = 0.00222603 0.000124916
  Force max component initial, final = 0.000470741 2.63622e-05
  Final line search alpha, max atom move = 0.5 1.31811e-05
  Iterations, force evaluations = 2 5

MPI task timing breakdown:
Section |  min time  |  avg time  |  max time  |%varavg| %total
---------------------------------------------------------------
Pair    | 0.0060661  | 0.0060661  | 0.0060661  |   0.0 | 85.44
Kspace  | 0.00091386 | 0.00091386 | 0.00091386 |   0.0 | 12.87
Neigh   | 0          | 0          | 0          |   0.0 |  0.00
Comm    | 7.3195e-05 | 7.3195e-05 | 7.3195e-05 |   0.0 |  1.03
Output  | 1.0967e-05 | 1.0967e-05 | 1.0967e-05 |   0.0 |  0.15
Modify  | 0          | 0          | 0          |   0.0 |  0.00
Other   |            | 3.6e-05    |            |       |  0.51

Nlocal:    8 ave 8 max 8 min
Histogram: 1 0 0 0 0 0 0 0 0 0
Nghost:    2189 ave 2189 max 2189 min
Histogram: 1 0 0 0 0 0 0 0 0 0
Neighs:    2344 ave 2344 max 2344 min
Histogram: 1 0 0 0 0 0 0 0 0 0

Total # of neighbors = 2344
Ave neighs/atom = 293
Neighbor list builds = 0
Dangerous builds = 0

# Obtain new stress tensor

variable tmp equal pxx
variable pxx1 equal ${tmp}
variable pxx1 equal 186398.972124255
variable tmp equal pyy
variable pyy1 equal ${tmp}
variable pyy1 equal 186396.439881023
variable tmp equal pzz
variable pzz1 equal ${tmp}
variable pzz1 equal 186396.439881022
variable tmp equal pxy
variable pxy1 equal ${tmp}
variable pxy1 equal -3.51770608886368e-10
variable tmp equal pxz
variable pxz1 equal ${tmp}
variable pxz1 equal -5.86113517259484e-10
variable tmp equal pyz
variable pyz1 equal ${tmp}
variable pyz1 equal -7.03558255127665e-10

# Compute elastic constant from pressure tensor

variable C1neg equal ${d1}
variable C1neg equal 229.378167400137
variable C2neg equal ${d2}
variable C2neg equal -23.8461557019036
variable C3neg equal ${d3}
variable C3neg equal -23.8461558998097
variable C4neg equal ${d4}
variable C4neg equal -7.18021864097654e-08
variable C5neg equal ${d5}
variable C5neg equal -4.83300448666794e-08
variable C6neg equal ${d6}
variable C6neg equal -1.15302001151553e-08

# Reset box and simulation parameters

clear
read_restart restart.equil remap
  triclinic box = (-0.0212825 -0.0212825 -0.0212825) to (4.27778 4.27778 4.27778) with tilt (0 0 0)
  1 by 1 by 1 MPI processor grid
  8 atoms
include potential.mod
mass 1 24.305
mass 2 15.999

group Mg type 1
4 atoms in group Mg
group O type 2
4 atoms in group O

set group Mg charge 1.7021668946670072
  4 settings made for charge
set group O charge -1.7021668946670072
  4 settings made for charge

variable R_cut equal 10.0

pair_style buck/coul/long ${R_cut}
pair_style buck/coul/long 10
pair_coeff 1 1 0.0 0.5 0.0 ${R_cut}
pair_coeff 1 1 0.0 0.5 0.0 10
pair_coeff 1 2 916.5060146451578 0.3165879285797405 0.0 ${R_cut}
pair_coeff 1 2 916.5060146451578 0.3165879285797405 0.0 10
pair_coeff 2 2 19497.471952374297 0.16852015749762614 35.9670850530772 ${R_cut}
pair_coeff 2 2 19497.471952374297 0.16852015749762614 35.9670850530772 10

kspace_style pppm 1.0e-5

neighbor 1.0 bin
neigh_modify every 1 delay 0 check yes
thermo	1
thermo_style custom step temp pe press pxx pyy pzz pxy pxz pyz lx ly lz vol
thermo_modify norm no

# Positive deformation

variable delta equal ${up}*${len0}
variable delta equal 1e-06*${len0}
variable delta equal 1e-06*4.29906500000002
if "${dir} == 1" then    "change_box all x delta 0 ${delta} remap units box"
change_box all x delta 0 ${delta} remap units box
change_box all x delta 0 4.29906500000002e-06 remap units box
  triclinic box = (-0.0212825 -0.0212825 -0.0212825) to (4.27779 4.27778 4.27778) with tilt (0 0 0)
if "${dir} == 2" then    "change_box all y delta 0 ${delta} remap units box"
if "${dir} == 3" then    "change_box all z delta 0 ${delta} remap units box"
if "${dir} == 4" then    "change_box all yz delta ${delta} remap units box"
if "${dir} == 5" then    "change_box all xz delta ${delta} remap units box"
if "${dir} == 6" then    "change_box all xy delta ${delta} remap units box"

# Relax atoms positions

minimize ${etol} ${ftol} ${maxiter} ${maxeval}
minimize 0 ${ftol} ${maxiter} ${maxeval}
minimize 0 1e-10 ${maxiter} ${maxeval}
minimize 0 1e-10 100 ${maxeval}
minimize 0 1e-10 100 1000
PPPM initialization ...
  using 12-bit tables for long-range coulomb (../kspace.cpp:321)
  G vector (1/distance) = 0.35273
  grid = 8 8 8
  stencil order = 5
  estimated absolute RMS force accuracy = 4.1956e-05
  estimated relative force accuracy = 2.91368e-06
  using double precision FFTs
  3d grid and FFT values/proc = 3375 512
Neighbor list info ...
  update every 1 steps, delay 0 steps, check yes
  max neighbors/atom: 2000, page size: 100000
  master list distance cutoff = 11
  ghost atom cutoff = 11
  binsize = 5.5, bins = 1 1 1
  1 neighbor lists, perpetual/occasional/extra = 1 0 0
  (1) pair buck/coul/long, perpetual
      attributes: half, newton on
      pair build: half/bin/newton/tri
      stencil: half/bin/3d/newton/tri
      bin: standard
Per MPI rank memory allocation (min/avg/max) = 4.629 | 4.629 | 4.629 Mbytes
Step Temp PotEng Press Pxx Pyy Pzz Pxy Pxz Pyz Lx Ly Lz Volume 
     100            0    -111.9674    186393.31    186391.77    186394.08    186394.08 2.2041142e-10 5.469708e-10 7.2675805e-10    4.2990693     4.299065     4.299065    79.455226 
     101            0   -111.96741    186393.22    186391.79    186393.93    186393.93 2.3720186e-10 4.2015129e-12 -6.4376551e-11    4.2990693     4.299065     4.299065    79.455226 
     102            0   -111.96741    186393.22    186391.79    186393.93    186393.93 2.3720186e-10 4.2015129e-12 -6.4376551e-11    4.2990693     4.299065     4.299065    79.455226 
Loop time of 0.00206184 on 1 procs for 2 steps with 8 atoms

97.0% CPU use with 1 MPI tasks x no OpenMP threads

Minimization stats:
  Stopping criterion = linesearch alpha is zero
  Energy initial, next-to-last, final = 
        -111.967404109     -111.967409986     -111.967409986
  Force two-norm initial, final = 0.00222623 0.00012208
  Force max component initial, final = 0.000470298 2.62923e-05
  Final line search alpha, max atom move = 0.5 1.31461e-05
  Iterations, force evaluations = 2 5

MPI task timing breakdown:
Section |  min time  |  avg time  |  max time  |%varavg| %total
---------------------------------------------------------------
Pair    | 0.0009892  | 0.0009892  | 0.0009892  |   0.0 | 47.98
Kspace  | 0.00095701 | 0.00095701 | 0.00095701 |   0.0 | 46.42
Neigh   | 0          | 0          | 0          |   0.0 |  0.00
Comm    | 7.7248e-05 | 7.7248e-05 | 7.7248e-05 |   0.0 |  3.75
Output  | 1.0967e-05 | 1.0967e-05 | 1.0967e-05 |   0.0 |  0.53
Modify  | 0          | 0          | 0          |   0.0 |  0.00
Other   |            | 2.742e-05  |            |       |  1.33

Nlocal:    8 ave 8 max 8 min
Histogram: 1 0 0 0 0 0 0 0 0 0
Nghost:    2189 ave 2189 max 2189 min
Histogram: 1 0 0 0 0 0 0 0 0 0
Neighs:    2344 ave 2344 max 2344 min
Histogram: 1 0 0 0 0 0 0 0 0 0

Total # of neighbors = 2344
Ave neighs/atom = 293
Neighbor list builds = 0
Dangerous builds = 0

# Obtain new stress tensor

variable tmp equal pe
variable e1 equal ${tmp}
variable e1 equal -111.967409985856
variable tmp equal press
variable p1 equal ${tmp}
variable p1 equal 186393.217955769
variable tmp equal pxx
variable pxx1 equal ${tmp}
variable pxx1 equal 186391.786040052
variable tmp equal pyy
variable pyy1 equal ${tmp}
variable pyy1 equal 186393.933913627
variable tmp equal pzz
variable pzz1 equal ${tmp}
variable pzz1 equal 186393.933913627
variable tmp equal pxy
variable pxy1 equal ${tmp}
variable pxy1 equal 2.37201857441453e-10
variable tmp equal pxz
variable pxz1 equal ${tmp}
variable pxz1 equal 4.20151285891205e-12
variable tmp equal pyz
variable pyz1 equal ${tmp}
variable pyz1 equal -6.43765506522108e-11

# Compute elastic constant from pressure tensor

variable C1pos equal ${d1}
variable C1pos equal 489.230252901325
variable C2pos equal ${d2}
variable C2pos equal 274.442895301036
variable C3pos equal ${d3}
variable C3pos equal 274.442895399989
variable C4pos equal ${d4}
variable C4pos equal 7.88401596222e-09
variable C5pos equal ${d5}
variable C5pos equal -1.07014581451602e-08
variable C6pos equal ${d6}
variable C6pos equal -4.73670465176268e-08

# Combine positive and negative

variable C1${dir} equal 0.5*(${C1neg}+${C1pos})
variable C11 equal 0.5*(${C1neg}+${C1pos})
variable C11 equal 0.5*(229.378167400137+${C1pos})
variable C11 equal 0.5*(229.378167400137+489.230252901325)
variable C2${dir} equal 0.5*(${C2neg}+${C2pos})
variable C21 equal 0.5*(${C2neg}+${C2pos})
variable C21 equal 0.5*(-23.8461557019036+${C2pos})
variable C21 equal 0.5*(-23.8461557019036+274.442895301036)
variable C3${dir} equal 0.5*(${C3neg}+${C3pos})
variable C31 equal 0.5*(${C3neg}+${C3pos})
variable C31 equal 0.5*(-23.8461558998097+${C3pos})
variable C31 equal 0.5*(-23.8461558998097+274.442895399989)
variable C4${dir} equal 0.5*(${C4neg}+${C4pos})
variable C41 equal 0.5*(${C4neg}+${C4pos})
variable C41 equal 0.5*(-7.18021864097654e-08+${C4pos})
variable C41 equal 0.5*(-7.18021864097654e-08+7.88401596222e-09)
variable C5${dir} equal 0.5*(${C5neg}+${C5pos})
variable C51 equal 0.5*(${C5neg}+${C5pos})
variable C51 equal 0.5*(-4.83300448666794e-08+${C5pos})
variable C51 equal 0.5*(-4.83300448666794e-08+-1.07014581451602e-08)
variable C6${dir} equal 0.5*(${C6neg}+${C6pos})
variable C61 equal 0.5*(${C6neg}+${C6pos})
variable C61 equal 0.5*(-1.15302001151553e-08+${C6pos})
variable C61 equal 0.5*(-1.15302001151553e-08+-4.73670465176268e-08)

# Delete dir to make sure it is not reused

variable dir delete
# ---- uyy Perturbation
variable dir equal 2
include displace.mod
# NOTE: This script should not need to be
# modified. See in.elastic for more info.
# Find which reference length to use

if "${dir} == 1" then    "variable len0 equal ${lx0}"
if "${dir} == 2" then    "variable len0 equal ${ly0}"
variable len0 equal ${ly0}
variable len0 equal 4.29906500000002
if "${dir} == 3" then    "variable len0 equal ${lz0}"
if "${dir} == 4" then    "variable len0 equal ${lz0}"
if "${dir} == 5" then    "variable len0 equal ${lz0}"
if "${dir} == 6" then    "variable len0 equal ${ly0}"

# Reset box and simulation parameters

clear
read_restart restart.equil remap
  triclinic box = (-0.0212825 -0.0212825 -0.0212825) to (4.27778 4.27778 4.27778) with tilt (0 0 0)
  1 by 1 by 1 MPI processor grid
  8 atoms
include potential.mod
mass 1 24.305
mass 2 15.999

group Mg type 1
4 atoms in group Mg
group O type 2
4 atoms in group O

set group Mg charge 1.7021668946670072
  4 settings made for charge
set group O charge -1.7021668946670072
  4 settings made for charge

variable R_cut equal 10.0

pair_style buck/coul/long ${R_cut}
pair_style buck/coul/long 10
pair_coeff 1 1 0.0 0.5 0.0 ${R_cut}
pair_coeff 1 1 0.0 0.5 0.0 10
pair_coeff 1 2 916.5060146451578 0.3165879285797405 0.0 ${R_cut}
pair_coeff 1 2 916.5060146451578 0.3165879285797405 0.0 10
pair_coeff 2 2 19497.471952374297 0.16852015749762614 35.9670850530772 ${R_cut}
pair_coeff 2 2 19497.471952374297 0.16852015749762614 35.9670850530772 10

kspace_style pppm 1.0e-5

neighbor 1.0 bin
neigh_modify every 1 delay 0 check yes
thermo	1
thermo_style custom step temp pe press pxx pyy pzz pxy pxz pyz lx ly lz vol
thermo_modify norm no

# Negative deformation

variable delta equal -${up}*${len0}
variable delta equal -1e-06*${len0}
variable delta equal -1e-06*4.29906500000002
if "${dir} == 1" then    "change_box all x delta 0 ${delta} remap units box"
if "${dir} == 2" then    "change_box all y delta 0 ${delta} remap units box"
change_box all y delta 0 ${delta} remap units box
change_box all y delta 0 -4.29906500000002e-06 remap units box
  triclinic box = (-0.0212825 -0.0212825 -0.0212825) to (4.27778 4.27778 4.27778) with tilt (0 0 0)
if "${dir} == 3" then    "change_box all z delta 0 ${delta} remap units box"
if "${dir} == 4" then    "change_box all yz delta ${delta} remap units box"
if "${dir} == 5" then    "change_box all xz delta ${delta} remap units box"
if "${dir} == 6" then    "change_box all xy delta ${delta} remap units box"

# Relax atoms positions

minimize ${etol} ${ftol} ${maxiter} ${maxeval}
minimize 0 ${ftol} ${maxiter} ${maxeval}
minimize 0 1e-10 ${maxiter} ${maxeval}
minimize 0 1e-10 100 ${maxeval}
minimize 0 1e-10 100 1000
PPPM initialization ...
  using 12-bit tables for long-range coulomb (../kspace.cpp:321)
  G vector (1/distance) = 0.35273
  grid = 8 8 8
  stencil order = 5
  estimated absolute RMS force accuracy = 4.19559e-05
  estimated relative force accuracy = 2.91368e-06
  using double precision FFTs
  3d grid and FFT values/proc = 3375 512
Neighbor list info ...
  update every 1 steps, delay 0 steps, check yes
  max neighbors/atom: 2000, page size: 100000
  master list distance cutoff = 11
  ghost atom cutoff = 11
  binsize = 5.5, bins = 1 1 1
  1 neighbor lists, perpetual/occasional/extra = 1 0 0
  (1) pair buck/coul/long, perpetual
      attributes: half, newton on
      pair build: half/bin/newton/tri
      stencil: half/bin/3d/newton/tri
      bin: standard
Per MPI rank memory allocation (min/avg/max) = 4.629 | 4.629 | 4.629 Mbytes
Step Temp PotEng Press Pxx Pyy Pzz Pxy Pxz Pyz Lx Ly Lz Volume 
     100            0   -111.96739    186397.29    186396.55    186398.79    186396.55 -1.2737744e-10 -2.339167e-11 -9.0561638e-11     4.299065    4.2990607     4.299065    79.455067 
     101            0   -111.96739    186397.28    186396.44    186398.97    186396.44 -6.305432e-10 3.6510139e-10 2.8162651e-10     4.299065    4.2990607     4.299065    79.455067 
     102            0   -111.96739    186397.28    186396.44    186398.97    186396.44 -4.506545e-10 3.4600071e-10 1.4554144e-10     4.299065    4.2990607     4.299065    79.455067 
Loop time of 0.00201488 on 1 procs for 2 steps with 8 atoms

99.3% CPU use with 1 MPI tasks x no OpenMP threads

Minimization stats:
  Stopping criterion = linesearch alpha is zero
  Energy initial, next-to-last, final = 
        -111.967390394     -111.967393102     -111.967393102
  Force two-norm initial, final = 0.00222603 0.000124916
  Force max component initial, final = 0.000470741 2.63622e-05
  Final line search alpha, max atom move = 0.5 1.31811e-05
  Iterations, force evaluations = 2 5

MPI task timing breakdown:
Section |  min time  |  avg time  |  max time  |%varavg| %total
---------------------------------------------------------------
Pair    | 0.00098181 | 0.00098181 | 0.00098181 |   0.0 | 48.73
Kspace  | 0.00091505 | 0.00091505 | 0.00091505 |   0.0 | 45.41
Neigh   | 0          | 0          | 0          |   0.0 |  0.00
Comm    | 7.8201e-05 | 7.8201e-05 | 7.8201e-05 |   0.0 |  3.88
Output  | 1.0967e-05 | 1.0967e-05 | 1.0967e-05 |   0.0 |  0.54
Modify  | 0          | 0          | 0          |   0.0 |  0.00
Other   |            | 2.885e-05  |            |       |  1.43

Nlocal:    8 ave 8 max 8 min
Histogram: 1 0 0 0 0 0 0 0 0 0
Nghost:    2189 ave 2189 max 2189 min
Histogram: 1 0 0 0 0 0 0 0 0 0
Neighs:    2344 ave 2344 max 2344 min
Histogram: 1 0 0 0 0 0 0 0 0 0

Total # of neighbors = 2344
Ave neighs/atom = 293
Neighbor list builds = 0
Dangerous builds = 0

# Obtain new stress tensor

variable tmp equal pxx
variable pxx1 equal ${tmp}
variable pxx1 equal 186396.439881024
variable tmp equal pyy
variable pyy1 equal ${tmp}
variable pyy1 equal 186398.972124255
variable tmp equal pzz
variable pzz1 equal ${tmp}
variable pzz1 equal 186396.439881024
variable tmp equal pxy
variable pxy1 equal ${tmp}
variable pxy1 equal -4.50654504824405e-10
variable tmp equal pxz
variable pxz1 equal ${tmp}
variable pxz1 equal 3.46000705885024e-10
variable tmp equal pyz
variable pyz1 equal ${tmp}
variable pyz1 equal 1.45541436756496e-10

# Compute elastic constant from pressure tensor

variable C1neg equal ${d1}
variable C1neg equal -23.8461556989932
variable C2neg equal ${d2}
variable C2neg equal 229.37816749909
variable C3neg equal ${d3}
variable C3neg equal -23.8461556989932
variable C4neg equal ${d4}
variable C4neg equal 1.31077827786507e-08
variable C5neg equal ${d5}
variable C5neg equal 4.48813774477714e-08
variable C6neg equal ${d6}
variable C6neg equal -2.1418589708959e-08

# Reset box and simulation parameters

clear
read_restart restart.equil remap
  triclinic box = (-0.0212825 -0.0212825 -0.0212825) to (4.27778 4.27778 4.27778) with tilt (0 0 0)
  1 by 1 by 1 MPI processor grid
  8 atoms
include potential.mod
mass 1 24.305
mass 2 15.999

group Mg type 1
4 atoms in group Mg
group O type 2
4 atoms in group O

set group Mg charge 1.7021668946670072
  4 settings made for charge
set group O charge -1.7021668946670072
  4 settings made for charge

variable R_cut equal 10.0

pair_style buck/coul/long ${R_cut}
pair_style buck/coul/long 10
pair_coeff 1 1 0.0 0.5 0.0 ${R_cut}
pair_coeff 1 1 0.0 0.5 0.0 10
pair_coeff 1 2 916.5060146451578 0.3165879285797405 0.0 ${R_cut}
pair_coeff 1 2 916.5060146451578 0.3165879285797405 0.0 10
pair_coeff 2 2 19497.471952374297 0.16852015749762614 35.9670850530772 ${R_cut}
pair_coeff 2 2 19497.471952374297 0.16852015749762614 35.9670850530772 10

kspace_style pppm 1.0e-5

neighbor 1.0 bin
neigh_modify every 1 delay 0 check yes
thermo	1
thermo_style custom step temp pe press pxx pyy pzz pxy pxz pyz lx ly lz vol
thermo_modify norm no

# Positive deformation

variable delta equal ${up}*${len0}
variable delta equal 1e-06*${len0}
variable delta equal 1e-06*4.29906500000002
if "${dir} == 1" then    "change_box all x delta 0 ${delta} remap units box"
if "${dir} == 2" then    "change_box all y delta 0 ${delta} remap units box"
change_box all y delta 0 ${delta} remap units box
change_box all y delta 0 4.29906500000002e-06 remap units box
  triclinic box = (-0.0212825 -0.0212825 -0.0212825) to (4.27778 4.27779 4.27778) with tilt (0 0 0)
if "${dir} == 3" then    "change_box all z delta 0 ${delta} remap units box"
if "${dir} == 4" then    "change_box all yz delta ${delta} remap units box"
if "${dir} == 5" then    "change_box all xz delta ${delta} remap units box"
if "${dir} == 6" then    "change_box all xy delta ${delta} remap units box"

# Relax atoms positions

minimize ${etol} ${ftol} ${maxiter} ${maxeval}
minimize 0 ${ftol} ${maxiter} ${maxeval}
minimize 0 1e-10 ${maxiter} ${maxeval}
minimize 0 1e-10 100 ${maxeval}
minimize 0 1e-10 100 1000
PPPM initialization ...
  using 12-bit tables for long-range coulomb (../kspace.cpp:321)
  G vector (1/distance) = 0.35273
  grid = 8 8 8
  stencil order = 5
  estimated absolute RMS force accuracy = 4.1956e-05
  estimated relative force accuracy = 2.91368e-06
  using double precision FFTs
  3d grid and FFT values/proc = 3375 512
Neighbor list info ...
  update every 1 steps, delay 0 steps, check yes
  max neighbors/atom: 2000, page size: 100000
  master list distance cutoff = 11
  ghost atom cutoff = 11
  binsize = 5.5, bins = 1 1 1
  1 neighbor lists, perpetual/occasional/extra = 1 0 0
  (1) pair buck/coul/long, perpetual
      attributes: half, newton on
      pair build: half/bin/newton/tri
      stencil: half/bin/3d/newton/tri
      bin: standard
Per MPI rank memory allocation (min/avg/max) = 4.629 | 4.629 | 4.629 Mbytes
Step Temp PotEng Press Pxx Pyy Pzz Pxy Pxz Pyz Lx Ly Lz Volume 
     100            0    -111.9674    186393.31    186394.08    186391.77    186394.08 2.6626631e-10 9.3908253e-10 9.879429e-10     4.299065    4.2990693     4.299065    79.455226 
     101            0   -111.96741    186393.22    186393.93    186391.79    186393.93 7.1410183e-10 -1.6011098e-10 -8.5985977e-11     4.299065    4.2990693     4.299065    79.455226 
     102            0   -111.96741    186393.22    186393.93    186391.79    186393.93 7.1410183e-10 -1.6011098e-10 -8.5985977e-11     4.299065    4.2990693     4.299065    79.455226 
Loop time of 0.00200915 on 1 procs for 2 steps with 8 atoms

99.5% CPU use with 1 MPI tasks x no OpenMP threads

Minimization stats:
  Stopping criterion = linesearch alpha is zero
  Energy initial, next-to-last, final = 
        -111.967404109     -111.967409986     -111.967409986
  Force two-norm initial, final = 0.00222623 0.00012208
  Force max component initial, final = 0.000470298 2.62923e-05
  Final line search alpha, max atom move = 0.5 1.31461e-05
  Iterations, force evaluations = 2 5

MPI task timing breakdown:
Section |  min time  |  avg time  |  max time  |%varavg| %total
---------------------------------------------------------------
Pair    | 0.00097704 | 0.00097704 | 0.00097704 |   0.0 | 48.63
Kspace  | 0.00091505 | 0.00091505 | 0.00091505 |   0.0 | 45.54
Neigh   | 0          | 0          | 0          |   0.0 |  0.00
Comm    | 7.2956e-05 | 7.2956e-05 | 7.2956e-05 |   0.0 |  3.63
Output  | 1.1921e-05 | 1.1921e-05 | 1.1921e-05 |   0.0 |  0.59
Modify  | 0          | 0          | 0          |   0.0 |  0.00
Other   |            | 3.219e-05  |            |       |  1.60

Nlocal:    8 ave 8 max 8 min
Histogram: 1 0 0 0 0 0 0 0 0 0
Nghost:    2189 ave 2189 max 2189 min
Histogram: 1 0 0 0 0 0 0 0 0 0
Neighs:    2344 ave 2344 max 2344 min
Histogram: 1 0 0 0 0 0 0 0 0 0

Total # of neighbors = 2344
Ave neighs/atom = 293
Neighbor list builds = 0
Dangerous builds = 0

# Obtain new stress tensor

variable tmp equal pe
variable e1 equal ${tmp}
variable e1 equal -111.967409985856
variable tmp equal press
variable p1 equal ${tmp}
variable p1 equal 186393.217955769
variable tmp equal pxx
variable pxx1 equal ${tmp}
variable pxx1 equal 186393.933913628
variable tmp equal pyy
variable pyy1 equal ${tmp}
variable pyy1 equal 186391.786040052
variable tmp equal pzz
variable pzz1 equal ${tmp}
variable pzz1 equal 186393.933913627
variable tmp equal pxy
variable pxy1 equal ${tmp}
variable pxy1 equal 7.14101827484338e-10
variable tmp equal pxz
variable pxz1 equal ${tmp}
variable pxz1 equal -1.60110979990111e-10
variable tmp equal pyz
variable pyz1 equal ${tmp}
variable pyz1 equal -8.59859768158604e-11

# Compute elastic constant from pressure tensor

variable C1pos equal ${d1}
variable C1pos equal 274.442895301036
variable C2pos equal ${d2}
variable C2pos equal 489.230252802372
variable C3pos equal ${d3}
variable C3pos equal 274.442895399989
variable C4pos equal ${d4}
variable C4pos equal 1.0044958578585e-08
variable C5pos equal ${d5}
variable C5pos equal 5.7297911397421e-09
variable C6pos equal ${d6}
variable C6pos equal -9.50570435219153e-08

# Combine positive and negative

variable C1${dir} equal 0.5*(${C1neg}+${C1pos})
variable C12 equal 0.5*(${C1neg}+${C1pos})
variable C12 equal 0.5*(-23.8461556989932+${C1pos})
variable C12 equal 0.5*(-23.8461556989932+274.442895301036)
variable C2${dir} equal 0.5*(${C2neg}+${C2pos})
variable C22 equal 0.5*(${C2neg}+${C2pos})
variable C22 equal 0.5*(229.37816749909+${C2pos})
variable C22 equal 0.5*(229.37816749909+489.230252802372)
variable C3${dir} equal 0.5*(${C3neg}+${C3pos})
variable C32 equal 0.5*(${C3neg}+${C3pos})
variable C32 equal 0.5*(-23.8461556989932+${C3pos})
variable C32 equal 0.5*(-23.8461556989932+274.442895399989)
variable C4${dir} equal 0.5*(${C4neg}+${C4pos})
variable C42 equal 0.5*(${C4neg}+${C4pos})
variable C42 equal 0.5*(1.31077827786507e-08+${C4pos})
variable C42 equal 0.5*(1.31077827786507e-08+1.0044958578585e-08)
variable C5${dir} equal 0.5*(${C5neg}+${C5pos})
variable C52 equal 0.5*(${C5neg}+${C5pos})
variable C52 equal 0.5*(4.48813774477714e-08+${C5pos})
variable C52 equal 0.5*(4.48813774477714e-08+5.7297911397421e-09)
variable C6${dir} equal 0.5*(${C6neg}+${C6pos})
variable C62 equal 0.5*(${C6neg}+${C6pos})
variable C62 equal 0.5*(-2.1418589708959e-08+${C6pos})
variable C62 equal 0.5*(-2.1418589708959e-08+-9.50570435219153e-08)

# Delete dir to make sure it is not reused

variable dir delete
# ---- uzz Perturbation
variable dir equal 3
include displace.mod
# NOTE: This script should not need to be
# modified. See in.elastic for more info.
# Find which reference length to use

if "${dir} == 1" then    "variable len0 equal ${lx0}"
if "${dir} == 2" then    "variable len0 equal ${ly0}"
if "${dir} == 3" then    "variable len0 equal ${lz0}"
variable len0 equal ${lz0}
variable len0 equal 4.29906500000002
if "${dir} == 4" then    "variable len0 equal ${lz0}"
if "${dir} == 5" then    "variable len0 equal ${lz0}"
if "${dir} == 6" then    "variable len0 equal ${ly0}"

# Reset box and simulation parameters

clear
read_restart restart.equil remap
  triclinic box = (-0.0212825 -0.0212825 -0.0212825) to (4.27778 4.27778 4.27778) with tilt (0 0 0)
  1 by 1 by 1 MPI processor grid
  8 atoms
include potential.mod
mass 1 24.305
mass 2 15.999

group Mg type 1
4 atoms in group Mg
group O type 2
4 atoms in group O

set group Mg charge 1.7021668946670072
  4 settings made for charge
set group O charge -1.7021668946670072
  4 settings made for charge

variable R_cut equal 10.0

pair_style buck/coul/long ${R_cut}
pair_style buck/coul/long 10
pair_coeff 1 1 0.0 0.5 0.0 ${R_cut}
pair_coeff 1 1 0.0 0.5 0.0 10
pair_coeff 1 2 916.5060146451578 0.3165879285797405 0.0 ${R_cut}
pair_coeff 1 2 916.5060146451578 0.3165879285797405 0.0 10
pair_coeff 2 2 19497.471952374297 0.16852015749762614 35.9670850530772 ${R_cut}
pair_coeff 2 2 19497.471952374297 0.16852015749762614 35.9670850530772 10

kspace_style pppm 1.0e-5

neighbor 1.0 bin
neigh_modify every 1 delay 0 check yes
thermo	1
thermo_style custom step temp pe press pxx pyy pzz pxy pxz pyz lx ly lz vol
thermo_modify norm no

# Negative deformation

variable delta equal -${up}*${len0}
variable delta equal -1e-06*${len0}
variable delta equal -1e-06*4.29906500000002
if "${dir} == 1" then    "change_box all x delta 0 ${delta} remap units box"
if "${dir} == 2" then    "change_box all y delta 0 ${delta} remap units box"
if "${dir} == 3" then    "change_box all z delta 0 ${delta} remap units box"
change_box all z delta 0 ${delta} remap units box
change_box all z delta 0 -4.29906500000002e-06 remap units box
  triclinic box = (-0.0212825 -0.0212825 -0.0212825) to (4.27778 4.27778 4.27778) with tilt (0 0 0)
if "${dir} == 4" then    "change_box all yz delta ${delta} remap units box"
if "${dir} == 5" then    "change_box all xz delta ${delta} remap units box"
if "${dir} == 6" then    "change_box all xy delta ${delta} remap units box"

# Relax atoms positions

minimize ${etol} ${ftol} ${maxiter} ${maxeval}
minimize 0 ${ftol} ${maxiter} ${maxeval}
minimize 0 1e-10 ${maxiter} ${maxeval}
minimize 0 1e-10 100 ${maxeval}
minimize 0 1e-10 100 1000
PPPM initialization ...
  using 12-bit tables for long-range coulomb (../kspace.cpp:321)
  G vector (1/distance) = 0.35273
  grid = 8 8 8
  stencil order = 5
  estimated absolute RMS force accuracy = 4.19559e-05
  estimated relative force accuracy = 2.91368e-06
  using double precision FFTs
  3d grid and FFT values/proc = 3375 512
Neighbor list info ...
  update every 1 steps, delay 0 steps, check yes
  max neighbors/atom: 2000, page size: 100000
  master list distance cutoff = 11
  ghost atom cutoff = 11
  binsize = 5.5, bins = 1 1 1
  1 neighbor lists, perpetual/occasional/extra = 1 0 0
  (1) pair buck/coul/long, perpetual
      attributes: half, newton on
      pair build: half/bin/newton/tri
      stencil: half/bin/3d/newton/tri
      bin: standard
Per MPI rank memory allocation (min/avg/max) = 4.629 | 4.629 | 4.629 Mbytes
Step Temp PotEng Press Pxx Pyy Pzz Pxy Pxz Pyz Lx Ly Lz Volume 
     100            0   -111.96739    186397.29    186396.55    186396.55    186398.79 2.1539531e-10 -3.9846758e-10 -4.6416022e-10     4.299065     4.299065    4.2990607    79.455067 
     101            0   -111.96739    186397.28    186396.44    186396.44    186398.97 -3.3929273e-10 -7.2258964e-10 -5.8806298e-10     4.299065     4.299065    4.2990607    79.455067 
     102            0   -111.96739    186397.28    186396.44    186396.44    186398.97 -3.3929273e-10 -7.2258964e-10 -5.8806298e-10     4.299065     4.299065    4.2990607    79.455067 
Loop time of 0.00197387 on 1 procs for 2 steps with 8 atoms

101.3% CPU use with 1 MPI tasks x no OpenMP threads

Minimization stats:
  Stopping criterion = linesearch alpha is zero
  Energy initial, next-to-last, final = 
        -111.967390394     -111.967393102     -111.967393102
  Force two-norm initial, final = 0.00222603 0.000124916
  Force max component initial, final = 0.000470741 2.63622e-05
  Final line search alpha, max atom move = 0.5 1.31811e-05
  Iterations, force evaluations = 2 5

MPI task timing breakdown:
Section |  min time  |  avg time  |  max time  |%varavg| %total
---------------------------------------------------------------
Pair    | 0.00098205 | 0.00098205 | 0.00098205 |   0.0 | 49.75
Kspace  | 0.0008769  | 0.0008769  | 0.0008769  |   0.0 | 44.43
Neigh   | 0          | 0          | 0          |   0.0 |  0.00
Comm    | 7.534e-05  | 7.534e-05  | 7.534e-05  |   0.0 |  3.82
Output  | 1.0967e-05 | 1.0967e-05 | 1.0967e-05 |   0.0 |  0.56
Modify  | 0          | 0          | 0          |   0.0 |  0.00
Other   |            | 2.861e-05  |            |       |  1.45

Nlocal:    8 ave 8 max 8 min
Histogram: 1 0 0 0 0 0 0 0 0 0
Nghost:    2189 ave 2189 max 2189 min
Histogram: 1 0 0 0 0 0 0 0 0 0
Neighs:    2344 ave 2344 max 2344 min
Histogram: 1 0 0 0 0 0 0 0 0 0

Total # of neighbors = 2344
Ave neighs/atom = 293
Neighbor list builds = 0
Dangerous builds = 0

# Obtain new stress tensor

variable tmp equal pxx
variable pxx1 equal ${tmp}
variable pxx1 equal 186396.439881024
variable tmp equal pyy
variable pyy1 equal ${tmp}
variable pyy1 equal 186396.439881024
variable tmp equal pzz
variable pzz1 equal ${tmp}
variable pzz1 equal 186398.972124253
variable tmp equal pxy
variable pxy1 equal ${tmp}
variable pxy1 equal -3.39292726401236e-10
variable tmp equal pxz
variable pxz1 equal ${tmp}
variable pxz1 equal -7.22589644090329e-10
variable tmp equal pyz
variable pyz1 equal ${tmp}
variable pyz1 equal -5.88062977507489e-10

# Compute elastic constant from pressure tensor

variable C1neg equal ${d1}
variable C1neg equal -23.8461556989932
variable C2neg equal ${d2}
variable C2neg equal -23.8461556000402
variable C3neg equal ${d3}
variable C3neg equal 229.37816719932
variable C4neg equal ${d4}
variable C4neg equal -6.02526586477478e-08
variable C5neg equal ${d5}
variable C5neg equal -6.19776575497639e-08
variable C6neg equal ${d6}
variable C6neg equal -1.02824118666421e-08

# Reset box and simulation parameters

clear
read_restart restart.equil remap
  triclinic box = (-0.0212825 -0.0212825 -0.0212825) to (4.27778 4.27778 4.27778) with tilt (0 0 0)
  1 by 1 by 1 MPI processor grid
  8 atoms
include potential.mod
mass 1 24.305
mass 2 15.999

group Mg type 1
4 atoms in group Mg
group O type 2
4 atoms in group O

set group Mg charge 1.7021668946670072
  4 settings made for charge
set group O charge -1.7021668946670072
  4 settings made for charge

variable R_cut equal 10.0

pair_style buck/coul/long ${R_cut}
pair_style buck/coul/long 10
pair_coeff 1 1 0.0 0.5 0.0 ${R_cut}
pair_coeff 1 1 0.0 0.5 0.0 10
pair_coeff 1 2 916.5060146451578 0.3165879285797405 0.0 ${R_cut}
pair_coeff 1 2 916.5060146451578 0.3165879285797405 0.0 10
pair_coeff 2 2 19497.471952374297 0.16852015749762614 35.9670850530772 ${R_cut}
pair_coeff 2 2 19497.471952374297 0.16852015749762614 35.9670850530772 10

kspace_style pppm 1.0e-5

neighbor 1.0 bin
neigh_modify every 1 delay 0 check yes
thermo	1
thermo_style custom step temp pe press pxx pyy pzz pxy pxz pyz lx ly lz vol
thermo_modify norm no

# Positive deformation

variable delta equal ${up}*${len0}
variable delta equal 1e-06*${len0}
variable delta equal 1e-06*4.29906500000002
if "${dir} == 1" then    "change_box all x delta 0 ${delta} remap units box"
if "${dir} == 2" then    "change_box all y delta 0 ${delta} remap units box"
if "${dir} == 3" then    "change_box all z delta 0 ${delta} remap units box"
change_box all z delta 0 ${delta} remap units box
change_box all z delta 0 4.29906500000002e-06 remap units box
  triclinic box = (-0.0212825 -0.0212825 -0.0212825) to (4.27778 4.27778 4.27779) with tilt (0 0 0)
if "${dir} == 4" then    "change_box all yz delta ${delta} remap units box"
if "${dir} == 5" then    "change_box all xz delta ${delta} remap units box"
if "${dir} == 6" then    "change_box all xy delta ${delta} remap units box"

# Relax atoms positions

minimize ${etol} ${ftol} ${maxiter} ${maxeval}
minimize 0 ${ftol} ${maxiter} ${maxeval}
minimize 0 1e-10 ${maxiter} ${maxeval}
minimize 0 1e-10 100 ${maxeval}
minimize 0 1e-10 100 1000
PPPM initialization ...
  using 12-bit tables for long-range coulomb (../kspace.cpp:321)
  G vector (1/distance) = 0.35273
  grid = 8 8 8
  stencil order = 5
  estimated absolute RMS force accuracy = 4.1956e-05
  estimated relative force accuracy = 2.91368e-06
  using double precision FFTs
  3d grid and FFT values/proc = 3375 512
Neighbor list info ...
  update every 1 steps, delay 0 steps, check yes
  max neighbors/atom: 2000, page size: 100000
  master list distance cutoff = 11
  ghost atom cutoff = 11
  binsize = 5.5, bins = 1 1 1
  1 neighbor lists, perpetual/occasional/extra = 1 0 0
  (1) pair buck/coul/long, perpetual
      attributes: half, newton on
      pair build: half/bin/newton/tri
      stencil: half/bin/3d/newton/tri
      bin: standard
Per MPI rank memory allocation (min/avg/max) = 4.629 | 4.629 | 4.629 Mbytes
Step Temp PotEng Press Pxx Pyy Pzz Pxy Pxz Pyz Lx Ly Lz Volume 
     100            0    -111.9674    186393.31    186394.08    186394.08    186391.77 -4.5900417e-10 1.0308991e-09 1.058902e-09     4.299065     4.299065    4.2990693    79.455226 
     101            0   -111.96741    186393.22    186393.93    186393.93    186391.79 -2.7591301e-10 1.285079e-09 1.5190914e-09     4.299065     4.299065    4.2990693    79.455226 
     102            0   -111.96741    186393.22    186393.93    186393.93    186391.79 -2.7591301e-10 1.285079e-09 1.5190914e-09     4.299065     4.299065    4.2990693    79.455226 
Loop time of 0.00200796 on 1 procs for 2 steps with 8 atoms

99.6% CPU use with 1 MPI tasks x no OpenMP threads

Minimization stats:
  Stopping criterion = linesearch alpha is zero
  Energy initial, next-to-last, final = 
        -111.967404109     -111.967409986     -111.967409986
  Force two-norm initial, final = 0.00222623 0.00012208
  Force max component initial, final = 0.000470298 2.62923e-05
  Final line search alpha, max atom move = 0.5 1.31461e-05
  Iterations, force evaluations = 2 5

MPI task timing breakdown:
Section |  min time  |  avg time  |  max time  |%varavg| %total
---------------------------------------------------------------
Pair    | 0.00097513 | 0.00097513 | 0.00097513 |   0.0 | 48.56
Kspace  | 0.00091696 | 0.00091696 | 0.00091696 |   0.0 | 45.67
Neigh   | 0          | 0          | 0          |   0.0 |  0.00
Comm    | 7.7248e-05 | 7.7248e-05 | 7.7248e-05 |   0.0 |  3.85
Output  | 1.1206e-05 | 1.1206e-05 | 1.1206e-05 |   0.0 |  0.56
Modify  | 0          | 0          | 0          |   0.0 |  0.00
Other   |            | 2.742e-05  |            |       |  1.37

Nlocal:    8 ave 8 max 8 min
Histogram: 1 0 0 0 0 0 0 0 0 0
Nghost:    2189 ave 2189 max 2189 min
Histogram: 1 0 0 0 0 0 0 0 0 0
Neighs:    2344 ave 2344 max 2344 min
Histogram: 1 0 0 0 0 0 0 0 0 0

Total # of neighbors = 2344
Ave neighs/atom = 293
Neighbor list builds = 0
Dangerous builds = 0

# Obtain new stress tensor

variable tmp equal pe
variable e1 equal ${tmp}
variable e1 equal -111.967409985856
variable tmp equal press
variable p1 equal ${tmp}
variable p1 equal 186393.217955769
variable tmp equal pxx
variable pxx1 equal ${tmp}
variable pxx1 equal 186393.933913628
variable tmp equal pyy
variable pyy1 equal ${tmp}
variable pyy1 equal 186393.933913626
variable tmp equal pzz
variable pzz1 equal ${tmp}
variable pzz1 equal 186391.786040054
variable tmp equal pxy
variable pxy1 equal ${tmp}
variable pxy1 equal -2.75913006232731e-10
variable tmp equal pxz
variable pxz1 equal ${tmp}
variable pxz1 equal 1.28507900551206e-09
variable tmp equal pyz
variable pyz1 equal ${tmp}
variable pyz1 equal 1.5190914372e-09

# Compute elastic constant from pressure tensor

variable C1pos equal ${d1}
variable C1pos equal 274.442895301036
variable C2pos equal ${d2}
variable C2pos equal 274.442895399989
variable C3pos equal ${d3}
variable C3pos equal 489.230252700509
variable C4pos equal ${d4}
variable C4pos equal -1.50462782823001e-07
variable C5pos equal ${d5}
variable C5pos equal -1.38789207410475e-07
variable C6pos equal ${d6}
variable C6pos equal 3.9444398497916e-09

# Combine positive and negative

variable C1${dir} equal 0.5*(${C1neg}+${C1pos})
variable C13 equal 0.5*(${C1neg}+${C1pos})
variable C13 equal 0.5*(-23.8461556989932+${C1pos})
variable C13 equal 0.5*(-23.8461556989932+274.442895301036)
variable C2${dir} equal 0.5*(${C2neg}+${C2pos})
variable C23 equal 0.5*(${C2neg}+${C2pos})
variable C23 equal 0.5*(-23.8461556000402+${C2pos})
variable C23 equal 0.5*(-23.8461556000402+274.442895399989)
variable C3${dir} equal 0.5*(${C3neg}+${C3pos})
variable C33 equal 0.5*(${C3neg}+${C3pos})
variable C33 equal 0.5*(229.37816719932+${C3pos})
variable C33 equal 0.5*(229.37816719932+489.230252700509)
variable C4${dir} equal 0.5*(${C4neg}+${C4pos})
variable C43 equal 0.5*(${C4neg}+${C4pos})
variable C43 equal 0.5*(-6.02526586477478e-08+${C4pos})
variable C43 equal 0.5*(-6.02526586477478e-08+-1.50462782823001e-07)
variable C5${dir} equal 0.5*(${C5neg}+${C5pos})
variable C53 equal 0.5*(${C5neg}+${C5pos})
variable C53 equal 0.5*(-6.19776575497639e-08+${C5pos})
variable C53 equal 0.5*(-6.19776575497639e-08+-1.38789207410475e-07)
variable C6${dir} equal 0.5*(${C6neg}+${C6pos})
variable C63 equal 0.5*(${C6neg}+${C6pos})
variable C63 equal 0.5*(-1.02824118666421e-08+${C6pos})
variable C63 equal 0.5*(-1.02824118666421e-08+3.9444398497916e-09)

# Delete dir to make sure it is not reused

variable dir delete
# ---- uyz Perturbation
variable dir equal 4
include displace.mod
# NOTE: This script should not need to be
# modified. See in.elastic for more info.
# Find which reference length to use

if "${dir} == 1" then    "variable len0 equal ${lx0}"
if "${dir} == 2" then    "variable len0 equal ${ly0}"
if "${dir} == 3" then    "variable len0 equal ${lz0}"
if "${dir} == 4" then    "variable len0 equal ${lz0}"
variable len0 equal ${lz0}
variable len0 equal 4.29906500000002
if "${dir} == 5" then    "variable len0 equal ${lz0}"
if "${dir} == 6" then    "variable len0 equal ${ly0}"

# Reset box and simulation parameters

clear
read_restart restart.equil remap
  triclinic box = (-0.0212825 -0.0212825 -0.0212825) to (4.27778 4.27778 4.27778) with tilt (0 0 0)
  1 by 1 by 1 MPI processor grid
  8 atoms
include potential.mod
mass 1 24.305
mass 2 15.999

group Mg type 1
4 atoms in group Mg
group O type 2
4 atoms in group O

set group Mg charge 1.7021668946670072
  4 settings made for charge
set group O charge -1.7021668946670072
  4 settings made for charge

variable R_cut equal 10.0

pair_style buck/coul/long ${R_cut}
pair_style buck/coul/long 10
pair_coeff 1 1 0.0 0.5 0.0 ${R_cut}
pair_coeff 1 1 0.0 0.5 0.0 10
pair_coeff 1 2 916.5060146451578 0.3165879285797405 0.0 ${R_cut}
pair_coeff 1 2 916.5060146451578 0.3165879285797405 0.0 10
pair_coeff 2 2 19497.471952374297 0.16852015749762614 35.9670850530772 ${R_cut}
pair_coeff 2 2 19497.471952374297 0.16852015749762614 35.9670850530772 10

kspace_style pppm 1.0e-5

neighbor 1.0 bin
neigh_modify every 1 delay 0 check yes
thermo	1
thermo_style custom step temp pe press pxx pyy pzz pxy pxz pyz lx ly lz vol
thermo_modify norm no

# Negative deformation

variable delta equal -${up}*${len0}
variable delta equal -1e-06*${len0}
variable delta equal -1e-06*4.29906500000002
if "${dir} == 1" then    "change_box all x delta 0 ${delta} remap units box"
if "${dir} == 2" then    "change_box all y delta 0 ${delta} remap units box"
if "${dir} == 3" then    "change_box all z delta 0 ${delta} remap units box"
if "${dir} == 4" then    "change_box all yz delta ${delta} remap units box"
change_box all yz delta ${delta} remap units box
change_box all yz delta -4.29906500000002e-06 remap units box
  triclinic box = (-0.0212825 -0.0212825 -0.0212825) to (4.27778 4.27778 4.27778) with tilt (0 0 -4.29907e-06)
if "${dir} == 5" then    "change_box all xz delta ${delta} remap units box"
if "${dir} == 6" then    "change_box all xy delta ${delta} remap units box"

# Relax atoms positions

minimize ${etol} ${ftol} ${maxiter} ${maxeval}
minimize 0 ${ftol} ${maxiter} ${maxeval}
minimize 0 1e-10 ${maxiter} ${maxeval}
minimize 0 1e-10 100 ${maxeval}
minimize 0 1e-10 100 1000
PPPM initialization ...
  using 12-bit tables for long-range coulomb (../kspace.cpp:321)
  G vector (1/distance) = 0.35273
  grid = 8 8 8
  stencil order = 5
  estimated absolute RMS force accuracy = 4.19559e-05
  estimated relative force accuracy = 2.91368e-06
  using double precision FFTs
  3d grid and FFT values/proc = 3375 512
Neighbor list info ...
  update every 1 steps, delay 0 steps, check yes
  max neighbors/atom: 2000, page size: 100000
  master list distance cutoff = 11
  ghost atom cutoff = 11
  binsize = 5.5, bins = 1 1 1
  1 neighbor lists, perpetual/occasional/extra = 1 0 0
  (1) pair buck/coul/long, perpetual
      attributes: half, newton on
      pair build: half/bin/newton/tri
      stencil: half/bin/3d/newton/tri
      bin: standard
Per MPI rank memory allocation (min/avg/max) = 4.629 | 4.629 | 4.629 Mbytes
Step Temp PotEng Press Pxx Pyy Pzz Pxy Pxz Pyz Lx Ly Lz Volume 
     100            0    -111.9674    186395.31    186395.29    186395.33    186395.33 -7.1088735e-10 -2.1678174e-10   0.85123648     4.299065     4.299065     4.299065    79.455147 
     101            0   -111.96741    186395.19    186395.17     186395.2     186395.2 -4.5418659e-11 -4.5598848e-10    0.8753537     4.299065     4.299065     4.299065    79.455147 
     102            0   -111.96741    186395.19    186395.17     186395.2     186395.2 6.4381389e-11 -6.736397e-10    0.8753537     4.299065     4.299065     4.299065    79.455147 
Loop time of 0.00193906 on 1 procs for 2 steps with 8 atoms

103.1% CPU use with 1 MPI tasks x no OpenMP threads

Minimization stats:
  Stopping criterion = linesearch alpha is zero
  Energy initial, next-to-last, final = 
         -111.96739516     -111.967405386     -111.967405386
  Force two-norm initial, final = 0.00222615 0.000122783
  Force max component initial, final = 0.000470474 2.60172e-05
  Final line search alpha, max atom move = 0.5 1.30086e-05
  Iterations, force evaluations = 2 5

MPI task timing breakdown:
Section |  min time  |  avg time  |  max time  |%varavg| %total
---------------------------------------------------------------
Pair    | 0.00097895 | 0.00097895 | 0.00097895 |   0.0 | 50.49
Kspace  | 0.00084043 | 0.00084043 | 0.00084043 |   0.0 | 43.34
Neigh   | 0          | 0          | 0          |   0.0 |  0.00
Comm    | 7.9632e-05 | 7.9632e-05 | 7.9632e-05 |   0.0 |  4.11
Output  | 1.2159e-05 | 1.2159e-05 | 1.2159e-05 |   0.0 |  0.63
Modify  | 0          | 0          | 0          |   0.0 |  0.00
Other   |            | 2.789e-05  |            |       |  1.44

Nlocal:    8 ave 8 max 8 min
Histogram: 1 0 0 0 0 0 0 0 0 0
Nghost:    2189 ave 2189 max 2189 min
Histogram: 1 0 0 0 0 0 0 0 0 0
Neighs:    2344 ave 2344 max 2344 min
Histogram: 1 0 0 0 0 0 0 0 0 0

Total # of neighbors = 2344
Ave neighs/atom = 293
Neighbor list builds = 0
Dangerous builds = 0

# Obtain new stress tensor

variable tmp equal pxx
variable pxx1 equal ${tmp}
variable pxx1 equal 186395.170151741
variable tmp equal pyy
variable pyy1 equal ${tmp}
variable pyy1 equal 186395.198833018
variable tmp equal pzz
variable pzz1 equal ${tmp}
variable pzz1 equal 186395.198832373
variable tmp equal pxy
variable pxy1 equal ${tmp}
variable pxy1 equal 6.43813886030278e-11
variable tmp equal pxz
variable pxz1 equal ${tmp}
variable pxz1 equal -6.73639697514697e-10
variable tmp equal pyz
variable pyz1 equal ${tmp}
variable pyz1 equal 0.875353695352632

# Compute elastic constant from pressure tensor

variable C1neg equal ${d1}
variable C1neg equal -150.819083998795
variable C2neg equal ${d2}
variable C2neg equal -147.950956202112
variable C3neg equal ${d3}
variable C3neg equal -147.951020800974
variable C4neg equal ${d4}
variable C4neg equal 87.5353695338168
variable C5neg equal ${d5}
variable C5neg equal -5.70826628922007e-08
variable C6neg equal ${d6}
variable C6neg equal 3.00849996337843e-08

# Reset box and simulation parameters

clear
read_restart restart.equil remap
  triclinic box = (-0.0212825 -0.0212825 -0.0212825) to (4.27778 4.27778 4.27778) with tilt (0 0 0)
  1 by 1 by 1 MPI processor grid
  8 atoms
include potential.mod
mass 1 24.305
mass 2 15.999

group Mg type 1
4 atoms in group Mg
group O type 2
4 atoms in group O

set group Mg charge 1.7021668946670072
  4 settings made for charge
set group O charge -1.7021668946670072
  4 settings made for charge

variable R_cut equal 10.0

pair_style buck/coul/long ${R_cut}
pair_style buck/coul/long 10
pair_coeff 1 1 0.0 0.5 0.0 ${R_cut}
pair_coeff 1 1 0.0 0.5 0.0 10
pair_coeff 1 2 916.5060146451578 0.3165879285797405 0.0 ${R_cut}
pair_coeff 1 2 916.5060146451578 0.3165879285797405 0.0 10
pair_coeff 2 2 19497.471952374297 0.16852015749762614 35.9670850530772 ${R_cut}
pair_coeff 2 2 19497.471952374297 0.16852015749762614 35.9670850530772 10

kspace_style pppm 1.0e-5

neighbor 1.0 bin
neigh_modify every 1 delay 0 check yes
thermo	1
thermo_style custom step temp pe press pxx pyy pzz pxy pxz pyz lx ly lz vol
thermo_modify norm no

# Positive deformation

variable delta equal ${up}*${len0}
variable delta equal 1e-06*${len0}
variable delta equal 1e-06*4.29906500000002
if "${dir} == 1" then    "change_box all x delta 0 ${delta} remap units box"
if "${dir} == 2" then    "change_box all y delta 0 ${delta} remap units box"
if "${dir} == 3" then    "change_box all z delta 0 ${delta} remap units box"
if "${dir} == 4" then    "change_box all yz delta ${delta} remap units box"
change_box all yz delta ${delta} remap units box
change_box all yz delta 4.29906500000002e-06 remap units box
  triclinic box = (-0.0212825 -0.0212825 -0.0212825) to (4.27778 4.27778 4.27778) with tilt (0 0 4.29907e-06)
if "${dir} == 5" then    "change_box all xz delta ${delta} remap units box"
if "${dir} == 6" then    "change_box all xy delta ${delta} remap units box"

# Relax atoms positions

minimize ${etol} ${ftol} ${maxiter} ${maxeval}
minimize 0 ${ftol} ${maxiter} ${maxeval}
minimize 0 1e-10 ${maxiter} ${maxeval}
minimize 0 1e-10 100 ${maxeval}
minimize 0 1e-10 100 1000
PPPM initialization ...
  using 12-bit tables for long-range coulomb (../kspace.cpp:321)
  G vector (1/distance) = 0.35273
  grid = 8 8 8
  stencil order = 5
  estimated absolute RMS force accuracy = 4.1956e-05
  estimated relative force accuracy = 2.91368e-06
  using double precision FFTs
  3d grid and FFT values/proc = 3375 512
Neighbor list info ...
  update every 1 steps, delay 0 steps, check yes
  max neighbors/atom: 2000, page size: 100000
  master list distance cutoff = 11
  ghost atom cutoff = 11
  binsize = 5.5, bins = 1 1 1
  1 neighbor lists, perpetual/occasional/extra = 1 0 0
  (1) pair buck/coul/long, perpetual
      attributes: half, newton on
      pair build: half/bin/newton/tri
      stencil: half/bin/3d/newton/tri
      bin: standard
Per MPI rank memory allocation (min/avg/max) = 4.629 | 4.629 | 4.629 Mbytes
Step Temp PotEng Press Pxx Pyy Pzz Pxy Pxz Pyz Lx Ly Lz Volume 
     100            0    -111.9674    186395.31    186395.29    186395.33    186395.33 -9.0334806e-10 -4.3825453e-11  -0.85123648     4.299065     4.299065     4.299065    79.455147 
     101            0   -111.96741    186395.19    186395.17     186395.2     186395.2 1.5603082e-09 -2.8029931e-10  -0.87535369     4.299065     4.299065     4.299065    79.455147 
     102            0   -111.96741    186395.19    186395.17     186395.2     186395.2 1.1402352e-09 -2.0262892e-10  -0.87535369     4.299065     4.299065     4.299065    79.455147 
Loop time of 0.00201702 on 1 procs for 2 steps with 8 atoms

99.2% CPU use with 1 MPI tasks x no OpenMP threads

Minimization stats:
  Stopping criterion = linesearch alpha is zero
  Energy initial, next-to-last, final = 
        -111.967395161     -111.967405387     -111.967405387
  Force two-norm initial, final = 0.00222615 0.000122783
  Force max component initial, final = 0.000470474 2.60172e-05
  Final line search alpha, max atom move = 0.5 1.30086e-05
  Iterations, force evaluations = 2 5

MPI task timing breakdown:
Section |  min time  |  avg time  |  max time  |%varavg| %total
---------------------------------------------------------------
Pair    | 0.00099993 | 0.00099993 | 0.00099993 |   0.0 | 49.57
Kspace  | 0.00090098 | 0.00090098 | 0.00090098 |   0.0 | 44.67
Neigh   | 0          | 0          | 0          |   0.0 |  0.00
Comm    | 7.4148e-05 | 7.4148e-05 | 7.4148e-05 |   0.0 |  3.68
Output  | 1.1921e-05 | 1.1921e-05 | 1.1921e-05 |   0.0 |  0.59
Modify  | 0          | 0          | 0          |   0.0 |  0.00
Other   |            | 3.004e-05  |            |       |  1.49

Nlocal:    8 ave 8 max 8 min
Histogram: 1 0 0 0 0 0 0 0 0 0
Nghost:    2189 ave 2189 max 2189 min
Histogram: 1 0 0 0 0 0 0 0 0 0
Neighs:    2344 ave 2344 max 2344 min
Histogram: 1 0 0 0 0 0 0 0 0 0

Total # of neighbors = 2344
Ave neighs/atom = 293
Neighbor list builds = 0
Dangerous builds = 0

# Obtain new stress tensor

variable tmp equal pe
variable e1 equal ${tmp}
variable e1 equal -111.96740538664
variable tmp equal press
variable p1 equal ${tmp}
variable p1 equal 186395.189196398
variable tmp equal pxx
variable pxx1 equal ${tmp}
variable pxx1 equal 186395.170075761
variable tmp equal pyy
variable pyy1 equal ${tmp}
variable pyy1 equal 186395.198757038
variable tmp equal pzz
variable pzz1 equal ${tmp}
variable pzz1 equal 186395.198756394
variable tmp equal pxy
variable pxy1 equal ${tmp}
variable pxy1 equal 1.14023524066213e-09
variable tmp equal pxz
variable pxz1 equal ${tmp}
variable pxz1 equal -2.02628917013158e-10
variable tmp equal pyz
variable pyz1 equal ${tmp}
variable pyz1 equal -0.875353694477753

# Compute elastic constant from pressure tensor

variable C1pos equal ${d1}
variable C1pos equal 150.826681999024
variable C2pos equal ${d2}
variable C2pos equal 147.958554202341
variable C3pos equal ${d3}
variable C3pos equal 147.95861869934
variable C4pos equal ${d4}
variable C4pos equal 87.5353694492217
variable C5pos equal ${d5}
variable C5pos equal 9.9815848420468e-09
variable C6pos equal ${d6}
variable C6pos equal -1.37670384839695e-07

# Combine positive and negative

variable C1${dir} equal 0.5*(${C1neg}+${C1pos})
variable C14 equal 0.5*(${C1neg}+${C1pos})
variable C14 equal 0.5*(-150.819083998795+${C1pos})
variable C14 equal 0.5*(-150.819083998795+150.826681999024)
variable C2${dir} equal 0.5*(${C2neg}+${C2pos})
variable C24 equal 0.5*(${C2neg}+${C2pos})
variable C24 equal 0.5*(-147.950956202112+${C2pos})
variable C24 equal 0.5*(-147.950956202112+147.958554202341)
variable C3${dir} equal 0.5*(${C3neg}+${C3pos})
variable C34 equal 0.5*(${C3neg}+${C3pos})
variable C34 equal 0.5*(-147.951020800974+${C3pos})
variable C34 equal 0.5*(-147.951020800974+147.95861869934)
variable C4${dir} equal 0.5*(${C4neg}+${C4pos})
variable C44 equal 0.5*(${C4neg}+${C4pos})
variable C44 equal 0.5*(87.5353695338168+${C4pos})
variable C44 equal 0.5*(87.5353695338168+87.5353694492217)
variable C5${dir} equal 0.5*(${C5neg}+${C5pos})
variable C54 equal 0.5*(${C5neg}+${C5pos})
variable C54 equal 0.5*(-5.70826628922007e-08+${C5pos})
variable C54 equal 0.5*(-5.70826628922007e-08+9.9815848420468e-09)
variable C6${dir} equal 0.5*(${C6neg}+${C6pos})
variable C64 equal 0.5*(${C6neg}+${C6pos})
variable C64 equal 0.5*(3.00849996337843e-08+${C6pos})
variable C64 equal 0.5*(3.00849996337843e-08+-1.37670384839695e-07)

# Delete dir to make sure it is not reused

variable dir delete
# ---- uxz Perturbation
variable dir equal 5
include displace.mod
# NOTE: This script should not need to be
# modified. See in.elastic for more info.
# Find which reference length to use

if "${dir} == 1" then    "variable len0 equal ${lx0}"
if "${dir} == 2" then    "variable len0 equal ${ly0}"
if "${dir} == 3" then    "variable len0 equal ${lz0}"
if "${dir} == 4" then    "variable len0 equal ${lz0}"
if "${dir} == 5" then    "variable len0 equal ${lz0}"
variable len0 equal ${lz0}
variable len0 equal 4.29906500000002
if "${dir} == 6" then    "variable len0 equal ${ly0}"

# Reset box and simulation parameters

clear
read_restart restart.equil remap
  triclinic box = (-0.0212825 -0.0212825 -0.0212825) to (4.27778 4.27778 4.27778) with tilt (0 0 0)
  1 by 1 by 1 MPI processor grid
  8 atoms
include potential.mod
mass 1 24.305
mass 2 15.999

group Mg type 1
4 atoms in group Mg
group O type 2
4 atoms in group O

set group Mg charge 1.7021668946670072
  4 settings made for charge
set group O charge -1.7021668946670072
  4 settings made for charge

variable R_cut equal 10.0

pair_style buck/coul/long ${R_cut}
pair_style buck/coul/long 10
pair_coeff 1 1 0.0 0.5 0.0 ${R_cut}
pair_coeff 1 1 0.0 0.5 0.0 10
pair_coeff 1 2 916.5060146451578 0.3165879285797405 0.0 ${R_cut}
pair_coeff 1 2 916.5060146451578 0.3165879285797405 0.0 10
pair_coeff 2 2 19497.471952374297 0.16852015749762614 35.9670850530772 ${R_cut}
pair_coeff 2 2 19497.471952374297 0.16852015749762614 35.9670850530772 10

kspace_style pppm 1.0e-5

neighbor 1.0 bin
neigh_modify every 1 delay 0 check yes
thermo	1
thermo_style custom step temp pe press pxx pyy pzz pxy pxz pyz lx ly lz vol
thermo_modify norm no

# Negative deformation

variable delta equal -${up}*${len0}
variable delta equal -1e-06*${len0}
variable delta equal -1e-06*4.29906500000002
if "${dir} == 1" then    "change_box all x delta 0 ${delta} remap units box"
if "${dir} == 2" then    "change_box all y delta 0 ${delta} remap units box"
if "${dir} == 3" then    "change_box all z delta 0 ${delta} remap units box"
if "${dir} == 4" then    "change_box all yz delta ${delta} remap units box"
if "${dir} == 5" then    "change_box all xz delta ${delta} remap units box"
change_box all xz delta ${delta} remap units box
change_box all xz delta -4.29906500000002e-06 remap units box
  triclinic box = (-0.0212825 -0.0212825 -0.0212825) to (4.27778 4.27778 4.27778) with tilt (0 -4.29907e-06 0)
if "${dir} == 6" then    "change_box all xy delta ${delta} remap units box"

# Relax atoms positions

minimize ${etol} ${ftol} ${maxiter} ${maxeval}
minimize 0 ${ftol} ${maxiter} ${maxeval}
minimize 0 1e-10 ${maxiter} ${maxeval}
minimize 0 1e-10 100 ${maxeval}
minimize 0 1e-10 100 1000
PPPM initialization ...
  using 12-bit tables for long-range coulomb (../kspace.cpp:321)
  G vector (1/distance) = 0.35273
  grid = 8 8 8
  stencil order = 5
  estimated absolute RMS force accuracy = 4.19559e-05
  estimated relative force accuracy = 2.91368e-06
  using double precision FFTs
  3d grid and FFT values/proc = 3375 512
Neighbor list info ...
  update every 1 steps, delay 0 steps, check yes
  max neighbors/atom: 2000, page size: 100000
  master list distance cutoff = 11
  ghost atom cutoff = 11
  binsize = 5.5, bins = 1 1 1
  1 neighbor lists, perpetual/occasional/extra = 1 0 0
  (1) pair buck/coul/long, perpetual
      attributes: half, newton on
      pair build: half/bin/newton/tri
      stencil: half/bin/3d/newton/tri
      bin: standard
Per MPI rank memory allocation (min/avg/max) = 4.629 | 4.629 | 4.629 Mbytes
Step Temp PotEng Press Pxx Pyy Pzz Pxy Pxz Pyz Lx Ly Lz Volume 
     100            0    -111.9674    186395.31    186395.33    186395.29    186395.33 -2.8262773e-10   0.85123648 -2.0461362e-10     4.299065     4.299065     4.299065    79.455147 
     101            0   -111.96741    186395.19     186395.2    186395.17     186395.2 -2.5871779e-10    0.8753537 -3.0920981e-10     4.299065     4.299065     4.299065    79.455147 
     102            0   -111.96741    186395.19     186395.2    186395.17     186395.2 -5.6515539e-10    0.8753537 -5.9434738e-10     4.299065     4.299065     4.299065    79.455147 
Loop time of 0.00193191 on 1 procs for 2 steps with 8 atoms

51.8% CPU use with 1 MPI tasks x no OpenMP threads

Minimization stats:
  Stopping criterion = linesearch alpha is zero
  Energy initial, next-to-last, final = 
         -111.96739516     -111.967405386     -111.967405386
  Force two-norm initial, final = 0.00222615 0.000122783
  Force max component initial, final = 0.000470474 2.60172e-05
  Final line search alpha, max atom move = 0.5 1.30086e-05
  Iterations, force evaluations = 2 5

MPI task timing breakdown:
Section |  min time  |  avg time  |  max time  |%varavg| %total
---------------------------------------------------------------
Pair    | 0.00097632 | 0.00097632 | 0.00097632 |   0.0 | 50.54
Kspace  | 0.00083971 | 0.00083971 | 0.00083971 |   0.0 | 43.47
Neigh   | 0          | 0          | 0          |   0.0 |  0.00
Comm    | 7.6056e-05 | 7.6056e-05 | 7.6056e-05 |   0.0 |  3.94
Output  | 1.0967e-05 | 1.0967e-05 | 1.0967e-05 |   0.0 |  0.57
Modify  | 0          | 0          | 0          |   0.0 |  0.00
Other   |            | 2.885e-05  |            |       |  1.49

Nlocal:    8 ave 8 max 8 min
Histogram: 1 0 0 0 0 0 0 0 0 0
Nghost:    2189 ave 2189 max 2189 min
Histogram: 1 0 0 0 0 0 0 0 0 0
Neighs:    2344 ave 2344 max 2344 min
Histogram: 1 0 0 0 0 0 0 0 0 0

Total # of neighbors = 2344
Ave neighs/atom = 293
Neighbor list builds = 0
Dangerous builds = 0

# Obtain new stress tensor

variable tmp equal pxx
variable pxx1 equal ${tmp}
variable pxx1 equal 186395.198833017
variable tmp equal pyy
variable pyy1 equal ${tmp}
variable pyy1 equal 186395.17015174
variable tmp equal pzz
variable pzz1 equal ${tmp}
variable pzz1 equal 186395.198832373
variable tmp equal pxy
variable pxy1 equal ${tmp}
variable pxy1 equal -5.65155387800485e-10
variable tmp equal pxz
variable pxz1 equal ${tmp}
variable pxz1 equal 0.875353695224717
variable tmp equal pyz
variable pyz1 equal ${tmp}
variable pyz1 equal -5.94347377944517e-10

# Compute elastic constant from pressure tensor

variable C1neg equal ${d1}
variable C1neg equal -147.950956400018
variable C2neg equal ${d2}
variable C2neg equal -150.819084001705
variable C3neg equal ${d3}
variable C3neg equal -147.951020800974
variable C4neg equal ${d4}
variable C4neg equal -6.08810986914506e-08
variable C5neg equal ${d5}
variable C5neg equal 87.535369532753
variable C6neg equal ${d6}
variable C6neg equal -3.2868678006567e-08

# Reset box and simulation parameters

clear
read_restart restart.equil remap
  triclinic box = (-0.0212825 -0.0212825 -0.0212825) to (4.27778 4.27778 4.27778) with tilt (0 0 0)
  1 by 1 by 1 MPI processor grid
  8 atoms
include potential.mod
mass 1 24.305
mass 2 15.999

group Mg type 1
4 atoms in group Mg
group O type 2
4 atoms in group O

set group Mg charge 1.7021668946670072
  4 settings made for charge
set group O charge -1.7021668946670072
  4 settings made for charge

variable R_cut equal 10.0

pair_style buck/coul/long ${R_cut}
pair_style buck/coul/long 10
pair_coeff 1 1 0.0 0.5 0.0 ${R_cut}
pair_coeff 1 1 0.0 0.5 0.0 10
pair_coeff 1 2 916.5060146451578 0.3165879285797405 0.0 ${R_cut}
pair_coeff 1 2 916.5060146451578 0.3165879285797405 0.0 10
pair_coeff 2 2 19497.471952374297 0.16852015749762614 35.9670850530772 ${R_cut}
pair_coeff 2 2 19497.471952374297 0.16852015749762614 35.9670850530772 10

kspace_style pppm 1.0e-5

neighbor 1.0 bin
neigh_modify every 1 delay 0 check yes
thermo	1
thermo_style custom step temp pe press pxx pyy pzz pxy pxz pyz lx ly lz vol
thermo_modify norm no

# Positive deformation

variable delta equal ${up}*${len0}
variable delta equal 1e-06*${len0}
variable delta equal 1e-06*4.29906500000002
if "${dir} == 1" then    "change_box all x delta 0 ${delta} remap units box"
if "${dir} == 2" then    "change_box all y delta 0 ${delta} remap units box"
if "${dir} == 3" then    "change_box all z delta 0 ${delta} remap units box"
if "${dir} == 4" then    "change_box all yz delta ${delta} remap units box"
if "${dir} == 5" then    "change_box all xz delta ${delta} remap units box"
change_box all xz delta ${delta} remap units box
change_box all xz delta 4.29906500000002e-06 remap units box
  triclinic box = (-0.0212825 -0.0212825 -0.0212825) to (4.27778 4.27778 4.27778) with tilt (0 4.29907e-06 0)
if "${dir} == 6" then    "change_box all xy delta ${delta} remap units box"

# Relax atoms positions

minimize ${etol} ${ftol} ${maxiter} ${maxeval}
minimize 0 ${ftol} ${maxiter} ${maxeval}
minimize 0 1e-10 ${maxiter} ${maxeval}
minimize 0 1e-10 100 ${maxeval}
minimize 0 1e-10 100 1000
PPPM initialization ...
  using 12-bit tables for long-range coulomb (../kspace.cpp:321)
  G vector (1/distance) = 0.35273
  grid = 8 8 8
  stencil order = 5
  estimated absolute RMS force accuracy = 4.1956e-05
  estimated relative force accuracy = 2.91368e-06
  using double precision FFTs
  3d grid and FFT values/proc = 3375 512
Neighbor list info ...
  update every 1 steps, delay 0 steps, check yes
  max neighbors/atom: 2000, page size: 100000
  master list distance cutoff = 11
  ghost atom cutoff = 11
  binsize = 5.5, bins = 1 1 1
  1 neighbor lists, perpetual/occasional/extra = 1 0 0
  (1) pair buck/coul/long, perpetual
      attributes: half, newton on
      pair build: half/bin/newton/tri
      stencil: half/bin/3d/newton/tri
      bin: standard
Per MPI rank memory allocation (min/avg/max) = 4.629 | 4.629 | 4.629 Mbytes
Step Temp PotEng Press Pxx Pyy Pzz Pxy Pxz Pyz Lx Ly Lz Volume 
     100            0    -111.9674    186395.31    186395.33    186395.29    186395.33 -2.434785e-10  -0.85123648 -4.847616e-10     4.299065     4.299065     4.299065    79.455147 
     101            0   -111.96741    186395.19     186395.2    186395.17     186395.2 2.5089755e-10  -0.87535369 -2.2773468e-10     4.299065     4.299065     4.299065    79.455147 
     102            0   -111.96741    186395.19     186395.2    186395.17     186395.2 3.0841158e-10  -0.87535369 -1.945059e-10     4.299065     4.299065     4.299065    79.455147 
Loop time of 0.00194407 on 1 procs for 2 steps with 8 atoms

102.9% CPU use with 1 MPI tasks x no OpenMP threads

Minimization stats:
  Stopping criterion = linesearch alpha is zero
  Energy initial, next-to-last, final = 
        -111.967395161     -111.967405387     -111.967405387
  Force two-norm initial, final = 0.00222615 0.000122783
  Force max component initial, final = 0.000470474 2.60172e-05
  Final line search alpha, max atom move = 0.5 1.30086e-05
  Iterations, force evaluations = 2 5

MPI task timing breakdown:
Section |  min time  |  avg time  |  max time  |%varavg| %total
---------------------------------------------------------------
Pair    | 0.00097752 | 0.00097752 | 0.00097752 |   0.0 | 50.28
Kspace  | 0.00084925 | 0.00084925 | 0.00084925 |   0.0 | 43.68
Neigh   | 0          | 0          | 0          |   0.0 |  0.00
Comm    | 7.6294e-05 | 7.6294e-05 | 7.6294e-05 |   0.0 |  3.92
Output  | 1.1921e-05 | 1.1921e-05 | 1.1921e-05 |   0.0 |  0.61
Modify  | 0          | 0          | 0          |   0.0 |  0.00
Other   |            | 2.909e-05  |            |       |  1.50

Nlocal:    8 ave 8 max 8 min
Histogram: 1 0 0 0 0 0 0 0 0 0
Nghost:    2189 ave 2189 max 2189 min
Histogram: 1 0 0 0 0 0 0 0 0 0
Neighs:    2344 ave 2344 max 2344 min
Histogram: 1 0 0 0 0 0 0 0 0 0

Total # of neighbors = 2344
Ave neighs/atom = 293
Neighbor list builds = 0
Dangerous builds = 0

# Obtain new stress tensor

variable tmp equal pe
variable e1 equal ${tmp}
variable e1 equal -111.967405386641
variable tmp equal press
variable p1 equal ${tmp}
variable p1 equal 186395.189196397
variable tmp equal pxx
variable pxx1 equal ${tmp}
variable pxx1 equal 186395.198757037
variable tmp equal pyy
variable pyy1 equal ${tmp}
variable pyy1 equal 186395.17007576
variable tmp equal pzz
variable pzz1 equal ${tmp}
variable pzz1 equal 186395.198756395
variable tmp equal pxy
variable pxy1 equal ${tmp}
variable pxy1 equal 3.08411579636161e-10
variable tmp equal pxz
variable pxz1 equal ${tmp}
variable pxz1 equal -0.875353694448922
variable tmp equal pyz
variable pyz1 equal ${tmp}
variable pyz1 equal -1.94505896321096e-10

# Compute elastic constant from pressure tensor

variable C1pos equal ${d1}
variable C1pos equal 147.958554400248
variable C2pos equal ${d2}
variable C2pos equal 150.826682001934
variable C3pos equal ${d3}
variable C3pos equal 147.958618600387
variable C4pos equal ${d4}
variable C4pos equal 2.08969505291085e-08
variable C5pos equal ${d5}
variable C5pos equal 87.5353694346109
variable C6pos equal ${d6}
variable C6pos equal -5.44880187370976e-08

# Combine positive and negative

variable C1${dir} equal 0.5*(${C1neg}+${C1pos})
variable C15 equal 0.5*(${C1neg}+${C1pos})
variable C15 equal 0.5*(-147.950956400018+${C1pos})
variable C15 equal 0.5*(-147.950956400018+147.958554400248)
variable C2${dir} equal 0.5*(${C2neg}+${C2pos})
variable C25 equal 0.5*(${C2neg}+${C2pos})
variable C25 equal 0.5*(-150.819084001705+${C2pos})
variable C25 equal 0.5*(-150.819084001705+150.826682001934)
variable C3${dir} equal 0.5*(${C3neg}+${C3pos})
variable C35 equal 0.5*(${C3neg}+${C3pos})
variable C35 equal 0.5*(-147.951020800974+${C3pos})
variable C35 equal 0.5*(-147.951020800974+147.958618600387)
variable C4${dir} equal 0.5*(${C4neg}+${C4pos})
variable C45 equal 0.5*(${C4neg}+${C4pos})
variable C45 equal 0.5*(-6.08810986914506e-08+${C4pos})
variable C45 equal 0.5*(-6.08810986914506e-08+2.08969505291085e-08)
variable C5${dir} equal 0.5*(${C5neg}+${C5pos})
variable C55 equal 0.5*(${C5neg}+${C5pos})
variable C55 equal 0.5*(87.535369532753+${C5pos})
variable C55 equal 0.5*(87.535369532753+87.5353694346109)
variable C6${dir} equal 0.5*(${C6neg}+${C6pos})
variable C65 equal 0.5*(${C6neg}+${C6pos})
variable C65 equal 0.5*(-3.2868678006567e-08+${C6pos})
variable C65 equal 0.5*(-3.2868678006567e-08+-5.44880187370976e-08)

# Delete dir to make sure it is not reused

variable dir delete
# ---- uxy Perturbation
variable dir equal 6
include displace.mod
# NOTE: This script should not need to be
# modified. See in.elastic for more info.
# Find which reference length to use

if "${dir} == 1" then    "variable len0 equal ${lx0}"
if "${dir} == 2" then    "variable len0 equal ${ly0}"
if "${dir} == 3" then    "variable len0 equal ${lz0}"
if "${dir} == 4" then    "variable len0 equal ${lz0}"
if "${dir} == 5" then    "variable len0 equal ${lz0}"
if "${dir} == 6" then    "variable len0 equal ${ly0}"
variable len0 equal ${ly0}
variable len0 equal 4.29906500000002

# Reset box and simulation parameters

clear
read_restart restart.equil remap
  triclinic box = (-0.0212825 -0.0212825 -0.0212825) to (4.27778 4.27778 4.27778) with tilt (0 0 0)
  1 by 1 by 1 MPI processor grid
  8 atoms
include potential.mod
mass 1 24.305
mass 2 15.999

group Mg type 1
4 atoms in group Mg
group O type 2
4 atoms in group O

set group Mg charge 1.7021668946670072
  4 settings made for charge
set group O charge -1.7021668946670072
  4 settings made for charge

variable R_cut equal 10.0

pair_style buck/coul/long ${R_cut}
pair_style buck/coul/long 10
pair_coeff 1 1 0.0 0.5 0.0 ${R_cut}
pair_coeff 1 1 0.0 0.5 0.0 10
pair_coeff 1 2 916.5060146451578 0.3165879285797405 0.0 ${R_cut}
pair_coeff 1 2 916.5060146451578 0.3165879285797405 0.0 10
pair_coeff 2 2 19497.471952374297 0.16852015749762614 35.9670850530772 ${R_cut}
pair_coeff 2 2 19497.471952374297 0.16852015749762614 35.9670850530772 10

kspace_style pppm 1.0e-5

neighbor 1.0 bin
neigh_modify every 1 delay 0 check yes
thermo	1
thermo_style custom step temp pe press pxx pyy pzz pxy pxz pyz lx ly lz vol
thermo_modify norm no

# Negative deformation

variable delta equal -${up}*${len0}
variable delta equal -1e-06*${len0}
variable delta equal -1e-06*4.29906500000002
if "${dir} == 1" then    "change_box all x delta 0 ${delta} remap units box"
if "${dir} == 2" then    "change_box all y delta 0 ${delta} remap units box"
if "${dir} == 3" then    "change_box all z delta 0 ${delta} remap units box"
if "${dir} == 4" then    "change_box all yz delta ${delta} remap units box"
if "${dir} == 5" then    "change_box all xz delta ${delta} remap units box"
if "${dir} == 6" then    "change_box all xy delta ${delta} remap units box"
change_box all xy delta ${delta} remap units box
change_box all xy delta -4.29906500000002e-06 remap units box
  triclinic box = (-0.0212825 -0.0212825 -0.0212825) to (4.27778 4.27778 4.27778) with tilt (-4.29907e-06 0 0)

# Relax atoms positions

minimize ${etol} ${ftol} ${maxiter} ${maxeval}
minimize 0 ${ftol} ${maxiter} ${maxeval}
minimize 0 1e-10 ${maxiter} ${maxeval}
minimize 0 1e-10 100 ${maxeval}
minimize 0 1e-10 100 1000
PPPM initialization ...
  using 12-bit tables for long-range coulomb (../kspace.cpp:321)
  G vector (1/distance) = 0.35273
  grid = 8 8 8
  stencil order = 5
  estimated absolute RMS force accuracy = 4.19559e-05
  estimated relative force accuracy = 2.91368e-06
  using double precision FFTs
  3d grid and FFT values/proc = 3375 512
Neighbor list info ...
  update every 1 steps, delay 0 steps, check yes
  max neighbors/atom: 2000, page size: 100000
  master list distance cutoff = 11
  ghost atom cutoff = 11
  binsize = 5.5, bins = 1 1 1
  1 neighbor lists, perpetual/occasional/extra = 1 0 0
  (1) pair buck/coul/long, perpetual
      attributes: half, newton on
      pair build: half/bin/newton/tri
      stencil: half/bin/3d/newton/tri
      bin: standard
Per MPI rank memory allocation (min/avg/max) = 4.629 | 4.629 | 4.629 Mbytes
Step Temp PotEng Press Pxx Pyy Pzz Pxy Pxz Pyz Lx Ly Lz Volume 
     100            0    -111.9674    186395.31    186395.33    186395.33    186395.29   0.85123648 1.8658476e-10 -6.6107401e-11     4.299065     4.299065     4.299065    79.455147 
     101            0   -111.96741    186395.19     186395.2     186395.2    186395.17    0.8753537 -2.2615002e-10 -2.4159861e-10     4.299065     4.299065     4.299065    79.455147 
     102            0   -111.96741    186395.19     186395.2     186395.2    186395.17    0.8753537 -2.2937993e-10 -4.3777133e-10     4.299065     4.299065     4.299065    79.455147 
Loop time of 0.00193095 on 1 procs for 2 steps with 8 atoms

51.8% CPU use with 1 MPI tasks x no OpenMP threads

Minimization stats:
  Stopping criterion = linesearch alpha is zero
  Energy initial, next-to-last, final = 
         -111.96739516     -111.967405386     -111.967405386
  Force two-norm initial, final = 0.00222615 0.000122783
  Force max component initial, final = 0.000470474 2.60172e-05
  Final line search alpha, max atom move = 0.5 1.30086e-05
  Iterations, force evaluations = 2 5

MPI task timing breakdown:
Section |  min time  |  avg time  |  max time  |%varavg| %total
---------------------------------------------------------------
Pair    | 0.00097203 | 0.00097203 | 0.00097203 |   0.0 | 50.34
Kspace  | 0.00084186 | 0.00084186 | 0.00084186 |   0.0 | 43.60
Neigh   | 0          | 0          | 0          |   0.0 |  0.00
Comm    | 7.5102e-05 | 7.5102e-05 | 7.5102e-05 |   0.0 |  3.89
Output  | 1.2159e-05 | 1.2159e-05 | 1.2159e-05 |   0.0 |  0.63
Modify  | 0          | 0          | 0          |   0.0 |  0.00
Other   |            | 2.98e-05   |            |       |  1.54

Nlocal:    8 ave 8 max 8 min
Histogram: 1 0 0 0 0 0 0 0 0 0
Nghost:    2189 ave 2189 max 2189 min
Histogram: 1 0 0 0 0 0 0 0 0 0
Neighs:    2344 ave 2344 max 2344 min
Histogram: 1 0 0 0 0 0 0 0 0 0

Total # of neighbors = 2344
Ave neighs/atom = 293
Neighbor list builds = 0
Dangerous builds = 0

# Obtain new stress tensor

variable tmp equal pxx
variable pxx1 equal ${tmp}
variable pxx1 equal 186395.198833017
variable tmp equal pyy
variable pyy1 equal ${tmp}
variable pyy1 equal 186395.198832376
variable tmp equal pzz
variable pzz1 equal ${tmp}
variable pzz1 equal 186395.170151741
variable tmp equal pxy
variable pxy1 equal ${tmp}
variable pxy1 equal 0.875353696019933
variable tmp equal pxz
variable pxz1 equal ${tmp}
variable pxz1 equal -2.29379930421239e-10
variable tmp equal pyz
variable pyz1 equal ${tmp}
variable pyz1 equal -4.3777132792509e-10

# Compute elastic constant from pressure tensor

variable C1neg equal ${d1}
variable C1neg equal -147.950956400018
variable C2neg equal ${d2}
variable C2neg equal -147.951020402252
variable C3neg equal ${d3}
variable C3neg equal -150.819083998795
variable C4neg equal ${d4}
variable C4neg equal -4.52234936895079e-08
variable C5neg equal ${d5}
variable C5neg equal -1.26566861828549e-08
variable C6neg equal ${d6}
variable C6neg equal 87.5353696256402

# Reset box and simulation parameters

clear
read_restart restart.equil remap
  triclinic box = (-0.0212825 -0.0212825 -0.0212825) to (4.27778 4.27778 4.27778) with tilt (0 0 0)
  1 by 1 by 1 MPI processor grid
  8 atoms
include potential.mod
mass 1 24.305
mass 2 15.999

group Mg type 1
4 atoms in group Mg
group O type 2
4 atoms in group O

set group Mg charge 1.7021668946670072
  4 settings made for charge
set group O charge -1.7021668946670072
  4 settings made for charge

variable R_cut equal 10.0

pair_style buck/coul/long ${R_cut}
pair_style buck/coul/long 10
pair_coeff 1 1 0.0 0.5 0.0 ${R_cut}
pair_coeff 1 1 0.0 0.5 0.0 10
pair_coeff 1 2 916.5060146451578 0.3165879285797405 0.0 ${R_cut}
pair_coeff 1 2 916.5060146451578 0.3165879285797405 0.0 10
pair_coeff 2 2 19497.471952374297 0.16852015749762614 35.9670850530772 ${R_cut}
pair_coeff 2 2 19497.471952374297 0.16852015749762614 35.9670850530772 10

kspace_style pppm 1.0e-5

neighbor 1.0 bin
neigh_modify every 1 delay 0 check yes
thermo	1
thermo_style custom step temp pe press pxx pyy pzz pxy pxz pyz lx ly lz vol
thermo_modify norm no

# Positive deformation

variable delta equal ${up}*${len0}
variable delta equal 1e-06*${len0}
variable delta equal 1e-06*4.29906500000002
if "${dir} == 1" then    "change_box all x delta 0 ${delta} remap units box"
if "${dir} == 2" then    "change_box all y delta 0 ${delta} remap units box"
if "${dir} == 3" then    "change_box all z delta 0 ${delta} remap units box"
if "${dir} == 4" then    "change_box all yz delta ${delta} remap units box"
if "${dir} == 5" then    "change_box all xz delta ${delta} remap units box"
if "${dir} == 6" then    "change_box all xy delta ${delta} remap units box"
change_box all xy delta ${delta} remap units box
change_box all xy delta 4.29906500000002e-06 remap units box
  triclinic box = (-0.0212825 -0.0212825 -0.0212825) to (4.27778 4.27778 4.27778) with tilt (4.29907e-06 0 0)

# Relax atoms positions

minimize ${etol} ${ftol} ${maxiter} ${maxeval}
minimize 0 ${ftol} ${maxiter} ${maxeval}
minimize 0 1e-10 ${maxiter} ${maxeval}
minimize 0 1e-10 100 ${maxeval}
minimize 0 1e-10 100 1000
PPPM initialization ...
  using 12-bit tables for long-range coulomb (../kspace.cpp:321)
  G vector (1/distance) = 0.35273
  grid = 8 8 8
  stencil order = 5
  estimated absolute RMS force accuracy = 4.1956e-05
  estimated relative force accuracy = 2.91368e-06
  using double precision FFTs
  3d grid and FFT values/proc = 3375 512
Neighbor list info ...
  update every 1 steps, delay 0 steps, check yes
  max neighbors/atom: 2000, page size: 100000
  master list distance cutoff = 11
  ghost atom cutoff = 11
  binsize = 5.5, bins = 1 1 1
  1 neighbor lists, perpetual/occasional/extra = 1 0 0
  (1) pair buck/coul/long, perpetual
      attributes: half, newton on
      pair build: half/bin/newton/tri
      stencil: half/bin/3d/newton/tri
      bin: standard
Per MPI rank memory allocation (min/avg/max) = 4.629 | 4.629 | 4.629 Mbytes
Step Temp PotEng Press Pxx Pyy Pzz Pxy Pxz Pyz Lx Ly Lz Volume 
     100            0    -111.9674    186395.31    186395.33    186395.33    186395.29  -0.85123648 -7.5104503e-10 -7.068175e-10     4.299065     4.299065     4.299065    79.455147 
     101            0   -111.96741    186395.19     186395.2     186395.2    186395.17   -0.8753537 5.5704206e-10 3.4617835e-10     4.299065     4.299065     4.299065    79.455147 
     102            0   -111.96741    186395.19     186395.2     186395.2    186395.17  -0.87535369  5.05591e-10 6.2505671e-10     4.299065     4.299065     4.299065    79.455147 
Loop time of 0.00193906 on 1 procs for 2 steps with 8 atoms

103.1% CPU use with 1 MPI tasks x no OpenMP threads

Minimization stats:
  Stopping criterion = linesearch alpha is zero
  Energy initial, next-to-last, final = 
        -111.967395161     -111.967405387     -111.967405387
  Force two-norm initial, final = 0.00222615 0.000122783
  Force max component initial, final = 0.000470474 2.60172e-05
  Final line search alpha, max atom move = 0.5 1.30086e-05
  Iterations, force evaluations = 2 5

MPI task timing breakdown:
Section |  min time  |  avg time  |  max time  |%varavg| %total
---------------------------------------------------------------
Pair    | 0.00097275 | 0.00097275 | 0.00097275 |   0.0 | 50.17
Kspace  | 0.00085115 | 0.00085115 | 0.00085115 |   0.0 | 43.90
Neigh   | 0          | 0          | 0          |   0.0 |  0.00
Comm    | 7.5102e-05 | 7.5102e-05 | 7.5102e-05 |   0.0 |  3.87
Output  | 1.0967e-05 | 1.0967e-05 | 1.0967e-05 |   0.0 |  0.57
Modify  | 0          | 0          | 0          |   0.0 |  0.00
Other   |            | 2.909e-05  |            |       |  1.50

Nlocal:    8 ave 8 max 8 min
Histogram: 1 0 0 0 0 0 0 0 0 0
Nghost:    2189 ave 2189 max 2189 min
Histogram: 1 0 0 0 0 0 0 0 0 0
Neighs:    2344 ave 2344 max 2344 min
Histogram: 1 0 0 0 0 0 0 0 0 0

Total # of neighbors = 2344
Ave neighs/atom = 293
Neighbor list builds = 0
Dangerous builds = 0

# Obtain new stress tensor

variable tmp equal pe
variable e1 equal ${tmp}
variable e1 equal -111.967405386641
variable tmp equal press
variable p1 equal ${tmp}
variable p1 equal 186395.189196398
variable tmp equal pxx
variable pxx1 equal ${tmp}
variable pxx1 equal 186395.198757037
variable tmp equal pyy
variable pyy1 equal ${tmp}
variable pyy1 equal 186395.198756395
variable tmp equal pzz
variable pzz1 equal ${tmp}
variable pzz1 equal 186395.170075762
variable tmp equal pxy
variable pxy1 equal ${tmp}
variable pxy1 equal -0.875353694932147
variable tmp equal pxz
variable pxz1 equal ${tmp}
variable pxz1 equal 5.05591001285869e-10
variable tmp equal pyz
variable pyz1 equal ${tmp}
variable pyz1 equal 6.25056708316882e-10

# Compute elastic constant from pressure tensor

variable C1pos equal ${d1}
variable C1pos equal 147.958554400248
variable C2pos equal ${d2}
variable C2pos equal 147.958618501434
variable C3pos equal ${d3}
variable C3pos equal 150.826681900071
variable C4pos equal ${d4}
variable C4pos equal -6.10593099346893e-08
variable C5pos equal ${d5}
variable C5pos equal -6.08404069878559e-08
variable C6pos equal ${d6}
variable C6pos equal 87.5353694695678

# Combine positive and negative

variable C1${dir} equal 0.5*(${C1neg}+${C1pos})
variable C16 equal 0.5*(${C1neg}+${C1pos})
variable C16 equal 0.5*(-147.950956400018+${C1pos})
variable C16 equal 0.5*(-147.950956400018+147.958554400248)
variable C2${dir} equal 0.5*(${C2neg}+${C2pos})
variable C26 equal 0.5*(${C2neg}+${C2pos})
variable C26 equal 0.5*(-147.951020402252+${C2pos})
variable C26 equal 0.5*(-147.951020402252+147.958618501434)
variable C3${dir} equal 0.5*(${C3neg}+${C3pos})
variable C36 equal 0.5*(${C3neg}+${C3pos})
variable C36 equal 0.5*(-150.819083998795+${C3pos})
variable C36 equal 0.5*(-150.819083998795+150.826681900071)
variable C4${dir} equal 0.5*(${C4neg}+${C4pos})
variable C46 equal 0.5*(${C4neg}+${C4pos})
variable C46 equal 0.5*(-4.52234936895079e-08+${C4pos})
variable C46 equal 0.5*(-4.52234936895079e-08+-6.10593099346893e-08)
variable C5${dir} equal 0.5*(${C5neg}+${C5pos})
variable C56 equal 0.5*(${C5neg}+${C5pos})
variable C56 equal 0.5*(-1.26566861828549e-08+${C5pos})
variable C56 equal 0.5*(-1.26566861828549e-08+-6.08404069878559e-08)
variable C6${dir} equal 0.5*(${C6neg}+${C6pos})
variable C66 equal 0.5*(${C6neg}+${C6pos})
variable C66 equal 0.5*(87.5353696256402+${C6pos})
variable C66 equal 0.5*(87.5353696256402+87.5353694695678)

# Delete dir to make sure it is not reused

variable dir delete

# ---- Output final values
variable C11all equal ${C11}
variable C11all equal 359.304210150731
variable C22all equal ${C22}
variable C22all equal 359.304210150731
variable C33all equal ${C33}
variable C33all equal 359.304209949914
variable C12all equal 0.5*(${C12}+${C21})
variable C12all equal 0.5*(125.298369801021+${C21})
variable C12all equal 0.5*(125.298369801021+125.298369799566)
variable C13all equal 0.5*(${C13}+${C31})
variable C13all equal 0.5*(125.298369801021+${C31})
variable C13all equal 0.5*(125.298369801021+125.29836975009)
variable C23all equal 0.5*(${C23}+${C32})
variable C23all equal 0.5*(125.298369899974+${C32})
variable C23all equal 0.5*(125.298369899974+125.298369850498)
variable C44all equal ${C44}
variable C44all equal 87.5353694915192
variable C55all equal ${C55}
variable C55all equal 87.5353694836819
variable C66all equal ${C66}
variable C66all equal 87.535369547604
variable C14all equal 0.5*(${C14}+${C41})
variable C14all equal 0.5*(0.00379900011449763+${C41})
variable C14all equal 0.5*(0.00379900011449763+-3.19590852237727e-08)
variable C15all equal 0.5*(${C15}+${C51})
variable C15all equal 0.5*(0.00379900011500922+${C51})
variable C15all equal 0.5*(0.00379900011500922+-2.95157515059198e-08)
variable C16all equal 0.5*(${C16}+${C61})
variable C16all equal 0.5*(0.00379900011500922+${C61})
variable C16all equal 0.5*(0.00379900011500922+-2.9448623316391e-08)
variable C24all equal 0.5*(${C24}+${C42})
variable C24all equal 0.5*(0.00379900011449763+${C42})
variable C24all equal 0.5*(0.00379900011449763+1.15763706786178e-08)
variable C25all equal 0.5*(${C25}+${C52})
variable C25all equal 0.5*(0.00379900011449763+${C52})
variable C25all equal 0.5*(0.00379900011449763+2.53055842937568e-08)
variable C26all equal 0.5*(${C26}+${C62})
variable C26all equal 0.5*(0.0037990495909952+${C62})
variable C26all equal 0.5*(0.0037990495909952+-5.82378166154371e-08)
variable C34all equal 0.5*(${C34}+${C43})
variable C34all equal 0.5*(0.00379894918300749+${C43})
variable C34all equal 0.5*(0.00379894918300749+-1.05357720735374e-07)
variable C35all equal 0.5*(${C35}+${C53})
variable C35all equal 0.5*(0.00379889970650993+${C53})
variable C35all equal 0.5*(0.00379889970650993+-1.00383432480119e-07)
variable C36all equal 0.5*(${C36}+${C63})
variable C36all equal 0.5*(0.00379895063800006+${C63})
variable C36all equal 0.5*(0.00379895063800006+-3.16898600842525e-09)
variable C45all equal 0.5*(${C45}+${C54})
variable C45all equal 0.5*(-1.9992074081171e-08+${C54})
variable C45all equal 0.5*(-1.9992074081171e-08+-2.3550539025077e-08)
variable C46all equal 0.5*(${C46}+${C64})
variable C46all equal 0.5*(-5.31414018120986e-08+${C64})
variable C46all equal 0.5*(-5.31414018120986e-08+-5.37926926029554e-08)
variable C56all equal 0.5*(${C56}+${C65})
variable C56all equal 0.5*(-3.67485465853554e-08+${C65})
variable C56all equal 0.5*(-3.67485465853554e-08+-4.36783483718323e-08)

print "c11 = ${C11all} ${cunits}"
c11 = 359.304210150731 GPa
print "c22 = ${C22all} ${cunits}"
c22 = 359.304210150731 GPa
print "c33 = ${C33all} ${cunits}"
c33 = 359.304209949914 GPa
print "c12 = ${C12all} ${cunits}"
c12 = 125.298369800294 GPa
print "c13 = ${C13all} ${cunits}"
c13 = 125.298369775555 GPa
print "c23 = ${C23all} ${cunits}"
c23 = 125.298369875236 GPa
print "c44 = ${C44all} ${cunits}"
c44 = 87.5353694915192 GPa
print "c55 = ${C55all} ${cunits}"
c55 = 87.5353694836819 GPa
print "c66 = ${C66all} ${cunits}"
c66 = 87.535369547604 GPa
print "c14 = ${C14all} ${cunits}"
c14 = 0.0018994840777062 GPa
print "c15 = ${C15all} ${cunits}"
c15 = 0.00189948529962886 GPa
print "c16 = ${C16all} ${cunits}"
c16 = 0.00189948533319295 GPa
print "c24 = ${C24all} ${cunits}"
c24 = 0.00189950584543415 GPa
print "c25 = ${C25all} ${cunits}"
c25 = 0.00189951271004096 GPa
print "c26 = ${C26all} ${cunits}"
c26 = 0.00189949567658929 GPa
print "c34 = ${C34all} ${cunits}"
c34 = 0.00189942191264338 GPa
print "c35 = ${C35all} ${cunits}"
c35 = 0.00189939966153873 GPa
print "c36 = ${C36all} ${cunits}"
c36 = 0.00189947373450703 GPa
print "c45 = ${C45all} ${cunits}"
c45 = -2.1771306553124e-08 GPa
print "c46 = ${C46all} ${cunits}"
c46 = -5.3467047207527e-08 GPa
print "c56 = ${C56all} ${cunits}"
c56 = -4.02134474785938e-08 GPa
print "lammps_sim_done"
lammps_sim_done
Total wall time: 0:00:00
