LAMMPS (10 Feb 2015)
# ---- initialize simulations
clear
units metal
dimension 3
boundary p p p
atom_style charge
atom_modify map array
# ---- create atoms
read_data /Users/eugeneragasa/pyflamestk_git/pypospack/tests/tests_integration/workflow/WorkflowLammpsThermalExpansion/MgO_NaCl_unit.npt.T1800/lammps.structure
  triclinic box = (0 0 0) to (4.2565 4.2565 4.2565) with tilt (0 0 0)
  1 by 1 by 1 MPI processor grid
  reading atoms ...
  8 atoms
# ---- define interatomic potential
include potential.mod
mass 1 24.305
mass 2 15.999

group Mg type 1
4 atoms in group Mg
group O type 2
4 atoms in group O

set group Mg charge 2.0
  4 settings made for charge
set group O charge -2.0
  4 settings made for charge

variable R_cut equal 10.0

pair_style buck/coul/long ${R_cut}
pair_style buck/coul/long 10
pair_coeff 1 1 0.0 0.5 0.0 ${R_cut}
pair_coeff 1 1 0.0 0.5 0.0 10
pair_coeff 1 2 821.6 0.3242 0.0 ${R_cut}
pair_coeff 1 2 821.6 0.3242 0.0 10
pair_coeff 2 2 2274.0 0.149 27.88 ${R_cut}
pair_coeff 2 2 2274.0 0.149 27.88 10

kspace_style pppm 1.0e-5

neighbor 1.0 bin
neigh_modify every 1 delay 0 check yes
# ---- define settings
compute eng all pe/atom
compute eatoms all reduce sum c_eng
# ---- run minimization
reset_timestep 0
fix 1 all box/relax iso 0.0 vmax 0.001
thermo 10
thermo_style custom step pe lx ly lz xy xz yz press pxx pyy pzz pxy pxz pyz c_eatoms
min_style cg
minimize 1e-25 1e-25 5000 10000
PPPM initialization ...
  G vector (1/distance) = 0.354854
  grid = 8 8 8
  stencil order = 5
  estimated absolute RMS force accuracy = 5.34408e-05
  estimated relative force accuracy = 3.71126e-06
  using double precision FFTs
  3d grid and FFT values/proc = 3375 512
Neighbor list info ...
  1 neighbor list requests
  update every 1 steps, delay 0 steps, check yes
  master list distance cutoff = 11
Memory usage per processor = 4.06549 Mbytes
Step PotEng Lx Ly Lz Xy Xz Yz Press Pxx Pyy Pzz Pxy Pxz Pyz eatoms 
       0   -162.12848       4.2565       4.2565       4.2565            0            0            0    -64012.53    -64012.53    -64012.53    -64012.53 -3.8759874e-11 -1.4292379e-10 -3.6687737e-10   -162.12848 
      10   -162.17871     4.213935     4.213935     4.213935            0            0            0   -4821.7526   -4821.7526   -4821.7526   -4821.7526 8.9106085e-11 8.5332225e-11 -4.2335946e-10   -162.17871 
      14   -162.17896    4.2106915    4.2106915    4.2106915            0            0            0    -1.347652    -1.347652    -1.347652    -1.347652 2.5597609e-11 1.0162971e-11 2.8091283e-10   -162.17896 
Loop time of 0.0154779 on 1 procs for 14 steps with 8 atoms

Minimization stats:
  Stopping criterion = linesearch alpha is zero
  Energy initial, next-to-last, final = 
        -162.128476026     -162.178964554     -162.178964554
  Force two-norm initial, final = 9.24344 0.000276677
  Force max component initial, final = 9.24344 0.000190436
  Final line search alpha, max atom move = 0.125 2.38044e-05
  Iterations, force evaluations = 14 33

Pair  time (%) = 0.00422573 (27.3017)
Kspce time (%) = 0.00267768 (17.3)
Neigh time (%) = 0 (0)
Comm  time (%) = 0.000477552 (3.08538)
Outpt time (%) = 3.31402e-05 (0.214113)
Other time (%) = 0.00806379 (52.0988)

Nlocal:    8 ave 8 max 8 min
Histogram: 1 0 0 0 0 0 0 0 0 0
Nghost:    2189 ave 2189 max 2189 min
Histogram: 1 0 0 0 0 0 0 0 0 0
Neighs:    2344 ave 2344 max 2344 min
Histogram: 1 0 0 0 0 0 0 0 0 0

Total # of neighbors = 2344
Ave neighs/atom = 293
Neighbor list builds = 0
Dangerous builds = 0
unfix 1
# ---- define output variables ----
variable natoms equal "count(all)"
variable tot_energy equal "c_eatoms"
variable length_x equal "lx"
variable length_y equal "ly"
variable length_z equal "lz"
variable tilt_xy equal "xy"
variable tilt_xz equal "xz"
variable tilt_yz equal "yz"
variable tot_press equal "press"
variable press_xx equal "pxx"
variable press_yy equal "pyy"
variable press_zz equal "pzz"
variable press_xy equal "pxy"
variable press_xz equal "pxz"
variable press_yz equal "pyz"

# ---- output ----
print "pypospack:output_section:begin"
pypospack:output_section:begin
print "tot_energy = ${tot_energy}"
tot_energy = -162.17896455406
print "num_atoms = ${natoms}"
num_atoms = 8
print "xx = ${length_x}"
xx = 4.21069146013408
print "yy = ${length_y}"
yy = 4.21069146013408
print "zz = ${length_z}"
zz = 4.21069146013408
print "xy = ${tilt_xy}"
xy = 0
print "xz = ${tilt_xz}"
xz = 0
print "yz = ${tilt_yz}"
yz = 0
print "tot_press = ${tot_press}"
tot_press = -1.34765197939399
print "pxx = ${press_xx}"
pxx = -1.34765197919426
print "pyy = ${press_yy}"
pyy = -1.3476519793348
print "pzz = ${press_zz}"
pzz = -1.34765197965291
print "pxy = ${press_xy}"
pxy = 2.55976090046832e-11
print "pxz = ${press_xz}"
pxz = 1.01629705561986e-11
print "pyz = ${press_yz}"
pyz = 2.80912827691917e-10
print "pypospack:output_section:done"
pypospack:output_section:done
print "pypospack:lammps_sim:done"
pypospack:lammps_sim:done
#------------------------------------------------------------------------------
# RUN THERMOSTAT
# running using an NPT Nose-Hoover style thermostat
#------------------------------------------------------------------------------
variable tempdamp equal 0.1
variable pressdamp equal 1.0
# set initial velocities
velocity all create 1800 3328795 mom yes dist gaussian loop all
# fix for Nose-Hoover style thermostat
fix 20 all npt temp 1800 1800 0.1 aniso 0.0 0.0 1.0 drag 1.0 couple xyz
variable boxx equal lx
variable boxy equal ly
variable boxz equal lz
variable boxp equal press
variable boxt equal temp
# calculate averages every 10000 steps
reset_timestep 0
fix 21 all ave/time 10 10 100 v_boxx v_boxy v_boxz v_boxp v_boxt file lattice.out
thermo_style custom step temp pe ke etotal press lx ly lz press pxx pyy pzz pxy pxz pyz vol
thermo_modify flush yes
thermo 100
run 100000
PPPM initialization ...
  G vector (1/distance) = 0.355384
  grid = 8 8 8
  stencil order = 5
  estimated absolute RMS force accuracy = 5.2136e-05
  estimated relative force accuracy = 3.62065e-06
  using double precision FFTs
  3d grid and FFT values/proc = 3375 512
Memory usage per processor = 3.06549 Mbytes
Step Temp PotEng KinEng TotEng Press Lx Ly Lz Press Pxx Pyy Pzz Pxy Pxz Pyz Volume 
       0         1800   -162.17896    1.6286778   -160.55028    23301.551    4.2106915    4.2106915    4.2106915    23301.551    7804.1933     29924.18     32176.28    3883.1851    1348.1889    20441.716    74.655234 
     100    919.37066   -161.17167   0.83186589   -160.33981    12563.825    4.2431419    4.2431419    4.2431419    12563.825   -21621.155    50823.257    8489.3717   -2929.9194   -8445.4576    8694.3147    76.394603 
     200    949.38265   -160.75246   0.85902137   -159.89344   -38948.132    4.2804509    4.2804509    4.2804509   -38948.132    -44408.56    -12942.77   -59493.065   -1049.6452   -738.10741    4801.4776    78.427535 
     300    2178.5284   -161.47275    1.9711783   -159.50157   -3953.8472    4.2621026    4.2621026    4.2621026   -3953.8472    -39282.73    10161.211    17259.977    3671.0376    5192.4914   -18039.759    77.423306 
     400     2298.795    -161.2617     2.079998    -159.1817    28441.885    4.2383286    4.2383286    4.2383286    28441.885   -8525.1104    38019.082    55831.683    3751.6649   -1953.9314   -9715.0012    76.134918 
     500    1312.9462   -160.22776    1.1879813   -159.03978   -1064.6349     4.266841     4.266841     4.266841   -1064.6349   -1080.6491    26390.169   -28503.425    10665.176   -3031.9802    778.75558    77.681817 
     600    2206.1291   -160.90525     1.996152    -158.9091   -58999.657    4.3054453    4.3054453    4.3054453   -58999.657    -70091.11   -56557.519   -50350.343   -16508.287    5304.3058   -11638.399    79.809432 
     700    1833.3475   -160.51293    1.6588514   -158.85408   -25214.134    4.2804578    4.2804578    4.2804578   -25214.134    -9678.914    117.89723   -66081.387   -15943.723   -9840.6167   -20400.281    78.427912 
     800    1686.1554   -160.33467    1.5256689     -158.809    26714.163    4.2324988    4.2324988    4.2324988    26714.163    25495.104    60229.097   -5581.7122    5257.0559   -26086.356   -23868.925    75.821176 
     900    2025.8729     -160.737    1.8330524   -158.90394    53447.501      4.24902      4.24902      4.24902    53447.501   -19729.456     109696.8    70375.153   -550.13709   -1141.6989   -22557.037    76.712532 
    1000    2171.1636    -160.8913    1.9645145   -158.92679   -36548.958    4.3126111    4.3126111    4.3126111   -36548.958   -63826.158   -28385.506   -17435.211    15485.448    10349.788    -16173.98    80.208592 
    1100     1226.651   -159.97423    1.1098996   -158.86433   -52681.421    4.3074381    4.3074381    4.3074381   -52681.421   -48178.602   -17377.249   -92488.412   -3557.5921    7557.3689   -12628.709    79.920304 
    1200     2598.584   -161.17581    2.3512534   -158.82455    25452.789    4.2428139    4.2428139    4.2428139    25452.789    334.97173    49388.481    26634.914     6793.306   -4953.8125    21362.585    76.376886 
    1300    2440.2565   -161.05233    2.2079954   -158.84434    46328.773    4.2284856    4.2284856    4.2284856    46328.773    12267.427    116981.87    9737.0226    6590.7234    2974.9522    24136.639    75.605707 
    1400    963.18648    -159.8089   0.87151137   -158.93739   -16195.756      4.28775      4.28775      4.28775   -16195.756   -43649.033    97907.906   -102846.14    4731.4974    5579.9421    6316.2915    78.829428 
    1500    1995.6772   -160.66938    1.8057306   -158.86365   -54746.894    4.3172443    4.3172443    4.3172443   -54746.894   -99513.619   -20903.642   -43823.421   -16578.416    447.23964   -450.10209    80.467381 
    1600    2303.8915   -160.91978    2.0846094   -158.83517   -9432.2004     4.277044     4.277044     4.277044   -9432.2004   -15897.859    13418.294   -25817.036   -3804.9556    8529.9496    7292.4762    78.240416 
    1700    1294.0886   -159.99629    1.1709185   -158.82537    28886.749    4.2416516    4.2416516    4.2416516    28886.749    -1418.865    122156.39   -34077.275    16092.103   -5710.0938    189.94203    76.314136 
    1800    1529.2467   -160.28731    1.3836946   -158.90362    6757.9574    4.2594689    4.2594689    4.2594689    6757.9574   -59962.894    54004.496    26232.271    27790.819   -2178.4754   -8667.7317    77.279865 
    1900    1939.3752   -160.66094    1.7547874   -158.90615   -17199.182    4.2790276    4.2790276    4.2790276   -17199.182   -65299.473    24428.885   -10726.959    33006.163   -9701.9179    5164.6953    78.349328 
    2000    1212.9914   -159.97992    1.0975401   -158.88238   -10115.773    4.2664671    4.2664671    4.2664671   -10115.773   -36904.583    60133.843   -53576.579    103.43322   -9018.6993    3967.0073    77.661396 
    2100    1339.9439   -160.08715    1.2124094   -158.87474    14654.013    4.2569018    4.2569018    4.2569018    14654.013   -36609.814     69294.25    11277.604   -3168.5176    4167.4068    17716.531    77.140222 
    2200     2079.793   -160.77064    1.8818404    -158.8888   -2674.4855    4.2716025    4.2716025    4.2716025   -2674.4855   -41661.116     43717.84   -10080.181   -3968.2149    15767.317    8966.8478    77.942171 
    2300    1371.1819    -160.1266    1.2406742   -158.88592   -59598.443    4.2771098    4.2771098    4.2771098   -59598.443    -53683.94   -24806.933   -100304.46   -37896.082   -6143.8612   -5224.7446    78.244026 
    2400    1644.5771    -160.3741     1.488048   -158.88605    7368.1524     4.242363     4.242363     4.242363    7368.1524   -1101.9919    35902.405   -12695.955   -274.39904   -23959.654   -18392.141    76.352537 
    2500    2377.7811   -161.02774    2.1514663   -158.87627    71982.489    4.2245663    4.2245663    4.2245663    71982.489    64870.945    62027.888    89048.633    2086.4213    -487.6665   -30013.331     75.39567 
    2600    1764.5066   -160.52356    1.5965626     -158.927   -2611.9578    4.2666109    4.2666109    4.2666109   -2611.9578    18664.728   -11882.282    -14618.32   -8479.4126     9523.247   -11633.678    77.669248 
    2700    1550.4802   -160.27606    1.4029071   -158.87315   -46127.095    4.2903214    4.2903214    4.2903214   -46127.095   -33901.199    -32535.06   -71945.026   -3609.3478   -7572.4675   -27842.989    78.971337 
    2800    2434.1158   -161.05959    2.2024391   -158.85715   -13288.597     4.254747     4.254747     4.254747   -13288.597   -5874.6552   -39665.449    5674.3131   -19090.334    -6222.258   -56169.291     77.02314 
    2900    1905.1974   -160.57044    1.7238626   -158.84658    15296.676    4.2294054    4.2294054    4.2294054    15296.676    29957.408    16523.133   -590.51166   -31341.791    7177.9446   -19825.088    75.655054 
    3000    1566.6768     -160.304    1.4175621   -158.88644   -669.68317    4.2521499    4.2521499    4.2521499   -669.68317    21710.287    28439.566   -52158.902    1668.5084   -12593.203     -19324.3    76.882184 
    3100    2870.6626   -161.48056    2.5974358   -158.88313   -21884.949    4.2754995    4.2754995    4.2754995   -21884.949   -48589.618    -2961.413   -14103.817   -4013.4405    704.04705   -23926.682    78.155686 
    3200    2251.7745   -160.90873    2.0374528   -158.87128   -19524.671    4.2733462    4.2733462    4.2733462   -19524.671   -15788.686   -13126.571   -29658.758   -23746.814    18121.655   -4707.6832    78.037659 
    3300    1611.9057   -160.31765    1.4584861   -158.85916   -20540.118    4.2591237    4.2591237    4.2591237   -20540.118    1097.5169    4857.2776   -67575.149    -19549.73    931.33026    4015.3844    77.261077 
    3400    2236.5256   -160.88779    2.0236553   -158.86414    18998.399    4.2469979    4.2469979    4.2469979    18998.399    39838.282    14960.795    2196.1194   -3341.4599   -9859.5317    30009.799    76.603065 
    3500    2354.2935   -161.01295    2.1302143   -158.88274    2271.1026    4.2541762    4.2541762    4.2541762    2271.1026   -980.29545   -10432.755    18226.358    3573.3586   -16976.777    38914.129    76.992144 
    3600    1525.9164   -160.26974    1.3806813   -158.88906   -15894.405    4.2715524    4.2715524    4.2715524   -15894.405     7104.733   -3134.7879   -51653.159    81.239936    15275.743    5741.8479    77.939426 
    3700    2284.2582   -160.94901    2.0668448   -158.88216   -7497.9155    4.2737458    4.2737458    4.2737458   -7497.9155   -50786.911   -24465.926    52759.091   -12790.392    10499.364   -724.17822    78.059556 
    3800    2430.8116   -161.07672    2.1994495   -158.87727    15784.828    4.2611041    4.2611041    4.2611041    15784.828   -25027.866     15041.01     57341.34   -2624.9537   -9521.8167    21408.491    77.368901 
    3900    1589.4481   -160.31791    1.4381661   -158.87974   -23479.514    4.2615329    4.2615329    4.2615329   -23479.514    4734.3926   -2639.3784   -72533.556    7295.0529     -11503.9    11368.372     77.39226 
    4000    2311.8891   -160.97077    2.0918458   -158.87893   -35772.526    4.2663261    4.2663261    4.2663261   -35772.526   -13844.377   -38412.015   -55061.185   -8603.6629   -5503.7372    10971.259    77.653697 
    4100    2814.0474   -161.41414    2.5462092   -158.86793   -3865.1569    4.2642653    4.2642653    4.2642653   -3865.1569   -2018.6406    4068.9867   -13645.817    5470.4284    11692.748     29220.71    77.541226 
    4200    1460.4715   -160.19659    1.3214653   -158.87512   -27923.278    4.2758846    4.2758846    4.2758846   -27923.278    14492.938    29220.882   -127483.66    152.54063    9256.8189    6174.5476    78.176807 
    4300     2325.616   -160.97758    2.1042662   -158.87331    -24758.36    4.2703986    4.2703986    4.2703986    -24758.36   -17432.416    12433.096   -69275.759    11538.526    8087.8522   -5590.6337     77.87629 
    4400    2383.4311   -161.02503    2.1565786   -158.86845    37671.643    4.2347939    4.2347939    4.2347939    37671.643    52944.979    36672.789    23397.163   -1861.5466    942.04731    20180.509    75.944588 
    4500    1519.3628   -160.25585    1.3747514   -158.88109    16921.467    4.2314755    4.2314755    4.2314755    16921.467    42626.431    68617.966   -60479.997   -2188.3148   -2827.1845     11850.28    75.766197 
    4600    1666.1668   -160.43058    1.5075828     -158.923   -32074.786    4.2826098    4.2826098    4.2826098   -32074.786   -43135.708    13900.169   -66988.817    20260.216    73.864632    -5406.529    78.546262 
    4700     2701.148   -161.29076    2.4440555    -158.8467   -75879.499    4.3110811    4.3110811    4.3110811   -75879.499   -101469.07   -95298.632   -30870.797    22647.974    12868.903   -1115.4804    80.123254 
    4800    1603.1629   -160.25748    1.4505755   -158.80691   -29114.201    4.2757955    4.2757955    4.2757955   -29114.201    10621.208   -28870.529   -69093.281    10999.223    -3197.264   -2106.1939    78.171921 
    4900    2078.3413   -160.68925    1.8805269   -158.80872    20841.047    4.2446027    4.2446027    4.2446027    20841.047    36879.875    36772.985   -11129.719    924.01311    7312.2914   -4998.7398    76.473531 
    5000    2665.6956   -161.27214    2.4119774   -158.86016   -5899.6641    4.2543224    4.2543224    4.2543224   -5899.6641   -22144.617   -17438.856    21884.481    12567.212   -2923.3223   -8695.9122    77.000081 
    5100    1238.8374   -160.00065    1.1209261   -158.87972    2004.7007    4.2651065    4.2651065    4.2651065    2004.7007    19386.653      9868.91   -23241.461    19646.477    9804.2738   -25641.388    77.587121 
    5200    1677.4238   -160.40667    1.5177683    -158.8889    49.955945    4.2697209    4.2697209    4.2697209    49.955945    15412.499   -8637.4341   -6625.1975    6616.5833    2312.0789   -25468.056    77.839215 
    5300    2212.2939    -160.8903      2.00173   -158.88857    -1726.089    4.2793078    4.2793078    4.2793078    -1726.089    -53324.18    27572.305    20573.608    9773.7769    -2828.989   -13804.847    78.364721 
    5400     1679.758   -160.38489    1.5198803   -158.86501   -5197.9773    4.2716588    4.2716588    4.2716588   -5197.9773   -18578.279    36211.543   -33227.196    1328.1813    2393.3458    264.76065    77.945251 
    5500    1898.8943   -160.57515    1.7181595   -158.85699    20116.117     4.262255     4.262255     4.262255    20116.117    63291.766    15183.462   -18126.878   -12906.557    15335.022    3960.4646     77.43161 
    5600    2393.6132    -161.0512    2.1657915   -158.88541   -3999.7702    4.2736702    4.2736702    4.2736702   -3999.7702    6342.0902   -40878.271     22536.87     3712.944      31451.2   -7794.1623    78.055412 
    5700    1708.0644   -160.42831    1.5454926   -158.88282   -63736.933    4.2883943    4.2883943    4.2883943   -63736.933   -46645.936   -31260.099   -113304.76    17955.929   -1361.5427    -14626.22    78.864969 
    5800    1593.0774   -160.32005    1.4414499    -158.8786   -12569.403     4.279375     4.279375     4.279375   -12569.403   -23197.148    49963.328   -64474.389    3040.2482   -10599.958   -4663.2366    78.368409 
    5900    2478.3905   -161.11327    2.2424998   -158.87077    6840.8989    4.2499725    4.2499725    4.2499725    6840.8989   -20205.364    9120.5926    31607.468    16735.848    1592.4137    16026.374    76.764133 
    6000    1711.9603   -160.41165    1.5490177   -158.86263      24379.5    4.2308249    4.2308249    4.2308249      24379.5    56246.023    8922.0497    7970.4283     11962.22    13581.315     30613.25    75.731256 
    6100    1491.3977   -160.24957     1.349448   -158.90012    17963.318    4.2498069    4.2498069    4.2498069    17963.318    52427.546    56078.608   -54616.198   -199.00364     10752.09    19160.415    76.755163 
    6200    2517.2503   -161.17481     2.277661   -158.89715   -12258.488    4.2842944    4.2842944    4.2842944   -12258.488   -32485.439   -12105.525    7815.5014    13993.128    4368.2415    28223.177     78.63899 
    6300    1946.3887   -160.61356    1.7611334   -158.85242   -32939.268    4.2909435    4.2909435    4.2909435   -32939.268   -71945.217   -13585.459   -13287.127   -915.97312    2003.0697   -4839.2651    79.005694 
    6400    1297.2522   -160.01454     1.173781   -158.84076   -1611.2635    4.2752799    4.2752799    4.2752799   -1611.2635   -20940.919    76401.688   -60294.559    -10696.69   -382.83425   -21560.365    78.143646 
    6500    2406.3247   -161.03448    2.1772932   -158.85719    4967.8185    4.2588586    4.2588586    4.2588586    4967.8185    -47088.83    34854.778    27137.507    10874.876   -13793.015   -325.10736    77.246654 
    6600    1919.8566   -160.60545    1.7371266   -158.86833   -6354.9522    4.2396265    4.2396265    4.2396265   -6354.9522    -62264.16    16350.193     26849.11   -7965.8167   -4954.8618    -12738.15    76.204883 
    6700    866.53237   -159.67695    0.7840567    -158.8929    15297.654    4.2403768    4.2403768    4.2403768    15297.654   -16820.041    74168.652   -11455.649       1549.4   -7130.7387   -22769.872    76.245349 
    6800     1716.099   -160.47063    1.5527624   -158.91787     2336.289    4.2698407    4.2698407    4.2698407     2336.289   -30738.691    22397.313    15350.246    3444.7878   -10338.759    7904.3594    77.845769 
    6900    1880.4643   -160.59131    1.7014836   -158.88983   -13211.924    4.2816055    4.2816055    4.2816055   -13211.924   -88493.286     25426.06    23431.454   -3723.7055   -649.06782   -11033.935    78.491014 
    7000    625.27072   -159.44631   0.56575809   -158.88055    4700.0836     4.261545     4.261545     4.261545    4700.0836   -61784.733    99277.342   -23392.358   -6111.5589   -15088.589   -63.617946    77.392923 
    7100    1053.5509   -159.83782   0.95327501   -158.88454    34326.794    4.2409416    4.2409416    4.2409416    34326.794   -31779.037    96345.184    38414.235     7744.222    11831.706   -2685.9252    76.275819 
    7200    1792.6073   -160.52425    1.6219888   -158.90227    41875.575    4.2517962    4.2517962    4.2517962    41875.575   -44535.969    107041.67    63121.028   -5394.0494    8433.6256   -11545.654       76.863 
    7300     1199.024   -159.99045    1.0849021   -158.90554   -7233.4031    4.2784183    4.2784183    4.2784183   -7233.4031    -62024.39    80445.365   -40121.185   -10331.428     10129.36    293.46009    78.315861 
    7400    1224.3888    -160.0031    1.1078527   -158.89525   -19670.344    4.2747694    4.2747694    4.2747694   -19670.344   -51376.764    20011.102    -27645.37   -25554.833    4401.3415    5238.3078    78.115652 
    7500    2005.2347   -160.69565    1.8143785   -158.88128    18035.099    4.2486714    4.2486714    4.2486714    18035.099   -19662.748   -5659.5869    79427.632   -15009.936   -5912.2496    6839.5296    76.693654 
    7600     1738.641   -160.45329    1.5731589   -158.88013    34919.649    4.2425645    4.2425645    4.2425645    34919.649    8286.4463    58605.269    37867.232   -8610.5069    18850.673   -12777.522    76.363418 
    7700    1298.7574   -160.06667     1.175143   -158.89152   -4904.9545    4.2599809    4.2599809    4.2599809   -4904.9545   -2194.8322    52473.395   -64993.426   -6654.3178    23279.609    14928.199    77.307734 
    7800     2246.392   -160.92055    2.0325827   -158.88797   -20612.674    4.2673236    4.2673236    4.2673236   -20612.674   -7862.0571   -29600.935   -24375.028   -14045.567    7469.9504     16364.69    77.708182 
    7900    2362.1537   -161.01827    2.1373263   -158.88094   -11780.196    4.2614602    4.2614602    4.2614602   -11780.196   -27047.664   -27848.353    19555.428   -16152.165   -10628.535   -15135.442    77.388302 
    8000    1786.7556   -160.49081    1.6166941   -158.87412    -8271.312    4.2601211    4.2601211    4.2601211    -8271.312   -49784.869    71086.269   -46115.336   -8102.2721   -6823.7687    5485.4478    77.315371 
    8100    1536.3518   -160.26295    1.3901234   -158.87283    5005.7256    4.2611164    4.2611164    4.2611164    5005.7256   -24645.715    83711.265   -44048.373    2276.0365   -10228.525   -231.05235    77.369574 
    8200     2163.423   -160.83819    1.9575106   -158.88068   -22933.333    4.2588763    4.2588763    4.2588763   -22933.333   -27514.095   -24318.521   -16967.383    21838.827   -9742.7145    -8894.969    77.247616 
    8300    2246.6449   -160.92454    2.0328116   -158.89173   -17169.589    4.2539142    4.2539142    4.2539142   -17169.589   -44498.364    5151.3785    -12161.78     13362.48   -8817.6727    4123.6342     76.97792 
    8400    2048.0511   -160.74589    1.8531197   -158.89277    1903.1845    4.2516873    4.2516873    4.2516873    1903.1845    1045.5729    11014.015   -6350.0345    22819.935    -10245.46   -9514.6161    76.857092 
    8500     2117.628    -160.8122    1.9160743   -158.89613     7782.909    4.2595573    4.2595573    4.2595573     7782.909    30351.674   -31683.769    24680.822    136.60157   -15464.231    767.16798    77.284677 
    8600    2827.2379   -161.44187    2.5581442   -158.88372   -26788.028    4.2696689    4.2696689    4.2696689   -26788.028   -45217.634   -279.69761   -34866.752   -9404.8386    7118.0868    11308.129    77.836371 
    8700    2252.3991   -160.91802    2.0380181      -158.88   -12615.189    4.2674303    4.2674303    4.2674303   -12615.189   -8293.3046    34999.241   -64551.502   -16214.194    8438.3638   -9163.4773    77.714011 
    8800    1690.7327   -160.40603    1.5298105   -158.87622    19386.524    4.2583284    4.2583284    4.2583284    19386.524    55698.933   -604.49811     3065.137   -8124.6562   -2349.2573    1272.5296    77.217803 
    8900    2243.0149    -160.9147     2.029527   -158.88517     16672.01    4.2575858    4.2575858    4.2575858     16672.01    30249.616    35316.575   -15550.163   -4835.4758   -9059.7763    27112.536    77.177412 
    9000    1620.0122   -160.35076    1.4658211   -158.88494   -25403.419    4.2658215    4.2658215    4.2658215   -25403.419    1615.6546    5072.9872   -82898.899      6156.26    8544.1108    33454.351    77.626146 
    9100    1290.6185    -160.0435    1.1677788   -158.87572   -20498.113     4.260016     4.260016     4.260016   -20498.113    17918.326   -16852.426   -62560.239     15394.21    4205.2819    24859.155    77.309648 
    9200    1837.7479   -160.55147    1.6628329   -158.88864    17530.502    4.2552141    4.2552141    4.2552141    17530.502     36249.84    63788.452   -47446.785    17037.978    5369.3464     18906.75     77.04851 
    9300    1610.7658   -160.35627    1.4574547   -158.89881   -5616.2615    4.2606661    4.2606661    4.2606661   -5616.2615    28782.466    47965.794   -93597.044   -13011.146    -2653.845    13790.656    77.345045 
    9400     1024.456   -159.81322    0.9269493   -158.88627   -15294.291    4.2627861    4.2627861    4.2627861   -15294.291     72447.28   -43890.053   -74440.101   -13908.295   -9799.2655   -6254.9117    77.460559 
    9500    1931.9579   -160.63293    1.7480761   -158.88485    4675.9364    4.2581925    4.2581925    4.2581925    4675.9364    50215.869    411.62198   -36599.682   -4971.0328   -4621.3282   -25737.409    77.210415 
    9600    1930.0254   -160.63214    1.7463275   -158.88582    4606.9639    4.2623722    4.2623722    4.2623722    4606.9639   -10231.001    79049.951   -54998.058   -1190.1016    14609.238   -34402.554    77.437995 
    9700    903.44083   -159.69955   0.81745225    -158.8821   -10022.807    4.2713696    4.2713696    4.2713696   -10022.807   -5882.7042    6162.5113   -30348.229   -1346.5585    17996.639    -21694.38    77.929421 
    9800     1587.252   -160.30958     1.436179    -158.8734   -5456.4809    4.2646445    4.2646445    4.2646445   -5456.4809    1144.9951   -26934.288    9419.8504    27306.991   -2212.1388    -7645.123    77.561912 
    9900    1591.0357   -160.30962    1.4396025   -158.87002    27377.012    4.2491412    4.2491412    4.2491412    27377.012    43957.218    35958.956    2214.8615    48141.178    202.95692   -4151.5945      76.7191 
   10000    657.96107   -159.49008   0.59533701   -158.89474   -5026.9133    4.2560271    4.2560271    4.2560271   -5026.9133    -34578.96    49729.099   -30230.879     32531.99   -20257.869   -4891.5456    77.092683 
   10100    1188.5336   -159.97127    1.0754102   -158.89586   -14748.604    4.2666684    4.2666684    4.2666684   -14748.604   -24969.046   -3484.4381   -15792.327    29719.307   -20054.734   -1763.9248    77.672389 
   10200    1979.3714   -160.66885    1.7909768   -158.87787   -341.35554    4.2597008    4.2597008    4.2597008   -341.35554    16319.302    -250.0423   -17093.326    15422.851   -11024.474    7983.3186    77.292486 
   10300    1135.5101   -159.90523    1.0274334    -158.8778    14419.636    4.2595629    4.2595629    4.2595629    14419.636    23654.123     27537.38   -7932.5952   -561.90943   -12848.766     15430.21    77.284979 
   10400    1417.5258   -160.16594    1.2826071   -158.88334    14801.887     4.271289     4.271289     4.271289    14801.887    35141.192    8566.5259    697.94322   -8710.0929   -9136.5522    15863.198    77.925008 
   10500    2237.1463   -160.90115     2.024217   -158.87693    6914.4719    4.2729253    4.2729253    4.2729253    6914.4719   -1988.7052    19580.983    3151.1382   -5203.4226    -12269.65    24782.482      78.0146 
   10600    1357.6385   -160.10072    1.2284198    -158.8723   -15451.957    4.2655172    4.2655172    4.2655172   -15451.957    -33415.55    32530.035   -45470.355    1638.4247   -8959.9853    7555.3614    77.609536 
   10700    1414.5633   -160.15236    1.2799266   -158.87243   -14973.457    4.2562875    4.2562875    4.2562875   -14973.457    -8046.801    6587.7156   -43461.287   -31983.252   -11948.455    10009.698    77.106831 
   10800    2477.5822   -161.11465    2.2417684   -158.87288    8610.3376    4.2500075    4.2500075    4.2500075    8610.3376   -4340.2215    31407.033   -1235.7989   -16402.363   -29505.944    18132.993    76.766029 
   10900    1947.4123   -160.64732    1.7620595   -158.88526    5873.2354    4.2620089    4.2620089    4.2620089    5873.2354   -11132.174    36406.376   -7654.4957    -5712.198   -2915.2149    14057.939    77.418199 
   11000    1770.4498   -160.48052    1.6019402   -158.87858   -24784.677    4.2786768    4.2786768    4.2786768   -24784.677   -333.64493   -35469.114   -38551.271   -5687.2965   -7932.7682    5107.1793    78.330058 
   11100    2841.3667   -161.44105    2.5709283   -158.87013   -1234.2176    4.2679482    4.2679482    4.2679482   -1234.2176     13613.29   -25644.231    8328.2885    8116.9612   -19007.281   -5597.7342    77.742308 
   11200    2586.3733   -161.20161    2.3402049    -158.8614   -1911.4698    4.2547674    4.2547674    4.2547674   -1911.4698   -23928.931    16288.406     1906.115   -2596.1556     3919.219   -16015.618    77.024246 
   11300    1536.8995   -160.27152     1.390619    -158.8809    -22329.19    4.2735469    4.2735469    4.2735469    -22329.19   -22196.358    1283.3539   -46074.564    -10604.37    11151.256    2001.5875    78.048657 
   11400    2345.4499   -160.99117    2.1222123   -158.86895   -34763.283    4.2847212    4.2847212    4.2847212   -34763.283   -38524.861   -31736.224   -34028.763    -4233.239   -28382.206   -5303.2316    78.662493 
   11500    2609.9149   -161.22725    2.3615058   -158.86574    11248.515    4.2575522    4.2575522    4.2575522    11248.515    25311.503    38624.982    -30190.94   -5298.6191   -1447.0234   -8236.9004    77.175589 
   11600     1599.342   -160.31172    1.4471183    -158.8646    10948.565    4.2423036    4.2423036    4.2423036    10948.565    49124.391   -4719.2028   -11559.492    14147.734   -2982.6555   -20824.266    76.349329 
   11700    1213.2639   -159.99399    1.0977867    -158.8962    -13662.46     4.260872     4.260872     4.260872    -13662.46     10886.31   -31576.824   -20296.865    -1239.906    345.29652   -17108.665    77.356261 
   11800    1987.3019   -160.68489    1.7981526   -158.88674   -21915.243    4.2782138    4.2782138    4.2782138   -21915.243   -20342.209    4417.1658   -49820.685    10680.429    17007.248    10242.157    78.304634 
   11900    1599.8926    -160.3252    1.4476165   -158.87758    31192.005     4.264722     4.264722     4.264722    31192.005    28133.285    100615.61   -35172.879    17977.233    1133.0629    6393.3069    77.566141 
   12000    962.22287   -159.75663   0.87063948   -158.88599    13940.394    4.2569611    4.2569611    4.2569611    13940.394    2864.7046    36154.778    2801.7003   -5807.0057    18808.716    17454.541    77.143449 
   12100    1113.3359   -159.90182    1.0073697   -158.89445   -5456.9627    4.2651663    4.2651663    4.2651663   -5456.9627   -11864.818   -25328.206    20822.136    8453.8871    18109.967     4446.651    77.590385 
   12200    1904.9676   -160.60491    1.7236547   -158.88126    8662.7092    4.2578124    4.2578124    4.2578124    8662.7092    54335.996    6810.9156   -35158.784   -3031.0246    26178.521     16921.17    77.189739 
   12300    1551.7551   -160.28095    1.4040606   -158.87689    22606.601    4.2535374    4.2535374    4.2535374    22606.601     62062.58     64923.27   -59166.047   -6904.1443    34914.288    16083.816     76.95747 
   12400     1438.148   -160.19398    1.3012665   -158.89271   -29569.718    4.2734891    4.2734891    4.2734891   -29569.718   -46740.567   -9448.5366    -32520.05    9475.5594    17482.499    17472.371     78.04549 
   12500    1861.3943   -160.56636    1.6842287   -158.88213   -21177.031    4.2815792    4.2815792    4.2815792   -21177.031   -21662.263    1682.6058   -43551.434     330.1023    7582.3586    31520.414     78.48957 
   12600    1848.9786   -160.53977    1.6729947   -158.86677    14176.961    4.2656061    4.2656061    4.2656061    14176.961    46257.696    -12451.52    8724.7056    1685.1608     2579.776   -3.8131852     77.61439 
   12700     1515.059   -160.23231    1.3708572   -158.86145    21158.424    4.2619891    4.2619891    4.2619891    21158.424    24829.409    1123.9314    37521.932    7372.5498   -18422.068    5957.2669    77.417117 
   12800    1764.2266   -160.46712    1.5963093   -158.87081    8107.7878    4.2759271    4.2759271    4.2759271    8107.7878    38152.232     628.4671   -14457.336   -14479.356    6705.9423   -2948.3977     78.17914 
   12900    2047.3033   -160.71678     1.852443   -158.86433   -18633.265    4.2728401    4.2728401    4.2728401   -18633.265    31245.384   -5276.7938   -81868.384   -23351.332    -8769.931    1459.4871    78.009934 
   13000    1945.7328   -160.61844      1.76054    -158.8579   -4595.1639    4.2499835    4.2499835    4.2499835   -4595.1639    8031.4061   -22317.322    500.42461   -6800.9575     9716.023    18363.862     76.76473 
   13100    1984.9018   -160.67452    1.7959809   -158.87854    4836.2293    4.2527923    4.2527923    4.2527923    4836.2293    3048.8759   -13592.478     25052.29    -334.0058    21321.233   -2336.3044     76.91703 
   13200    2402.1687   -161.06687    2.1735327   -158.89334   -7232.8799    4.2744564    4.2744564    4.2744564   -7232.8799    17617.119   -8293.7385   -31022.021     15914.77   -40.247246   -1913.3453    78.098494 
   13300    2134.1643   -160.80164    1.9310367    -158.8706   -2495.0692    4.2728904    4.2728904    4.2728904   -2495.0692   -15813.991   -22096.107     30424.89    1243.6211    15727.047   -9674.1679    78.012691 
   13400    1856.4424   -160.53402    1.6797481   -158.85427   -12068.029    4.2626176    4.2626176    4.2626176   -12068.029   -72446.758   -10680.989    46923.661    1952.5247    10232.775    -969.2614    77.451375 
   13500    2133.1024    -160.8026    1.9300759   -158.87252    9811.5961    4.2674277    4.2674277    4.2674277    9811.5961   -13442.549    30975.678    11901.659    17478.566    -20513.73    1610.2173    77.713868 
   13600    2210.0272   -160.86638     1.999679    -158.8667   -5583.6779    4.2655635    4.2655635    4.2655635   -5583.6779   -45315.972    24892.836    3672.1019   -718.28141   -19685.027   -1782.5326    77.612063 
   13700    1229.8182   -159.97095    1.1127653   -158.85818   -6093.0667    4.2548834    4.2548834    4.2548834   -6093.0667    -55458.22     5703.535    31475.485     21738.63   -41429.297   -8039.5447    77.030546 
   13800    1421.4612   -160.16699     1.286168   -158.88082    7283.2869    4.2569484    4.2569484    4.2569484    7283.2869   -11710.589   -12582.481     46142.93    -2970.272   -37568.786   -309.03913    77.142758 
   13900    1849.5054   -160.56875    1.6734713   -158.89528    2147.4355    4.2692718    4.2692718    4.2692718    2147.4355   -26385.889   -13248.673    46076.869   -3411.3282   -21597.179   -5283.4988    77.814659 
   14000    1410.5815   -160.15107    1.2763238   -158.87475   -46517.893    4.2742489    4.2742489    4.2742489   -46517.893   -62126.544   -34255.739   -43171.398    3506.5335   -9037.4716    7072.8564    78.087126 
   14100    1978.8313   -160.64485    1.7904881   -158.85436   -35639.619    4.2676472    4.2676472    4.2676472   -35639.619   -46110.355   -29318.076   -31490.425   -9505.2159    14575.679   -2279.9357     77.72586 
   14200    2364.0572    -160.9969    2.1390486   -158.85786    22567.485    4.2604462    4.2604462    4.2604462    22567.485   -1747.2957   -1740.1656    71189.917   -854.14539    27336.283    11802.068     77.33307 
   14300    1594.9496   -160.32465    1.4431439    -158.8815   -16341.367    4.2708973    4.2708973    4.2708973   -16341.367     -55998.2     -26719.8      33693.9   -17436.024    9644.6567    18781.076    77.903576 
   14400    1802.4724     -160.509    1.6309149   -158.87809   -30727.853    4.2832326    4.2832326    4.2832326   -30727.853   -50201.968    -3244.902   -38736.689   -3065.6045    25599.907   -5635.5426    78.580537 
   14500    2129.0836   -160.79321    1.9264396   -158.86677    625.19367    4.2788383    4.2788383    4.2788383    625.19367   -68244.901    53096.233    17024.249    4671.7352    26130.412    4396.9831    78.338926 
   14600    1377.9572   -160.10599    1.2468047   -158.85918    12248.648    4.2722923    4.2722923    4.2722923    12248.648   -92967.543    25330.189     104383.3    30590.869   -5487.6797   -3328.9396    77.979938 
   14700    1659.2942   -160.36907    1.5013642   -158.86771   -7761.4228    4.2711975    4.2711975    4.2711975   -7761.4228   -40200.545   -45769.233    62685.509    26182.565   -12617.652   -107.78346    77.920003 
   14800    2266.5054   -160.91776    2.0507817   -158.86697   -13863.001    4.2664184    4.2664184    4.2664184   -13863.001   -46380.157   -8741.0306    13532.186    9330.7108    -10546.51   -5120.7787    77.658741 
   14900    1865.3709   -160.54966    1.6878268   -158.86183   -4303.4038    4.2645783    4.2645783    4.2645783   -4303.4038   -49424.802   -12342.447    48857.037   -15256.789    4098.6386   -13230.581    77.558297 
   15000    1930.5911   -160.61575    1.7468394   -158.86891   -7199.8247    4.2756975    4.2756975    4.2756975   -7199.8247   -29880.448    3876.7907    4404.1831   -3873.4364   -5146.4789   -14157.807    78.166543 
   15100    2639.1398   -161.24808    2.3879492   -158.86013   -16874.585    4.2785622    4.2785622    4.2785622   -16874.585   -19829.744   -8234.6607    -22559.35   -6492.9096   -1603.7469   -33351.958    78.323763 
   15200    1881.2552   -160.55007    1.7021993   -158.84788   -13082.026    4.2603674    4.2603674    4.2603674   -13082.026   -23881.989   -26019.299     10655.21    4273.4421   -14699.818   -13195.784    77.328783 
   15300    1971.0442    -160.6458    1.7834422   -158.86235   -22715.346    4.2583683    4.2583683    4.2583683   -22715.346   -10457.379   -66298.451    8609.7933    22976.584   -12232.836    2090.9955    77.219975 
   15400    2539.9337   -161.17591    2.2981854   -158.87772   -18135.106    4.2780491    4.2780491    4.2780491   -18135.106   -8596.6637   -25865.581   -19943.073    26204.212    10013.996   -20509.323    78.295587 
   15500    1445.4395   -160.17038    1.3078641   -158.86252   -6698.5481    4.2790681    4.2790681    4.2790681   -6698.5481   -41227.287     7399.672    13731.971     40225.78   -17746.049     5900.406    78.351549 
   15600    1436.0062   -160.14767    1.2993286   -158.84834    14188.703    4.2636276    4.2636276    4.2636276    14188.703    8557.9005    5539.6278    28468.582    24154.331   -9802.1767    133.53081    77.506441 
   15700     2481.685   -161.10494    2.2454807   -158.85946    12347.635    4.2628741    4.2628741    4.2628741    12347.635    18612.598    31451.506     -13021.2    12813.862    17625.662   -6884.3523    77.465355 
   15800    1923.1165   -160.60035    1.7400762   -158.86027   -25707.486    4.2658254    4.2658254    4.2658254   -25707.486   -53454.417     1177.084   -24845.127    9538.3359   -7884.9598     24381.55    77.626363 
   15900    1689.5364   -160.38692     1.528728   -158.85819   -27488.894    4.2622283    4.2622283    4.2622283   -27488.894   -22279.518   -47950.825    -12236.34   -2666.3701    8233.0265    11367.019    77.430156 
   16000    2504.3059   -161.13633    2.2659486   -158.87039   -15482.748    4.2690452    4.2690452    4.2690452   -15482.748    23882.188   -29706.843    -40623.59   -15468.149    13143.019    14331.265    77.802266 
   16100    1672.4915   -160.37775    1.5133054   -158.86445     287.6654    4.2768128    4.2768128    4.2768128     287.6654    6162.8867   -3176.1657   -2123.7249    9184.8248    269.20652    25619.266    78.227731 
   16200    1059.6691   -159.80819   0.95881089   -158.84938    5783.2768    4.2741843    4.2741843    4.2741843    5783.2768    1539.7826   -13650.042     29460.09     35831.77    11655.755   -271.98279    78.083585 
   16300    1830.1999   -160.51334    1.6560034   -158.85734   -10530.706    4.2689493    4.2689493    4.2689493   -10530.706   -3080.7317   -44697.471    16186.084    55086.336   -6934.8567    4027.7247    77.797027 
   16400    956.36746   -159.72952   0.86534137   -158.86418     7608.513    4.2594967    4.2594967    4.2594967     7608.513    15811.661   -36336.576    43350.454    48213.214    5113.6837    18348.609    77.281379 
   16500    1229.5667   -159.97825    1.1125378   -158.86571   -7930.8296    4.2580879    4.2580879    4.2580879   -7930.8296    5320.3926    -46376.04    17263.159    25702.546    19532.176    19938.907    77.204723 
   16600     1781.858   -160.49952    1.6122625   -158.88726   -1867.5638    4.2718513    4.2718513    4.2718513   -1867.5638    43150.637   -4038.2616   -44715.066    13909.558    25813.563    9837.8614    77.955791 
   16700    1306.0177   -160.06342    1.1817123   -158.88171    5919.1323    4.2768257    4.2768257    4.2768257    5919.1323    16961.812    7737.5123   -6941.9273    2771.4916    13164.266   -5986.2465    78.228439 
   16800    1493.5363   -160.21767     1.351383   -158.86629    29832.318    4.2775157    4.2775157    4.2775157    29832.318    50635.461   -46859.199    85720.694    4708.4799    92.043026   -13455.304    78.266308 
   16900    2051.7797   -160.71705    1.8564934   -158.86055   -5190.2982    4.2878379    4.2878379    4.2878379   -5190.2982     23772.77   -42823.582    3479.9175    12547.395   -849.13375   -7050.2476    78.834275 
   17000    1896.6557   -160.56932     1.716134   -158.85319   -5658.0176    4.2738936    4.2738936    4.2738936   -5658.0176    8801.6683   -2468.9642   -23306.757   -592.71905    21237.944   -11001.372    78.067653 
   17100     2199.407    -160.8293    1.9900697   -158.83923    8730.2532     4.256922     4.256922     4.256922    8730.2532    33728.709   -15434.511    7896.5614    -7107.673    28538.498    10525.677    77.141322 
   17200     1828.033   -160.51259    1.6540427   -158.85855   -42466.042    4.2743829    4.2743829    4.2743829   -42466.042   -10997.562   -22429.152    -93971.41   -13221.825    12265.861    12705.355    78.094467 
   17300    1135.7734   -159.87479    1.0276716   -158.84712   -6958.5915    4.2829024    4.2829024    4.2829024   -6958.5915    31453.934    21887.586   -74217.294    11605.148   -18742.436    10242.377     78.56236 
   17400    1713.5132   -160.37918    1.5504227   -158.82876    14669.743    4.2772343    4.2772343    4.2772343    14669.743    74244.726   -46572.692    16337.194    7149.0864   -37274.443    15020.537    78.250858 
   17500    1486.1494   -160.19221    1.3446992   -158.84751    14405.822    4.2786506    4.2786506    4.2786506    14405.822     56251.64   -9212.5786   -3821.5948   -11294.886   -14201.746   -8850.0552    78.328618 
   17600    2152.0977   -160.79144    1.9472632   -158.84418   -16471.723    4.2764887    4.2764887    4.2764887   -16471.723   -37398.981    42099.689   -54115.878   -3589.5482    8846.4439   -3360.7976    78.209944 
   17700    2626.3191   -161.21084    2.3763487   -158.83449    7690.3329    4.2605392    4.2605392    4.2605392    7690.3329   -6998.8105    6869.4662    23200.343    12851.979   -10080.856    3124.5913    77.338136 
   17800    2376.6542   -160.99667    2.1504467   -158.84623   -3928.6793    4.2572701    4.2572701    4.2572701   -3928.6793    46922.004   -35170.615   -23537.427   -2434.2521    8178.1624   -6954.3353     77.16025 
   17900    2209.2771   -160.87244    1.9990004   -158.87344   -28650.182    4.2828684    4.2828684    4.2828684   -28650.182   -8087.0675   -14120.878   -63742.601    1505.7539   -4392.8367   -3364.4303    78.560492 
   18000    2243.5262    -160.8762    2.0299896   -158.84621   -30721.454    4.2909252    4.2909252    4.2909252   -30721.454   -7349.3591   -46514.838   -38300.166   -11481.847   -15529.162   -13005.443    79.004682 
   18100    1290.8464   -159.98547    1.1679849   -158.81748    17824.021    4.2718204    4.2718204    4.2718204    17824.021    82430.264   -40401.961    11443.759    4695.1593    3742.6703   -12238.415    77.954101 
   18200    1480.1421    -160.1812    1.3392637   -158.84193    17983.722    4.2720437    4.2720437    4.2720437    17983.722    46817.625    2663.4586    4470.0821    2117.1594    16280.877   -478.05261    77.966323 
   18300    1391.3631   -160.10748    1.2589345   -158.84854   -7012.6541     4.274173     4.274173     4.274173   -7012.6541    15023.884    -33984.25   -2077.5967    7338.6394   -7501.3446   -8108.5438    78.082963 
   18400    1326.1448   -160.02663    1.1999237    -158.8267   -14177.061    4.2627438    4.2627438    4.2627438   -14177.061    37946.563   -32792.441   -47685.305    1741.0214   -3150.2127   -14208.872    77.458251 
   18500    1708.2562   -160.42154    1.5456661   -158.87587    22606.462    4.2836202    4.2836202    4.2836202    22606.462    67860.547   -22068.499    22027.337   -19347.458    2434.7696   -17010.908     78.60187 
   18600    1781.6338   -160.46286    1.6120597    -158.8508   -33281.772    4.3177257    4.3177257    4.3177257   -33281.772    13835.643   -92143.265   -21537.694   -9890.9754    10984.353    7444.8989    80.494301 
   18700    1317.4008    -159.9947    1.1920119   -158.80269   -11528.334    4.2950947    4.2950947    4.2950947   -11528.334   -30854.406    -23114.07    19383.474    3844.8203    1016.1568   -9467.1601    79.235211 
   18800    2439.7009   -160.99797    2.2074927   -158.79048    51046.655    4.2578638    4.2578638    4.2578638    51046.655    35094.003   -26428.686    144474.65   -16702.618    8796.0835   -6949.6447    77.192533 
   18900    1927.7002   -160.59345    1.7442236   -158.84923    3431.0191    4.2702741    4.2702741    4.2702741    3431.0191   -11030.602   -28057.442    49381.101    -15697.88   -2327.8674     17504.31    77.869477 
   19000    1213.4869   -159.96149    1.0979884    -158.8635   -31658.705    4.2997278    4.2997278    4.2997278   -31658.705   -12014.844    955.44641   -83916.717    6964.9961    7580.1137   -715.53987    79.491903 
   19100     2611.969    -161.1888    2.3633644   -158.82543   -45826.688    4.3029168    4.3029168    4.3029168   -45826.688    -22985.12   -84251.811   -30243.135   -18050.921    27485.876   -16530.754    79.668906 
   19200    1108.6388   -159.82427    1.0031197   -158.82115    18187.533    4.2884443    4.2884443    4.2884443    18187.533    149746.48   -33163.508   -62020.368   -24460.139    22784.825    3754.2672    78.867728 
   19300    1632.2401   -160.31796    1.4768852   -158.84107    16768.669    4.2742445    4.2742445    4.2742445    16768.669    44963.241    -42477.57    47820.336    8027.3176    27605.735   -7344.8859    78.086884 
   19400    2301.7829   -160.93624    2.0827015   -158.85354    10718.448    4.2767555    4.2767555    4.2767555    10718.448   -68373.717   -12243.321    112772.38    19157.284   -3458.9433   -14745.879    78.224586 
   19500    1568.1237   -160.26728    1.4188713    -158.8484   -13761.872    4.2791736    4.2791736    4.2791736   -13761.872   -23669.111   -25569.749    7953.2435    3071.9536   -3784.4668   -3715.5107    78.357345 
   19600    2218.8644   -160.84253    2.0076752   -158.83486   -24629.178     4.283228     4.283228     4.283228   -24629.178   -7694.2426   -20888.193   -45305.099    1207.0111   -20801.531    11648.142    78.580279 
   19700    1755.9228   -160.43356    1.5887959   -158.84476    34130.231    4.3009739    4.3009739    4.3009739    34130.231     18888.91    47468.775    36033.008    21288.353    3888.6227   -6324.4069    79.561036 
   19800    1645.4955     -160.286    1.4888789   -158.79712    -44814.63    4.3126128    4.3126128    4.3126128    -44814.63    30901.774   -43257.724   -122087.94    8765.7021    14649.427    721.00052    80.208685 
   19900     2425.287   -160.97266    2.1944507   -158.77821   -2073.7054    4.2875546    4.2875546    4.2875546   -2073.7054   -29743.275   -32107.519    55629.677   -8370.5595   -10434.546    2541.6574    78.818648 
   20000    1350.5152   -160.02786    1.2219745   -158.80588    72352.622    4.2724524    4.2724524    4.2724524    72352.622    39096.766    72914.749    105046.35    9719.8043     23377.66   -25530.992    77.988702 
   20100    1269.8122    -160.0001    1.1489527   -158.85115    5086.3152    4.3041721    4.3041721    4.3041721    5086.3152    10046.159   -751.50646    5964.2926   -329.14638     2228.285   -6857.5586    79.738649 
   20200    2433.8961   -161.00787    2.2022404   -158.80563   -57375.446    4.3366687    4.3366687    4.3366687   -57375.446   -76191.095   -54964.499   -40970.744   -3049.4818   -29005.222    6382.7993     81.55841 
   20300    1154.9434   -159.81671    1.0450171   -158.77169    12545.273    4.3061418    4.3061418    4.3061418    12545.273    11844.865     104331.9    -78540.95    26777.791    9674.6348   -16428.708    79.848173 
   20400    1957.8825   -160.51532    1.7715332   -158.74379    18453.265     4.254119     4.254119     4.254119    18453.265     27521.49    24875.505    2962.8011     10741.13    11498.324   -8836.3605    76.989037 
   20500    3048.7724   -161.55297    2.7585933   -158.79437   -13834.932    4.2535915    4.2535915    4.2535915   -13834.932   -20415.303   -21437.858    348.36641   -13753.126    3716.9261   -7728.0244    76.960404 
   20600     1630.812   -160.33884    1.4755929   -158.86325   -27759.816     4.304713     4.304713     4.304713   -27759.816    -5719.442    13673.076   -91233.084    1985.4743    15935.345   -6556.1829    79.768719 
   20700    1433.0326   -160.09962     1.296638   -158.80298   -1528.4756    4.3244944    4.3244944    4.3244944   -1528.4756    12678.925     43333.81   -60598.162    18796.242    1709.3224   -13413.321    80.873461 
   20800    2341.3117    -160.8818     2.118468   -158.76333   -38358.702    4.2888123    4.2888123    4.2888123   -38358.702   -55300.068    17581.286   -77357.324   -25782.596    2637.8481   -9153.3438    78.888033 
   20900    2034.7367   -160.59399    1.8410725   -158.75292   -2603.4327    4.2555189    4.2555189    4.2555189   -2603.4327    18944.126    8553.7216   -35308.146   -23655.646   -11995.765   -4951.0221    77.065068 
   21000    2167.2945   -160.80616    1.9610136   -158.84515    10041.684    4.2778262    4.2778262    4.2778262    10041.684   -4781.5274   -3986.4473    38893.027   -7846.1051    -23888.74    20149.161    78.283352 
   21100    1596.6325    -160.2873    1.4446666   -158.84263    -34306.34    4.3111875    4.3111875    4.3111875    -34306.34    8761.1218    21387.302   -133067.45    25535.517   -9148.0531   -12566.844    80.129186 
   21200     1403.639   -160.07811    1.2700421   -158.80807    17878.192    4.3060367    4.3060367    4.3060367    17878.192    124000.17   -57889.294   -12476.299     13635.03     24975.64   -1594.3435    79.842326 
   21300    2257.7288   -160.83067    2.0428405   -158.78783   -5902.4163    4.2856285    4.2856285    4.2856285   -5902.4163    106572.77   -66332.368    -57947.65   -7725.5713   -1276.8452    19123.462    78.712475 
   21400    1551.0669   -160.23536    1.4034379   -158.83193    13154.977    4.2846244    4.2846244    4.2846244    13154.977    65773.103    27142.146   -53450.319   -14708.542   -12749.309    10243.378    78.657164 
   21500    2370.4573   -160.99169    2.1448396   -158.84685    -37266.98    4.2956657    4.2956657    4.2956657    -37266.98   -62688.213   -1729.9192   -47382.808   -12432.232    21529.798   -8723.3532    79.266818 
   21600     1658.414   -160.32997    1.5005679   -158.82941    9185.2258    4.2818094    4.2818094    4.2818094    9185.2258   -28725.642    118159.47   -61878.153    496.84771     12743.56   -48.894213    78.502228 
   21700    1362.0642   -160.05863    1.2324243   -158.82621    39177.661     4.265348     4.265348     4.265348    39177.661    51198.742    160637.81   -94303.571    32448.197    6103.0623    1134.6712    77.600303 
   21800    2339.0424   -160.96536    2.1164147   -158.84895    16640.193    4.2726315    4.2726315    4.2726315    16640.193   -6255.2826    51464.418    4711.4438    7605.9047    14491.174    1501.6123     77.99851 
   21900    1723.7301   -160.40924    1.5596672   -158.84957   -28090.992    4.2888459    4.2888459    4.2888459   -28090.992   -31277.498    17475.518   -70470.997   -14793.522   -4807.0893   -5081.4944    78.889884 
   22000    1717.9529    -160.3852    1.5544399   -158.83076   -9907.7716    4.2842371    4.2842371    4.2842371   -9907.7716    20744.459    20158.458   -70626.231   -8481.3872   -23690.313    3202.1547    78.635833 
   22100    2891.3379   -161.43293    2.6161433   -158.81679    -28932.61    4.2677972    4.2677972    4.2677972    -28932.61   -39264.535   -38036.012   -9497.2847    7784.8042    5376.1861    18377.556    77.734057 
   22200    1478.5303   -160.17624    1.3378053   -158.83843   -4887.2626    4.2683729    4.2683729    4.2683729   -4887.2626   -26244.192   -21518.855    33101.259    14592.563   -9961.4653    8776.1762    77.765519 
   22300    1535.4627    -160.2444    1.3893189   -158.85508    30913.887    4.2841729    4.2841729    4.2841729    30913.887   -32616.327    40771.695    84586.292    3858.6308   -8583.4285   -31228.811    78.632299 
   22400    2259.0759    -160.8844    2.0440593   -158.84034   -7373.2067    4.2968508    4.2968508    4.2968508   -7373.2067   -61234.197   -12587.959    51702.536    9207.4808     3431.564   -1001.3622    79.332442 
   22500    1467.5218   -160.13819    1.3278445   -158.81034   -42737.116    4.2969326    4.2969326    4.2969326   -42737.116    29532.994   -38415.262   -119329.08    9694.3484    166.77437   -580.78221    79.336974 
   22600     1758.708   -160.39484     1.591316   -158.80352    52636.459    4.2841709    4.2841709    4.2841709    52636.459    72975.775    45319.844    39613.759   -19812.552   -22016.553   -25801.535    78.632187 
   22700    2030.5404   -160.63062    1.8372756   -158.79334   -2337.9182    4.2773671    4.2773671    4.2773671   -2337.9182    38133.463   -2031.3057   -43115.912   -13611.535    3630.1806    23121.669    78.258149 
   22800    1743.5223   -160.38953    1.5775756   -158.81196   -42760.689    4.2905654    4.2905654    4.2905654   -42760.689   -39686.424   -46241.541   -42354.103    8396.8946    5337.8965    31256.535    78.984808 
   22900    1872.5134   -160.52185    1.6942895   -158.82756    52879.835    4.3060046    4.3060046    4.3060046    52879.835    53846.276    15594.181    89199.048   -19862.134   -24738.219   -13842.164     79.84054 
   23000    1567.3346   -160.19579    1.4181573   -158.77763   -63863.075    4.3100291    4.3100291    4.3100291   -63863.075    5871.0011   -70715.717   -126744.51    4238.8292    8455.7228    8153.4764    80.064614 
   23100    1789.0939   -160.37985    1.6188098   -158.76104    12974.842    4.2889949    4.2889949    4.2889949    12974.842   -37833.862    64630.309    12128.079      86.1782   -5783.4956   -7851.7884    78.898108 
   23200    2073.0124    -160.6576    1.8757052    -158.7819    37467.455    4.2779879    4.2779879    4.2779879    37467.455    7606.7869    47640.986    57154.593   -12287.101    6311.4384   -33574.626    78.292228 
   23300    1586.9631    -160.2258    1.4359176   -158.78988   -71379.325     4.287051     4.287051     4.287051   -71379.325   -30810.619   -32595.356      -150732    6937.9463    33900.974    12950.609     78.79088 
   23400    1948.2787    -160.5733    1.7628435   -158.81046    16384.774    4.2948407    4.2948407    4.2948407    16384.774    28290.473   -5538.7604     26402.61    -10346.55    4987.6619   -1128.3369    79.221159 
   23500    1767.8762   -160.39724    1.5996116   -158.79763   -3035.1271    4.2976302    4.2976302    4.2976302   -3035.1271    22210.029   -291.18957   -31024.221   -10848.134    8127.8326   -18938.824    79.375617 
   23600    1677.2071   -160.29716    1.5175723   -158.77959    -71649.35    4.2881512    4.2881512    4.2881512    -71649.35   -59930.861   -11341.207   -143675.98    12287.526    17804.407    3543.8953    78.851559 
   23700     2044.555   -160.65286    1.8499563   -158.80291    55728.859    4.2701844    4.2701844    4.2701844    55728.859    21489.963    12667.268    133029.34   -9106.6757   -30986.885    373.20878    77.864571 
   23800    1568.2452   -160.23528    1.4189812    -158.8163    16254.737     4.273267     4.273267     4.273267    16254.737    13809.477    24063.572    10891.162   -2193.1293   -18782.712   -24404.404    78.033323 
   23900    1543.7859   -160.21692    1.3968499   -158.82007   -61145.787    4.2879029    4.2879029    4.2879029   -61145.787   -43521.757   -22159.655   -117755.95    13525.281    4589.9449   -121.18188     78.83786 
   24000    2107.7797   -160.73093    1.9071633   -158.82377    19466.289    4.2895209    4.2895209    4.2895209    19466.289    56864.933   -25556.927    27090.861    -10541.23   -20615.343    4778.5525    78.927137 
   24100    1168.4202   -159.87702    1.0572112   -158.81981    18526.546    4.2854076    4.2854076    4.2854076    18526.546    86106.076     54016.73   -84543.167   -25832.776   -7291.6216    5239.7928    78.700301 
   24200    2119.0199   -160.72967    1.9173338   -158.81234   -27569.683    4.2829099    4.2829099    4.2829099   -27569.683   -15775.957   -38824.422   -28108.671    7956.8067    15072.203    3159.7315    78.562777 
   24300    2382.0857   -160.98361    2.1553612   -158.82824   -3638.9147    4.2878636    4.2878636    4.2878636   -3638.9147   -62821.789    13904.109    38000.936    8939.0456   -6685.8198    -15411.48    78.835692 
   24400    1183.4533    -159.9015    1.0708134   -158.83069    6120.9708    4.2931595    4.2931595    4.2931595    6120.9708     13502.16    100729.84   -95869.084   -15364.084   -6948.2505   -22812.052    79.128162 
   24500    2152.1206   -160.76097     1.947284   -158.81369    -6326.123    4.2839488    4.2839488    4.2839488    -6326.123   -45841.218   -5094.7021    31957.551    8274.2067    26337.452   -4791.1249     78.61996 
   24600    2085.1134   -160.69093    1.8866544   -158.80427     71.73029    4.2726748    4.2726748    4.2726748     71.73029    67091.131   -35633.833   -31242.107   -4462.2855    4630.7234   -4803.7231    78.000885 
   24700    1227.0325   -159.94477    1.1102448   -158.83453    33543.851    4.2789976    4.2789976    4.2789976    33543.851    114483.15    33045.813    -46897.41   -23302.725   -20184.703   -10097.539    78.347679 
   24800     2187.777   -160.82623    1.9795466   -158.84668   -12938.842     4.292877     4.292877     4.292877   -12938.842    38826.833   -74198.208   -3445.1501   -4810.1713   -3601.6302   -4560.1337     79.11254 
   24900    2218.4417   -160.83907    2.0072927   -158.83177    -39243.79    4.2925124    4.2925124    4.2925124    -39243.79   -25678.265   -42886.628   -49166.476    14370.453    6051.8008    15533.858    79.092385 
   25000     1254.539    -159.9622    1.1351332   -158.82706    25358.129    4.2817094    4.2817094    4.2817094    25358.129    3026.9951     54782.57    18264.824   -8267.4277   -16403.827   -4515.2931    78.496731 
   25100    1975.4618   -160.62141    1.7874394   -158.83397    40780.851    4.2746805    4.2746805    4.2746805    40780.851    16590.111    26048.696    79703.746   -16739.535   -10461.624   -6577.6377     78.11078 
   25200    1767.6558   -160.43881    1.5994121    -158.8394    1300.4981    4.2835002    4.2835002    4.2835002    1300.4981   -5562.7772    13902.451   -4438.1796    16004.985    2318.2076    670.26442    78.595266 
   25300    1839.9639   -160.49735     1.664838   -158.83251    -29099.31    4.2921622    4.2921622    4.2921622    -29099.31    27787.142   -40106.869   -74978.203    6682.0434    -1674.582   -4648.2668    79.073029 
   25400    1753.3421   -160.41812    1.5864608   -158.83165    37393.126    4.2842237    4.2842237    4.2842237    37393.126    108928.49   -60837.722    64088.614   -6823.5701   -22437.276   -12187.326    78.635096 
   25500    1088.8584   -159.81768   0.98522192   -158.83246    39945.519    4.2804467    4.2804467    4.2804467    39945.519    140705.43    -727.2709   -20141.599   -5803.4832   -12038.962    16202.998    78.427305 
   25600    2094.5486   -160.72992    1.8951916   -158.83473   -23608.942    4.2863491    4.2863491    4.2863491   -23608.942    43259.987   -51718.313     -62368.5    15732.219    7512.6637   -518.01943    78.752186 
   25700    2323.4868   -160.93513    2.1023397   -158.83279   -17445.553    4.2766772    4.2766772    4.2766772   -17445.553   -42177.071    -16066.87    5907.2812    21386.273    6777.2576    -8836.377    78.220289 
   25800    1456.7289   -160.15984     1.318079   -158.84177    3307.4445    4.2701117    4.2701117    4.2701117    3307.4445     16199.81     54722.81   -61000.286   -2456.4452    483.88959   -1982.0388     77.86059 
   25900    1713.1038     -160.414    1.5500523   -158.86395    22873.578    4.2890988    4.2890988    4.2890988    22873.578     60759.28    40393.826   -32532.372   -30366.616    7530.4049   -13017.608    78.903845 
   26000    1565.2501   -160.25329    1.4162712   -158.83702   -29517.439    4.2989251    4.2989251    4.2989251   -29517.439     28333.99   -35591.129   -81295.177   -16173.039    7146.2588    1127.1949    79.447391 
   26100    1994.8432   -160.62822     1.804976   -158.82324   -42181.936    4.2751995    4.2751995    4.2751995   -42181.936   -14749.297   -4110.7745   -107685.74    19225.283   -1674.9401   -1594.5019    78.139234 
   26200    2450.2015   -161.04586    2.2169938   -158.82886     1457.666    4.2568155    4.2568155    4.2568155     1457.666    -23112.74    26464.417    1021.3205    19290.074   -53.069804    1674.1932    77.135535 
   26300    1568.8946   -160.28872    1.4195688   -158.86915   -19099.208    4.2739687    4.2739687    4.2739687   -19099.208    42061.652   -14521.168   -84838.109    5076.8459   -2593.6014   -4105.5481    78.071766 
   26400    1537.4688   -160.25172    1.3911341   -158.86059    18500.564    4.2977123    4.2977123    4.2977123    18500.564    114088.41    49340.309   -107927.02   -34634.525    3415.0354   -6880.4126    79.380166 
   26500    1730.7101   -160.40029    1.5659829    -158.8343    13236.614    4.2957913    4.2957913    4.2957913    13236.614    80111.977    -5873.169   -34528.966   -16063.874   -4243.1817   -5150.4158    79.273773 
   26600    1586.5683   -160.24359    1.4355603   -158.80803   -29517.033    4.2785419    4.2785419    4.2785419   -29517.033     34878.09   -29819.814   -93609.374    13154.005    7355.4892     3966.237    78.322647 
   26700    2859.4281   -161.41116    2.5872706   -158.82389   -37136.259    4.2766806    4.2766806    4.2766806   -37136.259   -59200.707    -6296.525   -45911.544    13512.307    5528.1228    7230.8269    78.220475 
   26800    1701.6566   -160.39038    1.5396946   -158.85069    637.92459    4.2878581    4.2878581    4.2878581    637.92459    47122.938   -12148.489   -33060.676   -507.04463   -2510.2167    1723.0972    78.835386 
   26900    768.60046   -159.53962   0.69544585   -158.84418    19325.542    4.2906036    4.2906036    4.2906036    19325.542    151133.47    12165.539   -105322.38    -23983.52   -5055.9466   -543.53132    78.986919 
   27000    2575.8096   -161.16763    2.3306467   -158.83699     22833.12    4.2809222    4.2809222    4.2809222     22833.12    97828.153   -9947.1579   -19381.636     2946.077    1184.0017    16136.466    78.453444 
   27100    1821.7365    -160.4723    1.6483455   -158.82396   -22608.469    4.2757665    4.2757665    4.2757665   -22608.469   -8954.7192    3889.7494   -62760.436    15284.923   -1685.1547    1382.4903    78.170327 
   27200    1752.4799   -160.42093    1.5856806   -158.83524   -29986.377    4.2821985    4.2821985    4.2821985   -29986.377   -13813.769   -27296.872    -48848.49    7793.1256   -18234.431   -15206.543    78.523632 
   27300    2347.6431   -160.97066    2.1241968   -158.84646    21205.161    4.2898219    4.2898219    4.2898219    21205.161    46155.412    21636.818   -4176.7476   -19337.675    2477.3833   -15303.652    78.943753 
   27400    1656.6319   -160.32474    1.4989553   -158.82578   -33769.498    4.2890542    4.2890542    4.2890542   -33769.498   -29778.351    19358.806   -90888.949   -2292.0115     6260.534    4271.3693    78.901383 
   27500    1775.8889   -160.41719    1.6068616   -158.81033   -11627.948    4.2777983    4.2777983    4.2777983   -11627.948    4831.8248   -52157.959    12442.291    15716.927   -5467.5931    15636.461    78.281819 
   27600    1919.0302   -160.57772    1.7363789   -158.84134      64750.9    4.2755906    4.2755906    4.2755906      64750.9    117257.85     36059.21    40935.634   -9012.7411   -11584.662    435.33019    78.160682 
   27700    1159.0651   -159.89552    1.0487465   -158.84677    5616.4418    4.2928689    4.2928689    4.2928689    5616.4418    84490.311   -6239.1933   -61401.793   -15966.123   -12763.693    2713.3138    79.112096 
   27800     1615.519   -160.28873    1.4617555   -158.82698   -35753.899    4.2959081    4.2959081    4.2959081   -35753.899    23822.083    -98233.51   -32850.271   -2225.3418    8952.3007    12512.614     79.28024 
   27900    2883.8253   -161.42956    2.6093457   -158.82022   -13691.928    4.2723038    4.2723038    4.2723038   -13691.928   -17513.624   -3951.9438   -19610.216   -10246.885     13771.19   -8466.7345    77.980568 
   28000    1626.4309   -160.30184    1.4716289   -158.83021   -2577.8831    4.2556436    4.2556436    4.2556436   -2577.8831    19020.528   -7817.9003   -18936.277   -390.06407   -3670.0731   -10713.284    77.071842 
   28100    986.23507   -159.76144   0.89236621   -158.86908   -5329.6523    4.2686506    4.2686506    4.2686506   -5329.6523    54897.046   -70776.501   -109.50156    15193.714   -23505.671   -2909.6077    77.780697 
   28200    2225.0677   -160.88713    2.0132881   -158.87385     8276.926    4.2832553    4.2832553    4.2832553     8276.926    24445.826   -25734.592    26119.544    16093.796    -17886.96    1659.4952    78.581783 
   28300    1589.9902   -160.30018    1.4386565   -158.86152    266.08644    4.2788734    4.2788734    4.2788734    266.08644     97817.29   -31630.116   -65388.914    2338.7033   -3174.0608   -23625.077    78.340856 
   28400    962.34127   -159.72003   0.87074661   -158.84928    -20587.57    4.2749299    4.2749299    4.2749299    -20587.57   -2913.1753   -60711.377    1861.8438   -7675.6645    22965.415   -36530.283    78.124455 
   28500    2306.2391   -160.93659    2.0867336   -158.84986    7702.8524    4.2681284    4.2681284    4.2681284    7702.8524   -21452.838    29158.723    15402.672    10050.809     5490.181   -19392.109    77.752154 
   28600    1731.7663   -160.42723    1.5669386   -158.86029     31779.22    4.2660541    4.2660541    4.2660541     31779.22    29896.052    47676.209    17765.398    3397.8593      -9686.5     1621.321    77.638847 
   28700    709.37738   -159.50596   0.64185956    -158.8641   -8114.8764    4.2733689    4.2733689    4.2733689   -8114.8764    48311.066   -85968.607    13312.912   -1173.8532    -18950.41    11139.662    78.038904 
   28800    2339.3747    -160.9745    2.1167154   -158.85778   -13021.818    4.2636669    4.2636669    4.2636669   -13021.818    279.19258   -44425.564    5080.9189   -11900.088   -5759.0293    12778.322    77.508586 
   28900    2736.3879   -161.32758    2.4759413   -158.85163   -2490.7685    4.2522649    4.2522649    4.2522649   -2490.7685   -29497.463     25737.46   -3712.3022   -9837.6933    24712.753    7245.2982    76.888417 
   29000    1421.0953   -160.14832    1.2858369   -158.86249   -27195.389    4.2649369    4.2649369    4.2649369   -27195.389    15918.386   -84772.586   -12731.968   -230.27152    13411.137    12615.529    77.577866 
   29100    2136.8839   -160.79048    1.9334974   -158.85699   -27938.056    4.2775189    4.2775189    4.2775189   -27938.056    20039.169   -91712.855   -12140.483    5668.7906    3732.6188   -3564.1354    78.266479 
   29200    1937.4037   -160.60198    1.7530036   -158.84898    48423.725      4.26578      4.26578      4.26578    48423.725    81513.242    14314.248    49443.686   -7183.9272   -8168.3075   -11016.704    77.623885 
   29300    881.74102   -159.64489   0.79781781   -158.84708    24656.535    4.2619874    4.2619874    4.2619874    24656.535    68944.704   -30158.799      35183.7    773.15078   -8191.6333    2349.9628    77.417026 
   29400    2076.3385   -160.74822    1.8787147   -158.86951   -27884.434    4.2883114    4.2883114    4.2883114   -27884.434   -41775.565   -26490.882   -15386.855    5227.4113    5253.6516    15239.809    78.860393 
   29500    2164.6706   -160.80292    1.9586395   -158.84428   -20518.039    4.2938077    4.2938077    4.2938077   -20518.039   -29773.371   -13333.608   -18447.139   -14577.077      4152.19   -13685.046    79.164005 
   29600    880.43723    -159.6258   0.79663811   -158.82916     5653.963    4.2587605    4.2587605    4.2587605     5653.963    67436.967   -65953.628     15478.55   -355.98344   -18054.378   -9435.0695    77.241316 
   29700    1722.8956   -160.40642    1.5589121   -158.84751    40931.626    4.2424001    4.2424001    4.2424001    40931.626    87143.783   -13383.967    49035.061    1096.2179   -20968.733    1174.3192     76.35454 
   29800    2487.0716   -161.13602    2.2503546   -158.88566    22601.478    4.2647885    4.2647885    4.2647885    22601.478    33545.374    15385.592    18873.468    11704.506   -6103.6261   -6190.5701    77.569767 
   29900    1414.5403   -160.14294    1.2799058   -158.86303   -55334.672    4.2884454    4.2884454    4.2884454   -55334.672   -9280.9302   -85947.045   -70776.042    6086.4328    8092.3638    15886.247    78.867786 
   30000    1837.3386     -160.501    1.6624626   -158.83854   -31815.671    4.2807821    4.2807821    4.2807821   -31815.671   -9477.6895   -75911.166   -10058.158   -8146.7008   -178.81416    12575.806    78.445741 
   30100    2610.1107   -161.19736     2.361683   -158.83568    28360.009    4.2603924    4.2603924    4.2603924    28360.009    15276.886    43469.443    26333.699   -28054.691   -15364.996   -19467.637    77.330142 
   30200    1302.0511   -160.02109    1.1781232   -158.84296   -912.01842      4.25505      4.25505      4.25505   -912.01842    12603.129   -58961.252    43622.068    -22391.67   -5507.9588    4964.0279    77.039595 
   30300     1541.465   -160.25448    1.3947499   -158.85973   -52917.423    4.2690801    4.2690801    4.2690801   -52917.423   -45804.984   -80671.543    -32275.74   -13689.424    4933.9481    10839.397    77.804178 
   30400    2590.1267    -161.2069    2.3436011    -158.8633   -1251.0998    4.2743753    4.2743753    4.2743753   -1251.0998   -42652.268    43513.462   -4614.4929   -1540.5146    9124.3351   -1865.0137    78.094053 
   30500    1454.7944   -160.16986    1.3163286   -158.85353    12245.172    4.2666554    4.2666554    4.2666554    12245.172    25167.364    15114.648   -3546.4941   -8441.0508   -10174.072   -4011.6008     77.67168 
   30600    1290.7656   -160.02293    1.1679118   -158.85501   -2383.7254    4.2657851    4.2657851    4.2657851   -2383.7254    7231.4916    4322.4901   -18705.158   -13808.203   -6969.7099    9261.0419    77.624164 
   30700    2720.9651   -161.32884    2.4619864   -158.86685   -14615.671    4.2721559    4.2721559    4.2721559   -14615.671   -64865.583    31108.078   -10089.508   -5882.1745   -458.66732   -13735.914    77.972468 
   30800    1670.3386   -160.37009    1.5113575   -158.85873    -3262.862    4.2628397    4.2628397    4.2628397    -3262.862    13844.909   -53607.069    29973.574   -9821.5933   -10624.054   -628.39561    77.463482 
   30900    1234.9331   -159.97274    1.1173934   -158.85535   -4095.5038    4.2492185    4.2492185    4.2492185   -4095.5038    1588.1439   -17266.152    3391.4964    16397.885   -1073.5371    8877.0547    76.723284 
   31000    2178.1185   -160.84579    1.9708074   -158.87499      6421.67     4.259809     4.259809     4.259809      6421.67    -27228.72    53679.279   -7185.5486    30052.877    10980.503    1248.6958    77.298379 
   31100     1663.166    -160.3709    1.5048675   -158.86603   -16397.014    4.2766283    4.2766283    4.2766283   -16397.014    534.09651   -64512.286    14787.146    14119.426   -5531.8312    3405.5794    78.217606 
   31200    1445.9572   -160.15024    1.3083324   -158.84191   -27650.467    4.2718809    4.2718809    4.2718809   -27650.467   -6710.8647   -58704.108   -17536.429    5114.7206   -6841.0681    20245.818    77.957412 
   31300    2234.3198   -160.86321    2.0216595   -158.84155     22883.73    4.2617558    4.2617558    4.2617558     22883.73    11720.644    63826.091   -6895.5439    11429.143   -12481.382    6851.4735    77.404406 
   31400    1411.1643   -160.14092    1.2768511   -158.86407     14452.45    4.2727056    4.2727056    4.2727056     14452.45    39383.211    -9082.752    13056.891    11552.942   -553.98138   -1992.1181    78.002569 
   31500    1459.2306   -160.17982    1.3203425   -158.85947   -14660.892    4.2841066    4.2841066    4.2841066   -14660.892   -15026.882   -30822.772    1866.9764    6307.9267    835.46779    -387.8621    78.628649 
   31600    2878.1332   -161.44803    2.6041954   -158.84383   -20090.585     4.274427     4.274427     4.274427   -20090.585   -54646.725    29697.559   -35322.588   -11003.764   -437.78738   -19054.495    78.096885 
   31700    1453.1654   -160.16505    1.3148546   -158.85019   -1823.2777    4.2608953    4.2608953    4.2608953   -1823.2777    41157.785   -73115.966    26488.349    1267.9462    7592.9189   -390.70283    77.357529 
   31800    1980.0047   -160.65139    1.7915499   -158.85984   -37069.292    4.2573569    4.2573569    4.2573569   -37069.292   -4086.1937   -84178.378   -22943.305    5081.6641   -7000.4563   -580.68867    77.164965 
   31900    2841.7241   -161.44232    2.5712517   -158.87106    3934.5457    4.2534863    4.2534863    4.2534863    3934.5457   -35052.063    37261.558    9594.1416    8202.6916   -2469.7902   -14288.108    76.954692 
   32000    1601.1425   -160.32857    1.4487474   -158.87982    948.50504    4.2620522    4.2620522    4.2620522    948.50504    1874.7894   -46814.654     47785.38   -8891.8917   -2203.1177   -8459.8665    77.420559 
   32100    1551.2488   -160.28031    1.4036025   -158.87671   -32361.587    4.2860595    4.2860595    4.2860595   -32361.587   -9652.8588   -58491.212   -28940.691   -18599.272   -13866.376     4667.684    78.736224 
   32200    2427.3439    -161.0629    2.1963118   -158.86659   -22587.155    4.2860272    4.2860272    4.2860272   -22587.155   -86699.165    97869.692   -78931.991    8114.3385    -6463.135   -22687.471    78.734446 
   32300    1333.1213    -160.0691    1.2062361   -158.86287    26739.553     4.245261     4.245261     4.245261    26739.553    3418.8949    50230.907    26568.859    5592.6758   -2219.9807    1004.4791    76.509118 
   32400    941.88889   -159.72537   0.85224086   -158.87313    57006.506     4.233882     4.233882     4.233882    57006.506     60858.64    22983.276      87177.6    9481.3308   -2890.1767   -16879.252    75.895539 
   32500      2216.65   -160.94159    2.0056715   -158.93592    -1939.338    4.2841951    4.2841951    4.2841951    -1939.338   -55047.376    75493.359   -26263.997    10395.692    5695.0988    -7441.286    78.633519 
   32600    1350.4001   -160.09668    1.2218704   -158.87481   -22748.904    4.3045836    4.3045836    4.3045836   -22748.904   -68030.746    30144.163   -30360.128   -13540.414    2069.2469    5565.5058    79.761524 
   32700    1011.8157    -159.7595   0.91551215   -158.84399    7582.8199    4.2611047    4.2611047    4.2611047    7582.8199    2567.9526   -2081.4835     22261.99    4197.2624    10736.825   -10269.903    77.368932 
   32800    2402.3313   -161.02487    2.1736798   -158.85119    56932.318    4.2452301    4.2452301    4.2452301    56932.318   -11674.968    153657.63    28814.294   -2406.9965    2897.1441    26940.861    76.507445 
   32900    2007.8544   -160.71851    1.8167489   -158.90176   -10454.526    4.2819272    4.2819272    4.2819272   -10454.526   -60788.703    57395.646    -27970.52    988.14634    1864.9052   -1094.0159    78.508711 
   33000    1200.9863   -159.95726    1.0866776   -158.87058     -51017.8    4.2864349    4.2864349    4.2864349     -51017.8    -47600.53   -78349.607   -27103.262    -3417.383    12600.485    3106.3266    78.756917 
   33100    2961.9083   -161.52525    2.6799968   -158.84525      6561.25    4.2566052    4.2566052    4.2566052      6561.25   -12416.708    40614.232   -8513.7731   -20203.746   -10456.984     18958.91    77.124103 
   33200    2449.1634   -161.07518    2.2160545   -158.85912   -2901.4331    4.2574052    4.2574052    4.2574052   -2901.4331    3088.8958   -1318.5996   -10474.595    7086.9835    24.251178   -11518.829    77.167595 
   33300    1155.3218    -159.9137    1.0453594   -158.86834   -38710.432    4.2727442    4.2727442    4.2727442   -38710.432    9204.2265   -127938.47    2602.9461    4546.3388    -8037.533   -9828.7101    78.004684 
   33400    2754.6713   -161.35584    2.4924845   -158.86336   -11745.699    4.2637319    4.2637319    4.2637319   -11745.699   -23896.138   -2056.9474   -9284.0102    4355.9825   -16408.118    21930.871    77.512131 
   33500    2286.8196   -160.93069    2.0691624   -158.86153    27271.643    4.2526378    4.2526378    4.2526378    27271.643    13989.491    57183.026    10642.413    11111.083   -2161.8504   -12269.574     76.90865 
   33600    1100.0896   -159.87594   0.99538415   -158.88055   -5716.6267    4.2685198    4.2685198    4.2685198   -5716.6267    23846.707   -79192.277     38195.69   -10406.399    6799.5883    -17274.22    77.773547 
   33700    1914.4121   -160.60926    1.7322003   -158.87706    649.08845    4.2854673    4.2854673    4.2854673    649.08845   -6757.3637    2593.7461     6110.883   -10072.086    3731.9023    1681.7395    78.703593 
   33800    2261.1159    -160.9071    2.0459052   -158.86119   -15395.046    4.2720689    4.2720689    4.2720689   -15395.046   -21581.683   -8911.3469   -15692.107    9965.0702     2778.768    -15887.14    77.967705 
   33900      1156.07    -159.8924    1.0460364   -158.84636   -1268.5962     4.243916     4.243916     4.243916   -1268.5962    58057.819   -69272.745    7409.1374    -13146.94    7544.0881   -19734.606    76.436419 
   34000    1557.0724    -160.2795    1.4088718   -158.87062    6054.4274    4.2450536    4.2450536    4.2450536    6054.4274    10290.523    25450.543   -17577.783    7757.5149    20012.642   -12816.536    76.497906 
   34100    2238.7494   -160.91568    2.0256675   -158.89001   -2752.9674    4.2663132    4.2663132    4.2663132   -2752.9674   -39302.923    68901.731   -37857.709   -2876.1869     10150.65   -14462.472    77.652991 
   34200    1664.2142   -160.37248     1.505816   -158.86667    -27697.73    4.2813788    4.2813788    4.2813788    -27697.73    -22979.45    -36289.77   -23823.969    3416.7657    18719.183    2879.2201    78.478547 
   34300    1649.2457   -160.34542    1.4922721   -158.85315    -5067.139    4.2735719    4.2735719    4.2735719    -5067.139   -30971.321    10926.695     4843.209    11453.362    2731.3865    168.27199    78.050023 
   34400    2274.7962   -160.90801    2.0582834   -158.84973    9023.9662    4.2598787    4.2598787    4.2598787    9023.9662    -59490.98    80287.007    6275.8724    4975.6378    4511.1991   -1219.3585    77.302171 
   34500    1702.7873   -160.41143    1.5407177   -158.87071    10993.468    4.2597943    4.2597943    4.2597943    10993.468    26947.588   -7592.7132    13625.528   -517.13322   -5751.8004    17965.316     77.29758 
   34600    1350.6996   -160.10591    1.2221414   -158.88377    4587.6474    4.2727857    4.2727857    4.2727857    4587.6474    -7661.125    26712.811   -5288.7441   -5134.2047   -8134.9509    19095.086    78.006957 
   34700    2397.2245    -161.0355    2.1690591   -158.86644   -14140.565     4.274968     4.274968     4.274968   -14140.565   -43810.992    33052.237   -31662.941   -15812.719    5009.4672    6823.7792    78.126541 
   34800    1952.7096   -160.62052    1.7668527   -158.85367    16499.474    4.2594771    4.2594771    4.2594771    16499.474    28836.535    13088.512    7573.3733   -8830.9537   -25300.322    384.48294    77.280314 
   34900    1587.4676   -160.29277    1.4363741    -158.8564    17433.413    4.2488356    4.2488356    4.2488356    17433.413    32066.729    884.54223    19348.969   -1293.1022   -2375.7816   -7932.1872    76.702546 
   35000    2435.9206   -161.07842    2.2040721   -158.87435   -4794.5632    4.2575045    4.2575045    4.2575045   -4794.5632     -32220.4    35922.218   -18085.508    10293.462    222.00864    7980.3061    77.172994 
   35100    1795.8853    -160.5035    1.6249548   -158.87855    -3958.418    4.2736828    4.2736828    4.2736828    -3958.418    5395.0971   -12638.493   -4631.8579    7685.5861   -7103.5058    9036.6826    78.056103 
   35200    1348.3939   -160.08078    1.2200551   -158.86073   -21523.873    4.2742093    4.2742093    4.2742093   -21523.873    26259.886    -110518.8    19687.295    18547.122    15367.771    -169.4374    78.084955 
   35300    1926.0195   -160.59493     1.742703   -158.85223    14873.288    4.2637274    4.2637274    4.2637274    14873.288   -50003.339    70412.676    24210.526    16454.782   -11682.225    -12344.01    77.511883 
   35400    1365.1726   -160.08641    1.2352369   -158.85118    16696.769    4.2589368    4.2589368    4.2589368    16696.769    24528.874    32493.819   -6932.3857    11303.945   -2535.3298   -19563.375    77.250906 
   35500     1278.802   -160.02815    1.1570869   -158.87107   -10122.556    4.2605694    4.2605694    4.2605694   -10122.556    46098.142   -68979.815   -7485.9935    23461.039    9394.7015   -18114.434    77.339778 
   35600     1930.724   -160.62887    1.7469597   -158.88191     -7099.34    4.2630933    4.2630933    4.2630933     -7099.34   -4510.0473   -1093.6745   -15694.298    15697.148    7088.0264   -11202.517    77.477307 
   35700    1561.3686   -160.29174    1.4127591   -158.87898    8979.6819    4.2677195    4.2677195    4.2677195    8979.6819    24223.322     -4134.37    6850.0933   -914.23305    7938.4082    2687.4268    77.729808 
   35800    1543.8841   -160.27829    1.3969388   -158.88135   -11656.223    4.2712452    4.2712452    4.2712452   -11656.223    34291.546    -75648.63    6388.4157    23379.088   -1866.0793     3018.001    77.922615 
   35900    2180.2846     -160.849    1.9727673   -158.87623    7682.9766    4.2661176    4.2661176    4.2661176    7682.9766   -29459.096    59967.043   -7459.0173     26806.99   -11253.429     4575.593    77.642316 
   36000    1609.3039   -160.31994    1.4561319   -158.86381    21434.202    4.2559166    4.2559166    4.2559166    21434.202   -9975.6732      37477.6     36800.68    20399.633    -2440.458   -670.38288    77.086678 
   36100     1220.169   -159.97155    1.1040346   -158.86751   -9557.2767    4.2557091    4.2557091    4.2557091   -9557.2767    25754.219   -103480.99    49054.937    26740.361    5585.0659   -6997.1698    77.075404 
   36200    2301.5378   -160.95804    2.0824798   -158.87556   -9172.9977    4.2649237    4.2649237    4.2649237   -9172.9977    21624.246   -37026.913   -12116.326    19385.324    2961.5475    17655.768    77.577148 
   36300    1844.4855   -160.53831    1.6689293   -158.86938   -16534.598     4.267025     4.267025     4.267025   -16534.598    12996.596   -46139.136   -16461.256    -9955.748   -8147.6031     23473.32    77.691869 
   36400    1349.4978   -160.08298     1.221054   -158.86193    -21127.01    4.2600396    4.2600396    4.2600396    -21127.01    5999.6715   -81655.404    12274.701   -2666.5686    926.92215   -680.97291    77.310932 
   36500    2372.6465   -161.01717    2.1468204   -158.87035    29322.656    4.2557311    4.2557311    4.2557311    29322.656    8647.8832    51840.999    27479.086   -7692.9478    1672.1779    12820.683    77.076596 
   36600     2318.287   -160.96695    2.0976348   -158.86931    2583.3652    4.2569485    4.2569485    4.2569485    2583.3652   -14164.249   -15542.281    37456.626   -13529.645    2745.3225    24049.914    77.142763 
   36700    1409.5134   -160.14419    1.2753574   -158.86883   -21674.333    4.2565761    4.2565761    4.2565761   -21674.333    5516.3266   -99236.459    28697.133    -5145.014    10180.798    12524.318    77.122519 
   36800    2475.6549   -161.11999    2.2400245   -158.87996    6478.9972    4.2613361    4.2613361    4.2613361    6478.9972    6677.5607    3301.0045    9458.4263   -3227.8828   -6205.6809     9508.292     77.38154 
   36900    2675.2131   -161.29464     2.420589   -158.87405   -11505.279    4.2683207    4.2683207    4.2683207   -11505.279   -8917.0299   -17212.801   -8386.0074    -7930.743    -7449.448   -14889.529    77.762664 
   37000    1057.7389   -159.81873   0.95706443   -158.86167   -22175.324    4.2591103    4.2591103    4.2591103   -22175.324    43193.273   -143061.71    33342.463   -6706.0698     10313.42   -19268.407    77.260347 
   37100     2145.493   -160.80748    1.9412872   -158.86619   -2610.4227    4.2436992    4.2436992    4.2436992   -2610.4227    16768.623     -33350.8    8750.9082    6867.3388    9648.7595   -20968.037    76.424706 
   37200    2598.7512   -161.24556    2.3514047   -158.89416    7407.0612      4.24865      4.24865      4.24865    7407.0612    28192.368    25833.782   -31804.966    -3631.947    789.03665   -29787.108    76.692493 
   37300    1129.8781   -159.91552    1.0223374   -158.89318    -18790.07    4.2681892    4.2681892    4.2681892    -18790.07    18973.902   -64207.278   -11136.833   -11569.548    1217.3623   -2637.0413    77.755475 
   37400    1739.3305   -160.45313    1.5737828   -158.87935    6474.2507    4.2701089    4.2701089    4.2701089    6474.2507   -241.03161    16946.726    2717.0576    9299.1677    22641.674   -7874.9309    77.860437 
   37500    2815.4616   -161.41638    2.5474888   -158.86889   -3152.9251    4.2585001    4.2585001    4.2585001   -3152.9251   -23415.769    19552.511   -5595.5175   -3030.5295    29858.697    3489.0877    77.227148 
   37600    1337.9374   -160.08631    1.2105938   -158.87572    845.64911    4.2571156    4.2571156    4.2571156    845.64911    30979.138   -52037.369    23595.179    8273.2337    15832.099    10171.783    77.151848 
   37700    1701.7685   -160.42477    1.5397959   -158.88498   -21003.407    4.2664722    4.2664722    4.2664722   -21003.407    21964.692   -58658.613   -26316.299    13906.044    7381.8072   -4869.6968    77.661678 
   37800    3043.7711   -161.62774    2.7540681   -158.87367   -12347.428    4.2581615    4.2581615    4.2581615   -12347.428   -11549.953    18164.684   -43657.016   -19439.803   -5439.7304    21188.322    77.208726 
   37900    1915.1074   -160.59637    1.7328294   -158.86354   -10795.346    4.2435164    4.2435164    4.2435164   -10795.346    26407.733   -66013.252    7219.4813    16098.051   -14960.535   -22035.779    76.414832 
   38000    1253.7517   -160.01791    1.1344209   -158.88349   -22955.002    4.2575222    4.2575222    4.2575222   -22955.002    1975.6457    -87541.12     16700.47    37093.776   -16919.291    -6413.067    77.173956 
   38100    2442.4291   -161.09107    2.2099612   -158.88111   -10879.234    4.2746173    4.2746173    4.2746173   -10879.234   -5637.8756    16675.503   -43675.329    2799.8486   -24006.912    16533.858    78.107319 
   38200    2108.2632   -160.77476    1.9076008   -158.86716   -15219.462    4.2617693    4.2617693    4.2617693   -15219.462      6879.86   -59640.755    7102.5078   -2354.0788   -29445.482    3437.8296    77.405139 
   38300    1380.6686   -160.11004     1.249258   -158.86078    8736.0927    4.2475195    4.2475195    4.2475195    8736.0927     14634.23   -43309.958    54884.006      3830.97   -17709.462   -3971.1076    76.631293 
   38400    2444.2462   -161.10972    2.2116053   -158.89812   -7609.4572    4.2624994    4.2624994    4.2624994   -7609.4572   -38302.989    21424.083   -5949.4662    5178.2422   -19885.559   -3570.1115    77.444932 
   38500    2241.4092   -160.91471    2.0280742   -158.88664   -14346.174    4.2759518    4.2759518    4.2759518   -14346.174    -26910.14   -25452.743    9324.3604    21690.994    1237.0551    1116.0317    78.180494 
   38600    1425.0507     -160.148    1.2894158   -158.85858    1745.4693     4.262055     4.262055     4.262055    1745.4693   -7832.0321   -84172.455    97240.895   -2958.1147    16106.286     12830.82    77.420712 
   38700    2027.2008   -160.69282    1.8342539   -158.85857     1895.412    4.2518065    4.2518065    4.2518065     1895.412   -55837.645   -926.38124    62450.262   -12163.538    12986.417    13019.101    76.863557 
   38800    2184.5643   -160.85185    1.9766397   -158.87521   -23185.841      4.26125      4.26125      4.26125   -23185.841   -64991.706   -4312.2347   -253.58374   -19263.464    17075.009    -25623.28    77.376851 
   38900    1365.0774   -160.11044    1.2351507   -158.87528   -14563.697    4.2604347    4.2604347    4.2604347   -14563.697    13276.324   -77940.919    20973.504   -11161.773     14975.39    6558.3465    77.332447 
   39000    1511.6745   -160.24122    1.3677949   -158.87343    34220.111    4.2528598    4.2528598    4.2528598    34220.111    5599.7797     1967.397    95093.155   -4102.9853    17091.179    9924.2939    76.920695 
   39100    1944.6593   -160.64294    1.7595686   -158.88337    25114.442    4.2665768    4.2665768    4.2665768    25114.442   -715.52863    45924.034    30134.821   -3551.0718    9015.7753   -15742.235    77.667388 
   39200    1613.5901   -160.32987    1.4600103   -158.86986   -30830.718    4.2769373    4.2769373    4.2769373   -30830.718   -7320.9515   -63687.241   -21483.963   -8962.2254    17871.752    5386.0689    78.234563 
   39300    1515.7932   -160.23247    1.3715215   -158.86095    1587.2067    4.2564776    4.2564776    4.2564776    1587.2067   -30746.308     3031.815    32476.114   -2830.6644    17411.712   -893.51593    77.117167 
   39400    2286.7272   -160.92702    2.0690788   -158.85794    20786.049    4.2421906    4.2421906    4.2421906    20786.049   -26213.115    40738.767    47832.495   -12556.811    830.63657    3621.4556    76.343232 
   39500    1863.6756   -160.57281    1.6862929   -158.88652    6957.4479    4.2633692    4.2633692    4.2633692    6957.4479    41125.568    -20247.41   -5.8135784     3583.573      10005.4     3115.535    77.492351 
   39600    1658.3378   -160.36838    1.5004989   -158.86788   -47918.041    4.2788274    4.2788274    4.2788274   -47918.041   -20237.688   -111491.85    -12024.58    17406.725    2018.5347   -4792.3645     78.33833 
   39700    2515.4584   -161.12682    2.2760396   -158.85078   -14485.885    4.2575603    4.2575603    4.2575603   -14485.885   -49948.491    11401.194   -4910.3579    20537.392   -14364.385    3658.8807    77.176028 
   39800    2432.4457   -161.04969     2.200928   -158.84877    871.62661    4.2470422    4.2470422    4.2470422    871.62661    8048.3957    17664.407   -23097.923    25678.051   -4707.8847   -4062.9986    76.605463 
   39900    1739.2592   -160.44591    1.5737182   -158.87219   -18315.429    4.2603793    4.2603793    4.2603793   -18315.429    3387.8825   -49477.266   -8856.9034    5959.5752   -13219.753   -1034.9717    77.329428 
   40000    2208.6723   -160.87253    1.9984531   -158.87408   -9337.6331    4.2642938    4.2642938    4.2642938   -9337.6331   -66453.862    26431.368    12009.595     -6661.88   -13364.487   -77.757824    77.542778 
   40100    2233.2406   -160.88751    2.0206831   -158.86683    3864.0523    4.2577092    4.2577092    4.2577092    3864.0523   -22436.515    38979.006   -4950.3336   -2109.6574    10060.693   -7465.1031    77.184128 
   40200    1574.8528   -160.29767    1.4249599   -158.87271   -13155.502    4.2644266    4.2644266    4.2644266   -13155.502    5857.0095   -44448.146   -875.36791   -10972.979    -1034.344    5036.9505    77.550024 
   40300    1916.6812   -160.60449    1.7342534   -158.87024   -22686.997    4.2763599    4.2763599    4.2763599   -22686.997    -62680.14   -5111.9656   -268.88436   -13721.968    1540.8464    5894.6218    78.202879 
   40400    1680.8455   -160.38814    1.5208644   -158.86728   -8362.4433    4.2683225    4.2683225    4.2683225   -8362.4433   -18763.721    19942.935   -26266.544   -4754.5462     12116.08   -535.63266    77.762762 
   40500    960.94434   -159.73621   0.86948263   -158.86673    5158.9229    4.2512176    4.2512176    4.2512176    5158.9229    27629.499   -15675.394     3522.664    -23968.78    7652.0398    15859.905    76.831625 
   40600    1435.5334    -160.1762    1.2989008    -158.8773    29648.032    4.2502702    4.2502702    4.2502702    29648.032   -21385.517    82840.243    27489.372   -12846.385    25835.958   -3857.0946    76.780267 
   40700     1472.337   -160.22826    1.3322015   -158.89605      1620.95    4.2703269    4.2703269    4.2703269      1620.95   -45104.773    48076.951    1890.6714   -22446.434    19388.079    11260.485    77.872367 
   40800    1035.6737   -159.81351   0.93709937   -158.87641   -25638.901    4.2753159    4.2753159    4.2753159   -25638.901    4436.6494   -75985.897   -5367.4567   -22991.614    -3853.817    1973.4222    78.145619 
   40900    1807.2949   -160.49174    1.6352784   -158.85646    20694.809     4.253118     4.253118     4.253118    20694.809    8878.6868   -7861.2436    61066.984    -3081.651    2113.1824   -523.40598    76.934706 
   41000    2238.2336   -160.88509    2.0252008   -158.85989    28036.969    4.2468818    4.2468818    4.2468818    28036.969   -17970.789    77269.568    24812.128   -14633.171   -2682.8553    18946.626    76.596783 
   41100    1880.7383   -160.57576    1.7017315   -158.87403    -37024.21    4.2604561    4.2604561    4.2604561    -37024.21   -9479.8794   -63413.347   -38179.403    7864.4819    4002.3058    5986.3199     77.33361 
   41200     1914.504   -160.60733    1.7322835   -158.87505   -37479.535    4.2651527    4.2651527    4.2651527   -37479.535   -20043.243   -73404.879   -18990.483     5191.177   -10072.366    12465.917    77.589644 
   41300    2372.4912    -161.0132    2.1466799   -158.86652   -4116.4674    4.2597095    4.2597095    4.2597095   -4116.4674   -59386.733    50052.662    -3015.331   -12017.206   -17911.157    5463.0239    77.292961 
   41400    1775.0091   -160.46608    1.6060655   -158.86001     1390.125     4.261081     4.261081     4.261081     1390.125    11697.791    24310.541   -31837.957    1386.0181    3382.1996   -7799.2616    77.367645 
   41500    1743.6645   -160.43827    1.5777043   -158.86056    -10421.06    4.2651252    4.2651252    4.2651252    -10421.06    3625.0818   -6822.3722   -28065.888   -7583.8605   -618.70638    15297.833    77.588145 
   41600    1980.3429   -160.65254    1.7918559   -158.86068   -1398.2889    4.2652166    4.2652166    4.2652166   -1398.2889    -66810.97    26202.867    36413.236    3259.1258    8569.8486   -6525.1562    77.593129 
   41700    1926.4424   -160.61357    1.7430856   -158.87049   -4838.2602    4.2669125    4.2669125    4.2669125   -4838.2602   -34695.639   -19797.195    39978.053    20160.557    8932.5401   -17155.187    77.685723 
   41800    1675.1159   -160.39411    1.5156801   -158.87843    945.20087    4.2653817    4.2653817    4.2653817    945.20087    16806.627   -59310.466    45339.441   -3474.1184   -8252.5566   -25827.377    77.602139 
   41900    1429.2375   -160.16781    1.2932041    -158.8746    6500.0325    4.2617523    4.2617523    4.2617523    6500.0325   -29921.897     11367.54    38054.455   -7653.1285    9620.0007   -25886.912    77.404214 
   42000    1987.2341   -160.66379    1.7980912    -158.8657   -11854.421    4.2646209    4.2646209    4.2646209   -11854.421   -5693.8365    11602.012   -41471.437   -10964.314   -7277.6229   -8274.5075    77.560621 
   42100    1875.9813   -160.56527    1.6974273   -158.86784    19303.527    4.2729515    4.2729515    4.2729515    19303.527    70661.953   -15627.209    2875.8356    1898.2844    13588.875   -14222.849    78.016036 
   42200    1366.5682   -160.08905    1.2364996   -158.85255    1741.8708    4.2854459    4.2854459    4.2854459    1741.8708   -58225.276    15628.785    47822.103     2276.311      26242.4   -2788.4338    78.702413 
   42300    2134.5741   -160.76678    1.9314075   -158.83538   -10597.683    4.2736213    4.2736213    4.2736213   -10597.683   -48741.584    35654.631   -18706.095   -12679.134    597.89517    5797.8328    78.052733 
   42400    2692.3612   -161.26477     2.436105   -158.82867    7546.4136    4.2477837    4.2477837    4.2477837    7546.4136    33180.657    12673.893   -23215.309   -1968.6013    25908.082      11875.2    76.645594 
   42500    2068.4002   -160.73111     1.871532   -158.85958   -11045.074    4.2543326    4.2543326    4.2543326   -11045.074   -30104.281   -8975.9293     5944.987    151.54032    -2765.235    8697.1814    77.000638 
   42600    2047.5628   -160.71665    1.8526779   -158.86398   -56131.091    4.2803965    4.2803965    4.2803965   -56131.091   -128655.04   -11787.965   -27950.271    2391.3585    1740.7452    8095.2777    78.424542 
   42700    2276.9092   -160.90935    2.0601953   -158.84915    11145.778    4.2731617    4.2731617    4.2731617    11145.778    18796.301    25329.784    -10688.75    12060.174    1752.8216    2893.4975    78.027553 
   42800    1459.3521   -160.16535    1.3204524    -158.8449    22507.654    4.2601668    4.2601668    4.2601668    22507.654   -40127.311    49477.457    58172.815   -16442.518   -16649.507    10394.003    77.317856 
   42900    1176.1358    -159.9322    1.0641924   -158.86801    6666.9018    4.2734222    4.2734222    4.2734222    6666.9018    -107503.4    83281.042     44223.06   -13253.301    21667.328      8078.39    78.041823 
   43000    2056.9911   -160.72242    1.8612088   -158.86121    6226.4954    4.2816678    4.2816678    4.2816678    6226.4954    23780.282   -5400.1817     299.3862    5204.5813    -4913.624    5261.9725    78.494443 
   43100    1476.1153   -160.18777    1.3356202   -158.85215    153.15082    4.2664918    4.2664918    4.2664918    153.15082   -44129.324    48428.705   -3839.9286   -11300.424    1068.5866   -1161.0549    77.662745 
   43200    1654.6113   -160.35782    1.4971271   -158.86069   -4360.0292     4.255968     4.255968     4.255968   -4360.0292   -101403.64    83427.824    4895.7312   -23751.382     11498.01   -7756.7185    77.089471 
   43300    2580.0408   -161.21295    2.3344751   -158.87848   -12147.785    4.2655738    4.2655738    4.2655738   -12147.785   -8069.8528   -19409.254   -8964.2483   -17116.266   -21501.764   -22365.103    77.612625 
   43400    1725.2648    -160.4257    1.5610558   -158.86465   -49989.119    4.2728349    4.2728349    4.2728349   -49989.119    -92490.49   -56925.433   -551.43222   -6729.8435    -2546.947    -9987.225    78.009649 
   43500     1396.109   -160.11098    1.2632288   -158.84776   -7843.2267    4.2595895    4.2595895    4.2595895   -7843.2267   -110289.19      37485.8    49273.714     4237.335   -10052.027    4660.0092    77.286429 
   43600    2287.4207   -160.93057    2.0697063   -158.86087    37446.682    4.2576486    4.2576486    4.2576486    37446.682    35023.458    36155.732    41160.855    7177.1911   -9001.5721    6898.7035    77.180832 
   43700     1320.187   -160.07058     1.194533   -158.87604    3631.5713    4.2796556    4.2796556    4.2796556    3631.5713   -9349.7758   -9113.1528    29357.643    3410.3196    18423.504    3280.4495    78.383826 
   43800    1264.2089   -159.98969    1.1438828   -158.84581   -37597.757    4.2812353    4.2812353    4.2812353   -37597.757   -105355.48   -13350.339    5912.5527    17796.673   -19345.484   -5276.2475    78.470657 
   43900    2628.5682   -161.21177    2.3783837   -158.83339    18891.723     4.258214     4.258214     4.258214    18891.723    49084.354   -28106.371    35697.186     17718.46   -1328.6915     4381.494     77.21158 
   44000    1768.4852   -160.45546    1.6001626   -158.85529    22655.517    4.2535695    4.2535695    4.2535695    22655.517   -21626.905   -15487.928    105081.39    193.64259    8392.8862    13647.072    76.959209 
   44100    650.87557   -159.46451    0.5889259   -158.87559   -6096.8242    4.2726333    4.2726333    4.2726333   -6096.8242   -91590.849   -18659.201    91959.578    965.93798    10377.329    18852.854    77.998608 
   44200    2396.4015   -161.02335    2.1683145   -158.85504   -16979.015    4.2773008    4.2773008    4.2773008   -16979.015    26960.166   -64209.402   -13687.809   -11541.623   -5926.3091   -929.19568     78.25451 
   44300    1587.0155   -160.27225     1.435965   -158.83628   -7034.4458    4.2624255    4.2624255    4.2624255   -7034.4458   -16743.142    12000.657   -16360.853    -13391.99   -7877.2133   -5250.8386    77.440904 
   44400    977.09032   -159.73075   0.88409185   -158.84665    20418.193    4.2639841    4.2639841    4.2639841    20418.193   -54575.455    76005.384    39824.649   -8368.3184   -10806.089    4182.6548    77.525884 
   44500    2356.9506   -160.98711    2.1326184   -158.85449    26251.187     4.282474     4.282474     4.282474    26251.187    35737.588    34692.028     8323.945   -4497.8419    19516.215    12508.811    78.538789 
   44600    1681.4219   -160.34604    1.5213859   -158.82466   -41282.883    4.2800678    4.2800678    4.2800678   -41282.883   -102331.29    -17072.36   -4444.9949    13822.051    17243.236    -14022.85    78.406476 
   44700    1741.1894   -160.39083    1.5754648   -158.81537   -14033.341    4.2568107    4.2568107    4.2568107   -14033.341   -36175.089   -11099.924    5174.9896    14163.862   -282.78071    -11138.78    77.135272 
   44800     2833.455   -161.40644    2.5637696   -158.84267    24604.339    4.2521171    4.2521171    4.2521171    24604.339    75342.231    -2148.304    619.09166   -4994.0777    443.85944    4963.6973    76.880403 
   44900    1216.8608   -159.96876    1.1010412   -158.86772    20435.613    4.2698808    4.2698808    4.2698808    20435.613    28574.314    38721.317   -5988.7912   -8777.5942   -11946.866   -2309.7278    77.847962 
   45000    1291.1205   -160.02462     1.168233   -158.85639   -28390.205    4.2819028    4.2819028    4.2819028   -28390.205   -32338.812    -16050.84   -36780.962   -6775.5676   -33047.397    -13390.83    78.507368 
   45100    2546.8094   -161.15001    2.3044067    -158.8456   -1502.6854    4.2717701    4.2717701    4.2717701   -1502.6854    34950.238   -26528.441   -12929.853   -3838.4238   -15241.461   -11016.643    77.951344 
   45200    877.74185   -159.63786   0.79419927   -158.84366    7000.4161    4.2610742    4.2610742    4.2610742    7000.4161   -91363.036    35931.843    76432.442    4686.0825   -10382.528    2539.0157    77.367274 
   45300    1107.1894   -159.85715    1.0018082   -158.85534    6532.9557    4.2621952    4.2621952    4.2621952    6532.9557   -50245.347   -9647.9557     79492.17   -700.77881   -17598.202    12382.418    77.428352 
   45400    2743.9337   -161.33488    2.4827689   -158.85211   -14643.644    4.2668102    4.2668102    4.2668102   -14643.644    8098.6096   -27314.939   -24714.603    7719.5656   -8961.4748   -9372.5267    77.680133 
   45500       1501.9   -160.19728    1.3589506   -158.83833   -27365.845    4.2682116    4.2682116    4.2682116   -27365.845   -115921.44     46850.87   -13026.968    20685.957    8125.0548   -4949.3773    77.756702 
   45600    1155.3024   -159.88841    1.0453419   -158.84307    15330.962    4.2723743    4.2723743    4.2723743    15330.962   -49745.439    35450.616    60287.707    891.68672    28636.008    7293.3803    77.984426 
   45700    1961.2708   -160.61632     1.774599   -158.84172    29466.189     4.280173     4.280173     4.280173    29466.189    10008.085    23729.499    54660.982    513.56965     27685.35    13382.006    78.412257 
   45800    1433.8632   -160.12618    1.2973896   -158.82879   -37801.337     4.279313     4.279313     4.279313   -37801.337   -134706.39   -3692.7432     24995.12    5907.4493    6510.6371   -11082.332    78.365002 
   45900    1946.3535   -160.59308    1.7611015   -158.83198    6782.1064    4.2616901    4.2616901    4.2616901    6782.1064    19804.759    7166.9688   -6625.4091   -16297.538   -9385.9121   -17767.665    77.400829 
   46000    2112.6542   -160.76384    1.9115739   -158.85227    35150.401    4.2591126    4.2591126    4.2591126    35150.401    82737.335    30703.565   -7989.6978   -1841.3135   -319.77963   -4272.4616    77.260472 
   46100    1473.2951   -160.18933    1.3330683   -158.85626   -57877.622    4.2857646    4.2857646    4.2857646   -57877.622   -150391.27   -881.53264   -22360.059    3326.5003    16322.175    17130.863    78.719971 
   46200    2467.7804   -161.06316    2.2328996   -158.83026   -61103.799    4.2924096    4.2924096    4.2924096   -61103.799   -55003.246   -61860.824   -66447.328   -7005.4491   -10382.416   -2593.7756    79.086703 
   46300    1772.7181   -160.42492    1.6039926   -158.82093     4172.099    4.2604844    4.2604844    4.2604844     4172.099    2360.6454    31946.043   -21790.391    2816.1015   -31963.248    3362.0246     77.33515 
   46400    628.13594   -159.37954    0.5683506   -158.81119    4882.4197    4.2358344    4.2358344    4.2358344    4882.4197   -91672.972    78576.929    27743.302   -19566.138   -33919.397    6071.0324    76.000582 
   46500    1888.6407   -160.56915    1.7088818   -158.86027    19739.119    4.2464362    4.2464362    4.2464362    19739.119    32687.541     20425.05    6104.7653   -7089.1844   -26062.433    14324.849    76.572674 
   46600    2018.9942   -160.70119    1.8268284   -158.87436   -1458.9541    4.2793474    4.2793474    4.2793474   -1458.9541     22479.65   -55867.261    29010.749    3908.3926   -10553.918     7788.919    78.366895 
   46700    511.35682   -159.30783    0.4626864   -158.84514    2376.1937    4.2898488    4.2898488    4.2898488    2376.1937   -94969.321    28074.646    74023.255   -10637.671   -11895.925   -15866.454     78.94524 
   46800    2455.1755   -161.04508    2.2214944   -158.82358    9465.5022    4.2769493    4.2769493    4.2769493    9465.5022     32852.02    2925.6451   -7381.1585    6378.8454   -9794.7005    233.33823    78.235217 
   46900    2461.6417    -161.0369    2.2273451   -158.80956   -14029.591    4.2609679    4.2609679    4.2609679   -14029.591   -20396.855    584.71895   -22276.636     18921.79    1998.0794    8431.2168    77.361482 
   47000    1206.5214   -159.91483    1.0916859   -158.82315    3954.8668    4.2510927    4.2510927    4.2510927    3954.8668   -92304.568    58958.434    45210.734   -5908.4737    -6822.434   -12315.487     76.82485 
   47100    2226.2986   -160.87422    2.0144018   -158.85981    39037.951    4.2599839    4.2599839    4.2599839    39037.951    52107.765    50203.695    14802.393   -8729.4896   -8247.5386   -17605.571    77.307897 
   47200    1742.5519   -160.44013    1.5766975   -158.86344   -2887.1945    4.2836456    4.2836456    4.2836456   -2887.1945   -6049.8305   -2858.5132    246.76034   -7365.6944     5701.678   -14719.165    78.603268 
   47300    1323.4121   -160.03257    1.1974511   -158.83512    -53999.62    4.2923429    4.2923429    4.2923429    -53999.62   -108772.93   -9037.1781   -44188.752   -12631.667    9315.6226    4780.8333    79.083019 
   47400    2101.5214   -160.73543    1.9015008   -158.83393    39065.053    4.2801866    4.2801866    4.2801866    39065.053    71521.148    23426.458    22247.552   -21967.413   -2371.5512   -8793.1028    78.413004 
   47500    1413.6175   -160.10133    1.2790708   -158.82226    18529.098    4.2692546    4.2692546    4.2692546    18529.098   -5565.3301    16936.168    44216.455   -17488.689   -2940.7364    11494.864    77.813718 
   47600     1717.652   -160.38469    1.5541676   -158.83052   -42342.469    4.2743037    4.2743037    4.2743037   -42342.469   -99854.303   -14073.761   -13099.343    4538.0113    10419.408    13649.719    78.090126 
   47700    2687.0487   -161.27212    2.4312981   -158.84082   -20605.324    4.2858789    4.2858789    4.2858789   -20605.324   -10145.465    8620.8249   -60291.333    7700.8599    -2256.821      -3696.1    78.726275 
   47800    1300.9531   -160.00074    1.1771297   -158.82361   -18882.532     4.278148     4.278148     4.278148   -18882.532   -141340.37    43132.192     41560.58   -7957.6894   -12063.676   -18049.783    78.301016 
   47900    1716.4255   -160.38043    1.5530578   -158.82737    14578.297    4.2662128    4.2662128    4.2662128    14578.297   -56562.308    8791.0923    91506.107    5283.4388    6780.7614   -23378.633    77.647511 
   48000    2391.3472   -161.03091    2.1637412   -158.86717    2863.4516    4.2778973    4.2778973    4.2778973    2863.4516    25377.075   -30489.272    13702.552   -3717.0682    17715.088   -9598.4017    78.287253 
   48100    850.90196   -159.62622   0.76991398    -158.8563   -11602.666    4.2847618    4.2847618    4.2847618   -11602.666   -135271.56    23299.827    77163.736   -3048.8792    14356.656    5474.2527    78.664728 
   48200    2356.8249    -160.9615    2.1325047     -158.829   -3132.9986    4.2683716    4.2683716    4.2683716   -3132.9986   -20047.571   -33699.263    44347.838    15667.213   -14817.131     -6683.85    77.765444 
   48300    2644.1057   -161.22131    2.3924424   -158.82887    18717.284    4.2564681    4.2564681    4.2564681    18717.284    14181.591    -2061.174    44031.437    -7502.958    8323.3799   -12595.979    77.116649 
   48400     1142.797   -159.88511    1.0340267   -158.85109   -18684.176    4.2717678    4.2717678    4.2717678   -18684.176   -114074.46    32165.567    25856.368   -7882.9698    -9243.002   -12415.046     77.95122 
   48500    1925.7444   -160.58692     1.742454   -158.84447    11755.234    4.2762647    4.2762647    4.2762647    11755.234    1934.2531    44435.324   -11103.876    4672.9736   -10760.233   -290.43393    78.197658 
   48600    1959.9267   -160.60682    1.7733828   -158.83344    43860.831    4.2629734    4.2629734    4.2629734    43860.831    59875.771    44041.664    27665.059   -6053.0023   -2866.5316    9028.8755    77.470771 
   48700    1100.5214   -159.84437   0.99577486    -158.8486   -11059.819    4.2705555    4.2705555    4.2705555   -11059.819   -114997.37    53122.618    28695.295    16065.629   -14482.405    2725.2379     77.88487 
   48800    2690.2054   -161.29245    2.4341544   -158.85829   -32784.958    4.2847733    4.2847733    4.2847733   -32784.958   -39496.942   -8846.9461   -50010.987    10778.194    4578.2863   -6753.6459    78.665362 
   48900    2334.5942   -160.95216    2.1123899   -158.83977   -38017.102    4.2813644    4.2813644    4.2813644   -38017.102   -55747.007   -46975.415   -11328.884    564.68957    13783.132   -13098.277    78.477755 
   49000     1040.607   -159.76891   0.94156309   -158.82734   -22426.315    4.2756952    4.2756952    4.2756952   -22426.315   -115433.85    40792.815    7362.0899    3184.1543   -10464.878    1801.6455    78.166416 
   49100    2219.6062   -160.84111    2.0083463   -158.83277    10090.919    4.2677629    4.2677629    4.2677629    10090.919    7812.3241    38019.953   -15559.521    1704.3594   -21678.101    2520.7162    77.732183 
   49200     1517.817   -160.20861    1.3733527   -158.83526   -6171.2325    4.2620289    4.2620289    4.2620289   -6171.2325   -82854.415    28567.447    35773.271   -17391.427   -7705.5468   -5110.0723    77.419287 
   49300     935.9984   -159.69048   0.84691102   -158.84357    209.90359    4.2733325    4.2733325    4.2733325    209.90359   -88653.517    2887.3702    86395.858   -20626.468   -18633.601   -8475.9284     78.03691 
   49400    2354.2166   -160.97517    2.1301447   -158.84502    26274.348    4.2841929    4.2841929    4.2841929    26274.348    60991.422   -49909.898     67741.52   -9096.4771   -24456.017    11895.496    78.633399 
   49500    1515.0616   -160.20137    1.3708595   -158.83051   -16407.299    4.2712522    4.2712522    4.2712522   -16407.299   -68772.713   -11787.479    31338.296   -5617.7249    12581.007     -577.642    77.922995 
   49600    1779.7963   -160.42667    1.6103971   -158.81627    -610.4117    4.2470305    4.2470305    4.2470305    -610.4117   -31603.432    19286.329    10485.867   -4631.7762    21733.927    -12965.67    76.604828 
   49700    2801.7897   -161.38783    2.5351182   -158.85271    13371.084     4.261419     4.261419     4.261419    13371.084    47859.751    19872.227   -27618.725    12242.789    15062.413    3090.0196    77.386053 
   49800    1186.5872   -159.92527     1.073649   -158.85163   -6036.3791    4.2869685    4.2869685    4.2869685   -6036.3791   -52089.332    16868.198    17111.996    18760.268   -9106.9458    8074.0196    78.786331 
   49900    2016.6365   -160.63557     1.824695   -158.81087   -51234.298    4.2910696    4.2910696    4.2910696   -51234.298   -55458.638   -33169.784   -65074.471    3858.4161   -8004.1637   -13269.405    79.012657 
   50000    2590.6083   -161.14697    2.3440369   -158.80294    9680.7942     4.272495     4.272495     4.272495    9680.7942    20049.677   -9756.2759    18748.981   -8716.4444    2510.4065   -331.15367    77.991034 
   50100    903.80398   -159.63315   0.81778083   -158.81536    25515.649    4.2667131    4.2667131    4.2667131    25515.649   -114681.46    68924.312     122304.1   -1612.0811   -12396.456    15900.783    77.674833 
   50200    2005.1551   -160.64949    1.8143065   -158.83519   -2086.7469    4.2803206    4.2803206    4.2803206   -2086.7469   -50220.523    486.83414    43473.448    17433.089   -13125.483   -3597.4974    78.420374 
   50300    2780.8692    -161.3353    2.5161889   -158.81912   -54822.654    4.2893251    4.2893251    4.2893251   -54822.654   -42474.563   -71404.642   -50588.756   -3527.2834     13264.54   -21052.277    78.916333 
   50400    1116.9621   -159.82008    1.0106508   -158.80943   -20713.211    4.2860213    4.2860213    4.2860213   -20713.211   -144034.96    50162.241    31733.089   -760.22428    9832.5031    3250.5457    78.734117 
   50500    1946.4028   -160.57475    1.7611462    -158.8136    43448.183    4.2760033    4.2760033    4.2760033    43448.183    941.19485    65253.514    64149.838    8842.1255   -4848.3386    37912.958    78.183315 
   50600    1603.3263   -160.26235    1.4507233   -158.81162    67.940066     4.265803     4.265803     4.265803    67.940066   -58290.277    15671.589    42822.508   -4980.1918    11358.255    21942.828    77.625139 
   50700    1489.2072   -160.17224     1.347466   -158.82477   -30831.927    4.2682515    4.2682515    4.2682515   -30831.927   -99226.604    14302.636   -7571.8119    2559.7777   -5773.4844    4112.2037     77.75888 
   50800    2717.8765   -161.30954    2.4591918   -158.85035   -4832.5693    4.2893567    4.2893567    4.2893567   -4832.5693    3671.6057   -34452.846    16283.533    5041.1907    4027.7565    13651.547    78.918077 
   50900    657.13955   -159.42459   0.59459367      -158.83    282.79666    4.3024027    4.3024027    4.3024027    282.79666    -143796.3    45557.952    99086.733   -6114.7468    5005.1095    31962.429    79.640354 
   51000    1558.8751   -160.22226     1.410503   -158.81175    2080.4686    4.2849755    4.2849755    4.2849755    2080.4686   -42703.296    23260.494    25684.207     7805.309   -2232.3265    5561.9311    78.676502 
   51100    2800.3858   -161.33229    2.5338479   -158.79844   -10378.672     4.260774     4.260774     4.260774   -10378.672    27670.909    -19586.96   -39219.966    2893.6193    5066.9626   -12361.233    77.350923 
   51200    1056.8344   -159.79347   0.95624599   -158.83723   -11579.897     4.267897     4.267897     4.267897   -11579.897   -90302.808    27389.029    28174.086   -11465.789     10538.39   -3302.0614    77.739508 
   51300    1702.1739   -160.39507    1.5401627   -158.85491    15401.718    4.2882271    4.2882271    4.2882271    15401.718    -19842.38    18111.894    47935.639    8605.2005   -3212.0527    15549.114    78.855746 
   51400    2575.0924    -161.1445    2.3299977   -158.81451   -29734.198    4.2863597    4.2863597    4.2863597   -29734.198   -25780.738   -41245.082   -22176.773   -4302.5062    15551.256   -9780.1755    78.752773 
   51500    1669.1417    -160.2956    1.5102745   -158.78532   -42076.253    4.2661102    4.2661102    4.2661102   -42076.253   -126837.16    15653.634   -15045.227    7440.1547    615.44074   -16411.799    77.641909 
   51600    2111.0113   -160.72289    1.9100874    -158.8128    30597.565    4.2568634    4.2568634    4.2568634    30597.565    26607.916    27754.126    37430.654    2340.9185    5388.7105    19356.544    77.138135 
   51700    1730.5289    -160.4069    1.5658189   -158.84108    5590.2873    4.2760261    4.2760261    4.2760261    5590.2873   -39815.567    16926.603    39659.826    15030.296    5477.8838    24040.269    78.184566 
   51800    1406.1109   -160.09978    1.2722787    -158.8275   -49271.351    4.2887052    4.2887052    4.2887052   -49271.351   -108427.81   -30284.601   -9101.6441    8656.3614   -25922.056    573.29951    78.882121 
   51900    1542.3357   -160.21882    1.3955378   -158.82328    42883.987    4.2768465    4.2768465    4.2768465    42883.987    99559.483    14377.108     14715.37   -30254.348    15656.107    18754.058    78.229577 
   52000    1410.1771   -160.09477    1.2759579   -158.81881    35523.974    4.2723479    4.2723479    4.2723479    35523.974    24336.687    12321.725    69913.509   -20043.432    9417.8635    20252.772    77.982979 
   52100    1733.4362   -160.38165    1.5684495    -158.8132   -54590.052    4.2820401    4.2820401    4.2820401   -54590.052   -131681.49   -4060.8598   -28027.806    14752.404   -21225.344   -8699.2331    78.514918 
   52200     2349.316    -160.9401    2.1257105   -158.81439    4379.9034    4.2760911    4.2760911    4.2760911    4379.9034    32002.134    26274.795   -45137.219   -8617.1688     8311.079    247.06039    78.188136 
   52300     1512.949   -160.18939     1.368948   -158.82045    50601.593    4.2646102    4.2646102    4.2646102    50601.593    48025.865    116818.26   -13039.348   -12354.409   -11678.199    6825.0196    77.560042 
   52400    1822.4196   -160.47689    1.6489635   -158.82793   -26727.497    4.2786252    4.2786252    4.2786252   -26727.497   -77849.107    19819.064   -22152.447   -3609.2615   -11708.804    -11206.01    78.327226 
   52500    2350.7307   -160.95711    2.1269905   -158.83012   -20634.418    4.2944388    4.2944388    4.2944388   -20634.418    1102.2073   -57506.469   -5498.9937   -12281.341    1995.6332    -3095.814    79.198918 
   52600    949.66997   -159.67787   0.85928134   -158.81859     31300.87    4.2877195    4.2877195    4.2877195     31300.87   -18922.396    30769.867     82055.14    7764.9703    12591.518    31054.485    78.827744 
   52700    1998.6774   -160.60084    1.8084453    -158.7924   -29956.848    4.2804221    4.2804221    4.2804221   -29956.848   -43690.689   -23902.399   -22277.457     11031.05   -15877.675   -3624.2154    78.425948 
   52800    2183.4253   -160.77658    1.9756091   -158.80097    11058.281    4.2823738    4.2823738    4.2823738    11058.281    67008.776   -6611.9614   -27221.972    1219.2336   -4698.5146    16592.077    78.533275 
   52900     1076.014   -159.78009   0.97360005   -158.80649    1514.3596    4.2849629    4.2849629    4.2849629    1514.3596   -25810.843    53603.339   -23249.417   -17988.031   -4718.7663    9483.5023    78.675807 
   53000    2592.7622    -161.1428    2.3459857   -158.79682   -47260.889    4.2862532    4.2862532    4.2862532   -47260.889   -68567.119   -48307.275   -24908.275   -6317.1841   -9124.8619   -22703.204    78.746902 
   53100    1928.9276   -160.54941    1.7453342   -158.80408    22418.747    4.2889021    4.2889021    4.2889021    22418.747    66159.256   -27401.285    28498.271     9882.026    16290.274    9615.4667    78.892987 
   53200    1043.9737   -159.74218   0.94460936   -158.79757   -1393.7925    4.2970851    4.2970851    4.2970851   -1393.7925   -30289.352   -39864.141    65972.116    1936.0636    22172.261    11014.722     79.34542 
   53300    2592.1083   -161.13617    2.3453941   -158.79078   -37032.549    4.2981988    4.2981988    4.2981988   -37032.549   -4349.1046   -34846.499   -71902.042    6962.0853   -9967.9569   -8768.2895    79.407131 
   53400    862.68113    -159.5747   0.78057201   -158.79412    34309.751    4.2830167    4.2830167    4.2830167    34309.751   -95785.606    153817.25    44897.608   -13529.217   -6105.0365    31373.317    78.568652 
   53500    1468.2732   -160.12281    1.3285245   -158.79429    33028.853     4.277865     4.277865     4.277865    33028.853   -64391.918    111439.78    52038.695   -7954.1901   -4722.6975    20219.157     78.28548 
   53600    2834.4857   -161.36617    2.5647022   -158.80147   -40400.291    4.2946033    4.2946033    4.2946033   -40400.291    13997.558   -80877.243   -54321.187    13674.111   -3545.5833   -11841.529    79.208019 
   53700    767.30655   -159.48401   0.69427509   -158.78974    13406.795    4.3035783    4.3035783    4.3035783    13406.795   -30143.122    55229.819    15133.689    -22219.15     31773.15    5448.3745    79.705653 
   53800    2797.0838      -161.28    2.5308602   -158.74914   -56142.189    4.2939229    4.2939229    4.2939229   -56142.189   -64003.069   -69917.294   -34506.203    3868.6836    12927.639   -11526.898    79.170377 
   53900    1751.5579   -160.33306    1.5848464   -158.74821    10250.696    4.2792506    4.2792506    4.2792506    10250.696    46063.799    5999.0175   -21310.727    -9230.933   -3761.4439    2764.5576    78.361575 
   54000    897.65089    -159.5906   0.81221339   -158.77839    36217.586    4.2760537    4.2760537    4.2760537    36217.586     49422.24    65089.941   -5859.4221   -26247.316    2529.8865    15266.809    78.186082 
   54100    2886.4897   -161.41108    2.6117566   -158.79932   -44479.202    4.2930959    4.2930959    4.2930959   -44479.202   -6331.6533   -72780.928   -54325.025    8091.9927   -19004.603    404.63374    79.124644 
   54200    1076.0289    -159.7768   0.97361359   -158.80319    3463.5328    4.3054897    4.3054897    4.3054897    3463.5328    -19061.83    6942.6484     22509.78   -11014.325        10605    17324.265    79.811901 
   54300    2166.2563   -160.72804    1.9600742   -158.76796   -33700.282     4.297929     4.297929     4.297929   -33700.282   -55451.516   -24210.713   -21438.616    9088.0926    9445.7409    505.34601    79.392178 
   54400    2739.8534   -161.23064    2.4790769   -158.75156    3549.3861    4.2768696    4.2768696    4.2768696    3549.3861     35947.65   -5687.2074   -19612.285    7916.9893   -14095.385   -10096.513    78.230847 
   54500    415.75503   -159.16798   0.37618389   -158.79179    60388.044    4.2764782    4.2764782    4.2764782    60388.044     63479.29    99427.332     18257.51   -28444.356    26238.849    2504.3248    78.209367 
   54600    2354.8074   -160.93431    2.1306792   -158.80363   -23068.324    4.3003437    4.3003437    4.3003437   -23068.324   -4656.4038    -26980.75   -37567.817   -3.6191343   -11613.861   -7376.9017    79.526068 
   54700    1470.2707   -160.12228    1.3303318   -158.79195     16104.89    4.3121727    4.3121727    4.3121727     16104.89   -27556.257    2687.6999    73183.227   -3973.5768    799.07788    15622.857    80.184132 
   54800    1431.0645   -160.04078    1.2948573   -158.74592   -22164.718    4.3008147    4.3008147    4.3008147   -22164.718   -76361.623    1531.2951     8336.174    6615.2213   -2423.0414   -416.84646    79.552201 
   54900     2661.015   -161.13237    2.4077423   -158.72463    6310.4223    4.2798009    4.2798009    4.2798009    6310.4223    39573.121   -21419.969    778.11478    6934.5863   -10981.381    3771.4655    78.391812 
   55000    849.27981   -159.53143   0.76844622   -158.76299    57425.743    4.2793705    4.2793705    4.2793705    57425.743   -15934.753    105108.91    83103.074   -18427.019    16186.132    16268.348    78.368162 
   55100    2255.1535   -160.81508    2.0405103   -158.77457   -69837.961    4.3057153    4.3057153    4.3057153   -69837.961   -59447.443   -69350.295   -80716.146    11817.662   -4616.4406   -19309.316     79.82445 
   55200    1565.1996    -160.1941    1.4162255   -158.77788    30814.339    4.3120172    4.3120172    4.3120172    30814.339    16649.762    25480.215     50313.04   -675.13708    15666.437    16576.882    80.175456 
   55300    1382.0694   -159.99534    1.2505254   -158.74481   -43378.934    4.2881313    4.2881313    4.2881313   -43378.934    -127101.2   -6804.5412    3768.9408    11236.187   -2763.3791   -7416.3579    78.850458 
   55400     2572.727   -161.07659    2.3278575   -158.74873    7221.0344    4.2664919    4.2664919    4.2664919    7221.0344    68802.892    -11296.94   -35842.849    12836.897    1682.6215   -19925.602    77.662755 
   55500      1357.63   -160.05419    1.2284122   -158.82577    47275.846    4.2827141    4.2827141    4.2827141    47275.846    93029.777   -18162.714    66960.476   -2820.4535    29453.832    11410.631    78.551999 
   55600    1364.0615   -160.04298    1.2342315   -158.80874   -63701.665    4.3039426    4.3039426    4.3039426   -63701.665   -67490.945   -78987.784   -44626.266    17993.642   -5570.1337   -3559.7133    79.725899 
   55700    2419.8659   -160.97067    2.1895455   -158.78112    1054.2044     4.292021     4.292021     4.292021    1054.2044     -20557.4    44607.886   -20887.873    12762.049   -694.58179    14266.986    79.065225 
   55800    1231.6918   -159.89556    1.1144606    -158.7811    33745.166    4.2778472    4.2778472    4.2778472    33745.166   -68495.702    75172.025    94559.175   -11112.611    11164.548    18716.746    78.284506 
   55900    2034.6735   -160.64146    1.8410154   -158.80044   -52576.798    4.2878985    4.2878985    4.2878985   -52576.798   -92616.728   -21832.168   -43281.496    7475.2199    4298.6176    -8330.706    78.837619 
   56000    2215.4491    -160.8085    2.0045849   -158.80391   -25930.062    4.2944396    4.2944396    4.2944396   -25930.062    8692.9802   -45838.742   -40644.425   -17220.969    905.72034   -2397.1463    79.198962 
   56100    1020.3531   -159.71598   0.92323694   -158.79274   -3667.3558    4.2721329    4.2721329    4.2721329   -3667.3558   -106560.93     44644.66    50914.199   -28615.525   -4216.2598    23913.503    77.971211 
   56200    2418.1559   -160.97891    2.1879983   -158.79091    475.28303    4.2567066    4.2567066    4.2567066    475.28303   -12785.639    2412.5693    11798.919    6687.5286   -25404.296   -2511.0086    77.129615 
   56300    2473.1429   -161.08927    2.2377517   -158.85152   -20915.642    4.2844248    4.2844248    4.2844248   -20915.642   -7854.4465   -58774.795    3882.3172   -2378.4507   -16822.213   -5505.1648    78.646171 
   56400     742.7588   -159.49754   0.67206377   -158.82548    -8367.358    4.3086561    4.3086561    4.3086561    -8367.358   -77154.902    -41521.37    93574.199    1251.4232    12457.262    7975.9471    79.988122 
   56500    2381.7903   -160.94366     2.155094   -158.78856   -14689.187    4.2882643    4.2882643    4.2882643   -14689.187    34860.717    -47747.54   -31180.738    13028.883   -1733.4924   -18611.041    78.857796 
   56600    1793.3957   -160.40289    1.6227021   -158.78019     6588.439    4.2632734    4.2632734    4.2632734     6588.439   -40959.209    53976.471    6748.0548    11506.327   -16951.747   -7624.6471    77.487128 
   56700    1634.3163   -160.31542    1.4787637   -158.83666   -24751.975     4.274731     4.274731     4.274731   -24751.975   -68672.807   -12285.501    6702.3831   -2850.3538   -7797.9096    11413.919    78.113551 
   56800    1806.0645   -160.49114    1.6341651   -158.85697    19458.949    4.2984443    4.2984443    4.2984443    19458.949    168253.64   -60882.273   -48994.521    17874.762    17340.311     7479.896    79.420735 
   56900    1011.4083   -159.72692   0.91514346   -158.81178   -5840.4712    4.2939342    4.2939342    4.2939342   -5840.4712    60001.541   -55977.936   -21545.019    6520.5746    16813.039    14732.459    79.171006 
   57000    1783.4133   -160.41152    1.6136698   -158.79785    10780.347    4.2760875    4.2760875    4.2760875    10780.347    34695.776     28026.56   -30381.294   -28284.093   -6813.4259    4655.0271    78.187937 
   57100    2183.8703   -160.80266    1.9760117   -158.82664    22692.635     4.277438     4.277438     4.277438    22692.635    48536.657    36464.334   -16923.087   -28907.844   -13395.658   -9799.7471    78.262041 
   57200    1498.7087   -160.18374    1.3560631   -158.82767   -54950.292    4.2837139    4.2837139    4.2837139   -54950.292   -92042.413    -34235.87   -38572.593    4985.7772    9159.7649    8903.6311    78.607026 
   57300    1973.0485   -160.60935    1.7852558    -158.8241    5889.3044    4.2767035    4.2767035    4.2767035    5889.3044   -28151.725    46767.815    -948.1769    6272.9295    7690.1477   -10074.658    78.221733 
   57400    1894.9587   -160.54103    1.7145985   -158.82644     20485.28    4.2738333    4.2738333    4.2738333     20485.28    15923.327    95681.524   -50149.011   -5346.3957   -11090.741   -14772.866    78.064349 
   57500    1099.4164   -159.83376   0.99477506   -158.83899    9056.8077    4.2809839    4.2809839    4.2809839    9056.8077   -20975.693    70022.689   -21876.573   -15010.257   -10695.332    9963.8371    78.456834 
   57600    2558.1637   -161.14853    2.3146803   -158.83385   -14745.193    4.2813382    4.2813382    4.2813382   -14745.193    9201.9506   -55924.116    2486.5874     3520.425    5769.2639     9189.497    78.476315 
   57700    2116.3889   -160.73618    1.9149531   -158.82123   -7897.8833    4.2602832    4.2602832    4.2602832   -7897.8833   -35173.158   -23747.925    35227.433     6738.763    7559.0053   -5598.7132    77.324196 
   57800    1637.1802   -160.32123    1.4813551   -158.83988   -964.82656    4.2536683    4.2536683    4.2536683   -964.82656   -85869.195    45665.732    37308.983    1272.8191   -3688.5656   -17289.565    76.964572 
   57900    2585.8192   -161.21669    2.3397035   -158.87698   -7749.5715    4.2819413    4.2819413    4.2819413   -7749.5715    19229.389    20470.082   -62948.186   -10450.605    5947.2617   -11370.972    78.509487 
   58000    1323.1579   -160.04749    1.1972211   -158.85026   -10861.867     4.298305     4.298305     4.298305   -10861.867   -56950.306    58463.393   -34098.689   -10308.269   -6948.0154      13528.4    79.413016 
   58100     1738.426   -160.38261    1.5729644   -158.80964   -24286.625    4.2824419    4.2824419    4.2824419   -24286.625   -97182.864    62104.577   -37781.588    12108.308    -9504.681   -1114.5401    78.537022 
   58200    2523.1147   -161.09255    2.2829672   -158.80958    8603.5519    4.2652468    4.2652468    4.2652468    8603.5519    20324.401   -11967.282    17453.537    17578.231    5238.5711   -9430.6265    77.594778 
   58300    1518.5437   -160.21209    1.3740103   -158.83808    -45623.65    4.2750756    4.2750756    4.2750756    -45623.65   -34872.693    -43981.43   -58016.827    24718.995    19657.455    6871.3941    78.132442 
   58400    1175.3101   -159.91504    1.0634453   -158.85159    7680.4111    4.2852384    4.2852384    4.2852384    7680.4111   -39583.753     88619.85   -25994.864   -8807.1849   -5521.7301   -23443.982    78.690981 
   58500    2023.2653    -160.6656    1.8306929   -158.83491    20927.447    4.2778296    4.2778296    4.2778296    20927.447    63022.473    48872.153   -49112.286    3664.9589    11910.751   -6026.3463    78.283539 
   58600    1346.9809   -160.03204    1.2187766   -158.81326    -36211.37    4.2737452    4.2737452    4.2737452    -36211.37   -95246.175   -27689.036    14301.101    20835.805    11595.569     11805.01    78.059521 
   58700    1454.9233   -160.14514    1.3164452   -158.82869    17203.657    4.2723656    4.2723656    4.2723656    17203.657   -49021.653    9409.5067    91223.118   -4646.9038   -18045.337   -6393.1789    77.983948 
   58800    2054.9999   -160.69612    1.8594071   -158.83671    43160.487    4.2710688    4.2710688    4.2710688    43160.487    47754.992   -3933.2998    85659.769    7761.9184    -3067.806   -3369.1859     77.91296 
   58900    1642.6625   -160.30588    1.4863156   -158.81957    -49558.41    4.2838974    4.2838974    4.2838974    -49558.41   -78881.283   -34906.937    -34887.01    10987.544    9122.4914    14112.235    78.617129 
   59000    1712.8245   -160.35989    1.5497996   -158.81009    279.55628    4.2900381    4.2900381    4.2900381    279.55628   -14325.176    43671.962   -28508.117    -8759.494   -3404.6697   -12019.625    78.955693 
   59100    2373.2011   -160.95623    2.1473222   -158.80891    26324.926    4.2746567    4.2746567    4.2746567    26324.926    44050.474    32941.698     1982.607   -2939.8208     3734.662   -3832.3252    78.109478 
   59200    1499.8765   -160.15662    1.3571198    -158.7995   -27428.918    4.2713848    4.2713848    4.2713848   -27428.918    -74370.92   -19037.614    11121.779    12093.998    5098.7662    10674.412    77.930255 
   59300    1493.7533   -160.16974    1.3515794   -158.81816    22727.215    4.2895047    4.2895047    4.2895047    22727.215    52503.003   -12982.608    28661.249    3972.1891   -18508.985   -21793.472    78.926244 
   59400    2576.7193   -161.11731    2.3314698   -158.78585   -38314.508    4.2900695    4.2900695    4.2900695   -38314.508    15754.465   -84119.115   -46578.873    5123.7305      2055.44   -4356.1581    78.957426 
   59500    1072.3934   -159.74691   0.97032411   -158.77658   -3806.3529     4.272107     4.272107     4.272107   -3806.3529   -52931.845    30100.282    11412.505    761.80523    1636.6895   -5548.9201    77.969788 
   59600    1789.9551   -160.43943     1.619589   -158.81984    46849.297    4.2712842    4.2712842    4.2712842    46849.297    20695.256    81493.885    38358.751   -8580.1803    -651.7964   -19590.133    77.924751 
   59700    2553.7713   -161.13397    2.3107059   -158.82326   -20736.051    4.2881812    4.2881812    4.2881812   -20736.051   -39932.752    27805.719   -50081.121   -419.61713    2177.0226    4483.6216     78.85321 
   59800    1145.6491   -159.84373    1.0366074   -158.80712   -34617.154    4.2801991    4.2801991    4.2801991   -34617.154   -89357.312   -16878.768    2384.6176    7718.3218   -4854.9593    14351.537    78.413696 
   59900    1811.3298   -160.45733    1.6389293    -158.8184    45594.373    4.2622322    4.2622322    4.2622322    45594.373    55713.628    9835.3113     71234.18   -11495.059   -21401.681   -14097.689    77.430365 
   60000    2325.1695   -160.94744    2.1038622   -158.84358    17223.204     4.276591     4.276591     4.276591    17223.204    10346.404   -17972.294    59295.503   -19831.104   -14445.949   -9968.5981    78.215556 
   60100    1407.3131   -160.09558    1.2733665   -158.82221   -77415.977    4.2936835    4.2936835    4.2936835   -77415.977   -115783.85   -59515.052   -56949.033    9393.6041    12876.435    5491.9825    79.157139 
   60200    1832.6223   -160.47178    1.6581951   -158.81359    19544.873    4.2779823    4.2779823    4.2779823    19544.873    29639.098    13660.204    15335.318   -5340.4238    -8442.875   -17323.826    78.291921 
   60300    2310.1484   -160.89599    2.0902708   -158.80571    26812.374    4.2599152    4.2599152    4.2599152    26812.374     17051.98    6326.5934    57058.549   -2303.7506   -61.504265    7960.9526    77.304158 
   60400    1502.7899   -160.17533    1.3597559   -158.81557   -43159.207    4.2680918    4.2680918    4.2680918   -43159.207   -84241.863    -17569.18   -27666.578    9735.5169    5241.8236    9283.7726    77.750156 
   60500    1559.4796   -160.23985      1.41105    -158.8288    24337.705    4.2833303    4.2833303    4.2833303    24337.705    81771.644    4162.4148   -12920.944   -23626.729   -18938.834   -8574.4442    78.585909 
   60600    2368.1912   -160.96345    2.1427892   -158.82066    1468.4485      4.27933      4.27933      4.27933    1468.4485   -14020.122    17233.317    1192.1501   -8527.7873    2938.1686    11781.112    78.365936 
   60700    1571.7721   -160.23325    1.4221724   -158.81108   -39135.492      4.26771      4.26771      4.26771   -39135.492   -73788.981   -12240.748   -31376.746    12355.322    17059.461    13643.597    77.729289 
   60800    1496.2459    -160.1855    1.3538347   -158.83167    30825.976    4.2639799    4.2639799    4.2639799    30825.976    40146.191    41776.878    10554.861   -16144.504    -2488.238   -12053.796    77.525654 
   60900    2156.8884   -160.79344     1.951598   -158.84184    27421.601    4.2720267    4.2720267    4.2720267    27421.601   -5546.9779    53416.669    34395.112   -13505.602   -6900.3008    3387.1911    77.965394 
   61000    1813.7264   -160.46657    1.6410977   -158.82547   -49410.122    4.2797248    4.2797248    4.2797248   -49410.122    -87352.09   -34921.278   -25956.999   -295.63348     5134.731    5672.1587     78.38763 
   61100    1524.4173   -160.20034    1.3793248   -158.82102    8052.6542    4.2761895    4.2761895    4.2761895    8052.6542    102982.24   -44147.432   -34676.848   -16670.607   -11091.231    1968.6895     78.19353 
   61200    2022.0177    -160.6515    1.8295641   -158.82193    29428.251    4.2684194    4.2684194    4.2684194    29428.251    81399.349   -16681.924    23567.328   -7945.2792    -16411.03   -869.55342    77.768061 
   61300    1768.2979    -160.4252    1.5999931    -158.8252    -18960.55      4.27108      4.27108      4.27108    -18960.55   -41840.205   -16112.736    1071.2902    12721.615    6378.9075    14462.675    77.913571 
   61400    1731.6738   -160.41005    1.5668549   -158.84319   -1718.0119     4.280124     4.280124     4.280124   -1718.0119   -13027.363    23854.273   -15980.945    11226.671    966.41542   -8101.9042    78.409565 
   61500    1658.4411   -160.34616    1.5005924   -158.84557    22806.532    4.2800331    4.2800331    4.2800331    22806.532   -25286.804    71626.211    22080.189   -16274.776   -14647.654   -6864.3377    78.404571 
   61600    1887.2467   -160.54004    1.7076204   -158.83242    -17733.83    4.2715951    4.2715951    4.2715951    -17733.83   -82932.312    9566.0051    20164.816    2144.2962    10813.824    9638.8767    77.941764 
   61700    2106.8193   -160.73551    1.9062944   -158.82922    -25119.14    4.2707177    4.2707177    4.2707177    -25119.14    53899.137   -56375.485   -72881.073    466.80727    4549.3197    19725.974    77.893748 
   61800    1526.9366   -160.22091    1.3816043    -158.8393    21641.979     4.275702     4.275702     4.275702    21641.979    37547.926    40328.239   -12950.229   -23924.675   -10588.119    426.34922    78.166794 
   61900    1983.5498   -160.62673    1.7947575   -158.83197   -13415.603    4.2807826    4.2807826    4.2807826   -13415.603   -61775.784    7384.5303    14144.444    10526.073   -1579.0867   -8592.0246    78.445765 
   62000    2169.4194   -160.77733    1.9629362   -158.81439   -57503.828    4.2822429    4.2822429    4.2822429   -57503.828   -10613.753   -58077.979   -103819.75    21729.676    21156.712    6718.5588    78.526077 
   62100    1656.6164   -160.31598    1.4989413   -158.81704    31167.016    4.2713085    4.2713085    4.2713085    31167.016    41338.459    65143.575   -12980.986   -14175.279   -11779.388   -13863.702    77.926078 
   62200    1424.2702   -160.10942    1.2887096   -158.82071    29391.266    4.2658079    4.2658079    4.2658079    29391.266    42349.769    77238.757   -31414.729   -21323.612    8368.5483   -19277.637    77.625405 
   62300    1843.8263   -160.49774    1.6683328   -158.82941    -29052.98    4.2748649    4.2748649    4.2748649    -29052.98    51253.014   -71521.618   -66890.336   -369.66592    2535.5476   -7502.4113    78.120891 
   62400    2094.5446   -160.72557     1.895188   -158.83039   -25391.725    4.2764714    4.2764714    4.2764714   -25391.725   -69583.579   -34903.763    28312.165    8610.8416    9531.7565   -12716.907    78.208996 
   62500    1579.2785   -160.26379    1.4289644   -158.83482    32147.716    4.2683302    4.2683302    4.2683302    32147.716   -71684.384    70529.116    97598.416   -3472.0533   -7929.5315   -17733.099    77.763182 
   62600    1996.2715   -160.63899    1.8062684   -158.83272   -3966.7538    4.2715598    4.2715598    4.2715598   -3966.7538   -15643.126   -21427.847    25170.712    2420.7365   -1697.2279     3703.552    77.939835 
   62700    2143.4223   -160.76944    1.9394135   -158.83002   -24640.732    4.2777454    4.2777454    4.2777454   -24640.732   -402.70703    -46301.23   -27218.259   -1543.8188     11771.18    15050.407    78.278915 
   62800    1835.9944   -160.49047    1.6612463   -158.82922    11772.272    4.2733947    4.2733947    4.2733947    11772.272   -18185.962    52880.756    622.02071   -29111.157   -8812.2383   -6384.1835    78.040314 
   62900    1826.6924   -160.48653    1.6528297    -158.8337    24900.768    4.2650788    4.2650788    4.2650788    24900.768    79018.492    27072.631   -31388.821   -17058.723   -10638.295   -9898.4654     77.58561 
   63000    2092.3709   -160.73151    1.8932211   -158.83829   -25763.528    4.2692542    4.2692542    4.2692542   -25763.528   -11515.013   -53893.709   -11881.861    14664.146    21271.233   -2043.1571    77.813694 
   63100    1807.9281   -160.48474    1.6358513   -158.84889   -5063.3668    4.2748298    4.2748298    4.2748298   -5063.3668   -98227.229    40310.783    42726.346   -5836.7902    1206.3508   -6298.1723    78.118965 
   63200    1660.7963   -160.35147    1.5027234   -158.84875    6605.0813    4.2716268    4.2716268    4.2716268    6605.0813    31686.759   -9878.4518   -1993.0629   -1731.9476   -19922.711   -21487.533    77.943499 
   63300    1889.3333   -160.54877    1.7095085   -158.83927   -20361.815    4.2566912    4.2566912    4.2566912   -20361.815   -8454.1745   -32232.063   -20399.208    5081.7472    2597.6858   -10339.484    77.128776 
   63400    1960.0679   -160.61739    1.7735106   -158.84387    3162.2209    4.2502592    4.2502592    4.2502592    3162.2209   -58473.713    34307.059    33653.316    4803.0186   -2475.9776   -4195.3889    76.779673 
   63500    1990.7774   -160.67079    1.8012972   -158.86949    12646.473    4.2709055    4.2709055    4.2709055    12646.473    41990.871   -26368.293    22316.842   -882.16923   -9785.3673   -12700.109    77.904025 
   63600    1780.9273   -160.45668    1.6114204   -158.84526   -24949.569    4.2901997    4.2901997    4.2901997   -24949.569    1567.2681   -67747.483   -8668.4934   -12941.311    1887.5997   -7290.2151    78.964615 
   63700    2073.3957    -160.6941     1.876052   -158.81805   -52117.999    4.2781186    4.2781186    4.2781186   -52117.999   -109616.19   -13902.338   -32835.465    13561.882    6795.4748    11589.988    78.299405 
   63800     2129.004   -160.74398    1.9263675   -158.81761    24143.098    4.2544351    4.2544351    4.2544351    24143.098    18090.127   -10895.344    65234.512    15032.763   -8753.9093    5694.1916    77.006201 
   63900    1324.6723   -160.04879    1.1985913    -158.8502    44511.037    4.2567278    4.2567278    4.2567278    44511.037      73690.7   -40704.284    100546.69   -2334.8566   -28655.046   -14156.486    77.130768 
   64000    1351.9321   -160.08112    1.2232565   -158.85786    -11314.28    4.2809554    4.2809554    4.2809554    -11314.28   -79763.354   -9437.2525    55257.767    6219.5565   -5508.7963   -8204.0431    78.455269 
   64100    2370.0813   -160.97422    2.1444993   -158.82972   -32268.549     4.290929     4.290929     4.290929   -32268.549   -46767.648    5927.1733   -55965.172   -7505.9065    4709.6875    8354.7638    79.004894 
   64200    1155.4872   -159.86345    1.0455091   -158.81794    36608.303    4.2770187    4.2770187    4.2770187    36608.303    86532.399    39909.132   -16616.623   -25597.767    -5502.794   -7608.8216    78.239026 
   64300    1490.8185   -160.16071    1.3489239   -158.81179    4487.0303    4.2647467    4.2647467    4.2647467    4487.0303   -30477.666    58599.204   -14660.447   -3024.6972    4860.5519    2882.2806    77.567486 
   64400    2629.9934   -161.20503    2.3796733   -158.82536   -17887.714    4.2695406    4.2695406    4.2695406   -17887.714   -25247.754   -24936.398   -3478.9898     14667.82    1121.5381     11124.93    77.829359 
   64500     1625.546   -160.31281    1.4708282   -158.84198   -7963.2676    4.2820371    4.2820371    4.2820371   -7963.2676    11967.002   -64494.074    28637.268    -461.5022   -4016.3015   -9396.0865    78.514754 
   64600    1001.0387   -159.73932   0.90576089   -158.83356    3937.5462    4.2814179    4.2814179    4.2814179    3937.5462    -44607.29    1894.0951    54525.834   -5304.0592   -13931.778   -4446.9707      78.4807 
   64700    2594.4855   -161.16556     2.347545   -158.81802   -26594.973    4.2701586    4.2701586    4.2701586   -26594.973   -46945.449   -22083.259   -10756.212    7344.2175    4866.1492    5177.8198    77.863157 
   64800    1899.6057   -160.55024    1.7188032   -158.83144    3267.8311    4.2672021    4.2672021    4.2672021    3267.8311    69710.133   -16835.319   -43071.321   -15673.974   -2678.1019   -922.44746    77.701542 
   64900    830.32001   -159.59783   0.75129099   -158.84654    25625.464    4.2727012    4.2727012    4.2727012    25625.464   -27788.225    83376.967    21287.649   -9721.2502    -9816.713   -10200.232    78.002327 
   65000     2628.899   -161.21528     2.378683   -158.83659   -38616.085    4.2791925    4.2791925    4.2791925   -38616.085    -52852.84   -16871.588   -46123.826    17215.506     12884.55      1591.32    78.358386 
   65100    2110.5657   -160.73981    1.9096842   -158.83012   -6607.7234    4.2727359    4.2727359    4.2727359   -6607.7234    2814.7251   -27759.503     5121.608    9332.9601    3688.7586   -4535.6988    78.004231 
   65200     919.3517   -159.66668   0.83184874   -158.83483    17690.934    4.2698031    4.2698031    4.2698031    17690.934   -64273.304    64438.906    52907.199   -6330.3506   -16110.786   -19650.165    77.843714 
   65300    2204.7063   -160.83968    1.9948646   -158.84482    3665.2635    4.2752797    4.2752797    4.2752797    3665.2635   -39561.606    39201.041    11356.355   -3821.5937   -11827.687   -12805.141    78.143632 
   65400     2508.337   -161.10061     2.269596   -158.83102   -45914.149    4.2751108    4.2751108    4.2751108   -45914.149   -6338.1959   -90300.196   -41104.055    12319.652    7383.3244    17671.564     78.13437 
   65500    765.32865    -159.5223   0.69248544   -158.82981    27313.861    4.2629179    4.2629179    4.2629179    27313.861   -6421.2757    38101.743    50261.116   -2935.0324    -11622.67   -5614.4012    77.467742 
   65600    1669.6431   -160.35457    1.5107282   -158.84385     28150.76    4.2690112    4.2690112    4.2690112     28150.76   -18888.089    62842.897    40497.473   -6861.0674   -5066.7839    5388.6192    77.800408 
   65700    2952.6608   -161.50622    2.6716296   -158.83459   -53789.968    4.2905175    4.2905175    4.2905175   -53789.968   -7754.0859    -87296.43   -66319.388   -6248.1368    3706.3762    8156.1288    78.982163 
   65800     709.1905    -159.4567   0.64169047   -158.81501   -23773.362    4.2894181    4.2894181    4.2894181   -23773.362   -62787.779    13875.841   -22408.149   -10970.608   -7439.2014   -14655.543    78.921463 
   65900    1781.6992   -160.42157    1.6121188   -158.80946    14099.984    4.2559612    4.2559612    4.2559612    14099.984   -2968.4594    75454.227   -30185.817   -16384.317   -3763.0594    7296.7514    77.089101 
   66000    3052.3277   -161.58432    2.7618102   -158.82251    19869.729    4.2458878    4.2458878    4.2458878    19869.729    38333.277    34238.806   -12962.896    12737.887     13685.14     14278.83    76.543012 
   66100    1121.1369   -159.89013    1.0144282    -158.8757   -11009.496    4.2758013    4.2758013    4.2758013   -11009.496   -47006.384   -3699.3998    17677.294    18354.272    2163.4955    7529.6332     78.17224 
   66200    1129.3102    -159.8654    1.0218236   -158.84358   -5246.6874    4.2921918    4.2921918    4.2921918   -5246.6874   -51619.593    6718.9781    29160.553   -15843.498   -13501.624   -8923.6525    79.074666 
   66300    3000.8184   -161.53878    2.7152035   -158.82358   -6428.3499    4.2638536    4.2638536    4.2638536   -6428.3499      19265.5   -34606.149   -3944.4004    7242.8888   -957.25408   -2038.9686    77.518767 
   66400    1780.5918   -160.43141    1.6111169   -158.82029   -7912.6896    4.2427962    4.2427962    4.2427962   -7912.6896   -46203.363    1955.5189    20509.775   -2615.8182   -1988.0916    4975.5731     76.37593 
   66500    1211.3771   -159.96651    1.0960795   -158.87043   -33195.133    4.2638899    4.2638899    4.2638899   -33195.133   -105009.98    11258.567   -5833.9868   -5565.7096   -7176.3611   -731.24586    77.520746 
   66600     2425.245   -161.05939    2.1944127   -158.86498   -13859.346    4.2816845    4.2816845    4.2816845   -13859.346    19560.199   -46928.202   -14210.034    6510.8774   -24578.154   -488.45841    78.495361 
   66700    1626.6079   -160.31845     1.471789   -158.84666   -4643.6325     4.265715     4.265715     4.265715   -4643.6325   -5443.7956   -32549.818    24062.716    -7921.716   -16878.031    4341.7623    77.620335 
   66800    969.53645   -159.71771   0.87725695   -158.84045    18111.379      4.24846      4.24846      4.24846    18111.379   -10550.807    14380.573    50504.372   -215.18872   -3065.3966   -6590.4634    76.682209 
   66900    2442.9052   -161.07781     2.210392   -158.86742   -15405.873    4.2624688    4.2624688    4.2624688   -15405.873    39661.566   -22467.756   -63411.431    -8959.255    7127.0841   -9327.9182    77.443263 
   67000    2189.7144   -160.84661    1.9812996   -158.86531   -31206.109    4.2784997    4.2784997    4.2784997   -31206.109   -67315.417    1181.8781   -27484.789    9857.1051    4263.2146    1490.9803    78.320332 
   67100    1042.2238    -159.7915   0.94302599   -158.84848     -2426.27    4.2707865    4.2707865    4.2707865     -2426.27   -78979.994    25589.189    46111.995    17726.267   -4932.4863    8081.1426    77.897513 
   67200     2203.682   -160.83759    1.9939378   -158.84365    15682.603    4.2571265    4.2571265    4.2571265    15682.603    25811.444   -11401.826    32638.189     1009.843   -5139.1631    10201.319    77.152438 
   67300    2028.0172   -160.69725    1.8349926   -158.86226    16434.579    4.2602641    4.2602641    4.2602641    16434.579   -38492.851    7407.4262    80389.162   -5644.9579     -2634.84   -13276.536    77.323158 
   67400     984.6278   -159.76076   0.89091193   -158.86985    11099.989    4.2683911    4.2683911    4.2683911    11099.989   -103853.37    7355.8285    129797.51    1364.2718     9762.289   -12192.251    77.766511 
   67500    2041.1771   -160.70078       1.8469   -158.85388   -23278.554    4.2675287    4.2675287    4.2675287   -23278.554   -34538.775   -22140.105    -13156.78   -12622.837   -459.70053    1608.1205    77.719385 
   67600     2437.812   -161.05336    2.2057836   -158.84758   -15725.253    4.2642571    4.2642571    4.2642571   -15725.253    19122.454   -6951.7673   -59346.445    2555.8344    6281.0485    5484.7991    77.540778 
   67700    1577.2557   -160.27916    1.4271341   -158.85203   -11753.516    4.2709231    4.2709231    4.2709231   -11753.516   -61104.719    519.98722    25324.183    14969.322    6177.5114    703.59332    77.904984 
   67800    1554.9225    -160.2548    1.4069266   -158.84787    2807.1198    4.2727094    4.2727094    4.2727094    2807.1198    3795.5732    24240.099   -19614.313    443.72914   -1810.1058   -14160.295    78.002777 
   67900    2265.8473   -160.88713    2.0501862   -158.83694   -12142.278     4.266979     4.266979     4.266979   -12142.278   -16720.651    45570.011   -65276.194   -2865.7282   -17445.756    -1519.814    77.689356 
   68000    1693.0368   -160.37165    1.5318952   -158.83975   -9730.0072    4.2624293    4.2624293    4.2624293   -9730.0072   -67357.429     473.7121    37693.695   -11260.307    -16089.24     15892.19    77.441111 
   68100    1241.9502   -159.97909    1.1237426   -158.85534    28100.815    4.2674732    4.2674732    4.2674732    28100.815     86033.06   -46030.637    44300.022    3807.3012    8032.6922   -3851.4207    77.716352 
   68200     1754.764   -160.43977    1.5877474   -158.85202    17077.571      4.27594      4.27594      4.27594    17077.571    82368.967   -31563.963    427.70739    11277.215    12697.895   -6105.0769    78.179843 
   68300    2000.2074   -160.64548    1.8098297   -158.83565   -43517.098    4.2739516    4.2739516    4.2739516   -43517.098   -114034.62   -36656.736    20140.061   -3326.6454   -9906.5965    4912.8268    78.070831 
   68400    1968.0586   -160.61611    1.7807408   -158.83537   -14456.008    4.2634698    4.2634698    4.2634698   -14456.008   -10055.374   -21842.594   -11470.056    7985.0871   -14427.598    -2434.901    77.497835 
   68500     1902.782   -160.57586    1.7216771   -158.85419    5591.5871    4.2657213    4.2657213    4.2657213    5591.5871     80675.75   -42009.253   -21891.735    19.060237    6403.1397    2149.5098    77.620675 
   68600    1402.2143    -160.1342     1.268753   -158.86544    29350.356    4.2748928    4.2748928    4.2748928    29350.356    18082.413   -24094.707    94063.363    3198.1214    20973.204    8665.4866    78.122421 
   68700    1386.3533   -160.10033    1.2544016   -158.84593   -5513.3993    4.2775199    4.2775199    4.2775199   -5513.3993     38736.81   -73485.905    18208.897   -3154.2572    4151.8153   -12632.614    78.266539 
   68800    2115.3197   -160.74433    1.9139857   -158.83035   -24831.351    4.2653757    4.2653757    4.2653757   -24831.351    16095.742   -5086.0778   -85503.718    5425.4144   -21021.757   -4985.7274    77.601815 
   68900    2296.1119   -160.91233    2.0775703   -158.83476   -9263.8536    4.2583594    4.2583594    4.2583594   -9263.8536   -45872.554    -2040.834    20121.828   -16434.315   -14757.287   -680.98158    77.219494 
   69000    1434.2542   -160.15916    1.2977433   -158.86142     14966.06    4.2703463    4.2703463    4.2703463     14966.06     30306.71   -12780.974    27372.444    11816.863    10346.377    -11756.44    77.873428 
   69100    1418.6013   -160.13754    1.2835802   -158.85396    8309.4743    4.2787469    4.2787469    4.2787469    8309.4743    90346.854   -27534.867   -37883.565   -6700.5694    10255.605   -5728.8846    78.333908 
   69200    2444.5377   -161.04317    2.2118691    -158.8313   -25931.057    4.2657403    4.2657403    4.2657403   -25931.057   -54255.454   -13362.774   -10174.942   -1572.6042    4550.0628    8357.9322    77.621715 
   69300    2030.7504   -160.66195    1.8374656   -158.82449   -8412.3288    4.2488238    4.2488238    4.2488238   -8412.3288   -45968.215   -968.31373    21699.542   -1460.8942   -8805.6477     5607.125    76.701908 
   69400    1608.6395   -160.31563    1.4555308    -158.8601    5675.5986    4.2587779    4.2587779    4.2587779    5675.5986    50871.032    4061.1285   -37905.365   -9583.7973   -3810.4592    -2372.335    77.242259 
   69500    2119.0973   -160.77656    1.9174037   -158.85915   -1067.0985    4.2792529    4.2792529    4.2792529   -1067.0985   -12207.716    244.06147     8762.359    17181.805    10584.747   -2444.5392      78.3617 
   69600    2002.1074   -160.64835    1.8115488   -158.83681   -38163.071    4.2693288    4.2693288    4.2693288   -38163.071   -81630.676   -31666.174   -1192.3636   -16966.813   -13938.526     4287.068    77.817775 
   69700    1229.2072   -159.94257    1.1122125   -158.83035    9388.1914     4.247349     4.247349     4.247349    9388.1914     53222.06    34664.691   -59722.177   -1831.5629    826.05606   -5896.4881    76.622064 
   69800    1702.0342   -160.40139    1.5400363   -158.86135    30611.379    4.2568026    4.2568026    4.2568026    30611.379    59134.919    61327.083   -28627.864    11894.758    14082.754   -25516.261    77.134829 
   69900      2373.64   -161.00444    2.1477193   -158.85672   -14038.138    4.2735702    4.2735702    4.2735702   -14038.138   -52254.414    29418.822   -19278.822   -2541.1774   -9847.3839   -2353.5125    78.049933 
   70000    1275.1345   -159.99269    1.1537685   -158.83892   -35585.045    4.2725106    4.2725106    4.2725106   -35585.045    -24996.59   -39753.295   -42005.251    4692.8396   -3889.7434    1124.3939    77.991892 
   70100    1575.5875   -160.26726    1.4256247   -158.84163    19180.026    4.2633848    4.2633848    4.2633848    19180.026    30351.444    -1532.815    28721.449    2451.1593    2355.9591   -7489.5435    77.493202 
   70200    2245.7536   -160.88466     2.032005   -158.85266    40601.643    4.2619556    4.2619556    4.2619556    40601.643   -14216.365    18290.587    117730.71     2217.802    15504.474   -9805.7778    77.415293 
   70300    1504.6873   -160.20491    1.3614727   -158.84344   -22688.058    4.2672397    4.2672397    4.2672397   -22688.058   -29369.414   -27237.465   -11457.295    7114.2484   -3639.0219    8147.9413    77.703596 
   70400    1727.4798   -160.40095    1.5630601   -158.83789   -7107.0725    4.2690446    4.2690446    4.2690446   -7107.0725    54851.165   -16555.019   -59617.363   -4306.3113   -3876.8432    9617.0365    77.802234 
   70500    2454.4962   -161.06322    2.2208797   -158.84234     32870.29    4.2664505    4.2664505    4.2664505     32870.29    28970.634     38991.91    30648.326    9808.4689    14883.796   -11643.189    77.660491 
   70600    1148.9339   -159.88327    1.0395795   -158.84369    814.13865    4.2672959    4.2672959    4.2672959    814.13865    8149.0819   -5578.6879   -127.97806   -6037.8671    12979.213   -6325.7117    77.706665 
   70700    1631.9042   -160.31336    1.4765812   -158.83678   -60367.446    4.2706044    4.2706044    4.2706044   -60367.446   -19156.275   -50913.968    -111032.1   -15229.508    4563.3243    8817.2155     77.88755 
   70800     2424.017   -161.03664    2.1933016   -158.84334    29711.661    4.2629171    4.2629171    4.2629171    29711.661    35211.489    35813.414    18110.081    14661.491    16507.859   -18311.756      77.4677 
   70900    1411.1272   -160.11706    1.2768176   -158.84024    25607.268    4.2590107    4.2590107    4.2590107    25607.268    38708.335    62893.897   -24780.428    20682.652    5221.8223   -3201.0979     77.25493 
   71000    1405.3481   -160.11531    1.2715885   -158.84372   -51032.119    4.2728901    4.2728901    4.2728901   -51032.119   -17009.199   -32805.108   -103282.05    1406.2502   -12787.967    13608.526    78.012672 
   71100     2619.421   -161.21235    2.3701071   -158.84224    -5122.761    4.2771417    4.2771417    4.2771417    -5122.761    11590.695   -38537.652    11578.674    4796.9928    354.55883   -5305.7011    78.245779 
   71200    1680.5964   -160.35267     1.520639   -158.83203    28313.273    4.2662143    4.2662143    4.2662143    28313.273    56797.789   -2360.6491     30502.68    982.57981    11297.546    2729.3518    77.647592 
   71300    1300.2914    -159.9966     1.176531   -158.82007   -32022.157    4.2628523    4.2628523    4.2628523   -32022.157    29928.048    -51502.86   -74491.659   -10361.087    937.53192      5745.47    77.464165 
   71400    2577.2259   -161.16966    2.3319282   -158.83773    -12185.73    4.2683844    4.2683844    4.2683844    -12185.73   -26415.371    18906.883   -29048.701   -10838.733    2784.0811   -2968.6672    77.766143 
   71500    1835.6959   -160.50794    1.6609762   -158.84696    37397.517    4.2714844    4.2714844    4.2714844    37397.517   -8364.7206    106813.36    13743.911    15453.702    9690.9252   -9891.3037    77.935707 
   71600    799.45899   -159.55432    0.7233673   -158.83096   -11235.579    4.2696779    4.2696779    4.2696779   -11235.579   -9254.9137    23804.224   -48256.048   -4644.3211   -1298.7792   -7855.3227    77.836868 
   71700    2315.5615   -160.92159    2.0951687   -158.82642   -12381.309    4.2688586    4.2688586    4.2688586   -12381.309    16895.952   -59187.002    5147.1234   -15140.026   -1698.7726    4694.7962    77.792068 
   71800    2066.3725   -160.70791    1.8696972   -158.83821    40146.854    4.2682687    4.2682687    4.2682687    40146.854    57194.726    15880.724    47365.112    21959.841     21833.34   -579.03961    77.759823 
   71900    939.84224   -159.68227   0.85038901   -158.83188   -6326.1078    4.2668035    4.2668035    4.2668035   -6326.1078    49419.684   -35664.439   -32733.568   -4649.4057    6126.9049   -328.63041    77.679767 
   72000    2353.2572   -160.95392    2.1292765   -158.82464    -34616.82    4.2673241    4.2673241    4.2673241    -34616.82   -26159.974   -44410.373   -33280.113   -14644.945   -9678.7231    10674.041    77.708206 
   72100    2419.2426   -161.02705    2.1889815   -158.83807    28329.173    4.2702289    4.2702289    4.2702289    28329.173   -15261.965    93192.994    7056.4904    15169.408    3053.9333    -9905.036    77.867002 
   72200    1016.0239   -159.75713   0.91931979   -158.83781    869.42957    4.2729183    4.2729183    4.2729183    869.42957   -8249.4951    70516.976   -59659.192   -3239.6464    5264.4848    788.99359    78.014222 
   72300    1929.2415   -160.57666    1.7456183   -158.83104   -46332.919    4.2762833    4.2762833    4.2762833   -46332.919   -32031.559   -59393.425   -47573.771   -7733.8316   -6155.2032    4516.8678    78.198676 
   72400    2548.7895   -161.14477    2.3061983   -158.83858    13748.135    4.2666835    4.2666835    4.2666835    13748.135    42852.785   -29222.999     27614.62    4642.8434    10243.145   -6379.8987    77.673217 
   72500    872.57428   -159.62787   0.78952355   -158.83835     28106.11    4.2550609    4.2550609    4.2550609     28106.11    96504.201    13232.498   -25418.369    10838.261     16007.89   -5866.4562    77.040187 
   72600    1295.4917   -160.01446    1.1721881   -158.84227   -11467.353    4.2604757    4.2604757    4.2604757   -11467.353    26805.315   -50150.248   -11057.127   -7199.6411   -8109.7871    46.325057    77.334678 
   72700    2777.6859   -161.36138    2.5133086   -158.84807   -10963.427    4.2791274    4.2791274    4.2791274   -10963.427   -37006.226   -1939.5206    6055.4665   -4411.3109    -792.5727    1679.0692    78.354806 
   72800    1312.0893   -160.02362     1.187206   -158.83641      16308.5    4.2794284    4.2794284    4.2794284      16308.5    18527.393    62286.277   -31888.171    9773.6755    13454.842   -12265.292    78.371342 
   72900    1224.8922    -159.9308    1.1083082   -158.82249     -16477.1    4.2624315    4.2624315    4.2624315     -16477.1   -25872.862   -14588.722   -8969.7155   -4442.1581   -2297.2149    2074.4081    77.441227 
   73000    2925.5024   -161.47984    2.6470561   -158.83278   -8635.6905    4.2560694    4.2560694    4.2560694   -8635.6905    11680.692   -32684.105   -4903.6584     -11688.3   -11226.522    17543.886    77.094978 
   73100    2045.7132   -160.71111    1.8510043    -158.8601    9916.2849    4.2650601    4.2650601    4.2650601    9916.2849    68999.806    14514.331   -53765.282    4831.3002    5683.2307   -3802.6745    77.584589 
   73200    548.68067   -159.35417    0.4964578   -158.85772   -4901.0274    4.2734452    4.2734452    4.2734452   -4901.0274    74816.994   -36910.396    -52609.68    12631.399    13062.169    5211.0305    78.043083 
   73300    2084.4447   -160.73919    1.8860493   -158.85314    490.84874    4.2661177    4.2661177    4.2661177    490.84874    55444.854   -62648.711    8676.4039   -1339.2924   -7047.5308    -989.8412    77.642317 
   73400    2468.4752    -161.0818    2.2335283   -158.84828    13638.711    4.2592715    4.2592715    4.2592715    13638.711     16879.51     25001.28   -964.65832   -9162.8843   -6857.7699    5265.0637    77.269124 
   73500     892.6376   -159.66049   0.80767726   -158.85281   -4821.9034    4.2623298    4.2623298    4.2623298   -4821.9034   -14834.888   -10370.789    10739.967   -5800.9435   -1316.2153   -10743.671    77.435686 
   73600    1671.2403   -160.37221    1.5121734   -158.86004   -22112.145     4.265711     4.265711     4.265711   -22112.145   -32131.674   -40111.448    5906.6876    9132.2741    15942.943    2929.2283    77.620114 
   73700    2755.9311   -161.35209    2.4936244   -158.85846   -3562.5374    4.2665905    4.2665905    4.2665905   -3562.5374    11569.212   -6641.9735   -15614.851    22362.704    10526.975    12670.872    77.668137 
   73800    1140.9423   -159.89139    1.0323486   -158.85904    12557.595    4.2632209    4.2632209    4.2632209    12557.595    87459.163    -34445.55   -15340.829   -749.70312   -12536.968    -9386.596    77.484265 
   73900    959.02775   -159.72441   0.86774846   -158.85666   -217.90927    4.2621876    4.2621876    4.2621876   -217.90927    40564.014   -72718.225    31500.483    1729.8262   -7756.2669   -6600.4763    77.427939 
   74000     2817.387   -161.40185    2.5492309   -158.85262   -21889.869    4.2662855    4.2662855    4.2662855   -21889.869   -33993.333   -15738.138   -15938.136    21984.665   -8139.5335    7069.3156     77.65148 
   74100    2159.5533   -160.80807    1.9540092   -158.85406    -15379.94    4.2654581    4.2654581    4.2654581    -15379.94   -19489.895    11938.755   -38588.681   -3833.9286   -5069.6009    -4119.012     77.60631 
   74200    849.76497   -159.62543    0.7688852   -158.85654   -7177.3744      4.26172      4.26172      4.26172   -7177.3744    27155.863   -49200.782    512.79593   -5947.3816    -5816.125       -11790    77.402457 
   74300    1893.5535   -160.57765     1.713327   -158.86432    11464.041    4.2645597    4.2645597    4.2645597    11464.041    14141.581   -30823.232    51073.773   -3513.9958    -21014.65   -11129.631    77.557283 
   74400    2432.7745   -161.06261    2.2012255   -158.86138    7347.3539    4.2681814    4.2681814    4.2681814    7347.3539    22197.653   -6564.0321     6408.441     3018.342   -5406.9659    14481.194     77.75505 
   74500    1137.8267   -159.87818    1.0295295   -158.84865    -22757.04    4.2705255    4.2705255    4.2705255    -22757.04   -14789.711   -31850.198   -21631.209    6872.2962    11096.954    11200.221    77.883233 
   74600    1642.9752   -160.33296    1.4865985   -158.84637    7987.2876    4.2646856    4.2646856    4.2646856    7987.2876   -19400.579    33923.485    9438.9573   -21916.973   -7152.2594      -1363.3    77.564155 
   74700    2599.1954   -161.19687    2.3518067   -158.84506    22290.529      4.25917      4.25917      4.25917    22290.529    40907.623    31806.245   -5842.2817   -2192.7556   -2794.5671   -16862.216    77.263596 
   74800    1560.5724   -160.25528    1.4120387   -158.84324   -26185.008     4.265184     4.265184     4.265184   -26185.008    1840.6949   -90373.142    9977.4215    10906.044   -2149.8899   -3362.9105    77.591353 
   74900    1544.2659   -160.24223    1.3972842   -158.84494   -16784.444    4.2693068    4.2693068    4.2693068   -16784.444    -62125.01   -3753.7905     15525.47    599.08908    12812.659    10671.513    77.816572 
   75000    2102.7296   -160.75257     1.902594   -158.84998    33303.744    4.2713317    4.2713317    4.2713317    33303.744    17800.938    115718.95   -33608.658   -13250.048    2987.4677    -658.8372    77.927348 
   75100    1397.6212   -160.10242     1.264597   -158.83783    2946.3129    4.2714001    4.2714001    4.2714001    2946.3129    33110.437    16802.125   -41073.624   -10859.462   -7291.8405   -4351.2995    77.931093 
   75200    1910.1213   -160.55447    1.7283179   -158.82615   -43439.923    4.2659264    4.2659264    4.2659264   -43439.923   -47339.783   -56712.839   -26267.148    8137.5479    5659.0485    13231.947    77.631877 
   75300    2689.8912   -161.26956      2.43387   -158.83569   -2941.9879    4.2633384    4.2633384    4.2633384   -2941.9879    -29228.97    33586.429   -13183.423    7726.1698    2416.2195   -16495.617    77.490671 
   75400    1486.7528   -160.19161    1.3452452   -158.84636     19172.39    4.2659511    4.2659511    4.2659511     19172.39    67200.936    42192.181   -51875.946   -17756.111   -11530.782   -707.09366    77.633224 
   75500    1286.0545   -160.00222    1.1636491   -158.83858   -20628.196     4.270219     4.270219     4.270219   -20628.196   -11638.304   -22300.987   -27945.298   -9383.0053     -8738.41    4445.2893    77.866463 
   75600    2530.2766     -161.123    2.2894474   -158.83356    -21673.49    4.2677939    4.2677939    4.2677939    -21673.49   -74718.878   -16379.876    26078.283    14521.302    15057.293    14426.261    77.733874 
   75700    1625.4706   -160.31664    1.4707599   -158.84588    26728.524    4.2619225    4.2619225    4.2619225    26728.524    15135.595   -2929.4679    67979.446   -15302.696   -10658.451   -19862.158    77.413489 
   75800    879.00917   -159.65228   0.79534597   -158.85694    7232.1225     4.269093     4.269093     4.269093    7232.1225   -34557.368   -38048.098    94301.833    4154.3478   -1673.2836   -11231.993    77.804884 
   75900    2320.6536   -160.95153    2.0997761   -158.85175   -20054.483    4.2779807    4.2779807    4.2779807   -20054.483   -83708.475   -15739.568    39284.593    9927.3162    11540.789    3381.6695    78.291833 
   76000    2365.2297   -160.97844    2.1401096   -158.83833   -21380.797    4.2713779    4.2713779    4.2713779   -21380.797    40033.657    -33416.01   -70760.038   -1884.3824    241.97105    13709.595    77.929879 
   76100    1096.0111   -159.82723    0.9916939   -158.83553   -19735.989     4.263153     4.263153     4.263153   -19735.989   -16083.295   -41100.162   -2024.5098   -7691.8928   -3357.3025    5503.7021    77.480562 
   76200    1772.7998   -160.46167    1.6040665   -158.85761    14948.146    4.2677323    4.2677323    4.2677323    14948.146   -91824.686    68293.926    68375.199   -4198.5479    4607.2458   -7565.4984    77.730507 
   76300    2315.1406   -160.95637    2.0947879   -158.86158    21747.756    4.2740726    4.2740726    4.2740726    21747.756   -10946.207    48972.797    27216.679    -1952.993   -2159.5237   -8423.5694    78.077461 
   76400     1323.909   -160.03442    1.1979007   -158.83652   -53365.134    4.2709823    4.2709823    4.2709823   -53365.134   -32608.373   -108946.09   -18540.934   -1599.2176   -6117.7543    6933.2241    77.908223 
   76500    1662.5798   -160.33865    1.5043371   -158.83431   -11489.171    4.2611188    4.2611188    4.2611188   -11489.171   -22152.077   -14683.314    2367.8792    9003.3176    33.604024   -3444.7312    77.369701 
   76600     2529.923   -161.13862    2.2891275   -158.84949    20972.227    4.2580448    4.2580448    4.2580448    20972.227    11053.095    57146.069   -5282.4835     24214.67    15373.031   -20182.529    77.202377 
   76700    1212.0753   -159.95733    1.0967112   -158.86062    3794.7598    4.2655332    4.2655332    4.2655332    3794.7598    -1333.743   -16030.174    28748.196    -3636.623    6360.7692   -23890.356    77.610411 
   76800     1152.929   -159.89742    1.0431944   -158.85423   -21854.394    4.2750005    4.2750005    4.2750005   -21854.394   -63144.803   -34585.363    32166.983    -10378.31   -17485.499   -5646.0521    78.128323 
   76900    2639.3479   -161.23534    2.3881375    -158.8472    5392.3859    4.2678895    4.2678895    4.2678895    5392.3859    33294.937    7870.4085   -24988.188    2843.9438    2868.7879    10362.023    77.739099 
   77000    1811.4988   -160.48253    1.6390822   -158.84345    19097.614    4.2547137    4.2547137    4.2547137    19097.614    93047.347    -19056.36   -16698.144    10013.375    6231.6672    1944.6374    77.021333 
   77100    980.81331   -159.74083    0.8874605   -158.85337    5861.8673    4.2557493    4.2557493    4.2557493    5861.8673   -3971.1859    13072.362    8484.4264    15405.309     10378.81   -4857.1453    77.077585 
   77200    2509.2994   -161.13452    2.2704668   -158.86405   -24060.194    4.2690876    4.2690876    4.2690876   -24060.194    -52327.52    10608.663   -30461.725   -1141.6082   -3562.9807     7640.281    77.804584 
   77300    2475.4397   -161.09708    2.2398299   -158.85725   -17691.383    4.2744548    4.2744548    4.2744548   -17691.383    5841.6354   -50538.411   -8377.3743   -8118.5244   -13433.429   -7738.1126    78.098412 
   77400    772.54382   -159.54262   0.69901388   -158.84361    12205.361    4.2602012    4.2602012    4.2602012    12205.361   -7546.7642    9398.0813    34764.765    16669.295    12983.614    -19991.96    77.319731 
   77500    1648.8081    -160.3345    1.4918763   -158.84262    13728.688    4.2461161    4.2461161    4.2461161    13728.688   -19479.228    47890.219    12775.074    746.18542   -1730.5771     -19285.6    76.555358 
   77600    2747.8233   -161.34684    2.4862883   -158.86055   -2947.7366    4.2564248    4.2564248    4.2564248   -2947.7366    36261.188   -32203.818    -12900.58   -10725.745   -10554.714   -11955.622    77.114294 
   77700    1433.0897   -160.15619    1.2966896    -158.8595   -25464.756    4.2725699    4.2725699    4.2725699   -25464.756    -27289.89   -46041.451   -3062.9274   -2290.2654     2530.685    -21809.14    77.995139 
   77800    1026.0127   -159.78105   0.92835785   -158.85269    5123.1447    4.2653411    4.2653411    4.2653411    5123.1447   -65073.587    68791.098    11651.923    5313.2498    3167.0153   -17828.363    77.599925 
   77900     2608.852   -161.20987    2.3605441   -158.84933    10925.612     4.252986     4.252986     4.252986    10925.612   -4774.3681    32532.782    5018.4237   -3514.3509    9706.5852    957.81189    76.927541 
   78000    2155.5308   -160.80608    1.9503696   -158.85571   -18073.405    4.2557971    4.2557971    4.2557971   -18073.405    24634.673   -86908.156    8053.2677   -4167.8079   -2180.8388    14149.233    77.080182 
   78100    1025.4296   -159.79017   0.92783028   -158.86234   -12963.795    4.2628785    4.2628785    4.2628785   -12963.795   -46468.015   -8990.2871    16566.917     10572.93    7541.6102     6457.272    77.465593 
   78200     2079.652   -160.74113    1.8817128   -158.85942    9697.6568    4.2622757    4.2622757    4.2622757    9697.6568   -20917.175    28641.346    21368.799    20457.036    6720.6261   -4844.1783    77.432736 
   78300    2611.5095   -161.21789    2.3629487   -158.85494    4272.6582    4.2560031    4.2560031    4.2560031    4272.6582    47112.443   -46502.084    12207.616   -4705.8176   -20280.773     5220.155    77.091378 
   78400    1325.5143   -160.05502    1.1993532   -158.85567   -24805.127    4.2555389    4.2555389    4.2555389   -24805.127   -43998.423   -31140.066    723.10672    840.51006   -2708.7972    5885.5848    77.066157 
   78500     1311.872   -160.05296    1.1870093   -158.86595    -4776.203     4.256623     4.256623     4.256623    -4776.203   -24843.754    34729.917   -24214.772   -7439.9747   -2936.3156   -8853.1493    77.125068 
   78600    2312.8619   -160.96357    2.0927261   -158.87084    29047.643    4.2529956    4.2529956    4.2529956    29047.643    87953.229   -11515.229    10704.928   -5882.9037    13091.625   -13856.859    76.928062 
   78700    1693.5849   -160.39653    1.5323912   -158.86414    2045.2414    4.2532557    4.2532557    4.2532557    2045.2414    21582.678   -63238.948    47791.994    -7051.835    12643.519   -7099.3456    76.942181 
   78800    1206.0372   -159.95619    1.0912478   -158.86494    -37582.43    4.2616303    4.2616303    4.2616303    -37582.43   -103801.45    12195.527   -21141.372   -15223.188   -10498.365    -5155.249    77.397565 
   78900    2235.1668   -160.88936    2.0224259   -158.86693    1361.5566    4.2641377    4.2641377    4.2641377    1361.5566   -1696.9284    30325.452   -24543.854     3872.242    2109.0382    623.86576    77.534263 
   79000    2012.8437   -160.68221    1.8212633   -158.86095     19198.28    4.2551009    4.2551009    4.2551009     19198.28    19476.802    18767.009    19351.028    4237.1652   -7871.0442   -14239.333    77.042362 
   79100    1244.9815   -159.97768    1.1264854    -158.8512   -23072.811    4.2485519    4.2485519    4.2485519   -23072.811   -106078.11    18034.353    18825.321   -5470.4694   -15604.084    4721.1891    76.687184 
   79200    1979.2893   -160.65634    1.7909026   -158.86544   -2509.8738    4.2549483    4.2549483    4.2549483   -2509.8738   -28498.535    40554.345   -19585.431    2844.4729    1504.2534   -733.11084    77.034074 
   79300    2351.6545   -160.99806    2.1278264   -158.87023    24322.832    4.2683459    4.2683459    4.2683459    24322.832    65400.298   -15662.774    23230.972     1076.503    5633.6396    -4375.942    77.764041 
   79400    1374.8756   -160.09599    1.2440164   -158.85198   -20038.374    4.2677616    4.2677616    4.2677616   -20038.374   -72843.074   -22579.245    35307.197    7791.4563    4883.9582    8167.4041    77.732111 
   79500    1458.4671   -160.16363    1.3196517   -158.84398   -19491.666    4.2535399    4.2535399    4.2535399   -19491.666    -58822.96    16640.348   -16292.385     326.4308    663.93177    1186.2922    76.957601 
   79600    2550.9773   -161.16784    2.3081779   -158.85967    2527.1158    4.2499079    4.2499079    4.2499079    2527.1158    42793.479    5061.6447   -40273.777    3770.1767   -5761.9222    753.72875    76.760632 
   79700     1743.166   -160.44982    1.5772532   -158.87257    15049.246    4.2539668    4.2539668    4.2539668    15049.246    11410.729   -13531.141    47268.149      20728.8    13335.827   -7331.6738    76.980778 
   79800    967.71219   -159.74256   0.87560632   -158.86695   -11173.151      4.25548      4.25548      4.25548   -11173.151   -47791.482    -1570.967    15842.996    4695.3503   -877.55855    85.731889    77.062954 
   79900    2079.1497   -160.74449    1.8812583   -158.86323   -15120.387    4.2557019    4.2557019    4.2557019   -15120.387    22572.193    11926.958   -79860.313   -1237.8363   -14025.977    3727.2572     77.07501 
   80000    2545.1158   -161.16797    2.3028743    -158.8651     -6147.82    4.2599404    4.2599404    4.2599404     -6147.82   -4467.2398    3045.5628   -17021.783   -5798.6311    3955.1526   -11191.045    77.305529 
   80100    1332.1163   -160.06689    1.2053268   -158.86156    11359.517     4.258409     4.258409     4.258409    11359.517   -59434.079    22589.642    70922.987    -4932.394    2091.6004   -11804.487    77.222189 
   80200    1569.6109   -160.27832     1.420217    -158.8581    8623.3278    4.2483265    4.2483265    4.2483265    8623.3278    1256.3152    45390.861   -20777.193   -1228.9572    7759.8703   -10376.229    76.674978 
   80300    2637.8324   -161.24999    2.3867662   -158.86323   -3581.5528    4.2442345    4.2442345    4.2442345   -3581.5528    41251.213    6589.6944   -58585.566   -9652.1051    -4417.429    12913.746    76.453629 
   80400    2111.0813   -160.78746    1.9101507   -158.87731   -10826.464    4.2583573    4.2583573    4.2583573   -10826.464   -39872.155   -22680.715    30073.479    3066.0022   -9514.2922    13553.448    77.219375 
   80500    1055.2204    -159.8213   0.95478557   -158.86652   -14173.576    4.2698977    4.2698977    4.2698977   -14173.576   -46825.779    -10693.76    14998.811     19301.54    10817.556   -6677.1505    77.848887 
   80600    1933.4314   -160.60602    1.7494094   -158.85661   -11812.095     4.259307     4.259307     4.259307   -11812.095    28087.436    10207.465   -73731.184    1746.3377   -7544.8941   -1060.7632    77.271054 
   80700    2652.2446    -161.2524    2.3998066   -158.85259   -5369.7028    4.2447384    4.2447384    4.2447384   -5369.7028   -20141.389    61.626139    3970.6547     14236.64   -5484.6695   -5944.1993    76.480862 
   80800    1551.3192   -160.27053    1.4036662   -158.86687   -1121.0118    4.2440208    4.2440208    4.2440208   -1121.0118   -69381.766    25631.863    40386.868   -3071.8879    -59.13382    751.35876    76.442081 
   80900     1107.048   -159.87954    1.0016803   -158.87786   -4002.1313    4.2568762    4.2568762    4.2568762   -4002.1313    26354.001    13350.608   -51711.003    884.24758    7764.2576    6400.2018     77.13883 
   81000    2133.8912   -160.80304    1.9307896   -158.87225   -939.41268    4.2618985    4.2618985    4.2618985   -939.41268    60395.012   -19371.712   -43841.538    23173.054    3925.0713   -10508.229    77.412183 
   81100    1987.0233   -160.66155    1.7979004   -158.86365    2049.2698    4.2531663    4.2531663    4.2531663    2049.2698   -16675.537   -4262.0768    27085.423    5589.5223   -5274.3128    5782.6744    76.937324 
   81200    1218.2687     -159.963    1.1023151   -158.86069    -14957.23    4.2503106    4.2503106    4.2503106    -14957.23   -19839.311    19796.753   -44829.132    2066.1989   -9237.7532    -1962.158    76.782458 
   81300    1648.9658   -160.35995    1.4920189   -158.86793    2900.2529    4.2536695    4.2536695    4.2536695    2900.2529    57887.531    13518.637   -62705.409   -15183.511    8392.6464    722.25561    76.964636 
   81400    2232.0038   -160.88749    2.0195639   -158.86792    13483.274    4.2531325    4.2531325    4.2531325    13483.274    11399.231   -6255.1616    35305.754   -8936.8088   -10398.073    5540.1928    76.935491 
   81500     1573.346   -160.28517    1.4235965   -158.86157   -12196.362    4.2552487    4.2552487    4.2552487   -12196.362   -38825.872    13343.046    -11106.26    10575.406   -1954.1124   -4497.2672    77.050392 
   81600    1532.9864   -160.24887    1.3870783    -158.8618   -12954.952    4.2568342    4.2568342    4.2568342   -12954.952    11048.824     41013.46   -90927.141   -7169.3274   -8887.8426    5943.4619     77.13655 
   81700     2425.516    -161.0616    2.1946579   -158.86694    11609.805    4.2565368    4.2565368    4.2565368    11609.805   -6660.1613     22032.13    19457.447   -464.95834   -8617.5839     15750.91    77.120383 
   81800    2063.5881   -160.73475    1.8671779   -158.86757     2336.457    4.2568095    4.2568095    4.2568095     2336.457   -57938.583   -4220.7261     69168.68    -11784.46    14252.394   -6437.9309    77.135206 
   81900    1266.5144   -160.00879    1.1459689   -158.86282   -30585.199    4.2581004    4.2581004    4.2581004   -30585.199    3958.2315   -684.24441   -95029.583   -7698.5358   -4877.0393   -6565.2642    77.205402 
   82000    2251.0756   -160.89998    2.0368205   -158.86316   -19204.494    4.2569279    4.2569279    4.2569279   -19204.494    23602.808   -6321.5876   -74894.702    15766.402   -14854.677   -9186.8786    77.141645 
   82100    2475.0445   -161.10613    2.2394722   -158.86666    17468.244    4.2524046    4.2524046    4.2524046    17468.244   -65058.919    23351.304    94112.347    8751.8092   -463.54379    8030.8403    76.895996 
   82200    1046.3766   -159.81642   0.94678353   -158.86964    10255.794    4.2527292    4.2527292    4.2527292    10255.794   -39583.204    54991.733    15358.853   -572.13044   -8189.1752    17545.282    76.913607 
   82300    1293.0042   -160.04453    1.1699374   -158.87459   -4369.7593    4.2572152    4.2572152    4.2572152   -4369.7593    22180.426    16148.617    -51438.32    6861.2075    7931.7402    894.52213     77.15726 
   82400    2762.6719   -161.36945    2.4997236   -158.86972   -16389.804    4.2605293    4.2605293    4.2605293   -16389.804   -36062.021   -35361.065    22253.673    7543.3715   -128.07138   -8335.8506    77.337595 
   82500    1699.9205   -160.39967    1.5381238   -158.86155   -21923.232    4.2570382    4.2570382    4.2570382   -21923.232   -60204.814    11635.125   -17200.006    7235.7153    6473.8446    -5652.219    77.147641 
   82600    671.28799   -159.46651   0.60739548   -158.85911   -1518.8302    4.2526236    4.2526236    4.2526236   -1518.8302    6701.4366    64955.088   -76213.015    3488.2283     18099.26    6681.9455    76.907879 
   82700    2144.0096   -160.81049    1.9399449   -158.87054    30947.602    4.2531497    4.2531497    4.2531497    30947.602   -2473.9271    33692.538    61624.194   -2204.4926    1729.3438    12682.607    76.936425 
   82800    2413.6552   -161.05394     2.183926   -158.87002   -9036.0127    4.2609298    4.2609298    4.2609298   -9036.0127   -47870.869   -4494.7788     25257.61     16435.35    6626.4245    14139.365    77.359407 
   82900    834.37103   -159.61484   0.75495644   -158.85988    -38979.85    4.2611338    4.2611338    4.2611338    -38979.85    6657.8414    8187.1835   -131784.57    5353.3596    4305.7604   -9636.7833    77.370518 
   83000    1842.2234   -160.52942    1.6668824   -158.86254    16550.122     4.251127     4.251127     4.251127    16550.122    65854.539    9068.0713   -25272.244   -8959.2649   -36.869086    2340.8579     76.82671 
   83100    2691.3727   -161.30644    2.4352105   -158.87123    42565.769    4.2486261    4.2486261    4.2486261    42565.769    41965.584    20091.814    65639.909   -10721.635    20717.312     4126.333    76.691201 
   83200    1227.9276   -159.97719    1.1110547   -158.86613    -22472.43    4.2590526    4.2590526    4.2590526    -22472.43   -2676.9777    38041.573   -102781.88     1271.187   -1039.7878     -4501.74    77.257207 
   83300    1680.1741   -160.37815    1.5202568   -158.85789   -40634.096    4.2634122    4.2634122    4.2634122   -40634.096   -32889.389   -1065.7203    -87947.18    10472.405   -9142.1633     2293.521    77.494694 
   83400    2893.5579   -161.47791     2.618152   -158.85976    10815.561    4.2569133    4.2569133    4.2569133    10815.561   -10441.427   -20397.676    63285.785    9557.0663    9278.0557     4868.395    77.140848 
   83500    1248.4174   -159.99003    1.1295943   -158.86044    411.43701    4.2512624    4.2512624    4.2512624    411.43701    36418.361    39317.105   -74501.155   -6977.5928   -1030.6682    540.22483    76.834054 
   83600    943.50563   -159.71801   0.85370372   -158.86431   -22605.067    4.2518303    4.2518303    4.2518303   -22605.067    16215.286    28684.387   -112714.87    3947.5386   -2280.7416   -2022.4704    76.864849 
   83700    2854.4399   -161.45369    2.5827572   -158.87094   -7015.3024    4.2551404    4.2551404    4.2551404   -7015.3024   -32138.135    -33835.16    44927.389     9283.647   -821.88208    -12120.29     77.04451 
   83800    1971.6137   -160.65549    1.7839575   -158.87153    6250.4347    4.2557674    4.2557674    4.2557674    6250.4347    2455.8595    31183.074   -14887.629    4370.3428     317.6741    4992.0184    77.078573 
   83900    584.52133   -159.39891   0.52888719   -158.87002    525.48783    4.2568942    4.2568942    4.2568942    525.48783    24960.293    69560.245   -92944.074    2772.0697    4253.7257    12904.095    77.139812 
   84000    2178.4339   -160.83911    1.9710928   -158.86802   -221.61208    4.2605156    4.2605156    4.2605156   -221.61208   -46476.502   -6632.8204    52444.486    5941.9415      14044.4    -3112.101     77.33685 
   84100     2497.362   -161.12149    2.2596656   -158.86182   -14064.457    4.2602932    4.2602932    4.2602932   -14064.457   -13193.043    -30027.36    1027.0322    7960.2586    -7819.417   -9981.4314    77.324741 
   84200    1033.1924   -159.79262   0.93485415   -158.85776   -8960.3411    4.2518158    4.2518158    4.2518158   -8960.3411    49142.102    37457.939   -113481.07   -254.33808     1530.576   -1491.5701     76.86406 
   84300    1555.8159   -160.27382    1.4077349   -158.86608    19373.068    4.2497024    4.2497024    4.2497024    19373.068   -2245.5335    52773.334    7591.4027   -6311.2658    6431.4246   -3832.7605    76.749501 
   84400    2373.6941   -161.02418    2.1477683   -158.87641    18898.084    4.2560203    4.2560203    4.2560203    18898.084   -7321.9501    25936.033    38080.171   -6280.5447    6023.5454    13647.642    77.092314 
   84500    1421.0926   -160.15524    1.2858344   -158.86941   -23750.009    4.2618243    4.2618243    4.2618243   -23750.009     26490.95    20763.324    -118504.3    7194.9783    -2929.935   -2880.7069    77.408141 
   84600    1976.2377   -160.64953    1.7881414   -158.86139   -30594.125    4.2614063    4.2614063    4.2614063   -30594.125   -28094.486   -576.65517   -63111.234    6094.0586    4371.9593    -18651.13    77.385365 
   84700    2628.4505   -161.23869    2.3782772   -158.86042    4148.2797    4.2566151    4.2566151    4.2566151    4148.2797   -12826.128   -17255.568    42526.536    108.29466     648.9747    13532.811    77.124638 
   84800    1318.3314   -160.05392     1.192854   -158.86107   -2981.7299    4.2494395    4.2494395    4.2494395   -2981.7299    71402.082     26312.99   -106660.26   -9163.8655    3498.6552    2524.4023    76.735259 
   84900    1423.4967   -160.15838    1.2880098   -158.87037   -2595.2344    4.2499643    4.2499643    4.2499643   -2595.2344    80791.651    18579.673   -107157.03   -5566.4399    7882.5855   -2366.5803    76.763692 
   85000    2621.7782   -161.25072      2.37224   -158.87848    14429.368    4.2578537    4.2578537    4.2578537    14429.368    30894.226   -34268.497    46662.375   -184.84816    -23791.36    8265.4779    77.191983 
   85100    1394.3605   -160.13447    1.2616467   -158.87283    6977.3016     4.261031     4.261031     4.261031    6977.3016    102261.21    -8474.144   -72855.157     1251.928    2827.9883   -1936.0993    77.364921 
   85200    1098.8892   -159.86153   0.99429801   -158.86723   -10316.039    4.2623667    4.2623667    4.2623667   -10316.039    92580.712    1322.6352   -124851.46    7621.9654    13244.627   -3009.9601    77.437696 
   85300    2733.1956   -161.34282    2.4730529   -158.86977    12771.513    4.2587562    4.2587562    4.2587562    12771.513    24021.473   -34813.736    49106.801   -5353.7681     5735.425    4535.4364    77.241079 
   85400    1924.0587   -160.60837    1.7409288   -158.86744   -8078.2388    4.2504187    4.2504187    4.2504187   -8078.2388    29176.685   -3888.3434   -49523.058    -13797.17    4163.2432   -4219.2125    76.788315 
   85500    1182.1724   -159.93883    1.0696544   -158.86917   -11176.708    4.2451184    4.2451184    4.2451184   -11176.708    52708.175    33121.479   -119359.78   -6004.0697   -6925.4294    600.59805    76.501409 
   85600    2792.8943   -161.41073    2.5270695   -158.88366   -3638.6877    4.2539297    4.2539297    4.2539297   -3638.6877   -20312.484    682.52861    8713.8919   -12272.582   -7627.8279   -2908.7862    76.978763 
   85700     2278.681   -160.94122    2.0617985   -158.87943   -21818.313    4.2650382    4.2650382    4.2650382   -21818.313   -46745.523    10568.148   -29277.565    5298.0108    1046.9846   -10407.019    77.583394 
   85800    835.36808    -159.6208    0.7558586   -158.86494   -37354.219    4.2605327    4.2605327    4.2605327   -37354.219    41023.747    17528.521   -170614.93    6210.4675     178.2803    6616.6493    77.337779 
   85900    2186.2519   -160.84422    1.9781667   -158.86606    14267.108     4.244645     4.244645     4.244645    14267.108    72035.676   -13082.666   -16151.687   -2387.0238   -6213.7866    15095.757    76.475816 
   86000    2284.8469     -160.944    2.0673775   -158.87662    35964.951    4.2409417    4.2409417    4.2409417    35964.951    78706.835    9949.5743    19238.443   -1206.7085    3761.7305     7880.042    76.275826 
   86100    620.04064   -159.44213    0.5610258   -158.88111   -5006.8828     4.252831     4.252831     4.252831   -5006.8828    86106.562    51842.469   -152969.68   -17927.812    6345.3159     15834.53    76.919131 
   86200    1457.3987   -160.19929    1.3186849   -158.88061    4310.4153    4.2607217    4.2607217    4.2607217    4310.4153    69797.815   -2363.3933   -54503.175   -1459.7495    2803.5527    3833.8962    77.348072 
   86300    2921.1296   -161.51659    2.6430995   -158.87349    3705.7252    4.2582031    4.2582031    4.2582031    3705.7252    30008.912   -38614.008    19722.271    1078.3048    15814.204   -4769.0973     77.21099 
   86400    1412.4545   -160.14083    1.2780185   -158.86281   -12305.707    4.2521361    4.2521361    4.2521361   -12305.707    26448.741    29208.411   -92574.272    8878.2055    167.50879   -4247.0043    76.881433 
   86500     1496.306   -160.21722    1.3538891   -158.86333   -24378.746    4.2490223    4.2490223    4.2490223   -24378.746   -13305.694     28308.83   -88139.372    5854.9214   -3955.6224   -3266.5938    76.712659 
   86600    2839.4004   -161.44196    2.5691492   -158.87282    10270.267    4.2482078    4.2482078    4.2482078    10270.267   -13631.935   -13688.798    58131.535   -6218.6775      882.976    7707.5844     76.66855 
   86700    1743.9499   -160.45228    1.5779626   -158.87432   -7263.2362    4.2526621    4.2526621    4.2526621   -7263.2362    50881.927     3130.773   -75802.409   -5148.8831    2526.7796   -660.39076    76.909969 
   86800    1009.4594   -159.78456   0.91338005   -158.87118   -18462.225    4.2585871    4.2585871    4.2585871   -18462.225    57478.977    5858.9385   -118724.59   -2575.2617    1043.0387    2432.5493    77.231882 
   86900    2230.4622   -160.89062     2.018169   -158.87246    28400.713    4.2561954    4.2561954    4.2561954    28400.713    46177.113   -15730.222    54755.248    13566.997    -5755.966    9901.6187     77.10183 
   87000    1811.9971   -160.50904     1.639533   -158.86951    16117.056    4.2506221    4.2506221    4.2506221    16117.056    91949.033    7213.6245    -50811.49    11663.236   -733.75527    8507.8621     76.79934 
   87100    963.43589   -159.74322   0.87173704   -158.87149    6390.2338    4.2507252    4.2507252    4.2507252    6390.2338    108248.97    26630.942   -115709.21    -1332.607   -7600.6891    10588.913     76.80493 
   87200    2272.2558   -160.93267    2.0559848   -158.87669    3079.0581    4.2550748    4.2550748    4.2550748    3079.0581    19417.522   -16479.407    6299.0595   -3366.4743    2728.3236    1539.2952    77.040945 
   87300    1978.1497   -160.66424    1.7898714   -158.87437    1178.4343    4.2586185    4.2586185    4.2586185    1178.4343    1693.5724    5292.7781   -3451.0477   -7744.2249     2060.424   -14961.034    77.233588 
   87400    1134.8143   -159.89259    1.0268038   -158.86579   -28756.826    4.2576128    4.2576128    4.2576128   -28756.826    25568.165    34580.795   -146419.44    12707.221   -11085.752   -7177.5671    77.178881 
   87500    2307.8384   -160.95615    2.0881807   -158.86797   -13468.625    4.2538191    4.2538191    4.2538191   -13468.625   -20846.091   -10593.407   -8966.3763    15099.292    6543.5715   -5403.7978    76.972758 
   87600    2204.2101   -160.86577    1.9944156   -158.87136    692.60026    4.2489184    4.2489184    4.2489184    692.60026   -14529.514   -25291.933    41899.248    10670.377   -4986.8101   -7768.4863    76.707029 
   87700    778.84023   -159.57925   0.70471101   -158.87454   -4761.2008    4.2491957    4.2491957    4.2491957   -4761.2008    66604.615    25845.992   -106734.21    3190.1182   -1051.8429   -2192.6439     76.72205 
   87800    1778.5498   -160.49052    1.6092692   -158.88125    4576.7784    4.2551928    4.2551928    4.2551928    4576.7784    60990.991     8336.101   -55596.756   -11017.029   -9003.7682   -1455.9329    77.047356 
   87900    2730.0212   -161.34856    2.4701805   -158.87838    6436.7722    4.2568433    4.2568433    4.2568433    6436.7722    17691.537   -34371.008    35989.788    13052.225    3799.3313    5583.2306    77.137042 
   88000    1194.3043   -159.94618    1.0806316   -158.86555   -25824.118    4.2549465    4.2549465    4.2549465   -25824.118    20584.005   -6102.3761   -91953.985    10644.945     5093.242    7294.0952    77.033975 
   88100    1379.6193   -160.11277    1.2483085   -158.86447   -9557.0007    4.2524948    4.2524948    4.2524948   -9557.0007    30483.032    9187.4566    -68341.49    9648.0463     838.5622   -9198.2261    76.900893 
   88200    2963.6884   -161.55103    2.6816075   -158.86942    15467.853    4.2534422    4.2534422    4.2534422    15467.853   -20675.343    23184.423    43894.479   -1664.7859    3452.3219    235.29411      76.9523 
   88300    1686.9175   -160.39643    1.5263584   -158.87007    5915.5243    4.2561299    4.2561299    4.2561299    5915.5243    12708.666    58350.326   -53312.419   -14472.217   -5629.8188   -3598.0095    77.098266 
   88400    672.02601   -159.47561   0.60806326   -158.86755     1064.333    4.2550624    4.2550624    4.2550624     1064.333     59967.18    39105.051   -95879.232    503.96639    5368.2661   -673.95629    77.040271 
   88500         2458   -161.09258    2.2240501   -158.86853    7755.5865    4.2557156    4.2557156    4.2557156    7755.5865    9351.0188   -40476.383    54392.123    5007.1601    8143.3041   -5786.9743    77.075755 
   88600    2208.1471   -160.86456    1.9979779   -158.86659   -2811.1495    4.2550455    4.2550455    4.2550455   -2811.1495   -5237.0985   -1368.9462   -1827.4038     6402.542   -9335.3624   -32840.874    77.039354 
   88700    701.98072   -159.49835   0.63516691   -158.86319   -20952.931    4.2529052    4.2529052    4.2529052   -20952.931    26783.734    46417.801   -136060.33   -5263.8341    2934.3876   -23202.348    76.923157 
   88800     1887.145   -160.57802    1.7075284   -158.87049    7769.4628    4.2512395    4.2512395    4.2512395    7769.4628    12905.062    15865.626   -5462.2989    -16863.39    5548.0149   -12036.201    76.832812 
   88900    2587.3364   -161.21327    2.3410764    -158.8722    12195.706    4.2501553    4.2501553    4.2501553    12195.706    19322.401     -8001.02    25265.736   -2985.8229    5299.4719    333.91684     76.77404 
   89000    1155.6339   -159.91351    1.0456418   -158.86787   -22935.741    4.2551011    4.2551011    4.2551011   -22935.741    19473.599    16241.082    -104521.9    2265.6589    6850.5946    14750.245    77.042372 
   89100    1486.3006   -160.21393     1.344836    -158.8691   -467.20131    4.2598999    4.2598999    4.2598999   -467.20131   -14815.128   -2642.5255     16056.05   -3857.8753   -13660.326   -5589.5423    77.303327 
   89200    2507.5528   -161.13716    2.2688865   -158.86828     19849.48     4.257359     4.257359     4.257359     19849.48   -10549.963   -31432.987    101531.39    3539.1748   -13144.088   -3507.6901    77.165084 
   89300     1567.632   -160.27398    1.4184264   -158.85555   -19706.024    4.2550151    4.2550151    4.2550151   -19706.024    11822.712    7636.7192   -78577.503   -9583.2969    7139.5493    6437.3972    77.037703 
   89400    1672.1887   -160.36982    1.5130315   -158.85679   -25656.421     4.253282     4.253282     4.253282   -25656.421    1869.9094    1703.0406   -80542.213    9121.4153    10652.662   -1218.7489    76.943604 
   89500    2456.5974    -161.0903    2.2227809   -158.86752   -4517.7373    4.2530461    4.2530461    4.2530461   -4517.7373   -15039.215   -30404.295    31890.298   -6248.2844    5146.6018     7382.402    76.930806 
   89600    1730.6821   -160.43472    1.5659575   -158.86876   -17196.359    4.2558381    4.2558381    4.2558381   -17196.359    8120.2547    12020.282   -71729.612   -6902.6333   -7816.6409   -14503.891    77.082414 
   89700    1393.0116   -160.12839    1.2604262   -158.86797   -7338.4658    4.2566342    4.2566342    4.2566342   -7338.4658     12575.46    35755.818   -70346.675    8855.5017   -9875.9882   -20024.547    77.125678 
   89800     2034.484   -160.71322    1.8408439   -158.87238    18281.645    4.2552311    4.2552311    4.2552311    18281.645   -36102.403   -15018.766     105966.1   -3468.4055    7235.7854   -6532.9698    77.049435 
   89900      1646.76   -160.36168    1.4900231   -158.87166    12316.039    4.2534447    4.2534447    4.2534447    12316.039   -374.32839    2123.3478    35199.097    6030.3186    1224.3029   -13927.944    76.952436 
   90000    1374.5098   -160.10788    1.2436854    -158.8642   -11907.923    4.2532935    4.2532935    4.2532935   -11907.923    38582.039    42651.497   -116957.31    -5893.219    385.66507     2187.773    76.944231 
   90100    2368.8694   -161.01006    2.1434028   -158.86666   -441.73763    4.2544442    4.2544442    4.2544442   -441.73763   -7795.5449    24059.649   -17589.317   -10077.025   -2221.4356    4382.1247    77.006695 
   90200    1965.5886   -160.64891    1.7785058   -158.87041    1334.3806    4.2565342    4.2565342    4.2565342    1334.3806   -17023.282    2597.6816    18428.742    3717.9412    2310.5673   -15177.462    77.120242 
   90300    795.01832   -159.58732   0.71934928   -158.86797   -5524.1583     4.252852     4.252852     4.252852   -5524.1583    24162.686    44726.187   -85461.348   -4079.0345    3831.7385    2999.4446    76.920269 
   90400    1908.8782   -160.59883    1.7271931   -158.87164   -4392.7961    4.2508599    4.2508599    4.2508599   -4392.7961   -2400.6366    52329.726   -63107.478   -2177.0084   -47.257277    2977.1033    76.812229 
   90500    2729.2708   -161.34788    2.4695015   -158.87838    7414.0352    4.2518539    4.2518539    4.2518539    7414.0352   -21460.774    8337.5563    35365.324    -9652.939   -2716.4147     7146.834    76.866126 
   90600    925.17576   -159.71277   0.83711847   -158.87565   -10232.215    4.2534528    4.2534528    4.2534528   -10232.215     45135.26   -7697.8884   -68134.017   -7758.0356    10886.758    17293.707    76.952878 
   90700    1003.3652   -159.78404   0.90786594   -158.87617   -1157.9532    4.2512095    4.2512095    4.2512095   -1157.9532    76830.951    18574.461   -98879.272    4608.4608    3423.3867   -8012.3002    76.831185 
   90800    2823.7911   -161.43752    2.5550256   -158.88249    19997.321    4.2512415    4.2512415    4.2512415    19997.321   -658.15164    19879.958    40770.157    1721.0561   -5974.4641    2075.4597    76.832917 
   90900    1634.2467   -160.35887    1.4787007   -158.88017   -13565.569     4.256621     4.256621     4.256621   -13565.569   -29614.109    43724.438   -54807.037   -3615.6278    1441.0704    12977.198    77.124962 
   91000    362.49601   -159.20229     0.327994   -158.87429   -13054.356     4.257234     4.257234     4.257234   -13054.356    8232.1091    76620.567   -124015.74   -6727.2343   -11575.327   -304.34223    77.158284 
   91100    2502.2013   -161.13458    2.2640443   -158.87054    11532.813     4.253279     4.253279     4.253279    11532.813   -8854.0833    19940.801     23511.72    -15012.21    1824.8827    4501.7758    76.943445 
   91200    2581.0928   -161.20235     2.335427   -158.86693    1881.5308    4.2480339    4.2480339    4.2480339    1881.5308   -3329.0693    15225.508   -6251.8459     2024.738   -9014.3614    4524.1843    76.659137 
   91300    887.15881   -159.66835   0.80271993   -158.86563    -29294.18    4.2515224    4.2515224    4.2515224    -29294.18   -54.783613    17991.107   -105818.86    1346.3584   -7021.5179   -7462.9875    76.848148 
   91400    1649.6878   -160.36641    1.4926722   -158.87374   -5704.6727    4.2568686    4.2568686    4.2568686   -5704.6727   -25348.195   -4574.2037    12808.381   -1454.2921    9088.7539    8545.6641    77.138422 
   91500    2616.1873   -161.24135    2.3671812   -158.87417    21375.756    4.2549097    4.2549097    4.2549097    21375.756   -17268.841    18304.724    63091.385    3496.9927    58.794327    8358.9763    77.031975 
   91600    1364.0952   -160.09667     1.234262   -158.86241   -13876.827    4.2526252    4.2526252    4.2526252   -13876.827    14941.711    40401.129   -96973.322   -3294.8544    7367.5397   -3103.5654    76.907967 
   91700    1354.8719     -160.088    1.2259166   -158.86208   -18594.533    4.2512663    4.2512663    4.2512663   -18594.533   -7148.7698    -3170.953   -45463.877    16769.496    3815.5798   -1959.2778    76.834262 
   91800    2610.4055   -161.23225    2.3619497    -158.8703    16571.183    4.2515819    4.2515819    4.2515819    16571.183   -12571.146   -10683.179    72967.874    7471.8648   -3090.3744     -11246.9    76.851377 
   91900    1714.2137   -160.42041    1.5510566   -158.86935    11657.339    4.2522024    4.2522024    4.2522024    11657.339    24766.663    42852.419   -32647.065    609.54853    15456.065    12507.581    76.885027 
   92000    1097.3228   -159.85479    0.9928807   -158.86191   -16404.252    4.2534918    4.2534918    4.2534918   -16404.252    9542.3659    39681.514   -98436.636    5448.7722   -4435.5897    20204.823    76.954993 
   92100    2517.1209   -161.14363    2.2775439   -158.86609    -1524.736    4.2543663    4.2543663    4.2543663    -1524.736   -27672.239   -19176.809     42274.84    446.79254    -1982.688   -3449.0768    77.002465 
   92200    2150.6213   -160.81237    1.9459274   -158.86644   -9605.7433    4.2547634    4.2547634    4.2547634   -9605.7433     28682.65   -20296.447   -37203.433     6620.813     5043.392    12934.406     77.02403 
   92300     987.2504   -159.76108   0.89328491    -158.8678   -8196.1193    4.2501282    4.2501282    4.2501282   -8196.1193    94279.849    20613.861   -139482.07   -4943.3391    3161.5295   -130.31062     76.77257 
   92400    2172.8252   -160.83785    1.9660179   -158.87183    12873.206     4.251217     4.251217     4.251217    12873.206    53566.649   -21829.916    6882.8847   -2637.6997    5164.5864   -4410.7926    76.831588 
   92500    2242.3384   -160.90014    2.0289149   -158.87122    3370.9143    4.2558145    4.2558145    4.2558145    3370.9143    28167.155   -37592.316    19537.904   -4203.7269    3790.2521    1701.6971    77.081128 
   92600    1024.1581   -159.79152   0.92667976   -158.86484   -27915.954    4.2554012    4.2554012    4.2554012   -27915.954    50453.369    2323.6655    -136524.9   -9456.8152   -8810.1051   -5227.3011    77.058676 
   92700    2012.1015   -160.68864    1.8205917   -158.86805   -7108.0065    4.2500347    4.2500347    4.2500347   -7108.0065    2407.8351   -6702.9194   -17028.935   -345.83776   -3174.3134   -3536.4122    76.767503 
   92800    2408.3514   -161.05603     2.179127    -158.8769    16699.571    4.2454312    4.2454312    4.2454312    16699.571   -28618.689    12234.743    66482.658   -5458.0438    2324.2009   -254.75829    76.518319 
   92900    683.68912   -159.50042   0.61861628    -158.8818    7146.2492    4.2493308    4.2493308    4.2493308    7146.2492    41943.711    64083.776    -84588.74   -985.18105    7295.7914   -3887.7954    76.729371 
   93000    1292.0233   -160.04604    1.1690498   -158.87699    50.447014    4.2579667    4.2579667    4.2579667    50.447014    53989.907    29626.272   -83464.839   -4319.5159    17923.668    -1675.178    77.198132 
   93100    2823.0659   -161.42479    2.5543693   -158.87042    4772.3669    4.2543675    4.2543675    4.2543675    4772.3669   -22774.079   -29787.012    66878.191   -3680.9334    8194.8612     8915.721    77.002534 
   93200    1535.1565   -160.25065    1.3890419   -158.86161   -12681.801    4.2463435    4.2463435    4.2463435   -12681.801    -12334.65    5936.1768   -31646.928   -6384.2353   -109.23866     2883.579    76.567661 
   93300    1021.6007   -159.79073   0.92436575   -158.86636   -17532.963    4.2480073    4.2480073    4.2480073   -17532.963    38546.708    33292.191   -124437.79   -12717.216    8173.3093    15659.864    76.657699 
   93400    2707.8569   -161.32713    2.4501258   -158.87701    19412.214    4.2551636    4.2551636    4.2551636    19412.214    30286.159   -15468.975    43419.457    1313.2494   -3281.7161   -1288.1472    77.045769 
   93500    2185.9992    -160.8459     1.977938   -158.86796   -7417.3667    4.2582951    4.2582951    4.2582951   -7417.3667    14476.294   -24260.328   -12468.066   -7733.5461    7816.1654   -11493.177    77.215994 
   93600    682.98759    -159.4765   0.61798152   -158.85852    -25719.84    4.2503002    4.2503002    4.2503002    -25719.84    18538.453    27200.082   -122898.06     4291.084     1399.307   -10942.977    76.781894 
   93700    2093.5726   -160.76176    1.8943084   -158.86745    3164.2377    4.2481161    4.2481161    4.2481161    3164.2377   -4605.1797    21352.654   -7254.7607    -4185.931   -7942.0383   -21377.206    76.663587 
   93800    2625.7768   -161.25398     2.375858   -158.87812    20950.096    4.2540863    4.2540863    4.2540863    20950.096    15859.815    15579.113     31411.36   -794.72658    14229.406    -16571.89    76.987265 
   93900    594.48423   -159.40568   0.53790183   -158.86778   -2319.0862    4.2592828    4.2592828    4.2592828   -2319.0862    58989.628    48863.102   -114809.99    1582.0517    2241.6549   -9799.3933    77.269734 
   94000    1391.5833    -160.1212    1.2591338   -158.86207   -11130.881    4.2518549    4.2518549    4.2518549   -11130.881   -5977.6807    34502.557   -61917.519   -10049.669   -7090.1113   -3153.3169    76.866182 
   94100    3048.7747   -161.62279    2.7585954    -158.8642    14497.929    4.2431181    4.2431181    4.2431181    14497.929   -27907.648    15831.769    55569.666    6110.9436   -465.98972    621.17678    76.393316 
   94200    1772.1022   -160.47699    1.6034354   -158.87355    7212.3367    4.2476645    4.2476645    4.2476645    7212.3367    38408.225    50434.136   -67205.351    3630.3714   -8092.4523    1103.8257    76.639137 
   94300    1095.7785   -159.86576    0.9914834   -158.87427   -17228.787    4.2589291    4.2589291    4.2589291   -17228.787    23724.629    32358.373   -107769.36    3865.1083    4251.4488    863.83235     77.25049 
   94400    2779.8278   -161.38307    2.5152466   -158.86782   -12180.292    4.2599129    4.2599129    4.2599129   -12180.292   -56900.782   -22792.209    43152.114    -4143.267    10175.835    8042.4768    77.304035 
   94500    2189.7715   -160.83953    1.9813513   -158.85818   -17798.614    4.2523665    4.2523665    4.2523665   -17798.614   -4.5559268    -1495.438   -51895.848   -6363.3064   -8611.3998    17452.265    76.893931 
   94600    1050.6645   -159.81034   0.95066336   -158.85968   -6855.7217    4.2461018    4.2461018    4.2461018   -6855.7217     69446.22    31064.415    -121077.8     12418.91    7052.9456    8780.2909    76.554583 
   94700    2039.6368   -160.71472    1.8455062   -158.86922    9413.6963    4.2479136    4.2479136    4.2479136    9413.6963    -6133.069   -188.71536    34562.873    2534.6523   -65.135704    8277.3114    76.652623 
   94800    2083.8052   -160.75483    1.8854707   -158.86936   -10765.007    4.2536774    4.2536774    4.2536774   -10765.007    -38785.37   -4935.7343    11426.085    -3784.209    8240.0441   -6789.7117    76.965064 
   94900    1250.8592   -159.99502    1.1318037   -158.86322   -18153.147    4.2552689    4.2552689    4.2552689   -18153.147    41928.027    2418.0253   -98805.493   -1101.7784    -10432.35   -16808.236    77.051489 
   95000    2012.7236   -160.68454    1.8211546   -158.86338    7619.7855    4.2546567    4.2546567    4.2546567    7619.7855    24198.227   -12261.379    10922.509    -6071.278   -2641.0695   -5200.4521    77.018236 
   95100     2143.238   -160.80505    1.9392468   -158.86581    14424.594    4.2532785    4.2532785    4.2532785    14424.594   -9153.2843    3022.6841    49404.381     9191.417   -5066.7673   -16988.415    76.943419 
   95200    1204.9707    -159.9531    1.0902828   -158.86281    224.20923     4.249354     4.249354     4.249354    224.20923    46463.136    38118.357   -83908.866    5160.2276   -13996.784    -3770.765    76.730624 
   95300    2159.6999   -160.81848    1.9541418   -158.86434   -14467.367    4.2480309    4.2480309    4.2480309   -14467.367    25050.467    2576.8544   -71029.421   -9026.9946     11391.07   -3695.3755    76.658972 
   95400    2685.5421   -161.30053    2.4299349    -158.8706    -6627.603    4.2536636    4.2536636    4.2536636    -6627.603   -54250.354   -11369.658    45737.203     5924.921   -4141.1814   -7386.8181    76.964319 
   95500    1061.3457   -159.82815   0.96032785   -158.86782   -13301.078    4.2581462    4.2581462    4.2581462   -13301.078    1816.8112    32601.636   -74321.681    6185.3654    4511.7967    24390.298    77.207894 
   95600    996.80503   -159.76936   0.90193014   -158.86743    5069.6567     4.253065     4.253065     4.253065    5069.6567    79391.674     45693.87   -109876.57    16787.278    11043.611    15170.631     76.93183 
   95700    2591.2827   -161.21376    2.3446471   -158.86911    24332.183    4.2466674    4.2466674    4.2466674    24332.183     26372.84    4497.1574    42126.552    10526.228    4610.0121    12771.358    76.585181 
   95800    1779.8938    -160.4766    1.6104853   -158.86611   -12431.145    4.2473502    4.2473502    4.2473502   -12431.145   -45554.775    11445.877   -3184.5356    1719.1043    2119.3444    12323.087    76.622131 
   95900    840.43349   -159.62832   0.76044188   -158.86788   -18921.609    4.2521031    4.2521031    4.2521031   -18921.609    5920.4968     30462.94   -93148.263    10287.795   -3430.9347   -7792.1963    76.879641 
   96000    2545.9105   -161.17707    2.3035933   -158.87348    6603.5329    4.2568627    4.2568627    4.2568627    6603.5329    23516.404   -9486.2805    5780.4756    374.92252   -13670.253     -1233.79    77.138101 
   96100    2564.2738   -161.18828    2.3202088   -158.86807    2188.2865    4.2550094    4.2550094    4.2550094    2188.2865    -3889.748   -15209.837    25664.445    7391.7151    7417.3495   -8988.5433    77.037393 
   96200    858.46929   -159.63365   0.77676105   -158.85689    -18246.61    4.2487215    4.2487215    4.2487215    -18246.61    8346.4005    28204.377   -91290.607   -4319.7816    9918.1943   -4733.5876    76.696366 
   96300    1793.4696    -160.4866     1.622769   -158.86383   -1218.7386     4.246408     4.246408     4.246408   -1218.7386    35718.114    17632.956   -57007.286   -10459.966    14801.853    20976.011     76.57115 
   96400    2846.3431   -161.45066     2.575431   -158.87523    16633.694    4.2508896    4.2508896    4.2508896    16633.694    8531.4641   -4104.8992    45474.517    1668.5325    4351.0694    17873.041    76.813839 
   96500     1017.907   -159.78913   0.92102365   -158.86811   -9327.3907     4.254884     4.254884     4.254884   -9327.3907    11123.486    31087.884   -70193.542   -4052.9727   -11568.572    27480.435    77.030581 
   96600    801.39616   -159.59073   0.72512009   -158.86561   -3859.0361    4.2524031    4.2524031    4.2524031   -3859.0361    39583.999    26054.296   -77215.403    5080.1932   -12858.679     12825.95    76.895918 
   96700    2898.4535   -161.49166    2.6225816   -158.86908    10616.231    4.2535397    4.2535397    4.2535397    10616.231    17471.614   -26552.373    40929.453   -10804.277    7104.5765   -2386.7409    76.957591 
   96800    2400.1355   -161.03687    2.1716931   -158.86518   -2417.4717    4.2535292    4.2535292    4.2535292   -2417.4717   -6028.0551    4165.9831   -5390.3432    6911.7848   -9921.5582   -1068.0187    76.957022 
   96900    875.56257   -159.64823   0.79222742     -158.856   -24038.631    4.2507315    4.2507315    4.2507315   -24038.631   -22171.772    40521.811   -90465.932   -921.59463    2985.7398   -9236.5212    76.805271 
   97000    2065.5286   -160.73294    1.8689337     -158.864   -3584.5664    4.2498341    4.2498341    4.2498341   -3584.5664   -9926.7071   -3498.3942    2671.4021     5392.032   -747.14498    292.79929    76.756635 
   97100    2861.7389   -161.46367    2.5893615   -158.87431    13157.996    4.2545484    4.2545484    4.2545484    13157.996    43968.267    -27653.07    23158.791   -1636.1476   -11396.364    9696.5859    77.012353 
   97200     1082.503   -159.84884   0.97947149   -158.86937   -15711.873      4.26022      4.26022      4.26022   -15711.873     18526.73    30850.869   -96513.218   -11187.248    11763.142    13376.601    77.320752 
   97300    864.14637   -159.64897    0.7818978   -158.86707   -5559.5922    4.2538567    4.2538567    4.2538567   -5559.5922   -46837.404    50043.669   -19885.042    6202.0984   -9754.8286    27173.043    76.974802 
   97400    2573.8735   -161.20144    2.3288949   -158.87255    14188.936    4.2495559    4.2495559    4.2495559    14188.936   -16137.996   -9156.6559     67861.46    1978.1192    -580.3387    26334.324    76.741562 
   97500    2122.0202   -160.79458    1.9200484   -158.87453    -12711.01    4.2526982    4.2526982    4.2526982    -12711.01    43387.549   -13557.137   -67963.442    9722.5958   -237.13731     9057.402    76.911927 
   97600    975.92066   -159.75394   0.88303352   -158.87091   -21668.656    4.2540587    4.2540587    4.2540587   -21668.656    10242.199    29316.447   -104564.61    342.07719    7293.2009    7762.2525    76.985767 
   97700    2057.6512   -160.73165    1.8618061   -158.86985    11066.056    4.2531404    4.2531404    4.2531404    11066.056   -27370.951    24553.388    36015.731   -13489.771    6340.7344   -6551.9334    76.935923 
   97800    2660.7183   -161.27212    2.4074739   -158.86465    511.18518    4.2529114    4.2529114    4.2529114    511.18518    25811.041   -5533.6108   -18743.875     10587.86   -2692.5588   -9976.5714    76.923497 
   97900    1652.7399   -160.35364    1.4954338   -158.85821    -36896.54    4.2521676    4.2521676    4.2521676    -36896.54    8846.9768    2705.6566   -122242.25    2221.3546    636.87951   -5237.2092    76.883141 
   98000    1763.2865   -160.45842    1.5954587   -158.86296   -12378.151     4.250613     4.250613     4.250613   -12378.151   -61115.791     15268.93    8712.4069    7434.4004   -11299.525     4122.407    76.798848 
   98100    2247.6622   -160.90462     2.033732   -158.87089    20489.398     4.249732     4.249732     4.249732    20489.398    7850.7961    12983.929    40633.469   -260.45805    13666.748    17634.531    76.751105 
   98200    1468.1921   -160.19698    1.3284511   -158.86853    7255.4104    4.2512395    4.2512395    4.2512395    7255.4104    79365.335    17469.702   -75068.806    -5873.145    2695.0356    13201.937    76.832811 
   98300    1469.8565   -160.19041     1.329957   -158.86045   -12525.816    4.2563597    4.2563597    4.2563597   -12525.816   -12683.995     6130.073   -31023.528    9468.0629   -2791.3205     9956.825    77.110756 
   98400    2236.3257   -160.88556    2.0234745   -158.86208    7945.4897     4.256409     4.256409     4.256409    7945.4897   -53105.511    9320.0244    67621.955   -5763.7628     15467.58    10324.234    77.113438 
   98500    1497.2104   -160.21782    1.3547074   -158.86311    11548.112    4.2560645    4.2560645    4.2560645    11548.112    31744.281    41672.713   -38772.657   -1468.8468    1342.5135    13380.534    77.094716 
   98600    1327.7365   -160.06709    1.2013639   -158.86572   -6212.0722    4.2531888    4.2531888    4.2531888   -6212.0722    26567.904     40364.88   -85569.001   -3482.5093    2163.0059    267.44251    76.938546 
   98700    2329.3493   -160.97185    2.1076442    -158.8642   -7229.8646    4.2505245    4.2505245    4.2505245   -7229.8646   -53459.123   -8804.2595    40573.789   -3295.2447   -12734.735   -3512.6258    76.794049 
   98800     2036.603    -160.7106    1.8427612   -158.86784   -6676.9059    4.2535843    4.2535843    4.2535843   -6676.9059   -9217.1556   -14693.976    3880.4144    10094.762   -22721.734   -2332.4565    76.960013 
   98900    1339.7439   -160.08235    1.2122284   -158.87012   -5206.9094    4.2576759    4.2576759    4.2576759   -5206.9094    34833.114    19404.352   -69858.195   -11170.073    11278.689   -841.02618    77.182316 
   99000    1701.5708   -160.40695     1.539617   -158.86733     6333.186    4.2558743    4.2558743    4.2558743     6333.186   -30823.448    16673.995    33149.011    1318.5884   -16177.961   -3164.3025    77.084378 
   99100    2148.7074   -160.80204    1.9441956   -158.85784   -11975.415    4.2515194    4.2515194    4.2515194   -11975.415   -42797.632   -9893.2033    16764.592    5778.1561    581.62607   -2332.6834    76.847987 
   99200    1656.3903    -160.3607    1.4987367   -158.86196   -8782.2499    4.2519969    4.2519969    4.2519969   -8782.2499    73964.885     13864.58   -114176.21    -6.764107   -6877.0707   -2861.1931    76.873883 
   99300    1521.3824   -160.24695    1.3765788   -158.87037    7174.4558    4.2587982    4.2587982    4.2587982    7174.4558    1318.2077     53253.86   -33048.701    10071.707   -11532.799    12756.799    77.243365 
   99400     1989.206    -160.6651    1.7998754   -158.86523    6900.0887    4.2580595    4.2580595    4.2580595    6900.0887   -80587.209    40990.529    60296.947   -5340.7676    13994.773    17758.706    77.203177 
   99500    1861.4586   -160.54077    1.6842869   -158.85649   -10831.487     4.248748     4.248748     4.248748   -10831.487     20056.22    14468.308    -67018.99   -4681.3025    7384.7651    622.04132    76.697803 
   99600    1861.0639    -160.5411    1.6839297   -158.85717   -21428.075    4.2470403    4.2470403    4.2470403   -21428.075    23227.117   -2732.4397   -84778.903    2925.5488    5613.9319   -4134.5976    76.605357 
   99700    2241.3784   -160.89686    2.0280463   -158.86881   -98.206061    4.2514426    4.2514426    4.2514426   -98.206061   -75782.295     17566.62    57921.057   -986.05743   -3572.7762    8276.9326    76.843825 
   99800    1581.8671   -160.29979    1.4313066   -158.86848    8370.4683    4.2552332    4.2552332    4.2552332    8370.4683   -25853.765    63866.217   -12901.048    4444.3087   -16086.674     8533.273    77.049546 
   99900     1182.856   -159.93462     1.070273   -158.86435   -6602.8411    4.2538509    4.2538509    4.2538509   -6602.8411    32675.628    64935.565   -117419.72   -4495.1272   -7031.2113    7044.0884    76.974485 
  100000    2139.0351   -160.80108    1.9354439   -158.86564   -4284.2443    4.2539252    4.2539252    4.2539252   -4284.2443   -32345.838    11033.443    8459.6623   -8951.3938   -14607.564    7840.2165    76.978517 
Loop time of 41.4484 on 1 procs for 100000 steps with 8 atoms

Pair  time (%) = 14.4361 (34.8292)
Kspce time (%) = 9.89835 (23.8811)
Neigh time (%) = 0.112491 (0.2714)
Comm  time (%) = 2.0979 (5.06148)
Outpt time (%) = 0.110992 (0.267784)
Other time (%) = 14.7926 (35.6891)

Nlocal:    8 ave 8 max 8 min
Histogram: 1 0 0 0 0 0 0 0 0 0
Nghost:    2189 ave 2189 max 2189 min
Histogram: 1 0 0 0 0 0 0 0 0 0
Neighs:    2372 ave 2372 max 2372 min
Histogram: 1 0 0 0 0 0 0 0 0 0

Total # of neighbors = 2372
Ave neighs/atom = 296.5
Neighbor list builds = 844
Dangerous builds = 0
unfix 20
unfix 21
print "seeds:3328795"
seeds:3328795
