LAMMPS (16 Mar 2018)
# ---- initialize simulations
clear
units metal
dimension 3
boundary p p p
atom_style charge
atom_modify map array
# ---- create atoms
read_data /home/manuelesp/repos/pypospack/dev/MgO_iterative_sampler/rank_4/MgO_NaCl_fr_a.lmps_min_pos/lammps.structure
  triclinic box = (0 0 0) to (12.2076 12.2076 12.2076) with tilt (0 0 0)
  1 by 1 by 1 MPI processor grid
  reading atoms ...
  216 atoms
# ---- define interatomic potential
include potential.mod
mass 1 24.305
mass 2 15.999

group Mg type 1
108 atoms in group Mg
group O type 2
108 atoms in group O

set group Mg charge 2.1466418992637664
  108 settings made for charge
set group O charge -2.1466418992637664
  108 settings made for charge

variable R_cut equal 10.0

pair_style buck/coul/long ${R_cut}
pair_style buck/coul/long 10
pair_coeff 1 1 0.0 0.5 0.0 ${R_cut}
pair_coeff 1 1 0.0 0.5 0.0 10
pair_coeff 1 2 1089.4134673757053 0.31058320000297174 0.0 ${R_cut}
pair_coeff 1 2 1089.4134673757053 0.31058320000297174 0.0 10
pair_coeff 2 2 18983.219085212437 0.12673144022038657 73.4670102644071 ${R_cut}
pair_coeff 2 2 18983.219085212437 0.12673144022038657 73.4670102644071 10

kspace_style pppm 1.0e-5

neighbor 1.0 bin
neigh_modify every 1 delay 0 check yes
# ---- define settings
compute eng all pe/atom
compute eatoms all reduce sum c_eng

# ---- run minimization
reset_timestep 0
thermo 1
thermo_style custom step pe lx ly lz xy xz yz press pxx pyy pzz pxy pxz pyz c_eatoms
min_style cg
minimize 1e-20 1e-20 1000 100000
PPPM initialization ...
  using 12-bit tables for long-range coulomb (../kspace.cpp:321)
  G vector (1/distance) = 0.348024
  grid = 20 20 20
  stencil order = 5
  estimated absolute RMS force accuracy = 0.000112659
  estimated relative force accuracy = 7.82372e-06
  using double precision FFTs
  3d grid and FFT values/proc = 19683 8000
Neighbor list info ...
  update every 1 steps, delay 0 steps, check yes
  max neighbors/atom: 2000, page size: 100000
  master list distance cutoff = 11
  ghost atom cutoff = 11
  binsize = 5.5, bins = 3 3 3
  1 neighbor lists, perpetual/occasional/extra = 1 0 0
  (1) pair buck/coul/long, perpetual
      attributes: half, newton on
      pair build: half/bin/newton/tri
      stencil: half/bin/3d/newton/tri
      bin: standard
Per MPI rank memory allocation (min/avg/max) = 7.318 | 7.318 | 7.318 Mbytes
Step PotEng Lx Ly Lz Xy Xz Yz Press Pxx Pyy Pzz Pxy Pxz Pyz c_eatoms 
       0   -5194.6287      12.2076      12.2076      12.2076            0            0            0    3674.3194    3674.3194    3674.3194    3674.3194   -2299.2896   -2299.2896   -2299.2896   -5194.6287 
       1   -5216.8792      12.2076      12.2076      12.2076            0            0            0     13339.02     13339.02     13339.02     13339.02    759.86724    759.86724    759.86724   -5216.8792 
       2    -5220.303      12.2076      12.2076      12.2076            0            0            0    22226.061    22226.061    22226.061    22226.061    277.16082    277.16082    277.16082    -5220.303 
       3   -5221.5919      12.2076      12.2076      12.2076            0            0            0    20926.014    20926.014    20926.014    20926.014   -586.28528   -586.28528   -586.28528   -5221.5919 
       4   -5222.1569      12.2076      12.2076      12.2076            0            0            0    22796.752    22796.752    22796.752    22796.752   -455.89833   -455.89833   -455.89833   -5222.1569 
       5   -5222.3349      12.2076      12.2076      12.2076            0            0            0    23303.219    23303.219    23303.219    23303.219   -401.16294   -401.16294   -401.16294   -5222.3349 
       6   -5222.4138      12.2076      12.2076      12.2076            0            0            0    23367.568    23367.568    23367.568    23367.568    -338.0433    -338.0433    -338.0433   -5222.4138 
       7   -5222.4406      12.2076      12.2076      12.2076            0            0            0    23417.318    23417.318    23417.318    23417.318   -391.77766   -391.77766   -391.77766   -5222.4406 
       8   -5222.4536      12.2076      12.2076      12.2076            0            0            0    23404.638    23404.638    23404.638    23404.638   -452.53973   -452.53973   -452.53973   -5222.4536 
       9   -5222.4597      12.2076      12.2076      12.2076            0            0            0    23524.744    23524.744    23524.744    23524.744   -447.39189   -447.39189   -447.39189   -5222.4597 
      10   -5222.4623      12.2076      12.2076      12.2076            0            0            0    23546.808    23546.808    23546.808    23546.808   -430.86778   -430.86778   -430.86778   -5222.4623 
      11   -5222.4634      12.2076      12.2076      12.2076            0            0            0    23586.975    23586.975    23586.975    23586.975   -438.27804   -438.27804   -438.27804   -5222.4634 
      12   -5222.4643      12.2076      12.2076      12.2076            0            0            0    23574.342    23574.342    23574.342    23574.342   -437.74634   -437.74634   -437.74634   -5222.4643 
      13   -5222.4643      12.2076      12.2076      12.2076            0            0            0    23574.342    23574.342    23574.342    23574.342   -437.74634   -437.74634   -437.74634   -5222.4643 
Loop time of 1.02327 on 1 procs for 13 steps with 216 atoms

47.6% CPU use with 1 MPI tasks x no OpenMP threads

Minimization stats:
  Stopping criterion = linesearch alpha is zero
  Energy initial, next-to-last, final = 
        -5194.62867424     -5222.46427292     -5222.46427292
  Force two-norm initial, final = 63.1027 0.114671
  Force max component initial, final = 11.3711 0.0154265
  Final line search alpha, max atom move = 4.76837e-07 7.35593e-09
  Iterations, force evaluations = 13 66

MPI task timing breakdown:
Section |  min time  |  avg time  |  max time  |%varavg| %total
---------------------------------------------------------------
Pair    | 0.70404    | 0.70404    | 0.70404    |   0.0 | 68.80
Kspace  | 0.29894    | 0.29894    | 0.29894    |   0.0 | 29.21
Neigh   | 0.017471   | 0.017471   | 0.017471   |   0.0 |  1.71
Comm    | 0.001714   | 0.001714   | 0.001714   |   0.0 |  0.17
Output  | 0.00038743 | 0.00038743 | 0.00038743 |   0.0 |  0.04
Modify  | 0          | 0          | 0          |   0.0 |  0.00
Other   |            | 0.0007207  |            |       |  0.07

Nlocal:    216 ave 216 max 216 min
Histogram: 1 0 0 0 0 0 0 0 0 0
Nghost:    4697 ave 4697 max 4697 min
Histogram: 1 0 0 0 0 0 0 0 0 0
Neighs:    73096 ave 73096 max 73096 min
Histogram: 1 0 0 0 0 0 0 0 0 0

Total # of neighbors = 73096
Ave neighs/atom = 338.407
Neighbor list builds = 1
Dangerous builds = 0

# ---- define output variables ----
variable natoms equal "count(all)"
variable tot_energy equal "c_eatoms"
variable a11 equal "xhi-xlo"
variable a22 equal "yhi-ylo"
variable a33 equal "zhi-zlo"
variable tilt_xy equal "xy"
variable tilt_xz equal "xz"
variable tilt_yz equal "yz"
variable tot_press equal "press"
variable press_xx equal "pxx"
variable press_yy equal "pyy"
variable press_zz equal "pzz"
variable press_xy equal "pxy"
variable press_xz equal "pxz"
variable press_yz equal "pyz"

# ---- output ----
print "pypospack:output_section:begin"
pypospack:output_section:begin
print "tot_energy = ${tot_energy}"
tot_energy = -5222.46427292489
print "num_atoms = ${natoms}"
num_atoms = 216
print "a11 = ${a11}"
a11 = 12.2076
print "a22 = ${a22}"
a22 = 12.2076
print "a33 = ${a33}"
a33 = 12.2076
print "a12 = ${tilt_xy}"
a12 = 0
print "a13 = ${tilt_xz}"
a13 = 0
print "a23 = ${tilt_yz}"
a23 = 0
print "tot_press = ${tot_press}"
tot_press = 23574.3420333823
print "pxx = ${press_xx}"
pxx = 23574.3420333896
print "pyy = ${press_yy}"
pyy = 23574.3420333802
print "pzz = ${press_zz}"
pzz = 23574.342033377
print "pxy = ${press_xy}"
pxy = -437.746344678376
print "pxz = ${press_xz}"
pxz = -437.746344674051
print "pyz = ${press_yz}"
pyz = -437.746344672372
print "pypospack:output_section:done"
pypospack:output_section:done
print "pypospack:lammps_sim:done"
pypospack:lammps_sim:done
Total wall time: 0:00:01
