LAMMPS (10 Feb 2015)
# ---- initialize simulations
clear
units metal
dimension 3
boundary p p p
atom_style charge
atom_modify map array
# ---- create atoms
read_data /Users/eugeneragasa/pyflamestk_git/pypospack/tests/tests_integration/workflow/WorkflowLammpsThermalExpansion/param_7495/MgO_NaCl_unit.npt.T800/lammps.structure
  triclinic box = (0 0 0) to (4.2565 4.2565 4.2565) with tilt (0 0 0)
  1 by 1 by 1 MPI processor grid
  reading atoms ...
  8 atoms
# ---- define interatomic potential
include potential.mod
mass 1 24.305
mass 2 15.999

group Mg type 1
4 atoms in group Mg
group O type 2
4 atoms in group O

set group Mg charge 1.61805343549
  4 settings made for charge
set group O charge -1.61805343549
  4 settings made for charge

variable R_cut equal 10.0

pair_style buck/coul/long ${R_cut}
pair_style buck/coul/long 10
pair_coeff 1 1 0.0 0.5 0.0 ${R_cut}
pair_coeff 1 1 0.0 0.5 0.0 10
pair_coeff 1 2 1411.7842896 0.281421547192 0.0 ${R_cut}
pair_coeff 1 2 1411.7842896 0.281421547192 0.0 10
pair_coeff 2 2 12275.1016291 0.0833185517679 22.1397903537 ${R_cut}
pair_coeff 2 2 12275.1016291 0.0833185517679 22.1397903537 10

kspace_style pppm 1.0e-5

neighbor 1.0 bin
neigh_modify every 1 delay 0 check yes
# ---- define settings
compute eng all pe/atom
compute eatoms all reduce sum c_eng
# ---- run minimization
reset_timestep 0
fix 1 all box/relax iso 0.0 vmax 0.001
thermo 10
thermo_style custom step pe lx ly lz xy xz yz press pxx pyy pzz pxy pxz pyz c_eatoms
min_style cg
minimize 1e-25 1e-25 5000 10000
PPPM initialization ...
  G vector (1/distance) = 0.352505
  grid = 8 8 8
  stencil order = 5
  estimated absolute RMS force accuracy = 3.81397e-05
  estimated relative force accuracy = 2.64865e-06
  using double precision FFTs
  3d grid and FFT values/proc = 3375 512
Neighbor list info ...
  1 neighbor list requests
  update every 1 steps, delay 0 steps, check yes
  master list distance cutoff = 11
Memory usage per processor = 4.06549 Mbytes
Step PotEng Lx Ly Lz Xy Xz Yz Press Pxx Pyy Pzz Pxy Pxz Pyz eatoms 
       0   -106.97328       4.2565       4.2565       4.2565            0            0            0    38192.574    38192.574    38192.574    38192.574 8.7875882e-11 -6.3416216e-11 -7.5192229e-11   -106.97328 
       9   -106.99342    4.2893301    4.2893301    4.2893301            0            0            0     -3.54441     -3.54441     -3.54441     -3.54441 -1.7895043e-11 -1.1181496e-10 -2.9549514e-11   -106.99342 
Loop time of 0.00897908 on 1 procs for 9 steps with 8 atoms

Minimization stats:
  Stopping criterion = linesearch alpha is zero
  Energy initial, next-to-last, final = 
        -106.973281584     -106.993416645     -106.993416645
  Force two-norm initial, final = 5.51503 0.00172663
  Force max component initial, final = 5.51503 0.00051974
  Final line search alpha, max atom move = 0.00390625 2.03024e-06
  Iterations, force evaluations = 9 26

Pair  time (%) = 0.00249052 (27.7369)
Kspce time (%) = 0.00141573 (15.767)
Neigh time (%) = 0 (0)
Comm  time (%) = 0.000268459 (2.98983)
Outpt time (%) = 0 (0)
Other time (%) = 0.00480437 (53.5063)

Nlocal:    8 ave 8 max 8 min
Histogram: 1 0 0 0 0 0 0 0 0 0
Nghost:    2189 ave 2189 max 2189 min
Histogram: 1 0 0 0 0 0 0 0 0 0
Neighs:    2344 ave 2344 max 2344 min
Histogram: 1 0 0 0 0 0 0 0 0 0

Total # of neighbors = 2344
Ave neighs/atom = 293
Neighbor list builds = 0
Dangerous builds = 0
unfix 1
# ---- define output variables ----
variable natoms equal "count(all)"
variable tot_energy equal "c_eatoms"
variable length_x equal "lx"
variable length_y equal "ly"
variable length_z equal "lz"
variable tilt_xy equal "xy"
variable tilt_xz equal "xz"
variable tilt_yz equal "yz"
variable tot_press equal "press"
variable press_xx equal "pxx"
variable press_yy equal "pyy"
variable press_zz equal "pzz"
variable press_xy equal "pxy"
variable press_xz equal "pxz"
variable press_yz equal "pyz"

# ---- output ----
print "pypospack:output_section:begin"
pypospack:output_section:begin
print "tot_energy = ${tot_energy}"
tot_energy = -106.993416644887
print "num_atoms = ${natoms}"
num_atoms = 8
print "xx = ${length_x}"
xx = 4.28933011317114
print "yy = ${length_y}"
yy = 4.28933011317114
print "zz = ${length_z}"
zz = 4.28933011317114
print "xy = ${tilt_xy}"
xy = 0
print "xz = ${tilt_xz}"
xz = 0
print "yz = ${tilt_yz}"
yz = 0
print "tot_press = ${tot_press}"
tot_press = -3.54441004469774
print "pxx = ${press_xx}"
pxx = -3.5444100447524
print "pyy = ${press_yy}"
pyy = -3.54441004470836
print "pzz = ${press_zz}"
pzz = -3.54441004463246
print "pxy = ${press_xy}"
pxy = -1.78950429729069e-11
print "pxz = ${press_xz}"
pxz = -1.1181495634962e-10
print "pyz = ${press_yz}"
pyz = -2.95495135207349e-11
print "pypospack:output_section:done"
pypospack:output_section:done
print "pypospack:lammps_sim:done"
pypospack:lammps_sim:done
#------------------------------------------------------------------------------
# RUN THERMOSTAT
# running using an NPT Nose-Hoover style thermostat
#------------------------------------------------------------------------------
variable tempdamp equal 0.1
variable pressdamp equal 1.0
# set initial velocities
velocity all create 800 8135723 mom yes dist gaussian loop all
# fix for Nose-Hoover style thermostat
fix 20 all npt temp 800 800 0.1 aniso 0.0 0.0 1.0 drag 1.0 couple xyz
variable boxx equal lx
variable boxy equal ly
variable boxz equal lz
variable boxp equal press
variable boxt equal temp
# calculate averages every 10000 steps
reset_timestep 0
fix 21 all ave/time 10 10 100 v_boxx v_boxy v_boxz v_boxp v_boxt file lattice.out
thermo_style custom step temp pe ke etotal press lx ly lz press pxx pyy pzz pxy pxz pyz vol
thermo_modify flush yes
thermo 100
run 100000
PPPM initialization ...
  G vector (1/distance) = 0.352181
  grid = 8 8 8
  stencil order = 5
  estimated absolute RMS force accuracy = 3.87093e-05
  estimated relative force accuracy = 2.68821e-06
  using double precision FFTs
  3d grid and FFT values/proc = 3375 512
Memory usage per processor = 3.06549 Mbytes
Step Temp PotEng KinEng TotEng Press Lx Ly Lz Press Pxx Pyy Pzz Pxy Pxz Pyz Volume 
       0          800   -106.99342   0.72385681   -106.26957    9792.6495    4.2893301    4.2893301    4.2893301    9792.6495    8614.0983    11246.655     9517.195   -1003.0177   -2590.0988   -3931.4694    78.916609 
     100    193.48451   -106.34665   0.17506885   -106.17159    2301.3804    4.3032763    4.3032763    4.3032763    2301.3804   -4489.8039    19827.572   -8433.6265    1892.9726    14526.051    9141.4814    79.688875 
     200    565.57426   -106.48002   0.51174348   -105.96828   -12304.099    4.3121857    4.3121857    4.3121857   -12304.099   -613.69957   -21333.443   -14965.156   -678.48632    8018.8111    683.06537    80.184857 
     300    679.31123   -106.42084   0.61465508   -105.80619    18916.616    4.2982196    4.2982196    4.2982196    18916.616    20608.728    29338.659    6802.4617    458.28769    1039.7323    1132.6959    79.408284 
     400    599.37392   -106.21937   0.54232612   -105.67704   -8411.6933    4.3082002    4.3082002    4.3082002   -8411.6933   -15874.283    1741.5307   -11102.328    967.92975    28692.152    13038.052    79.962731 
     500     1213.424   -106.67463    1.0979316    -105.5767    -3621.567    4.3184162    4.3184162    4.3184162    -3621.567   -5697.9922    5485.0725   -10651.781     -791.087   -9482.2641   -5361.6342    80.532927 
     600    390.04268   -105.89589   0.35291881   -105.54297    1004.4724     4.302848     4.302848     4.302848    1004.4724   -4883.4052    6018.0914    1878.7311    4280.4643    26302.576    11654.046    79.665082 
     700    826.47071   -106.27968   0.74780806   -105.53187   -7428.9659    4.3108521    4.3108521    4.3108521   -7428.9659   -1001.8919   -13896.585    -7388.421    497.47362    4348.3116    6322.5027    80.110488 
     800    1076.5978   -106.49773   0.97412836    -105.5236   -1644.2758    4.3197705    4.3197705    4.3197705   -1644.2758   -7468.7164    13224.525   -10688.636    3061.6881    39.986851    292.37912    80.608719 
     900    458.49889   -105.94799   0.41485943   -105.53313   -5555.8798    4.3072528    4.3072528    4.3072528   -5555.8798   -3966.9437   -8736.4905   -3964.2051    2610.5811    32911.624    9054.8356    79.909989 
    1000     1008.976   -106.43924   0.91294269    -105.5263    11122.986    4.3061478    4.3061478    4.3061478    11122.986    21365.454    10505.231    1498.2733   -973.26106   -11612.193    571.75434    79.848508 
    1100    574.53579   -106.05708   0.51985206   -105.53723   -13300.534     4.318235     4.318235     4.318235   -13300.534    -21024.85   -20803.345    1926.5926   -297.07067    25675.264    3780.1361    80.522792 
    1200    918.05845   -106.36679   0.83067858   -105.53611   -2575.8194    4.3104439    4.3104439    4.3104439   -2575.8194   -941.30917    3766.9838   -10553.133   -2648.5017    9675.8417    6730.5337    80.087729 
    1300     1052.333   -106.48289     0.952173   -105.53072    11448.841    4.3028218    4.3028218    4.3028218    11448.841    10087.131    7688.4925    16570.899   -3190.7858    1088.1506    1578.2399    79.663625 
    1400    329.75354   -105.84153   0.29836793   -105.54316   -20191.478    4.3201273    4.3201273    4.3201273   -20191.478   -10172.161   -31923.393    -18478.88   -1612.0642    31247.715    9157.0747    80.628694 
    1500    1075.2939   -106.50387   0.97294854   -105.53092    2128.0844    4.3094463    4.3094463    4.3094463    2128.0844    11970.994   -12334.703    6747.9618   -695.23531    3161.7177    5181.3032     80.03214 
    1600    684.04871   -106.15586   0.61894164   -105.53692    7669.1037    4.3009645    4.3009645    4.3009645    7669.1037   -5446.8238    8469.5831    19984.552     354.3977    16796.897    5485.3551    79.560513 
    1700    821.94824   -106.28242   0.74371604    -105.5387   -25996.235    4.3224102    4.3224102    4.3224102   -25996.235   -7916.1622   -28243.112    -41829.43    1523.6301    14413.233    16524.224    80.756585 
    1800    923.00927   -106.36911   0.83515818   -105.53395    14114.763    4.3059606    4.3059606    4.3059606    14114.763    14526.683   -6632.4773    34450.083    3682.5219   -9738.0407   -266.81609    79.838092 
    1900    473.77305   -105.97155   0.42867981   -105.54287   -7819.8114    4.3058365    4.3058365    4.3058365   -7819.8114     12953.47   -14722.216   -21690.689    2606.2683    26116.912     12258.15    79.831193 
    2000    1129.2811   -106.55465    1.0217973   -105.53285   -6958.2391    4.3180518    4.3180518    4.3180518   -6958.2391    2710.2175   -19198.119   -4386.8155    6848.1634   -6390.8741    5213.1863    80.512543 
    2100    592.78017   -106.07322   0.53635996   -105.53686   -10988.827    4.3107732    4.3107732    4.3107732   -10988.827   -13962.667    4816.6755   -23820.491   -5950.5576    14863.717    828.23836    80.106088 
    2200    730.34731   -106.19745   0.66083359   -105.53662   -5856.1054     4.302411     4.302411     4.302411   -5856.1054    15506.648   -19111.315   -13963.649    3479.4026    11524.491    10925.244    79.640815 
    2300    1034.0902   -106.46677   0.93566652   -105.53111    -5045.235    4.3201522    4.3201522    4.3201522    -5045.235   -4653.8684   -20552.915    10071.079    113.68779    4012.8186   -2358.4794     80.63009 
    2400    433.55054   -105.93302   0.39228564   -105.54073   -3915.6655    4.3117255    4.3117255    4.3117255   -3915.6655   -7655.3139    13970.939   -18062.622   -6586.9861    25826.324    2813.1572    80.159186 
    2500    1086.3193   -106.51211   0.98292452   -105.52919    9193.0087    4.3016864    4.3016864    4.3016864    9193.0087    24052.248   -2852.2421    6379.0198    1197.0508    1671.2441    9572.1298    79.600583 
    2600    567.99755   -106.05133   0.51393612    -105.5374   -15450.136    4.3217917    4.3217917    4.3217917   -15450.136   -9407.3751   -14126.121   -22816.911    1880.0772    10296.253   -6480.0172    80.721922 
    2700     919.6969   -106.36569   0.83216108   -105.53353   -463.68283    4.3019234    4.3019234    4.3019234   -463.68283    1387.1397    11292.865   -14071.053    -4937.863    9741.5617    13757.119    79.613737 
    2800     937.5317   -106.37975   0.84829838   -105.53145   -2168.9083    4.3158276    4.3158276    4.3158276   -2168.9083   -6688.4774   -14256.962    14438.714    2760.4947   -1363.0357   -6470.6167    80.388193 
    2900    486.21242   -105.97597   0.43993521   -105.53603   -15206.979    4.3127182    4.3127182    4.3127182   -15206.979   -19947.346    10835.566   -36509.156    679.54146     20127.98    364.27439    80.214567 
    3000    936.21146   -106.37449    0.8471038   -105.52739    20228.081    4.2998886    4.2998886    4.2998886    20228.081    41351.223     -5813.67    25146.691    2989.0437    2738.4845    1181.9216    79.500821 
    3100    726.50422   -106.19198   0.65735629   -105.53462   -20048.045    4.3242143    4.3242143    4.3242143   -20048.045   -20795.654   -16977.112   -22371.369    5740.8066     6618.567   -5762.0601    80.857744 
    3200    924.50679   -106.36687   0.83651317   -105.53036    5472.9941    4.3027775    4.3027775    4.3027775    5472.9941    9754.4221    14809.174    -8144.614    496.35655    18008.943    3953.7639     79.66117 
    3300    805.91909   -106.25931   0.72921253    -105.5301   -11568.809    4.3173847    4.3173847    4.3173847   -11568.809   -11020.557   -15391.597   -8294.2737    7279.6099   -7032.7164   -5434.1315    80.475234 
    3400    594.69876   -106.07199   0.53809594    -105.5339   -13863.401    4.3108056    4.3108056    4.3108056   -13863.401   -9311.7375    2096.3967   -34374.861    2440.4046    24113.783    -2184.936    80.107893 
    3500    976.47337   -106.41389   0.88353362   -105.53036     18130.51    4.3022066    4.3022066    4.3022066     18130.51    30408.825    251.96658    23730.739   -114.64692    4996.1853    2033.0883    79.629462 
    3600    682.95263   -106.15497   0.61794989   -105.53702   -23457.052    4.3213559    4.3213559    4.3213559   -23457.052   -30785.523   -15100.786   -24484.846    11540.851    4249.2331   -5119.2036    80.697504 
    3700    731.14625    -106.1922   0.66155649   -105.53064    16736.984    4.3035827    4.3035827    4.3035827    16736.984    26730.284    11238.522    12242.147   -860.43211    18450.766    772.58261    79.705896 
    3800    966.24345   -106.40435   0.87427738   -105.53008   -12616.911    4.3175186    4.3175186    4.3175186   -12616.911   -7379.6689   -21243.017   -9228.0483    7832.6984   -9416.6086    1618.7222    80.482722 
    3900    570.78767   -106.05273   0.51646068   -105.53627    3805.6899    4.3058567    4.3058567    4.3058567    3805.6899    17442.909    3281.9682   -9307.8071    4410.8436    17035.439      -2818.8    79.832312 
    4000      1067.83   -106.49822   0.96619507   -105.53203    5485.3507    4.3105354    4.3105354    4.3105354    5485.3507   -2285.5562    18767.594   -25.986118    1471.6764    6965.3642    1089.2814    80.092833 
    4100    612.23745   -106.09101   0.55396531   -105.53704   -21542.575    4.3187384    4.3187384    4.3187384   -21542.575   -20562.465   -19653.694   -24411.566    19471.798    852.56049   -5128.4134    80.550955 
    4200    770.44538   -106.22844   0.69711517   -105.53132    18490.998    4.2949551    4.2949551    4.2949551    18490.998    25196.591    16026.562     14249.84   -8557.5124    20073.248   -2276.2252    79.227486 
    4300    925.32524   -106.36805   0.83725373   -105.53079   -10912.277    4.3232848    4.3232848    4.3232848   -10912.277   -15408.405   -16765.566   -562.85983    15126.065   -4679.9775    -5117.434    80.805617 
    4400    657.20741   -106.12846   0.59465507    -105.5338   -1733.2049    4.3089241    4.3089241    4.3089241   -1733.2049     5232.629    3284.6799   -13716.924    7348.4759    16625.132   -1412.0492    80.003048 
    4500    944.27123   -106.38223   0.85439646   -105.52783     16338.59    4.3008135    4.3008135    4.3008135     16338.59    9197.2442    28764.949    11053.576   -3120.3143    5116.0663   -4804.4924    79.552132 
    4600    651.05189   -106.12315   0.58908543   -105.53407   -14636.305    4.3198964    4.3198964    4.3198964   -14636.305   -3248.4185   -28004.436   -12656.061    20306.146    4596.9572    4768.6976    80.615769 
    4700    930.80196   -106.37392   0.84220918   -105.53171    1072.1633    4.3063833    4.3063833    4.3063833    1072.1633   -7130.9396    12805.658   -2458.2286   -4521.3716    16150.355   -8086.5464     79.86161 
    4800    764.40192   -106.22341   0.69164693   -105.53176    7130.7029     4.311085     4.311085     4.311085    7130.7029    9760.4388    16186.309   -4554.6396    10643.728   -7093.0314    366.19643    80.123471 
    4900    666.61851   -106.13933   0.60317043   -105.53616   -14829.972    4.3133045    4.3133045    4.3133045   -14829.972   -15504.756   -6583.3504   -22401.808    11190.076    17573.494   -2219.1599    80.247285 
    5000     893.2837   -106.34156   0.80826186    -105.5333    9861.6896    4.3096694    4.3096694    4.3096694    9861.6896    6407.7108    12455.703    10721.655    1668.1899    9945.7469   -4954.4329    80.044571 
    5100    758.15367   -106.22267   0.68599337   -105.53668    317.97143    4.3104879    4.3104879    4.3104879    317.97143   -915.40639    13.663619    1855.6571     15308.46    5049.8103    4474.8656    80.090187 
    5200    824.94849   -106.28077   0.74643073   -105.53434   -715.71893    4.3129297    4.3129297    4.3129297   -715.71893   -8885.1868    11463.549   -4725.5191   -4732.1604    22504.043    -4858.374    80.226372 
    5300    862.47039   -106.31046   0.78038134   -105.53008     2858.686    4.3130645    4.3130645    4.3130645     2858.686    498.82877    19139.593   -11062.364    7576.7041   -7989.8785    1050.0163    80.233893 
    5400    630.51695   -106.10644   0.57050499   -105.53594   -3022.6337    4.3062907    4.3062907    4.3062907   -3022.6337   -16696.768   -4200.6063    11829.474     3938.033     18176.39    1541.1639    79.856457 
    5500    1041.2471   -106.47454   0.94214224    -105.5324     2733.894     4.314457     4.314457     4.314457     2733.894    -4694.368     24156.71    -11260.66   -4071.0842    5091.5829   -1931.1527    80.311629 
    5600    625.06535   -106.10113   0.56557226   -105.53555   -4424.2543    4.3150307    4.3150307    4.3150307   -4424.2543   -13689.886    10767.138   -10350.015    12248.577     -1455.98   -1181.8765    80.343669 
    5700    735.07155   -106.19842   0.66510818   -105.53332    1652.6546    4.3044112    4.3044112    4.3044112    1652.6546    936.82153    8765.1502   -4744.0078   -1550.2556    22396.809    5966.9617     79.75194 
    5800    1028.3789   -106.46019   0.93049883   -105.52969    9409.0033    4.3137135    4.3137135    4.3137135    9409.0033    1436.4664    16603.684    10186.859    5261.4408    -11253.87   -2065.7811    80.270116 
    5900    624.73802   -106.10276   0.56527609   -105.53748   -12886.021    4.3157289    4.3157289    4.3157289   -12886.021   -25070.754   -7871.1502   -5716.1587     10454.44    12563.613    3722.3658    80.382676 
    6000    937.92526   -106.37935   0.84865448    -105.5307    14067.403    4.3065209    4.3065209    4.3065209    14067.403    7257.4174    27369.329    7575.4636   -383.81968    10380.128    -2070.722    79.869263 
    6100     722.6919   -106.18805   0.65390682   -105.53414    1863.3089    4.3128966    4.3128966    4.3128966    1863.3089   -1418.8707    9825.5634    -2816.766    10208.144   -2218.7065    1460.9785    80.224524 
    6200    723.88794   -106.19356   0.65498902   -105.53857   -12172.799    4.3138842    4.3138842    4.3138842   -12172.799   -18542.636   -15109.467   -2866.2937    5597.2861    26424.249   -274.44341    80.279646 
    6300    1137.0471    -106.5593    1.0288241   -105.53047    10206.954    4.3073454    4.3073454    4.3073454    10206.954    2708.2191    33189.341   -5276.6967   -2964.5359   -5429.0629    3167.3216    79.915147 
    6400    391.68408   -105.89625   0.35440399   -105.54185   -5409.2138    4.3130428    4.3130428    4.3130428   -5409.2138   -1419.8171   -1125.1359   -13682.688    10584.398    16125.263    5140.5793    80.232682 
    6500     946.8251   -106.39401   0.85670724   -105.53731   -8352.2513    4.3156147    4.3156147    4.3156147   -8352.2513    -4944.247    -1499.863   -18612.644    -800.8432    13185.268   -4474.1481    80.376297 
    6600    1014.3242    -106.4514   0.91778189   -105.53362    21922.813    4.3023081    4.3023081    4.3023081    21922.813     28526.96    20420.211    16821.266    990.72191    -5703.959    10256.136    79.635102 
    6700    523.56482   -106.01778   0.47373245   -105.54405   -21662.158    4.3190367    4.3190367    4.3190367   -21662.158    -33305.24   -15310.527   -16370.707    6831.3724    26897.652   -2078.0617    80.567646 
    6800    993.00441   -106.43173   0.89849126   -105.53324     3246.197    4.3120205    4.3120205    4.3120205     3246.197    9049.4702    12039.452   -11350.331   -1178.7651   -14195.308    1237.1038    80.175643 
    6900    686.67829   -106.15776   0.62132095   -105.53644     15949.84     4.300873     4.300873     4.300873     15949.84    24803.856    18143.873    4901.7925    9788.7322    12115.139    5101.9868    79.555433 
    7000    762.95197   -106.23063   0.69033497    -105.5403   -9999.8372    4.3235861    4.3235861    4.3235861   -9999.8372   -9447.9576   -5297.8097   -15253.744    12643.682    10786.344   -1429.5793    80.822513 
    7100    998.81253    -106.4342   0.90374657   -105.53045     7512.635    4.3086546    4.3086546    4.3086546     7512.635    18283.298    14466.159   -10211.552   -3099.1763   -4381.6881   -2156.0177    79.988038 
    7200    336.20449   -105.84372   0.30420489   -105.53952   -9516.2327    4.3100807    4.3100807    4.3100807   -9516.2327   -8703.4607    4175.7014   -24020.939    13203.885     28156.36    2087.1191    80.067491 
    7300    1197.9565   -106.61509    1.0839362   -105.53116   -2954.9958     4.310097     4.310097     4.310097   -2954.9958    9463.9212    -9106.795   -9222.1136    4341.7051   -774.61208   -7199.4495    80.068398 
    7400    836.53805   -106.29268   0.75691721   -105.53576    797.80116     4.312267     4.312267     4.312267    797.80116    4025.9069    453.26229   -2085.7657    4509.2711    19029.075    -2205.048    80.189392 
    7500     595.3815   -106.07703   0.53871369   -105.53832   -18645.619    4.3179853    4.3179853    4.3179853   -18645.619   -27971.345   -2853.0281   -25112.484    17964.512    11522.634    819.08076    80.508822 
    7600    892.07126   -106.33732   0.80716482   -105.53015    26888.225    4.2966281    4.2966281    4.2966281    26888.225    43142.534     28602.54    8919.6013   -7574.0774   -1752.7535   -3743.0352    79.320109 
    7700    601.10354   -106.08421   0.54389112   -105.54032   -17652.266    4.3280024    4.3280024    4.3280024   -17652.266   -32872.964    6752.0505   -26835.885    17383.565    25514.035   -3574.0555    81.070428 
    7800    1095.8443   -106.52217   0.99154292   -105.53063    3785.0387    4.3055566    4.3055566    4.3055566    3785.0387    12103.508   -4837.9174    4089.5252    2829.0607   -13055.024    887.37132    79.815623 
    7900    570.27159   -106.04615   0.51599372   -105.53016    11368.866    4.2978506    4.2978506    4.2978506    11368.866    10869.621    35526.738    -12289.76    415.10775    20222.649   -5696.7571    79.387835 
    8000    712.83183   -106.17256   0.64498522   -105.52757   -34487.057    4.3305294    4.3305294    4.3305294   -34487.057    -40422.03    -23328.57   -39710.572    12486.765    7503.9781    2295.3109    81.212517 
    8100    1084.6725   -106.50666    0.9814345   -105.52523    19297.495    4.2958606    4.2958606    4.2958606    19297.495    26845.678    14412.349    16634.459   -3459.0584   -6073.6577   -2954.9409    79.277608 
    8200    684.57434   -106.15822   0.61941725   -105.53881   -4386.4272    4.3125698    4.3125698    4.3125698   -4386.4272   -17368.613    16764.705   -12555.373      3176.96    26668.333    4224.7228    80.206284 
    8300    902.54601   -106.34423    0.8166426   -105.52759    -5252.542    4.3174029    4.3174029    4.3174029    -5252.542   -4174.1229   -23.833509    -11559.67    11232.229   -4992.4865    -3358.658    80.476251 
    8400    533.54234   -106.01417   0.48276032   -105.53141    13161.825    4.3009328    4.3009328    4.3009328    13161.825    21988.773    23365.841   -5869.1394    2614.0111    18469.929   -5039.2169    79.558752 
    8500    958.14191   -106.39732   0.86694693   -105.53037   -13956.544    4.3192979    4.3192979    4.3192979   -13956.544   -20822.507   -7594.4406   -13452.685    14621.323    13142.072   -416.30078    80.582267 
    8600    994.88912   -106.43029   0.90019658   -105.53009    14267.814    4.3039372    4.3039372    4.3039372    14267.814    24950.799   -2143.7057    19996.349    6907.0687    9011.1878    -11500.72    79.725595 
    8700     520.3212   -106.01053   0.47079755   -105.53973   -16773.062    4.3165416    4.3165416    4.3165416   -16773.062   -22200.305    5007.2498    -33126.13   -1110.8952    24507.772   -1730.5305    80.428095 
    8800     949.7617   -106.39164   0.85936435   -105.53227    9337.9111    4.3074054    4.3074054    4.3074054    9337.9111    19579.994    5884.2234    2549.5164     6483.101    -6022.742   -1113.9213    79.918484 
    8900    739.00549   -106.20849   0.66866769   -105.53982    5116.4462     4.302465     4.302465     4.302465    5116.4462    1024.0107    10261.094     4064.234    1301.0211    24232.068   -12606.088     79.64381 
    9000    950.73744   -106.39765   0.86024721   -105.53741   -7018.4584    4.3204923    4.3204923    4.3204923   -7018.4584   -6038.0745   -4150.3297   -10866.971   -3270.7666    1923.4244   -2586.2012    80.649136 
    9100    777.20482   -106.23597   0.70323126   -105.53274    13124.091    4.3041534    4.3041534    4.3041534    13124.091     17581.87    3614.9701    18175.434   -1147.0962    6030.7904   -1611.4874     79.73761 
    9200    428.18558    -105.9285   0.38743131   -105.54107   -24900.824    4.3138232    4.3138232    4.3138232   -24900.824   -32741.922    7722.1942   -49682.744   -688.30273    29314.368   -7352.1176    80.276238 
    9300    1125.7466   -106.54877    1.0185992   -105.53017    8656.4216    4.3098605    4.3098605    4.3098605    8656.4216    15230.264   -11844.742    22583.743   -13717.309   -14924.735    3746.1768    80.055215 
    9400     816.0186   -106.27663   0.73835078   -105.53828   -12425.601    4.3084312    4.3084312    4.3084312   -12425.601   -17188.114    6455.8383   -26544.528    7888.4598    40722.605    2082.4457    79.975598 
    9500    649.95516   -106.12522   0.58809309   -105.53713   -10828.775    4.3157458    4.3157458    4.3157458   -10828.775   -1053.5348   -12548.956   -18883.834   -11851.518    6004.6986   -1992.8377     80.38362 
    9600    779.74051   -106.23679    0.7055256   -105.53126    6378.8133    4.3061104    4.3061104    4.3061104    6378.8133   -3071.9474    10510.219    11698.168   -4559.3199    10131.658    2525.4059    79.846426 
    9700     649.4498   -106.12714   0.58763583    -105.5395   -20970.158    4.3122967    4.3122967    4.3122967   -20970.158   -28992.967   -8420.9211   -25496.586    3824.5526    34699.297    1297.5857    80.191052 
    9800     1155.414   -106.57663    1.0454428   -105.53118   -5207.5967    4.3145405    4.3145405    4.3145405   -5207.5967   -6107.6288   -18549.247    9034.0859   -12536.109   -9298.9261   -1709.0669    80.316294 
    9900    579.06762   -106.06082   0.52395255   -105.53687   -11124.951    4.3090991    4.3090991    4.3090991   -11124.951   -28737.457    21832.949   -26470.345    1812.0311    29095.881   -1159.0639    80.012798 
   10000    728.54099   -106.19419    0.6591992   -105.53499   -10629.738    4.3053041    4.3053041    4.3053041   -10629.738   -6690.5725   -12452.945   -12745.697    -2897.751    3924.9643   -10073.648     79.80158 
   10100    790.74731   -106.24882   0.71548479   -105.53333    1687.4598    4.3176073    4.3176073    4.3176073    1687.4598   -15778.495    2864.4019    17976.473   -11503.082    4041.5394    4026.1192    80.487683 
   10200    948.84866   -106.39326   0.85853821   -105.53472   -8198.2253    4.3082091    4.3082091    4.3082091   -8198.2253   -21445.421    4112.2035   -7261.4588    3648.3074    19898.863   -11087.679    79.963228 
   10300    806.20261   -106.26385   0.72946906   -105.53439    5165.3065    4.3069587    4.3069587    4.3069587    5165.3065    10724.026   -13014.217     17786.11   -12479.091    -9952.833   -10958.695    79.893626 
   10400    584.73698   -106.06418   0.52908231    -105.5351    -13983.63      4.31663      4.31663      4.31663    -13983.63   -37165.249    22319.498    -27105.14   -5743.3054    17944.448    4921.6912    80.433038 
   10500    876.69317   -106.32439    0.7932504   -105.53114    5810.2468    4.3064136    4.3064136    4.3064136    5810.2468   -715.61589   -10309.916    28456.273    130.73797    1381.7801   -11347.123    79.863293 
   10600    932.76094   -106.37885    0.8439817   -105.53487   -10289.922    4.3140319    4.3140319    4.3140319   -10289.922   -12854.215   -11926.644   -6088.9058   -14175.333   -3059.0635    -9335.235    80.287895 
   10700     711.1733    -106.1779   0.64348454   -105.53441    6521.3129    4.3085139    4.3085139    4.3085139    6521.3129   -19738.484    27145.014    12157.409    588.27077    18478.723    5674.0754    79.980201 
   10800    842.67524   -106.29562   0.76247027   -105.53315   -15324.649    4.3138856    4.3138856    4.3138856   -15324.649   -3805.7263   -24668.302   -17499.921   -4748.5962   -5687.7187   -16664.679    80.279722 
   10900    554.04754   -106.03862   0.50131386   -105.53731    8874.1703    4.3086464    4.3086464    4.3086464    8874.1703    -14773.67    23412.601    17983.579   -8776.5706    10872.481    897.25959    79.987578 
   11000    1180.4923   -106.60213    1.0681343   -105.53399    -2218.803    4.3092039    4.3092039    4.3092039    -2218.803   -2843.3787   -4219.1487    406.11853    7870.7559     8980.221   -1377.9676    80.018636 
   11100    713.82831   -106.17998   0.64588685   -105.53409   -17077.535    4.3180462    4.3180462    4.3180462   -17077.535   -10918.163    -22518.34   -17796.103   -8566.7983   -1476.2432   -10100.671     80.51223 
   11200    647.51427   -106.11711   0.58588452   -105.53123    6784.2052    4.3021297    4.3021297    4.3021297    6784.2052   -14915.869    43097.345   -7828.8598    -763.5538    12419.083    2876.3669    79.625194 
   11300    886.27746   -106.33772   0.80192247    -105.5358   -2956.6313    4.3114793    4.3114793    4.3114793   -2956.6313   -3122.9683   -21082.759    15335.833    6121.8192   -536.71951   -3691.6304    80.145457 
   11400     823.2789   -106.28207   0.74492005   -105.53715    -3641.098    4.3159578    4.3159578    4.3159578    -3641.098   -26358.783    7750.0813     7685.408   -11629.994    10589.257   -2013.3232    80.395465 
   11500    842.16528   -106.29439   0.76200884   -105.53238     3042.313    4.3055963    4.3055963    4.3055963     3042.313   -10945.861     8429.786    11643.014    9851.3008     5280.832   -4770.9227    79.817831 
   11600    655.70231   -106.12848   0.59329323   -105.53519   -11842.387    4.3104745    4.3104745    4.3104745   -11842.387   -12286.932   -5321.1565   -17919.072     -1919.12   -554.35673   -10507.025    80.089438 
   11700    806.73257   -106.26645   0.72994859    -105.5365   -946.66813    4.3134489    4.3134489    4.3134489   -946.66813   -19881.386    18180.137   -1138.7555   -3251.2603    10619.716    3516.1674    80.255344 
   11800     970.1918   -106.41403   0.87784993   -105.53618   -2992.1237    4.3104591    4.3104591    4.3104591   -2992.1237   -10212.994   -21398.806    22635.429     14511.01   -3476.4629   -9983.4401    80.088578 
   11900    709.92815   -106.17936   0.64235791   -105.53701    8959.4313    4.3059635    4.3059635    4.3059635    8959.4313   -7385.6577    23259.753    11004.199    -6453.797    6790.2584   -7938.2231    79.838255 
   12000    758.77066   -106.22232   0.68655164   -105.53576   -13770.449    4.3169242    4.3169242    4.3169242   -13770.449   -24499.639   -8545.9643   -8265.7425    12759.642    3648.5156    4997.9612    80.449484 
   12100     801.6141   -106.26033   0.72531728   -105.53501    1978.1606    4.3077228    4.3077228    4.3077228    1978.1606   -2776.6636   -4664.8482    13375.994    9966.3919    -381.1562   -11376.361    79.936156 
   12200    920.44209   -106.36723   0.83283534   -105.53439    8501.5793    4.3074891    4.3074891    4.3074891    8501.5793   -15558.937    15639.086    25424.589   -2397.4195    5314.2584    5749.7812    79.923142 
   12300    794.53728   -106.25191   0.71891402     -105.533   -15403.546    4.3167567    4.3167567    4.3167567   -15403.546   -31410.546   -23110.292    8310.1997     20787.98   -5675.0885    2069.5845    80.440122 
   12400    574.12521    -106.0519   0.51948055   -105.53242    9004.9668    4.3060814    4.3060814    4.3060814    9004.9668    -4548.826     18814.77    12748.956   -5781.0369    7198.0848   -6314.7305    79.844813 
   12500    1038.4544   -106.47135   0.93961535   -105.53173   -7505.0138     4.310558     4.310558     4.310558   -7505.0138   -18438.353   -9716.8111     5640.123    14336.201   -1358.9384    5570.0686    80.094089 
   12600    737.18144   -106.20083   0.66701726   -105.53382    5786.0764    4.3132346    4.3132346    4.3132346    5786.0764   -17139.977     -13703.2    48201.406    6625.4137   -1846.7889   -4219.3027    80.243387 
   12700      765.213   -106.22715   0.69238081   -105.53477   -2537.5359     4.310964     4.310964     4.310964   -2537.5359   -17924.222     10467.04   -155.42569    2390.2675    8133.0448   -8279.8356    80.116728 
   12800    834.82246     -106.289    0.7553649   -105.53363     7959.607    4.3075548    4.3075548    4.3075548     7959.607    1504.3214   -15729.313    38103.813    14796.563   -2815.7496    152.21066    79.926802 
   12900    717.22512   -106.18633   0.64896036   -105.53737   -3173.0046    4.3149948    4.3149948    4.3149948   -3173.0046   -7612.7248    6155.6756   -8061.9645   -1222.5089     7517.598   -4712.2119    80.341666 
   13000    916.89437   -106.36266   0.82962529   -105.53303    2993.4454    4.3096743    4.3096743    4.3096743    2993.4454    1965.8873   -10326.882    17341.331    12329.396    3273.1822   -6624.6931    80.044844 
   13100    735.61927   -106.19856   0.66560378   -105.53295    3314.8603    4.3067735    4.3067735    4.3067735    3314.8603   -13188.017    5567.8897    17564.709    3753.5365    1374.1075   -5745.2703     79.88332 
   13200    634.95666   -106.11372   0.57452213   -105.53919   -10329.419    4.3129349    4.3129349    4.3129349   -10329.419   -102.93821   -8626.5035   -22258.814     2705.672    4711.8085   -1787.1211    80.226661 
   13300    1162.9433   -106.58465    1.0522556   -105.53239    6872.8936    4.3077898    4.3077898    4.3077898    6872.8936    3805.0034   -12178.975    28992.653    7880.2576   -473.71476    800.10386    79.939883 
   13400    513.97182   -106.00703    0.4650525   -105.54198    -9925.162    4.3162968    4.3162968    4.3162968    -9925.162   -26444.289    971.27259   -4302.4692   -1912.7457   -1375.9496   -5803.6614    80.414412 
   13500    829.65172   -106.28624   0.75068631   -105.53555   -2346.2113    4.3086017    4.3086017    4.3086017   -2346.2113    2148.8696   -17299.107    8111.6035    4036.1018    7484.1477    2898.6249    79.985091 
   13600    925.08408   -106.37059   0.83703551   -105.53355    19.794367    4.3096233    4.3096233    4.3096233    19.794367   -3591.6559    11610.374   -7959.3352   -786.18102   -12829.735   -2797.3327       80.042 
   13700    579.52737   -106.06503   0.52436854   -105.54066   -17225.241    4.3144064    4.3144064    4.3144064   -17225.241   -4543.1783   -20092.861   -27039.683    1363.4041     8429.699   -3893.9042    80.308805 
   13800     1081.489   -106.50863   0.97855395   -105.53008    11457.542    4.3044412    4.3044412    4.3044412    11457.542    2756.6038   -2455.8595    34071.881   -2272.3805   -5265.0495    5860.9639    79.753609 
   13900    490.25443   -105.98376   0.44359251   -105.54016   -8933.8153    4.3151718    4.3151718    4.3151718   -8933.8153   -28151.571    8387.9601   -7037.8349    973.75821   -10214.456   -10595.624    80.351553 
   14000    925.52308   -106.37283   0.83743274    -105.5354   -3765.7044    4.3119575    4.3119575    4.3119575   -3765.7044    10432.807   -21149.831   -580.08985   -1550.9071    9807.1413   -1750.9956    80.172129 
   14100    948.14106   -106.39025   0.85789795   -105.53235    3333.9257    4.3105415    4.3105415    4.3105415    3333.9257   -13154.367    11861.131    11295.013   -2803.4581   -17669.746   -591.01456     80.09317 
   14200     547.7886   -106.03338   0.49565063   -105.53773   -9652.4285    4.3086061    4.3086061    4.3086061   -9652.4285   -22535.312    1762.7822   -8184.7559   -3101.1765    1063.1884   -7977.0886    79.985337 
   14300    938.53631   -106.38254   0.84920738   -105.53333    7131.4846    4.3105649    4.3105649    4.3105649    7131.4846     1519.817   -6923.0106    26797.648   -2916.1758   -2865.6143   -794.15877    80.094476 
   14400    841.63063   -106.29783   0.76152509    -105.5363   -3653.0019    4.3142445    4.3142445    4.3142445   -3653.0019   -16478.549    13057.799   -7538.2563   -3485.8713   -10962.245   -5930.1565    80.299761 
   14500    811.83395   -106.26956   0.73456442   -105.53499    4592.9217    4.3086016    4.3086016    4.3086016    4592.9217    3353.5651   -14080.771    24505.971   -6781.5033    4405.1741   -6563.1071    79.985084 
   14600    741.51152   -106.20556    0.6709352   -105.53462    9908.8034    4.3079533    4.3079533    4.3079533    9908.8034   -19814.592    22070.491    27470.512    2907.0262   -10612.164    4135.6575    79.948985 
   14700    724.10987   -106.19265   0.65518983   -105.53746    1112.3753    4.3119012    4.3119012    4.3119012    1112.3753   -13537.802   -1826.5182    18701.446   -8728.4036   -3865.2654   -9172.7059    80.168988 
   14800    997.56881   -106.43579   0.90262122   -105.53317   -1522.7597    4.3147443    4.3147443    4.3147443   -1522.7597    3825.1386   -18171.181    9777.7638    2430.6412    2992.1602   -3232.1443    80.327672 
   14900    757.91238   -106.21916   0.68577505   -105.53338    11699.975    4.3013878    4.3013878    4.3013878    11699.975   -11240.031    23993.221    22346.735    1803.4049   -10881.845    1663.7863    79.584009 
   15000    786.21678   -106.24778   0.71138546   -105.53639   -4196.4694    4.3152717    4.3152717    4.3152717   -4196.4694   -16209.349   -17179.352    20799.293    138.60347    6652.4167   -10978.102    80.357132 
   15100    746.21544   -106.21085   0.67519141   -105.53565   -4155.7529    4.3154223    4.3154223    4.3154223   -4155.7529   -11409.632    4124.9457   -5182.5727    7006.1112   -10962.698    8751.6172    80.365545 
   15200    977.90553   -106.41555   0.88482948   -105.53072    21725.274    4.2945607    4.2945607    4.2945607    21725.274    19916.318    12066.279    33193.226    6264.6963   -2284.0305   -8044.6554    79.205663 
   15300    733.73471   -106.20063   0.66389859   -105.53673   -12990.452    4.3198187    4.3198187    4.3198187   -12990.452   -9171.4922   -16282.731   -13517.131   -5030.6432   -6496.6992   -3357.1088    80.611418 
   15400    605.76617   -106.08291   0.54810996    -105.5348    -260.0503    4.3091582    4.3091582    4.3091582    -260.0503   -19577.062    17083.304     1713.608    5993.6509   -19098.273    8812.2344     80.01609 
   15500    1076.3695   -106.50374   0.97392179   -105.52982    9890.3283    4.3039791    4.3039791    4.3039791    9890.3283     25952.18     -2592.79     6311.595   -312.57245    1569.3405   -17035.803    79.727924 
   15600    761.39683   -106.22514   0.68892786   -105.53621   -10870.167    4.3158623    4.3158623    4.3158623   -10870.167   -3062.3068   -5954.7955     -23593.4   -26.142026   -23185.451    8467.8629     80.39013 
   15700    763.46146   -106.22432   0.69079598   -105.53352    13444.242    4.3029639    4.3029639    4.3029639    13444.242     5964.062    17423.029    16945.635    4386.8527   -5417.3219   -5364.2939    79.671519 
   15800    772.30075    -106.2321   0.69879395   -105.53331   -7574.8521    4.3157844    4.3157844    4.3157844   -7574.8521   -518.24526   -3356.1335   -18850.177   -1987.5929   -2216.9001   -6425.8001    80.385778 
   15900    692.10892   -106.16401    0.6262347   -105.53778    9229.0799    4.3022051    4.3022051    4.3022051    9229.0799    12546.379    18026.476   -2885.6158    3433.2624   -21463.478    8841.8734    79.629379 
   16000    1083.9498   -106.51598   0.98078053    -105.5352     7229.999    4.3121658    4.3121658    4.3121658     7229.999    22920.467   -4417.4006    3186.9311   -800.02377    8700.8529   -9357.8918    80.183749 
   16100    601.86866   -106.08315   0.54458341   -105.53857   -15847.719    4.3153777    4.3153777    4.3153777   -15847.719   -14833.455    -3339.645   -29370.058    2777.1704   -12372.313    89.145527    80.363054 
   16200    639.57686   -106.11213   0.57870259   -105.53343    19748.451    4.2957889    4.2957889    4.2957889    19748.451    9017.1744    24495.495    25732.683    6255.4148   -15091.076    3554.4953    79.273638 
   16300    1206.7383   -106.62211    1.0918822   -105.53023   -8137.7623    4.3189077    4.3189077    4.3189077   -8137.7623    4074.0887   -10314.626    -18172.75   -6178.9955    9480.2224   -8611.2638    80.560429 
   16400    565.33833    -106.0502      0.51153   -105.53867    8666.2409    4.3055375    4.3055375    4.3055375    8666.2409    9568.1651     17981.89   -1551.3321    6706.1892   -26698.989    5091.9624    79.814559 
   16500    897.09036   -106.34324   0.81170621   -105.53154    11727.623    4.3074458    4.3074458    4.3074458    11727.623    417.05736    7727.8006    27038.012    9810.7496    5750.9055    464.02603    79.920735 
   16600     742.8948   -106.20586   0.67218683   -105.53367   -2288.5471    4.3137166    4.3137166    4.3137166   -2288.5471    -5586.786    8835.1868   -10114.042   -4780.4856   -15375.026   -2218.6235    80.270287 
   16700    744.79343   -106.21245   0.67390475   -105.53855    12776.155    4.3014923    4.3014923    4.3014923    12776.155    12368.314    3941.4528    22018.697    22024.443   -15786.192    7037.0202    79.589807 
   16800    1162.7862    -106.5856    1.0521134   -105.53348    216.11586    4.3149905    4.3149905    4.3149905    216.11586   -1794.5502   -1786.2217    4229.1194    416.17258     10306.35    679.27296    80.341428 
   16900    495.27505   -105.98696   0.44813527   -105.53883     3976.679    4.3059074    4.3059074    4.3059074     3976.679   -12077.579     13329.96    10677.656    3100.8481   -31657.644   -1185.7346    79.835136 
   17000    797.80771   -106.25835   0.72187318   -105.53648    2464.8233    4.3115086    4.3115086    4.3115086    2464.8233   -9976.4669   -168.45453    17539.391    14760.804    10209.888    8165.5748    80.147092 
   17100    1062.1727   -106.49572   0.96107618   -105.53465    16095.059    4.3046994    4.3046994    4.3046994    16095.059    13614.468    22108.989    12561.719     -3718.78   -14534.803   -5173.1069    79.767962 
   17200    709.86742   -106.18579   0.64230296   -105.54349    4343.3229    4.3063161    4.3063161    4.3063161    4343.3229    6004.1941     2971.883    4053.8915    9715.8279   -18058.595    4307.3106    79.857867 
   17300    749.00255   -106.21289   0.67771325   -105.53518    -10675.22    4.3191798    4.3191798    4.3191798    -10675.22   -22741.834   -7116.7401   -2167.0868    2399.8911    9028.4942   -5587.8837    80.575654 
   17400    796.20518    -106.2532   0.72042318   -105.53278    14014.129    4.2977408    4.2977408    4.2977408    14014.129    7236.9681     26930.02    7875.3972   -2974.8675   -22548.451   -2919.4792    79.381746 
   17500    956.10125     -106.402   0.86510051    -105.5369   -13637.155    4.3148607    4.3148607    4.3148607   -13637.155   -7625.6227   -21760.548   -11525.294    6506.9561   -1356.5527    1390.8529    80.334177 
   17600    774.97232   -106.23493   0.70121124   -105.53372    6095.0769    4.3083636    4.3083636    4.3083636    6095.0769    6004.4541    20702.218   -8421.4415   -1478.4151   -2427.6254   -8456.1484    79.971829 
   17700    671.01138   -106.14086    0.6071452   -105.53371   -2066.4485    4.3062678    4.3062678    4.3062678   -2066.4485    -9055.069    2680.3376    175.38606    9013.3289   -15592.318    4245.3064    79.855181 
   17800    772.77621   -106.23347   0.69922415   -105.53425   -4024.0905    4.3118427    4.3118427    4.3118427   -4024.0905    5084.5326   -4228.1659   -12928.638    9396.3182    6951.9194   -6423.9089    80.165727 
   17900    924.72402   -106.37224   0.83670972   -105.53553    5785.9535    4.3063238    4.3063238    4.3063238    5785.9535    16506.674    12634.403   -11783.217   -725.09423   -13683.801    2377.1703    79.858297 
   18000    921.74098   -106.36721   0.83401061    -105.5332     -19988.7    4.3158502    4.3158502    4.3158502     -19988.7   -23026.414   -21530.625   -15409.061    19826.561   -1326.2216   -3556.2986    80.389457 
   18100    481.96225   -105.97078   0.43608957   -105.53469    12067.184     4.300003     4.300003     4.300003    12067.184    18138.892    20141.167   -2078.5075   -4250.4093    106.91405   -7062.8861    79.507165 
   18200    928.16506    -106.3776   0.83982326   -105.53777   -7438.0435    4.3115684    4.3115684    4.3115684   -7438.0435   -6106.2753   -8272.2139   -7935.6413    7303.3404   -15707.164    2637.2823    80.150426 
   18300    819.50108   -106.27806    0.7415018   -105.53655    4281.5646    4.3122368    4.3122368    4.3122368    4281.5646    33406.904    405.88552   -20968.095    9881.7439    5144.2071   -11671.859    80.187709 
   18400    763.72759   -106.22725   0.69103677   -105.53621   -3255.2683    4.3050319    4.3050319    4.3050319   -3255.2683   -7703.0687    11071.167   -13133.903    -13858.42   -6847.8526    2273.2103    79.786446 
   18500    811.84645   -106.26912   0.73457573   -105.53455   -13996.583    4.3136915    4.3136915    4.3136915   -13996.583   -11360.233     -11398.7   -19230.817   -5889.6366   -4363.9663   -11010.022     80.26889 
   18600    787.37422   -106.24715   0.71243274   -105.53472    -1048.881    4.3055751    4.3055751    4.3055751    -1048.881    23198.641   -6397.1832   -19948.101    247.98429    5535.5954   -12297.787    79.816654 
   18700    876.26042   -106.32857   0.79285885   -105.53571   -18287.241    4.3142929    4.3142929    4.3142929   -18287.241   -18971.557   -12708.248   -23181.918   -19047.653   -13279.468    3768.8518    80.302468 
   18800    673.92649   -106.14427   0.60978285   -105.53448    4482.3675     4.304936     4.304936     4.304936    4482.3675    29767.423   -4886.0615   -11434.259    2045.9831   -4299.0795   -24934.101    79.781112 
   18900    884.01255   -106.33476   0.79987313   -105.53488   -7385.4423     4.306986     4.306986     4.306986   -7385.4423   -19622.415    7386.7809   -9920.6925   -1309.5639    -523.0264    4309.6473    79.895146 
   19000    605.77013   -106.08547   0.54811355   -105.53736    -17689.31    4.3175174    4.3175174    4.3175174    -17689.31   -7801.4688   -24868.532   -20397.928   -12118.288   -13487.253   -15583.575    80.482656 
   19100     1039.307   -106.47175    0.9403868   -105.53136    6382.6708    4.2987981    4.2987981    4.2987981    6382.6708     41553.63   -9225.4315   -13180.186    10398.576    2524.3858   -16802.551    79.440347 
   19200    743.10591   -106.20811   0.67237784   -105.53573   -15485.984    4.3150028    4.3150028    4.3150028   -15485.984   -33175.535     2529.492   -15811.909   -11334.904   -6680.1671    6550.1328    80.342114 
   19300    605.22179    -106.0844    0.5476174   -105.53679    -16275.76    4.3095242    4.3095242    4.3095242    -16275.76    790.64358   -28891.668   -20726.255   -1873.0386   -6891.2504   -30720.326    80.036478 
   19400    995.21078   -106.43094   0.90048762   -105.53045    9604.7913    4.3032433    4.3032433    4.3032433    9604.7913    8209.5809    17122.663    3482.1303   -7668.6914    1125.2769     4449.642    79.687044 
   19500    600.63538   -106.08125   0.54346752   -105.53778   -18148.379    4.3176889    4.3176889    4.3176889   -18148.379   -12735.218    -21325.87   -20384.049   -12428.643     -7046.23    -18644.17    80.492244 
   19600    880.87131   -106.32879   0.79703087   -105.53176    4744.5441    4.3038528    4.3038528    4.3038528    4744.5441    9490.1302    8914.9458   -4171.4437   -3716.0562      1227.06   -20879.528    79.720907 
   19700    921.38752   -106.36615   0.83369079   -105.53246    1873.8252    4.3095009    4.3095009    4.3095009    1873.8252   -8674.5021    16534.897   -2238.9196   -4033.8809    2244.3858    2053.7303    80.035178 
   19800    503.04246   -105.99607   0.45516338   -105.54091   -14368.603     4.309944     4.309944     4.309944   -14368.603   -4119.0401   -21228.626   -17758.142   -7639.8821   -4811.3197   -30593.866    80.059871 
   19900    1133.9016    -106.5592     1.025978   -105.53323    3861.3258    4.3116113    4.3116113    4.3116113    3861.3258    16122.415   -643.34542   -3895.0918    4731.1747    6033.0275    2811.6233    80.152817 
   20000    701.90693   -106.17476   0.63510014   -105.53966   -11831.178    4.3125334    4.3125334    4.3125334   -11831.178   -16212.328   -4407.5783   -14873.629   -6768.8324   -7551.8768   -17993.438    80.204253 
   20100    656.02998   -106.13344   0.59358971   -105.53985    8550.8432    4.2987975    4.2987975    4.2987975    8550.8432   -1541.7078    13502.545    13691.692    541.56891    605.30074   -20358.229    79.440316 
   20200    1055.2721   -106.48817   0.95483239   -105.53334     3409.991    4.3151926    4.3151926    4.3151926     3409.991    2544.5723    5458.8629     2226.538      5096.19   -3089.7065    6738.7429    80.352715 
   20300    364.42065   -105.87415   0.32973546   -105.54441   -5612.9095    4.3117099    4.3117099    4.3117099   -5612.9095   -8342.3355    -13895.59    5399.1968   -7486.1631   -4520.0045   -29859.871     80.15832 
   20400     1228.129   -106.64597    1.1112369   -105.53473    6256.4228    4.3035066    4.3035066    4.3035066    6256.4228    -464.3491     9964.029    9269.5884    2931.4662    -113.0839    8883.7562     79.70167 
   20500    810.42779   -106.27141   0.73329209   -105.53812    5767.0667    4.3110426    4.3110426    4.3110426    5767.0667   -7628.4628    15313.427    9616.2366   -5062.9159    -1043.882    -14841.08    80.121109 
   20600     440.5957   -105.94347   0.39866025   -105.54481   -14742.989    4.3137882    4.3137882    4.3137882   -14742.989   -16841.924   -37236.756     9849.714   -10515.978   -873.35407   -23406.661    80.274286 
   20700    1123.9032   -106.55017    1.0169312   -105.53324    12662.395    4.3049723    4.3049723    4.3049723    12662.395   -522.16674     16052.55    22456.801    791.44558    2383.2554     11577.19    79.783132 
   20800    677.60942   -106.15497   0.61311524   -105.54186   -740.97456    4.3084049    4.3084049    4.3084049   -740.97456   -1690.5382   -14704.259    14171.873   -5480.7415     -4538.23   -36198.066     79.97413 
   20900    895.82901   -106.34771   0.81056491   -105.53715   -8736.7284    4.3155045    4.3155045    4.3155045   -8736.7284   -28668.457   -4503.8163    6962.0887   -6084.0005    4116.4657    2754.7148    80.370141 
   21000    778.08286   -106.23641   0.70402572   -105.53238    14690.307    4.3007213    4.3007213    4.3007213    14690.307    16281.567    4314.3695    23474.985    3914.3906   -3916.1382   -12139.533    79.547018 
   21100    495.17832   -105.99134   0.44804775   -105.54329   -11293.608    4.3155193    4.3155193    4.3155193   -11293.608   -12911.376   -37146.676    16177.227   -10146.122    1548.5903   -26453.701    80.370967 
   21200    1162.4239   -106.58554    1.0517856   -105.53375    2823.9757    4.3110789    4.3110789    4.3110789    2823.9757   -18503.104    9412.2195    17562.811   -3462.9194    539.19461    8158.6915     80.12313 
   21300    623.75127     -106.103   0.56438326   -105.53862    4607.9747     4.301475     4.301475     4.301475    4607.9747    13564.825   -23997.514    24256.613   -4019.0553    839.41054   -28360.836    79.588846 
   21400    761.47136   -106.22652   0.68899529   -105.53752   -20620.641    4.3144826    4.3144826    4.3144826   -20620.641   -25315.861   -34421.432   -2124.6306   -13598.603   -5503.9175   -1344.7391    80.313056 
   21500    883.07643   -106.33467   0.79902611   -105.53564    5495.9073    4.3057276    4.3057276    4.3057276    5495.9073    2041.9813    2645.4173    11800.323    2391.6949    5249.1005   -5843.3442    79.825134 
   21600    733.08925   -106.20423   0.66331456   -105.54091   -3204.7786    4.3116221    4.3116221    4.3116221   -3204.7786    -4792.528   -21601.053    16779.245   -13524.305    2627.1315   -31010.915    80.153423 
   21700    932.20687   -106.37938   0.84348036    -105.5359    3294.8547    4.3068985    4.3068985    4.3068985    3294.8547   -17829.485    16560.021    11154.027    1741.1018    2161.7966    6872.1541    79.890272 
   21800    569.58943    -106.0567   0.51537649   -105.54132   -9645.9893    4.3076683    4.3076683    4.3076683   -9645.9893    15609.033    -36984.36   -7562.6404   -1995.1484    4806.0952   -27072.936    79.933121 
   21900    873.11488   -106.32706    0.7900127   -105.53705   -8975.6877    4.3147141    4.3147141    4.3147141   -8975.6877   -15461.757   -18414.798    6949.4917   -8263.0804   -5769.6767   -2358.8567    80.325986 
   22000    943.29153   -106.38773      0.85351   -105.53422    341.70105    4.3045849    4.3045849    4.3045849    341.70105   -3650.7002    6205.7322    -1529.929    5664.2577   -1050.6404    -4907.183    79.761596 
   22100     610.7576     -106.091   0.55262631   -105.53837   -10976.257    4.3100625    4.3100625    4.3100625   -10976.257    4678.8996   -33293.718   -4313.9529   -6978.7361    1049.3858   -23036.347    80.066476 
   22200    839.09065   -106.29207   0.75922685   -105.53285    -3370.617    4.3116779    4.3116779    4.3116779    -3370.617   -20746.133    2398.6716      8235.61   -3746.7927   -6153.0246    7427.1405    80.156536 
   22300    728.59417   -106.19732   0.65924732   -105.53808   -1861.4005    4.3055646    4.3055646    4.3055646   -1861.4005    1846.1078    3708.7159   -11139.025    4180.0359     7892.349   -17365.754    79.816068 
   22400     900.8414   -106.35253   0.81510023   -105.53743   -2759.4274    4.3086005    4.3086005    4.3086005   -2759.4274   -13009.985    -4696.286     9427.989   -7095.6774   -3257.5545    -4743.653    79.985022 
   22500    890.99911   -106.34145   0.80619472   -105.53526   -14834.824    4.3128194    4.3128194    4.3128194   -14834.824   -22101.881   -5079.8596   -17322.731    1105.2169    528.27112   -4815.5893    80.220214 
   22600     593.2609   -106.07554   0.53679493   -105.53875   -7919.4905    4.3081389    4.3081389    4.3081389   -7919.4905   -133.23241    -29114.84    5489.6007   -1682.7363    4338.0891   -21642.736    79.959319 
   22700    981.03583   -106.42347   0.88766183   -105.53581   -258.57012    4.3056658    4.3056658    4.3056658   -258.57012    -9169.426    12072.451   -3678.7349   -11886.959   -5561.9339    11348.082    79.821699 
   22800    691.24838   -106.16421   0.62545606   -105.53876   -225.27857    4.3130102    4.3130102    4.3130102   -225.27857   -13405.999    14200.283   -1470.1198   -729.45111    9174.1778   -8958.4142    80.230861 
   22900    845.45533   -106.29962   0.76498575   -105.53463    3719.5071    4.3056571    4.3056571    4.3056571    3719.5071    6890.3683   -1246.5186    5514.6715   -15191.868     120.2418   -4682.0478    79.821213 
   23000    713.57477   -106.18114   0.64565745   -105.53548   -1756.0928     4.313792     4.313792     4.313792   -1756.0928   -9863.3329    483.12589    4111.9287    257.15573   -757.90407    7978.2923      80.2745 
   23100    989.65228   -106.42715   0.89545818   -105.53169   -458.65237    4.3085294    4.3085294    4.3085294   -458.65237    7891.3937    2419.4639   -11686.815   -2659.4624    2393.7395   -16502.391    79.981064 
   23200    680.85608   -106.15094   0.61605289   -105.53488    10200.457    4.3049119    4.3049119    4.3049119    10200.457   -6080.8364    25774.051    10908.155   -8591.2217   -8111.7476    14336.812    79.779777 
   23300    705.77064   -106.17454    0.6385961   -105.53594   -5250.6066     4.313692     4.313692     4.313692   -5250.6066    -12590.19      -1031.1   -2130.5302    8312.5508   -2399.7106   -1014.7387    80.268914 
   23400    989.35363   -106.42761   0.89518796   -105.53243      4372.01    4.3049329    4.3049329    4.3049329      4372.01    3990.9223   -5768.5971    14893.705   -9414.4627   -161.10692   -3453.8155    79.780943 
   23500    625.10008   -106.10616   0.56560369   -105.54056   -2188.9251    4.3069943    4.3069943    4.3069943   -2188.9251   -15550.698    2174.1177    6809.8047   -7340.4275   -348.56902    11026.592    79.895606 
   23600    1079.7709   -106.51231   0.97699942   -105.53531   -764.98308    4.3078765    4.3078765    4.3078765   -764.98308    424.80624    10225.629   -12945.385    10005.877   -1915.2523   -3473.9898     79.94471 
   23700    614.66002   -106.09485    0.5561573    -105.5387    8049.2902     4.310302     4.310302     4.310302    8049.2902    -4070.364    6006.4526    22211.782   -15468.065    1311.7089    7199.9129    80.079823 
   23800    618.29175   -106.09991   0.55944337   -105.54047   -7822.3346    4.3093311    4.3093311    4.3093311   -7822.3346   -11217.564   -3284.5641   -8964.8761    11983.112    -3795.494    15775.515     80.02572 
   23900    1061.4588   -106.49438   0.96043025   -105.53395    10870.476    4.3036868    4.3036868    4.3036868    10870.476    9346.0299    13046.272    10219.125    -9103.794    1335.3488    -7006.987    79.711683 
   24000     653.2861   -106.13242   0.59110699   -105.54132   -20851.279    4.3153287    4.3153287    4.3153287   -20851.279   -24192.332   -19360.753   -19000.752   -13176.536    2293.8689     12737.72    80.360316 
   24100    937.92508   -106.38237   0.84865433   -105.53371    694.44288    4.3042762    4.3042762    4.3042762    694.44288    4279.0206   -649.65606   -1546.0359    3530.4583   -2044.8859    6861.1358    79.744435 
   24200    774.88474   -106.23548     0.701132   -105.53435    4666.8114     4.310679     4.310679     4.310679    4666.8114   -17615.467    23.666056    31592.235   -22307.701    3473.5523   -1707.5372    80.100839 
   24300    751.98223   -106.21855   0.68040933   -105.53814   -4274.8524    4.3072838    4.3072838    4.3072838   -4274.8524   -4353.8118     4902.771   -13373.517     2840.197    -9231.046    23301.519    79.911715 
   24400    845.29076   -106.29989   0.76483684   -105.53505    14432.744    4.3062564    4.3062564    4.3062564    14432.744    8013.9012    31204.631    4079.7003   -536.21881    2547.4656    -1370.986     79.85455 
   24500    837.35383   -106.29281   0.75765534   -105.53515   -16258.351    4.3148015    4.3148015    4.3148015   -16258.351   -15087.798   -27505.034   -6182.2223    -9200.554   -5023.5916    -833.9498    80.330868 
   24600    819.13534   -106.27586   0.74117087   -105.53469    5938.6485     4.301296     4.301296     4.301296    5938.6485    14071.028    1166.9451    2577.9727     7541.112   -3367.8696    11412.457    79.578909 
   24700    741.63594   -106.20695   0.67104778    -105.5359    6341.5772    4.3102709    4.3102709    4.3102709    6341.5772   -11904.381     12296.39    18632.723   -17937.216    3790.8019   -10978.715    80.078086 
   24800    809.06477   -106.26742    0.7320588   -105.53536   -2899.3222    4.3109287    4.3109287    4.3109287   -2899.3222   -10517.721    20753.544    -18933.79     1634.463   -5016.4959    9969.9397    80.114758 
   24900    712.17794   -106.17967   0.64439356   -105.53528    12849.693    4.3021791    4.3021791    4.3021791    12849.693   -2872.1309    8051.2614     33369.95   -4461.5592   -509.36399    1737.1471    79.627936 
   25000    925.98043   -106.37531   0.83784655   -105.53746   -7218.7671    4.3102673    4.3102673    4.3102673   -7218.7671   -13067.224   -14853.902    6264.8241   -14637.279   -1501.6331   -12278.412    80.077888 
   25100    818.48101   -106.27762   0.74057882   -105.53704   -5348.7745    4.3135272    4.3135272    4.3135272   -5348.7745   -15894.215   -6608.5955    6456.4866     13049.64   -1968.7769     21107.25    80.259718 
   25200    677.22354   -106.15027   0.61276609   -105.53751     1864.052    4.3034798    4.3034798    4.3034798     1864.052   -4288.8796    12865.548   -2984.5121   -19388.074   -796.36107   -7060.3441     79.70018 
   25300    859.10813   -106.31334   0.77733909     -105.536    967.13004    4.3082364    4.3082364    4.3082364    967.13004   -6102.2426    536.00012    8467.6326    4725.5785    3162.5434    11165.774    79.964749 
   25400    815.62576   -106.27441   0.73799533   -105.53641   -7547.8011    4.3136023    4.3136023    4.3136023   -7547.8011   -12941.722   -15880.487    6178.8057   -2731.5355   -3634.9818    5917.4799    80.263912 
   25500    845.28429     -106.301   0.76483099   -105.53617    1227.8589    4.3044287    4.3044287    4.3044287    1227.8589   -6380.7314   -7375.2322     17439.54   -13934.762    793.93916   -10434.458    79.752915 
   25600    798.18534   -106.25888   0.72221487   -105.53667    3693.4038    4.3084741    4.3084741    4.3084741    3693.4038   -4885.6611    11236.023    4729.8493    13026.089   -8387.8465    11645.163    79.977987 
   25700    660.97436   -106.13674   0.59806349   -105.53868    -5022.764    4.3111407    4.3111407    4.3111407    -5022.764   -9312.6819   -6936.6465    1181.0365   -16337.946   -2220.4685    684.73976    80.126577 
   25800    800.58518    -106.2585   0.72438629   -105.53411    3114.5467    4.3099331    4.3099331    4.3099331    3114.5467   -7854.8235   -12876.441    30074.904    2682.0104   -1964.3517   -3476.3913    80.059265 
   25900    938.34987   -106.38268   0.84903868   -105.53364    -10691.62    4.3077928    4.3077928    4.3077928    -10691.62   -7841.2231   -16400.463   -7833.1745   -2438.0126   -6634.6913    10115.629     79.94005 
   26000    647.76684   -106.12415   0.58611305   -105.53803    5919.6075    4.3063717    4.3063717    4.3063717    5919.6075   -6525.5889   -4824.3854    29108.797   -21149.202    6968.0951   -8135.6055    79.860964 
   26100    959.74315   -106.40244   0.86839577   -105.53405   -15678.534    4.3178137    4.3178137    4.3178137   -15678.534   -9083.4971   -9723.1555    -28228.95    6701.6879      3311.58    9998.8533    80.499225 
   26200    625.20377   -106.10342   0.56569751   -105.53772    11258.797    4.3005697    4.3005697    4.3005697    11258.797    -10389.99     3485.608    40680.772    -19729.92   -6003.7632    8618.9044    79.538604 
   26300    901.90171   -106.35461   0.81605962   -105.53855   -3132.6592    4.3076393    4.3076393    4.3076393   -3132.6592   -8468.0318    1914.0281   -2843.9738   -1906.5852    6604.4455   -8182.0949    79.931507 
   26400    851.03572   -106.30414     0.770035    -105.5341   -16115.449    4.3167772    4.3167772    4.3167772   -16115.449   -14195.459   -16791.909   -17358.979    3039.0731   -507.04074    10997.409    80.441269 
   26500    611.22652   -106.08749    0.5530506   -105.53444    3052.3975    4.2990467    4.2990467    4.2990467    3052.3975    1387.9443   -9497.2672    17266.515   -20863.815   -2288.7887   -2846.8373    79.454133 
   26600    1059.5114   -106.49284   0.95866814   -105.53417   -10746.252    4.3135675    4.3135675    4.3135675   -10746.252   -3846.7041    -15520.93   -12871.122    10989.167    9006.2148   -2907.6622    80.261964 
   26700    680.42755   -106.15462   0.61566514   -105.53896    6591.0643    4.3084709    4.3084709    4.3084709    6591.0643   -2346.1163   -986.32158    23105.631   -21000.731   -1013.8803    11114.409     79.97781 
   26800    707.55647   -106.17909   0.64021196   -105.53888    2592.5279    4.3054615    4.3054615    4.3054615    2592.5279    3688.3702    21059.851   -16970.638   -6078.2264    3096.6749   -5859.0714    79.810334 
   26900    849.64446   -106.30196   0.76877617   -105.53318    -2455.809    4.3132084    4.3132084    4.3132084    -2455.809   -738.50975    7342.4588   -13971.376   -2212.8377    2648.5106   -1850.0819     80.24192 
   27000    751.38968   -106.21752   0.67987317   -105.53764    2631.8348    4.3000866    4.3000866    4.3000866    2631.8348    11870.804   -10726.303    6751.0026   -23134.013    697.10645    4267.9928    79.511802 
   27100    958.18669   -106.40489   0.86698745    -105.5379   -16569.404    4.3165162    4.3165162    4.3165162   -16569.404   -17305.478   -13269.249   -19133.485    3890.9325    3877.2614   -8437.6151    80.426679 
   27200    792.01288   -106.25346    0.7166299   -105.53683    3451.7422    4.3059728    4.3059728    4.3059728    3451.7422    10175.775    3174.8262   -2995.3741   -16506.228   -3478.8977    3634.0834    79.838774 
   27300    650.92872   -106.12841   0.58897399   -105.53944    5418.1922    4.3013834    4.3013834    4.3013834    5418.1922   -4014.4359    33524.831   -13255.818   -8525.2889    5020.5856   -2061.3416    79.583763 
   27400     768.5407   -106.23182   0.69539178   -105.53643    -7784.438    4.3197658    4.3197658    4.3197658    -7784.438   -17370.399     13270.76   -19253.674     8640.915    3406.0668   -9638.0613    80.608457 
   27500    949.06938   -106.39092   0.85873792   -105.53218    14237.953    4.2981786    4.2981786    4.2981786    14237.953    14105.469    10235.248    18373.141   -11286.255   -2059.7416   -2455.4349    79.406008 
   27600     677.3905   -106.15121   0.61291716   -105.53829   -20313.111    4.3143919    4.3143919    4.3143919   -20313.111   -29966.979    2001.6307   -32973.984    3366.7358    10761.495    539.30697    80.307995 
   27700    888.36633   -106.33693   0.80381253   -105.53312    -8733.639    4.3107063    4.3107063    4.3107063    -8733.639     5017.697   -8215.5702   -23003.044    7378.8674   -688.95418   -8524.4064    80.102356 
   27800    934.00296   -106.37861    0.8451055    -105.5335    4683.5315    4.2996455    4.2996455    4.2996455    4683.5315   -12039.671    28464.721   -2374.4552   -18434.147    2484.5161    3456.3912    79.487338 
   27900    543.84965   -106.03133   0.49208659   -105.53924   -10371.403    4.3170995    4.3170995    4.3170995   -10371.403   -32624.612    24808.889   -23298.487    9099.8725    1939.9138   -8964.6495    80.459289 
   28000    920.74964   -106.36466   0.83311362   -105.53155    7973.4252    4.3025549    4.3025549    4.3025549    7973.4252    5346.3466     18221.43    352.49891   -4604.4366   -2185.0026   -6072.3245    79.648802 
   28100    737.76374   -106.20494   0.66754413    -105.5374   -11024.504    4.3104248    4.3104248    4.3104248   -11024.504   -22704.028    16465.973   -26835.457   -8572.9861    3736.5227    145.67494    80.086665 
   28200    877.61553   -106.33153   0.79408497   -105.53744   -10435.441    4.3081353    4.3081353    4.3081353   -10435.441   -11074.818   -9144.0327   -11087.473    12903.327   -4211.2651   -6081.9362    79.959118 
   28300    869.71184   -106.32327   0.78693355   -105.53634    5485.2472    4.3060679    4.3060679    4.3060679    5485.2472   -1806.4872    15997.075    2265.1541    1878.4371    4250.2327    949.59033    79.844061 
   28400    564.26095    -106.0484   0.51055516   -105.53785   -13577.369    4.3157181    4.3157181    4.3157181   -13577.369   -33050.208     27093.86   -34775.758   -2626.1331    1118.0003   -947.01103    80.382074 
   28500    864.36005   -106.31535   0.78209114   -105.53326    11227.247    4.2981893    4.2981893    4.2981893    11227.247    19417.216    10189.437    4075.0888    29103.942   -3021.2401   -6023.6239    79.406605 
   28600    931.25657   -106.37868   0.84262051   -105.53606   -3394.2573    4.3133721    4.3133721    4.3133721   -3394.2573   -10242.688    9375.6818   -9315.7656   -11260.801    8903.0515    5582.8336    80.251061 
   28700    752.09738   -106.21871   0.68051352    -105.5382   -13618.804    4.3106754    4.3106754    4.3106754   -13618.804   -27656.516   -14685.706    1485.8089    21790.074    2342.8071   -3536.5509    80.100638 
   28800    708.84325   -106.17581   0.64137627   -105.53444    19402.388    4.3000397    4.3000397    4.3000397    19402.388     39610.12     12961.48    5635.5633    10515.768    550.21506    3881.0878      79.5092 
   28900    898.67124   -106.34782   0.81313662   -105.53468   -5614.3452    4.3133717    4.3133717    4.3133717   -5614.3452   -9585.0637    16484.261   -23742.233   -4997.0878      7782.44    5599.0002    80.251038 
   29000     598.3998    -106.0802   0.54144472   -105.53875    1055.5659    4.3084475    4.3084475    4.3084475    1055.5659      12256.8   -14797.746    5707.6434    28670.388    1001.4474   -5714.1745    79.976503 
   29100    1087.0846   -106.51624   0.98361695   -105.53263     8680.916    4.3042195    4.3042195    4.3042195     8680.916      12221.8     10900.06    2920.8881   -5477.2516    311.54852    3092.0344    79.741285 
   29200    716.40701   -106.18708   0.64822011   -105.53886   -118.05802    4.3098876    4.3098876    4.3098876   -118.05802    11197.151   -5115.5258   -6435.7989    13354.365    2848.1444    820.50111    80.056728 
   29300    626.94737   -106.10878   0.56727516   -105.54151    2243.3361    4.3114724    4.3114724    4.3114724    2243.3361     6184.274    9832.1063   -9286.3721    17809.631   -352.50262    52.966199    80.145072 
   29400    1064.7002    -106.4962   0.96336311   -105.53283    15427.237    4.3025391    4.3025391    4.3025391    15427.237    15612.558    24111.976    6557.1752   -2269.8261   -321.63793    7676.2058    79.647929 
   29500     519.1162   -106.01377   0.46970725   -105.54407   -7217.8427    4.3103403    4.3103403    4.3103403   -7217.8427   -6779.1338   -30447.207    15572.813    29000.746   -550.19943   -2936.3511    80.081956 
   29600    1047.9658   -106.48492   0.94822145   -105.53669   -6208.1581    4.3143966    4.3143966    4.3143966   -6208.1581    294.81477   -10409.937   -8509.3522   -3972.5322   -4830.5955     1053.438    80.308254 
   29700    777.77924   -106.23933     0.703751   -105.53557    22138.166    4.2987336    4.2987336    4.2987336    22138.166    30503.987    24208.138    11702.374    13561.757    699.31227   -3817.2035    79.436776 
   29800    454.98301   -105.95686   0.41167819   -105.54518   -15925.466    4.3128638    4.3128638    4.3128638   -15925.466   -43388.228    362.72186   -4750.8908    18832.781   -5783.5298   -5516.3399    80.222694 
   29900    1086.5933   -106.51801   0.98317242   -105.53484    1634.7859     4.308595     4.308595     4.308595    1634.7859    8545.2597    51.165022   -3692.0669   -14545.837   -3661.7654   -458.91521    79.984721 
   30000     814.0759   -106.27691   0.73659299   -105.54032   -6229.2676    4.3028914    4.3028914    4.3028914   -6229.2676   -9499.6789   -19946.827    10758.703    34245.618    1066.0629    1512.0859    79.667496 
   30100    703.48346   -106.17653   0.63652661      -105.54   -19236.165    4.3147913    4.3147913    4.3147913   -19236.165   -24880.684   -6984.0486   -25843.763   -10861.788    -10641.87   -3377.0593    80.330298 
   30200     825.9834   -106.28197   0.74736714   -105.53461    11884.511    4.3023034    4.3023034    4.3023034    11884.511    2903.7488    28461.431     4288.354    11896.179    1701.1894     2176.583    79.634841 
   30300    682.89127   -106.15912   0.61789437   -105.54123   -11676.957    4.3092734    4.3092734    4.3092734   -11676.957   -27892.308   -8032.5194    893.95528    26030.368   -3748.3653   -2471.1703    80.022507 
   30400    1021.4214   -106.46053   0.92420352   -105.53633    -3688.682    4.3076257    4.3076257    4.3076257    -3688.682    1279.6293   -424.84438   -11920.831   -19267.967   -3760.4058   -4589.4987    79.930749 
   30500    808.97123    -106.2683   0.73197417   -105.53633   -821.59498    4.3084664    4.3084664    4.3084664   -821.59498   -6915.5326   -2069.8282    6520.5759     24514.67    5075.2925    2019.0273    79.977556 
   30600    636.17544   -106.11291   0.57562491   -105.53729   -12069.598    4.3082522    4.3082522    4.3082522   -12069.598   -38003.872     11313.91   -9518.8325   -5370.1124   -8432.9236     1280.274    79.965628 
   30700    681.91713   -106.15505   0.61701295   -105.53804    11909.814    4.3044424    4.3044424    4.3044424    11909.814    14938.798    17884.364    2906.2799   -4417.7752    2107.2218     1493.171    79.753673 
   30800     1069.045   -106.50454    0.9672944   -105.53725    -3702.961    4.3114294    4.3114294    4.3114294    -3702.961   -6421.4417   -16080.068    11392.627    18311.854   -5525.5263    1905.3448    80.142675 
   30900    659.52701   -106.13696    0.5967539   -105.54021    12993.465    4.3034662    4.3034662    4.3034662    12993.465    28490.012    12190.566    -1700.182   -15082.245   -7499.2966   -4167.8443    79.699423 
   31000    848.43613    -106.3041   0.76768284   -105.53642    -10861.24    4.3141941    4.3141941    4.3141941    -10861.24   -21879.666   -3760.2902   -6943.7628    2451.3344    13143.093   -3536.8138     80.29695 
   31100    890.80356   -106.33941   0.80601778   -105.53339    14510.746    4.3018563    4.3018563    4.3018563    14510.746    19959.772    23593.394   -20.926937    6700.4134   -12225.325   -5592.4705    79.610013 
   31200    649.14164    -106.1303     0.587357   -105.54295   -3282.7196    4.3081197    4.3081197    4.3081197   -3282.7196   -3454.6215     5201.299   -11594.836   -15589.298    8331.8467   -3655.2405    79.958249 
   31300     1008.448   -106.44589   0.91246494   -105.53343    2294.6198    4.3127617    4.3127617    4.3127617    2294.6198    3412.5665    3048.6234    422.66963    11268.724    2284.0404    4411.6781    80.216996 
   31400    623.77517   -106.10244   0.56440488   -105.53803     13436.37    4.2983544    4.2983544    4.2983544     13436.37    11363.008    21916.191    7029.9112   -8561.9736   -12405.501   -1314.0539    79.415755 
   31500    618.92677   -106.10374   0.56001795   -105.54372   -20293.821    4.3130128    4.3130128    4.3130128   -20293.821   -29791.252   -17013.944   -14076.267   -16337.024    14177.846   -1011.9412    80.231005 
   31600    1228.2463   -106.64533    1.1113431   -105.53399    15760.447    4.3011931    4.3011931    4.3011931    15760.447    27987.758    13490.996    5802.5868    6725.3674   -6311.9981    1057.0905    79.573199 
   31700    617.04036   -106.10211   0.55831109    -105.5438   -18187.693    4.3094502    4.3094502    4.3094502   -18187.693    -26523.81   -10311.562   -17727.708   -16003.529   -3930.8949   -7253.4969    80.032354 
   31800    734.68061   -106.20393   0.66475446   -105.53917   -3001.3745    4.3044905    4.3044905    4.3044905   -3001.3745   -19623.388    17921.721   -7302.4561   -5007.6719    11311.947    2110.6994    79.756347 
   31900    899.02252   -106.35112   0.81345447   -105.53767    7711.2955    4.3051316    4.3051316    4.3051316    7711.2955    14092.919     12974.18   -3933.2123    4909.4929    -10336.55    7028.5682     79.79199 
   32000    612.39251   -106.09897   0.55410561   -105.54486    -16303.51    4.3129272    4.3129272    4.3129272    -16303.51   -29557.517   -22038.411    2685.3992   -21916.404    9785.5781   -1704.7702    80.226228 
   32100    938.89326   -106.38555   0.84953035   -105.53602    18245.813    4.2988626    4.2988626    4.2988626    18245.813    26910.324    1245.6762    26581.438    10406.408     8497.287    6083.7901    79.443923 
   32200    826.93103   -106.28415   0.74822458   -105.53593   -7749.8915    4.3137522    4.3137522    4.3137522   -7749.8915   -9229.1099   -11053.663    -2966.902   -7449.5318   -7597.5268   -2711.7077    80.272278 
   32300    665.94981   -106.14002   0.60256539   -105.53745    3214.0662    4.3017042    4.3017042    4.3017042    3214.0662    10149.183    659.14057   -1166.1251   -10807.149    14090.002   -5890.5471    79.601568 
   32400    930.25338   -106.38045   0.84171281   -105.53874      8807.66    4.3058157    4.3058157    4.3058157      8807.66     20937.67    8296.5261   -2811.2162    23209.454   -7780.5855   -379.90577    79.830035 
   32500    917.42025   -106.36728   0.83010112   -105.53718    338.30794    4.3102648    4.3102648    4.3102648    338.30794    10049.289   -6483.3289   -2551.0365   -18193.216    1532.0573   -2188.4773     80.07775 
   32600    664.02284   -106.14213   0.60082182   -105.54131    536.63912    4.3029815    4.3029815    4.3029815    536.63912   -1107.2508    -2760.852    5478.0202    16787.486     6268.497    1970.7466    79.672499 
   32700    928.07781   -106.37833   0.83974431   -105.53858    3.3219235    4.3078236    4.3078236    4.3078236    3.3219235    12914.194   -14007.529    1103.3005    14668.591   -3050.2903   -233.23157    79.941762 
   32800     875.7788   -106.33135   0.79242306   -105.53893    4270.8445    4.3038147    4.3038147    4.3038147    4270.8445    17406.011   -13433.161    8839.6826   -12347.184    9415.6799   -4916.2299    79.718791 
   32900    521.68217   -106.01589   0.47202899   -105.54386   -8098.5241     4.311251     4.311251     4.311251   -8098.5241   -34800.984   -3533.5072    14038.919    27297.726    3422.1894   -2737.5869    80.132727 
   33000    1004.5175   -106.44411   0.90890857    -105.5352    12471.343    4.3000517    4.3000517    4.3000517    12471.343    12946.448    18746.788     5720.794    -7007.868   -4416.8643   -12010.322    79.509866 
   33100    668.06954    -106.1483   0.60448336   -105.54382   -6815.5295    4.3082545    4.3082545    4.3082545   -6815.5295   -20478.239    -3460.512    3492.1628    10257.965    7468.6529   -785.80485    79.965759 
   33200    687.29355   -106.16333   0.62187765   -105.54145    -21401.06    4.3113107    4.3113107    4.3113107    -21401.06   -25145.783   -28797.474   -10259.924    20216.284   -3148.0958    2885.6838    80.136056 
   33300    1025.6391   -106.46095   0.92801981   -105.53293    6426.8421    4.3006289    4.3006289    4.3006289    6426.8421    12238.606   -4698.4461    11740.366   -8208.2147   -8746.4044   -3056.5244    79.541888 
   33400    762.22272   -106.22837   0.68967514   -105.53869   -19409.852    4.3130541    4.3130541    4.3130541   -19409.852   -34796.284   -19750.817   -3682.4556    30483.983    9724.9046    8489.5601    80.233312 
   33500    850.74446   -106.30764   0.76977147   -105.53787    11094.796    4.3004088    4.3004088    4.3004088    11094.796    16300.266    21256.234   -4272.1109   -1810.6595   -13060.911    -3488.593     79.52968 
   33600    858.67573   -106.31259   0.77694784   -105.53564    1689.2782    4.3116757    4.3116757    4.3116757    1689.2782    7689.6174   -2667.2276    45.444895    7517.3566   -1545.5664   -4738.6446     80.15641 
   33700    588.53674   -106.07274   0.53252041   -105.54022   -646.09261    4.3046731    4.3046731    4.3046731   -646.09261   -15108.976    858.69998    12311.999    17525.793    1710.8982    1045.9636    79.766499 
   33800    764.15425   -106.23222   0.69142283    -105.5408    8674.6561    4.3026551    4.3026551    4.3026551    8674.6561     14259.12    4719.3177    7045.5308   -9722.5184    -18347.34   -7321.2103    79.654367 
   33900    1106.3701    -106.5385    1.0010669   -105.53743    -3866.701     4.309543     4.309543     4.309543    -3866.701    3287.3503   -15105.254    217.80066    7701.2201    3178.7953   -1792.3114    80.037527 
   34000    630.63361   -106.11092   0.57061054   -105.54031    6733.5621    4.3020477    4.3020477    4.3020477    6733.5621    21994.714     309.5714    -2103.599    7886.2376   -7367.1373    2455.7705    79.620638 
   34100    804.05909   -106.26492   0.72752956   -105.53739   -14291.843    4.3127606    4.3127606    4.3127606   -14291.843   -15649.344   -15986.428   -11239.756   -9489.2055    -4101.063   -8277.5989    80.216931 
   34200    838.25564   -106.29492   0.75847131   -105.53645    19396.123    4.2995611    4.2995611    4.2995611    19396.123    26399.657        11399    20389.712    10665.002    2691.6388    79.233786    79.482658 
   34300    739.38457   -106.21344   0.66901069   -105.54443   -4946.3843    4.3100371    4.3100371    4.3100371   -4946.3843    -20542.65    7586.2257   -1882.7289   -2130.6987   -9773.0336   -6645.7867    80.065057 
   34400    841.28821    -106.2974   0.76121525   -105.53618    2377.0463    4.3104533    4.3104533    4.3104533    2377.0463    4481.7747   -7532.2216    10181.586   -10416.633    785.85087   -5617.6492    80.088253 
   34500    720.34196   -106.18653   0.65178054   -105.53475    1395.7374    4.2973302    4.2973302    4.2973302    1395.7374   -8072.6525    6136.9534    6122.9114    9772.0397   -5204.2747     7433.416    79.358997 
   34600    648.96557   -106.12872   0.58719769   -105.54152   -19582.704    4.3112864    4.3112864    4.3112864   -19582.704    -30970.12   -15062.433    -12715.56   -15293.022   -4666.9019   -2263.5133    80.134701 
   34700    1204.5186   -106.62585    1.0898737   -105.53597    860.28462    4.3056303    4.3056303    4.3056303    860.28462     11139.03   -15608.421    7050.2445   -3371.1819   -2377.3474    4634.8423    79.819724 
   34800    706.70792   -106.17969   0.63944417   -105.54025   -9123.4054    4.3076375    4.3076375    4.3076375   -9123.4054   -15455.814   -8491.3843   -3423.0181   -1697.9014   -6943.9074    8119.8165    79.931407 
   34900    505.84167    -105.9987   0.45769618     -105.541   -6332.7118    4.3059968    4.3059968    4.3059968   -6332.7118   -19482.594   -16024.744    16509.202    -19030.63   -6845.4595   -9716.1975    79.840106 
   35000    935.59807   -106.38394    0.8465488   -105.53739    3724.6114    4.3056896    4.3056896    4.3056896    3724.6114    16694.963    200.10548   -5721.2338    2221.1714    267.09138    11995.525    79.823019 
   35100    852.42434   -106.31445   0.77129146   -105.54315   -10407.019     4.306741     4.306741     4.306741   -10407.019    -14127.47   -2858.5489   -14235.037    -15948.87   -9615.5663   -2846.8629    79.881512 
   35200    793.25597   -106.25899   0.71775467   -105.54123    4767.8077    4.3032085    4.3032085    4.3032085    4767.8077    9908.7899   -5105.0764    9499.7096   -11835.122    7940.8649    3854.5441    79.685107 
   35300    889.16948   -106.34147   0.80453923   -105.53693   -10712.159    4.3106871    4.3106871    4.3106871   -10712.159   -5470.8488   -21984.788   -4680.8387    3765.5855   -4668.7604    11563.618    80.101291 
   35400    517.46276   -106.01191   0.46821118    -105.5437    4577.4127    4.3004723    4.3004723    4.3004723    4577.4127     1947.921   -12399.873    24184.191   -21366.603   -3339.5169   -7383.3847    79.533201 
   35500    1031.9398   -106.47416   0.93372078   -105.54044    5034.1938    4.3092317    4.3092317    4.3092317    5034.1938    18420.885   -4275.6414    957.33774    2627.1226    1957.6701    3427.6413    80.020185 
   35600    911.24222   -106.36253   0.82451111   -105.53802   -1436.4499    4.3097762    4.3097762    4.3097762   -1436.4499   -2569.1454    1966.7914   -3706.9957   -12645.695   -9838.0463    2759.5403    80.050522 
   35700    438.66829   -105.93715   0.39691629   -105.54023    5778.4865    4.2968927    4.2968927    4.2968927    5778.4865   -297.20626    1193.8481    16438.818   -17353.236    1209.4396   -5993.3687    79.334764 
   35800    973.41558   -106.41952   0.88076687   -105.53875   -13372.649    4.3119853    4.3119853    4.3119853   -13372.649    -8836.301   -11513.492   -19768.155    15723.227    2189.4276    7841.3146     80.17368 
   35900    911.24005    -106.3632   0.82450914   -105.53869    1181.3824     4.307535     4.307535     4.307535    1181.3824    5321.1358   -8791.8645     7014.876   -28466.355     1682.177    1499.7884    79.925697 
   36000    806.76436   -106.26939   0.72997734   -105.53942   -2525.8744    4.3035072    4.3035072    4.3035072   -2525.8744   -18502.787    9987.7435    937.42047     5894.379   -773.40733   -10238.744    79.701704 
   36100      624.069   -106.10398   0.56467074   -105.53931    1792.1956    4.3055753    4.3055753    4.3055753    1792.1956   -3762.3081     1350.512     7788.383   -1901.4406    6193.7251    3643.7496    79.816662 
   36200     744.4249   -106.21204    0.6735713   -105.53847   -4109.9721    4.3087072    4.3087072    4.3087072   -4109.9721   -11463.944   -12265.569    11399.596   -25568.359   -5143.5779   -4711.1676    79.990968 
   36300    835.82625   -106.29421   0.75627316   -105.53793   -7174.7374    4.3085136    4.3085136    4.3085136   -7174.7374   -14268.155    10360.406   -17616.464     20154.72    6892.9501   -157.97111    79.980184 
   36400    938.44624   -106.38656   0.84912588   -105.53743    2510.9363    4.3008682    4.3008682    4.3008682    2510.9363   -2899.6415    5373.3291    5059.1213   -21317.077    5364.0794    8513.3792    79.555167 
   36500    802.81959   -106.26387   0.72640803   -105.53746   -6443.3809    4.3124943    4.3124943    4.3124943   -6443.3809   -27442.961    16340.159   -8227.3411   -525.40306   -2806.3372    2229.5864    80.202074 
   36600     596.2996   -106.08148   0.53954441   -105.54194   -7967.6882     4.304375     4.304375     4.304375   -7967.6882   -14392.185    4843.7647   -14354.644    5040.9218    11377.537   -1424.1589     79.74993 
   36700     892.8234   -106.34947   0.80784537   -105.54163     2413.149    4.3009787    4.3009787    4.3009787     2413.149    4557.5559    -2996.876    5678.7669   -15950.894   -3908.0187    4171.9439    79.561301 
   36800    942.38045   -106.39083   0.85268564   -105.53815   -11813.818    4.3149687    4.3149687    4.3149687   -11813.818   -25008.149    8260.7326   -18694.037     7721.424    3310.9272   -223.58882    80.340207 
   36900    708.83175   -106.18077   0.64136587    -105.5394   -3930.0986    4.3030522    4.3030522    4.3030522   -3930.0986   -11226.512    946.76175   -1510.5458   -1101.7668    7425.8841     7500.493    79.676424 
   37000    703.59353   -106.17497   0.63662621   -105.53835    4545.5024    4.3046276    4.3046276    4.3046276    4545.5024    7777.2987    6606.4716   -747.26317   -13372.381    710.81834    7284.3643    79.763967 
   37100    832.49327   -106.29255   0.75325741   -105.53929   -2445.4717    4.3069383    4.3069383    4.3069383   -2445.4717   -10981.284    34525.537   -30880.668     1570.634    6777.9189   -264.58526    79.892491 
   37200    822.05158   -106.28284   0.74380954   -105.53903   -9183.6634    4.3119744    4.3119744    4.3119744   -9183.6634    963.29083   -7323.0703   -21191.211   -10965.836    641.68916    7565.6811    80.173073 
   37300    873.94053    -106.3288   0.79075975   -105.53804   -7205.4051    4.3035326    4.3035326    4.3035326   -7205.4051   -4491.8267    -752.7355   -16371.653   -4855.1798    -564.1304   -10401.564    79.703117 
   37400    773.58366   -106.24112   0.69995475   -105.54117    1145.1842    4.3022107    4.3022107    4.3022107    1145.1842   -10687.637    19152.617   -5029.4271    4842.1869    2169.0825    4988.5456    79.629693 
   37500    699.80906   -106.17306   0.63320194   -105.53986   -15773.064    4.3169644    4.3169644    4.3169644   -15773.064    1189.7734   -21220.259   -27288.706   -9305.1096   -328.41883    3920.4395    80.451733 
   37600    847.09515   -106.30321   0.76646949   -105.53674    11250.196    4.2946452    4.2946452    4.2946452    11250.196    6198.4898     43366.75   -15814.651    272.50803    6412.2524   -6658.5365    79.210341 
   37700     848.4348    -106.3075   0.76768164   -105.53982    671.41392    4.3071899    4.3071899    4.3071899    671.41392   -916.12486    14998.087    -12067.72   -3837.8027    38.708153    5599.4319    79.906492 
   37800    709.32346   -106.18152   0.64181078   -105.53971   -16280.087    4.3132978    4.3132978    4.3132978   -16280.087    12673.217    -34269.31   -27244.168   -4702.1542    2672.3456    -8992.843    80.246915 
   37900    799.58838    -106.2607   0.72348437   -105.53722    10056.488    4.2970782    4.2970782    4.2970782    10056.488    11586.838    43055.289   -24472.663     3972.773    3691.6836   -3640.0166    79.345037 
   38000    1002.1044   -106.44326   0.90672513   -105.53653   -4130.1487    4.3094329    4.3094329    4.3094329   -4130.1487   -7163.4813    4668.4377   -9895.4027     -5150.99   -5808.8489    2299.1504    80.031391 
   38100     649.1388   -106.12775   0.58735443   -105.54039    63.291218    4.3046865    4.3046865    4.3046865    63.291218    197.47509    17449.496   -17457.098   -6330.0032    8219.0142    -5832.891    79.767245 
   38200    745.42487   -106.21668   0.67447609   -105.54221   -337.60707      4.30615      4.30615      4.30615   -337.60707   -284.97157    13767.049   -14494.899   -1919.0391    1288.0633    3518.4849    79.848628 
   38300    938.41931   -106.38801   0.84910151   -105.53891    6030.7636    4.3052704    4.3052704    4.3052704    6030.7636    27368.157     2215.832   -11491.698   -15127.899    1150.4462   -5564.8098    79.799709 
   38400    667.89033   -106.14757   0.60432121   -105.54325   -4545.3453    4.3064551    4.3064551    4.3064551   -4545.3453    2326.5556    21275.842   -37238.434    2639.5398    5032.2313   -5424.4267    79.865601 
   38500    823.03714   -106.28305    0.7447013   -105.53835   -9178.5685    4.3080839    4.3080839    4.3080839   -9178.5685   -22882.761    14525.898   -19178.842   -1019.7491   -6915.4625    2389.1996    79.956258 
   38600    925.43316    -106.3729   0.83735138   -105.53555    5153.9228    4.3015882    4.3015882    4.3015882    5153.9228    17841.368    5151.6279   -7531.2274   -10527.092   -1413.4621    -8331.034    79.595131 
   38700    668.80396   -106.14832   0.60514788   -105.54317    -14197.69    4.3104088    4.3104088    4.3104088    -14197.69   -703.79592    4950.9883   -46840.262    4522.8381   -752.37032    3862.4657    80.085774 
   38800    777.27582   -106.24328   0.70329549   -105.53999    10814.608    4.3000399    4.3000399    4.3000399    10814.608    9480.6151    18888.144    4075.0643   -8577.0893   -1866.9508    451.99715    79.509211 
   38900    849.25346   -106.30976   0.76842238   -105.54134   -4411.7715    4.3078355    4.3078355    4.3078355   -4411.7715    11695.309   -9967.8721   -14962.751    1754.2989     2946.825   -7790.4699    79.942427 
   39000    729.92546   -106.20376   0.66045189   -105.54331   -11786.088    4.3090596    4.3090596    4.3090596   -11786.088   -6222.4947    1324.0514    -30459.82    2703.0797   -5966.5528    2836.9493    80.010595 
   39100    998.26622   -106.44142   0.90325225   -105.53817    17436.873    4.3004973    4.3004973    4.3004973    17436.873    56971.768    3599.6649   -8260.8124   -9732.9213   -554.52101    -4448.999    79.534591 
   39200     726.7115   -106.19909   0.65754384   -105.54154   -5684.5401    4.3058348    4.3058348    4.3058348   -5684.5401      6250.63    8321.9806   -31626.231   -3594.3493   -3102.0819   -1061.2482    79.831094 
   39300    553.32466   -106.04585   0.50065978   -105.54519   -4596.2275    4.3067808    4.3067808    4.3067808   -4596.2275   -5746.0733    14554.851    -22597.46   -667.33878   -947.29615    3652.8019    79.883726 
   39400    1207.6836   -106.62873    1.0927375   -105.53599    2973.1328    4.3069229    4.3069229    4.3069229    2973.1328    20160.321   -4757.1342   -6483.7887   -5262.8782   -742.63108    1252.1835    79.891632 
   39500    569.92808   -106.05971    0.5156829   -105.54403    3884.2831    4.3017089    4.3017089    4.3017089    3884.2831    27072.703      12997.6   -28417.453    5126.2543   -11544.306    5155.4899    79.601833 
   39600    634.35555   -106.11666   0.57397824   -105.54268   -6615.2091     4.310764     4.310764     4.310764   -6615.2091     -7941.89      5925.27   -17829.007   -5436.4497    6355.7785     2244.676    80.105574 
   39700    1077.1965   -106.51098   0.97467004   -105.53631    2990.7419    4.3020937    4.3020937    4.3020937    2990.7419    11121.049    1531.4831    -3680.306   -7489.8816   -5532.2614    2664.2035    79.623192 
   39800    627.67229   -106.11426   0.56793107   -105.54633   -10753.915    4.3066949    4.3066949    4.3066949   -10753.915   -3893.2108    9691.1338   -38059.669    3747.3592    2399.7883    799.84876    79.878942 
   39900    1083.9435   -106.51809   0.98077487   -105.53732   -2643.2077    4.3084852    4.3084852    4.3084852   -2643.2077    15999.858   -637.10628   -23292.375   -5258.1264    10788.306   -223.82704    79.978601 
   40000    571.23933    -106.0566   0.51686935   -105.53973     1015.287    4.3033166    4.3033166    4.3033166     1015.287   -101.83374    25366.936   -22219.242    13960.456    -10612.05   -604.05577    79.691113 
   40100    544.30654   -106.03822       0.4925   -105.54572   -14016.254    4.3099028    4.3099028    4.3099028   -14016.254   -21569.407     15904.97   -36384.327    1313.5254    12217.092    4008.8454    80.057575 
   40200    1348.7818   -106.75383    1.2204061   -105.53343    15504.712    4.3011401    4.3011401    4.3011401    15504.712    31063.663    20065.981    -4615.506     8598.018   -620.28187   -3063.9047    79.570257 
   40300    508.02234   -106.00594   0.45966929   -105.54627   -5983.7284    4.3075581    4.3075581    4.3075581   -5983.7284   -6597.8169    20496.397   -31849.765   -3279.2446    6431.0809    1590.7735    79.926985 
   40400    604.41889   -106.09072   0.54689091   -105.54383   -7050.3963    4.3057758    4.3057758    4.3057758   -7050.3963   -9501.9423    13855.929   -25505.176    5054.0679    13437.653   -2551.7422    79.827816 
   40500    1045.7111    -106.4839   0.94618139   -105.53772    13345.864    4.3028498    4.3028498    4.3028498    13345.864     20362.79    30932.065   -11257.262      179.491   -2742.2334   -8034.9415    79.665182 
   40600    797.93409   -106.26335   0.72198753   -105.54137   -21001.071    4.3145726    4.3145726    4.3145726   -21001.071   -28616.007    11867.826   -46255.031   -1434.7716    11280.155    1217.7575    80.318084 
   40700     829.2833   -106.28412   0.75035295   -105.53377    16815.295    4.2963665    4.2963665    4.2963665    16815.295    13999.614    46936.031   -10489.761   -2455.4272   -1423.6043   -6540.8475     79.30562 
   40800     659.0802   -106.13633   0.59634961   -105.53998   -7712.2331    4.3089917    4.3089917    4.3089917   -7712.2331    -2999.417    9719.1897   -29856.472   -6045.1835    9502.4972   -882.34771    80.006815 
   40900    694.43304   -106.16883    0.6283376   -105.54049   -3462.8367     4.312041     4.312041     4.312041   -3462.8367   -9219.8061    29270.932   -30439.636    3769.5746    8322.2216    249.23032    80.176785 
   41000    1210.7399   -106.62676    1.0955029   -105.53126    13821.831    4.2953801    4.2953801    4.2953801    13821.831    34346.904    8264.2033   -1145.6156   -4287.5001   -2244.3751   -3951.7997     79.25101 
   41100     490.3696   -105.98899   0.44369672   -105.54529   -15986.558    4.3125679    4.3125679    4.3125679   -15986.558   -40074.457    28415.578   -36300.795    7060.2694    14123.695    992.44771    80.206183 
   41200    795.95108   -106.25857   0.72019326   -105.53838   -4560.4512    4.3120152    4.3120152    4.3120152   -4560.4512   -21324.686    22588.529   -14945.197   -3252.1785   -6637.4959   -1187.7232     80.17535 
   41300    874.73224   -106.32807   0.79147612    -105.5366   -1071.5383    4.3015997    4.3015997    4.3015997   -1071.5383    6836.8223    5283.3633   -15334.801   -4501.2564    9043.4668   -2260.1622     79.59577 
   41400    830.09339   -106.29066   0.75108594   -105.53957   -2522.6787    4.3064908    4.3064908    4.3064908   -2522.6787   -2008.2832    22290.906   -27850.659    8318.3406    3527.6461    152.60333    79.867587 
   41500    838.64647   -106.29339   0.75882495   -105.53456   -3893.9015     4.313001     4.313001     4.313001   -3893.9015   -5712.7692    5203.7397   -11172.675   -2343.7111   -156.93948   -4089.0795    80.230346 
   41600    433.30023   -105.93201   0.39205915   -105.53995   -1571.1888    4.3023729    4.3023729    4.3023729   -1571.1888   -16305.096    35403.159   -23811.629   -5608.0771    11614.918    -4555.386    79.638699 
   41700    1090.8558   -106.52454   0.98702924   -105.53752    1449.7963     4.306597     4.306597     4.306597    1449.7963   -2551.6202    24255.573   -17354.564    3997.2612   -8408.5709    541.33779    79.873497 
   41800    946.39082   -106.39352    0.8563143    -105.5372   -5262.9301    4.3121696    4.3121696    4.3121696   -5262.9301   -3403.1655   -5682.2176   -6703.4071   -13267.015    10500.793   -2421.7496    80.183961 
   41900    520.17819    -106.0101   0.47066815   -105.53943   -376.43238    4.3016366    4.3016366    4.3016366   -376.43238   -19094.287    41574.451   -23609.461    2442.2584   -5697.6635    4230.7436    79.597816 
   42000     825.2315   -106.28232    0.7466868   -105.53564    2919.0751    4.3098148    4.3098148    4.3098148    2919.0751   -5607.1776    19875.581    -5511.178   -3515.0418   -3505.2302    4062.7955    80.052671 
   42100     761.1203   -106.22699   0.68867764   -105.53831   -9242.4349    4.3104949    4.3104949    4.3104949   -9242.4349   -10641.457     8800.691   -25886.539    -5708.511    8689.4309   -405.65242    80.090574 
   42200    979.93312   -106.41912   0.88666408   -105.53245   -1781.7062    4.3036664    4.3036664    4.3036664   -1781.7062   -8925.3528    23777.363   -20197.129   -5220.6476   -15472.353    5879.3484     79.71055 
   42300    763.39729   -106.22332   0.69073791   -105.53258   -4606.1044    4.3098963    4.3098963    4.3098963   -4606.1044   -7061.0648    4097.7199   -10854.968   -8408.3988    8849.0142    1186.9825    80.057212 
   42400    583.67927   -106.06619   0.52812527   -105.53807   -15246.976    4.3102832    4.3102832    4.3102832   -15246.976   -18363.067    13151.423   -40529.283   -4146.8099    -10474.44   -1210.9545    80.078772 
   42500    969.37918    -106.4103   0.87711465   -105.53319     14081.95    4.3033089    4.3033089    4.3033089     14081.95    22207.089    34601.737   -14562.976    9406.1608   -8914.2812    6357.2042    79.690686 
   42600    722.62031   -106.19412   0.65384205   -105.54028   -9431.0079    4.3117678    4.3117678    4.3117678   -9431.0079     -13408.9   -1093.7786   -13790.345   -8621.1483    3391.4346    875.19895     80.16155 
   42700    768.61323   -106.23183    0.6954574   -105.53637   -9840.3693    4.3114583    4.3114583    4.3114583   -9840.3693   -30653.491    29399.904   -28267.521   -200.25958   -14286.907   -2484.6573    80.144286 
   42800    823.09347   -106.27917   0.74475227   -105.53442     8823.704    4.3006341    4.3006341    4.3006341     8823.704    17053.482    5359.0705    4058.5597    748.53756     7682.084    6829.1921    79.542176 
   42900    659.20611   -106.13933   0.59646354   -105.54287   -8634.9372    4.3105891    4.3105891    4.3105891   -8634.9372   -17678.481    24141.545   -32367.875   -14373.806   -4093.2966   -8086.3364    80.095826 
   43000    1062.4358   -106.49384   0.96131423   -105.53252    1661.6598    4.3119294    4.3119294    4.3119294    1661.6598   -2552.9914    20737.262   -13199.291    6185.3034   -2011.6057    4938.9099    80.170559 
   43100    594.19058   -106.07528   0.53763613   -105.53765   -126.60962    4.3018495    4.3018495    4.3018495   -126.60962   -6140.9839    19017.263   -13256.108   -9505.1954      990.951    5398.6403    79.609633 
   43200    785.91538   -106.25103   0.71111275   -105.53991   -10278.733    4.3107663    4.3107663    4.3107663   -10278.733   -23984.583    25591.922   -32443.539   -8059.4158   -12534.829    -2441.001    80.105703 
   43300    1065.9856   -106.49845   0.96452618   -105.53392    4631.9178    4.3107651    4.3107651    4.3107651    4631.9178    24487.965    6254.0346   -16846.246    6883.1009    5070.6014    8394.2646    80.105635 
   43400    512.07845   -106.00591   0.46333934   -105.54258    -4842.071     4.302842     4.302842     4.302842    -4842.071   -29266.195    22799.254   -8059.2724    -7339.944   -7730.1048   -259.88343    79.664751 
   43500    913.11798   -106.36226   0.82620833   -105.53605   -1274.9318     4.313901     4.313901     4.313901   -1274.9318     -9153.04     21470.29   -16142.045    3899.5721   -568.43854   -688.08774    80.280585 
   43600    736.18459   -106.20612   0.66611529   -105.54001    3112.1444    4.3051706    4.3051706    4.3051706    3112.1444   -3552.8007    11739.265    1149.9693    2032.1045    1626.3372    1934.0636     79.79416 
   43700    737.13282   -106.20804   0.66697327   -105.54107    7173.0339      4.30303      4.30303      4.30303    7173.0339    7175.1585     30840.16   -16496.217   -5996.2003   -10502.292   -572.61007    79.675191 
   43800    1019.2642   -106.45254   0.92225165   -105.53029   -5716.7181    4.3184708    4.3184708    4.3184708   -5716.7181   -2389.2051   -3678.1987    -11082.75    12798.591    5090.5481   -2150.8553    80.535983 
   43900    482.41424   -105.97481   0.43649854   -105.53831   -1733.9078     4.299246     4.299246     4.299246   -1733.9078   -34672.998    32151.801   -2680.5267   -6608.9125   -5314.0667    764.66361    79.465184 
   44000    927.74504   -106.37658   0.83944321   -105.53713    1268.7563    4.3070937    4.3070937    4.3070937    1268.7563    10059.896    17082.001   -23335.628    -2159.888   -1633.6353   -6072.6451    79.901137 
   44100    971.55963    -106.4147   0.87908757   -105.53561   -9631.6496    4.3117617    4.3117617    4.3117617   -9631.6496   -12006.709    1515.7435   -18403.983    2397.1979    208.34941   -4103.4957    80.161209 
   44200    590.18509   -106.07007   0.53401187   -105.53606    4627.1456    4.3048025    4.3048025    4.3048025    4627.1456   -3029.1453    20587.292     -3676.71   -13229.353   -8712.9485   -4951.8658    79.773691 
   44300    986.79383   -106.42274   0.89287179   -105.52987   -4865.7167     4.309335     4.309335     4.309335   -4865.7167   -3151.1775    2768.8126   -14214.785    4884.6854     124.0215   -9954.9731    80.025936 
   44400    515.77086   -106.00633   0.46668031   -105.53965    12129.813    4.3045156    4.3045156    4.3045156    12129.813   -2825.0415    33069.101    6145.3793   -4776.7029   -5150.5706    4264.9567    79.757742 
   44500    1104.0268   -106.53563   0.99894661   -105.53668   -3874.9138    4.3089271    4.3089271    4.3089271   -3874.9138    4315.2639   -1846.6194   -14093.386   -15171.839    -1594.888   -8531.4632    80.003217 
   44600    672.14597   -106.14632    0.6081718   -105.53815    8330.4547    4.3044894    4.3044894    4.3044894    8330.4547   -6665.1587    24681.226    6975.2965    15035.643    2842.4785   -593.39761    79.756285 
   44700    627.80794   -106.10725   0.56805382   -105.53919    -10110.97    4.3124669    4.3124669    4.3124669    -10110.97   -19292.411   -713.70148   -10326.799   -17637.154   -3992.7063   -4095.9353    80.200544 
   44800    1125.9903   -106.55119    1.0188197   -105.53237    11725.507    4.3044349    4.3044349    4.3044349    11725.507    21095.216    25095.723   -11014.418    7744.2513    3888.0931   -7573.1622     79.75326 
   44900    613.69815   -106.09675   0.55528699   -105.54146    4447.7539    4.3041615    4.3041615    4.3041615    4447.7539      8236.21    19355.201   -14248.149   -5407.6518    1195.8283    3032.0315     79.73806 
   45000    885.53451   -106.33616   0.80125024   -105.53491   -11531.991    4.3137133    4.3137133    4.3137133   -11531.991   -28149.027    3293.1435   -9740.0911    -10774.49   -2958.3329   -1555.0059    80.270106 
   45100    733.89496   -106.19823   0.66404358   -105.53419     12731.43    4.3002289    4.3002289    4.3002289     12731.43     12689.05     28406.08   -2900.8386    10827.234    9568.0073    3932.5877    79.519699 
   45200    812.25631   -106.27417   0.73494658   -105.53922   -19387.225    4.3127964    4.3127964    4.3127964   -19387.225   -24680.729   -18447.238   -15033.709   -10595.951   -9221.3631     1289.558    80.218931 
   45300    1028.7213   -106.46108   0.93080868   -105.53028        19093    4.3029731    4.3029731    4.3029731        19093    31796.898    27686.896   -2204.7948    4535.1742    3743.6214    3812.5334     79.67203 
   45400    461.15666   -105.95684   0.41726423   -105.53957     -13789.8    4.3090741    4.3090741    4.3090741     -13789.8   -36567.724    5959.0222     -10760.7    3880.9368    919.79165   -3599.8039    80.011402 
   45500    812.80421   -106.27053   0.73544233   -105.53508    2381.0739    4.3075202    4.3075202    4.3075202    2381.0739    232.06897    10374.597   -3463.4437    -4523.061   -8790.7015    5309.0331    79.924877 
   45600    1022.3234    -106.4606    0.9250197   -105.53558    3836.9666    4.3032749    4.3032749    4.3032749    3836.9666    11272.511    14674.304   -14435.915    2931.9157    13765.036    288.48805    79.688798 
   45700    625.73979   -106.10696   0.56618251   -105.54078   -20376.863    4.3116028    4.3116028    4.3116028   -20376.863   -29911.894   -7484.0241   -23734.671    992.91309   -9889.0956    4227.3733    80.152344 
   45800    921.54216    -106.3648   0.83383071   -105.53097    10175.446    4.3009677    4.3009677    4.3009677    10175.446    11840.015    19857.233   -1170.9115   -8383.1624     6061.993    6174.7794    79.560689 
   45900    571.09512   -106.05553   0.51673886   -105.53879   -26999.521    4.3181793    4.3181793    4.3181793   -26999.521   -49815.388    9034.8977   -40218.073    9162.4749    4255.3996   -823.93837    80.519673 
   46000    1055.3361   -106.48839    0.9548903    -105.5335    12275.969    4.2955772    4.2955772    4.2955772    12275.969    24656.695    14285.847   -2114.6347   -2204.8163   -12016.476    4551.0078    79.261922 
   46100     816.7245   -106.27784   0.73898949   -105.53885   -2179.4928    4.3084224    4.3084224    4.3084224   -2179.4928   -332.19588    22934.037    -29140.32    5089.2609    17457.906   -2214.5719    79.975104 
   46200    489.49742   -105.98208   0.44290755   -105.53917   -25256.718      4.31507      4.31507      4.31507   -25256.718   -51397.349   -609.65649   -23763.147    8155.3202   -10340.052   -1174.3669    80.345865 
   46300    1048.9569   -106.47789   0.94911829   -105.52877    21617.736    4.2937431    4.2937431    4.2937431    21617.736    31797.261    26667.804    6388.1426   -273.45412    2010.8011     1422.198    79.160434 
   46400    709.98167   -106.18218   0.64240634   -105.53977   -19841.573    4.3154113    4.3154113    4.3154113   -19841.573   -24862.133    4985.5063   -39648.093    6033.9044    7544.4545   -494.39178    80.364932 
   46500    850.85032   -106.30559   0.76986725   -105.53572    438.94033    4.3051339    4.3051339    4.3051339    438.94033    8050.9757    3048.8012   -9782.9559    11402.404    -16187.06    648.37727    79.792118 
   46600    777.52036   -106.23718   0.70351676   -105.53366    8374.8644    4.3028885    4.3028885    4.3028885    8374.8644    5072.5748     29305.99    -9253.972   -3256.7665    14712.816    1383.4741    79.667332 
   46700    574.49083   -106.06173   0.51981138   -105.54192   -12093.632    4.3083878    4.3083878    4.3083878   -12093.632     -6977.27   -1323.7458   -27979.882    9503.7983   -10372.471   -2674.1689    79.973181 
   46800    1175.6095   -106.59855    1.0637162   -105.53483    10260.251    4.3113694    4.3113694    4.3113694    10260.251    34305.791    8087.5657   -11612.604    5434.5309   -3760.3546   -4244.2788     80.13933 
   46900    765.73276   -106.23489   0.69285109   -105.54204    -2588.815    4.3026374    4.3026374    4.3026374    -2588.815   -1023.3794    5971.0004   -12714.066   -6037.9817    1034.9196   -571.80533    79.653389 
   47000    516.92207   -106.01386   0.46772195   -105.54614   -556.36285    4.3035736    4.3035736    4.3035736   -556.36285    829.40403    4082.7467   -6581.2393    12746.718   -18297.893   -2736.7734     79.70539 
   47100    1055.4024   -106.48905   0.95495028    -105.5341   -3222.2364    4.3143065    4.3143065    4.3143065   -3222.2364     3594.673   -12836.019   -425.36329   -10475.123    6279.0771     1017.914    80.303224 
   47200    644.33211   -106.12211   0.58300523    -105.5391      551.188    4.3002969    4.3002969    4.3002969      551.188       8725.9    7361.1426   -14433.479   -3527.9238   -14394.061    2625.9774     79.52347 
   47300    859.56968   -106.31354   0.77775671   -105.53579   -4604.1564      4.31026      4.31026      4.31026   -4604.1564   -8814.8261    7502.1624   -12499.806    7886.6394   -5751.0457    2425.7296    80.077481 
   47400    791.89677   -106.25049   0.71652484   -105.53397   -2125.8212    4.3077848    4.3077848    4.3077848   -2125.8212   -2164.5705   -433.30815   -3779.5849   -16294.034   -404.95918    1843.5454    79.939605 
   47500    632.92688   -106.11206   0.57268555   -105.53937   -11132.966    4.3037073    4.3037073    4.3037073   -11132.966   -9943.6354   -308.06677   -23147.195    14467.919    -16134.44   -3064.7028    79.712822 
   47600    997.84249   -106.43835   0.90286885   -105.53548   -592.61373    4.3043852    4.3043852    4.3043852   -592.61373    21131.829    -22661.68   -247.98953   -4656.5471    4034.1085    2786.0017    79.750497 
   47700    832.04502   -106.29061   0.75285182   -105.53776   -19057.266    4.3111097    4.3111097    4.3111097   -19057.266   -34163.476    -3079.379   -19928.944   -5893.3733   -9973.6949   -2307.2634    80.124848 
   47800    628.45117   -106.10738   0.56863582   -105.53874   -9228.7844    4.3057933    4.3057933    4.3057933   -9228.7844   -6332.4997   -6916.4916   -14437.362    14986.934    -7604.061   -54.221231    79.828789 
   47900    897.50018   -106.34717   0.81207702   -105.53509    2908.0041    4.2987554    4.2987554    4.2987554    2908.0041    11615.221   -11661.459    8770.2504   -19640.962    1182.3386    2463.5826    79.437981 
   48000    656.43527   -106.13246   0.59395643    -105.5385   -15227.303    4.3163247    4.3163247    4.3163247   -15227.303   -10349.399   -12406.897   -22925.613     14425.09   -15733.914   -635.22362    80.415976 
   48100     827.9607   -106.28511   0.74915624   -105.53595   -1718.9187    4.3029014    4.3029014    4.3029014   -1718.9187    8491.3679   -5133.7438   -8514.3802   -7258.4513    106.84956   -4497.5495    79.668047 
   48200    913.30301   -106.35897   0.82637576    -105.5326    53.706167    4.3024453    4.3024453    4.3024453    53.706167   -4799.9735    4988.9184   -27.826369   -8947.5725   -8019.6016    1275.8579    79.642719 
   48300    670.05796     -106.142   0.60628252   -105.53572   -15464.975    4.3103552    4.3103552    4.3103552   -15464.975   -4084.7549   -22353.148   -19957.022    18475.663   -10653.142   -5465.2598    80.082785 
   48400    788.49474   -106.24904   0.71344661   -105.53559     435.5854    4.3056113    4.3056113    4.3056113     435.5854    20353.139   -19692.005    645.62137   -18245.684   -252.42385   -639.63572    79.818667 
   48500    1010.2174   -106.44674   0.91406593   -105.53267   -8032.1075    4.3095059    4.3095059    4.3095059   -8032.1075   -15445.456    2821.9172   -11472.784    15018.892   -13907.955    2621.6915    80.035457 
   48600    596.06363   -106.07702    0.5393309   -105.53769    5917.1874    4.2999592    4.2999592    4.2999592    5917.1874    15320.431   -2093.2062    4524.3373    8587.8209   -3692.2879    2418.9774    79.504735 
   48700    820.49824    -106.2769   0.74240405   -105.53449   -8235.8486    4.3119616    4.3119616    4.3119616   -8235.8486    1127.7954   -24096.296   -1739.0456   -12089.747   -4625.7981    3858.8269    80.172357 
   48800    655.84894   -106.13188   0.59342591   -105.53845   -4089.9703    4.3062079    4.3062079    4.3062079   -4089.9703   -4403.4097   -8916.4894     1049.988    23963.064   -7454.1839    758.53221     79.85185 
   48900    1000.7442   -106.44193   0.90549442   -105.53643    4626.8264    4.2995839    4.2995839    4.2995839    4626.8264     13294.71    2233.4049   -1647.6361    -8972.731   -3356.0801    5066.9858    79.483922 
   49000    924.52839   -106.37044   0.83653272   -105.53391   -11882.667    4.3150891    4.3150891    4.3150891   -11882.667   -20935.483    -3329.723   -11382.795    4755.2899    7811.5768    -4368.864    80.346931 
   49100    454.84732   -105.95081   0.41155542   -105.53926   -1950.8124    4.2992136    4.2992136    4.2992136   -1950.8124    7129.2302   -18724.206    5742.5391    16826.904   -7977.3453    3743.7541    79.463388 
   49200    979.06024   -106.42142   0.88587428   -105.53555    2722.8804    4.3065403    4.3065403    4.3065403    2722.8804    9965.3744   -10453.807    8657.0741   -6604.0287    6775.8829   -5114.2451    79.870343 
   49300    783.66078   -106.24849   0.70907275   -105.53942   -5025.4991    4.3100745    4.3100745    4.3100745   -5025.4991   -19089.595    4373.0415   -359.94385    19605.117     6009.863   -1785.9566    80.067142 
   49400    810.74446   -106.27206   0.73357862   -105.53848   -1100.3498    4.2993759    4.2993759    4.2993759   -1100.3498    3458.4738   -15079.653      8320.13      8624.03   -7077.0361   -4794.0968    79.472388 
   49500    802.98857   -106.26286   0.72656094    -105.5363   -5736.1328    4.3102248    4.3102248    4.3102248   -5736.1328   -5573.2566   -9963.2835   -1671.8583   -1929.7941    15978.015    -1903.848    80.075517 
   49600    695.90894    -106.1688   0.62967304   -105.53912   -9437.4048    4.3065339    4.3065339    4.3065339   -9437.4048   -19484.643   -13409.177    4581.6061    22056.379   -1667.6998    -2618.212    79.869985 
   49700    1038.1223   -106.47357   0.93931488   -105.53426   -1138.8205     4.307771     4.307771     4.307771   -1138.8205    12057.531   -3172.4001   -12301.593   -4235.8447   -3202.2385    145.85859    79.938838 
   49800    674.15973   -106.14735   0.60999389   -105.53735    2468.1729    4.3011166    4.3011166    4.3011166    2468.1729   -14041.513    10139.067    11306.965    6562.9071    13135.544    6826.3541    79.568952 
   49900    666.72358   -106.14217   0.60326551    -105.5389   -7499.4906    4.3102167    4.3102167    4.3102167   -7499.4906    526.49665   -31771.998    8747.0292    12256.876    -8617.689   -71.840616    80.075066 
   50000     925.2752   -106.37182   0.83720845   -105.53461   -6233.2736    4.3094161    4.3094161    4.3094161   -6233.2736   -13030.188   -3325.6062   -2344.0266   -14121.537     7027.723    6745.0715    80.030454 
   50100    752.88021    -106.2188   0.68122184   -105.53758    9405.0711    4.2934008    4.2934008    4.2934008    9405.0711    2083.8521    10510.953    15620.408    15400.188    14970.942   -71.702047    79.141507 
   50200    891.58093   -106.34173   0.80672116   -105.53501   -13084.832    4.3169889    4.3169889    4.3169889   -13084.832     9925.729   -27818.049   -21362.177   -3572.9396   -7880.0277    990.21349    80.453102 
   50300    678.18839   -106.15092   0.61363911   -105.53728   -3008.3019    4.3024798    4.3024798    4.3024798   -3008.3019   -16023.952   -3388.2121    10387.258   -1247.2485     17784.78    304.47133    79.644634 
   50400     746.3968    -106.2126   0.67535551   -105.53725    9006.1018    4.3006077    4.3006077    4.3006077    9006.1018    23550.803   -8532.6015    12000.104    15299.999    3210.1378    5585.1686    79.540712 
   50500    1053.7072   -106.48557    0.9534164   -105.53216   -10293.135    4.3129071    4.3129071    4.3129071   -10293.135   -8587.6207   -5954.6769   -16337.107   -4175.5218    5836.8633   -3933.0142    80.225107 
   50600     529.4427   -106.01678   0.47905088   -105.53773    10678.974    4.2998959    4.2998959    4.2998959    10678.974     19194.16    219.54588    12623.215    3305.8397    16533.743    810.24427    79.501228 
   50700    873.16266   -106.32285   0.79005593    -105.5328     -6218.61    4.3091944    4.3091944    4.3091944     -6218.61    6155.1752   -32426.904    7615.8987    7260.8569   -4017.1397    3070.1524    80.018103 
   50800    762.80509   -106.22727   0.69020207   -105.53707    3516.2889    4.3020178    4.3020178    4.3020178    3516.2889   -686.51733    578.17701    10657.207   -7872.2395    10180.608   -8052.7431    79.618978 
   50900    885.83737    -106.3387   0.80152426   -105.53717   -1135.3988     4.310388     4.310388     4.310388   -1135.3988   -3758.0596   -6520.1248     6871.988    6494.3491    9566.5812    4512.3182    80.084616 
   51000    939.68777   -106.38426   0.85024924   -105.53401   -5348.4138    4.3054797    4.3054797    4.3054797   -5348.4138   -19.357162   -9163.0591    -6862.825   -4304.9354   -6502.2984    1979.1587    79.811344 
   51100    475.75238   -105.96963   0.43047075   -105.53916    11649.807    4.2957892    4.2957892    4.2957892    11649.807    7664.3688    14339.605    12945.447   -12448.838    20269.004    283.50323    79.273656 
   51200     929.4266   -106.37392   0.84096472   -105.53295   -12477.929    4.3191349    4.3191349    4.3191349   -12477.929   -4982.9375   -29325.357    -3125.491    4936.7156   -4971.1078    4208.3881    80.573144 
   51300    896.53155   -106.34609   0.81120059   -105.53489    4250.1757    4.2989214    4.2989214    4.2989214    4250.1757   -4969.9121    21097.747   -3377.3075   -17191.531   -2001.7474    2537.0083    79.447186 
   51400    747.73408   -106.21443   0.67656551   -105.53787      5118.76    4.3024259    4.3024259    4.3024259      5118.76   -8084.3789   -584.80941    24025.468   -286.39969    14934.546   -118.70285    79.641641 
   51500    921.66291   -106.36732   0.83393997   -105.53338   -13061.196    4.3118558    4.3118558    4.3118558   -13061.196   -9441.3909   -26053.268   -3688.9303    2971.5567   -16284.702    2012.6744    80.166455 
   51600    441.14019   -105.93979   0.39915291   -105.54063    11600.578    4.3021446    4.3021446    4.3021446    11600.578   -11687.222    20121.892    26367.065   -11773.058    14594.789    1181.7937    79.626019 
   51700    1153.6906   -106.57797    1.0438835   -105.53409   -4925.3756    4.3109408    4.3109408    4.3109408   -4925.3756    1745.8731   -9847.7253   -6674.2746    1451.0531   -1197.7876    2517.5493    80.115434 
   51800    815.92463   -106.27437   0.73826575    -105.5361    18437.867    4.2978529    4.2978529    4.2978529    18437.867   -7289.9579    42842.743    19760.815   -1007.7367   -5101.1057   -325.83858    79.387958 
   51900     530.9885   -106.02093   0.48044956   -105.54048   -11955.144    4.3131323    4.3131323    4.3131323   -11955.144    -24159.44   -15155.603    3449.6121   -15956.626    16104.117    7367.5752    80.237676 
   52000    953.03899   -106.39675    0.8623297   -105.53442   -1554.7351    4.3033102    4.3033102    4.3033102   -1554.7351   -3049.4497   -14055.057    12440.301    11300.697    -6822.697    3184.9369    79.690759 
   52100    789.89311   -106.25573   0.71471188   -105.54102     9265.548    4.2954369    4.2954369    4.2954369     9265.548   -11774.612    25358.848    14212.408     -9862.57    6534.5019    3843.9066    79.254156 
   52200    933.07768   -106.37901    0.8442683   -105.53474   -23466.658    4.3200826    4.3200826    4.3200826   -23466.658   -25226.229   -24239.814    -20933.93   -8676.4554    10643.782    7513.3517    80.626194 
   52300     697.8764   -106.16417   0.63145324   -105.53271    9635.1348    4.2954764    4.2954764    4.2954764    9635.1348    679.39917    4594.7569    23631.248    11933.996   -4466.4583   -5256.6493    79.256341 
   52400    615.39906   -106.09425     0.556826   -105.53743    943.31778    4.3020957    4.3020957    4.3020957    943.31778   -14121.564    20979.158   -4027.6411   -19445.802    16774.586    2307.8424    79.623304 
   52500    993.09732   -106.43236   0.89857533   -105.53379   -11969.838    4.3129436    4.3129436    4.3129436   -11969.838   -18020.888   -15840.935   -2047.6898    10714.253   -844.19776   -872.55408    80.227146 
   52600     853.9905   -106.30746   0.77270855   -105.53475     4044.221    4.3033289    4.3033289    4.3033289     4044.221   -16992.743    31552.066   -2426.6604    386.95519    5666.3402   -2955.1124    79.691795 
   52700    784.00404   -106.24225   0.70938333   -105.53286   -9894.8039    4.3061642    4.3061642    4.3061642   -9894.8039   -11079.754   -18522.808   -81.850014   -92.928048    8442.1486    1004.3938     79.84942 
   52800    586.59872   -106.06803   0.53076685   -105.53726   -2499.8084    4.3016212    4.3016212    4.3016212   -2499.8084   -1452.5201   -11439.808    5392.9033    14154.772   -2123.7276    6970.7282    79.596961 
   52900    937.15775   -106.38343   0.84796003   -105.53547    533.50011    4.3120432    4.3120432    4.3120432    533.50011   -11443.356    26585.225   -13541.369   -3294.7195    11962.487   -2514.8672    80.176911 
   53000    955.25032   -106.40047   0.86433056   -105.53614    6065.3303    4.2989981    4.2989981    4.2989981    6065.3303   -104.72433    12162.975    6137.7403    12379.817   -479.75853    13445.734    79.451435 
   53100    507.90528   -106.00364   0.45956337   -105.54408    3198.6801    4.3032289    4.3032289    4.3032289    3198.6801   -11003.648    17473.713    3125.9747    12879.339    2875.9072    1267.1298     79.68624 
   53200    950.46363   -106.39322   0.85999947   -105.53322   -9992.7372    4.3140737    4.3140737    4.3140737   -9992.7372   -14565.835   -8262.0504   -7150.3265   -961.38604    10015.764    433.15831    80.290229 
   53300    784.75606   -106.24596   0.71006377   -105.53589    8106.1428     4.295898     4.295898     4.295898    8106.1428    5770.6875    15322.985     3224.756    18524.555   -10054.379    10241.875    79.279681 
   53400    894.75585   -106.34705    0.8095939   -105.53745   -4366.2188    4.3093795    4.3093795    4.3093795   -4366.2188   -12928.359    6900.9074   -7071.2045   -3266.9169    11434.588   -7683.5272    80.028419 
   53500    782.37704   -106.24245   0.70791119   -105.53454   -1829.8411    4.3052508    4.3052508    4.3052508   -1829.8411    3338.9357   -7148.7395   -1679.7196   -2178.6311    4567.3288    3393.9116    79.798618 
   53600    461.41073    -105.9592   0.41749413   -105.54171    2387.6428    4.2989001    4.2989001    4.2989001    2387.6428    1855.9932   -8454.7495    13761.685    18899.943   -24.315941    4628.4007    79.446003 
   53700    1072.5541   -106.50784   0.97046951   -105.53738   -1096.8878     4.308309     4.308309     4.308309   -1096.8878   -15696.512    17691.895   -5286.0462   -11149.014    19185.417   -12447.257     79.96879 
   53800    884.42267   -106.33772   0.80024422   -105.53748   -734.86358    4.3076163    4.3076163    4.3076163   -734.86358   -4118.2423    3357.4993   -1443.8477    10959.165   -5212.9251    13560.259    79.930223 
   53900    584.43341   -106.06618   0.52880763   -105.53737   -4539.8246    4.3042073    4.3042073    4.3042073   -4539.8246   -12785.053   -10952.397    10117.976    5982.8851    11744.023   -2401.4751    79.740606 
   54000    815.35349   -106.27242   0.73774897   -105.53467    1319.6006    4.3026241    4.3026241    4.3026241    1319.6006    8667.7255   -11029.346    6320.4225   -12560.287    5661.9363    4811.8947    79.652648 
   54100    861.87089   -106.31781    0.7798389   -105.53798   -8518.9624    4.3112128    4.3112128    4.3112128   -8518.9624   -4992.7952   -20238.615   -325.47689    18585.455    274.10903    12980.193    80.130595 
   54200    905.06858   -106.35423   0.81892508    -105.5353    6287.3687    4.3003939    4.3003939    4.3003939    6287.3687   -4324.0237    11596.517    11589.613   -2536.8986    9224.4828   -4820.4653     79.52885 
   54300    685.25996   -106.15722   0.62003761   -105.53718    1164.2549    4.3044478    4.3044478    4.3044478    1164.2549   -1651.0038   -2230.5011    7374.2696   -8237.4499   -565.88163    7686.1145    79.753973 
   54400    728.91655   -106.19594   0.65953901   -105.53641   -5031.1493    4.3096317    4.3096317    4.3096317   -5031.1493   -16626.197   -9101.0532    10633.802    17326.667    1.2100993   -1616.7614    80.042468 
   54500    870.00112   -106.32357   0.78719529   -105.53638    9917.4863    4.2996775    4.2996775    4.2996775    9917.4863    309.79794    18298.013    11144.648   -25802.071    9997.2502   -2559.5022    79.489112 
   54600    1006.4334   -106.44616    0.9106421   -105.53551   -810.14529    4.3079939    4.3079939    4.3079939   -810.14529    1536.7193   -12021.136    8053.9809    2818.3368   -6418.9978   -940.35737    79.951246 
   54700    566.92119   -106.05051    0.5129622   -105.53755    2239.9624    4.3033592    4.3033592    4.3033592    2239.9624    -3469.723   -9800.8984    19990.509     913.4227    13507.426     1803.368    79.693481 
   54800    693.99584   -106.16846   0.62794202   -105.54052   -4552.4493    4.3037129    4.3037129    4.3037129   -4552.4493   -11415.914   -11596.822    9355.3887   -21229.246     7193.546   -5947.9719    79.713132 
   54900    1176.9113   -106.59933    1.0648941   -105.53444    4909.3201    4.3065533    4.3065533    4.3065533    4909.3201   -4350.2588    1572.3234    17505.896    11090.491    2674.1161    8854.4793    79.871066 
   55000    552.59507   -106.04394   0.49999963   -105.54394    -8015.907     4.303405     4.303405     4.303405    -8015.907   -17383.951    5707.6226   -12371.392   -19844.766    18978.122    654.72392    79.696024 
   55100    801.77234   -106.26541   0.72546047   -105.53995   -852.92416    4.3068899    4.3068899    4.3068899   -852.92416   -2.2819111   -8982.2265    6425.7359   -5707.8365   -3134.2692    2845.1883    79.889798 
   55200    870.75652   -106.32601    0.7878788   -105.53813    1003.5766    4.3059927    4.3059927    4.3059927    1003.5766   -2124.6066    -6531.419    11666.755    112.13884    10575.524     7408.811    79.839877 
   55300    605.25186   -106.09184    0.5476446   -105.54419   -6522.9097     4.302297     4.302297     4.302297   -6522.9097   -24743.957    2865.1249     2310.103    -21453.58    8083.8582   -1655.9178    79.634482 
   55400    1161.4154   -106.58351     1.050873   -105.53263    5696.9601    4.3071826    4.3071826    4.3071826    5696.9601     4670.867   -573.46593    12993.479    7408.1528   -10329.257   -2361.6748    79.906083 
   55500    480.08668   -105.97682   0.43439251   -105.54243   -13417.136    4.3072733    4.3072733    4.3072733   -13417.136   -24312.232   -17323.035    1383.8585   -20395.816    16452.011    3553.6748    79.911131 
   55600    847.58565   -106.30973   0.76691331   -105.54282    1479.0929    4.3017737    4.3017737    4.3017737    1479.0929   -7880.7864    8042.6861    4275.3789   -9242.7527   -5805.3952   -6419.2562    79.605425 
   55700    1007.0413   -106.44956   0.91119217   -105.53837    3916.6716    4.3102238    4.3102238    4.3102238    3916.6716     4216.368    -3007.421    10541.068    -1939.441    1451.0966    928.51979    80.075466 
   55800    489.90943   -105.98849   0.44328035   -105.54521   -6079.3919    4.3019062    4.3019062    4.3019062   -6079.3919   -15874.415    5013.6639   -7377.4249    -26636.77    17404.694   -89.204584    79.612782 
   55900    899.22563   -106.35198   0.81363825   -105.53834     13177.82     4.305946     4.305946     4.305946     13177.82    501.98502    5442.1815    33589.293    8116.7698   -4440.4438    338.44869     79.83728 
   56000    951.61879   -106.40283   0.86104468   -105.54178   -2828.7279     4.306285     4.306285     4.306285   -2828.7279   -22564.713   -8122.6054    22201.135   -12884.273    12745.937   -170.07932    79.856141 
   56100    671.71915    -106.1504    0.6077856   -105.54262    14668.656    4.3012065    4.3012065    4.3012065    14668.656   -1344.2304    16249.713    29100.487   -13550.109    14872.095   -2209.9916    79.573945 
   56200    909.29675   -106.35689   0.82275081   -105.53414   -9571.1885    4.3147108    4.3147108    4.3147108   -9571.1885    4977.1232   -15898.501   -17792.187    9347.8656   -8759.0563   -1305.2598    80.325805 
   56300    558.97876   -106.04467   0.50577573   -105.53889    8555.8728    4.2975226    4.2975226    4.2975226    8555.8728    -7924.735    6111.7664    27480.587   -21342.473    21198.751   -4006.9309    79.369658 
   56400    1034.1002   -106.47385   0.93567558   -105.53818    2154.9618    4.3087018    4.3087018    4.3087018    2154.9618   -1274.4714   -4302.8637     12042.22    2643.8917   -3634.2066   -4213.7616    79.990668 
   56500    902.33175   -106.35454   0.81644873    -105.5381   -5887.8044    4.3091902    4.3091902    4.3091902   -5887.8044   -17866.809   -12748.975     12952.37    3636.2557   -4992.8595   -4050.4172     80.01787 
   56600    509.59079   -106.00228   0.46108846   -105.54119    10109.159    4.2963164    4.2963164    4.2963164    10109.159    10520.738    3002.7168    16804.022   -15684.525    20729.594   -325.77266    79.302847 
   56700    1042.5173   -106.47862   0.94329155   -105.53533   -8569.2718    4.3145945    4.3145945    4.3145945   -8569.2718    5367.2014   -19590.235   -11484.782     11655.13   -11828.235   -8132.2318    80.319308 
   56800    703.82991   -106.17788   0.63684009   -105.54104     10618.51    4.3016688    4.3016688    4.3016688     10618.51    910.50361   -5645.4746    36590.502   -11316.922    16174.535    3823.2982    79.599603 
   56900    874.22439   -106.33036    0.7910166   -105.53934   -8330.4298     4.308348     4.308348     4.308348   -8330.4298    2803.6208    -9524.084   -18270.826   -9388.2663    11081.284   -4074.1073    79.970965 
   57000    898.14048    -106.3477   0.81265638   -105.53505    2784.1448    4.3064862    4.3064862    4.3064862    2784.1448    14835.847   -11380.484    4897.0715    6273.0793    1507.8079    84.198232    79.867334 
   57100    466.17129   -105.96435   0.42180158   -105.54255    10550.044    4.3016144    4.3016144    4.3016144    10550.044     4186.616    2506.4228    24957.093   -14955.357    20030.946    2755.1221    79.596585 
   57200    1117.4361   -106.54662    1.0110797   -105.53554   -11830.645     4.314482     4.314482     4.314482   -11830.645   -5562.3878   -18940.544   -10989.004   -1151.5694    1879.6602   -1470.6331    80.313023 
   57300    762.12149   -106.22678   0.68958354    -105.5372    21029.272    4.2974108    4.2974108    4.2974108    21029.272    22353.711    1251.6752     39482.43   -85.290308    10575.207   -2371.3991    79.363465 
   57400    669.22888   -106.14544   0.60553235    -105.5399   -20280.095    4.3114889    4.3114889    4.3114889   -20280.095   -16031.269   -16116.742   -28692.274   -15880.596    14699.371    487.81869    80.145993 
   57500    807.59697   -106.26679   0.73073071   -105.53606     541.8382    4.3086246    4.3086246    4.3086246     541.8382    13396.949   -7715.3385   -4056.0963    3053.8627   -15209.947    -7611.426    79.986368 
   57600    959.84999   -106.40503   0.86849244   -105.53654    7083.3136    4.2976155    4.2976155    4.2976155    7083.3136    3649.9873   -1292.3671    18892.321   -8985.0004    11965.925    1793.5076    79.374803 
   57700    754.62603    -106.2213   0.68280149    -105.5385   -14373.353    4.3141171    4.3141171    4.3141171   -14373.353   -7180.3188   -18361.378   -17578.361   -1514.3007    1108.7062   -5377.4031    80.292646 
   57800    634.72564   -106.11168    0.5743131   -105.53737    4366.6188    4.3022016    4.3022016    4.3022016    4366.6188    5537.3235   -5582.0068     13144.54    2536.0813   -11024.905   -3281.1811    79.629186 
   57900    909.75814   -106.36102   0.82316829   -105.53785   -3249.7269    4.3052504    4.3052504    4.3052504   -3249.7269   -13802.149   -25.343651    4078.3118   -6324.4694    10682.184   -1220.9257    79.798598 
   58000    758.90659   -106.22731   0.68667464   -105.54064   -8470.4748    4.3097211    4.3097211    4.3097211   -8470.4748   -5940.7585   -13155.801   -6314.8649    3824.7079   -11331.531   -1938.2039    80.047451 
   58100    883.51862   -106.33736   0.79942622   -105.53793   -5414.5348    4.3014118    4.3014118    4.3014118   -5414.5348   -3437.6245   -6996.0699   -5809.9101   -5755.8955    -7016.678    2860.1725    79.585341 
   58200    759.95215   -106.22403   0.68762067   -105.53641   -4261.8144    4.3098328    4.3098328    4.3098328   -4261.8144    1861.0127   -10310.657   -4335.7986   -2923.2874    10738.156   -2380.7898    80.053671 
   58300    503.18554   -105.99975   0.45529285   -105.54446     -9416.88    4.3063943    4.3063943    4.3063943     -9416.88    -13005.32   -2552.1609   -12693.159    812.86592   -22751.369    1166.6238    79.862218 
   58400    1228.3999   -106.64843    1.1114821   -105.53695    10907.615    4.3027153    4.3027153    4.3027153    10907.615    1720.6797    9191.0984    21811.066   -8296.3633    8974.9081   -2368.5822    79.657712 
   58500    745.31671   -106.21765   0.67437822   -105.54327   -8428.9401    4.3113511    4.3113511    4.3113511   -8428.9401   -7094.0105   -10886.592   -7306.2177    2664.4916   -17229.419   -8019.0813    80.138311 
   58600    492.57382   -105.99241   0.44569114   -105.54672   -4850.7469    4.2984494    4.2984494    4.2984494   -4850.7469   -3149.7417    5674.9718   -17077.471   -2379.2571   -18202.959     205.8935    79.421021 
   58700    1066.2174   -106.50511   0.96473589   -105.54038   -1977.4725    4.3121991    4.3121991    4.3121991   -1977.4725    1266.3717     4846.185   -12044.974    -1267.396    4944.3992    -1993.192    80.185606 
   58800    662.70526   -106.15049   0.59962965   -105.55086   -12400.002    4.3081357    4.3081357    4.3081357   -12400.002   -18593.432   -7651.4372   -10955.138    3343.6038   -23098.885   -1842.1327    79.959142 
   58900    992.35361   -106.43617    0.8979024   -105.53827    17684.994    4.2934714    4.2934714    4.2934714    17684.994    10109.076    21537.386    21408.519    1528.6801   -2431.4938    3974.0162    79.145408 
   59000    707.58663   -106.17753   0.64023925   -105.53729   -11784.305    4.3151881    4.3151881    4.3151881   -11784.305   -16093.625    -8363.568   -10895.723   -504.09959    7120.1991   -811.68444    80.352463 
   59100    571.76608   -106.05723   0.51734597   -105.53988    4245.1329    4.2982116    4.2982116    4.2982116    4245.1329    978.18941    20467.924   -8710.7145    2188.2071   -19498.195    2938.5404    79.407836 
   59200     1042.567   -106.48014   0.94333655    -105.5368    2564.5101    4.3065889    4.3065889    4.3065889    2564.5101   -14490.472    19170.436    3013.5667    817.13462    20021.555    1145.7264    79.873045 
   59300    842.44336    -106.3018   0.76226045   -105.53954    -10575.14    4.3083207    4.3083207    4.3083207    -10575.14   -13941.328   -6152.2796   -11631.812   -3950.4758     689.1328   -6205.7034    79.969445 
   59400    655.44997   -106.12883    0.5930649   -105.53576     11357.27    4.3011066    4.3011066    4.3011066     11357.27   -1427.3068    16981.366    18517.752    4503.2783   -4075.5248     2242.012    79.568398 
   59500    719.34783   -106.18572   0.65088104   -105.53484   -10201.611    4.3121656    4.3121656    4.3121656   -10201.611   -18089.842    1408.0828   -13923.073   -2393.1385     27504.17   -2185.7809    80.183735 
   59600    959.42126   -106.40195   0.86810451   -105.53385    12913.677    4.2960406    4.2960406    4.2960406    12913.677    5574.6224      11461.7    21704.707   -46.823323   -17392.487   -4705.0691    79.287574 
   59700    840.65327   -106.29882   0.76064075   -105.53818   -3688.9785    4.3102819    4.3102819    4.3102819   -3688.9785   -23180.793    6615.0102    5498.8473    5744.0389    25152.032    5596.4202    80.078703 
   59800    764.14128   -106.22639   0.69141109   -105.53498   -3368.8918    4.3084867    4.3084867    4.3084867   -3368.8918   -6612.6048   -27.501046   -3466.5697   -2670.5293    8591.5912     1617.069    79.978686 
   59900    715.48432   -106.18235   0.64738525   -105.53496    4980.8102    4.2979041    4.2979041    4.2979041    4980.8102    5509.9034    15469.546   -6037.0189    8823.0551    -8024.133   -4646.6021    79.390798 
   60000    781.94154   -106.24799   0.70751714   -105.54047   -881.63382    4.3097346    4.3097346    4.3097346   -881.63382   -28397.261    11208.528    14543.831    2988.7393    32656.613    7048.8436    80.048204 
   60100    1131.5402   -106.55937    1.0238414   -105.53553     6461.294    4.3078648    4.3078648    4.3078648     6461.294    1792.4744   -3010.3422     20601.75    2191.8499   -11412.226   -6923.5752    79.944061 
   60200    472.99384   -105.97043   0.42797477   -105.54246     10428.28    4.2974509    4.2974509    4.2974509     10428.28    -8944.148    14587.932    25641.057    7944.7155    19216.858   -2933.4806    79.365687 
   60300     832.3317   -106.29309   0.75311122   -105.53998   -10918.868    4.3098916    4.3098916    4.3098916   -10918.868   -7141.3103    202.09659   -25817.389    627.12195     21102.56   -3624.8031    80.056949 
   60400    974.37409   -106.41962   0.88163415   -105.53799    5329.0535    4.3032233    4.3032233    4.3032233    5329.0535    3960.9102    11915.466    110.78455    2204.7699   -11148.163   -5026.4977    79.685932 
   60500    568.57884   -106.06068   0.51446209   -105.54622   -947.92267    4.3051567    4.3051567    4.3051567   -947.92267   -25559.553    10938.806    11776.979    6027.0734    29695.249     220.7829    79.793385 
   60600    1183.8843   -106.60648    1.0712034   -105.53527    5176.0244    4.3063628    4.3063628    4.3063628    5176.0244    9692.5491   -3208.4894    9044.0135   -4305.3773   -6057.9671    434.68267    79.860465 
   60700    447.53575   -105.94943   0.40493976   -105.54449     8808.994    4.2993031    4.2993031    4.2993031     8808.994   -6379.2424    25032.544     7773.681     4878.503     21098.46     1425.453    79.468351 
   60800    759.42974   -106.23184   0.68714799   -105.54469   -18606.495    4.3151257    4.3151257    4.3151257   -18606.495   -22583.009   -3612.2676    -29624.21    453.07376    17569.977    4186.9937    80.348979 
   60900    1154.3582   -106.57928    1.0444875   -105.53479    25850.525    4.2967077    4.2967077    4.2967077    25850.525    23973.521    7622.8143    45955.241   -8212.2088   -1524.2828   -6739.5075    79.324513 
   61000    546.59174   -106.04032   0.49456769   -105.54575   -10137.357    4.3052982    4.3052982    4.3052982   -10137.357   -16290.085    13541.083    -27663.07    8921.6548    34204.147    -1600.461    79.801253 
   61100      847.803    -106.3026   0.76710997   -105.53549   -6681.4229    4.3105066    4.3105066    4.3105066   -6681.4229    4134.3079   -13338.716   -10839.861   -8756.4884   -1708.4962    1373.4287    80.091225 
   61200    776.08966   -106.23997   0.70222224   -105.53775    12939.466    4.2942575    4.2942575    4.2942575    12939.466   -4045.1393    20363.535    22500.003    1184.0916    17502.446   -2513.3862    79.188888 
   61300    721.29734   -106.19712   0.65264499   -105.54447   -5988.6352    4.3107225    4.3107225    4.3107225   -5988.6352   -18991.004   -3314.1769    4339.2752    4608.0278    15986.968   -1060.0767    80.103263 
   61400     1089.216   -106.52047   0.98554549   -105.53492   -3821.5916      4.30902      4.30902      4.30902   -3821.5916     40.21376   -20857.334    9352.3457    -13061.09   -13139.127    9706.8823     80.00839 
   61500    512.47746    -106.0032   0.46370037   -105.53949   -6707.1389    4.2989087    4.2989087    4.2989087   -6707.1389   -18733.798    23394.808   -24782.427    7521.3382      31282.2   -5682.3852    79.446482 
   61600    815.75658     -106.277    0.7381137   -105.53889   -6578.5534    4.3034874    4.3034874    4.3034874   -6578.5534   -10345.032   -3710.2705   -5680.3572   -7296.4961    1241.9109     9808.722    79.700605 
   61700    872.92309   -106.32809   0.78983916   -105.53825    81.639636    4.3099543    4.3099543    4.3099543    81.639636    -13330.05   -2112.2296    15687.199    -10673.04    7017.2509    5292.4411    80.060442 
   61800    803.62704   -106.26523   0.72713864   -105.53809   -1499.8888     4.303578     4.303578     4.303578   -1499.8888   -16642.267    10123.938    2018.6627    9717.2224    25966.548    6147.2782    79.705638 
   61900    825.06693   -106.28088    0.7465379   -105.53434    3800.0068    4.3012634    4.3012634    4.3012634    3800.0068    5582.8762   -2984.2062    8801.3503   -10008.557   -12654.842    2061.4134      79.5771 
   62000    607.25562    -106.0884   0.54945765   -105.53895   -11939.075    4.3071402    4.3071402    4.3071402   -11939.075   -38462.771    26231.011   -23585.466     2453.209    24547.624    477.70192    79.903722 
   62100    946.99984   -106.39397   0.85686536    -105.5371   -4467.5551    4.3067795    4.3067795    4.3067795   -4467.5551   -15631.554    -367.6897    2596.5782    10321.708    3186.0377   -10037.296    79.883653 
   62200    971.57924   -106.41473   0.87910531   -105.53562    6505.0001    4.3024701    4.3024701    4.3024701    6505.0001    -461.6475    14837.389    5139.2592   -11074.742   -281.73569    1679.1233    79.644093 
   62300    522.56346   -106.01501    0.4728264   -105.54219    -9554.374    4.3062968    4.3062968    4.3062968    -9554.374   -39373.966    16609.417   -5898.5723    16219.358    19826.252   -3104.5233    79.856793 
   62400     913.3365    -106.3629   0.82640606    -105.5365    10030.961    4.3041928    4.3041928    4.3041928    10030.961    4170.1478    12577.353    13345.383    1969.5776   -7140.5955   -310.77521    79.739803 
   62500    828.22055   -106.28879   0.74939136    -105.5394    4747.6771    4.3026631    4.3026631    4.3026631    4747.6771   -19337.562    34268.348   -687.75503    2976.5437    12418.811    6848.5402    79.654813 
   62600    726.58967   -106.19863    0.6574336    -105.5412   -2637.7154    4.3051618    4.3051618    4.3051618   -2637.7154   -8128.9335   -6721.6162    6937.4035    17171.931    12505.855   -3335.5414    79.793668 
   62700    993.38063   -106.43168   0.89883167   -105.53285    11491.923    4.3045503    4.3045503    4.3045503    11491.923    3512.8191    34214.806   -3251.8576   -5048.1034   -1215.2099    6260.6252    79.759674 
   62800    536.77136   -106.02725   0.48568201   -105.54157   -13326.983    4.3082252    4.3082252    4.3082252   -13326.983   -51159.214     11458.58   -280.31398    18264.144    21359.521   -341.61037    79.964124 
   62900    922.49149   -106.37239   0.83468969    -105.5377    10756.575    4.2994999    4.2994999    4.2994999    10756.575   -216.55342    17694.201    14792.078    5788.0788    288.16579     -1990.64    79.479264 
   63000    910.19861   -106.36009   0.82356683   -105.53653   -941.82242    4.3064722    4.3064722    4.3064722   -941.82242   -5199.3604     1299.044    1074.8491    1166.4691    11000.974    2566.3355    79.866555 
   63100    549.24201   -106.03832   0.49696571   -105.54136   -16436.394    4.3084012    4.3084012    4.3084012   -16436.394   -36002.727   -5162.1267   -8144.3268    22311.267    12233.017    -5945.814    79.973925 
   63200    1035.0268    -106.4696   0.93651401   -105.53309    18014.709     4.297511     4.297511     4.297511    18014.709    16234.547    26872.979    10936.601   -8058.5838   -5112.6977   -2062.2534    79.369014 
   63300    777.34913   -106.24233   0.70336183   -105.53896   -16662.699    4.3110982    4.3110982    4.3110982   -16662.699   -32415.914   -11736.276   -5835.9073    11170.642    18918.794    2727.1976     80.12421 
   63400    643.74231    -106.1203   0.58247157   -105.53782    7693.7039    4.3025984    4.3025984    4.3025984    7693.7039    2717.5328    10770.022    9593.5571    12824.185     910.8742   -5748.5027    79.651219 
   63500    931.57269   -106.37718   0.84290655   -105.53428    1118.4724    4.3019696    4.3019696    4.3019696    1118.4724   -9104.3024    3830.0036    8629.7159   -15355.363    2211.7726    4954.6975    79.616303 
   63600    658.74461   -106.13578   0.59604596   -105.53974   -12010.658    4.3091658    4.3091658    4.3091658   -12010.658   -36407.322    8864.9427   -8489.5959    23238.764    20991.942    882.37246    80.016512 
   63700    1042.5366   -106.47714   0.94330904   -105.53384    4845.9455    4.3004138    4.3004138    4.3004138    4845.9455    7767.8795     2081.652    4688.3051   -6239.5162   -8461.1279   -3412.7353    79.529956 
   63800    581.24881   -106.06566   0.52592614   -105.53974   -18044.727      4.30869      4.30869      4.30869   -18044.727   -14249.789   -27626.591     -12257.8    1834.0688    17640.271    3998.2738    79.990012 
   63900    779.35872   -106.24513   0.70518015   -105.53995    30.037349    4.3014383    4.3014383    4.3014383    30.037349   -10830.613    5405.2874    5515.4374    18277.774    12867.693    1284.9519     79.58681 
   64000    1027.2464   -106.46485   0.92947416   -105.53538    2903.5412    4.3072493    4.3072493    4.3072493    2903.5412    1228.6118    916.99822    6565.0137   -8693.0416   -4578.4305   -6657.6824    79.909797 
   64100    575.21933   -106.06073   0.52047054   -105.54026   -14658.809    4.3066019    4.3066019    4.3066019   -14658.809   -25602.626   -10347.628   -8026.1737    16982.969    24621.474    6656.4417    79.873768 
   64200    815.31082   -106.27323   0.73771037   -105.53552    14206.519    4.2985916    4.2985916    4.2985916    14206.519    18056.185    15845.731    8717.6401    3750.6991   -651.23243   -7942.5236    79.428903 
   64300    848.71768   -106.30536   0.76793759   -105.53742   -19140.287    4.3130077    4.3130077    4.3130077   -19140.287    -16975.87   -15585.359   -24859.632     3001.317    10801.477   -4855.1555    80.230721 
   64400    769.04505    -106.2363   0.69584812   -105.54045    -2840.843     4.299877     4.299877     4.299877    -2840.843   -18295.149    19533.808   -9761.1885    14658.802    17067.973    10532.208    79.500179 
   64500    988.36145   -106.42944   0.89429021   -105.53515    3256.7651     4.305499     4.305499     4.305499    3256.7651    14148.967   -11972.923     7594.251   -2866.9981   -7378.5114   -12029.109    79.812418 
   64600    483.20633   -105.98048   0.43721524   -105.54326   -19173.787    4.3063548    4.3063548    4.3063548   -19173.787   -14254.055   -30646.546   -12620.759    5040.3261    17266.184    10112.548    79.860019 
   64700     736.4693   -106.20926    0.6663729   -105.54289    12080.356    4.2997017    4.2997017    4.2997017    12080.356    6196.9457     28301.14    1742.9822    10159.037    2282.6198   -5400.5664    79.490457 
   64800    1218.2361   -106.63762    1.1022856   -105.53533     -8241.72     4.312921     4.312921     4.312921     -8241.72   -5748.0751    2586.2633   -21563.348   -6617.2925    -2982.694    -2196.633    80.225883 
   64900    450.68701    -105.9501   0.40779107   -105.54231    6386.9561    4.2963857    4.2963857    4.2963857    6386.9561   -3699.6804    30369.367    -7508.818    15921.382    18034.588    9933.3609    79.306686 
   65000    824.69568   -106.28471   0.74620198   -105.53851   -4810.4244     4.307548     4.307548     4.307548   -4810.4244    2777.7203   -16106.739   -1102.2545    -1768.601   -13054.093   -2655.3419    79.926425 
   65100    850.36802   -106.30809   0.76943086   -105.53866   -4333.4859    4.3052688    4.3052688    4.3052688   -4333.4859   -1265.9462   -3597.4619   -8137.0496    5912.4722    11314.009    4461.7343    79.799618 
   65200    748.22918   -106.22071   0.67701348   -105.54369    4464.8752     4.300196     4.300196     4.300196    4464.8752   -12854.993    27488.125   -1238.5062    13792.557    4852.1362    2598.8371    79.517873 
   65300    1102.8222   -106.53065   0.99785666   -105.53279   -3252.3964    4.3102613    4.3102613    4.3102613   -3252.3964     2040.059   -2532.4669   -9264.7813   -3637.6381   -8956.5441   -5146.7665    80.077552 
   65400     369.8325   -105.87639   0.33463222   -105.54176    5367.6057    4.2984666    4.2984666    4.2984666    5367.6057    1838.6395    20844.615   -6580.4377    17118.172    20400.619    7465.9822    79.421971 
   65500    866.43063   -106.32562   0.78396464   -105.54165    -4207.592     4.308389     4.308389     4.308389    -4207.592   -1197.1357   -7379.0513    -4046.589    10477.538   -9854.9633     1162.384    79.973248 
   65600    1151.9889    -106.5786    1.0423438   -105.53626    13374.201    4.3009098    4.3009098    4.3009098    13374.201    951.51344    38663.638    507.45133   -8302.3452    6528.7161    2410.3319    79.557478 
   65700    482.75724   -105.98139   0.43680889   -105.54458    -13634.03    4.3067333    4.3067333    4.3067333    -13634.03   -14974.182   -18717.609   -7210.2995    20329.351    12226.655    6580.1973     79.88108 
   65800    855.06963    -106.3091   0.77368497   -105.53541    4331.6346    4.3022496    4.3022496    4.3022496    4331.6346    6861.2382   -5412.9657    11546.631   -5073.5371   -7388.3083     199.5732    79.631853 
   65900    755.25053   -106.22577   0.68336655    -105.5424    331.36205    4.3019167    4.3019167    4.3019167    331.36205   -4050.5581    9957.0544   -4912.4102    5510.8149    16965.985    2939.6823    79.613366 
   66000    833.79865   -106.29509   0.75443854   -105.54065   -18889.855    4.3141296    4.3141296    4.3141296   -18889.855   -27457.062   -9177.7076   -20034.796     18801.65     5231.715    15476.337    80.293345 
   66100    993.15814   -106.43016   0.89863035   -105.53153    18404.634     4.290877     4.290877     4.290877    18404.634    18545.176    24975.229    11693.496    -11263.58   -4461.3048   -6987.8989    79.002018 
   66200    437.36175   -105.93911    0.3957341   -105.54337   -17524.955    4.3071478    4.3071478    4.3071478   -17524.955   -22662.285   -18721.315   -11191.264    17378.111    18232.771    10961.802     79.90415 
   66300     961.6154   -106.40617   0.87008982   -105.53608    -1355.742    4.3089339    4.3089339    4.3089339    -1355.742   -3184.2179   -1916.1771    1033.1691    2627.9445   -6677.5104    1362.9832    80.003591 
   66400     958.1618   -106.40264   0.86696493   -105.53567    5572.6316    4.2979849    4.2979849    4.2979849    5572.6316    -3828.454     20787.56   -241.21139    3036.4272    6090.0772   -13090.116    79.395276 
   66500    510.96441   -106.00403   0.46233134    -105.5417   -14497.935    4.3061934    4.3061934    4.3061934   -14497.935   -11448.757   -25095.252   -6949.7968    16484.481     12810.11    13436.407    79.851043 
   66600    912.34769   -106.36079   0.82551136   -105.53528    12694.939    4.3035503    4.3035503    4.3035503    12694.939     15611.18     20657.19    1816.4479   -3887.7468   -6559.9161   -13982.026      79.7041 
   66700    838.52611   -106.29981   0.75871605   -105.54109   -9765.0272    4.3072644    4.3072644    4.3072644   -9765.0272   -19762.684    773.04024   -10305.437    4011.7048    10188.241     3615.844    79.910636 
   66800    791.55165   -106.25462   0.71621257   -105.53841    15703.304    4.2960231    4.2960231    4.2960231    15703.304    2931.5282    38955.091    5223.2937    7987.8062    1301.0093    1190.1387    79.286604 
   66900    831.03851   -106.28814    0.7519411    -105.5362   -5820.2324    4.3089306    4.3089306    4.3089306   -5820.2324   -5370.7803    2759.8022   -14849.719   -5257.5405    394.64827   -11883.429     80.00341 
   67000    642.30357   -106.12001   0.58116977   -105.53884   -5301.3378     4.305385     4.305385     4.305385   -5301.3378   -17706.466   -451.70541    2254.1577    12602.678    11163.562    9258.7415    79.806082 
   67100    1011.3649   -106.44918   0.91510419   -105.53408    18309.241    4.2946323    4.2946323    4.2946323    18309.241    19860.338    22712.153    12355.233   -1592.0337    790.47644   -8169.9529    79.209623 
   67200    829.33263   -106.28759   0.75039759    -105.5372   -4087.6064    4.3095531    4.3095531    4.3095531   -4087.6064   -5517.3705     9854.673   -16600.122    4840.5682    10486.558    -8519.588    80.038091 
   67300    575.10906   -106.05748   0.52037077   -105.53711    4038.2345    4.3043055    4.3043055    4.3043055    4038.2345   -1227.1398    21987.689   -8645.8458    12522.432    9696.1708    6169.5723    79.746063 
   67400    890.24187   -106.34008   0.80550955   -105.53457    5575.3875    4.3007744    4.3007744    4.3007744    5575.3875    20137.751    2905.9408   -6317.5297   -4537.0046   -3817.1176   -20168.936    79.549962 
   67500    977.24774   -106.42071   0.88423429   -105.53648    2672.5492    4.3029407    4.3029407    4.3029407    2672.5492     -21217.1    29126.524    108.22424    16556.216    21162.373    1410.4376    79.670234 
   67600    731.65668    -106.1991   0.66201834   -105.53708   -3560.5342    4.3069493    4.3069493    4.3069493   -3560.5342    699.45036   -10.755881   -11370.297    1972.4188    442.70462    -3789.636    79.893102 
   67700    640.73735    -106.1167   0.57975262   -105.53695   -5505.5659    4.3025665    4.3025665    4.3025665   -5505.5659    963.76232    939.16783   -18419.628   -538.98227    9449.0106   -12873.179    79.649451 
   67800    896.17314   -106.34822   0.81087629   -105.53735    5687.7124    4.3000988    4.3000988    4.3000988    5687.7124      9621.66    7092.9497    348.52747    10003.777     18689.95    6794.9483    79.512482 
   67900    905.52624   -106.35837   0.81933917   -105.53903   -8749.3154    4.3091324    4.3091324    4.3091324   -8749.3154    11922.699   -18857.987   -19312.658   -4884.3615   -8815.5955    -13707.47    80.014652 
   68000    741.19963   -106.20737     0.670653   -105.53672    6618.3679    4.2985059    4.2985059    4.2985059    6618.3679    9502.3286    20929.031   -10576.256    1455.0564    15470.581   -811.46219    79.424151 
   68100    686.04791    -106.1572   0.62075056   -105.53645   -3023.0961    4.3047107    4.3047107    4.3047107   -3023.0961    26.882836   -295.84649   -8800.3245    179.53889    3713.2131   -1601.9978     79.76859 
   68200    751.54229   -106.21875   0.68001126   -105.53874   -10392.109    4.3054974    4.3054974    4.3054974   -10392.109    4733.6413    -16346.82   -19563.149   -4689.2709    532.62448   -13784.589    79.812331 
   68300    1051.4402   -106.48776   0.95136516   -105.53639     8228.265    4.2991006    4.2991006    4.2991006     8228.265   -614.63771    27930.384   -2630.9511    -5647.905    21044.699    5073.8299    79.457119 
   68400    795.26854   -106.25676   0.71957569   -105.53718    -9045.723    4.3081111    4.3081111    4.3081111    -9045.723    20746.718   -18563.914   -29319.973    194.13403   -5165.5935   -16881.178    79.957775 
   68500    505.25741   -105.99546   0.45716752    -105.5383    81.463444    4.3001988    4.3001988    4.3001988    81.463444    12653.247    2718.5573   -15127.413   -6981.9595    13100.686   -3179.6714    79.518027 
   68600    873.45311   -106.32611   0.79031873   -105.53579    4605.1575    4.3040254    4.3040254    4.3040254    4605.1575    4072.2796    9512.1221    231.07076    2291.8331    7617.0813   -2037.2944    79.730499 
   68700    921.90895   -106.37289   0.83416259   -105.53873   -5734.3857    4.3046506    4.3046506    4.3046506   -5734.3857    6968.7611   -7075.4217   -17096.497    1479.2636   -3416.1387   -15552.549    79.765247 
   68800    862.25197   -106.31838    0.7801837    -105.5382    6988.1942    4.2992776    4.2992776    4.2992776    6988.1942   -5854.8055    35958.204   -9138.8154   -1465.4693    24663.171    9924.5259    79.466936 
   68900    746.45732   -106.21212   0.67541027   -105.53671   -12065.918    4.3069227    4.3069227    4.3069227   -12065.918    3442.5863   -8608.0393   -31032.302    1331.5294   -7487.4594   -19130.623    79.891621 
   69000    625.94482   -106.10516   0.56636803   -105.53879     3270.451    4.2990237    4.2990237    4.2990237     3270.451     8477.433    8283.6618   -6949.7417    1681.0016    10544.846    971.17941    79.452858 
   69100    923.01224   -106.37357   0.83516087   -105.53841    3865.5535    4.3057113    4.3057113    4.3057113    3865.5535    -927.5862    13931.041   -1406.7947   -5112.9423    8245.6544    168.13863    79.824226 
   69200    986.36504   -106.43073   0.89248382   -105.53824    535.69429    4.3022474    4.3022474    4.3022474    535.69429        12591    6431.5153   -17415.432    2293.1762    -10745.63   -13963.665    79.631728 
   69300    582.60772   -106.06776   0.52715571   -105.54061    10500.552    4.2989177    4.2989177    4.2989177    10500.552    7426.1195        27654   -3578.4643    -6443.261    17540.263    9744.9257    79.446982 
   69400     808.3776   -106.26767   0.73143704   -105.53623   -16259.784    4.3099105    4.3099105    4.3099105   -16259.784   -20263.495   -6940.8758   -21574.981   -12622.981     32.48628   -9760.1868    80.058002 
   69500    877.00238   -106.32862   0.79353018   -105.53509     13365.34    4.2978634    4.2978634    4.2978634     13365.34    14686.324     31348.12   -5938.4238    1460.9824   -1911.0617   -2999.8715    79.388543 
   69600    877.14189   -106.33274   0.79365642   -105.53908   -3763.5439    4.3051326    4.3051326    4.3051326   -3763.5439   -12340.475    8036.0243    -6986.181   -13645.695     12571.12    6018.7061    79.792048 
   69700    806.96368   -106.26625    0.7301577   -105.53609    1698.7691    4.3044311    4.3044311    4.3044311    1698.7691     12747.52    9161.6216   -16812.834   -1832.3076   -9627.6345   -10157.176    79.753046 
   69800    563.06333     -106.047   0.50947154   -105.53752    8184.5486    4.2998955    4.2998955    4.2998955    8184.5486    12480.018    10433.483    1640.1448     2000.355    7822.7343     10161.25    79.501206 
   69900    803.78952   -106.26666   0.72728565   -105.53938   -9373.6427    4.3063922    4.3063922    4.3063922   -9373.6427   -24553.445   -1068.3298   -2499.1529   -10187.679    4566.2874   -2902.8621    79.862104 
   70000    1144.6483    -106.5697    1.0357018     -105.534    16621.953    4.2996832    4.2996832    4.2996832    16621.953    17247.547    33876.813      -1258.5    2544.5944   -1803.6343   -456.11853    79.489426 
   70100    605.33317   -106.09071   0.54771817   -105.54299   -11565.732     4.306134     4.306134     4.306134   -11565.732   -9059.7366   -18287.437   -7350.0218   -3578.3498    12313.394    8588.4965    79.847738 
   70200    659.97945   -106.13702   0.59716327   -105.53985   -843.55185    4.3031232    4.3031232    4.3031232   -843.55185     -38.8256    3614.5081   -6106.3381   -8837.3982   -6488.3163   -5894.4713    79.680367 
   70300    991.29829   -106.43333   0.89694752   -105.53639     5877.456    4.3002621    4.3002621    4.3002621     5877.456    4152.9108    16636.069   -3156.6115    4087.8305     5223.648    12349.813    79.521538 
   70400    566.89533   -106.05953   0.51293881   -105.54659   -8535.5561    4.3060007    4.3060007    4.3060007   -8535.5561   -19780.351   -14182.414    8356.0967   -18782.489    7082.2983    2340.7158    79.840326 
   70500    1193.9214   -106.61509    1.0802852   -105.53481    10305.124    4.3035453    4.3035453    4.3035453    10305.124    23335.155    9655.6137    -2075.397   -3973.5985   -2186.3982    4579.7053    79.703823 
   70600    556.78293   -106.04681   0.50378889   -105.54302   -6408.2584    4.3051189    4.3051189    4.3051189   -6408.2584   -1482.0107   -18659.477    916.71221   -7367.2549    10688.691    7073.1443    79.791281 
   70700    490.41687   -105.98923   0.44373949   -105.54549   -6364.2417    4.3009127    4.3009127    4.3009127   -6364.2417   -12934.821   -11421.868    5263.9632   -16860.731    5059.9164   -1114.1264    79.557639 
   70800    1311.8677   -106.72178    1.1870055   -105.53478    693.91006    4.3044836    4.3044836    4.3044836    693.91006   -6281.8753    14498.385   -6134.7794     9825.946   -803.76449    153.40441    79.755964 
   70900      546.427   -106.03984   0.49441863   -105.54542   -11697.947     4.307868     4.307868     4.307868   -11697.947   -6801.0433   -28390.738    97.940688   -21110.503    7676.0835    1476.8272    79.944237 
   71000    903.58218   -106.35536   0.81758014   -105.53778    3206.5026    4.2992875    4.2992875    4.2992875    3206.5026    23080.967   -4717.4782   -8743.9814   -1024.0688   -282.69536   -10473.836    79.467486 
   71100    754.47955   -106.22038   0.68266895   -105.53771    3946.6675     4.302792     4.302792     4.302792    3946.6675    15733.246    4405.3895   -8298.6336   -6761.9504    2904.0957   -2098.0345    79.661974 
   71200    564.69111   -106.05525   0.51094438   -105.54431   -16081.221    4.3084783    4.3084783    4.3084783   -16081.221   -31144.004   -20409.095    3309.4342   -17308.318    4031.2167   -4170.1742    79.978222 
   71300    1170.6609   -106.59398    1.0592386   -105.53475    5954.9183    4.2992761    4.2992761    4.2992761    5954.9183    23972.751    1157.2282   -7265.2241    4278.1035   -3270.5392   -18445.929    79.466853 
   71400    722.24209   -106.19343   0.65349982   -105.53993   -830.05898    4.3033432    4.3033432    4.3033432   -830.05898    7917.8986   -10503.181    95.105563   -20405.198    6088.6459    5341.3361    79.692591 
   71500    585.97513   -106.07137   0.53020261   -105.54116   -13216.369    4.3067665    4.3067665    4.3067665   -13216.369    982.85504   -19909.778   -20722.184    -5627.229     3300.773   -16615.643    79.882928 
   71600    885.82207   -106.33699   0.80151042   -105.53548    7264.4022    4.3005701    4.3005701    4.3005701    7264.4022    25477.221    10974.134   -14658.149   -1953.6981   -1025.1948   -6906.8463    79.538629 
   71700    869.47807    -106.3273   0.78672203   -105.54058   -12090.704     4.304973     4.304973     4.304973   -12090.704   -23275.197   -8004.2841   -4992.6325    -11316.99    13184.182    2126.7321     79.78317 
   71800    837.89499   -106.29808     0.758145   -105.53993    1391.2167    4.3033369    4.3033369    4.3033369    1391.2167    41262.212   -14336.308   -22752.253    3582.3872   -2350.1703   -17092.552    79.692243 
   71900    796.15437   -106.25694   0.72037721   -105.53656    -7004.702    4.3048587    4.3048587    4.3048587    -7004.702   -3170.6844      244.814   -18088.236   -3482.5123    -1869.609    7388.9757    79.776814 
   72000    522.36193   -106.01298   0.47264405   -105.54033   -7569.9397    4.3017138    4.3017138    4.3017138   -7569.9397   -9971.3869   -5893.2684   -6845.1637   -16032.567    7825.0527   -11999.066    79.602101 
   72100    1003.1296   -106.44581   0.90765275   -105.53816    4779.0475    4.3013824    4.3013824    4.3013824    4779.0475    28084.161   -1417.7683    -12329.25    4362.8012   -4789.2931   -3715.7862    79.583707 
   72200     975.9174   -106.42132   0.88303057   -105.53829   -11030.751    4.3089814    4.3089814    4.3089814   -11030.751   -11432.893   -5938.3849   -15720.975   -17705.732    706.90249    3431.8124    80.006238 
   72300    563.98997   -106.04996   0.51030997   -105.53965    3333.5997     4.299144     4.299144     4.299144    3333.5997    32435.853   -2729.0292   -19706.025   -1863.0149    8276.7193   -16191.039    79.459526 
   72400     802.5135   -106.26296   0.72613108   -105.53682   -5691.5923    4.3028122    4.3028122    4.3028122   -5691.5923    7545.4382   -2608.0979   -22012.117   -3364.9711   -7017.9335    11776.892    79.663092 
   72500    778.41991   -106.24372   0.70433069   -105.53938   -3997.9503    4.3051658    4.3051658    4.3051658   -3997.9503   -8447.5797   -2044.1367   -1502.1345   -10764.085    6484.5588   -9854.3833    79.793889 
   72600    921.29436   -106.37318    0.8336065   -105.53957   -2197.2306    4.3009839    4.3009839    4.3009839   -2197.2306    26158.437   -10040.583   -22709.546   -1175.8363    3746.8402   -5174.6844    79.561589 
   72700    850.62026   -106.30767   0.76965909   -105.53802   -2453.5455    4.3039215    4.3039215    4.3039215   -2453.5455    4189.9823    1732.7215    -13283.34   -1537.0915    4371.0633    15445.376    79.724726 
   72800    589.88393   -106.07385   0.53373938   -105.54011    196.35248    4.3017106    4.3017106    4.3017106    196.35248    1371.8605    13226.897     -14009.7   -2810.5687     8505.241   -14805.937    79.601923 
   72900    787.63958   -106.25305   0.71267284   -105.54038   -4909.6857    4.3050872    4.3050872    4.3050872   -4909.6857     25426.57   -14644.082   -25511.546    5463.2328    2566.6517    18938.592    79.789519 
   73000    1042.0604   -106.47736   0.94287819   -105.53448    7906.4172    4.3023932    4.3023932    4.3023932    7906.4172    18340.155    3070.1918    2308.9051    -2161.126    4134.6188    2863.0033    79.639824 
   73100    663.58634   -106.14082   0.60042687    -105.5404   -5610.0406    4.3015316    4.3015316    4.3015316   -5610.0406    26603.351   -6090.7344   -37342.739   -6501.2956    2971.3699    681.74161    79.591991 
   73200    641.54914   -106.12096   0.58048714   -105.54047   -8856.3994    4.3056149    4.3056149    4.3056149   -8856.3994    1936.7642   -8521.2962   -19984.666    3992.3619   -2319.3438    21427.412    79.818865 
   73300    1056.2395   -106.49048   0.95570769   -105.53478    6915.8409    4.2999804    4.2999804    4.2999804    6915.8409   -9582.3254    19701.669    10628.179   -12669.635     8537.991   -6436.0649    79.505916 
   73400     603.5028   -106.09037   0.54606201   -105.54431    -7495.967    4.3048782    4.3048782    4.3048782    -7495.967    32407.145    -18674.63   -36220.416    5100.8411   -3804.8813    21631.755    79.777902 
   73500    1025.4872   -106.46658   0.92788241    -105.5387    6264.4852    4.3019231    4.3019231    4.3019231    6264.4852    17621.534    3981.7869   -2809.8654   -3832.8399   -1091.0899     2487.661     79.61372 
   73600    765.80456     -106.234   0.69291606   -105.54109     9559.739    4.2992884    4.2992884    4.2992884     9559.739    35207.692    14104.528   -20633.002   -1902.4168    4054.6289    9956.9171    79.467536 
   73700    431.85848   -105.93831   0.39075463   -105.54756   -14292.353    4.3065371    4.3065371    4.3065371   -14292.353    2411.1134   -21348.465   -23939.708   -1184.5948    -5635.946    16417.174    79.870164 
   73800     1184.332   -106.60769    1.0716084   -105.53608    6864.2743     4.300559     4.300559     4.300559    6864.2743    -1554.855    21411.625    736.05326    3693.6626    154.78056   -8656.8068    79.538011 
   73900    738.49074   -106.21209   0.66820194   -105.54389   -7279.3419     4.301862     4.301862     4.301862   -7279.3419     27583.58   -12966.703   -36454.903   -2828.2651    3626.8863     30592.29    79.610328 
   74000    686.02172   -106.16356   0.62072687   -105.54284   -6507.3268    4.3041488    4.3041488    4.3041488   -6507.3268    3088.9953   -9705.6469   -12905.329    7946.8517   -9127.3971    -5097.286    79.737355 
   74100    1021.8057   -106.45953    0.9245513   -105.53498   -563.66852     4.304488     4.304488     4.304488   -563.66852   -1024.2582    3980.7069   -4647.4542    5830.8437   -2802.1527    10195.296    79.756212 
   74200    606.76266   -106.08898   0.54901161   -105.53996    -4794.652    4.3030305    4.3030305    4.3030305    -4794.652    25745.997   -24082.076   -16047.877   -2426.2776   -3867.1195    19420.608     79.67522 
   74300    834.44446   -106.29241   0.75502289   -105.53739   -2490.5595    4.3015535    4.3015535    4.3015535   -2490.5595    14927.943    1585.5578    -23985.18    9300.0647    -11075.94   -19005.485    79.593205 
   74400    866.53947   -106.32101   0.78406313   -105.53694   -1712.8506    4.3038488    4.3038488    4.3038488   -1712.8506    27080.108   -2846.9396   -29371.721   -4075.0795    1060.4481    27477.884    79.720682 
   74500    688.11203   -106.16179   0.62261822   -105.53917   -6543.5801    4.3018837    4.3018837    4.3018837   -6543.5801     9610.488   -11944.671   -17296.558    4712.4243   -1213.9246   -9617.2862    79.611536 
   74600     818.1855   -106.27829   0.74031144   -105.53798   -9902.3328    4.3048355    4.3048355    4.3048355   -9902.3328   -24280.832    3367.0754   -8793.2421    3947.5777   -5695.7048   -1824.2772    79.775528 
   74700    890.03437   -106.34141    0.8053218   -105.53609    297.12487    4.3026452    4.3026452    4.3026452    297.12487    30407.601   -12115.707   -17400.519     1932.078    1249.9218    14437.882    79.653819 
   74800    717.23892   -106.18949   0.64897285   -105.54052   -8420.1741    4.3005479    4.3005479    4.3005479   -8420.1741    12500.438   -9354.7312   -28406.229    49.716209   -3283.8858    -24650.38    79.537396 
   74900    878.78979   -106.33308   0.79514747   -105.53793    3635.1817    4.3039607    4.3039607    4.3039607    3635.1817    10546.825    10403.269    -10044.55    4733.6304   -2842.1217     13951.42    79.726904 
   75000      775.308   -106.23937   0.70151497   -105.53785   -6235.1785     4.304852     4.304852     4.304852   -6235.1785    12445.631    -11654.32   -19496.846    -6795.464    3038.2132   -12448.969    79.776443 
   75100    510.82469   -106.00526   0.46220492   -105.54305   -8307.3341    4.3018729    4.3018729    4.3018729   -8307.3341   -14333.962    10393.327   -20981.367    9605.5632    -5587.904   -10051.608    79.610933 
   75200    1151.2354   -106.57705     1.041662   -105.53539    1387.6288    4.3018708    4.3018708    4.3018708    1387.6288    13467.407    4707.2827   -14011.803    3067.8632    522.50821    5600.6478    79.610818 
   75300    742.73779   -106.21388   0.67204476   -105.54183   -8453.1367    4.3032744    4.3032744    4.3032744   -8453.1367   -1967.9246   -1821.0756    -21570.41    349.54335    -7286.262   -24968.869    79.688768 
   75400    672.03131   -106.14987   0.60806806    -105.5418   -80.825959    4.3028619    4.3028619    4.3028619   -80.825959   -16014.451     19915.77   -4143.7968    10872.936   -5802.5584    4169.1738    79.665858 
   75500    952.54085   -106.39793   0.86187898   -105.53605      7820.34    4.3007741    4.3007741    4.3007741      7820.34    30921.302    390.85563   -7851.1378     -6297.93    784.81903    -11560.02     79.54995 
   75600    484.10596   -105.98387   0.43802925   -105.54584   -10244.071    4.3051962    4.3051962    4.3051962   -10244.071    253.21195   -3541.9102   -27443.516    7866.9783   -5904.6884   -12689.512    79.795584 
   75700    1066.5199   -106.50257   0.96500964   -105.53756   -1040.1994    4.3033638    4.3033638    4.3033638   -1040.1994   -9069.3678    11734.267   -5785.4978    7602.7777   -1930.0472    6227.8892    79.693738 
   75800    984.02107   -106.42708   0.89036294   -105.53672   -1400.2086    4.3001825    4.3001825    4.3001825   -1400.2086   -2531.2861    5850.6562   -7519.9957    1069.1387   -874.98172    -16402.37    79.517126 
   75900    417.39168   -105.92102   0.37766476   -105.54336     -5278.19    4.3032804    4.3032804    4.3032804     -5278.19   -19378.926    15211.686   -11667.329    9246.0596   -11222.558   -1419.6397    79.689105 
   76000     973.3218    -106.4157   0.88068202   -105.53501    1237.7162    4.3046824    4.3046824    4.3046824    1237.7162     32209.22    -10775.64   -17720.432    3498.0269    4709.1217    3918.6318    79.767015 
   76100    708.92593   -106.18241   0.64145108   -105.54096   -1988.8819    4.3027631    4.3027631    4.3027631   -1988.8819    4745.6956    -2069.569   -8642.7723   -4748.2567    -6236.677   -10458.085    79.660366 
   76200    917.58156   -106.37196   0.83024708   -105.54171   -3842.9243    4.2973064    4.2973064    4.2973064   -3842.9243   -10668.224    358.65865   -1219.2081    13498.373   -4219.9897    7119.9257    79.357682 
   76300    936.33524   -106.38474    0.8472158   -105.53752   -6297.4532    4.3080425    4.3080425    4.3080425   -6297.4532    3443.7256   -12658.285   -9677.8005   -6989.9556    424.35207    6432.9647    79.953951 
   76400    537.20537   -106.02564   0.48607471   -105.53956   -9321.8948    4.3035174    4.3035174    4.3035174   -9321.8948   -14425.519   -1029.0638   -12511.102    2044.3009   -11753.443   -8533.4559     79.70227 
   76500    714.92755   -106.18623   0.64688147   -105.53935    4875.9842    4.2974221    4.2974221    4.2974221    4875.9842    35761.847    105.87479   -21239.769    2640.3713   -3861.7789    21748.035     79.36409 
   76600    1074.2458   -106.50849   0.97200021   -105.53649    5038.3533    4.3055463    4.3055463    4.3055463    5038.3533    9366.1179    10090.891   -4341.9488   -12431.136   -3835.7798   -1796.5075    79.815048 
   76700    681.07925   -106.15696   0.61625482   -105.54071   -4637.1472    4.3034037    4.3034037    4.3034037   -4637.1472    3457.8058   -5339.6896   -12029.558    6020.6496   -9153.6736    6449.3874    79.695954 
   76800    677.18045   -106.15077    0.6127271   -105.53804   -10506.473    4.3031985    4.3031985    4.3031985   -10506.473    12526.232    -25246.58   -18799.071    921.70219    1261.2863    27392.462    79.684554 
   76900    957.71445   -106.40233   0.86656016   -105.53577    1341.7667    4.2999701    4.2999701    4.2999701    1341.7667   -7437.7468    3922.3501    7540.6968   -1584.3577   -4247.9258    -7799.761    79.505343 
   77000     664.4878   -106.14678   0.60124253   -105.54554   -15372.779    4.3066944    4.3066944    4.3066944   -15372.779     1720.992   -17240.217   -30599.111    8935.7694   -4312.3402    33204.959    79.878915 
   77100    1160.5473   -106.58674    1.0500876   -105.53666    7751.0575    4.3020104    4.3020104    4.3020104    7751.0575    12377.168    1486.6531    9389.3518   -46.975779   -1299.8468     2860.122     79.61857 
   77200    634.63343   -106.11526   0.57422966   -105.54103    2109.9622    4.2996037    4.2996037    4.2996037    2109.9622    15891.167    9196.9503    -18758.23   -4150.3673   -6759.1252    9260.9862    79.485022 
   77300       316.25   -105.83479   0.28614965   -105.54864   -16767.617    4.3068767    4.3068767    4.3068767   -16767.617    17633.419   -33754.845   -34181.425    11325.839   -4660.2608    27634.795     79.88906 
   77400     1254.092   -106.67083    1.1347288    -105.5361    15084.085    4.3004777    4.3004777    4.3004777    15084.085    12140.828    18994.684    14116.742   -5416.5272    2791.8538   -15157.422    79.533503 
   77500    743.90496   -106.21822   0.67310084   -105.54512   -7482.3826    4.3032864    4.3032864    4.3032864   -7482.3826    11892.748   -18020.845    -16319.05    4402.9049   -10316.112    32714.021    79.689437 
   77600    710.65753   -106.18433   0.64301787   -105.54131   -4292.3684    4.3052836    4.3052836    4.3052836   -4292.3684    3897.7369   -21898.202    5123.3604    6447.3589    1949.1591    -2958.449    79.800444 
   77700    967.74958   -106.41039   0.87564016   -105.53475   -381.63851    4.3022718    4.3022718    4.3022718   -381.63851    7025.9292     5989.362   -14160.207      -5309.3   -740.95124    6022.3421    79.633084 
   77800    563.93787   -106.05402   0.51026284   -105.54376   -8721.2711    4.3023831    4.3023831    4.3023831   -8721.2711    112.25647   -14053.145   -12222.924    6905.1016   -3841.6064    26638.025    79.639265 
   77900    1087.2531   -106.52276   0.98376947   -105.53899   -94.724282    4.3038175    4.3038175    4.3038175   -94.724282    2656.3454   -4781.9925    1841.4743    5736.9688    2883.4403   -18163.251    79.718947 
   78000    785.61738   -106.25014   0.71084311   -105.53929    2269.0607    4.3052234    4.3052234    4.3052234    2269.0607    21984.318   -3908.0382   -11269.097    850.27573   -2180.4111    20359.667    79.797095 
   78100    508.20522   -106.00043   0.45983477    -105.5406   -280.67605    4.3019891    4.3019891    4.3019891   -280.67605    16827.051    -15569.34   -2099.7398    16414.995   -9396.4041    438.10868    79.617386 
   78200    861.64128   -106.31605   0.77963114   -105.53642    4185.5836    4.3033034    4.3033034    4.3033034    4185.5836    5001.7911    4608.4243    2946.5355    3151.2772    6029.0741   -10832.778    79.690381 
   78300    859.72056   -106.31521   0.77789323   -105.53732   -7.3797083     4.304295     4.304295     4.304295   -7.3797083    4792.8341   -4885.4228    70.449507    4297.1045   -7887.0738    18829.963     79.74548 
   78400    786.08108   -106.24922   0.71126268   -105.53795   -12266.282     4.305282     4.305282     4.305282   -12266.282   -10685.655   -22678.883   -3434.3083    10608.935   -1639.9463   -15449.185    79.800352 
   78500    903.71104   -106.35262   0.81769674   -105.53492    1814.7305    4.3002798    4.3002798    4.3002798    1814.7305    11787.113     5454.681   -11797.603   -10394.987    3799.2662    4373.6127    79.522519 
   78600    755.81552   -106.22252   0.68387777   -105.53865   -9498.4266    4.3048513    4.3048513    4.3048513   -9498.4266    -12425.61    -6628.302   -9441.3682    13250.476    -8072.679    7447.1209    79.776405 
   78700    674.72816   -106.15106   0.61050821   -105.54055    691.65853    4.3066335    4.3066335    4.3066335    691.65853   -8946.8001   -64.322134    11086.098    2456.7014    2410.4828   -13283.311    79.875527 
   78800    1010.1567   -106.44883   0.91401102   -105.53482    7886.6573    4.3016319    4.3016319    4.3016319    7886.6573    20607.956    3273.0237   -221.00765   -1295.6143    443.64081     12787.46    79.597554 
   78900    594.94109   -106.07941    0.5383152    -105.5411   -4974.1284    4.3024761    4.3024761    4.3024761   -4974.1284   -4728.4835   -9645.4564   -548.44517    20001.934   -10632.273   -8844.3573    79.644431 
   79000    811.43281   -106.27277   0.73420146   -105.53857   -3021.3589     4.302445     4.302445     4.302445   -3021.3589   -2818.7479    4950.9628   -11196.291   -12503.502    4912.2632   -5395.5655    79.642699 
   79100    900.65269   -106.35096   0.81492948   -105.53603   -12995.155    4.3090182    4.3090182    4.3090182   -12995.155   -31224.991   -7408.6955   -351.77841    10612.662   -7277.8751    1246.2385     80.00829 
   79200    685.84459   -106.16134    0.6205666   -105.54077   -5372.5359    4.3005203    4.3005203    4.3005203   -5372.5359    -2579.034    -10335.54   -3203.0332     8569.424   -6007.0501   -14555.023    79.535865 
   79300    1013.7895   -106.45306   0.91729807   -105.53576     4207.015    4.3003269    4.3003269    4.3003269     4207.015    19121.856    6615.5177   -13116.329   -8821.9893    5766.1303   -4158.5047    79.525132 
   79400    602.83139   -106.08422   0.54545451   -105.53877    -9535.032    4.3101134    4.3101134    4.3101134    -9535.032   -29411.239    280.91335    525.22927    18907.904    -18772.39   -2468.5965     80.06931 
   79500    690.29651   -106.16422   0.62459479   -105.53963   -1031.9381    4.2985924    4.2985924    4.2985924   -1031.9381   -9835.4474     8790.729   -2051.0961   -3528.4277    15538.556   -14303.044    79.428945 
   79600    1033.7951   -106.47259   0.93539955   -105.53719    2271.0298    4.3031767    4.3031767    4.3031767    2271.0298    -6881.874    3657.9943    10036.969   -5248.3329   -9177.6086    3504.4207    79.683342 
   79700    798.49341   -106.26292   0.72249362   -105.54042   -6884.4344     4.304206     4.304206     4.304206   -6884.4344     3398.266   -2217.3757   -21834.193    10159.375   -3348.2162   -7250.9059    79.740537 
   79800    625.71886   -106.10521   0.56616357   -105.53905   -5927.7297    4.3046453    4.3046453    4.3046453   -5927.7297     3228.603   -5049.5148   -15962.277   -10528.361    9887.7061   -7555.3061    79.764956 
   79900    857.39658    -106.3106   0.77579044   -105.53481   -8081.8078    4.3055606    4.3055606    4.3055606   -8081.8078   -27264.555    3158.0097   -138.87822    8399.9893   -17810.872    8600.3783    79.815844 
   80000    830.80638   -106.28933   0.75173107    -105.5376   -1338.5532    4.2989706    4.2989706    4.2989706   -1338.5532    219.51623    241.79834   -4476.9741    6380.1923    9992.3258   -15123.744    79.449914 
   80100    886.09452    -106.3403   0.80175694   -105.53855   -3536.3571    4.3075717    4.3075717    4.3075717   -3536.3571    858.25244    136.89351   -11604.217   -7525.1971   -927.34471    4475.8553    79.927741 
   80200    787.53598    -106.2492    0.7125791   -105.53662    7240.2461    4.3003823    4.3003823    4.3003823    7240.2461    6410.1199     16221.91   -911.29144    7043.6004     -12178.9   -3898.5325     79.52821 
   80300    487.65276   -105.98358   0.44123847   -105.54234   -1500.8789    4.3033794    4.3033794    4.3033794   -1500.8789    4472.7408   -5223.7199   -3751.6576   -6947.0196    14998.821   -13970.557    79.694605 
   80400    1041.1057   -106.47872   0.94201428   -105.53671   -4823.5659    4.3062328    4.3062328    4.3062328   -4823.5659   -1809.9142   -3556.2147   -9104.5687   -1842.9011   -12407.391    10779.076    79.853237 
   80500    887.14521   -106.33985   0.80270763   -105.53714    4776.4538     4.298561     4.298561     4.298561    4776.4538    17131.144    3134.2242    -5936.007    3274.1363    4687.3147   -15424.296    79.427204 
   80600    633.15754   -106.11354   0.57289425   -105.54065   -17736.327    4.3068231    4.3068231    4.3068231   -17736.327   -8383.3283   -15682.314    -29143.34   -5155.3406    11820.458    1211.7988    79.886078 
   80700    871.66563   -106.32536   0.78870138   -105.53666    11344.434    4.3007926    4.3007926    4.3007926    11344.434   -1245.1966     8852.917    26425.581    -2130.163   -6725.5062    9611.1798    79.550974 
   80800    817.28793   -106.28033   0.73949929   -105.54083    1534.7639    4.3035844    4.3035844    4.3035844    1534.7639    14460.867    344.23222   -10200.807    156.33997    12469.781    -20113.69    79.705995 
   80900    768.36678    -106.2354   0.69523441   -105.54017    6853.4933    4.3040906    4.3040906    4.3040906    6853.4933    21393.954   -7937.3021     7103.828   -9900.7667   -3419.1915    15189.144    79.734123 
   81000    825.63723   -106.28199   0.74705392   -105.53494    4100.0541    4.3035227    4.3035227    4.3035227    4100.0541    14555.817     8807.096   -11062.751    85.473972   -196.66362   -6249.8397    79.702566 
   81100     666.5295    -106.1411    0.6030899   -105.53801   -8624.4284    4.3023876    4.3023876    4.3023876   -8624.4284   -5545.1191   -6728.2872   -13599.879   -1828.6352    6749.0835   -7290.8888    79.639516 
   81200    873.59914   -106.32851   0.79045086   -105.53806    796.59164     4.303208     4.303208     4.303208    796.59164   -3937.2572   -12746.351    19073.383   -3401.0238   -5608.3275    19437.341    79.685079 
   81300    1056.7249   -106.49161   0.95614692   -105.53546    -7044.893    4.3060268    4.3060268    4.3060268    -7044.893    5647.2458   -1933.1219   -24848.803    5332.7901    162.47627   -21135.838    79.841773 
   81400    502.05934   -105.99397   0.45427384   -105.53969    4812.9293    4.3007297    4.3007297    4.3007297    4812.9293    12008.772   -13120.106    15550.122    -6327.131    5791.5533    14263.163    79.547483 
   81500    851.99052   -106.30955   0.77089892   -105.53865   -4549.8876    4.3051128    4.3051128    4.3051128   -4549.8876   -3491.1675   -3137.6391   -7020.8562   -2298.3093   -3639.0389    3854.9147    79.790943 
   81600    909.10429   -106.35941   0.82257667   -105.53683    14353.217    4.3009829    4.3009829    4.3009829    14353.217    15265.487    12434.519    15359.646   -2353.0595     11501.27   -7364.1647    79.561535 
   81700    642.27174   -106.12372   0.58114097   -105.54258   -9254.5301    4.3053066    4.3053066    4.3053066   -9254.5301    5614.2282   -23651.407    -9726.411   -5758.9717    3304.3984    26337.203    79.801719 
   81800    893.17917   -106.34262   0.80816728   -105.53446    59.003391    4.3048159    4.3048159    4.3048159    59.003391   -1817.5358    7205.4336   -5210.8877    3409.7698    6444.3997   -7694.4744    79.774438 
   81900    745.78319   -106.21354   0.67480031   -105.53874    7547.0147    4.2978468    4.2978468    4.2978468    7547.0147    2189.5952    4566.2076    15885.241   -4727.7739    3830.4642    16153.183    79.387621 
   82000    786.16617   -106.25451   0.71133967   -105.54317   -13504.036     4.307795     4.307795     4.307795   -13504.036   -26225.805   -12637.159   -1649.1445   -4116.5366   -94.323496    13871.128    79.940174 
   82100    1016.4012   -106.45557   0.91966119   -105.53591    20765.763    4.3000812    4.3000812    4.3000812    20765.763    14785.601    21418.959    26092.728    5210.2272    2216.1884   -3945.4552    79.511503 
   82200    569.11311   -106.05669    0.5149455   -105.54175   -6235.0839    4.3031971    4.3031971    4.3031971   -6235.0839     9766.489   -10907.793   -17563.948    -12263.71   -280.77605    22099.519    79.684477 
   82300    688.95058   -106.16392   0.62337697   -105.54054   -1527.1183     4.304099     4.304099     4.304099   -1527.1183   -12997.183   -2343.3907    10759.218    7342.0208    47.188771    -620.4854    79.734586 
   82400    1095.1129   -106.52609   0.99088115   -105.53521     13527.84    4.3004677    4.3004677    4.3004677     13527.84    9944.6887    18114.837    12523.994    3926.1154   -1741.2435    2694.5824    79.532947 
   82500    719.24102   -106.19198   0.65078439   -105.54119   -12923.131    4.3080064    4.3080064    4.3080064   -12923.131   -17177.843    -10623.87   -10967.679   -8991.7904   -2825.2795    14078.292     79.95194 
   82600    728.20489   -106.19649   0.65889508   -105.53759    11122.527    4.2978164    4.2978164    4.2978164    11122.527    2977.2016    16900.838    13489.543    15696.977   -4926.5111   -7205.1989    79.385937 
   82700    837.00223   -106.29349   0.75733721   -105.53615    1591.3787    4.3048008    4.3048008    4.3048008    1591.3787      2932.16    9096.3935   -7254.4173   -8022.3788    965.90483     13676.56    79.773599 
   82800    801.88771   -106.26509   0.72556485   -105.53953    -11850.18    4.3066792    4.3066792    4.3066792    -11850.18   -31316.511   -20982.135    16748.107   -3101.1406   -3848.4452     3725.369     79.87807 
   82900    882.31305   -106.33559   0.79833539   -105.53726    19576.935    4.2951415    4.2951415    4.2951415    19576.935    18179.102    11413.543    29138.159    14324.683    1006.7999   -6712.2744    79.237801 
   83000    837.34385   -106.29608   0.75764631   -105.53843   -13761.176    4.3082899    4.3082899    4.3082899   -13761.176    -8838.195   -12516.457   -19928.875   -15957.257    2251.4592     6753.409    79.967727 
   83100    495.06316   -105.98987   0.44794355   -105.54192   -3844.3242    4.3011886    4.3011886    4.3011886   -3844.3242   -10529.668   -9017.1081    8013.8032    6369.0423   -505.67403   -2755.2789    79.572949 
   83200    1052.0619   -106.48953   0.95192771    -105.5376    7638.1431    4.2981451    4.2981451    4.2981451    7638.1431     6904.371    6588.1673    9421.8909    1708.5631   -1423.1901   -11615.819    79.404154 
   83300    1014.1602   -106.45492   0.91763344   -105.53728   -12099.744    4.3088723    4.3088723    4.3088723   -12099.744   -28382.965   -11920.509    4004.2439   -7003.2188    6286.5382    7523.1407    80.000162 
   83400     473.8587   -105.96961   0.42875731   -105.54085    6656.8591    4.2974405    4.2974405    4.2974405    6656.8591    16045.805    -8423.197    12347.969     12659.52   -753.79325   -13687.715    79.365107 
   83500    862.26778   -106.31539     0.780198   -105.53519   -1474.8135    4.3050136    4.3050136    4.3050136   -1474.8135   -556.91556    12101.747   -15969.272   -1408.2217    4275.0912   -11407.021    79.785427 
   83600    832.83513   -106.29335   0.75356673   -105.53978    618.40596    4.3016589    4.3016589    4.3016589    618.40596    -14229.14   -3926.4162    20010.774    3925.6855    4878.6492    5295.1643    79.599053 
   83700    801.42907   -106.26801   0.72514986   -105.54286    2128.0966    4.3002657    4.3002657    4.3002657    2128.0966    7756.7385   -5029.5033    3657.0547    8612.1106   -1192.3715    -29432.52     79.52174 
   83800    1021.8489   -106.46044   0.92459032   -105.53585   -2254.7795    4.3061122    4.3061122    4.3061122   -2254.7795   -7587.7802     19475.12   -18651.679   -5285.8667    1615.3614    6421.6104    79.846526 
   83900    464.13395   -105.96287   0.41995815   -105.54292    1441.5234     4.298233     4.298233     4.298233    1441.5234    5257.4497    5209.3763   -6142.2559    7875.9151   -2790.7054   -17258.688    79.409022 
   84000    859.15062   -106.31962   0.77737754   -105.54225   -4272.5265    4.3074063    4.3074063    4.3074063   -4272.5265   -4984.6549    4845.9024   -12678.827     3398.754     2048.201   -17443.696    79.918534 
   84100    1185.4681   -106.60987    1.0726365   -105.53723    12499.967    4.2983695    4.2983695    4.2983695    12499.967   -66.463333      16691.4    20874.964   -5518.6347   -118.64029    8128.8339     79.41659 
   84200    432.98689    -105.9378   0.39177564   -105.54602   -1125.0436     4.302175     4.302175     4.302175   -1125.0436    14782.882   -11337.766   -6820.2459    9290.7204    2825.4338   -24562.272    79.627707 
   84300    778.92611   -106.24339   0.70478871   -105.53861    -9260.538    4.3062043    4.3062043    4.3062043    -9260.538    468.77022    4115.7305   -32366.115   -6069.1673    4383.1735    13419.386    79.851651 
   84400     934.3151   -106.38172   0.84538793   -105.53633    15044.424    4.2944548    4.2944548    4.2944548    15044.424    13220.087    21285.626     10627.56    4382.0571    -267.2903   -5026.9794    79.199802 
   84500     822.1659   -106.28384   0.74391299   -105.53992   -17479.365     4.311503     4.311503     4.311503   -17479.365   -10390.747   -28450.064   -13597.284    5868.6088    1805.1569   -13064.334     80.14678 
   84600    857.56722   -106.31165   0.77594485    -105.5357    4353.5331    4.2976247    4.2976247    4.2976247    4353.5331    7393.0144    14659.619   -8992.0338    -1947.835     6302.986    22112.464    79.375312 
   84700    644.53128   -106.12124   0.58318545   -105.53805     6815.644    4.2983264    4.2983264    4.2983264     6815.644    15632.867    2417.6682    2396.3966    6991.7595   -1753.8685   -21587.121      79.4142 
   84800    719.56416   -106.19188   0.65107677    -105.5408   -12966.199    4.3079427    4.3079427    4.3079427   -12966.199   -4332.2456   -17608.543   -16957.809    4136.0016    9884.1408    10642.433    79.948395 
   84900     1074.492   -106.50896   0.97222299   -105.53674    11434.882    4.2991224    4.2991224    4.2991224    11434.882    6986.4106    11673.424    15644.812   -1471.2991    4794.6475    8242.6836    79.458332 
   85000    809.02089   -106.27031   0.73201911   -105.53829   -5574.5711    4.3035865    4.3035865    4.3035865   -5574.5711        14371   -12239.462   -18855.251    7544.6437   -1766.8286    -17414.45    79.706111 
   85100    390.03028   -105.89555    0.3529076   -105.54264   -993.90929    4.2988048    4.2988048    4.2988048   -993.90929    12874.175    13293.457    -29149.36    1902.1124     4042.982    27918.782    79.440721 
   85200    1045.2907   -106.48364   0.94580095   -105.53784    2628.3337    4.3061404    4.3061404    4.3061404    2628.3337    1706.2177    8996.9877   -2818.2044   -3941.8532    254.46482   -6761.6863    79.848094 
   85300    916.95896   -106.37228   0.82968373    -105.5426    6977.7401    4.2996478    4.2996478    4.2996478    6977.7401    8797.8965    10561.868    1573.4553    7747.6758   -2036.9984    11179.355    79.487468 
   85400    662.77602   -106.14413   0.59969367   -105.54443    -4249.083    4.3013107    4.3013107    4.3013107    -4249.083   -5135.9312     1284.616   -8895.9339    -10582.34    2884.4918    16059.701    79.579728 
   85500    882.51003   -106.33388   0.79851362   -105.53537   -2626.4824    4.3064586    4.3064586    4.3064586   -2626.4824    830.62935    7245.0711   -15955.148   -10868.318    911.22175   -9684.3615    79.865796 
   85600    644.49208   -106.12323   0.58314998   -105.54008     2577.951    4.2979065    4.2979065    4.2979065     2577.951    10670.616    10400.792   -13337.556    5501.2874   -2011.8627     25395.51     79.39093 
   85700    1006.3339    -106.4508   0.91055204   -105.54025   -2484.3611    4.3050949    4.3050949    4.3050949   -2484.3611   -13768.078   -4318.3264    10633.321   -17698.036    1313.3097    -656.5118    79.789951 
   85800    909.78682   -106.35982   0.82319423   -105.53663    11573.438    4.3009983    4.3009983    4.3009983    11573.438    12888.793    27982.836   -6151.3136    4316.2105    -3274.827    12549.935    79.562387 
   85900    385.74067   -105.89158   0.34902627   -105.54255   -11021.794     4.305143     4.305143     4.305143   -11021.794   -2629.9632   -6757.9406   -23677.478   -2240.4982    5517.5639    19016.169    79.792622 
   86000    876.15164   -106.33178   0.79276042   -105.53902   -1.5562664     4.300123     4.300123     4.300123   -1.5562664    -9732.532    1057.7923    8670.0709   -17607.461   -2648.1087   -7614.3907     79.51382 
   86100    1112.1522   -106.54333    1.0062987   -105.53704    12796.516    4.2982806    4.2982806    4.2982806    12796.516    5766.4122    16867.525    15755.611     8913.592    4422.6936    23830.795    79.411665 
   86200    671.61243   -106.14943   0.60768904   -105.54174   -17764.022     4.310568     4.310568     4.310568   -17764.022   -32650.818   -22111.826    1470.5767   -13137.017    4350.7086    -1787.105    80.094651 
   86300    698.37105   -106.16934    0.6319008   -105.53744    13749.391    4.2944072    4.2944072    4.2944072    13749.391    15853.567    26318.998    -924.3923   -4212.3227   -3223.0319    838.22785    79.197171 
   86400    763.90331      -106.23   0.69119576   -105.53881   -3823.5314    4.3044377    4.3044377    4.3044377   -3823.5314   -2228.9308     1958.165   -11199.828    912.32632    2195.0806    13117.291    79.753416 
   86500    801.76311   -106.26727   0.72545211   -105.54182    -8912.633    4.3060364    4.3060364    4.3060364    -8912.633   -18227.238   -20524.995    12014.334   -16743.768    2249.1342   -12409.419    79.842308 
   86600    1056.9161   -106.48949   0.95631985   -105.53317    16881.837    4.2964832    4.2964832    4.2964832    16881.837     9493.474    29267.224    11884.814   -303.42525   -7147.2464   -1777.1639    79.312085 
   86700    612.51717    -106.0937    0.5542184   -105.53948   -14038.859    4.3058886    4.3058886    4.3058886   -14038.859   -19665.171   -6106.7446   -16344.662   -11007.594    6318.2006    5037.6115     79.83409 
   86800    518.82092   -106.01201   0.46944007   -105.54257    1882.8173    4.3016264    4.3016264    4.3016264    1882.8173   -5897.1275    4579.0775    6966.5019    -11817.59    765.61938   -15523.819     79.59725 
   86900     1228.613   -106.64589    1.1116748   -105.53421    1425.2367     4.305457     4.305457     4.305457    1425.2367   -7863.1451    9750.7075    2388.1476    3490.7645   -5415.4154    448.89421    79.810087 
   87000    771.74151   -106.24059   0.69828793    -105.5423   -1410.4729    4.2976801    4.2976801    4.2976801   -1410.4729   -19992.286   -5932.3953    21693.263   -16728.648    7810.2782   -228.11142    79.378383 
   87100    594.50563   -106.07984   0.53792119   -105.54192    2632.8369    4.3024116    4.3024116    4.3024116    2632.8369    14382.211    10348.076   -16831.776   -3797.3676   -4209.7715   -21778.433    79.640848 
   87200    861.01618   -106.31602   0.77906553   -105.53695   -9095.9699    4.3074691    4.3074691    4.3074691   -9095.9699   -9500.5862    13133.874   -30921.197   -2644.6475    3897.2485    7760.3032     79.92203 
   87300    630.54086   -106.11377   0.57052662   -105.54324    5717.2533     4.294738     4.294738     4.294738    5717.2533    1401.6351   -821.60886    16571.734   -18529.465    4791.2272   -15018.206    79.215474 
   87400    1158.3301   -106.58575    1.0480814   -105.53766   -5217.1566    4.3071808    4.3071808    4.3071808   -5217.1566   -6138.2131   -3041.9339   -6471.3229    8583.6117    370.07413    -4782.692    79.905983 
   87500    776.70093   -106.24089   0.70277533   -105.53811   -6112.8819    4.3031954    4.3031954    4.3031954   -6112.8819   -15769.431    4036.8444   -6606.0589   -13107.495    2435.2217    3528.2245    79.684383 
   87600    463.57576   -105.96043   0.41945309   -105.54098     2249.827    4.2976566    4.2976566    4.2976566     2249.827    21581.449   -3355.4048   -11476.563   -6953.6425   -609.65634   -17869.339    79.377085 
   87700    1019.3983   -106.45762   0.92237296   -105.53525   -2323.8201     4.304889     4.304889     4.304889   -2323.8201   -2626.9034     15723.68   -20068.237   -219.36363   -9244.0952    8303.6669    79.778504 
   87800    784.28815   -106.25025    0.7096404   -105.54061    10998.652    4.3003369    4.3003369    4.3003369    10998.652    16163.902    5328.9997    11503.055   -16311.942    3509.4365   -8471.2197    79.525687 
   87900     810.7775   -106.27051   0.73360852    -105.5369   -6377.2358    4.3059647    4.3059647    4.3059647   -6377.2358    10235.742   -2017.0111   -27350.438   -2858.4941   -7566.1075   -5917.2097    79.838324 
   88000    716.78575   -106.18537   0.64856281   -105.53681    1716.7943    4.2977479    4.2977479    4.2977479    1716.7943    16711.333    15273.368   -26834.318   -1550.4689   -237.11618     11781.92    79.382144 
   88100    791.96211   -106.25651   0.71658396   -105.53993   -1891.6261    4.3034856    4.3034856    4.3034856   -1891.6261    5166.9947   -14167.588    3325.7148   -12594.822    4660.5164   -14147.313    79.700505 
   88200    1045.4546   -106.48295    0.9459493     -105.537    398.96359    4.3034539    4.3034539    4.3034539    398.96359    79.022771    9654.6669   -8536.7989    1230.0518   -7330.2766    7705.8431    79.698744 
   88300    627.53379   -106.10873   0.56780576   -105.54093    13656.918    4.2961334    4.2961334    4.2961334    13656.918    24208.667    16229.116    532.97258   -8281.5741    4697.7044     1398.348    79.292711 
   88400    722.66854   -106.19269   0.65388568    -105.5388   -3786.9765    4.3081659    4.3081659    4.3081659   -3786.9765      11781.1    942.34581   -24084.375   -10882.703    1604.8632   -9923.0409    79.960823 
   88500    940.23254   -106.38597   0.85074216   -105.53523    9883.4252    4.2988645    4.2988645    4.2988645    9883.4252    28134.624    16489.141   -14973.489    6027.2123   -5509.2319    15285.198    79.444032 
   88600    740.72071   -106.21017   0.67021966   -105.53995   -3602.6677    4.3000864    4.3000864    4.3000864   -3602.6677   -15989.688   -2452.4739    7634.1593   -18593.817    14047.618   -6115.4963    79.511793 
   88700    882.14888   -106.33529   0.79818684    -105.5371   -2316.9755    4.3037123    4.3037123    4.3037123   -2316.9755    1353.6635    7951.3302    -16255.92     4421.881   -1335.2648    2591.0588    79.713097 
   88800    829.26648   -106.28779   0.75033774   -105.53745    99.019875    4.3024441    4.3024441    4.3024441    99.019875    16696.054    6057.4328   -22456.427   -11038.337     2882.309    9861.5046    79.642654 
   88900    581.96043   -106.06899   0.52657003   -105.54242   -4623.4683    4.3031297    4.3031297    4.3031297   -4623.4683   -11599.195   -3993.4892    1722.2789   -15260.793    12119.577   -9454.6181     79.68073 
   89000     1042.192   -106.47821   0.94299725   -105.53521    12483.816     4.296952     4.296952     4.296952    12483.816    17679.516    13806.647    5965.2859    5904.9576   -3608.5267    9711.0245     79.33805 
   89100    696.80918   -106.17117   0.63048759   -105.54068    -9924.951    4.3075345    4.3075345    4.3075345    -9924.951   -13583.655   -7002.3886    -9188.809    -15454.27    12285.424   -1413.9377    79.925673 
   89200    731.01867   -106.20252   0.66144106   -105.54108   -3585.0838    4.2999228    4.2999228    4.2999228   -3585.0838    3164.8557    -438.2774    -13481.83   -1697.0405    5528.3027     -124.208    79.502719 
   89300    1062.0204   -106.49698    0.9609384   -105.53604    12094.855    4.2968672    4.2968672    4.2968672    12094.855     40788.81    1988.4721   -6492.7168     5109.108    63.261235    8007.4275    79.333352 
   89400     511.8908   -106.00758   0.46316956   -105.54441   -15761.214    4.3095045    4.3095045    4.3095045   -15761.214   -35003.949   -8261.9114   -4017.7822   -20402.368    8538.0802   -5413.1458     80.03538 
   89500    885.42225   -106.34014   0.80114866   -105.53899    5858.4607    4.2989635    4.2989635    4.2989635    5858.4607    9334.9847    1529.6347    6710.7627    9340.1691    -1297.394    5820.4861    79.449519 
   89600    1002.6736    -106.4442   0.90724016   -105.53696    4573.8383    4.3004135    4.3004135    4.3004135    4573.8383    15019.584     5179.599    -6477.668   -4405.0893    4055.7374   -3740.7763    79.529937 
   89700    521.05115   -106.01422   0.47145803   -105.54276   -7695.7823    4.3054749    4.3054749    4.3054749   -7695.7823   -5608.8623   -17109.893   -368.59146   -12695.834     11671.11   -5728.3525     79.81108 
   89800    961.96279   -106.40542   0.87040415   -105.53502    13501.057    4.2992682    4.2992682    4.2992682    13501.057    25042.119   -333.50949    15794.561    11422.187   -5816.9672    3242.1061    79.466416 
   89900    720.78304   -106.19413   0.65217964   -105.54195    70.908763    4.3011481    4.3011481    4.3011481    70.908763   -2065.0909   -1914.1806    4191.9978   -23108.267    10447.438   -8968.4011    79.570701 
   90000    838.38127   -106.30126     0.758585   -105.54268   -5025.0083    4.3064818    4.3064818    4.3064818   -5025.0083    1974.2911   -10545.445   -6503.8708    596.67398    2505.0059   -4488.0555    79.867086 
   90100    1017.1292   -106.45728   0.92031988   -105.53696    4914.8525    4.2983821    4.2983821    4.2983821    4914.8525    7874.1963    6477.4466    392.91456    290.11095   -10312.005    3752.0523    79.417288 
   90200    370.15022   -105.88012    0.3349197    -105.5452   -7882.8683    4.3012344    4.3012344    4.3012344   -7882.8683   -13044.109   -16897.625    6293.1294    -16821.06    10330.747   -12450.552    79.575494 
   90300    977.58178   -106.42195   0.88453654   -105.53741    1106.2254    4.3058946    4.3058946    4.3058946    1106.2254   -87.125872   -3758.1524    7163.9546    4942.6211   -234.46447    3510.5218    79.834419 
   90400     1007.777   -106.45038   0.91185784   -105.53852    7238.7565     4.297795     4.297795     4.297795    7238.7565    12775.536    3346.6351    5594.0988   -11590.924   -7554.2167    761.66548     79.38475 
   90500    664.19336   -106.14432   0.60097611   -105.54335   -6051.9664    4.3031958    4.3031958    4.3031958   -6051.9664   -2429.1116   -14966.577   -760.21057   -12340.523    16217.083   -5444.8939    79.684401 
   90600     779.7141   -106.24233    0.7055017   -105.53683    127.50202    4.3028036    4.3028036    4.3028036    127.50202   -8927.3537    7854.6593    1455.2005    10213.752   -14315.509    5554.8449    79.662615 
   90700    557.78225   -106.04748    0.5046931   -105.54279   -14681.236    4.3052913    4.3052913    4.3052913   -14681.236   -20211.635    -9110.604   -14721.469   -14705.135    290.10334   -5265.5672    79.800869 
   90800    1010.7285   -106.45444   0.91452842   -105.53991    6469.7278    4.2984433    4.2984433    4.2984433    6469.7278    5567.3896    3308.2121    10533.582   -151.85795    8774.9835   -9056.9683    79.420683 
   90900    1029.8888    -106.4711   0.93186506   -105.53924    -3109.043    4.3027748    4.3027748    4.3027748    -3109.043   -5227.8194    5554.6822   -9653.9917    5.2346367   -23252.581   -814.62431    79.661019 
   91000    405.43024    -105.9096    0.3668418   -105.54275   -16412.879    4.3074429    4.3074429    4.3074429   -16412.879   -26696.737   -23679.903    1138.0033   -23165.371    12834.909   -12079.691    79.920575 
   91100    910.37108   -106.35925   0.82372289   -105.53553    10680.254    4.2912207    4.2912207    4.2912207    10680.254    12083.387     14065.08    5892.2963    3026.9438   -12903.824    -3057.896    79.021006 
   91200    811.70173   -106.27717   0.73444479   -105.54272   -11167.292    4.3093649    4.3093649    4.3093649   -11167.292   -6164.7571   -6040.2273   -21296.893   -11234.559   -6958.1551    1855.6215    80.027601 
   91300    846.32457   -106.30842   0.76577226   -105.54265   -5092.7883    4.3023855    4.3023855    4.3023855   -5092.7883   -1838.5739    -12582.76   -857.03085   -17218.712    11263.441   -13153.902    79.639396 
   91400    935.27919   -106.38169   0.84626026   -105.53543    9279.9493     4.295184     4.295184     4.295184    9279.9493   -5713.4207    24072.721    9480.5472    4873.8166   -9042.7935     12485.08    79.240158 
   91500    478.37937   -105.97494   0.43284771   -105.54209   -13665.894    4.3076393    4.3076393    4.3076393   -13665.894   -28916.429   -17237.046    5155.7943   -20365.539     4427.123   -11348.816    79.931507 
   91600     894.1452   -106.35038   0.80904137   -105.54134    5079.8756    4.3004975    4.3004975    4.3004975    5079.8756    6882.0923    5736.5703    2620.9642   -4009.9459    3954.0964   -876.38711    79.534602 
   91700    1119.2806   -106.54923    1.0127486   -105.53648    7311.4558    4.3021571    4.3021571    4.3021571    7311.4558    11038.673    16410.673   -5514.9786    3749.1158   -9262.0556    1705.8897    79.626717 
   91800    486.04947   -105.98536   0.43978777   -105.54557   -2555.9634    4.2990624    4.2990624    4.2990624   -2555.9634   -7862.0496   -9340.6982    9534.8577   -15298.747    10436.635   -19013.702    79.455004 
   91900    819.49002   -106.28156   0.74149179   -105.54007    54.552536    4.3080511    4.3080511    4.3080511    54.552536   -16318.304    14223.805    2258.1571    9172.3384   -1285.9998   -285.88877    79.954433 
   92000    965.20728   -106.41419   0.87333983   -105.54085    2492.7565    4.2996324    4.2996324    4.2996324    2492.7565     -4070.57    9602.4531    1946.3865   -11001.898   -2588.5454   -11090.258    79.486608 
   92100    557.23604   -106.05189   0.50419888   -105.54769     10057.01    4.2951984    4.2951984    4.2951984     10057.01   -802.14282    4256.6491    26716.524    -7591.593    10085.416   -14090.402    79.240955 
   92200    1207.3001   -106.62642    1.0923905   -105.53402   -2501.6994    4.3128881    4.3128881    4.3128881   -2501.6994   -13420.243    6084.6013   -169.45681    7312.5855   -5711.4784    3045.3829    80.224048 
   92300    529.56621   -106.02287   0.47916264    -105.5437    11240.119    4.2949119    4.2949119    4.2949119    11240.119   -2117.6481    1791.7419    34046.263   -17840.686    1840.5048   -8918.6161    79.225096 
   92400    637.71815   -106.12268   0.57702078   -105.54566   -5398.1427    4.3001025    4.3001025    4.3001025   -5398.1427    909.25412    845.38604   -17949.068    6008.2359    7656.0218   -11814.528    79.512685 
   92500    1108.9216    -106.5401    1.0033756   -105.53673    388.23885     4.305746     4.305746     4.305746    388.23885    5999.3455    750.59133   -5585.2203   -4765.6358   -1123.5933    11180.158    79.826159 
   92600    555.15173   -106.04762   0.50231295   -105.54531   -4540.5309    4.3004721    4.3004721    4.3004721   -4540.5309   -16312.039   -13411.662    16102.108    -15510.72    7620.2524   -17854.176    79.533191 
   92700    1040.1258   -106.47855   0.94112764   -105.53742   -809.66022    4.3024566    4.3024566    4.3024566   -809.66022   -16546.559    3471.8895    10645.689    6303.4654    4753.4828    4571.1024    79.643347 
   92800    749.38749   -106.21794   0.67806155   -105.53987    8745.5266    4.2983957    4.2983957    4.2983957    8745.5266    6632.7348    3532.5911    16071.254   -9758.0912   -4219.5367   -874.12079    79.418041 
   92900    515.75912   -106.01187   0.46666969    -105.5452   -15003.374    4.3085529    4.3085529    4.3085529   -15003.374   -4504.3399   -10143.762   -30362.019   -8865.9404    13279.146   -17640.122    79.982373 
   93000    1110.4063   -106.54008    1.0047189   -105.53537    10946.862    4.2977874    4.2977874    4.2977874    10946.862    11945.983     7283.108    13611.494    8581.3616   -3922.8215    6643.1552     79.38433 
   93100    703.10121     -106.179   0.63618075   -105.54282   -4412.1189    4.3008946    4.3008946    4.3008946   -4412.1189   -3017.6521    -15219.74    5001.0351   -14143.253    6569.0303   -13479.531    79.556635 
   93200    740.95894   -106.20889   0.67043522   -105.53845   -11878.824    4.3055451    4.3055451    4.3055451   -11878.824   -8511.6021   -6047.4028   -21077.468   -1453.6611    4136.2226    -7163.113    79.814982 
   93300    764.37478   -106.22796   0.69162236   -105.53634    4717.0053    4.2986702    4.2986702    4.2986702    4717.0053    8452.8428    3646.2797    2051.8936    1123.8437   -10218.421    11458.351    79.433257 
   93400    790.88786   -106.25638   0.71561196   -105.54077    -14033.78    4.3053267    4.3053267    4.3053267    -14033.78   -10732.098   -23180.286   -8188.9562    -11511.68    7964.3673   -19345.839    79.802837 
   93500    1058.6307   -106.49327   0.95787127   -105.53539    9734.7935    4.3007463    4.3007463    4.3007463    9734.7935   -951.14677    4573.8067    25581.721    1675.8668   -5917.3204     9671.587    79.548404 
   93600     664.2605   -106.13972   0.60103686   -105.53868   -8877.3434    4.3021702    4.3021702    4.3021702   -8877.3434    6752.1386   -12529.022   -20855.147   -3788.2237    141.30731     1223.992    79.627442 
   93700    502.39634   -105.99499   0.45457877   -105.54041   -7478.9736    4.3020537    4.3020537    4.3020537   -7478.9736    9347.5162   -4101.9461   -27682.491     -11340.3    7835.6636   -14353.125    79.620972 
   93800    1079.3871   -106.51196    0.9766521    -105.5353    6995.5234    4.3021411    4.3021411    4.3021411    6995.5234     7962.809   -1927.4329    14951.194    1494.0192   -9626.3437    17609.433    79.625826 
   93900    856.38104   -106.31549   0.77487156   -105.54062   -7219.5416    4.3039461    4.3039461    4.3039461   -7219.5416   -2180.3754   -22234.784    2756.5348   -12877.545       2851.2   -18815.912    79.726092 
   94000    682.50844   -106.15687   0.61754798   -105.53932    9301.8667    4.2990017    4.2990017    4.2990017    9301.8667    188.88624   -743.30534    28460.019   -9383.2567    862.18655   -1006.6395     79.45164 
   94100    839.00537     -106.296   0.75914969   -105.53685   -4255.9724    4.3040552    4.3040552    4.3040552   -4255.9724    4277.0686    3494.5529   -20539.539    3838.9227    -10301.07   -3193.2159    79.732156 
   94200     572.9765   -106.06264   0.51844118    -105.5442   -6578.0991    4.3029372    4.3029372    4.3029372   -6578.0991    -3193.934    -23514.21    6973.8469   -15770.791    11238.338   -16418.765    79.670035 
   94300    1209.2226   -106.63176    1.0941301   -105.53763    8022.7676    4.2989716    4.2989716    4.2989716    8022.7676    3103.5574   -176.24997    21140.995    4354.8562   -12029.091     2535.264    79.449971 
   94400    770.05929   -106.23812   0.69676582   -105.54136    3103.2748    4.3011393    4.3011393    4.3011393    3103.2748    20626.569   -6950.9926   -4365.7516   -5716.5393    3199.3644   -13537.349    79.570212 
   94500    363.33588   -105.87468   0.32875394   -105.54592   -9732.2703     4.305841     4.305841     4.305841   -9732.2703   -8264.9004   -17906.553   -3025.3571    -12178.46      6490.12   -10193.156    79.831442 
   94600    1148.7527   -106.57391    1.0394155   -105.53449     12605.61    4.2996212    4.2996212    4.2996212     12605.61    4352.8983    14476.751    18987.181    5024.1707   -2319.2518    1843.0636    79.485992 
   94700    726.11796   -106.20141   0.65700679    -105.5444   -6199.9293    4.3007908    4.3007908    4.3007908   -6199.9293   -12274.505   -24266.611    17941.328   -13697.202    9226.9556   -11803.685    79.550874 
   94800     855.0014   -106.31488   0.77362323   -105.54125   -3970.1184    4.3046362    4.3046362    4.3046362   -3970.1184    -5976.062   -11911.537    5977.2435    -2341.398    5686.9683   -626.21774    79.764449 
   94900    939.52195   -106.38532   0.85009921   -105.53522    2534.7424    4.3006008    4.3006008    4.3006008    2534.7424    21387.538   -2480.9644   -11302.346   -4439.4882   -2374.7006    5582.0029    79.540332 
   95000    325.18165   -105.84015   0.29423119   -105.54592   -14182.024    4.3036441    4.3036441    4.3036441   -14182.024   -13575.815   -21827.795   -7142.4614   -17974.654    6163.4637   -14291.085    79.709308 
   95100    1133.0801   -106.56097    1.0252347   -105.53573     6764.611    4.3022049    4.3022049    4.3022049     6764.611    1263.6751    1967.9521    17062.206    68.833878   -892.77135    8956.6678    79.629367 
   95200    851.20709   -106.31141   0.77019006   -105.54122   -5842.8935    4.3016797    4.3016797    4.3016797   -5842.8935   -391.38525   -11012.904   -6124.3909   -12199.293   -2902.5476   -3782.2107    79.600211 
   95300    649.28528   -106.13009   0.58748696   -105.54261   -3884.2897    4.2998383    4.2998383    4.2998383   -3884.2897   -7188.9665   -6213.7039    1749.8012   -10976.097    9511.5881   -10227.513    79.498031 
   95400    931.10657   -106.37825   0.84248479   -105.53576   -5334.0237    4.3041592    4.3041592    4.3041592   -5334.0237    3186.1137   -4142.4719   -15045.713    8739.2406    -6534.962    16591.982    79.737934 
   95500    519.27114   -106.01208   0.46984744   -105.54223   -13570.429    4.3042555    4.3042555    4.3042555   -13570.429   -19608.984   -21584.714    482.41145   -20389.754    8272.6324    -13573.55    79.743287 
   95600    1040.2112    -106.4779   0.94120499   -105.53669    4985.7844     4.297142     4.297142     4.297142    4985.7844    15727.376    -1022.391    252.36817    2076.4175    3237.1914   -92.203593    79.348574 
   95700    833.91851   -106.29266   0.75454699   -105.53811   -8111.8714    4.3066659    4.3066659    4.3066659   -8111.8714    10560.217   -9529.5739   -25366.257    -3658.986    2809.8245    15316.233     79.87733 
   95800    611.05142   -106.09146   0.55289216   -105.53857   -9395.8906    4.3021379    4.3021379    4.3021379   -9395.8906    -15134.31   -5154.0593   -7899.3019   -19909.229    7207.5316   -18265.934    79.625651 
   95900    829.45361    -106.2852   0.75050705   -105.53469   -1471.2477    4.2988223    4.2988223    4.2988223   -1471.2477   -3027.6061   -276.63813    -1109.499     7943.932    3676.1595     26249.53    79.441688 
   96000    810.30571   -106.27152   0.73318164   -105.53834   -13773.555    4.3063598    4.3063598    4.3063598   -13773.555    -15306.28   -24804.869   -1209.5179   -15877.017    756.37956    152.69983    79.860303 
   96100    907.29107   -106.35901   0.82093602   -105.53808    1933.6207    4.2991832    4.2991832    4.2991832    1933.6207    9453.7909    781.00131     -4433.93   -12816.269    3705.2023   -3987.4541      79.4617 
   96200     806.6912   -106.26696   0.72991115   -105.53705   -5821.4724    4.3035009    4.3035009    4.3035009   -5821.4724    7175.5068   -3204.3182   -21435.606   -1241.4813   -5917.5491    26092.839    79.701354 
   96300    598.13096   -106.08002   0.54120146   -105.53882   -6988.1278    4.3033434    4.3033434    4.3033434   -6988.1278   -12010.915   -11213.099    2259.6312   -17062.553    2791.1911   -15283.798    79.692602 
   96400    782.97312    -106.2464   0.70845053   -105.53795    -1086.438     4.300961     4.300961     4.300961    -1086.438    8542.5318   -6574.8258     -5227.02    -1334.553    1777.1833    20162.791    79.560321 
   96500    1058.1508   -106.49347   0.95743712   -105.53603    -2421.998    4.3026769    4.3026769    4.3026769    -2421.998    8208.5656   -13727.432   -1747.1271   -2264.8243   -3504.6425    6339.2772    79.655579 
   96600    767.77198   -106.23378   0.69469623   -105.53908    1217.8077    4.3014764    4.3014764    4.3014764    1217.8077   -5564.4969     6625.361     2592.559   -13613.899    10702.211    -8330.708    79.588925 
   96700    658.26754   -106.13327   0.59561431   -105.53765   -5803.3247    4.3056199    4.3056199    4.3056199   -5803.3247   -4204.8298   -6471.9935   -6733.1507    2326.2439   -4112.8129    18443.824    79.819145 
   96800    734.15307   -106.20097   0.66427713   -105.53669   -593.51772    4.3000872    4.3000872    4.3000872   -593.51772   -14074.798   -8383.6847     20677.93   -18285.462     6989.761   -6661.8634     79.51184 
   96900    833.40667   -106.29329   0.75408387    -105.5392    2427.6454    4.3013865    4.3013865    4.3013865    2427.6454    23464.431   -7525.2508   -8656.2439    405.67038    2761.9368    3828.7532    79.583935 
   97000    1081.7191    -106.5136   0.97876213   -105.53484   -2071.1571    4.3053432    4.3053432    4.3053432   -2071.1571    4974.4756   -6375.7753   -4812.1717   -8437.3484    1177.5402    13957.751    79.803757 
   97100    583.79542   -106.06685   0.52823037   -105.53862    3799.2273    4.2998253    4.2998253    4.2998253    3799.2273   -6068.2964    7623.1735    9842.8047   -14923.017   -212.37184   -10753.353    79.497309 
   97200    670.06782   -106.14389   0.60629145    -105.5376   -387.62404    4.3021033    4.3021033    4.3021033   -387.62404   -6786.0041   -1233.1507    6856.2827    4962.9334    1663.2895    11507.055    79.623727 
   97300    920.62254   -106.37007   0.83299862   -105.53707   -2196.7993    4.3050138    4.3050138    4.3050138   -2196.7993   -15157.895    838.16209    7729.3346   -21580.084   -10209.037    1116.8092    79.785438 
   97400    884.60932   -106.33837    0.8004131   -105.53796    6077.3882    4.3005005    4.3005005    4.3005005    6077.3882    19043.902    -8829.297    8017.5594    2334.5035    592.23069   -6167.6781    79.534766 
   97500    823.00369   -106.27981   0.74467103   -105.53514    228.54999    4.3011669    4.3011669    4.3011669    228.54999   -9351.9184    8756.8823     1280.686    2053.0284   -6499.6256    15449.491    79.571745 
   97600     510.9592   -106.00127   0.46232663   -105.53895   -1727.3514    4.3054015    4.3054015    4.3054015   -1727.3514   -10701.882    -8371.525    13891.353   -17691.666   -6419.0861   -7654.9561    79.806997 
   97700    999.32675   -106.44007   0.90421184   -105.53586    3592.6425    4.3004828    4.3004828    4.3004828    3592.6425     6909.678    781.68625    3086.5631    10510.205    4534.4348    3685.3746    79.533785 
   97800    886.68251   -106.34056   0.80228896   -105.53827    5851.5904    4.3013567    4.3013567    4.3013567    5851.5904    8282.8076    12301.035    -3029.071   -16929.823   -6446.1288    3449.5344    79.582283 
   97900    731.20917   -106.19956   0.66161342   -105.53794   -10790.667    4.3054462    4.3054462    4.3054462   -10790.667   -11234.652   -23677.233    2539.8843   -10330.522    3642.2561   -4951.2595    79.809481 
   98000    761.75683   -106.22408   0.68925359   -105.53482    5424.6438    4.2981938    4.2981938    4.2981938    5424.6438   -14019.086    19070.785    11222.232    9867.6279   -2825.1154    3500.3495    79.406852 
   98100    736.33215   -106.20743    0.6662488   -105.54118   -3769.2106    4.3038295    4.3038295    4.3038295   -3769.2106   -11700.301   -8335.7796    8728.4486   -27137.698   -4177.9818   -374.67952    79.719613 
   98200    993.74909   -106.43767   0.89916506   -105.53851    1611.6547    4.3041178    4.3041178    4.3041178    1611.6547    9119.8485   -4574.1334    289.24892    6220.0111    690.92472   -2526.2583    79.735634 
   98300    731.34625   -106.19981   0.66173746   -105.53807    11764.067    4.2989941    4.2989941    4.2989941    11764.067    27058.297    5901.2982    2332.6062   -8031.0933   -4753.7974    930.18755    79.451214 
   98400    627.11717   -106.10878   0.56742879   -105.54135   -11601.133    4.3054301    4.3054301    4.3054301   -11601.133   -27746.595   -16237.001    9180.1971   -17700.218   -7964.7107   -2735.4312    79.808587 
   98500    971.53481   -106.41478   0.87906512   -105.53571    8572.2317    4.3002352    4.3002352    4.3002352    8572.2317    3337.2825    16114.986    6264.4267    18239.132    128.09345   -3889.3563    79.520046 
   98600    813.10861   -106.27534   0.73571776   -105.53962   -5434.7702    4.3020138    4.3020138    4.3020138   -5434.7702   -7355.8654   -3656.4255   -5292.0198   -28797.785   -13518.835     653.2483     79.61876 
   98700    717.47096   -106.18639    0.6491828   -105.53721     1076.669    4.3042183    4.3042183    4.3042183     1076.669     7496.414   -3244.6125   -1021.7946     1410.458   -1899.0384   -4022.3429    79.741221 
   98800     867.9971   -106.31996   0.78538202   -105.53458    4264.8234    4.3019196    4.3019196    4.3019196    4264.8234    4244.9929   -3123.9797    11673.457   -534.10226    -27.83252    3252.4594    79.613526 
   98900    725.45052    -106.1965   0.65640287   -105.54009    -4513.818    4.3028983    4.3028983    4.3028983    -4513.818   -13675.986    -9559.925    9694.4569    -28511.91   -6594.2193   -2455.5851    79.667877 
   99000    1055.8546   -106.48976   0.95535945    -105.5344    9489.2861    4.3013818    4.3013818    4.3013818    9489.2861    25588.698    3752.8475   -873.68674    16607.515    2787.3099    -423.0497    79.583673 
   99100    592.94404   -106.07595   0.53650823   -105.53945   -10603.293    4.3042428    4.3042428    4.3042428   -10603.293    -13407.93   -10430.927   -7971.0213   -31318.835   -4980.4139    1729.3848    79.742578 
   99200    675.72416   -106.14992   0.61140942   -105.53851    2545.4652    4.2993914    4.2993914    4.2993914    2545.4652   -2615.2689    3022.1621    7229.5026    -8226.917   -4462.6703   -3971.8952    79.473247 
   99300    1157.2166    -106.5812    1.0470739   -105.53412   -3288.0901    4.3031529    4.3031529    4.3031529   -3288.0901   -6073.4987   -8829.4621    5038.6905    3259.5226   -508.77278    1049.8791    79.682022 
   99400    499.46761   -105.99562   0.45192879   -105.54369    -6104.338    4.3034778    4.3034778    4.3034778    -6104.338   -3258.5078    -12618.81   -2435.6957   -36216.817   -9477.2328   -1514.2955    79.700067 
   99500    983.94681   -106.42616   0.89029575   -105.53587    8046.4246    4.3008409    4.3008409    4.3008409    8046.4246    32593.457   -2163.6455   -6290.5378    12618.236    4797.7616   -1052.9216    79.553652 
   99600    622.36292    -106.1046   0.56312705   -105.54147   -334.11666    4.3026211    4.3026211    4.3026211   -334.11666   -4186.5328   -8024.3318    11208.515   -25634.183    -5272.546    887.97283    79.652483 
   99700    755.25123   -106.22588   0.68336719   -105.54252    -2886.018    4.3018192    4.3018192    4.3018192    -2886.018   -15049.094    3280.1802    3110.8601   -14854.344   -4485.0185   -2024.8139    79.607952 
   99800    1196.0733   -106.61509    1.0822323   -105.53286    2305.8641    4.3031415    4.3031415    4.3031415    2305.8641    18551.805   -7125.2943   -4508.9186    6342.0713    505.53389   -3344.7524    79.681386 
   99900    392.35843   -105.89801   0.35501415   -105.54299   -6129.9279    4.2998169    4.2998169    4.2998169   -6129.9279   -3920.4787   -4684.6779    -9784.627   -31881.956   -10545.612   -581.67202    79.496843 
  100000    882.49309   -106.33867    0.7984983   -105.54017   -4732.6056    4.3041504    4.3041504    4.3041504   -4732.6056    5350.4585    1848.7157   -21396.991     3663.429    916.68409   -6217.8879    79.737445 
Loop time of 22.5765 on 1 procs for 100000 steps with 8 atoms

Pair  time (%) = 7.41146 (32.8282)
Kspce time (%) = 5.36662 (23.7708)
Neigh time (%) = 0 (0)
Comm  time (%) = 1.07381 (4.75633)
Outpt time (%) = 0.0243151 (0.107701)
Other time (%) = 8.70028 (38.5369)

Nlocal:    8 ave 8 max 8 min
Histogram: 1 0 0 0 0 0 0 0 0 0
Nghost:    2189 ave 2189 max 2189 min
Histogram: 1 0 0 0 0 0 0 0 0 0
Neighs:    2344 ave 2344 max 2344 min
Histogram: 1 0 0 0 0 0 0 0 0 0

Total # of neighbors = 2344
Ave neighs/atom = 293
Neighbor list builds = 0
Dangerous builds = 0
unfix 20
unfix 21
print "seeds:8135723"
seeds:8135723
