LAMMPS (10 Feb 2015)
# ---- initialize simulations
clear
units metal
dimension 3
boundary p p p
atom_style charge
atom_modify map array
# ---- create atoms
read_data /Users/eugeneragasa/pyflamestk_git/pypospack/tests/tests_integration/workflow/WorkflowLammpsThermalExpansion/param_4537/MgO_NaCl_unit.npt.T800/lammps.structure
  triclinic box = (0 0 0) to (4.2565 4.2565 4.2565) with tilt (0 0 0)
  1 by 1 by 1 MPI processor grid
  reading atoms ...
  8 atoms
# ---- define interatomic potential
include potential.mod
mass 1 24.305
mass 2 15.999

group Mg type 1
4 atoms in group Mg
group O type 2
4 atoms in group O

set group Mg charge 1.68595133453
  4 settings made for charge
set group O charge -1.68595133453
  4 settings made for charge

variable R_cut equal 10.0

pair_style buck/coul/long ${R_cut}
pair_style buck/coul/long 10
pair_coeff 1 1 0.0 0.5 0.0 ${R_cut}
pair_coeff 1 1 0.0 0.5 0.0 10
pair_coeff 1 2 1257.74769115 0.28905643469 0.0 ${R_cut}
pair_coeff 1 2 1257.74769115 0.28905643469 0.0 10
pair_coeff 2 2 3064.42109336 0.236064465148 18.7313535189 ${R_cut}
pair_coeff 2 2 3064.42109336 0.236064465148 18.7313535189 10

kspace_style pppm 1.0e-5

neighbor 1.0 bin
neigh_modify every 1 delay 0 check yes
# ---- define settings
compute eng all pe/atom
compute eatoms all reduce sum c_eng
# ---- run minimization
reset_timestep 0
fix 1 all box/relax iso 0.0 vmax 0.001
thermo 10
thermo_style custom step pe lx ly lz xy xz yz press pxx pyy pzz pxy pxz pyz c_eatoms
min_style cg
minimize 1e-25 1e-25 5000 10000
PPPM initialization ...
  G vector (1/distance) = 0.353047
  grid = 8 8 8
  stencil order = 5
  estimated absolute RMS force accuracy = 4.05219e-05
  estimated relative force accuracy = 2.81409e-06
  using double precision FFTs
  3d grid and FFT values/proc = 3375 512
Neighbor list info ...
  1 neighbor list requests
  update every 1 steps, delay 0 steps, check yes
  master list distance cutoff = 11
Memory usage per processor = 4.06549 Mbytes
Step PotEng Lx Ly Lz Xy Xz Yz Press Pxx Pyy Pzz Pxy Pxz Pyz eatoms 
       0   -115.66496       4.2565       4.2565       4.2565            0            0            0    45758.215    45758.215    45758.215    45758.215 1.7170796e-11 2.2312869e-10 1.3064853e-10   -115.66496 
      10   -115.69248    4.2933032    4.2933032    4.2933032            0            0            0   -6.7922673   -6.7922673   -6.7922673   -6.7922673 -6.3857142e-11 -7.0573166e-11 -5.8083176e-11   -115.69248 
      13    -115.6925     4.293297     4.293297     4.293297            0            0            0   0.20218487   0.20218487   0.20218487   0.20218487 1.6450748e-10 -9.163684e-11 -3.6202501e-11    -115.6925 
Loop time of 0.00646114 on 1 procs for 13 steps with 8 atoms

Minimization stats:
  Stopping criterion = linesearch alpha is zero
  Energy initial, next-to-last, final = 
        -115.664963059     -115.692495365     -115.692495365
  Force two-norm initial, final = 6.60751 4.45929e-05
  Force max component initial, final = 6.60751 2.97026e-05
  Final line search alpha, max atom move = 0.5 1.48513e-05
  Iterations, force evaluations = 13 19

Pair  time (%) = 0.00175619 (27.1808)
Kspce time (%) = 0.00106955 (16.5535)
Neigh time (%) = 0 (0)
Comm  time (%) = 0.000194788 (3.01476)
Outpt time (%) = 1.3113e-05 (0.202952)
Other time (%) = 0.00342751 (53.048)

Nlocal:    8 ave 8 max 8 min
Histogram: 1 0 0 0 0 0 0 0 0 0
Nghost:    2189 ave 2189 max 2189 min
Histogram: 1 0 0 0 0 0 0 0 0 0
Neighs:    2344 ave 2344 max 2344 min
Histogram: 1 0 0 0 0 0 0 0 0 0

Total # of neighbors = 2344
Ave neighs/atom = 293
Neighbor list builds = 0
Dangerous builds = 0
unfix 1
# ---- define output variables ----
variable natoms equal "count(all)"
variable tot_energy equal "c_eatoms"
variable length_x equal "lx"
variable length_y equal "ly"
variable length_z equal "lz"
variable tilt_xy equal "xy"
variable tilt_xz equal "xz"
variable tilt_yz equal "yz"
variable tot_press equal "press"
variable press_xx equal "pxx"
variable press_yy equal "pyy"
variable press_zz equal "pzz"
variable press_xy equal "pxy"
variable press_xz equal "pxz"
variable press_yz equal "pyz"

# ---- output ----
print "pypospack:output_section:begin"
pypospack:output_section:begin
print "tot_energy = ${tot_energy}"
tot_energy = -115.692495364628
print "num_atoms = ${natoms}"
num_atoms = 8
print "xx = ${length_x}"
xx = 4.29329700926666
print "yy = ${length_y}"
yy = 4.29329700926666
print "zz = ${length_z}"
zz = 4.29329700926666
print "xy = ${tilt_xy}"
xy = 0
print "xz = ${tilt_xz}"
xz = 0
print "yz = ${tilt_yz}"
yz = 0
print "tot_press = ${tot_press}"
tot_press = 0.202184869803092
print "pxx = ${press_xx}"
pxx = 0.202184869911938
print "pyy = ${press_yy}"
pyy = 0.202184869729888
print "pzz = ${press_zz}"
pzz = 0.20218486976745
print "pxy = ${press_xy}"
pxy = 1.64507477572858e-10
print "pxz = ${press_xz}"
pxz = -9.16368397176372e-11
print "pyz = ${press_yz}"
pyz = -3.62025011042311e-11
print "pypospack:output_section:done"
pypospack:output_section:done
print "pypospack:lammps_sim:done"
pypospack:lammps_sim:done
#------------------------------------------------------------------------------
# RUN THERMOSTAT
# running using an NPT Nose-Hoover style thermostat
#------------------------------------------------------------------------------
variable tempdamp equal 0.1
variable pressdamp equal 1.0
# set initial velocities
velocity all create 800 2576997 mom yes dist gaussian loop all
# fix for Nose-Hoover style thermostat
fix 20 all npt temp 800 800 0.1 aniso 0.0 0.0 1.0 drag 1.0 couple xyz
variable boxx equal lx
variable boxy equal ly
variable boxz equal lz
variable boxp equal press
variable boxt equal temp
# calculate averages every 10000 steps
reset_timestep 0
fix 21 all ave/time 10 10 100 v_boxx v_boxy v_boxz v_boxp v_boxt file lattice.out
thermo_style custom step temp pe ke etotal press lx ly lz press pxx pyy pzz pxy pxz pyz vol
thermo_modify flush yes
thermo 100
run 100000
PPPM initialization ...
  G vector (1/distance) = 0.352672
  grid = 8 8 8
  stencil order = 5
  estimated absolute RMS force accuracy = 4.1232e-05
  estimated relative force accuracy = 2.8634e-06
  using double precision FFTs
  3d grid and FFT values/proc = 3375 512
Memory usage per processor = 3.06549 Mbytes
Step Temp PotEng KinEng TotEng Press Lx Ly Lz Press Pxx Pyy Pzz Pxy Pxz Pyz Volume 
       0          800    -115.6925   0.72385681   -114.96865    9769.0738     4.293297     4.293297     4.293297    9769.0738    9716.6637    8484.2353    11106.322   -303.22989    -4089.357    2666.8233    79.135764 
     100    262.03193    -115.1105     0.237092   -114.87341    902.27205    4.3267534    4.3267534    4.3267534    902.27205    5471.0365   -1954.6484     -809.572   -2554.7824    1963.6339    1638.6638    81.000263 
     200    785.74173   -115.38524   0.71095563   -114.67429   -30742.857    4.3354204    4.3354204    4.3354204   -30742.857   -33823.867   -32719.932   -25684.772    3288.2471    4078.8831    4668.2656    81.487997 
     300     503.2912   -114.95779   0.45538845    -114.5024    35449.485    4.3172259    4.3172259    4.3172259    35449.485    38373.745     28836.83     39137.88   -558.80423    1708.8411   -400.03431    80.466355 
     400    874.93725   -115.16056   0.79166161    -114.3689   -9372.1503    4.3406369    4.3406369    4.3406369   -9372.1503   -16334.426   -21020.773    9238.7479   -2740.0218    6910.7824   -8489.9357      81.7825 
     500    489.12991   -114.72211   0.44257502   -114.27954    4888.2258     4.345097     4.345097     4.345097    4888.2258    2145.8768   -2069.5142    14588.315    6777.0472    11031.319    869.40429    82.034859 
     600    947.44161    -115.0855   0.85726508   -114.22823    5693.7078    4.3363381    4.3363381    4.3363381    5693.7078    15453.851   -10123.332    11750.604   -387.91876    -1147.911   -4332.5039    81.539758 
     700    997.44738   -115.11969   0.90251135   -114.21718    5594.4071    4.3385362    4.3385362    4.3385362    5594.4071    8800.7911    8185.5121   -203.08204    2260.2127    343.51866   -11882.409    81.663819 
     800    686.28123    -114.8452   0.62096168   -114.22424    466.45489    4.3396269    4.3396269    4.3396269    466.45489     7690.562   -406.50274   -5884.6946    3387.5309    6802.5471    7954.2393    81.725422 
     900    939.22602   -115.07581   0.84983144   -114.22598   -21768.717    4.3448478    4.3448478    4.3448478   -21768.717   -11714.031   -18587.087   -35005.034    3226.5796   -3743.3014   -3431.5091    82.020744 
    1000    718.00884   -114.87691   0.64966949   -114.22724    18183.149    4.3356446    4.3356446    4.3356446    18183.149    34463.374   -1073.2795    21159.353   -1918.8471   -37.995567    3196.6584    81.500641 
    1100    1008.3639   -115.14818   0.91238886   -114.23579   -18857.358    4.3362344    4.3362344    4.3362344   -18857.358   -23029.715   -14582.535   -18959.826   -141.59529    15141.691    7731.3572    81.533907 
    1200    240.57012   -114.46213    0.2176729   -114.24446    15074.368    4.3389002    4.3389002    4.3389002    15074.368    5195.8054    26093.905    13933.395    6016.5477    8530.5696   -543.06867    81.684372 
    1300    1079.5459   -115.21418   0.97679579   -114.23739   -9345.2317    4.3398419    4.3398419    4.3398419   -9345.2317   -9084.2029    -28015.15    9063.6577   -8603.5519   -7509.6048    9671.1573    81.737571 
    1400    469.31107   -114.66367   0.42464252   -114.23902    12029.867    4.3422194    4.3422194    4.3422194    12029.867      4754.32     2332.433    29002.847    9493.2354    2273.3301    2453.3299    81.871981 
    1500    704.59705   -114.87192   0.63753422   -114.23439    -4744.024    4.3323139    4.3323139    4.3323139    -4744.024   -10265.231   -14251.232    10284.391   -2109.9693     10995.88    7549.6389    81.312953 
    1600    883.61952   -115.03774   0.79951751   -114.23822   -10064.723    4.3414239    4.3414239    4.3414239   -10064.723   -18505.338    5794.0308   -17482.863      2780.05   -855.90517    4547.0232    81.826992 
    1700    750.39987    -114.9142   0.67897757   -114.23523    4267.9582    4.3441826    4.3441826    4.3441826    4267.9582    20127.945   -6777.9844   -546.08557    3242.1037   -5819.6321   -3984.4872    81.983077 
    1800    986.12556   -115.12463   0.89226713   -114.23236   -3685.9386    4.3347841    4.3347841    4.3347841   -3685.9386    1212.9254    16557.549    -28828.29   -3701.4447    1568.3239    1174.2552    81.452126 
    1900    691.74099   -114.86917   0.62590179   -114.24327    388.62457    4.3458624    4.3458624    4.3458624    388.62457   -6396.3961    12924.074   -5361.8045    9540.3622    4328.5191   -2734.0414    82.078218 
    2000    1194.5973   -115.31507    1.0808967   -114.23417   -3980.6713    4.3349051    4.3349051    4.3349051   -3980.6713   -3159.5513    6446.7129   -15229.175   -2100.7957    -10194.86    -3225.666    81.458943 
    2100    750.52264   -114.91184   0.67908866   -114.23275    22325.129     4.330535     4.330535     4.330535    22325.129     29189.52    6344.8938    31440.975    6495.0843    5730.0383    1708.3348    81.212832 
    2200    716.27459   -114.88107    0.6481003   -114.23297   -14183.854    4.3566779    4.3566779    4.3566779   -14183.854   -20476.925   -9734.8511   -12339.785   -2685.9941    7137.3624    5005.1752    82.692542 
    2300    1071.4705   -115.18816   0.96948902   -114.21867   -2168.4724    4.3350471    4.3350471    4.3350471   -2168.4724   -240.26109   -18217.935    11952.779   -940.16235   -1344.1324    5621.6862    81.466952 
    2400    798.84098   -114.95163   0.72280811   -114.22882    20565.742    4.3237842    4.3237842    4.3237842    20565.742    19403.627    21531.754    20761.847   -558.48237    7092.9269    4338.3085    80.833621 
    2500     694.5143   -114.86914   0.62841114   -114.24073   -19290.332    4.3585166    4.3585166    4.3585166   -19290.332   -31413.061    -9085.404   -17372.532   -783.14164     1598.811    2800.0839    82.797286 
    2600    951.00894   -115.08833   0.86049288   -114.22784   -7553.7183    4.3401202    4.3401202    4.3401202   -7553.7183   -2000.7697    9069.8093   -29730.194    3051.2808      4090.75   -87.253476    81.753294 
    2700    710.26537   -114.86686   0.64266304    -114.2242    31862.765    4.3184407    4.3184407    4.3184407    31862.765    7933.6936    33808.856    53845.746   -8250.0383     1065.156   -6932.1695    80.534298 
    2800    668.97478   -114.84465   0.60530244   -114.23935   -19721.315    4.3547283    4.3547283    4.3547283   -19721.315   -18509.951   -15893.613   -24760.382   -610.61308     7971.926    -1543.427    82.581579 
    2900    640.73864   -114.81594   0.57975379   -114.23619    -3930.107    4.3406647    4.3406647    4.3406647    -3930.107   -33427.218   -12579.761    34216.658    2998.0278   -1330.7994   -10175.359    81.784072 
    3000    549.97082   -114.73035   0.49762516   -114.23272    38044.311    4.3171112    4.3171112    4.3171112    38044.311    54147.828     10793.97    49191.135    1919.3827     6461.575    4803.7993    80.459939 
    3100    922.26169   -115.07481   0.83448176   -114.24033   -33751.251    4.3546607    4.3546607    4.3546607   -33751.251   -41866.984   -33806.269   -25580.502    2991.2485    7980.1464   -3.7510918    82.577736 
    3200    682.56284   -114.84829    0.6175972   -114.23069   -7141.9729    4.3415521    4.3415521    4.3415521   -7141.9729     2108.175    -29271.62    5737.5264    8755.3327   -4551.3502   -20.896472    81.834242 
    3300    961.29589    -115.0872   0.86980073    -114.2174    7260.5907    4.3177153    4.3177153    4.3177153    7260.5907    11686.518   -9261.5253    19356.779    -4193.523    5540.8854    1296.2842    80.493722 
    3400    684.73937   -114.85421   0.61956657   -114.23464   -2898.2959    4.3446556    4.3446556    4.3446556   -2898.2959   -7765.8872   -23339.674    22410.674   -3459.1678   -3189.8367    2614.5531    82.009862 
    3500    823.15819   -114.97239   0.74481083   -114.22758    -19579.62    4.3483723    4.3483723    4.3483723    -19579.62   -692.42188   -50563.148   -7483.2897    9626.3233    6209.7507    7631.4869    82.220512 
    3600    776.19835   -114.92432   0.70232058     -114.222     3153.383    4.3249303    4.3249303    4.3249303     3153.383   -10044.161   -23477.441    42981.751   -8026.1823     4315.678   -3949.4685    80.897919 
    3700    774.12924   -114.93244    0.7004484   -114.23199    1089.4962    4.3321449    4.3321449    4.3321449    1089.4962    26529.089   -31256.007    7995.4064   -1471.8764    943.87039    4658.3591    81.303441 
    3800    765.39368   -114.92732   0.69254429   -114.23478   -15868.159    4.3494853    4.3494853    4.3494853   -15868.159    -41122.85   -39439.317     32957.69    13714.029    11008.867   -1862.4115    82.283659 
    3900    727.19236   -114.89843   0.65797893   -114.24045   -1606.6963    4.3290995    4.3290995    4.3290995   -1606.6963    37822.127     -43915.4    1273.1844   -9145.3817   -970.93025    -3847.762    81.132098 
    4000    866.89249   -115.02785   0.78438254   -114.24346    10163.065    4.3213317    4.3213317    4.3213317    10163.065     14753.83   -9642.7694    25378.133    -2053.338   -3107.8658   -5943.9462     80.69615 
    4100    804.86502   -114.97207   0.72825879   -114.24381   -18352.868    4.3562845    4.3562845    4.3562845   -18352.868    12238.461   -50263.191   -17033.875   -2374.6295    5260.2724   -3630.4621    82.670145 
    4200    756.91194   -114.92105   0.68486983   -114.23618   -14285.452    4.3407146    4.3407146    4.3407146   -14285.452    957.40231   -49259.271    5445.5124   -4955.9564    406.13134    1438.2179    81.786889 
    4300    750.94744   -114.90565   0.67947303   -114.22618    44913.929    4.2984225    4.2984225    4.2984225    44913.929    74316.684      2969.91    57455.193    5631.2914    803.40254   -5182.6669    79.419527 
    4400    1018.1504   -115.18712   0.92124384   -114.26588   -27527.615    4.3508963    4.3508963    4.3508963   -27527.615   -8257.8533    -42882.44   -31442.552    2275.5258    4948.5393    3842.7344    82.363767 
    4500    546.81716   -114.74035   0.49477166   -114.24558   -25279.348     4.356016     4.356016     4.356016   -25279.348   -41746.066   -52539.028     18447.05    15627.706     7978.385   -992.92672    82.654862 
    4600    962.36827   -115.07518   0.87077103   -114.20441    42729.273    4.2917014    4.2917014    4.2917014    42729.273    72527.237   -5.6897114    55666.272    4066.5058   -5938.1401    6558.8575    79.047564 
    4700    879.91808   -115.04678   0.79616837   -114.25061   -18386.533    4.3459918    4.3459918    4.3459918   -18386.533    -16971.76   -45851.085    7663.2479    -1244.691   -296.28159   -9001.1179    82.085549 
    4800     405.7515   -114.60451   0.36713249   -114.23737   -25594.066    4.3558875    4.3558875    4.3558875   -25594.066   -23449.024   -45176.333   -8156.8421    14241.928   -2899.8982     4163.513    82.647547 
    4900    923.16812   -115.03928   0.83530191   -114.20398    36527.984    4.2974082    4.2974082    4.2974082    36527.984     41784.04    15264.364     52535.55    1602.4098    7798.8139   -5555.5398    79.363317 
    5000    935.49634   -115.08142   0.84645675   -114.23496   -13902.122    4.3465757    4.3465757    4.3465757   -13902.122    9712.9315   -48081.203   -3338.0957   -635.72495   -733.85548   -6173.9938    82.118638 
    5100     835.9872   -114.98647   0.75641879   -114.23005   -25334.989    4.3447887    4.3447887    4.3447887   -25334.989   -41931.005   -27143.793   -6930.1681     10367.77    7111.1873    1917.9118    82.017395 
    5200    652.87072   -114.80916   0.59073115   -114.21843    36730.237    4.3078938    4.3078938    4.3078938    36730.237    52901.176    24301.551    32987.985    5956.7084    12093.595    706.25853    79.945673 
    5300    912.35268   -115.05769   0.82551588   -114.23218   -19264.987    4.3547416    4.3547416    4.3547416   -19264.987    -27029.65   -37746.558    6981.2467    -7308.661   -12052.933    -1532.566    82.582337 
    5400    945.07189   -115.08632   0.85512091   -114.23119    5779.7415    4.3286041    4.3286041    4.3286041    5779.7415   -15900.693    -754.8406    33994.758   -269.58917    -1408.244    -11657.57    81.104247 
    5500    625.64992   -114.80417    0.5661012   -114.23806     31085.88    4.3175754    4.3175754    4.3175754     31085.88    47294.139    13213.601    32749.899    4528.3754    279.69391   -2031.0176    80.485895 
    5600    945.37275   -115.08441   0.85539313   -114.22902   -38430.069    4.3613028    4.3613028    4.3613028   -38430.069   -37759.263   -34693.569   -42837.376   -7180.3766    4109.4533    6919.2344    82.956175 
    5700    1013.8604   -115.13512   0.91736222   -114.21776    23004.484    4.3157762    4.3157762    4.3157762    23004.484    33543.198    21256.605    14213.648    596.77309    992.84349    5030.5297     80.38532 
    5800    927.36198   -115.07917   0.83909661   -114.24008   -12213.511     4.334256     4.334256     4.334256   -12213.511   -12606.153   -12479.375   -11555.005    12279.262    11238.932    5389.9712     81.42236 
    5900     703.3008   -114.86603   0.63636135   -114.22967   -29748.693    4.3528075    4.3528075    4.3528075   -29748.693   -31723.079   -38148.502   -19374.496   -396.96256    17592.641     9571.235    82.472353 
    6000    1015.1227   -115.12961   0.91850434   -114.21111    29942.488     4.308038     4.308038     4.308038    29942.488    34164.118    17270.293    38393.052     2295.118   -5436.5153    16729.689    79.953705 
    6100    894.28553   -115.04346   0.80916834   -114.23429   -22691.105    4.3469751    4.3469751    4.3469751   -22691.105   -28443.473   -30619.384   -9010.4566    17449.837    3675.6024   -1321.6885    82.141276 
    6200    627.04841   -114.80281   0.56736658   -114.23544   -11851.519    4.3353383    4.3353383    4.3353383   -11851.519    19118.894    -34124.03   -20549.419    12668.985    8216.5519    4450.9487    81.483367 
    6300    684.27135   -114.84381   0.61914309   -114.22467    27036.325    4.3101586    4.3101586    4.3101586    27036.325    45885.505    1037.3665    34186.103   -4400.1833   -2026.5671    6328.7418    80.071832 
    6400    782.56842   -114.93703   0.70808435   -114.22894   -13838.866    4.3487277    4.3487277    4.3487277   -13838.866    1872.9671   -34122.808   -9266.7581    9486.4431    -7024.706   -3171.2596    82.240671 
    6500    530.34343   -114.71032   0.47986588   -114.23046     17531.62    4.3232689    4.3232689    4.3232689     17531.62    27544.487   -16735.003    41785.375    4456.9027   -4451.5847    185.83627    80.804725 
    6600     801.2477   -114.96321   0.72498576   -114.23823   -11819.836    4.3217304    4.3217304    4.3217304   -11819.836   -10128.192   -13240.154   -12091.162   -6849.7328    15698.186    8938.5484    80.718487 
    6700    833.58343   -114.98608   0.75424381   -114.23184   -29751.166    4.3483312    4.3483312    4.3483312   -29751.166   -28315.575   -27786.523   -33151.399   -3173.3142   -4879.6417   -2265.8685    82.218177 
    6800    953.33515   -115.08639   0.86259768    -114.2238   -196.95005    4.3209646    4.3209646    4.3209646   -196.95005    -1915.254    -10350.83    11675.234   -872.30271    1916.8105   -10515.218    80.675583 
    6900    672.01968   -114.84507   0.60805753   -114.23702    1999.8074    4.3248945    4.3248945    4.3248945    1999.8074    9510.0698   -12522.211     9011.563   -1001.2344    5253.5598     4703.499    80.895909 
    7000    910.60583   -115.06146   0.82393529   -114.23752   -24032.551    4.3450012    4.3450012    4.3450012   -24032.551   -22711.403   -19346.223   -30040.027   -8912.7429    418.35084   -6170.3674    82.029432 
    7100    579.15227   -114.75891   0.52402914   -114.23488    29755.989    4.3244724    4.3244724    4.3244724    29755.989    43401.279   -12698.112      58564.8    -4927.291   -15329.455    3603.6599    80.872225 
    7200    824.96279   -114.98238   0.74644367   -114.23594     6773.598    4.3283145    4.3283145    4.3283145     6773.598    51606.019   -26367.455   -4917.7696   -812.34536   -5507.2869   -884.68925    81.087972 
    7300    583.64821    -114.7624   0.52809717   -114.23431    11555.296    4.3400075    4.3400075    4.3400075    11555.296    31568.545   -18771.769     21869.11   -7227.5568     -11491.3    -1928.046    81.746929 
    7400    624.49755   -114.80018    0.5650585   -114.23512    11448.575    4.3324761    4.3324761    4.3324761    11448.575    32088.113   -6934.0747    9191.6882   -2763.5018   -12128.493   -7178.8024    81.322091 
    7500    810.32934   -114.96845   0.73320301   -114.23524   -1586.3684    4.3259303    4.3259303    4.3259303   -1586.3684    18587.303   -13171.091   -10175.318   -2847.2871   -8600.4436   -8177.5241    80.954043 
    7600    936.90034   -115.08409   0.84772712   -114.23636   -274.14913    4.3332653    4.3332653    4.3332653   -274.14913    1940.2447   -4720.5845    1957.8925    -2756.207    7736.7449   -2196.6814    81.366537 
    7700    1121.8055   -115.25006    1.0150332   -114.23502   -31139.438    4.3399346    4.3399346    4.3399346   -31139.438   -41863.881    -29380.01   -22174.425   -700.55449    4379.8589   -2004.3575    81.742808 
    7800    645.52901   -114.82309   0.58408821     -114.239    4538.7508    4.3152974    4.3152974    4.3152974    4538.7508    7151.7018   -7802.1876    14266.738    3760.8162   -8890.0471   -1309.8463    80.358568 
    7900    723.02258   -114.90571   0.65420603    -114.2515    8201.7809    4.3336066    4.3336066    4.3336066    8201.7809    14020.455   -17122.863    27707.751   -1336.8942    754.32482   -7610.6277    81.385768 
    8000    1181.8249   -115.30828      1.06934   -114.23894   -20024.816    4.3413569    4.3413569    4.3413569   -20024.816   -16343.355   -18338.038   -25393.057    3166.9435    1292.9946    3368.7111    81.823204 
    8100    514.33411   -114.70025   0.46538031   -114.23487     42548.32     4.300254     4.300254     4.300254     42548.32    55387.043    10432.793    61825.124    5613.4911   -12480.268    1696.5523    79.521088 
    8200    392.36891   -114.61307   0.35502363   -114.25805   -15608.015    4.3436106    4.3436106    4.3436106   -15608.015    16750.068   -41027.974   -22546.139    2192.5446   -13941.601   -7130.1646    81.950697 
    8300     924.8113   -115.07411    0.8367887   -114.23732   -5800.1218    4.3348272    4.3348272    4.3348272   -5800.1218      23201.9    -32561.21   -8041.0558    3783.7914    3811.9853      1034.44    81.454553 
    8400    879.73132   -115.01578   0.79599939   -114.21978    39821.432    4.2992423    4.2992423    4.2992423    39821.432    41531.435    15258.417    62674.444    4619.0546   -3951.3171    5450.8343    79.464978 
    8500     455.8884   -114.65402    0.4124974   -114.24152   -34761.903    4.3456683    4.3456683    4.3456683   -34761.903   -17024.072   -45059.036   -42202.601   -583.22158   -8895.2383   -14094.674    82.067218 
    8600    711.68218   -114.88733   0.64394499   -114.24339   -7255.0392    4.3192042    4.3192042    4.3192042   -7255.0392   -10073.197   -2411.5387   -9280.3823   -4689.2431   -14323.363    -9784.201    80.577023 
    8700     917.8329    -115.0685    0.8304745   -114.23803    19800.289    4.3117011    4.3117011    4.3117011    19800.289    34747.734   -11715.354    36368.487      9973.55    13801.815    5381.8223     80.15783 
    8800    898.81337    -115.0446   0.81326522   -114.23133    -46428.09    4.3498557    4.3498557    4.3498557    -46428.09   -32026.366   -52805.581   -54452.324   -4399.1567   -9551.1442   -2323.7013    82.304681 
    8900    493.27414   -114.67772   0.44632481    -114.2314    31880.141    4.3014697    4.3014697    4.3014697    31880.141     58253.84    19374.332    18012.252    2198.1297   -15921.561   -9141.7163    79.588553 
    9000    984.98412   -115.13646   0.89123433   -114.24523   -2923.7224    4.3214772    4.3214772    4.3214772   -2923.7224    7836.9711   -1856.5868   -14751.552   -3823.2853    18157.883   -2316.7574    80.704303 
    9100    852.66218   -115.00226   0.77150666   -114.23075    -20947.16    4.3457683    4.3457683    4.3457683    -20947.16    8785.5651   -34263.754   -37363.291    -9285.404    1070.3881    4006.7222    82.072886 
    9200    903.19816   -115.03643   0.81723268    -114.2192     26657.89    4.2999363    4.2999363    4.2999363     26657.89    44537.981    22749.705    12685.985    7563.9852   -16746.284   -7866.7652    79.503466 
    9300    714.68284   -114.88718   0.64666005   -114.24052   -7822.8034    4.3327208    4.3327208    4.3327208   -7822.8034    10193.684   -10099.762   -23562.333   -8564.1074     7174.717   -519.88339    81.335871 
    9400    719.46653   -114.88487   0.65098844   -114.23388   -4700.4215    4.3330268    4.3330268    4.3330268   -4700.4215    26831.272   -13185.266    -27747.27   -3654.2136    20486.422    6097.1795    81.353106 
    9500    1057.4257   -115.17416   0.95678102   -114.21738    26739.357    4.3013714    4.3013714    4.3013714    26739.357    36840.854     26148.73    17228.487    6229.1145   -5254.0795   -12266.719    79.583098 
    9600    812.01025   -114.96669   0.73472393   -114.23196   -28301.853    4.3423318    4.3423318    4.3423318   -28301.853   -22654.015   -19346.268   -42905.276   -941.47619    470.98395   -6331.3852    81.878335 
    9700    681.96667   -114.85778   0.61705778   -114.24072    4674.9643    4.3129707    4.3129707    4.3129707    4674.9643    4611.6216    28625.759   -19212.487    4135.1255    31819.635    7469.1917    80.228658 
    9800    960.04898   -115.10769   0.86867249   -114.23901    21531.543    4.3083384    4.3083384    4.3083384    21531.543    52497.779     9263.174    2833.6768    -1491.799    1015.1062   -4278.1967    79.970431 
    9900     949.6431   -115.08272   0.85925703   -114.22346   -36615.498    4.3535101    4.3535101    4.3535101   -36615.498   -26193.077   -38915.977    -44737.44   -1632.3425   -6733.7701   -9354.9902    82.512293 
   10000    695.54777   -114.85385   0.62934624    -114.2245    29433.953    4.2962796    4.2962796    4.2962796    29433.953    48051.935    42672.883   -2422.9582    1069.5061    19679.982    2834.4365    79.300807 
   10100    783.16113   -114.95187   0.70862065   -114.24325    4039.4049    4.3130442    4.3130442    4.3130442    4039.4049    15844.676    2452.1023   -6178.5636   -1626.4911    19648.472   -3544.3892    80.232762 
   10200    989.61861   -115.11566   0.89542772   -114.22024   -39764.582    4.3488812    4.3488812    4.3488812   -39764.582   -14893.179    -58170.55   -46230.016   -397.82855   -9272.4836   -11610.259    82.249377 
   10300    793.45025   -114.93436   0.71793046   -114.21643    27741.701    4.2918163    4.2918163    4.2918163    27741.701    25910.469     38322.62    18992.014    10015.048    21078.186     136.0323    79.053911 
   10400    587.55506    -114.7739   0.53163217   -114.24227    2053.7835    4.3185135    4.3185135    4.3185135    2053.7835    25614.982    72.110501   -19525.742   -9904.0586    25179.023    2818.0341     80.53837 
   10500    844.29684   -114.98782   0.76393753   -114.22389   -29068.718    4.3453603    4.3453603    4.3453603   -29068.718   -476.77278   -45561.178   -41168.203    9179.5537   -10274.473   -10345.217    82.049773 
   10600     752.9495    -114.8974   0.68128453   -114.21612    28640.464    4.3008589    4.3008589    4.3008589    28640.464    46712.288    14636.897    24572.207    3213.2067    12091.242   -7041.9348    79.554654 
   10700    772.44416   -114.92964    0.6989237   -114.23072   -11533.767    4.3199876    4.3199876    4.3199876   -11533.767    766.21585   -9137.3265   -26230.191   -4983.3841    25184.117    4996.2729    80.620875 
   10800     794.3131   -114.94702   0.71871118   -114.22831   -15958.609     4.330052     4.330052     4.330052   -15958.609    18166.238   -33096.335    -32945.73     8329.263   -1186.0223    -3506.717    81.185662 
   10900    693.00595   -114.85627   0.62704635   -114.22923    19500.301    4.3142276    4.3142276    4.3142276    19500.301    40453.449    1292.9497    16754.505   -5124.5859   -1983.8342   -9679.9183     80.29882 
   11000    895.61327   -115.04263   0.81036971   -114.23226   -7631.6868    4.3206284    4.3206284    4.3206284   -7631.6868    10973.893   -5814.8634    -28054.09    10656.674     10563.55    6628.9976    80.656758 
   11100     647.4781   -114.82085   0.58585179     -114.235    5827.7933    4.3179733    4.3179733    4.3179733    5827.7933     48185.05   -14702.234   -15999.436   -980.57568    12255.496    5477.3875    80.508151 
   11200    703.27951   -114.87172   0.63634208   -114.23537   -11989.019    4.3277222    4.3277222    4.3277222   -11989.019    5624.4379   -19060.482   -22531.012    1342.8407     -10744.9   -8180.7801    81.054688 
   11300    752.20679   -114.91294   0.68061251   -114.23233    3858.5751     4.316595     4.316595     4.316595    3858.5751    26351.353    5777.8167   -20553.444    8822.5603   -5168.7816   -1778.9544    80.431083 
   11400    927.49799   -115.07479   0.83921967   -114.23557   -4088.3732    4.3109469    4.3109469    4.3109469   -4088.3732    6917.4322   -3053.1647   -16129.387    -370.5924    20212.764    9798.0259     80.11577 
   11500    535.25252   -114.72797   0.48430773   -114.24366   -12839.037     4.326384     4.326384     4.326384   -12839.037    1513.7729   -8742.3899   -31288.494    6190.5638   -8167.4314    -2273.053    80.979521 
   11600     877.5334   -115.03141   0.79401066    -114.2374   -2290.2551    4.3173108    4.3173108    4.3173108   -2290.2551    6093.3956    12786.586   -25750.747   -6458.5075    -14820.78   -4657.2493    80.471103 
   11700    933.37486   -115.07858   0.84453719   -114.23405    8585.1909    4.3181138    4.3181138    4.3181138    8585.1909    17232.869    17385.604      -8862.9    13460.346    3052.5426    7673.6794    80.516012 
   11800    794.23472   -114.95364   0.71864027     -114.235    10396.953    4.3177855    4.3177855    4.3177855    10396.953    25895.352    24939.978   -19644.471   -8139.4486    6142.7827   -7609.7358    80.497646 
   11900    679.76993   -114.85443   0.61507012   -114.23936   -4675.5844     4.324564     4.324564     4.324564   -4675.5844    9063.7462    13497.428   -36587.928    7386.9821   -14218.598   -3546.7007    80.877366 
   12000    892.75484   -115.04212   0.80778334   -114.23434    5937.6071    4.3180743    4.3180743    4.3180743    5937.6071   -1651.0043    26702.729    -7238.904    1762.1793    -16167.73    1804.7688      80.5138 
   12100    1119.9178   -115.24175    1.0133252   -114.22842    17108.881    4.3071385    4.3071385    4.3071385    17108.881    19012.959    33549.254   -1235.5686   -9439.7518    4039.0714    715.55344    79.903633 
   12200     525.7193   -114.71509   0.47568187   -114.23941   -14696.333     4.332828     4.332828     4.332828   -14696.333    20296.545   -13917.742   -50467.803    9884.9743   -9732.7395   -6501.6395    81.341905 
   12300    638.60649   -114.81587   0.57782457   -114.23805   -3582.8155    4.3170211    4.3170211    4.3170211   -3582.8155   -28993.383    27117.277   -8872.3408   -13604.344   -23143.372   -6985.3707    80.454902 
   12400     1171.813   -115.28945     1.060281   -114.22917    12069.342    4.3033922    4.3033922    4.3033922    12069.342     10783.96    24958.588    465.47782    7280.7638    5232.9446    7011.0831    79.695312 
   12500    741.92223   -114.90956   0.67130683   -114.23825   -15102.246    4.3330347    4.3330347    4.3330347   -15102.246    1855.8751    -11426.05   -35736.562   -4766.5117    289.59552   -13409.688     81.35355 
   12600    543.55776   -114.73068   0.49182248   -114.23886    3105.6313    4.3179843    4.3179843    4.3179843    3105.6313   -4008.2033     29573.45   -16248.353   -5931.5779   -21923.454   -772.95647    80.508767 
   12700    955.39706    -115.0955   0.86446334   -114.23104    11738.836    4.3089009    4.3089009    4.3089009    11738.836   -630.14247    42392.168   -6545.5188    8069.4141    1054.2402   -5194.7909    80.001757 
   12800    962.86875   -115.10329   0.87122388   -114.23207   -1685.8992    4.3247664    4.3247664    4.3247664   -1685.8992   -2660.7435    14039.064   -16436.018   -6424.5237    12058.842   -6651.2392    80.888722 
   12900    725.91054   -114.89136   0.65681911   -114.23454    6969.1441    4.3204709    4.3204709    4.3204709    6969.1441   -2347.4325    33878.643   -10623.778    4290.0817   -14177.331   -4618.6929    80.647936 
   13000    684.66253   -114.85417   0.61949704   -114.23467    8582.3858    4.3190412    4.3190412    4.3190412    8582.3858    8379.5505    40885.396   -23517.789   -4645.0313   -7224.9905   -895.19865    80.567898 
   13100    913.08987   -115.05807   0.82618291   -114.23189    4571.6863    4.3174362    4.3174362    4.3174362    4571.6863   -11392.192    27710.011   -2602.7605    1468.7154     20469.58    8333.3852    80.478111 
   13200    929.89166   -115.07617   0.84138551   -114.23479   -2923.0059    4.3210155    4.3210155    4.3210155   -2923.0059   -10671.552    19087.188   -17184.654    79.396854     -3759.43   -8239.7125    80.678435 
   13300    629.58689   -114.81202   0.56966345   -114.24236   -9106.0707    4.3204998    4.3204998    4.3204998   -9106.0707    1017.8086    141.16303   -28477.184   -9430.4547   -11742.296    5525.5648    80.649555 
   13400    647.56083   -114.82751   0.58592664   -114.24158    12838.458     4.307269     4.307269     4.307269    12838.458    16209.591    28828.654   -6522.8714   -2254.7185    26123.917    7614.1384    79.910891 
   13500    1041.1495    -115.1804   0.94205392   -114.23835   -18649.833    4.3325782    4.3325782    4.3325782   -18649.833   -25901.155    -359.5285   -29688.815    5636.1022    6781.3825   -3327.6274     81.32784 
   13600    911.12895   -115.06202   0.82440862   -114.23761   -4988.0912    4.3180289    4.3180289    4.3180289   -4988.0912    11150.061   -9483.9939   -16630.341    4309.4847   -16808.479    -1926.472    80.511263 
   13700    480.42658   -114.67295   0.43470007   -114.23825    17833.014    4.2997353    4.2997353    4.2997353    17833.014    20471.759    39243.712   -6216.4291   -6446.8731    22573.293    3602.6042    79.492318 
   13800    789.08248   -114.95479   0.71397841   -114.24081   -22801.577    4.3381069    4.3381069    4.3381069   -22801.577   -18349.231    3243.7168   -53299.217    3000.5755    27939.097   -1610.8845    81.639579 
   13900     1263.639   -115.37548    1.1433671   -114.23211    10685.893    4.3136201    4.3136201    4.3136201    10685.893    18633.791    5528.8321     7895.054   -3891.2038   -5718.2922    3058.0943    80.264903 
   14000    785.41699   -114.94951    0.7106618   -114.23885    5999.1307    4.3023082    4.3023082    4.3023082    5999.1307    14640.664    22267.405   -18910.676   -1953.1991    11868.826    3614.1501    79.635105 
   14100    360.38233   -114.57014    0.3260815   -114.24406   -28446.627    4.3352263    4.3352263    4.3352263   -28446.627   -42081.247    17086.043   -60344.676    707.65199     32191.11   -1149.0724    81.477056 
   14200    1084.6439   -115.21422    0.9814086   -114.23281      14787.3    4.3094259    4.3094259    4.3094259      14787.3    38034.201    5471.6423    856.05507   -3757.0503   -4677.1037    1569.8423       80.031 
   14300     1147.698   -115.27395    1.0384612   -114.23549    3791.3929    4.3131124    4.3131124    4.3131124    3791.3929    10851.475    15229.455   -14706.751    7073.3941    12841.589    -2449.085    80.236563 
   14400    482.49511    -114.6791   0.43657171   -114.24252   -9358.1813    4.3264479    4.3264479    4.3264479   -9358.1813   -22179.049    29991.313   -35886.807   -4984.2917    34690.862    1827.1205     80.98311 
   14500    853.28521   -115.00616   0.77207039   -114.23409    1405.8021    4.3118445    4.3118445    4.3118445    1405.8021    24467.749    4880.7985   -25131.141   -361.66593   -5752.8598   -7653.3135    80.165829 
   14600    969.46324   -115.11362   0.87719071   -114.23643   -5444.1059    4.3228116    4.3228116    4.3228116   -5444.1059    544.97284   -9550.2189   -7327.0717    876.78784   -9498.8031   -3317.1301    80.779081 
   14700    981.10211   -115.12445    0.8877218   -114.23672    9159.3372    4.3124138    4.3124138    4.3124138    9159.3372    13695.834    24045.186   -10263.008   -7500.3694    23679.434    5313.5368    80.197583 
   14800    747.62388   -114.92088    0.6764658   -114.24442   -8641.4439    4.3234011    4.3234011    4.3234011   -8641.4439   -4756.4978   -7024.3729   -14143.461   -743.58144    6837.1119   -6037.4933    80.812136 
   14900    614.81177   -114.79871   0.55629461   -114.24242   -20936.898    4.3256942    4.3256942    4.3256942   -20936.898   -8095.7063    -25972.58   -28742.409   -4743.9337   -21204.359   -9480.2813    80.940793 
   15000    1108.7913   -115.23117    1.0032577   -114.22791     16856.51    4.2974012    4.2974012    4.2974012     16856.51    21926.333    23066.682    5576.5152    9713.7145    5344.8132    1331.1522    79.362929 
   15100    905.51176   -115.06046   0.81932607   -114.24114   -7292.9215    4.3327658    4.3327658    4.3327658   -7292.9215   -8489.9103   -8597.5061   -4791.3482   -1776.8079    7030.8956   -1567.3844    81.338404 
   15200    448.54789   -114.65142   0.40585556   -114.24557   -5889.9203    4.3240613    4.3240613    4.3240613   -5889.9203    4733.5657    10975.231   -33378.558   -9530.9709   -9528.2235   -14390.182    80.849162 
   15300    727.95947   -114.88827   0.65867302   -114.22959    29559.151    4.2971117    4.2971117    4.2971117    29559.151    40068.847     46830.85    1777.7562     8203.544    -9304.204    1146.7347    79.346895 
   15400    1055.2173   -115.18369   0.95478277    -114.2289   -10647.515    4.3391618    4.3391618    4.3391618   -10647.515   -18138.658   -3221.0394   -10582.849   -3339.7212    4468.2925    4106.9237    81.699148 
   15500    852.83887   -115.00722   0.77166653   -114.23555   -6211.2957      4.31824      4.31824      4.31824   -6211.2957    4210.9859   -584.05694   -22260.816   -5937.1591   -5825.5822   -12055.394    80.523069 
   15600    466.21233   -114.65813   0.42183871   -114.23629    16523.821    4.2980132    4.2980132    4.2980132    16523.821    21789.655    26862.989    918.81934    409.28117   -18779.868   -3536.7409    79.396841 
   15700    1084.6292   -115.21858   0.98139527   -114.23718   -20662.507    4.3326778    4.3326778    4.3326778   -20662.507   -22707.407   -16256.674   -23023.438   -178.25394    1794.3825    16649.829     81.33345 
   15800    953.47225   -115.09105   0.86272173   -114.22833   -9019.9607    4.3299947    4.3299947    4.3299947   -9019.9607   -13728.436    3990.6295   -17322.076   -3329.5839    1830.2117   -12452.777    81.182438 
   15900    611.38119   -114.78184   0.55319055   -114.22865    7006.2136    4.3030247    4.3030247    4.3030247    7006.2136     2636.361    19747.961   -1365.6817   -768.77099   -18879.154   -14714.923    79.674901 
   16000    771.59127   -114.93616     0.698152   -114.23801    6319.9023    4.3172204    4.3172204    4.3172204    6319.9023    998.55128    32655.595   -14694.439   -2829.8315   -8256.9751    14494.026    80.466047 
   16100    1034.5221   -115.16787   0.93605731   -114.23181   -9085.0454     4.332978     4.332978     4.332978   -9085.0454   -25263.106    21514.368   -23506.398    1460.2157    7964.4579    2269.9538    81.350353 
   16200    909.89741   -115.05488    0.8232943   -114.23159    3995.9594    4.3086593    4.3086593    4.3086593    3995.9594    4627.8243     6536.689    823.36496   -4384.7367   -11991.848   -15772.068    79.988302 
   16300    664.43912   -114.83825   0.60119848   -114.23705    7569.5025    4.3136714    4.3136714    4.3136714    7569.5025   -3847.7246    44717.514   -18161.282    996.35192   -13636.156    636.38508    80.267767 
   16400     1062.208    -115.1943   0.96110814   -114.23319   -20796.229    4.3303918    4.3303918    4.3303918   -20796.229   -20360.195   -8434.2054   -33594.286    7570.7253    11868.457    11519.323    81.204774 
   16500    789.97404   -114.95056   0.71478511   -114.23578    12699.402    4.3139199    4.3139199    4.3139199    12699.402   -8477.4201    50592.581   -4016.9541   -10382.437    287.30559   -571.19037    80.281642 
   16600    918.05373   -115.06915   0.83067431   -114.23847    -10573.89    4.3205208    4.3205208    4.3205208    -10573.89    -17581.13    13875.828   -28016.368   -226.53466   -17628.747   -8619.0383    80.650727 
   16700    684.10978   -114.85523    0.6189969   -114.23624   -4691.5562    4.3270705    4.3270705    4.3270705   -4691.5562   -17126.535    36681.256    -33629.39    -2501.607    9862.3527    7091.0682    81.018073 
   16800    1011.4359   -115.14531   0.91516848   -114.23014   -3153.2686     4.316196     4.316196     4.316196   -3153.2686   -1656.7417    5818.7718   -13621.836   -11522.437    9859.0726    11027.796     80.40878 
   16900    1000.6184   -115.14067   0.90538055   -114.23529    5613.0001    4.3168037    4.3168037    4.3168037    5613.0001   -8939.6574    34428.298   -8649.6409     -5202.15   -15223.151     -452.446    80.442748 
   17000    845.52177   -115.00547   0.76504587   -114.24042    14754.403    4.3133682    4.3133682    4.3133682    14754.403    19006.272    47900.045   -22643.109    7237.0747     5938.351    -1162.225    80.250841 
   17100    666.23637   -114.84806   0.60282467   -114.24524    1111.2386    4.3230634    4.3230634    4.3230634    1111.2386    1319.3953    32146.362   -30132.042   -2753.5267    19057.691     5667.457      80.7932 
   17200    870.77378   -115.02505   0.78789441   -114.23716    5120.3324    4.3210613    4.3210613    4.3210613    5120.3324   -2135.1302    30947.744   -13451.616   -6362.2417   -7132.6171     7612.807    80.681002 
   17300    1165.6129   -115.28594     1.054671   -114.23127    8749.6431    4.3082686    4.3082686    4.3082686    8749.6431    7615.6896    22566.226   -3932.9862    4760.0486    2717.0326   -3653.3722    79.966543 
   17400    569.22949   -114.75884    0.5150508   -114.24379   -9812.6764     4.328191     4.328191     4.328191   -9812.6764   -26348.838    34933.976   -38023.167   -2714.6106    19584.214    8157.0988    81.081029 
   17500    789.71768   -114.95288   0.71455316   -114.23832   -11031.567    4.3193936    4.3193936    4.3193936   -11031.567    14883.182   -16228.599   -31749.284   -4011.7811   -915.07372    11782.648    80.587621 
   17600    908.11271   -115.05291   0.82167947   -114.23123    19499.155    4.3045904    4.3045904    4.3045904    19499.155    3835.0363    45899.203    8763.2256   -8277.1306   -376.07919   -3170.9972    79.761902 
   17700    1042.4782   -115.17898   0.94325617   -114.23572   -24933.975    4.3312451    4.3312451    4.3312451   -24933.975   -34699.286   -878.91704   -39223.722   -1108.4809     18922.02    9249.8921     81.25279 
   17800    664.97223   -114.84117   0.60168085   -114.23949   -2737.8199    4.3182329    4.3182329    4.3182329   -2737.8199    2719.5905    14578.238   -25511.288    2706.5056    3556.1325    18779.823    80.522675 
   17900    789.65458   -114.94976   0.71449606   -114.23526     10743.76     4.301712     4.301712     4.301712     10743.76    23893.676    6986.2465    1351.3574   -17756.072   -3269.3031   -1346.0617    79.602004 
   18000    902.92693    -115.0553   0.81698726   -114.23831   -14106.886    4.3286759    4.3286759    4.3286759   -14106.886   -33055.406    24536.705   -33801.958    4241.2947    15979.702   -13334.781    81.108283 
   18100     880.6943   -115.03039   0.79687071   -114.23352    9984.9962    4.3172818    4.3172818    4.3172818    9984.9962    13392.022    35762.249   -19199.283    10791.199     7579.279    7527.0643    80.469477 
   18200    891.87515   -115.04239   0.80698738   -114.23541    5549.1867    4.3064138    4.3064138    4.3064138    5549.1867    19829.728    3307.7377   -6489.9058    -9066.817   -7258.9159    11624.946    79.863306 
   18300    613.70999   -114.79817    0.5552977   -114.24287   -3821.8162    4.3232764    4.3232764    4.3232764   -3821.8162   -4250.2835    17048.053   -24263.218    538.57078     11886.36   -10564.417    80.805145 
   18400    917.79674   -115.06595   0.83044177   -114.23551   -13326.164    4.3249803    4.3249803    4.3249803   -13326.164   -4429.3518   -1595.8218   -33953.319   -600.36809    13194.927   -4196.4475    80.900725 
   18500    800.43028   -114.95581   0.72424614   -114.23156    11303.804    4.3089964    4.3089964    4.3089964    11303.804    23043.305    17748.302    -6880.194    5198.9553    -4196.448    17665.826    80.007077 
   18600    798.85641    -114.9604   0.72282207   -114.23758   -11386.466    4.3201581    4.3201581    4.3201581   -11386.466   -3383.6719   -8947.4656    -21828.26   -15358.349    7194.6862    64.835886    80.630419 
   18700    539.34646   -114.72493   0.48801201   -114.23692   -20552.629    4.3310784    4.3310784    4.3310784   -20552.629   -24060.151   -7218.7288   -30379.008     1733.165    18626.645   -8339.6225    81.243407 
   18800    915.72477   -115.05508   0.82856702   -114.22651    7504.6994    4.3018058    4.3018058    4.3018058    7504.6994    6040.0986    6181.4921    10292.508    20462.861     4386.291    13561.172    79.607207 
   18900    847.28186   -115.00343   0.76663843   -114.23679   -1029.6522    4.3204907    4.3204907    4.3204907   -1029.6522     11457.12   -10434.381   -4111.6956   -16132.861    2360.6938    3853.5546    80.649041 
   19000     639.2966   -114.81375   0.57844899    -114.2353   -33595.461    4.3351948    4.3351948    4.3351948   -33595.461   -44151.299   -22993.956    -33641.13    5607.9393    18881.987      -6804.2    81.475276 
   19100    660.46417   -114.82304   0.59760186   -114.22543     21080.58    4.2938129    4.2938129    4.2938129     21080.58   -710.28356    14364.763    49587.261    26136.308    9173.6715    324.43327    79.164295 
   19200    977.04835    -115.1194   0.88405388   -114.23535    -2674.888    4.3210735    4.3210735    4.3210735    -2674.888    -4976.423   -785.79697   -2262.4442   -7909.9361   -1551.2997    1856.3341    80.681683 
   19300    687.02424   -114.85553   0.62163397   -114.23389    -9584.849    4.3306857    4.3306857    4.3306857    -9584.849   -13240.308    1684.8518   -17199.091   -8748.2154    2921.6034   -5671.5244    81.221313 
   19400    612.92806   -114.78228   0.55459019   -114.22769     20169.65    4.2980113    4.2980113    4.2980113     20169.65   -3545.3982    27607.759    36446.589    22242.678     15097.62    -7021.675    79.396736 
   19500    830.82471   -114.98863   0.75174766   -114.23688   -3843.3587    4.3236878    4.3236878    4.3236878   -3843.3587   -47.412963   -1038.0397   -10444.623    15609.986   -1219.2826    379.18068    80.828216 
   19600    1012.5913   -115.14756    0.9162139   -114.23135    7635.7694    4.3184125    4.3184125    4.3184125    7635.7694    688.87568    15351.271    6867.1612   -19464.758   -6662.6896     776.5666    80.532721 
   19700    568.13768   -114.75128   0.51406292   -114.23722    4954.1865    4.3093121    4.3093121    4.3093121    4954.1865    12681.165   -6769.2227    8950.6174    10963.323    10274.174     -8876.83     80.02466 
   19800    684.27682   -114.85589   0.61914805   -114.23674   -15129.657    4.3240348    4.3240348    4.3240348   -15129.657   -19001.306   -15689.042   -10698.625    23941.321    9914.3766   -8254.1341    80.847677 
   19900    1217.8389    -115.3277    1.1019262   -114.22577    7626.1734    4.3106912    4.3106912    4.3106912    7626.1734    6246.1771    7267.4357    9364.9074   -8015.9419   -8058.7787     4089.633    80.101519 
   20000    733.68573   -114.90077   0.66385427   -114.23692   -6363.7033    4.3183178    4.3183178    4.3183178   -6363.7033    3095.7954   -9717.3981   -12469.507    977.90205    3862.5882    2695.0597    80.527424 
   20100    567.26099   -114.75555   0.51326967   -114.24228   -14925.734    4.3164378    4.3164378    4.3164378   -14925.734    -22555.26   -4505.9304   -17716.011    25279.868    20413.668   -5220.0486    80.422296 
   20200    847.28277   -115.00556   0.76663925   -114.23892    21807.864    4.3106646    4.3106646    4.3106646    21807.864    20801.812    51516.446   -6894.6655     3028.465   -1056.6232     -2958.61    80.100033 
   20300    1210.4674   -115.33092    1.0952563   -114.23566   -10019.749    4.3213231    4.3213231    4.3213231   -10019.749   -16640.522    7225.0243   -20643.751   -4615.4458   -4419.0441    2536.6455    80.695666 
   20400     373.2389   -114.58014    0.3377144   -114.24243    16422.788    4.3092772    4.3092772    4.3092772    16422.788    2276.0013    49930.545   -2938.1814    17633.873    21796.089   -594.12403    80.022717 
   20500    802.89791   -114.96609    0.7264789   -114.23962   -8958.7466     4.319172     4.319172     4.319172   -8958.7466   -7761.7815   -5183.8614   -13930.597    4878.0154    7697.7525   -5832.8491     80.57522 
   20600    1140.0232   -115.25831     1.031517    -114.2268   -7462.0461     4.321159     4.321159     4.321159   -7462.0461   -4206.5144    3918.0366   -22097.661   -4986.3417   -9050.2152    4425.4604    80.686477 
   20700    669.69821   -114.83642   0.60595701   -114.23047   -5276.3328    4.3140875    4.3140875    4.3140875   -5276.3328    -21212.35    24593.441    -19210.09    9389.9522     21093.85   -595.06568    80.290998 
   20800    609.38784   -114.78406   0.55138693   -114.23267   -16412.142    4.3201196    4.3201196    4.3201196   -16412.142    -11715.83   -14283.899   -23236.697    23829.409    13749.654   -11765.557    80.628263 
   20900    1122.5701   -115.24363     1.015725   -114.22791    15.668986    4.3093559    4.3093559    4.3093559    15.668986    6787.7001    11115.986    -17856.68   -2490.0741   -13452.097     -1162.56    80.027104 
   21000     582.2683   -114.76509   0.52684859   -114.23824    3989.6885    4.3198527    4.3198527    4.3198527    3989.6885   -16413.046    55543.104   -27160.993   -1385.1151     16983.64   -628.62746    80.613324 
   21100    578.91879   -114.76302   0.52381788    -114.2392   -14795.313    4.3210117    4.3210117    4.3210117   -14795.313   -26335.371    950.79153    -19001.36    24306.644    19528.171   -6255.9308    80.678225 
   21200    979.56362   -115.11648   0.88632975   -114.23015    14718.298    4.3058896    4.3058896    4.3058896    14718.298     21341.87    21924.287    888.73836    4481.5272   -4785.9738   -1199.7202    79.834145 
   21300     814.4434   -114.97163   0.73692551    -114.2347   -6074.1692    4.3248109    4.3248109    4.3248109   -6074.1692   -6954.3549    257.56636   -11525.719   -1277.7347    12004.676   -454.33234    80.891215 
   21400    514.45997   -114.70342   0.46549419   -114.23793   -10467.446    4.3180334    4.3180334    4.3180334   -10467.446   -8126.5385   -14436.493   -8839.3056    22998.248    15971.362    1240.5494    80.511515 
   21500    855.99726   -115.00705   0.77452431   -114.23253    10458.028    4.3062758    4.3062758    4.3062758    10458.028    4928.7119   -11828.348    38273.721     13988.57    780.58739   -5574.5291    79.855628 
   21600    1060.7756   -115.19254   0.95981206   -114.23272   -7415.0741    4.3239062    4.3239062    4.3239062   -7415.0741    6345.9941   -22889.085   -5702.1317   -9774.3417   -72.852075   -2725.1482    80.840462 
   21700    639.25414   -114.81923   0.57841058   -114.24082   -5196.2512     4.313495     4.313495     4.313495   -5196.2512   -13828.583    -4739.451    2979.2802     12292.72    16377.278    2412.6511    80.257919 
   21800    563.03605   -114.75077   0.50944685   -114.24132    5108.7576    4.3106837    4.3106837    4.3106837    5108.7576   -9512.6284   -13461.416    38300.318    27904.207    14226.339   -823.86683    80.101101 
   21900    1125.5687   -115.24961    1.0184383   -114.23117   -10904.958    4.3246466    4.3246466    4.3246466   -10904.958    5542.2975   -24589.756   -13667.416   -14801.524   -9206.9814    169.95434       80.882 
   22000     819.5156   -114.97518   0.74151494   -114.23367    2535.6097    4.3100128    4.3100128    4.3100128    2535.6097   -7789.5979   -7095.5832     22492.01   -974.13841    2555.3045    2602.0713    80.063707 
   22100    564.89339   -114.75018   0.51112741   -114.23905    2098.1071    4.3129759    4.3129759    4.3129759    2098.1071    1503.5021   -1967.8136    6758.6327    31279.933    15951.986    4108.9584    80.228945 
   22200    1071.2337   -115.20214    0.9692748   -114.23286   -15728.225    4.3236556    4.3236556    4.3236556   -15728.225   -7078.9606   -21549.435   -18556.281   -10716.845    65.234487    660.06915    80.826407 
   22300    903.04226   -115.04841   0.81709162   -114.23132    4362.1476    4.3116473    4.3116473    4.3116473    4362.1476    10857.093    -11417.89     13647.24   -14252.116   -1749.0109   -4785.3481    80.154829 
   22400    691.60045   -114.86331   0.62577463   -114.23754   -13087.633    4.3153544    4.3153544    4.3153544   -13087.633    -8203.504   -22640.682   -8418.7138    24984.846    8263.3114    2121.9867    80.361754 
   22500     798.3077   -114.95759   0.72232558   -114.23526   -4482.6419     4.317033     4.317033     4.317033   -4482.6419    9239.5573   -6732.5997   -15954.883    7146.3372    13479.962    12480.313     80.45557 
   22600    995.59765   -115.13236   0.90083768   -114.23152   -2505.9522     4.312545     4.312545     4.312545   -2505.9522    6246.8999   -11769.103   -1995.6531   -17926.602   -3241.6574    556.43634    80.204906 
   22700    798.71461   -114.95845   0.72269377   -114.23576   -16176.187    4.3175949    4.3175949    4.3175949   -16176.187    -25552.13    -19235.53   -3740.9024    3925.3638    9671.3066   -4850.8469    80.486989 
   22800    622.33095   -114.80114   0.56309812   -114.23805    66.944614    4.3172609    4.3172609    4.3172609    66.944614    9968.0143    5981.5188   -15748.699    21131.515    18695.259    5025.8212    80.468308 
   22900    938.33601   -115.08348   0.84902614   -114.23446   -4893.3745    4.3154824    4.3154824    4.3154824   -4893.3745   -8702.5794     7019.757   -12997.301   -19403.784   -3642.8151    7377.8543    80.368903 
   23000    810.89094   -114.96898   0.73371116   -114.23527     5382.787    4.3109927    4.3109927    4.3109927     5382.787   -7391.7417    10574.105    12965.998   -15001.395    2167.1382   -3755.2323    80.118323 
   23100    626.82262    -114.8067   0.56716228   -114.23954   -189.11909    4.3196574    4.3196574    4.3196574   -189.11909    -20774.52    25744.723   -5537.5601    23081.011    13400.807    -4415.975    80.602389 
   23200    730.16896   -114.89299   0.66067222   -114.23232   -2953.4438    4.3227484    4.3227484    4.3227484   -2953.4438    5272.3274   -5094.1153   -9038.5434   -3042.9107    4363.5063    9158.5275    80.775539 
   23300    928.46072   -115.06671   0.84009077   -114.22662    14333.932    4.3039036    4.3039036    4.3039036    14333.932    3063.3086    10471.277    29467.209    -12705.81   -8060.0428    -476.0033    79.723727 
   23400    703.05427   -114.87328   0.63613828   -114.23714   -6582.7117    4.3200969    4.3200969    4.3200969   -6582.7117   -26649.952   -3843.7782    10745.595    10512.028    6480.5239   -7377.4719    80.626994 
   23500    763.54364   -114.92413   0.69087033   -114.23326   -16692.525    4.3240589    4.3240589    4.3240589   -16692.525   -28232.345   -24962.323    3117.0918    17392.229    13036.016     9971.294    80.849029 
   23600    759.99244   -114.91789   0.68765713   -114.23023    23096.461     4.306752     4.306752     4.306752    23096.461    38820.264   -892.16071     31361.28   -8463.4427   -2992.9393    14462.238     79.88212 
   23700    996.31468   -115.13171   0.90148646   -114.23023   -8421.4542    4.3202269    4.3202269    4.3202269   -8421.4542   -20168.511   -6199.1162    1103.2646   -3194.9143    6065.7258   -2571.0901    80.634273 
   23800    532.49124   -114.71591   0.48180927    -114.2341   -494.29134    4.3229778    4.3229778    4.3229778   -494.29134    2550.0055   -2674.4065   -1358.4731    18327.551    13353.434    3894.9476    80.788401 
   23900    773.90995   -114.93246   0.70024999   -114.23221    6075.1517    4.3138778    4.3138778    4.3138778    6075.1517    26975.362    3497.5204   -12247.427   -9340.2666   -1312.1538    25572.951    80.279287 
   24000    869.35416   -115.01879   0.78660992   -114.23218    20222.588     4.312365     4.312365     4.312365    20222.588    36171.587    24181.493    314.68257   -13930.826     381.3038    1909.7999    80.194859 
   24100     642.8871   -114.82105   0.58169776   -114.23936    1172.1981    4.3248849    4.3248849    4.3248849    1172.1981    6917.6265    12425.389   -15826.421    6000.0048    9273.1375   -7914.6494    80.895368 
   24200    559.16038   -114.74251   0.50594007   -114.23657    -7397.005     4.323146     4.323146     4.323146    -7397.005   -3064.4484    1767.8114   -20894.378    6743.0023    3209.2621    23889.351    80.797834 
   24300    1003.7438   -115.13494   0.90820853   -114.22673    17557.119    4.3088363    4.3088363    4.3088363    17557.119     37206.71    24559.883   -9095.2368   -5746.2285   -4998.3334    10801.332    79.998156 
   24400    979.24949   -115.11709   0.88604551   -114.23105   -8497.8592    4.3232211    4.3232211    4.3232211   -8497.8592    -18736.71   -5942.1974   -814.67046    996.39654    12243.642   -14160.752    80.802044 
   24500    605.30945   -114.78243   0.54769671   -114.23473    -12935.67    4.3191768    4.3191768    4.3191768    -12935.67    -9449.142   -14542.717   -14815.152    21081.994    9271.7107    12498.386    80.575491 
   24600    940.24107   -115.08218   0.85074988   -114.23143     3462.982    4.3111009    4.3111009    4.3111009     3462.982    15439.973     5298.118   -10349.145    2341.5682    1319.6167    20025.968    80.124358 
   24700    1214.7977   -115.32536    1.0991744   -114.22618   -9430.7661    4.3237381    4.3237381    4.3237381   -9430.7661   -7113.4938   -5856.7118   -15322.093   -1267.5779    1845.4822   -8728.9788    80.831034 
   24800    763.71926   -114.92502   0.69102924   -114.23399   -2896.3868    4.3111956    4.3111956    4.3111956   -2896.3868   -11417.362    11367.193   -8638.9918    13627.963    7464.4525    2835.5666    80.129638 
   24900    639.51162   -114.81751   0.57864355   -114.23887    164.31225    4.3133633    4.3133633    4.3133633    164.31225     18620.67    1837.2854   -19965.018    12642.374    60.467643    24910.885     80.25057 
   25000    1140.4568   -115.26214    1.0319093   -114.23023   -10619.493    4.3233741    4.3233741    4.3233741   -10619.493   -17172.221   -3333.4247   -11352.834    1519.0528   -1098.9257     7341.451    80.810625 
   25100    888.07283   -115.03517   0.80354696   -114.23162     9286.599    4.3079806    4.3079806    4.3079806     9286.599   -8470.8525    41910.728   -5580.0787   -3575.5744     16621.52   -10643.117    79.950505 
   25200    609.09262   -114.78856    0.5511198   -114.23744   -14580.652     4.317168     4.317168     4.317168   -14580.652   -433.98394   -21310.438   -21997.535    9166.4765     3821.314    28658.108    80.463115 
   25300    807.63097   -114.96445   0.73076148   -114.23369    -5115.602    4.3177223    4.3177223    4.3177223    -5115.602    5756.1324   -16362.422   -4740.5163    5270.2355   -3080.6896    13669.965    80.494116 
   25400    930.61999   -115.07339   0.84204452   -114.23134    5131.5432    4.3105092    4.3105092    4.3105092    5131.5432   -17772.013    27537.153    5629.4902    -14677.55    15765.611   -11573.871     80.09137 
   25500    707.36492   -114.87518   0.64003864   -114.23514   -10753.765    4.3173256    4.3173256    4.3173256   -10753.765    3923.0628   -9926.7211   -26257.638     3353.222    7965.7538    24862.511    80.471927 
   25600    748.69728   -114.91303   0.67743704   -114.23559   -354.64611    4.3114398    4.3114398    4.3114398   -354.64611     7776.304   -15511.636    6671.3936     5954.043    -279.6922     20439.05    80.143255 
   25700      869.011   -115.02145   0.78629942   -114.23515    737.64589     4.314764     4.314764     4.314764    737.64589   -12035.191    17265.033   -3016.9037   -14254.375    5321.2789   -4043.0807    80.328776 
   25800    686.18733   -114.85844   0.62087671   -114.23756    1986.1397     4.315626     4.315626     4.315626    1986.1397    -1532.593   -2209.8705    9700.8826   -5768.9145    8689.8147    4739.4951    80.376929 
   25900    825.02835   -114.98168   0.74650299   -114.23517    3543.5087    4.3121801    4.3121801    4.3121801    3543.5087    11861.253     94.06844   -1324.7956    7991.9157   -472.53574    18958.248    80.184547 
   26000    828.57991   -114.98239   0.74971652   -114.23267   -6797.0454      4.32203      4.32203      4.32203   -6797.0454   -18734.347    8328.4667   -9985.2559   -1908.6938   -1344.4334    3627.8636    80.735276 
   26100    718.42431    -114.8851   0.65004542   -114.23505    9729.4267    4.3051636    4.3051636    4.3051636    9729.4267    3988.5131    13686.556     11513.21   -14265.999    7129.7719   -8165.6124    79.793768 
   26200    614.15866   -114.79711   0.55570366    -114.2414    7295.7931    4.3112472    4.3112472    4.3112472    7295.7931   -2360.2748    22235.266     2012.388   -2317.5955    4134.7375    22509.361    80.132516 
   26300    848.88201   -115.00068   0.76808628    -114.2326   -12834.587    4.3285182    4.3285182    4.3285182   -12834.587   -9525.8547   -5856.6339   -23121.273     7120.863   -3440.5235    14233.824     81.09942 
   26400    939.99158    -115.0815   0.85052414   -114.23097    7200.9499    4.3029601    4.3029601    4.3029601    7200.9499    -5156.007    6474.4401    20284.417   -14261.828     8299.088   -12660.584     79.67131 
   26500    491.05426   -114.68714   0.44431621   -114.24283    3306.6179    4.3115313    4.3115313    4.3115313    3306.6179   -5071.6216    22646.454   -7654.9788   -12474.227    4661.8348    17156.705    80.148356 
   26600    784.21029   -114.94473   0.70956995   -114.23516   -16926.112    4.3275152    4.3275152    4.3275152   -16926.112    -8791.453   -23588.553   -18398.329    608.27909   -2834.3804     23231.01    81.043056 
   26700    1073.2243   -115.19786   0.97107593   -114.22678    15955.007    4.3036301    4.3036301    4.3036301    15955.007    3320.6192    17518.434    27025.967   -5134.7843   -291.75565   -13953.281    79.708533 
   26800    634.71705   -114.81215   0.57430533   -114.23784   -1343.8732    4.3156278    4.3156278    4.3156278   -1343.8732   -15217.122    9199.1987    1986.3037   -12668.267    5594.9962     4738.481    80.377028 
   26900    577.91746   -114.75789   0.52291186   -114.23498   -11471.475    4.3257336    4.3257336    4.3257336   -11471.475   -5220.9258   -18307.567   -10885.934   -4524.6377    3005.1867    28440.556    80.943003 
   27000    1053.7326   -115.18036    0.9534394   -114.22692    17639.491    4.3057261    4.3057261    4.3057261    17639.491     14680.33    11922.238    26315.905    6765.2452   -1803.5509   -2423.6311    79.825049 
   27100    813.47487   -114.97092   0.73604915   -114.23487    3664.7378    4.3142538    4.3142538    4.3142538    3664.7378   -1531.1268    5978.5614     6546.779   -8817.0812    3612.7221   -12437.235     80.30028 
   27200    485.42829   -114.68048   0.43922572   -114.24125   -9261.8417     4.320946     4.320946     4.320946   -9261.8417    571.04864   -21234.469   -7122.1045   -5543.4253    5868.9275    26145.691    80.674543 
   27300    727.61946   -114.89359   0.65836538   -114.23522    6781.5991     4.316456     4.316456     4.316456    6781.5991     26733.47    6578.2492   -12966.922    9892.7596     19.84207    13310.098    80.423311 
   27400     921.6011   -115.06436   0.83388404   -114.23047    6350.8044    4.3157326    4.3157326    4.3157326    6350.8044    17283.916     1116.821    651.67595    3716.7496   -2442.7065   -21073.231    80.382886 
   27500    627.52008   -114.80424   0.56779336   -114.23645    -1386.922    4.3145953    4.3145953    4.3145953    -1386.922    31253.822   -15202.002   -20212.586    -6442.755    3180.4902    18330.301    80.319353 
   27600    580.57624   -114.76417   0.52531758   -114.23885   -5158.3633    4.3220992    4.3220992    4.3220992   -5158.3633    17546.234   -6282.2394   -26739.084   -938.54378    3593.9238    21522.257    80.739155 
   27700    984.16539   -115.12296   0.89049352   -114.23247    -1437.996    4.3155747    4.3155747    4.3155747    -1437.996    2024.8185    2178.6507   -8517.4571    13292.733   -14540.057   -16332.474    80.374061 
   27800    858.47006   -115.00906   0.77676175    -114.2323    7495.4321    4.3078638    4.3078638    4.3078638    7495.4321    23392.576    7424.8484   -8331.1277   -7175.5698     -2337.92    13235.063    79.944002 
   27900    626.84831   -114.80451   0.56718552   -114.23732   -18915.195    4.3270565    4.3270565    4.3270565   -18915.195    -13778.61   -8781.0026   -34185.971   -5954.4514    4041.0729    27157.809    81.017288 
   28000    871.28572   -115.02016   0.78835763    -114.2318   -5174.8458    4.3166909    4.3166909    4.3166909   -5174.8458   -13823.265    1776.5758    -3477.848    6571.3386   -631.08453   -5950.6358    80.436444 
   28100    952.39075   -115.09021   0.86174317   -114.22847    7961.1961    4.3056056    4.3056056    4.3056056    7961.1961   -1541.0832    11059.461     14365.21    6692.9039   -4523.0676    1868.4968    79.818346 
   28200    823.01292    -114.9783   0.74467939   -114.23362   -14053.436    4.3253795    4.3253795    4.3253795   -14053.436   -7633.1561   -9413.2464   -25113.905   -7779.3715   -2991.3631    20967.537    80.923125 
   28300    852.50998   -115.00105   0.77136894   -114.22968   -6442.5778    4.3205559    4.3205559    4.3205559   -6442.5778   -24342.539   -4794.1833    9808.9885    8570.5609    9750.6724    1374.3403    80.652698 
   28400    836.76769    -114.9847   0.75712499   -114.22758    2823.8958    4.3090226    4.3090226    4.3090226    2823.8958    -19513.93   -6806.0482    34791.666    21191.687   -2088.8099    -1856.902    80.008536 
   28500    938.28155   -115.08159   0.84897687   -114.23262   -6155.1024    4.3167924    4.3167924    4.3167924   -6155.1024    3041.3983   -9365.8347   -12140.871   -5575.9067    -349.1504    19347.724    80.442117 
   28600    942.46289   -115.08475   0.85276023   -114.23199    -13995.72    4.3279599    4.3279599    4.3279599    -13995.72   -19713.002   -23780.866    1506.7087    7710.1591    9806.3095    13128.909    81.068042 
   28700    873.70306   -115.02213   0.79054489   -114.23158   -3783.7296      4.31391      4.31391      4.31391   -3783.7296   -19592.726   -3487.4084    11728.945    17474.624    8523.3721   -5558.8861    80.281085 
   28800    861.69302   -115.01103   0.77967795   -114.23135    7065.4747    4.3044283    4.3044283    4.3044283    7065.4747    7556.9038    4593.0305    9046.4896   -56.694919   -8901.3169    14828.483    79.752889 
   28900    833.60792   -114.98934   0.75426596   -114.23508   -15358.197    4.3320229    4.3320229    4.3320229   -15358.197   -12248.741   -25064.991   -8760.8605    333.33296   -6479.7952    16679.365     81.29657 
   29000    1009.3868   -115.14585   0.91331442   -114.23253    1552.4272    4.3124651    4.3124651    4.3124651    1552.4272   -11996.382    -3644.254    20297.918    11509.219    12934.824   -10294.287    80.200443 
   29100    685.19015   -114.85058   0.61997444    -114.2306    25393.136    4.2991185    4.2991185    4.2991185    25393.136    5994.6222    27848.347    42336.439    9404.1816   -3186.6051    3730.3017    79.458113 
   29200    645.06014    -114.8189   0.58366397   -114.23524   -21142.009    4.3313219    4.3313219    4.3313219   -21142.009   -15830.653   -18621.243    -28974.13   -8611.1591   -15332.223    18256.417    81.257109 
   29300    903.08388   -115.04792   0.81712927   -114.23079    10032.023    4.3084352    4.3084352    4.3084352    10032.023    7933.1458    4548.0776    17614.846     7640.215   -6642.2076    3583.0141    79.975819 
   29400    944.59834   -115.08699   0.85469242    -114.2323    12002.453    4.3057228    4.3057228    4.3057228    12002.453   -4240.1453    15372.604    24874.902    13667.086    5793.2336   -6732.7749    79.824868 
   29500    609.71755   -114.78904   0.55168525   -114.23735   -26837.008     4.326993     4.326993     4.326993   -26837.008   -13125.563   -21045.705   -46339.758   -5647.3309   -8980.5523    21629.035    81.013721 
   29600    766.93734   -114.92697   0.69394102   -114.23303    3697.4065    4.3078509    4.3078509    4.3078509    3697.4065     12150.21   -1597.6801    539.68991    3257.7328   -13395.328    21244.866    79.943283 
   29700    1022.8733   -115.15824   0.92551722   -114.23272   -4994.8321    4.3154124    4.3154124    4.3154124   -4994.8321   -15646.395   -11739.107    12401.006    13415.368    10964.437   -14217.732    80.364994 
   29800    734.53716   -114.90285   0.66462466   -114.23822    4263.3858    4.3090936    4.3090936    4.3090936    4263.3858    3022.8702    14383.151   -4615.8642    3924.9521   -5178.3532    10805.809    80.012492 
   29900    529.57102   -114.72392   0.47916699   -114.24475    7095.1821    4.3118055    4.3118055    4.3118055    7095.1821    217.81547     3583.937    17483.794   -4232.4493   -13232.306    23052.152    80.163649 
   30000    816.41197   -114.97393   0.73870671   -114.23522   -9398.1446    4.3251285    4.3251285    4.3251285   -9398.1446   -18971.775   -4992.8487   -4229.8101    4513.1715    2310.7615   -8127.2292     80.90904 
   30100    930.82205   -115.07151   0.84222736   -114.22929    13956.514    4.3007257    4.3007257    4.3007257    13956.514    9849.7326    14647.891    17371.919    15021.006    2999.0197   -3468.4148     79.54726 
   30200    550.70297   -114.73954   0.49828762   -114.24125   -7823.8846    4.3176499    4.3176499    4.3176499   -7823.8846   -4867.4299   -2932.1261   -15672.098   -3595.4031    -4197.241    21823.381    80.490065 
   30300    779.47169   -114.93999   0.70528237    -114.2347   -15416.241     4.320545     4.320545     4.320545   -15416.241   -9582.5473   -19183.955    -17482.22   -6004.0597   -10808.594    12639.224    80.652086 
   30400    964.55916   -115.10209   0.87275339   -114.22933    10991.818    4.3015661    4.3015661    4.3015661    10991.818     11891.94   -1532.1388    22615.652    5696.0623    4561.2279   -13837.264    79.593904 
   30500    720.29017   -114.88896   0.65173368   -114.23722   -11345.001    4.3205615    4.3205615    4.3205615   -11345.001   -2986.4496   -3202.1043   -27846.448    5090.0991    214.51412    5652.0238    80.653007 
   30600    720.44603   -114.88794   0.65187471   -114.23606     47.78727    4.3157072    4.3157072    4.3157072     47.78727   -1436.8328    22297.459   -20717.264   -9098.8169   -12371.512    18576.965    80.381465 
   30700    832.40026   -114.98626   0.75317325   -114.23308    18520.991    4.3052267    4.3052267    4.3052267    18520.991    6383.5545    22033.895    27145.523   -12076.774    414.08474   -8692.8945    79.797278 
   30800    825.75872   -114.98275   0.74716385   -114.23558    3721.1519    4.3190518    4.3190518    4.3190518    3721.1519   -5583.0346    28707.098   -11960.607    7726.9668    2066.3958   -15243.108    80.568494 
   30900    675.81901   -114.84619   0.61149524   -114.23469   -297.81055    4.3182286    4.3182286    4.3182286   -297.81055   -4080.8425    20122.212   -16934.801     -5403.63   -10353.752     4901.549    80.522435 
   31000    807.39442   -114.96146   0.73054744   -114.23091    6548.9658    4.3092434    4.3092434    4.3092434    6548.9658    639.93484    122.52734    18884.435   -26095.899   -1268.7872    6684.9354    80.020837 
   31100    888.34953   -115.03446   0.80379732   -114.23066   -7111.9291    4.3205946    4.3205946    4.3205946   -7111.9291   -15597.046    2004.1386   -7742.8796    927.78057    951.56607   -14188.295     80.65486 
   31200    742.37736   -114.90407   0.67171863   -114.23236   -3940.4739    4.3133601    4.3133601    4.3133601   -3940.4739   -1998.2096    4995.6649   -14818.877    8711.1211   -5222.3805    -5587.329    80.250391 
   31300    540.79647   -114.72702   0.48932401   -114.23769    6811.8781    4.3063082    4.3063082    4.3063082    6811.8781   -9220.9941    20137.705    9518.9234   -28935.395   -5469.7399    13259.712    79.857432 
   31400     752.6586   -114.91942   0.68102132    -114.2384   -15130.575    4.3267297    4.3267297    4.3267297   -15130.575   -34143.639   -3734.5111   -7513.5757   -18840.286    2003.6507    3994.5016    80.998934 
   31500    890.92471   -115.03986    0.8061274   -114.23373    7515.8266    4.3091161    4.3091161    4.3091161    7515.8266   -1414.8671    27788.653   -3826.3062    11505.484    934.41699   -9187.7703    80.013745 
   31600    525.69278   -114.71492   0.47565787   -114.23926    617.23202    4.3068055    4.3068055    4.3068055    617.23202   -23546.826    3364.0213      22034.5   -21051.035   -5591.9934    4538.9477    79.885102 
   31700    625.24639   -114.80287   0.56573607   -114.23714   -26360.768    4.3297598    4.3297598    4.3297598   -26360.768   -51607.082   -35634.683    8159.4593   -26231.413   -70.629044    11828.178     81.16923 
   31800    997.86909   -115.13227   0.90289292   -114.22938    15485.456    4.3039141    4.3039141    4.3039141    15485.456    6082.3582    31679.308    8694.7007     8988.672    152.76411   -9596.0619    79.724311 
   31900    775.10414   -114.93768   0.70133051   -114.23635    14968.171    4.3029285    4.3029285    4.3029285    14968.171   -17912.809    49397.681     13419.64   -14552.888   -3108.6894   -6066.7458    79.669554 
   32000    329.50883    -114.5406   0.29814651   -114.24245   -14256.179    4.3301949    4.3301949    4.3301949   -14256.179   -54916.498    12655.894   -507.93261   -30256.279   -1317.0125    2357.9784    81.193702 
   32100    814.66024   -114.97227   0.73712171   -114.23515     5836.218    4.3089553    4.3089553    4.3089553     5836.218   -11999.583    14746.539    14761.699     8141.394    4425.6431    3236.2903    80.004787 
   32200    996.83521   -115.13336   0.90195744    -114.2314    16022.733    4.3026395    4.3026395    4.3026395    16022.733   -6683.2935    29532.814    25218.678      5801.98   -4318.5843   -6580.5599    79.653502 
   32300    676.75844   -114.84888   0.61234526   -114.23654   -18947.426    4.3248342    4.3248342    4.3248342   -18947.426   -47858.988   -13255.307    4272.0173   -34707.981   -4631.8633   -3674.3744    80.892524 
   32400    535.95119   -114.72193    0.4849399   -114.23699    5546.7006     4.306952     4.306952     4.306952    5546.7006   -14420.713    2952.2891    28108.525    5226.8669     1372.658    15886.647    79.893249 
   32500    829.42276   -114.98731   0.75047915   -114.23683    765.90407    4.3153655    4.3153655    4.3153655    765.90407   -24512.987    18895.481    7915.2182    19136.336   -3006.3742    7547.4678    80.362376 
   32600    876.69286   -115.02551   0.79325012   -114.23226    1127.3657    4.3185069    4.3185069    4.3185069    1127.3657   -30963.302    33326.411    1018.9873   -19035.521   -6454.2226   -252.43255       80.538 
   32700    681.20826   -114.84967   0.61637155    -114.2333    17639.039    4.3015068    4.3015068    4.3015068    17639.039   -6161.3453    32102.278    26976.185    -4729.055   -1604.6855    10094.399    79.590614 
   32800    625.46654   -114.80659   0.56593527   -114.24065   -19311.571    4.3246751    4.3246751    4.3246751   -19311.571   -32716.186   -22592.631   -2625.8971    29610.755    19.638063    10936.122      80.8836 
   32900    951.17713   -115.09302   0.86064506   -114.23238    823.29652      4.31588      4.31588      4.31588    823.29652   -13414.594     25471.92   -9587.4372    3666.1299   -6401.0914    -769.0588    80.391123 
   33000    929.38063   -115.07002   0.84092312   -114.22909    20637.705    4.3015568    4.3015568    4.3015568    20637.705    1610.8932    40548.085    19754.137   -14435.627   -4384.7643   -8983.1547    79.593389 
   33100    577.90321   -114.76338   0.52289897   -114.24048   -12952.109    4.3235408    4.3235408    4.3235408   -12952.109   -35851.039    4447.5061   -7452.7936    25794.172    1656.4909    8305.3997    80.819971 
   33200    665.54067   -114.84141   0.60219519   -114.23921    -8114.858    4.3163395    4.3163395    4.3163395    -8114.858   -8861.2523   -1623.1265   -13860.195    11297.946   -4372.5195   -591.07861      80.4168 
   33300     972.1378   -115.11187   0.87961071   -114.23226    10024.819    4.2995026    4.2995026    4.2995026    10024.819    17897.659     14908.38   -2731.5832   -9045.1069    -3702.411   -20788.415    79.479413 
   33400    911.24889   -115.06184   0.82451714   -114.23732   -12615.995     4.319307     4.319307     4.319307   -12615.995   -24161.625   -10690.549   -2995.8099    17639.132    870.71454   -934.61122    80.582773 
   33500    715.35457   -114.88734   0.64726785   -114.24007     2383.774    4.3146139    4.3146139    4.3146139     2383.774   -17774.856     25937.27   -1011.0918     18478.77     1904.362    12855.447    80.320394 
   33600    874.88802   -115.02862   0.79161706     -114.237    15472.972    4.3000005    4.3000005    4.3000005    15472.972    18902.343    33528.768   -6012.1937   -2683.7169   -8186.7521   -15495.663    79.507027 
   33700    730.09015   -114.90159   0.66060091   -114.24099   -6691.7304    4.3231457    4.3231457    4.3231457   -6691.7304   -20883.193    28509.823   -27701.821    8130.3889   -6692.9982   -8825.4929    80.797816 
   33800    986.48936   -115.12921    0.8925963   -114.23661   -6966.5809    4.3134984    4.3134984    4.3134984   -6966.5809   -24539.543   -5688.5608    9328.3615    31182.822    5515.3721    7392.5319    80.258109 
   33900    924.83974   -115.06729   0.83681443   -114.23047    19176.309    4.2956153    4.2956153    4.2956153    19176.309    16960.365    36293.767    4274.7964   -3095.9181   -5159.5354    -5834.589     79.26403 
   34000    731.75136   -114.89976   0.66210401   -114.23766   -25079.545    4.3255423    4.3255423    4.3255423   -25079.545   -11471.419   -15300.988   -48466.227   -2664.2554   -9239.4819   -18642.086    80.932262 
   34100     822.4872   -114.98211   0.74420371    -114.2379   -3746.1436    4.3087709    4.3087709    4.3087709   -3746.1436   -9608.9108    2201.7461   -3831.2661    26096.463    5317.9687   -4742.3098    79.994515 
   34200    889.36094   -115.03964   0.80471247   -114.23493    21566.182    4.2991761    4.2991761    4.2991761    21566.182    13304.285    35858.704    15535.557    5535.7896    4336.9078    1690.0639    79.461306 
   34300    833.81792   -114.98987   0.75445598   -114.23542   -21237.286    4.3278855    4.3278855    4.3278855   -21237.286   -9267.4122   -7616.8344    -46827.61   -10302.313   -7011.5003   -28400.501    81.063861 
   34400    679.66446   -114.84901   0.61497469   -114.23404    7957.7626    4.3086819    4.3086819    4.3086819    7957.7626    17957.339    14002.372   -8086.4232    9387.0496   -3997.6253   -11624.851    79.989556 
   34500    919.22423   -115.06256    0.8317334   -114.23083    2661.6074    4.3087326    4.3087326    4.3087326    2661.6074   -2395.7812    5370.4314     5010.172    19694.853    12181.568    6313.1767    79.992379 
   34600    875.63966   -115.02573   0.79229716   -114.23344   -10488.535    4.3160149    4.3160149    4.3160149   -10488.535    -816.8441   -8704.6632   -21944.099   -5854.7776    5838.6911   -24027.208    80.398659 
   34700    765.57924   -114.92857   0.69271218   -114.23586    14831.597    4.3016799    4.3016799    4.3016799    14831.597    32413.692    6851.4477    5229.6505   -3053.3009   -14692.253   -15809.202    79.600218 
   34800    790.79981    -114.9541   0.71553228   -114.23857   -8106.7875    4.3207437    4.3207437    4.3207437   -8106.7875   -27431.172    1329.7167    1781.0933    17248.107    2060.6174    6220.2354    80.663211 
   34900    733.15075   -114.90006   0.66337021   -114.23669    9715.3145    4.3094274    4.3094274    4.3094274    9715.3145   -9218.6625    31656.904    6707.7025     4868.787    16824.181   -3574.8316    80.031086 
   35000    850.44588     -115.003   0.76950131    -114.2335    13896.891    4.3020615    4.3020615    4.3020615    13896.891    16917.539    22169.408    2603.7269   -3923.1724   -4074.9125   -19817.986    79.621404 
   35100    765.19649   -114.92747   0.69236587   -114.23511   -10033.971    4.3218672    4.3218672    4.3218672   -10033.971   -30075.026    13497.229   -13524.116    6728.1294   -6957.9289   -73.249516    80.726153 
   35200    757.53899   -114.92066    0.6854372   -114.23522    5369.6609    4.3055677    4.3055677    4.3055677    5369.6609    -14781.42    29358.945    1531.4576     15596.36    18241.644    7072.1424     79.81624 
   35300    810.56539   -114.97035    0.7334166   -114.23694    5918.4214    4.3063616    4.3063616    4.3063616    5918.4214    26255.769    12986.945    -21487.45   -3958.0982    12904.016   -26048.787    79.860398 
   35400    996.19222   -115.13486   0.90137565   -114.23348   -13146.426    4.3184359    4.3184359    4.3184359   -13146.426   -7898.5389   -6177.6486   -25363.092   -3703.4462   -10558.901   -11264.336    80.534029 
   35500    664.72182   -114.83856   0.60145427   -114.23711     1711.675    4.3072293    4.3072293    4.3072293     1711.675    1218.0433    12609.423   -8692.4408    13356.943    6998.7145    8665.9409    79.908685 
   35600    700.80608   -114.87515   0.63410407   -114.24105   -4301.3681    4.3090726    4.3090726    4.3090726   -4301.3681    40.868333    8077.7562   -21022.729    517.05671    25691.157   -6409.6616     80.01132 
   35700    982.96661   -115.12481   0.88940885   -114.23541    4088.8013     4.312816     4.312816     4.312816    4088.8013    9320.2061    3381.1372   -434.93924   -876.99567    -4282.162   -15427.094    80.220023 
   35800     725.1625   -114.89315   0.65614227     -114.237   -3920.2654    4.3151085    4.3151085    4.3151085   -3920.2654   -4871.5231   -1799.4758   -5089.7972    1781.2975   -4657.1096   -627.23388    80.348019 
   35900    542.75757   -114.72999   0.49109846   -114.23889   -10031.444    4.3119997    4.3119997    4.3119997   -10031.444   -30949.296    11411.409   -10556.444     16062.55    26191.152    10584.833    80.174482 
   36000    802.99668   -114.96168   0.72656827   -114.23511    16597.991    4.3071613    4.3071613    4.3071613    16597.991    6214.8745    22122.387    21456.711    1763.4718    4639.2102   -1366.8457    79.904897 
   36100    866.62282   -115.01891   0.78413854   -114.23477   -7293.1177    4.3191207    4.3191207    4.3191207   -7293.1177   -13170.119    1190.4055   -9899.6397   -14639.927    -10945.43   -1623.4352    80.572349 
   36200    439.66131   -114.63762   0.39781479    -114.2398   -3332.4218    4.3109787    4.3109787    4.3109787   -3332.4218   -24220.651    20364.483   -6141.0978    18582.714    6858.3517    5886.3911    80.117547 
   36300    735.08569   -114.90151   0.66512098   -114.23638    10834.336    4.3043054    4.3043054    4.3043054    10834.336   -73.830527    23239.936    9336.9018     6377.177    13068.184    8859.7434    79.746057 
   36400    884.54338   -115.03459   0.80035344   -114.23424   -7260.1039    4.3208516    4.3208516    4.3208516   -7260.1039    -7392.248   -4852.2352   -9535.8286   -20435.017   -6175.9313    1053.1945    80.669257 
   36500    622.05095   -114.79903   0.56284478   -114.23618    -3543.808    4.3119845    4.3119845    4.3119845    -3543.808   -15171.063    7591.9343   -3052.2955    2340.5123   -3607.1727   -5027.3248    80.173636 
   36600    786.34055   -114.94513   0.71149746   -114.23363   -1822.7924    4.3055186    4.3055186    4.3055186   -1822.7924   -5393.6618    11011.926   -11086.642    13161.265    16586.176    12006.381    79.813509 
   36700    854.53365   -115.00644   0.77320001   -114.23324   -11865.769    4.3187212    4.3187212    4.3187212   -11865.769   -8309.9307   -24216.952   -3070.4239   -13902.374   -162.80576    9510.9826     80.54999 
   36800    796.12649   -114.95394   0.72035197   -114.23359   -1233.7656    4.3094747    4.3094747    4.3094747   -1233.7656   -1411.5011   -7692.0087    5402.2131   -21214.062   -2082.7637   -7585.6201    80.033721 
   36900    829.56897     -114.985   0.75061144   -114.23438    2304.6428    4.3042142    4.3042142    4.3042142    2304.6428   -7018.7746    22919.306   -8986.6029    12496.796    11009.113   -1825.2975    79.740993 
   37000    769.24794    -114.9336    0.6960317   -114.23756   -10518.232    4.3173585    4.3173585    4.3173585   -10518.232   -1114.5339   -9697.6393   -20742.522   -6542.9385    4596.5678    14237.649    80.473769 
   37100    625.93276    -114.8018   0.56635712   -114.23544    8969.5617    4.3136347    4.3136347    4.3136347    8969.5617    4078.0189     11551.36    11279.306   -29669.858   -340.81068    10347.053     80.26572 
   37200    952.52646   -115.09216   0.86186596   -114.23029    2253.0926    4.3099817    4.3099817    4.3099817    2253.0926   -10918.438    21754.627    -4076.911    10449.523   -3863.0269   -10630.495    80.061971 
   37300    742.78326   -114.90565    0.6720859   -114.23357    2954.5547    4.3069466    4.3069466    4.3069466    2954.5547    14461.506     3117.076   -8714.9184    7376.1709    6250.9356     15434.24    79.892949 
   37400    521.49627   -114.71424   0.47186079   -114.24238    3394.2585    4.3114582    4.3114582    4.3114582    3394.2585    6780.4877    -12562.66    15964.948   -28483.194   -2021.1049     22884.64     80.14428 
   37500    846.29107   -115.00107   0.76574195   -114.23533   -75.457577    4.3200668    4.3200668    4.3200668   -75.457577   -17123.144    -5304.124    22200.896   -8194.9972   -1375.4134   -2807.4651    80.625311 
   37600    963.09356    -115.1028    0.8714273   -114.23138    9520.6055    4.3036383    4.3036383    4.3036383    9520.6055    18496.534    410.48799    9654.7943    18410.705    698.02074    6359.1391    79.708987 
   37700     402.6813   -114.60666   0.36435451    -114.2423     -5576.24    4.3109575    4.3109575    4.3109575     -5576.24    3908.7824   -27929.837    7292.3343   -27419.617   -1882.7476    15481.511    80.116361 
   37800    700.63061   -114.87031    0.6339453   -114.23636   -12172.865    4.3203133    4.3203133    4.3203133   -12172.865   -20103.038   -29549.631    13134.075   -28294.554    5323.5508    8184.6944    80.639109 
   37900     1149.538   -115.26871    1.0401261   -114.22858    19907.895    4.3000749    4.3000749    4.3000749    19907.895    10515.936    20504.316    28703.432    21332.982   -7672.8235   -13454.362    79.511155 
   38000     522.2679   -114.71431   0.47255897   -114.24175    -8785.183    4.3130299    4.3130299    4.3130299    -8785.183   -10661.349    -16759.55     1065.351   -16917.751    1647.4634     10267.58    80.231963 
   38100    454.85497   -114.65355   0.41156234   -114.24199   -21017.425    4.3191181    4.3191181    4.3191181   -21017.425   -17590.647   -34251.415   -11210.215   -34180.404    215.98857    17354.339    80.572205 
   38200    1069.5015   -115.19677   0.96770744   -114.22906    19321.689    4.3046819    4.3046819    4.3046819    19321.689    11514.946    16340.946    30109.176    13249.615   -319.01908   -10027.826    79.766989 
   38300    978.63029   -115.11975   0.88548526   -114.23426   -10862.442    4.3135027    4.3135027    4.3135027   -10862.442    -12848.31   -20905.646    1166.6294   -10686.658    3566.1914    2887.3617    80.258351 
   38400    313.69936   -114.52616   0.28384178   -114.24232   -11189.079    4.3146745    4.3146745    4.3146745   -11189.079   -9669.4699   -32777.565    8879.7991   -36099.766    130.00272    17745.753    80.323773 
   38500    1004.7474   -115.14314   0.90911655   -114.23402   -3829.2128    4.3122915    4.3122915    4.3122915   -3829.2128    7382.5436   -7610.5654   -11259.616    891.27705    11503.596    11039.838    80.190762 
   38600    1119.2601   -115.24462    1.0127301   -114.23189    7337.0866    4.3086034    4.3086034    4.3086034    7337.0866    5792.3762   -4010.6569    20229.541    636.84834   -6236.5929   -11752.503    79.985187 
   38700    569.41878     -114.755   0.51522208   -114.23978    2480.9603    4.3070737    4.3070737    4.3070737    2480.9603   -3126.2756   -14442.433     25011.59   -31185.908   -1004.5923    9454.2295    79.900023 
   38800    605.69971   -114.79003   0.54804982   -114.24198   -15413.309    4.3228655    4.3228655    4.3228655   -15413.309   -12469.161   -17508.201   -16262.564   -5578.5158     2992.874    17565.281    80.782108 
   38900    1060.7149   -115.19241   0.95975713   -114.23266    13213.479    4.3062313    4.3062313    4.3062313    13213.479    20700.172    1552.3565    17387.908    8311.8948   -2010.4677   -6152.1194    79.853152 
   39000    836.11099   -114.99086    0.7565308   -114.23433    17514.133     4.299223     4.299223     4.299223    17514.133   -1995.2706    17565.654    36972.016   -30280.585    2889.6971   -4834.1968    79.463905 
   39100    381.26762   -114.58546   0.34497896   -114.24048   -22584.347    4.3270717    4.3270717    4.3270717   -22584.347   -25636.325   -22501.551   -19615.164   -12647.196   -6905.5201    18011.175    81.018139 
   39200    866.76064   -115.01789   0.78426324   -114.23362    5282.9298    4.3048148    4.3048148    4.3048148    5282.9298     17218.91     3814.231   -5184.3517    7122.5574    8497.4308    17389.127    79.774375 
   39300    1056.4393   -115.18715   0.95588845   -114.23126    19060.072    4.3020945    4.3020945    4.3020945    19060.072    13074.716    10900.061    33205.439   -12907.152   -540.85301    -11033.59    79.623238 
   39400    617.38014   -114.79561   0.55861853   -114.23699   -23843.613    4.3225011    4.3225011    4.3225011   -23843.613   -20812.301   -29050.628   -21667.911   -15625.291   -7860.1877    18830.407    80.761681 
   39500     582.3946   -114.76372   0.52696288   -114.23676     1659.066    4.3039199    4.3039199    4.3039199     1659.066    30562.925   -2584.1535   -23001.573   -468.25353    820.43359    30576.837    79.724636 
   39600    1121.4253   -115.24764    1.0146892   -114.23295    1113.9806    4.3101554    4.3101554    4.3101554    1113.9806   -7047.6365   -3729.5676    14119.146    7531.0242   -3329.5362   -4747.5864    80.071649 
   39700    842.91761   -115.00137   0.76268956   -114.23868    2681.1889    4.3096211    4.3096211    4.3096211    2681.1889    -415.7634   -9435.1288    17894.459   -11094.629    2072.8548    2798.2507     80.04188 
   39800    410.25063   -114.61547   0.37120339   -114.24427    7805.8219    4.3084496    4.3084496    4.3084496    7805.8219    10740.115    1770.6531    10906.698   -7576.7689   -5632.2123    26519.861    79.976621 
   39900    843.42158   -114.99808   0.76314557   -114.23494   -8432.7175    4.3206687    4.3206687    4.3206687   -8432.7175   -15289.019   -5103.2823   -4905.8515    7169.2178   -2002.1159    8556.1971    80.659014 
   40000    891.48834   -115.03785   0.80663739   -114.23121    20005.217    4.2998252    4.2998252    4.2998252    20005.217   -4027.2809    21860.024    42182.908   -6448.2492     6043.363   -16087.258    79.497307 
   40100     574.4649   -114.76136   0.51978791   -114.24157    -6628.713    4.3110225    4.3110225    4.3110225    -6628.713    -922.2841   -3948.9764   -15014.879   -7650.8247   -5805.4549    24619.944    80.119988 
   40200    793.14696   -114.95365   0.71765604   -114.23599   -12658.473    4.3167656    4.3167656    4.3167656   -12658.473   -5808.5026    22.242226   -32189.159    1672.0643   -7511.0685    22030.088    80.440618 
   40300    906.17206   -115.05146   0.81992352   -114.23154    6903.3639    4.3042807    4.3042807    4.3042807    6903.3639   -15221.301    9464.8736     26466.52    9985.7901   -547.14042   -8847.3043    79.744688 
   40400    617.74347   -114.79696   0.55894728   -114.23801   -16439.996    4.3153862    4.3153862    4.3153862   -16439.996   -26377.213    -23836.75    893.97483   -9050.9049    439.45774   -121.30895    80.363532 
   40500     843.2686    -114.9965   0.76300715   -114.23349    1030.3614    4.3095829    4.3095829    4.3095829    1030.3614   -7678.3109    7705.2658    3064.1292   -7797.3309   -6347.7403    12718.802    80.039747 
   40600    808.63118   -114.96456   0.73166649    -114.2329    2182.3169    4.3126099    4.3126099    4.3126099    2182.3169    -22558.84    11943.718    17162.072    17570.478   -2235.6208    70.419502    80.208525 
   40700    423.57935   -114.62225    0.3832635   -114.23899   -6608.1416    4.3137252    4.3137252    4.3137252   -6608.1416   -35838.812   -10148.225    26162.612   -1104.8444    4780.2784   -24104.284    80.270768 
   40800    660.82706   -114.83702   0.59793021   -114.23909    12341.226    4.3061496    4.3061496    4.3061496    12341.226   -14655.494    27906.323    23772.848   -15856.592    -2078.783   -2130.2549    79.848604 
   40900    1079.0625   -115.20765   0.97635843   -114.23129    1727.5994    4.3180779    4.3180779    4.3180779    1727.5994   -21967.979    15770.265    11380.512    10875.286   -767.12991    2040.4785    80.514005 
   41000    471.98194   -114.67057   0.42705918   -114.24352     -3863.27    4.3114689    4.3114689    4.3114689     -3863.27   -33486.907   -13686.998    35584.096    10018.978    2699.2917   -13370.541    80.144876 
   41100    452.74682   -114.65352   0.40965484   -114.24387    290.78225    4.3047206    4.3047206    4.3047206    290.78225   -28356.202    1431.1495    27797.399   -21898.003    1114.5593   -9967.3961     79.76914 
   41200    1190.2524   -115.31087    1.0769654    -114.2339   -5269.5575    4.3186734    4.3186734    4.3186734   -5269.5575   -24122.047    11086.365   -2772.9899   -2028.6497   -1903.8264    550.89778    80.547319 
   41300    905.26926   -115.05704   0.81910665   -114.23793   -3213.3616    4.3117294    4.3117294    4.3117294   -3213.3616   -20469.662    2156.7857    8672.7919    11462.021    765.49694    12153.923    80.159408 
   41400    405.86561   -114.60861   0.36723573   -114.24137   -4420.2885    4.3055961    4.3055961    4.3055961   -4420.2885   -29342.224   -4576.1796    20657.538   -19181.534    1635.9084   -18146.842    79.817821 
   41500    919.96624   -115.07049   0.83240478   -114.23809    -12901.32    4.3156246    4.3156246    4.3156246    -12901.32   -23353.446   -5156.2661   -10194.249   -10945.984    2900.3175    93.638189    80.376852 
   41600    985.41091   -115.12647    0.8916205   -114.23484   -224.70225    4.3074383    4.3074383    4.3074383   -224.70225   -1249.8549    5473.8785   -4898.1303    5927.2654   -2494.8424    21894.322    79.920315 
   41700    657.65929   -114.83549   0.59506395   -114.24043   -5726.3312    4.3065511    4.3065511    4.3065511   -5726.3312   -26520.108   -9724.1188    19065.233   -12255.337   -1011.9883   -5149.8441    79.870946 
   41800    683.78734   -114.85698   0.61870515   -114.23828   -6121.5545    4.3174302    4.3174302    4.3174302   -6121.5545   -28638.091   -14782.816    25056.244   -12084.424    173.18334   -10206.982    80.477778 
   41900    902.74974   -115.04904   0.81682694   -114.23221    4897.6077    4.3064706    4.3064706    4.3064706    4897.6077    10240.681    8084.7668   -3632.6249    4895.3524   -1698.0657    16283.883    79.866462 
   42000    678.13846   -114.84949   0.61359393    -114.2359     401.4613    4.3073296    4.3073296    4.3073296     401.4613   -12753.985   -4337.2754    18295.644   -8749.0142    757.78349    19108.133    79.914264 
   42100    829.93091   -114.98548   0.75093892   -114.23454   -4727.9962    4.3162468    4.3162468    4.3162468   -4727.9962   -37042.609   -2233.9353    25092.555   -16990.868   -2271.5207   -16127.617    80.411619 
   42200    776.96937   -114.93583   0.70301821   -114.23281    11108.991    4.3082382    4.3082382    4.3082382    11108.991    9433.0569    19805.398    4088.5178    1466.2253    1904.8158    17557.375    79.964851 
   42300     755.4888   -114.91958   0.68358214     -114.236   -1174.6273    4.3061997    4.3061997    4.3061997   -1174.6273     11001.66    2682.0352   -17207.577   -1085.2425   -3022.0506    41273.356    79.851393 
   42400    915.18292   -115.06307   0.82807674   -114.23499   -2306.5081    4.3130015    4.3130015    4.3130015   -2306.5081   -28882.612    20208.863    1754.2251   -16987.927   -895.05419   -6551.8332    80.230374 
   42500    830.36948   -114.98663   0.75133575   -114.23529   -4199.0584    4.3134679    4.3134679    4.3134679   -4199.0584   -13026.882    5823.4537   -5393.7468   -4968.0791      4909.89    7596.6071    80.256409 
   42600    559.94257   -114.74538   0.50664781   -114.23873    973.91717    4.3055662    4.3055662    4.3055662    973.91717    26044.375    1410.8061    -24533.43    6386.6608   -3453.4913    36364.211     79.81616 
   42700    963.03528   -115.10659   0.87137456   -114.23521   -9722.1554    4.3120695    4.3120695    4.3120695   -9722.1554   -12508.436    250.31388   -16908.344   -11815.159    239.70501    2512.5173    80.178379 
   42800    1004.5964    -115.1439   0.90897996   -114.23492   -9406.7982    4.3121676    4.3121676    4.3121676   -9406.7982   -24265.711   -6023.7208    2069.0371   -11325.251    319.49055   -5452.5585    80.183849 
   42900    451.94973   -114.65185   0.40893361   -114.24292    7004.2368    4.3020462    4.3020462    4.3020462    7004.2368    26903.763   -9487.6988    3596.6458    7702.8626    986.79531    32601.934    79.620555 
   43000    694.98051   -114.87099   0.62883297   -114.24216   -6688.3816    4.3179691    4.3179691    4.3179691   -6688.3816   -2342.3483    4903.8194   -22626.616   -952.66511   -3845.3871     18897.15    80.507917 
   43100      1140.01   -115.26693     1.031505   -114.23543    6356.0397     4.309295     4.309295     4.309295    6356.0397    -11665.14    22968.945    7764.3142   -4485.7843   -2686.8809   -11819.447    80.023709 
   43200      612.047   -114.79631   0.55379298   -114.24252    16027.286    4.2977506    4.2977506    4.2977506    16027.286    21247.066    35606.296   -8771.5036    3578.3118    7872.4953    33670.392    79.382293 
   43300    392.98224    -114.6011   0.35557859   -114.24552   -18825.075    4.3238318    4.3238318    4.3238318   -18825.075   -730.67324   -22233.815   -33510.738    6878.8601   -2460.7333    31334.741    80.836289 
   43400    1190.3555    -115.3093    1.0770587   -114.23224   -2479.9252      4.30776      4.30776      4.30776   -2479.9252   -2318.1763     6301.518   -11423.117   -96.319968     720.1972   -27664.699    79.938224 
   43500    923.80952    -115.0688   0.83588227   -114.23292   -2164.6938    4.3031398    4.3031398    4.3031398   -2164.6938    15717.306   -1069.2488   -21142.139   -2413.9373    3734.0796    17876.717    79.681294 
   43600    489.78807   -114.68447   0.44317054    -114.2413   -21738.681    4.3164012    4.3164012    4.3164012   -21738.681    4391.9264   -30689.081   -38918.889    8618.3005     72.52627    40131.174    80.420252 
   43700    899.18864   -115.04975   0.81360477   -114.23614    10746.033     4.307242     4.307242     4.307242    10746.033   -473.59892    15980.395    16731.303    6504.2257   -7683.3577   -11622.764    79.909388 
   43800    944.07152   -115.08745   0.85421575   -114.23323   -264.11187    4.3147791    4.3147791    4.3147791   -264.11187   -2738.7644     9813.963   -7867.5342   -6480.3591    1201.8105    2843.1182    80.329619 
   43900    442.79266    -114.6407   0.40064811   -114.24005    6159.5265    4.3072115    4.3072115    4.3072115    6159.5265    18922.274    2590.7694   -3034.4635    1024.5013    5874.5906    37750.139    79.907691 
   44000    660.06437   -114.83498   0.59724011   -114.23774    4660.9433    4.3155962    4.3155962    4.3155962    4660.9433   -13173.362    14280.147    12876.045    11909.637   -7856.4283    12233.124    80.375263 
   44100    1014.0055   -115.15019   0.91749345    -114.2327    1944.0146    4.3114595    4.3114595    4.3114595    1944.0146    -16498.44    3749.5534    18580.931   -4578.4714   -2858.4281   -7869.2549    80.144356 
   44200    627.98107    -114.8068   0.56821047   -114.23859      11131.8    4.2993586    4.2993586    4.2993586      11131.8    28022.858   -2283.8242     7656.365   -9875.8561    3525.6635    27447.325    79.471428 
   44300    566.49698   -114.75405   0.51257837   -114.24148    -16434.31    4.3245832    4.3245832    4.3245832    -16434.31   -12130.725   -13411.951   -23760.254    11694.985     2314.563     20384.77    80.878441 
   44400    1098.3567   -115.22485   0.99381619   -114.23104     472.4615    4.3099119    4.3099119    4.3099119     472.4615   -16930.051    -908.4729    19255.908    12355.815   -9705.1664   -12245.093    80.058081 
   44500    794.55231   -114.94994   0.71892763   -114.23101    12853.534    4.2946915    4.2946915    4.2946915    12853.534    26356.877   -2364.2468    14567.971   -18358.755    2850.7051    17180.347    79.212899 
   44600    645.20098   -114.82248    0.5837914   -114.23869   -21917.081    4.3194769    4.3194769    4.3194769   -21917.081   -8318.2316    -31264.37   -26168.641   -3815.9033    2799.8305    25324.314    80.592284 
   44700    895.29383   -115.04279   0.81008067   -114.23271    4146.0026    4.3126163    4.3126163    4.3126163    4146.0026   -15973.249      9329.62    19081.637    16812.165   -11056.447   -4989.3822    80.208884 
   44800    923.46624   -115.06553   0.83557166   -114.22996    6743.0366    4.3030523    4.3030523    4.3030523    6743.0366    6471.7204   -209.92689    13967.316    -11271.01    2026.2061     -1957.48    79.676429 
   44900    553.16615   -114.73717   0.50051635   -114.23665   -9168.0731    4.3121398    4.3121398    4.3121398   -9168.0731    5970.9505   -22867.387   -10607.782   -15326.909    3966.4393    27384.673    80.182298 
   45000    882.59193   -115.03274   0.79858772   -114.23415    3266.2685    4.3137161    4.3137161    4.3137161    3266.2685   -15756.463    12423.528    13131.741    2779.2469   -1322.2342    10578.259    80.270262 
   45100    1066.4568   -115.19839   0.96495256   -114.23344    10963.959      4.30616      4.30616      4.30616    10963.959    5803.2289    25402.187    1686.4625    3796.5412    -5949.985   -9130.3897    79.849185 
   45200    455.96442   -114.65583   0.41256619   -114.24327    3927.4359    4.3037844    4.3037844    4.3037844    3927.4359    8226.6815    1984.8019    1570.8243   -16744.569   -2222.2828    19951.918    79.717106 
   45300    605.43579   -114.79261   0.54781102    -114.2448   -14363.981     4.320243     4.320243     4.320243   -14363.981   -15719.651   -13039.316   -14332.975   -14091.446    1532.1941    18571.501    80.635172 
   45400    1241.9319   -115.35711    1.1237261   -114.23339    3133.0712    4.3076263    4.3076263    4.3076263    3133.0712   -11377.833     27188.13    -6411.084     12168.31    -7527.558   -3930.7113    79.930782 
   45500    783.65763   -114.94625    0.7090699   -114.23718    6785.8503     4.299584     4.299584     4.299584    6785.8503    8766.4403    761.19009     10829.92   -7980.8797   -1722.4113    8598.6214    79.483925 
   45600     527.3819   -114.71996   0.47718622   -114.24277   -25526.216    4.3192531    4.3192531    4.3192531   -25526.216   -15956.186   -40203.182    -20419.28   -19795.842    4108.2536    24401.424    80.579759 
   45700    919.30007   -115.06782   0.83180202   -114.23602   -2154.1192    4.3109476    4.3109476    4.3109476   -2154.1192   -16369.207    18805.524   -8898.6739    5850.1478   -5117.8672   -2972.7677    80.115812 
   45800    1032.9443   -115.16653   0.93462968    -114.2319    4072.0746    4.3030624    4.3030624    4.3030624    4072.0746   -11637.356     16950.09    6903.4896    11222.324   -8606.9528   -3622.7405    79.676993 
   45900    680.22591   -114.85397    0.6154827   -114.23849   -4704.6134    4.3110239    4.3110239    4.3110239   -4704.6134   -2801.2168    3573.2503   -14885.874   -12336.655   -86.065528    22469.772    80.120066 
   46000    779.24763   -114.94274   0.70507964   -114.23766    -4599.599    4.3128165    4.3128165    4.3128165    -4599.599   -8281.1645    14350.284   -19867.916   -10221.658    4390.1951    10975.279     80.22005 
   46100    909.50381   -115.05859   0.82293816   -114.23565   -3051.1507    4.3076524    4.3076524    4.3076524   -3051.1507   -28682.156    15298.033    4230.6701    21993.798   -3429.2793   -6830.3269    79.932233 
   46200    825.90169   -114.98483    0.7472932   -114.23754    2664.7461    4.3054594    4.3054594    4.3054594    2664.7461    -1915.257    7730.5824    2178.9129    11288.569   -2221.5337      10839.1    79.810216 
   46300    964.56003   -115.10763   0.87275418   -114.23488   -8970.1465     4.316317     4.316317     4.316317   -8970.1465    7094.0273   -5782.3344   -28222.132   -11663.177   -2278.1253    22946.423    80.415545 
   46400    792.28629   -114.95019   0.71687728   -114.23331    -8248.376    4.3134544    4.3134544    4.3134544    -8248.376   -32607.614     8372.345   -509.85861    19093.856   -325.43827   -5608.7116    80.255654 
   46500    689.32587   -114.85815   0.62371653   -114.23444   -1122.3704    4.3048038    4.3048038    4.3048038   -1122.3704   -19405.271    8609.4096      7428.75    26807.635   -135.59176    7868.6357    79.773766 
   46600    782.58685   -114.94375   0.70810103   -114.23565   -2606.8741    4.3113386    4.3113386    4.3113386   -2606.8741    11765.427    7959.1401   -27545.189   -1199.1718   -1566.8427    31262.752    80.137612 
   46700    841.05469    -114.9966   0.76100396    -114.2356   -2572.7697    4.3139876    4.3139876    4.3139876   -2572.7697   -12263.887    25889.227   -21343.649    6560.2394    8105.1929    -1389.035     80.28542 
   46800    605.52943    -114.7849   0.54789575   -114.23701   -2814.5258    4.3111776    4.3111776    4.3111776   -2814.5258   -27702.424    9822.2361      9436.61     31718.51    -899.2105   -1553.0862    80.128632 
   46900    706.31932   -114.87433   0.63909256   -114.23524    939.04226    4.3077861    4.3077861    4.3077861    939.04226    9120.1761   -7177.7163    874.66694    6149.6055   -3157.1104    26855.796     79.93968 
   47000    830.13678   -114.98489   0.75112521   -114.23377   -3595.8732     4.315138     4.315138     4.315138   -3595.8732    9594.5251   -1209.7235   -19172.421   -5847.8648    2184.1911    9900.0784    80.349664 
   47100    875.28518   -115.02685   0.79197643   -114.23488     4329.145    4.3051445    4.3051445    4.3051445     4329.145   -6310.7228    3287.5038    16010.654    21358.847   -2411.2258   -16701.547    79.792704 
   47200    549.78849   -114.73808   0.49746018   -114.24062    16274.817    4.3029248    4.3029248    4.3029248    16274.817    13826.336    20819.441    14178.672    8396.9745    369.67303    19306.546    79.669349 
   47300    661.77629    -114.8384   0.59878909   -114.23961   -10788.979     4.320455     4.320455     4.320455   -10788.979    5687.5445   -8569.1522   -29485.329   -11286.121   -7245.6002    29605.654    80.647046 
   47400     925.2761   -115.07074   0.83720926   -114.23354    15420.023     4.302755     4.302755     4.302755    15420.023    21847.439    12593.754    11818.877   -1073.4551    -550.1042   -20713.384    79.659915 
   47500    780.56107   -114.94287   0.70626806   -114.23661   -342.15862    4.3045661    4.3045661    4.3045661   -342.15862    18339.088   -6470.7201   -12894.844    5483.2985    4825.0847    2321.3118     79.76055 
   47600    472.14796   -114.66776    0.4272094   -114.24055   -17228.232    4.3173975    4.3173975    4.3173975   -17228.232    16052.338    -32652.27   -35084.764    976.31843   -4025.8087    42521.696    80.475947 
   47700    940.86167    -115.0853   0.85131142   -114.23398    6904.6912    4.3051033    4.3051033    4.3051033    6904.6912    19196.018   -5879.8865     7397.942   -11302.608    2990.7374   -7199.7017    79.790416 
   47800    977.39061   -115.11717   0.88436356   -114.23281   -2292.3834    4.3113648    4.3113648    4.3113648   -2292.3834    19636.412   -20976.433   -5537.1295     2495.597    590.32411   -10404.971    80.139075 
   47900     494.4629   -114.68942   0.44740042   -114.24202    -2480.625    4.3075406    4.3075406    4.3075406    -2480.625    22130.787   -28717.087   -855.57459    10819.634     7760.821    39297.908    79.926011 
   48000    695.47519   -114.87221   0.62928057   -114.24293    8497.5065    4.3090768    4.3090768    4.3090768    8497.5065    8050.5321    -7092.508    24534.495   -1772.7599    611.41468    14859.948    80.011554 
   48100    1160.2068   -115.28359    1.0497795   -114.23381    6468.3907    4.3136041    4.3136041    4.3136041    6468.3907    2751.7602    1994.0379    14659.374   -2870.0634   -7011.6771   -13282.972    80.264008 
   48200    719.26863   -114.88991   0.65080937   -114.23911    13374.641    4.3039009    4.3039009    4.3039009    13374.641    41938.948   -22250.582    20435.556    3369.2065    4495.1305    27822.276    79.723579 
   48300    702.72313   -114.87498   0.63583865   -114.23914   -7128.3002    4.3158288    4.3158288    4.3158288   -7128.3002    9118.6417   -13237.724   -17265.818    9717.1716   -1862.1722    22389.577    80.388258 
   48400    1035.8873   -115.16811   0.93729256   -114.23082     3587.139    4.3126322    4.3126322    4.3126322     3587.139   -9143.8046    10407.667    9497.5544    -4686.386   -4964.2911   -12543.153    80.209767 
   48500    755.57952   -114.91759   0.68366423   -114.23392    7485.3256    4.3068108    4.3068108    4.3068108    7485.3256    17611.354   -18226.241    23070.863    -5082.732    -9240.461     28008.53    79.885395 
   48600    769.46819   -114.93286   0.69623099   -114.23663    855.13838    4.3104378    4.3104378    4.3104378    855.13838    13053.351    -20623.28    10135.344    907.12947    -855.3146    31546.384    80.087389 
   48700    974.77401   -115.11619   0.88199601   -114.23419    8167.9555    4.3105891    4.3105891    4.3105891    8167.9555   -13317.067    9764.0408    28056.893     2461.526   -4803.1638   -14415.024    80.095825 
   48800    645.94507   -114.82516   0.58446467    -114.2407   -7853.0993    4.3131172    4.3131172    4.3131172   -7853.0993   -15462.585   -4890.0307   -3206.6823   -5442.2097   -6424.0505    15650.252     80.23683 
   48900    711.16647   -114.88366   0.64347837   -114.24018    1779.9786    4.3012833    4.3012833    4.3012833    1779.9786    19586.958   -8348.4794    -5898.543   -5348.3553    3519.2376    30813.969    79.578207 
   49000    1046.1236   -115.18339   0.94655461   -114.23684    1523.1514    4.3121493    4.3121493    4.3121493    1523.1514    3426.3602   -7545.1242    8688.2182    7504.0914   -744.70866   -11004.452    80.182827 
   49100    774.88728   -114.94104   0.70113429    -114.2399   -5255.4086    4.3150045    4.3150045    4.3150045   -5255.4086   -9533.6129   -3020.4444   -3212.1685   -2262.2357   -1754.6223   -4545.4616    80.342208 
   49200    465.77809   -114.66127    0.4214458   -114.23982    15903.582    4.2982207    4.2982207    4.2982207    15903.582     11088.85    3774.1692    32847.726   -6392.8525    2460.1913    35055.495    79.408341 
   49300    776.56528   -114.94089   0.70265258   -114.23824   -8468.7304    4.3156469    4.3156469    4.3156469   -8468.7304    11397.373   -25707.585   -11095.979       370.71    522.87567   -56.377509    80.378093 
   49400    990.48805   -115.12926   0.89621441   -114.23305   -2321.4074    4.3092999    4.3092999    4.3092999   -2321.4074     10054.49   -8304.3866   -8714.3254    124.34051    3104.1432   -29809.734    80.023983 
   49500    581.75574   -114.76445   0.52638482   -114.23807     2833.366    4.3039318    4.3039318    4.3039318     2833.366    7529.8556   -919.91724    1890.1595   -1826.6744   -5332.2564    26014.733    79.725299 
   49600    544.05658   -114.73209   0.49227383   -114.23982   -17356.664     4.315181     4.315181     4.315181   -17356.664    1156.8469   -28286.238   -24940.602   -7541.2879   -5687.2929    20218.469    80.352065 
   49700    975.35541   -115.11639   0.88252207   -114.23387    3787.4506    4.3057062    4.3057062    4.3057062    3787.4506    17541.188    -2030.082   -4148.7542   -701.25516    624.89975    -30596.33    79.823945 
   49800    961.69696   -115.10654   0.87016362   -114.23637    -3546.108    4.3093414    4.3093414    4.3093414    -3546.108    501.69889   -7826.8258    -3313.197    2648.5503    -4825.831    5488.5314    80.026293 
   49900    426.91828   -114.63055   0.38628463   -114.24426    6300.7042    4.3070256    4.3070256    4.3070256    6300.7042    6715.3758   -11362.128    23548.865   -6042.6267   -2763.1631    28910.895    79.897345 
   50000    776.90061   -114.94335     0.702956   -114.24039    3097.5792    4.3126831    4.3126831    4.3126831    3097.5792   -10105.019    7907.6633    11490.094   -2791.9823   -3037.5096   -5578.0489    80.212608 
   50100    1146.4423   -115.26915    1.0373251   -114.23182    478.90747    4.3129845    4.3129845    4.3129845    478.90747   -6284.0611    13171.572   -5450.7886    1134.6882    1671.1609   -10204.124    80.229425 
   50200    653.48122   -114.82903   0.59128354   -114.23775    10954.739    4.2992704    4.2992704    4.2992704    10954.739    9356.6535    13587.131    9920.4324   -3014.9788    1442.5609    25696.409    79.466536 
   50300    620.58946   -114.80451   0.56152238   -114.24299    -14273.29    4.3152048    4.3152048    4.3152048    -14273.29   -25034.636   -21081.574    3296.3394   -4747.6122   -3873.3047     15578.15    80.353397 
   50400    1105.4821   -115.23631    1.0002634   -114.23605    622.67767    4.3076793    4.3076793    4.3076793    622.67767     -21020.1    28902.514   -6014.3808   -347.72185    13540.445   -15671.425    79.933733 
   50500    960.05919   -115.10547   0.86868173   -114.23679   -2120.9712    4.3041366    4.3041366    4.3041366   -2120.9712   -2809.8548    4320.8668   -7873.9256    324.76373    8579.6325    22250.264    79.736677 
   50600    642.06876   -114.82277   0.58095731   -114.24181   -17785.882    4.3141873    4.3141873    4.3141873   -17785.882   -22227.367   -35894.575    4764.2948   -10510.221   -2639.4248    23746.171    80.296571 
   50700    946.77425   -115.09266   0.85666124     -114.236    7334.1542    4.3042282    4.3042282    4.3042282    7334.1542   -19203.799    17413.459    23792.802   -1422.9634    7564.5589   -7810.4396    79.741766 
   50800    1023.5744   -115.16093   0.92615166   -114.23477   -4495.1572    4.3115174    4.3115174    4.3115174   -4495.1572    -19580.76    8543.7196   -2448.4317     4466.046     10584.69    9388.4936    80.147585 
   50900    622.78816   -114.80504   0.56351182   -114.24153   -1816.3004    4.3075093    4.3075093    4.3075093   -1816.3004    1242.4837   -13531.082    6839.6971   -6999.5581    2603.7679     21738.96     79.92427 
   51000    808.23938   -114.97244   0.73131197   -114.24113    10885.227    4.3038462    4.3038462    4.3038462    10885.227   -11154.694    12760.431    31049.943   -7748.2563   -6488.4312    5926.7244    79.720539 
   51100    1208.7635   -115.32788    1.0937146   -114.23417   -5586.2838    4.3158567    4.3158567    4.3158567   -5586.2838   -20333.757   -8005.5948    11580.501     755.3698    1373.4482   -3618.8466    80.389819 
   51200     696.9971   -114.87151   0.63065763   -114.24085    1672.5642    4.3052463    4.3052463    4.3052463    1672.5642    20655.747   -7022.6647     -8615.39   -2352.8611    4213.3459    21794.749    79.798369 
   51300    522.28049   -114.71734   0.47257036   -114.24477    -3291.752    4.3061887    4.3061887    4.3061887    -3291.752   -1248.8611   -11756.476    3130.0807   -8451.4615   -9448.9217     10898.43    79.850782 
   51400    1091.7541   -115.22476   0.98784204   -114.23692   -4198.3292    4.3138126    4.3138126    4.3138126   -4198.3292   -15752.591   -14325.345    17482.949   -931.11695   -1243.8287   -10248.206    80.275649 
   51500    1008.7178   -115.15006   0.91270904   -114.23735    8250.7232    4.3054263    4.3054263    4.3054263    8250.7232    32724.215    -9153.909    1181.8638    4548.5356    2398.9132    24263.691    79.808379 
   51600    595.64966   -114.78301   0.53895633   -114.24405    2050.4189     4.308131     4.308131     4.308131    2050.4189    13624.585   -27793.246    20319.918    -6438.503    4133.0164    15845.108    79.958881 
   51700     806.0847   -114.96761   0.72936237   -114.23825    1203.2913     4.312971     4.312971     4.312971    1203.2913   -7664.4229   -17635.218    28909.515   -7383.7548   -508.66246   -10984.128    80.228676 
   51800    909.47734   -115.05744   0.82291421   -114.23452    13959.848    4.3053849    4.3053849    4.3053849    13959.848    19749.075   -3369.6255    25500.095    3297.5488   -4674.4828    11581.039    79.806073 
   51900    789.99865   -114.95207   0.71480738   -114.23727    -2504.598     4.312067     4.312067     4.312067    -2504.598    18726.967   -32642.291      6401.53   -833.18757    3142.5563    21489.808    80.178239 
   52000    881.39133   -115.03118    0.7975014   -114.23368   -1431.9657     4.312724     4.312724     4.312724   -1431.9657    384.42497   -28193.462     23513.14   -12385.631   -4443.5078   -11060.896     80.21489 
   52100    1002.4269   -115.13941   0.90701695    -114.2324    2356.2082    4.3054831    4.3054831    4.3054831    2356.2082    2190.9953   -4724.0214    9601.6506   -6844.7476   -9702.3463    2193.8735    79.811536 
   52200    702.95106   -114.87332   0.63604489   -114.23728   -9111.7729    4.3132891    4.3132891    4.3132891   -9111.7729    8593.2674   -23187.146    -12741.44    1937.7715   -6348.8986    34910.569    80.246429 
   52300    723.83038   -114.89079   0.65493694   -114.23585   -4230.2891    4.3135917    4.3135917    4.3135917   -4230.2891    466.11002   -35270.261    22113.283   -10442.273   -485.49807     -13578.2    80.263316 
   52400    938.92963   -115.08189   0.84956326   -114.23233    2601.7831    4.3082515    4.3082515    4.3082515    2601.7831   -4774.4188   -15531.429    28111.197   -9589.5882   -3011.4715   -17637.626    79.965591 
   52500    864.51108   -115.01614   0.78222779   -114.23391   -2419.8807    4.3097885    4.3097885    4.3097885   -2419.8807    3574.9664   -12770.125    1935.5162   -143.57339    -7523.247    29781.592    80.051207 
   52600    652.41308   -114.82845   0.59031707   -114.23814   -14398.463    4.3136296    4.3136296    4.3136296   -14398.463    7191.1833   -32387.273   -17999.297   -2601.6511    1865.6741   -2162.3121    80.265432 
   52700    735.77754    -114.9021   0.66574698   -114.23636   -1526.2043     4.308041     4.308041     4.308041   -1526.2043     4361.069   -20824.816    11885.134   -12161.789    3889.2873   -33140.939    79.953871 
   52800    1053.7935   -115.18431   0.95349454   -114.23082   -2001.5944    4.3107171    4.3107171    4.3107171   -2001.5944    7406.6343   -10685.126   -2726.2911   -1738.6408    6163.1763    15063.452    80.102963 
   52900    776.07891   -114.93576    0.7022125   -114.23355    -9355.248    4.3134223    4.3134223    4.3134223    -9355.248    9696.9277    -25452.29   -12310.381    4704.8933    721.37355    12366.595     80.25386 
   53000    446.78862   -114.64034   0.40426373   -114.23607   -5098.3214    4.3120617    4.3120617    4.3120617   -5098.3214    12324.208   -32342.375    4723.2034   -9759.0181    2756.9458   -32725.273    80.177942 
   53100    887.14357     -115.037   0.80270614   -114.23429    1336.4302    4.3061068    4.3061068    4.3061068    1336.4302    1195.9854   -9901.7732    12715.078   -3347.3503    16510.633   -3289.3858    79.846224 
   53200    1022.1522   -115.15834   0.92486481   -114.23347    7016.2534    4.3034632    4.3034632    4.3034632    7016.2534    12860.382   -9486.7428    17675.121    4663.2241   -859.31045    12774.242    79.699261 
   53300    605.08949   -114.78858   0.54749769   -114.24108   -20529.268    4.3200147    4.3200147    4.3200147   -20529.268    14557.295   -49233.426   -26911.672   -1545.5043   -7707.2063   -29882.638    80.622388 
   53400    656.33334   -114.83127    0.5938642   -114.23741   -4101.3925    4.3070243    4.3070243    4.3070243   -4101.3925    2178.4096   -14426.929   -55.657784   -5592.7032    9361.3719   -17593.941    79.897276 
   53500    1089.9689   -115.21601   0.98622674   -114.22978    6285.7175    4.3005354    4.3005354    4.3005354    6285.7175   -2364.1572    4010.1426    17211.167    5181.8556    11733.442    7416.9328    79.536704 
   53600    888.26258   -115.03634   0.80371865   -114.23262   -15870.052    4.3186532    4.3186532    4.3186532   -15870.052    10719.545   -40952.758   -17376.941    5758.8547   -2873.7444    -23910.21    80.546187 
   53700    664.77632   -114.83574   0.60150359   -114.23423    1127.7135    4.3078733    4.3078733    4.3078733    1127.7135     10759.64   -13100.019    5723.5192    -7007.847   -1300.3167   -25407.152    79.944533 
   53800    841.62298   -114.99538   0.76151816   -114.23386    3186.1382    4.3062557    4.3062557    4.3062557    3186.1382   -21810.059    7645.6718    23722.802    3185.0865    21810.794    10212.259    79.854506 
   53900    961.77034    -115.1034   0.87023002   -114.23317    4597.1968    4.3076332    4.3076332    4.3076332    4597.1968    9876.3719   -12814.618    16729.837    8904.4166    8892.1103   -11099.285    79.931167 
   54000    942.60923   -115.08806   0.85289264   -114.23516    5065.2384     4.309036     4.309036     4.309036    5065.2384    17315.959   -10406.964    8286.7205   -1353.7154   -5843.9347   -25633.411    80.009281 
   54100    589.02537   -114.77378   0.53296253   -114.24082   -9444.1724     4.313829     4.313829     4.313829   -9444.1724   -11529.965   -2323.4683   -14479.084   -7433.2689    21377.664    5088.3063    80.276562 
   54200    801.38944    -114.9639   0.72511401   -114.23879    10022.157    4.3011613    4.3011613    4.3011613    10022.157    12146.549    10493.728    7426.1946    1690.5702    16440.735    4467.1351    79.571435 
   54300     1156.485   -115.28035     1.046412   -114.23394     2254.536     4.314251     4.314251     4.314251     2254.536    11175.511   -9553.1315    5141.2284    2477.7579   -5857.1989   -8967.1192    80.300126 
   54400    805.48235   -114.96985   0.72881736   -114.24103   -4426.7182    4.3097666    4.3097666    4.3097666   -4426.7182   -6040.7467   -2007.2759    -5232.132    -14193.31    2430.2273   -7486.5138    80.049983 
   54500    465.67091   -114.66623   0.42134882   -114.24488    11172.567    4.2968469    4.2968469    4.2968469    11172.567   -12202.822    16229.802    29490.721   -5883.6821     19385.78    8566.0904    79.332227 
   54600    1113.7622   -115.24734    1.0077555   -114.23958   -7707.8177    4.3175782    4.3175782    4.3175782   -7707.8177   -12336.245   -8495.7094   -2291.4991    2168.9027    4666.2615    12880.963    80.486055 
   54700    1193.2829   -115.31588    1.0797075   -114.23618    5846.6694    4.3071172    4.3071172    4.3071172    5846.6694   -9654.7955   -5220.6861     32415.49   -5710.6294   -3984.2807   -6846.5934    79.902443 
   54800    488.14594   -114.68458   0.44168471    -114.2429   -9947.6934    4.3057296    4.3057296    4.3057296   -9947.6934   -33972.527    873.66994    3255.7772   -15496.312     21892.44    4436.6166    79.825242 
   54900    693.65852   -114.87022   0.62763681   -114.24258   -14027.442    4.3113908    4.3113908    4.3113908   -14027.442   -8807.8791   -5269.5332   -28004.915    420.65189    9757.5153    13916.591    80.140522 
   55000    1175.9928   -115.29746     1.064063    -114.2334     9844.013    4.3042191    4.3042191    4.3042191     9844.013    20349.551   -9919.3042    19101.792    475.39608   -5640.9729    53.922297    79.741263 
   55100    681.82471   -114.85685   0.61692932   -114.23992   -12504.068    4.3156966    4.3156966    4.3156966   -12504.068   -14148.269   -19936.676   -3427.2573   -13001.834    22239.086   -2025.4961    80.380871 
   55200    531.91532   -114.72341   0.48128816   -114.24212    2081.6117    4.3054133    4.3054133    4.3054133    2081.6117    12745.577    3437.6294   -9938.3716   -4228.3008    14783.003    7914.3496    79.807657 
   55300    1162.9117   -115.28496    1.0522269   -114.23273    8749.2628    4.3046834    4.3046834    4.3046834    8749.2628    19375.022   -6261.5482    13134.314    5144.2961    -5100.302    9821.1545     79.76707 
   55400    733.73518   -114.90374   0.66389901   -114.23984   -9182.3427    4.3163941    4.3163941    4.3163941   -9182.3427   -10469.125   -27365.828    10287.925     666.0306     4243.884   -11606.399     80.41985 
   55500    563.63468   -114.75169    0.5099885    -114.2417    6460.6748    4.3003245    4.3003245    4.3003245    6460.6748    219.39212    4000.8456    15161.786   -14453.256    22081.309   -2225.8458    79.525004 
   55600    1088.2108   -115.22138   0.98463604   -114.23675    8537.7512    4.3108487    4.3108487    4.3108487    8537.7512    21089.567    1139.6473    3384.0399   -820.06369    2884.9335    7592.9497    80.110295 
   55700    998.35996    -115.1403   0.90333707   -114.23696   -1974.3861    4.3141086    4.3141086    4.3141086   -1974.3861    17492.348   -23722.494    306.98704    8437.4908   -10143.522   -10577.064    80.292175 
   55800    273.95083   -114.49216   0.24787647   -114.24428      6781.72    4.3007884    4.3007884    4.3007884      6781.72    6020.4838   -3691.5868    18016.263   -13222.083    23209.145   -6027.3028    79.550741 
   55900    831.99443    -114.9946   0.75280605   -114.24179   -3418.2941    4.3107308    4.3107308    4.3107308   -3418.2941   -1558.0442   -7387.1494   -1309.6888   -12295.042    14988.956    2045.7052    80.103725 
   56000    1249.2624   -115.36372    1.1303588   -114.23336   -7.2432949    4.3084611    4.3084611    4.3084611   -7.2432949    8719.4808   -3670.4536   -5070.7571    4883.8711    -11693.09   -2040.5325    79.977262 
   56100    494.78776   -114.69344   0.44769436   -114.24575    -6739.018    4.3054104    4.3054104    4.3054104    -6739.018   -22800.444   -7973.6126    10557.002   -6754.3417    5710.2748   -6679.0775    79.807494 
   56200    588.71893   -114.77744   0.53268526   -114.24475   -3187.6663    4.3063166    4.3063166    4.3063166   -3187.6663   -18412.203   -8574.2767    17423.481   -13088.466    21202.728   -5337.9638    79.857895 
   56300    1047.5527   -115.18388   0.94784774   -114.23603    5169.5307    4.3104827    4.3104827    4.3104827    5169.5307    23197.534   -3734.3378    -3954.604    2070.7886   -6045.9646    10380.997    80.089895 
   56400    794.02678   -114.95878   0.71845212   -114.24033    5473.0646    4.3051006    4.3051006    4.3051006    5473.0646   -4280.1658    14562.151    6137.2081    725.49563   -17890.217   -935.21204    79.790263 
   56500    614.16772   -114.79614   0.55571186   -114.24043    13393.232    4.3034899    4.3034899    4.3034899    13393.232    17416.301    1049.4287    21713.967   -10220.962     20200.48   -8854.8613    79.700745 
   56600    782.73997   -114.94491   0.70823958   -114.23667   -6187.4667    4.3155691    4.3155691    4.3155691   -6187.4667    1580.1644   -14950.437   -5192.1275   -6493.5469    4011.6629    10956.371    80.373751 
   56700     796.4413   -114.95624   0.72063682    -114.2356    11928.042    4.2993392    4.2993392    4.2993392    11928.042    8664.1939    24455.674    2664.2579    5481.7696    -29116.73    11356.231    79.470352 
   56800    896.11383   -115.04871   0.81082262   -114.23788   -1884.6387    4.3070341    4.3070341    4.3070341   -1884.6387   -5013.2578    7470.2445   -8110.9028   -3626.6657    6793.7324   -8277.2538    79.897822 
   56900    704.64934   -114.87514   0.63758153   -114.23756   -16754.004    4.3163973    4.3163973    4.3163973   -16754.004   -24003.283   -16284.557    -9974.172   -11015.638    21545.419   -359.59471    80.420031 
   57000    669.97619   -114.84209   0.60620854   -114.23588    12082.503    4.2930863    4.2930863    4.2930863    12082.503    10542.684    24166.495    1538.3291   -266.87062   -18398.127    27643.028    79.124111 
   57100    902.12897   -115.05355   0.81626525   -114.23729   -10470.202    4.3138276    4.3138276    4.3138276   -10470.202   -14694.801    3316.9716   -20032.776    415.05448   -13314.708   -1284.2161    80.276486 
   57200    846.95878   -115.00176    0.7663461   -114.23541   -9648.1422    4.3123429    4.3123429    4.3123429   -9648.1422   -15431.792   -330.04875   -13182.586   -6261.0877     19285.32   -13287.406    80.193627 
   57300    487.82744   -114.67776   0.44139652   -114.23636    14085.259    4.2971442    4.2971442    4.2971442    14085.259    13429.091    6254.8347    22571.852   -7427.0553    1548.3658    28007.143    79.348694 
   57400    893.44946   -115.04312   0.80841185   -114.23471   -15445.617    4.3158755    4.3158755    4.3158755   -15445.617   -8365.4735   -17892.804   -20078.573    2061.3887   -18046.448     12553.85    80.390868 
   57500    948.86966    -115.0907   0.85855721   -114.23215    12551.334    4.3032581    4.3032581    4.3032581    12551.334    1854.1098    13500.495    22299.398    1750.8169    9791.5396   -14689.963    79.687866 
   57600    571.35646   -114.75847   0.51697533   -114.24149   -1690.2853    4.3059047    4.3059047    4.3059047   -1690.2853    15098.977   -16456.735   -3713.0983   -9940.3606    12908.709    16880.574    79.834983 
   57700    627.70944   -114.80867   0.56796469   -114.24071      -8153.4    4.3124335    4.3124335    4.3124335      -8153.4    9158.3136   -28776.571   -4841.9428   -5893.6475   -4257.8341    32340.437     80.19868 
   57800    1120.6792   -115.24519    1.0140141   -114.23118    13434.337    4.3003582    4.3003582    4.3003582    13434.337    9097.1326    6879.2564    24326.621    12446.512   -1546.7608   -10488.015    79.526872 
   57900    700.84126   -114.87325    0.6341359   -114.23912   -15695.206      4.31591      4.31591      4.31591   -15695.206    4545.7388   -27979.517   -23651.842    4902.3109     7325.135    8024.3859    80.392799 
   58000    458.58099   -114.65606   0.41493372   -114.24112   -900.33116    4.3056483    4.3056483    4.3056483   -900.33116    40776.817   -26304.331    -17173.48   -9585.9977    9224.8739    39025.518    79.820725 
   58100    1057.5935   -115.19133   0.95693282    -114.2344    9668.1979    4.3020478    4.3020478    4.3020478    9668.1979    8756.6357   -4535.9163    24783.874    11931.423   -6292.9283   -3377.6455    79.620644 
   58200    859.30211   -115.01273   0.77751461   -114.23521   -11931.248    4.3171509    4.3171509    4.3171509   -11931.248   -11496.789   -19229.673   -5067.2811    18917.524    1231.9936    3652.0293     80.46216 
   58300    554.85478   -114.74156   0.50204427   -114.23951    3033.9104    4.3009536    4.3009536    4.3009536    3033.9104    27627.555   -6304.7762   -12221.048   -3159.6612    12590.238    37327.442     79.55991 
   58400    832.83092   -114.99224   0.75356292   -114.23867    1578.7103    4.3084277    4.3084277    4.3084277    1578.7103   -191.39575   -8140.7918    13068.318    845.23247    1253.8202     9668.833      79.9754 
   58500    972.41565   -115.11408   0.87986212   -114.23421   -8928.6588     4.313656     4.313656     4.313656   -8928.6588   -25172.014   -17169.133    15555.171    24288.832   -2679.8396   -4430.8369    80.266906 
   58600    684.90623   -114.85572   0.61971755     -114.236    5174.6349    4.3004442    4.3004442    4.3004442    5174.6349    18041.937   -5803.4433    3285.4111    4438.4559    5936.6269    31664.423    79.531642 
   58700    813.71259   -114.97195   0.73626425   -114.23569   -14214.362    4.3151066    4.3151066    4.3151066   -14214.362   -4544.0985   -14619.005   -23479.983   -8473.9461    9851.5463    20742.103    80.347913 
   58800    940.86153   -115.08629   0.85131128   -114.23498    321.07511    4.3047798    4.3047798    4.3047798    321.07511   -8350.3456   -14905.049    24218.619    14765.298   -222.61128   -13609.496    79.772429 
   58900    840.86304   -114.99727   0.76083055   -114.23644    4339.2643    4.2997175    4.2997175    4.2997175    4339.2643    18941.683   -10161.579    4237.6894    11347.657   -3994.0997     17819.42    79.491329 
   59000    839.90143   -114.99613   0.75996046   -114.23617   -14813.909    4.3188362    4.3188362    4.3188362   -14813.909    3773.5667   -8883.5687   -39331.725   -3094.1276    14865.187    23341.353    80.556427 
   59100    897.41074   -115.04642    0.8119961   -114.23442    8200.7261    4.3012989    4.3012989    4.3012989    8200.7261    17695.265   -4297.2826    11204.196    7810.9247    10923.525   -9344.8018    79.579073 
   59200    768.94123   -114.93187   0.69575419   -114.23612    7348.4868    4.3040816    4.3040816    4.3040816    7348.4868    7034.7159    -12232.17    27242.914    14562.419   -6053.3095   -1423.7045    79.733622 
   59300     942.5626   -115.08617   0.85285045   -114.23332   -8201.6762    4.3146641    4.3146641    4.3146641   -8201.6762    6254.7775   -8183.9472   -22675.859    137.22981    11935.148     15875.03    80.323194 
   59400     864.6853   -115.01618   0.78238543   -114.23379    17228.633    4.2984318    4.2984318    4.2984318    17228.633    18926.008    15863.072    16896.818   -837.09149    16741.034    5067.8939    79.420043 
   59500    635.08568   -114.81528   0.57463887   -114.24064   -5899.1936    4.3093777    4.3093777    4.3093777   -5899.1936   -15359.301   -17988.789    15650.509    20013.886   -1322.7446   -15212.194    80.028314 
   59600    845.64832   -115.00423   0.76516037   -114.23907    123.81758     4.307862     4.307862     4.307862    123.81758    5903.5826   -17414.251    11882.121    4825.3004   -1049.3759   -75.689984    79.943902 
   59700    1108.8348   -115.23707     1.003297   -114.23377    12682.414    4.3018869    4.3018869    4.3018869    12682.414    14419.749    17395.066    6232.4266    -5781.737    9386.0048    9783.4572    79.611712 
   59800     583.9133    -114.7693   0.52833702   -114.24097   -7010.9812    4.3129264    4.3129264    4.3129264   -7010.9812   -8428.1282   -14250.387    1645.5716     19950.83    11676.806    -9060.197    80.226184 
   59900     584.6012   -114.76973   0.52895945   -114.24077    1258.0883    4.3048641    4.3048641    4.3048641    1258.0883    20396.599    -35565.38    18943.046    10926.394   -6211.2388   -7340.9619    79.777116 
   60000    1093.8202   -115.22357   0.98971152   -114.23386    9657.0528    4.3042959    4.3042959    4.3042959    9657.0528    16189.446    568.77116    12212.942   -9791.7296    5322.6538    668.43524    79.745533 
   60100    1004.6771   -115.14752   0.90905293   -114.23847   -2438.6712    4.3073274    4.3073274    4.3073274   -2438.6712    10996.322   -10446.156   -7866.1795    8167.5821    12791.246   -221.31051    79.914145 
   60200    370.31175   -114.58185   0.33506586   -114.24679   -2216.0021    4.3056521    4.3056521    4.3056521   -2216.0021    18474.917   -38785.472    13662.548    25439.481   -1108.2953   -12790.489    79.820935 
   60300    831.11629   -114.99348   0.75201148   -114.24147   -9997.5667    4.3079007    4.3079007    4.3079007   -9997.5667    -6024.345   -29487.535    5519.1805   -10502.466   -1736.9769   -6233.2153    79.946058 
   60400    1007.7248   -115.14535   0.91181058   -114.23354   -2926.9261    4.3077698    4.3077698    4.3077698   -2926.9261    8070.2171   -9256.4219   -7594.5736   -5676.6478   -500.40783    12259.186    79.938768 
   60500    615.20794   -114.79414   0.55665308   -114.23749   -18551.845    4.3100078    4.3100078    4.3100078   -18551.845   -11785.709   -41751.111    -2118.714    30027.535    6391.3753   -6737.9333    80.063425 
   60600    617.18296   -114.79554   0.55844011    -114.2371    -1932.702    4.3031259    4.3031259    4.3031259    -1932.702   -3023.5086   -17788.563    15013.966    5417.5182   -3211.3034   -11916.472    79.680519 
   60700    1012.8156   -115.14967   0.91641683   -114.23325   -4990.2296    4.3060102    4.3060102    4.3060102   -4990.2296    1961.8838   -4587.3858   -12345.187   -12336.941    -11200.53    9547.1194     79.84085 
   60800    549.41521   -114.73754   0.49712243   -114.24042   -11090.954    4.3113011    4.3113011    4.3113011   -11090.954   -9146.5194   -20410.387    -3715.956    18848.539    2155.2615    11595.122    80.135524 
   60900    664.56585   -114.83972   0.60131315   -114.23841    1924.5181    4.3028229    4.3028229    4.3028229    1924.5181   -8009.3398   -3993.0507    17775.945    28794.503    2012.6347   -6539.2219     79.66369 
   61000    976.09879   -115.11697    0.8831947   -114.23377    8469.0306    4.3073578    4.3073578    4.3073578    8469.0306    15896.521    7222.0479    2288.5227   -8571.0894   -8283.2057   -7318.2962    79.915837 
   61100     635.8648   -114.81212   0.57534384   -114.23678    -5315.323    4.3121283    4.3121283    4.3121283    -5315.323   -12127.654   -718.22381   -3100.0913    4109.6259   -10135.738    16895.481    80.181657 
   61200    495.00767   -114.68777   0.44789334   -114.23988   -971.96107    4.3030618    4.3030618    4.3030618   -971.96107   -793.28826   -17573.835     15451.24    32483.455    4767.0244    5133.7593    79.676961 
   61300    1014.4949   -115.15414   0.91793627    -114.2362     9730.095    4.3015828    4.3015828    4.3015828     9730.095    9827.5465    2148.2324    17214.506    2760.7452    4313.5764   -13435.662     79.59483 
   61400    887.67028   -115.04049   0.80318272   -114.23731   -2259.4716    4.3125427    4.3125427    4.3125427   -2259.4716   -7157.8768    3080.7444   -2701.2824   -5196.6764   -19647.505    10837.477    80.204775 
   61500    431.44107   -114.63545   0.39037695   -114.24507   -10807.485    4.3081116    4.3081116    4.3081116   -10807.485    -9789.779   -23357.322    724.64603    27721.917   -1345.6528    19403.781    79.957801 
   61600     844.1867   -115.00193   0.76383786    -114.2381    4181.2455    4.3016409    4.3016409    4.3016409    4181.2455   -2491.9455   -3160.0521    18195.734    18009.949    9131.6143    2240.9827    79.598057 
   61700         1080   -115.20953   0.97720674   -114.23232   -3296.2461    4.3141299    4.3141299    4.3141299   -3296.2461   -12330.812    16721.814   -14279.741   -12581.781   -17591.675   -5824.0298    80.293361 
   61800    577.42735   -114.76278    0.5224684   -114.24031   -8772.6251    4.3077903    4.3077903    4.3077903   -8772.6251   -4214.5523   -8612.7186   -13490.604    18311.013   -12766.588    14410.488    79.939911 
   61900    598.31105   -114.78362   0.54136441   -114.24225    1621.1767    4.2987247    4.2987247    4.2987247    1621.1767   -1931.5015   -8230.2651    15025.297    35791.235    6444.9277    15212.519    79.436279 
   62000    1187.6199   -115.31222    1.0745834   -114.23764   -1124.7777    4.3110826    4.3110826    4.3110826   -1124.7777   -2774.2929    4015.4163   -4615.4564   -4910.5365    739.19402   -6115.5109    80.123339 
   62100    833.52325   -114.99472   0.75418936   -114.24053    4160.8903     4.310395     4.310395     4.310395    4160.8903    16171.613    6031.8961    -9720.838    3249.7707   -18041.953    2994.2064    80.085008 
   62200    464.18695   -114.66336   0.42000611   -114.24335   -3011.3958    4.3085264    4.3085264    4.3085264   -3011.3958    5541.0435   -25827.947    11252.717    37698.077    831.25072    10989.395    79.980898 
   62300    1039.8024    -115.1735   0.94083503   -114.23267     2126.368    4.3097394    4.3097394    4.3097394     2126.368    12602.975   -13467.565    7243.6942    8602.0285    5337.1041    5075.5654     80.04847 
   62400    1196.0303   -115.31433    1.0821934   -114.23214    9937.1226    4.3014947    4.3014947    4.3014947    9937.1226    10593.865     12842.54    6374.9635   -9161.4942   -15635.865   -1927.2642    79.589941 
   62500    495.78536   -114.69578   0.44859702   -114.24718   -10530.191    4.3073327    4.3073327    4.3073327   -10530.191   -17973.754   -27920.841    14304.023    33583.167   -7591.2132    11862.852    79.914439 
   62600    689.22063   -114.86887   0.62362131   -114.24525   -9141.9297    4.3113848    4.3113848    4.3113848   -9141.9297   -3225.6453   -35321.295    11121.151    23129.392    3400.1643    17301.129    80.140189 
   62700    1330.4708   -115.43624    1.2038379    -114.2324    137.71677    4.3080606    4.3080606    4.3080606    137.71677    8054.4593    1439.1973   -9080.5063   -15025.808    4062.0924   -12287.998    79.954962 
   62800    678.81818   -114.85302   0.61420895   -114.23881   -2798.1549    4.3066526    4.3066526    4.3066526   -2798.1549   -17573.883   -13060.362    22239.781    24340.851   -14812.675    2470.2351    79.876589 
   62900     527.2676   -114.71923   0.47708281   -114.24215   -5785.4679    4.3075089    4.3075089    4.3075089   -5785.4679    2262.8475   -32737.883    13118.632    27880.701   -1866.5192    16819.626    79.924249 
   63000    1025.6145   -115.16282   0.92799756   -114.23482   -784.65932    4.3106208    4.3106208    4.3106208   -784.65932    15553.391   -4139.7003   -13767.669    -8853.895     7911.206     1318.554     80.09759 
   63100     974.4376   -115.11814   0.88169162   -114.23645    7162.3536    4.3001682    4.3001682    4.3001682    7162.3536    6938.7872    2040.4599    12507.814    9416.0865   -10427.055   -10424.612    79.516332 
   63200    444.62208   -114.64884    0.4023034   -114.24653    742.69154    4.3074991    4.3074991    4.3074991    742.69154   -6643.4645   -7875.8026    16747.342    35342.838   -5307.6125    8457.9281    79.923703 
   63300    820.61706   -114.97974   0.74251156   -114.23723   -10201.472    4.3164874    4.3164874    4.3164874   -10201.472    1933.9575   -11342.612   -21195.761    6439.6944    1226.4601    21771.474    80.425068 
   63400    1018.9355   -115.15141   0.92195426   -114.22945    10779.164    4.3028225    4.3028225    4.3028225    10779.164    13973.052    10859.804    7504.6378   -5275.7286    2207.7095   -13785.736    79.663668 
   63500    541.09867   -114.72579   0.48959745    -114.2362   -6651.4913    4.3085269    4.3085269    4.3085269   -6651.4913   -20307.651   -7450.3979    7803.5748    31347.817    -11075.98    71.544367    79.980928 
   63600    567.62918   -114.75418   0.51360281   -114.24057   -4183.0416    4.3053534    4.3053534    4.3053534   -4183.0416    2261.6633   -16503.279     1692.491    14083.307    -6150.994    31582.979    79.804325 
   63700    991.66996   -115.13373   0.89728382   -114.23645    11384.567    4.3037488    4.3037488    4.3037488    11384.567    22625.039    3023.0135    8505.6467   -11543.879    4947.1345    4996.9704    79.715127 
   63800    832.33512   -114.99069   0.75311431   -114.23757   -9089.8338    4.3150483    4.3150483    4.3150483   -9089.8338   -16214.606   -9596.4096   -1458.4855    17814.461   -9199.2501   -14681.521    80.344653 
   63900    323.83911    -114.5348   0.29301643   -114.24178    6295.4453    4.3032845    4.3032845    4.3032845    6295.4453    3638.7598    -5688.909    20936.485    21820.178   -10571.146    17252.607    79.689328 
   64000    911.16874   -115.05919   0.82444462   -114.23474   -1217.3495     4.307868     4.307868     4.307868   -1217.3495    14422.591   -8691.7244   -9382.9148   -3650.2757   -4086.2822    28805.828    79.944238 
   64100    1019.9464   -115.15483   0.92286891   -114.23196    76.072732     4.310015     4.310015     4.310015    76.072732    642.89594    4986.5965   -5401.2742    797.80981     206.4363   -14379.983    80.063826 
   64200    506.90016   -114.70029   0.45865392   -114.24163   -2606.6913    4.3003604    4.3003604    4.3003604   -2606.6913    -2160.751   -8743.1384    3083.8155    25417.218    -8197.977    1663.5471    79.526992 
   64300    529.16653   -114.72432     0.478801   -114.24552   -13711.247     4.310644     4.310644     4.310644   -13711.247    6515.4183   -24417.711   -23231.448    7980.6606   -5565.9754     35785.74    80.098887 
   64400    1133.7108   -115.26057    1.0258054   -114.23477   -3786.1655    4.3095539    4.3095539    4.3095539   -3786.1655    7880.5322   -5845.7525   -13393.276   -15427.473    9076.7457    1908.3466    80.038135 
   64500    781.45101   -114.94323    0.7070733   -114.23616   -865.29168     4.304927     4.304927     4.304927   -865.29168   -1655.1468   -3755.1122    2814.3839    22560.385     -4613.59   -4998.1615    79.780612 
   64600    494.03383   -114.68806   0.44701219   -114.24105   -11407.892    4.3097776    4.3097776    4.3097776   -11407.892    8172.3809   -20707.911   -21688.146    19890.208   -3969.8971    24485.459    80.050597 
   64700    861.92723   -115.01531   0.77988987   -114.23542    1535.0765    4.3082991    4.3082991    4.3082991    1535.0765    18094.145   -6210.7976    -7278.118   -13037.213    688.63759    16374.689    79.968238 
   64800    963.16919   -115.10554   0.87149573   -114.23404    5454.7589    4.3051537    4.3051537    4.3051537    5454.7589   -4162.2404   -326.29148    20852.809   -2956.4821    3889.2167   -9117.1948    79.793219 
   64900    674.40631   -114.84982     0.610217    -114.2396   -3427.4727    4.3074544    4.3074544    4.3074544   -3427.4727    3345.0124   -17930.951    4303.5205     19471.69   -2956.4122    13268.648    79.921215 
   65000    700.01309    -114.8715   0.63338656   -114.23811   -1545.5454    4.3110709    4.3110709    4.3110709   -1545.5454    21349.498   -18262.966   -7723.1679    54.785341   -4801.9064    25576.843    80.122683 
   65100    976.88785   -115.11559   0.88390865   -114.23168   -860.59518    4.3096704    4.3096704    4.3096704   -860.59518   -2957.5687   -12474.592    12850.375   -21655.092    9162.6193   -6367.2739    80.044622 
   65200     728.4451   -114.89249   0.65911243   -114.23338   -276.32886    4.3068969    4.3068969    4.3068969   -276.32886    4924.1733   -22016.425    16263.265    14270.389   -2675.0689    4522.0208    79.890184 
   65300    737.72093   -114.90434    0.6675054   -114.23683   -1268.0902    4.3064661    4.3064661    4.3064661   -1268.0902     25120.16   -22255.591   -6668.8392    18881.122   -2466.8688     29767.52    79.866215 
   65400    991.33073   -115.13194   0.89697688   -114.23496    5874.3652    4.3070344    4.3070344    4.3070344    5874.3652    15814.906    -1566.455    3374.6445    -15103.18    3232.3938    7651.5149    79.897835 
   65500    878.61205   -115.03272   0.79498665   -114.23774   -1278.3362    4.3085583    4.3085583    4.3085583   -1278.3362    -3897.516    -14397.19    14459.697    2816.7897    1101.8358   -3524.5644    79.982672 
   65600    507.97192   -114.70265   0.45962367   -114.24303   -1083.8602    4.3064193    4.3064193    4.3064193   -1083.8602    12171.733   -17961.882    2538.5678    23304.486    1084.7315      27472.5    79.863612 
   65700    968.93459   -115.11437   0.87671238   -114.23766   -397.96172    4.3080026    4.3080026    4.3080026   -397.96172    19371.123   -8748.8831   -11816.125    2381.2556   -4329.4745    23569.089    79.951732 
   65800     1088.392   -115.21888   0.98479991   -114.23408    6858.6604    4.3074307    4.3074307    4.3074307    6858.6604   -1595.0411    6720.6484    15450.374   -7211.7283    8949.5763   -7805.9482    79.919895 
   65900    629.07462   -114.81087   0.56919993   -114.24167   -2416.5945    4.3078566    4.3078566    4.3078566   -2416.5945    422.72593   -18528.116    10855.607     21710.91    1436.8165    16005.246      79.9436 
   66000     680.3805    -114.8569   0.61562257   -114.24128   -5122.3848    4.3096131    4.3096131    4.3096131   -5122.3848    21579.405   -33535.338   -3411.2215     14350.97   -4452.9809     24714.31    80.041434 
   66100    1139.5454   -115.26482    1.0310846   -114.23374    8710.5795    4.3036277    4.3036277    4.3036277    8710.5795    19131.888   -2832.2362    9832.0868   -9199.0793    7993.0366   -12392.363    79.708397 
   66200    877.61488    -115.0328   0.79408438   -114.23871     842.5959    4.3083834    4.3083834    4.3083834     842.5959    5657.8325   -17793.602    14663.557     11391.89     1970.777   -3158.0356    79.972933 
   66300    698.58916   -114.87114   0.63209815   -114.23904   -9035.3174    4.3128728    4.3128728    4.3128728   -9035.3174    3435.5644    -36854.12    6312.6031    18651.208    1191.2486    21911.905    80.223195 
   66400    951.78144   -115.09448   0.86119185   -114.23329    2777.9066    4.3036721    4.3036721    4.3036721    2777.9066    17584.805   -13411.169     4160.084   -2706.6086   -2681.0639    -6073.611    79.710865 
   66500    864.06766   -115.01767   0.78182658   -114.23584    1643.6537    4.3053823    4.3053823    4.3053823    1643.6537    9858.2609   -5659.7035    732.40368   -731.89065    6670.2031   -24806.665    79.805929 
   66600    782.80111    -114.9465    0.7082949   -114.23821   -11840.819    4.3122127    4.3122127    4.3122127   -11840.819   -27102.607   -14488.354    6068.5033    24645.117    11048.188    13075.402    80.186366 
   66700    872.79649   -115.02503    0.7897246   -114.23531    775.87453    4.3050248    4.3050248    4.3050248    775.87453   -687.65489   -12816.145    15831.423    6251.0521   -2816.5502     8893.477    79.786049 
   66800    837.06181   -114.99273   0.75739111   -114.23534   -3300.8353    4.3082822    4.3082822    4.3082822   -3300.8353    5518.8618   -10488.281   -4933.0868   -4744.2514    2975.9884   -27225.943    79.967297 
   66900    639.87483   -114.81569    0.5789722   -114.23672   -8449.4946    4.3125631    4.3125631    4.3125631   -8449.4946   -26107.041   -3416.3773    4174.9346    22552.732    6675.1681   -610.86667    80.205915 
   67000     833.0689   -114.98678   0.75377825     -114.233    2114.2014    4.3038032    4.3038032    4.3038032    2114.2014    -11763.86    -10148.26    28254.723    19346.878     3312.795    8371.8316    79.718153 
   67100    831.51601   -114.98712   0.75237316   -114.23475     2275.141    4.3070716    4.3070716    4.3070716     2275.141    20606.406   -19223.998    5443.0147   -5219.1535   -5121.9726   -18976.872    79.899904 
   67200     678.0847   -114.85127   0.61354529   -114.23773   -5115.2643    4.3107595    4.3107595    4.3107595   -5115.2643   -2195.2168   -10139.932   -3010.6443    9403.0443   -850.94903   -10172.713    80.105322 
   67300    572.55882   -114.75575   0.51806325   -114.23768    1271.4075    4.3072812    4.3072812    4.3072812    1271.4075   -7592.3005   -8708.1428    20114.666    28779.832    6436.7117    5971.6388    79.911574 
   67400    753.48848    -114.9179   0.68177221   -114.23613    1005.4657    4.3073348    4.3073348    4.3073348    1005.4657    21392.723   -17336.439   -1039.8874    556.30614   -3909.8784   -9315.6581    79.914556 
   67500    807.93444   -114.96516   0.73103606   -114.23412    3820.7765    4.3068765    4.3068765    4.3068765    3820.7765    30085.801   -16209.464   -2414.0075    -4948.088     1571.294    -22235.23    79.889052 
   67600    678.73989   -114.85112   0.61413811   -114.23698   -4195.3746    4.3092966    4.3092966    4.3092966   -4195.3746   -10561.686   -15730.227    13705.789     28450.86    7637.0808    3302.0777    80.023801 
   67700     635.4418   -114.81336   0.57496109    -114.2384   -5129.5327    4.3066536    4.3066536    4.3066536   -5129.5327   -10743.983   -5170.9928    526.37795    14129.163    4937.6092   -5896.6215    79.876649 
   67800    841.45374   -114.99762   0.76136503   -114.23626   -2272.7174    4.3060279    4.3060279    4.3060279   -2272.7174    17819.861    -12950.96   -11687.053   -10496.083   -975.67889   -30277.681    79.841837 
   67900    885.06264   -115.03673   0.80082328   -114.23591   -5970.2944    4.3090383    4.3090383    4.3090383   -5970.2944   -17518.451   -18821.845    18429.413    16448.184   -2543.6653    2633.7029    80.009411 
   68000    721.06052   -114.88963   0.65243071    -114.2372   -4397.1226     4.306863     4.306863     4.306863   -4397.1226   -17135.337   -10423.028    14366.998    29812.447    12511.418     407.4679      79.8883 
   68100     776.7677   -114.94023   0.70283574   -114.23739   -3311.8266    4.3072739    4.3072739    4.3072739   -3311.8266    21597.111   -14798.845   -16733.745   -7025.6186    195.45527   -26544.729    79.911164 
   68200    844.12692   -114.99958   0.76378378   -114.23579    5178.4106    4.3056829    4.3056829    4.3056829    5178.4106     15795.39   -18248.394    17988.236    5624.5981   -4613.3835   -6969.7924    79.822648 
   68300    663.89304   -114.83878   0.60070437   -114.23808    4106.0193    4.3083354    4.3083354    4.3083354    4106.0193    13903.323   -23631.162    22045.897    33460.149    2442.3468    8852.6474    79.970259 
   68400    721.96911   -114.89244   0.65325283   -114.23919   -3778.5626      4.30759      4.30759      4.30759   -3778.5626    10293.841   -18869.267   -2760.2623    6869.5169    4361.6396   -15564.767    79.928761 
   68500    971.40134   -115.11284   0.87894435    -114.2339    7369.3411    4.3022005    4.3022005    4.3022005    7369.3411    23819.988   -2894.1691    1182.2048   -5685.9839    7269.9303    -16602.76    79.629125 
   68600    691.63289   -114.86501   0.62580398   -114.23921   -16855.643    4.3138284    4.3138284    4.3138284   -16855.643   -27069.894   -40015.743    16518.709    31122.767   -6098.4534    12479.942    80.276529 
   68700    596.08281    -114.7797   0.53934825   -114.24035    -7521.028      4.30444      4.30444      4.30444    -7521.028   -9115.7311   -25300.224    11852.871    18956.947    5307.8721   -1001.6368    79.753541 
   68800    1014.4998    -115.1527   0.91794071   -114.23476    5834.2359    4.3007207    4.3007207    4.3007207    5834.2359    20286.697    6071.5533   -8855.5424   -13304.407    15581.403   -17637.392    79.546984 
   68900    767.53014   -114.93228    0.6944774    -114.2378   -11157.407     4.314445     4.314445     4.314445   -11157.407   -1165.1659   -28114.124   -4192.9298     20313.35   -5284.6961    6512.2692    80.310957 
   69000    401.02729   -114.60504   0.36285792   -114.24218    7083.2573    4.3022415    4.3022415    4.3022415    7083.2573    26779.418   -31054.337    25524.691    21769.063    1627.7019    10944.628    79.631399 
   69100     928.6794   -115.07786   0.84028864   -114.23757    1371.0972    4.3076274    4.3076274    4.3076274    1371.0972    17681.992   -7646.5768   -5922.1236   -12414.797    3908.5392   -5783.0776    79.930844 
   69200    1041.1346   -115.17557   0.94204045   -114.23353   -4888.5391    4.3115208    4.3115208    4.3115208   -4888.5391    11298.684   -13982.232   -11982.069    5673.2123   -1272.2281    1650.0393    80.147771 
   69300    527.40479   -114.71797   0.47720694   -114.24077   -4084.2266    4.3018146    4.3018146    4.3018146   -4084.2266    3001.5193   -28986.789    13732.589    30179.782   -4378.3737    13820.646    79.607697 
   69400    701.98495   -114.87601   0.63517074   -114.24084   -7585.6685    4.3118169    4.3118169    4.3118169   -7585.6685    4974.0582   -31670.948    3939.8845   -10256.769   -629.31672    44.124351    80.164288 
   69500    1062.6636   -115.19561   0.96152034   -114.23409    1767.3291    4.3109894    4.3109894    4.3109894    1767.3291    26054.231   -10996.837   -9755.4061     -14819.5    3021.7036    -2962.696     80.11814 
   69600    649.69451   -114.82806   0.58785725   -114.24021    10909.034    4.2968716    4.2968716    4.2968716    10909.034    39303.694   -8654.7319    2078.1411    24488.715   -5384.9393    12744.693    79.333595 
   69700    442.60724   -114.64806   0.40048033   -114.24758   -18710.228    4.3129758    4.3129758    4.3129758   -18710.228   -15380.213   -40095.695   -654.77754    1829.8057   -3987.8049    6907.6388    80.228942 
   69800    1098.7666   -115.22981   0.99418715   -114.23562    -4520.342    4.3104722    4.3104722    4.3104722    -4520.342    1335.0065    -18684.97    3788.9372   -24901.553    6025.9456   -4990.8109    80.089307 
   69900    931.88087   -115.07741   0.84318539   -114.23422     6802.321    4.3039388    4.3039388    4.3039388     6802.321    19189.842     1907.494   -690.37321     9441.768   -5670.9868    5342.6725    79.725686 
   70000    475.61706   -114.67209   0.43034831   -114.24174   -5541.5677     4.307087     4.307087     4.307087   -5541.5677      14213.4   -26115.175   -4722.9276    19603.929    -4751.699    7148.2561    79.900767 
   70100    767.32606   -114.93401   0.69429274   -114.23972    6615.4795    4.3059751    4.3059751    4.3059751    6615.4795     24176.43   -16703.109    12373.118   -14317.021    2853.3074   -942.67395    79.838902 
   70200    1001.2205   -115.14237   0.90592535   -114.23644    4348.6942    4.3080007    4.3080007    4.3080007    4348.6942    25556.645   -5326.1629   -7184.3997   -7768.8065    4234.0194    2188.2006    79.951626 
   70300    597.35907   -114.78276   0.54050304   -114.24225   -830.53792    4.3057084    4.3057084    4.3057084   -830.53792    32702.972   -18805.745   -16388.841    19063.304    527.04132    7920.7672    79.824067 
   70400    770.74985   -114.93708   0.69739066   -114.23968   -7645.4412    4.3084098    4.3084098    4.3084098   -7645.4412   -6091.5398   -19523.385    2678.6014     12823.84   -9405.9331    2159.0407    79.974402 
   70500    1061.2769   -115.19332   0.96026567   -114.23306   -5098.3909    4.3083268    4.3083268    4.3083268   -5098.3909   -3700.8763   -2767.1017   -8827.1948   -11112.204    10625.431   -3189.4155    79.969783 
   70600    641.75746   -114.81941   0.58067564   -114.23873   -5305.0068     4.307888     4.307888     4.307888   -5305.0068    23352.101   -12162.063   -27105.059     2497.035    9543.1978     6888.176     79.94535 
   70700    637.15733   -114.81776   0.57651335   -114.24124   -3873.4319    4.3069261    4.3069261    4.3069261   -3873.4319    6167.8527   -16074.944   -1713.2044    28539.034   -7545.9021    5897.0583    79.891808 
   70800    1093.1767     -115.226   0.98912927   -114.23687    8937.1578     4.303006     4.303006     4.303006    8937.1578    15231.661    9389.0287     2190.784    5871.5426    3858.3284   -3999.0105    79.673857 
   70900    964.81356   -115.11371   0.87298358   -114.24072   -1622.1139    4.3100705    4.3100705    4.3100705   -1622.1139    19617.132    7981.8678   -32465.342   -9272.2373    7148.4674    5503.7328    80.066923 
   71000    393.97108   -114.60406   0.35647331   -114.24759   -7614.2579    4.3088111    4.3088111    4.3088111   -7614.2579    7084.3669   -14646.379   -15280.762    26194.578     5395.023    3764.2002    79.996751 
   71100    781.94367   -114.95061   0.70751906   -114.24309    7872.0952    4.3019896    4.3019896    4.3019896    7872.0952    14452.037    2738.6674    6425.5808    23258.503   -4182.2628    635.42404    79.617414 
   71200    1232.0737   -115.34848    1.1148062   -114.23368   -6724.4856    4.3131334    4.3131334    4.3131334   -6724.4856   -9883.0461    8979.1164   -19269.527   -11590.766     6187.819     2153.336     80.23774 
   71300    684.68451   -114.86213   0.61951693   -114.24261    -6845.842     4.305637     4.305637     4.305637    -6845.842   -3028.2257   -3365.8178   -14143.483    10500.284    15545.626   -287.09514    79.820096 
   71400    610.73998   -114.79627   0.55261037   -114.24366    5230.2542    4.2976977    4.2976977    4.2976977    5230.2542    8061.7352   -5630.4732    13259.501    32435.864   -6927.1328    5387.0009    79.379362 
   71500    977.98511   -115.12293   0.88490148   -114.23803   -7508.9637    4.3155069    4.3155069    4.3155069   -7508.9637   -12258.523    -3479.623   -6788.7448   -8537.1276   -4475.1721   -2314.5963    80.370276 
   71600    920.27087   -115.06993   0.83268042   -114.23725    2135.5705    4.3058366    4.3058366    4.3058366    2135.5705   -730.32334    5997.4475    1139.5875   -15687.233    10374.396   -2831.9788    79.831196 
   71700    734.23777   -114.90184   0.66435377   -114.23749     6614.874    4.3012881    4.3012881    4.3012881     6614.874    19084.368    -4249.599    5009.8533    24309.332    9316.2375    6523.8974    79.578474 
   71800    804.99826    -114.9647   0.72837935   -114.23632   -6533.9316    4.3130098    4.3130098    4.3130098   -6533.9316   -1803.2623   -10914.749   -6883.7837    8472.6712   -10449.978    392.87772    80.230841 
   71900    792.39843   -114.95449   0.71697875   -114.23751    13413.829    4.2993066    4.2993066    4.2993066    13413.829     4061.985    16433.384    19746.119   -25255.289   -11896.976   -590.02485    79.468545 
   72000    878.43954   -115.03467   0.79483055   -114.23984    1011.3069    4.3063923    4.3063923    4.3063923    1011.3069    3868.0404   -3380.3153    2546.1955    428.40202    16680.858    2287.8533    79.862111 
   72100    832.32833   -114.99224   0.75310817   -114.23913   -1727.3498    4.3093417    4.3093417    4.3093417   -1727.3498     4088.115   -3241.5817   -6028.5827    18391.457   -5385.4901    5381.1736     80.02631 
   72200    664.96969   -114.84187   0.60167855   -114.24019    8721.3369    4.3001212    4.3001212    4.3001212    8721.3369   -5155.9027    14476.812    16843.102   -14615.913   -27113.775    3104.1245    79.513724 
   72300    801.34612   -114.96305   0.72507481   -114.23797   -14658.203    4.3140067    4.3140067    4.3140067   -14658.203   -28571.142   -5995.4834   -9407.9817   -19551.859    9265.5673   -7024.0168    80.286485 
   72400     921.4504   -115.06921   0.83374768   -114.23546   -474.04835     4.301804     4.301804     4.301804   -474.04835   -3137.6934    6903.1841   -5187.6357    10013.016    16411.856    10392.637    79.607112 
   72500    737.38537   -114.90761   0.66720178   -114.24041   -2086.4914     4.300832     4.300832     4.300832   -2086.4914   -9182.7097    10264.331   -7341.0959    534.57697   -27085.624     11378.63    79.553161 
   72600    597.42696   -114.78212   0.54056447   -114.24156   -20846.579    4.3149878    4.3149878    4.3149878   -20846.579   -41702.083   -9329.5089   -11508.146   -19425.196   -15704.505   -7167.1534    80.341276 
   72700    892.57146   -115.04512   0.80761742    -114.2375    2261.9167    4.2988123    4.2988123    4.2988123    2261.9167    -13675.52    14390.627    6070.6431   -8034.3424    29092.561    996.72465    79.441138 
   72800    850.39822   -115.00733   0.76945818   -114.23787    -4768.893     4.306786     4.306786     4.306786    -4768.893   -13917.821    5380.0323     -5768.89    5383.3836   -5101.4375    8704.4073    79.884015 
   72900    644.86599   -114.82382    0.5834883   -114.24033   -7318.0091    4.3093954    4.3093954    4.3093954   -7318.0091   -24500.507    9680.8962   -7134.4171   -8457.8432   -27606.942    6220.0251    80.029301 
   73000    652.68504   -114.83046   0.59056314    -114.2399    7801.8058    4.2999571    4.2999571    4.2999571    7801.8058   -14761.583    13192.962    24974.039    -20104.57    13652.692   -9108.8324    79.504621 
   73100    825.61274   -114.98646   0.74703175   -114.23943   -5980.8706    4.3097137    4.3097137    4.3097137   -5980.8706   -18593.866    1184.1513   -532.89728     4667.628    18908.582    1837.5046    80.047037 
   73200    883.56062   -115.03805   0.79946422   -114.23859    6238.8028    4.3014925    4.3014925    4.3014925    6238.8028    1536.7212    17559.896   -380.20879   -896.70022   -15106.417    17975.048     79.58982 
   73300    610.54689   -114.79525   0.55243565   -114.24281   -115.96552    4.3076717    4.3076717    4.3076717   -115.96552   -9430.2551   -4292.8925    13375.251   -20042.532   -6245.2447   -6695.0265     79.93331 
   73400    594.16301   -114.77894   0.53761118   -114.24132   -12134.436    4.3100122    4.3100122    4.3100122   -12134.436   -22492.401   -10586.585   -3324.3209   -5369.7418    22611.456   -9492.6126     80.06367 
   73500    871.83004   -115.02532   0.78885014   -114.23647    11541.168    4.2972581    4.2972581    4.2972581    11541.168    13607.375    23232.412   -2216.2838    10776.348    4807.5264    9550.0496    79.355001 
   73600    884.76634   -115.03835   0.80055517   -114.23779   -6806.2854     4.312445     4.312445     4.312445   -6806.2854   -9871.8753   -9060.6121   -1486.3687   -13569.831   -7975.8219    5557.6026    80.199326 
   73700     551.8008   -114.74318   0.49928096    -114.2439   -3044.4531    4.3041604    4.3041604    4.3041604   -3044.4531   -15797.711    3470.5516    3193.7996    -27575.96    8139.1789   -11387.473    79.737998 
   73800    590.76886   -114.77848   0.53454008   -114.24394    6873.0143    4.3005327    4.3005327    4.3005327    6873.0143    1700.6058    23767.097   -4848.6596    15866.569    15187.694   -1685.1594     79.53655 
   73900     1020.781   -115.16046   0.92362413   -114.23683   -8565.6107    4.3124817    4.3124817    4.3124817   -8565.6107   -8842.9623   -12382.221   -4471.6487    8014.8279    592.83707    12903.713    80.201372 
   74000    806.84072    -114.9669   0.73004644   -114.23685    10163.493    4.3026981    4.3026981    4.3026981    10163.493   -3935.7401    20724.511    13701.708   -30872.004   -378.62274   -3742.3689    79.656756 
   74100    591.48703   -114.77499    0.5351899    -114.2398   -12791.644    4.3104298    4.3104298    4.3104298   -12791.644   -18514.765   -5494.8318   -14365.334   -94.085642    20078.764   -9659.8182    80.086944 
   74200    810.40327   -114.97113   0.73326991   -114.23786    -980.1436    4.3034803    4.3034803    4.3034803    -980.1436   -3453.1197   -2463.5274    2976.2163    26390.688    8180.1107     1543.972    79.700211 
   74300    980.73986   -115.12441   0.88739404   -114.23701    9212.1248     4.302117     4.302117     4.302117    9212.1248    1280.0035    4438.2004     21918.17   -15513.023   -9075.1705    1426.7918     79.62449 
   74400    732.55279   -114.90338   0.66282916   -114.24056   -9668.4172    4.3136275    4.3136275    4.3136275   -9668.4172    -22995.67     2963.832   -8973.4134   -22905.695    10896.662   -2346.2505    80.265316 
   74500    587.94151   -114.77351   0.53198183   -114.24153    8198.7652    4.2988217    4.2988217    4.2988217    8198.7652   -7399.7888    19491.381    12504.703    22669.202    22401.671   -9567.4004     79.44166 
   74600    879.99834   -115.03546   0.79624099   -114.23922    1900.4226    4.3097687    4.3097687    4.3097687    1900.4226   -13681.405    7715.1315    11667.541    7869.2895   -9266.9508    3224.9664    80.050104 
   74700    897.02343    -115.0468   0.81164565   -114.23516   -2736.1257    4.3123244    4.3123244    4.3123244   -2736.1257   -14540.565    12801.482   -6469.2947   -20893.755   -4595.6641     3418.013    80.192595 
   74800    690.32582   -114.86207   0.62462131   -114.23745    6039.9053     4.295932     4.295932     4.295932    6039.9053   -5288.8499    15134.878    8273.6882    187.12435    32810.589   -6937.1222    79.281563 
   74900    723.82077   -114.89639   0.65492824   -114.24146   -7298.3589    4.3082619    4.3082619    4.3082619   -7298.3589   -18580.101   -5573.3651    2258.3898    23034.248    2004.3986   -4616.7662    79.966166 
   75000    1037.4685   -115.17459   0.93872326   -114.23586    -4819.285    4.3099717    4.3099717    4.3099717    -4819.285   -3964.8926   -2399.5975   -8093.3648    202.83608   -20962.026   -4951.2965    80.061412 
   75100    793.49047   -114.95656   0.71796686   -114.23859    1342.1119    4.3036217    4.3036217    4.3036217    1342.1119   -6249.4584    17057.785   -6781.9909   -11147.009    24088.762     3439.876    79.708062 
   75200    697.87243   -114.87184   0.63144964   -114.24039   -5884.1756    4.3045018    4.3045018    4.3045018   -5884.1756   -12581.421   -1135.6093   -3935.4962    13326.456    24508.257   -7080.1352    79.756977 
   75300    947.32541   -115.09448   0.85715994   -114.23732    -546.0402    4.3066578    4.3066578    4.3066578    -546.0402    4321.0676   -466.75197   -5492.4362    7577.6669   -23987.917   -5428.4946    79.876878 
   75400    851.72665   -115.00901   0.77066017   -114.23835   -5479.8336    4.3103023    4.3103023    4.3103023   -5479.8336   -12472.544    20824.417   -24791.374    -879.7307    2373.3153    8014.9149    80.079837 
   75500    775.71651   -114.94227    0.7018846   -114.24039    7084.7434    4.2979601    4.2979601    4.2979601    7084.7434   -3513.9413    28722.252   -3954.0809   -5999.7047    36454.001   -3781.5045    79.393903 
   75600    802.57216   -114.96821   0.72618415   -114.24202    583.34537    4.3048765    4.3048765    4.3048765    583.34537    6876.5209    4550.1999   -9676.6846    2491.0328   -6732.9785   -12907.271    79.777809 
   75700    768.46207    -114.9357   0.69532063   -114.24038   -11348.482      4.31366      4.31366      4.31366   -11348.482   -16686.883    14417.868   -31776.431    10177.488   -18101.835    -7025.489    80.267132 
   75800    807.00183   -114.96772   0.73019221   -114.23753    9519.8431    4.2974638    4.2974638    4.2974638    9519.8431   -5972.1553    44222.477   -9690.7925   -7124.4355     22941.11    4837.4693    79.366398 
   75900    871.44151   -115.02664    0.7884986   -114.23814   -4304.4768    4.3074225    4.3074225    4.3074225   -4304.4768    1534.5251     3320.028   -17767.984   -8175.2747    13732.357    -10272.47    79.919435 
   76000    715.82004   -114.88779   0.64768902    -114.2401   -6664.8199    4.3086692    4.3086692    4.3086692   -6664.8199   -3482.1265    5582.5602   -22094.894    685.16074   -20423.523   -15420.251    79.988852 
   76100    752.61258   -114.92057   0.68097968   -114.23959    6421.3995    4.2982071    4.2982071    4.2982071    6421.3995   -96.908825     38110.09   -18748.982    9584.8147    1416.3927    4817.6161    79.407588 
   76200    892.05388   -115.04507    0.8071491   -114.23792     -6991.32     4.312307     4.312307     4.312307     -6991.32   -7587.6368    10642.764   -24029.087   -5871.1935    20355.865    1255.6917    80.191627 
   76300    827.62473   -114.98752   0.74885225   -114.23867    4167.1505    4.3038817    4.3038817    4.3038817    4167.1505    5241.5935    5825.6422    1434.2159   -20576.843   -6713.0975   -11162.446    79.722514 
   76400    816.28485   -114.97752   0.73859169   -114.23893    6872.2381     4.300361     4.300361     4.300361    6872.2381    8244.2953    20732.629   -8360.2101    5927.9032    -13021.44    -7029.481    79.527024 
   76500    855.38366   -115.01267   0.77396911    -114.2387   -6416.9423    4.3107294    4.3107294    4.3107294   -6416.9423   -6795.4155    16592.059    -29047.47    2673.8831    9743.8226    3700.6375    80.103647 
   76600     813.4715   -114.97545   0.73604611    -114.2394     8753.818    4.3015417    4.3015417    4.3015417     8753.818    7461.0588    6495.2754     12305.12   -21656.894    11766.491    6091.1967    79.592547 
   76700    885.31281    -115.0397   0.80104963   -114.23865    -1482.233    4.3090468    4.3090468    4.3090468    -1482.233   -3829.2898    748.64139   -1366.0505   -14399.766   -14217.779   -7974.7506    80.009882 
   76800    952.86988   -115.09769   0.86217669   -114.23551   -4128.3993    4.3092529    4.3092529    4.3092529   -4128.3993   -4413.1303    23931.212   -31903.279    6534.0255   -8039.0988   -256.68482    80.021363 
   76900     704.0002   -114.87531   0.63699418   -114.23831    5197.9571    4.2996193    4.2996193    4.2996193    5197.9571    3155.9964    16743.997   -4306.1223   -12953.034    16075.166    16505.246    79.485885 
   77000    763.21818   -114.93182   0.69057585   -114.24125    -9554.339    4.3090446    4.3090446    4.3090446    -9554.339   -10963.028   -17491.609   -208.38061   -30577.896   -245.05119    6641.8159    80.009759 
   77100    1049.1936   -115.18748   0.94933241   -114.23815    1735.1225    4.3051343    4.3051343    4.3051343    1735.1225    -6108.423    25427.566   -14113.775    6227.8169   -20143.906     -7255.61    79.792141 
   77200    836.73085   -114.99837   0.75709165   -114.24128    569.11214    4.3024277    4.3024277    4.3024277    569.11214   -4383.7364    23499.849   -17408.776   -3276.4411    4466.7333      3366.45    79.641739 
   77300    593.92541   -114.78202   0.53739619   -114.24462   -12474.874    4.3106229    4.3106229    4.3106229   -12474.874   -13375.346   -18082.569   -5966.7083   -35567.109    11759.669    18655.806    80.097712 
   77400     1038.122   -115.17636   0.93931463   -114.23705    848.90526    4.3060451    4.3060451    4.3060451    848.90526   -2367.8818    9320.6938   -4406.0962   -10212.759   -9701.6781    4584.0401    79.842794 
   77500    1153.3753     -115.278    1.0435982    -114.2344    5126.6701    4.3029571    4.3029571    4.3029571    5126.6701    4372.0483    23467.366   -12459.404    7576.5525   -4619.5875   -2111.7499    79.671145 
   77600    549.00274   -114.74339   0.49674921   -114.24664   -4434.9298     4.305196     4.305196     4.305196   -4434.9298    4295.0663   -3919.0995   -13680.756   -20525.809    12543.721    13202.319    79.795572 
   77700    656.40407   -114.84354   0.59392819   -114.24962   -380.50619    4.3058167    4.3058167    4.3058167   -380.50619    3223.6377   -4786.1394    420.98316   -28487.992    6222.6559     13949.42    79.830086 
   77800    1368.2579    -115.4762    1.2380285   -114.23817    9975.5932    4.3057138    4.3057138    4.3057138    9975.5932    19470.375    11401.303   -944.89806    9522.1434   -12461.609   -5940.1324    79.824367 
   77900    865.88671   -115.02887   0.78347249    -114.2454   -1433.5605    4.3091875    4.3091875    4.3091875   -1433.5605    502.14506    5296.7086   -10099.535   -6516.1875    8069.1612    3542.8458    80.017719 
   78000    309.48206   -114.52921   0.28002587   -114.24918   -9217.3909    4.3079468    4.3079468    4.3079468   -9217.3909   -8118.1504   -23430.145    3896.1226   -30759.293    14209.301    19180.526    79.948626 
   78100    1148.7919   -115.28156    1.0394511   -114.24211    8098.5004    4.3031139    4.3031139    4.3031139    8098.5004    20164.438    2250.4981    1880.5651    2402.4775    -1364.024    2359.2972    79.679856 
   78200    1398.6558   -115.50415    1.2655332   -114.23862    6857.1129    4.3056176    4.3056176    4.3056176    6857.1129    5857.0347    9700.4861     5013.818    352.85217   -2730.7223    -6901.251    79.819017 
   78300     440.8811   -114.65544   0.39891849   -114.25652   -890.66271    4.3035815    4.3035815    4.3035815   -890.66271    567.84909   -11321.636    8081.7988   -28829.982    7870.4703    13643.104     79.70583 
   78400    539.98959    -114.7437   0.48859393   -114.25511   -4476.1013    4.3099733    4.3099733    4.3099733   -4476.1013     10209.17   -2843.0396   -20794.434   -15501.572    9417.8239    14785.868    80.061502 
   78500    1358.2616   -115.46479    1.2289836    -114.2358    3451.6257    4.3099095    4.3099095    4.3099095    3451.6257    11344.079    6882.3801   -7871.5823     8798.275   -12501.299   -6690.8956    80.057947 
   78600    837.28659    -114.9969    0.7575945   -114.23931    2914.5324    4.3016677    4.3016677    4.3016677    2914.5324    324.37548   -3216.5374    11635.759   -21828.727   -2672.5341    6134.8784    79.599545 
   78700    470.53726    -114.6703     0.425752   -114.24455   -13939.654    4.3094001    4.3094001    4.3094001   -13939.654   -816.10238   -22961.571   -18041.289   -21457.842    12297.321    23241.242    80.029563 
   78800    991.13871   -115.13545   0.89680313   -114.23865   -213.36053    4.3058365    4.3058365    4.3058365   -213.36053    12695.036    5784.9462   -19120.064    8733.8472   -2378.5045    6768.0788    79.831188 
   78900    1043.6469   -115.18099   0.94431369   -114.23668    2979.9931    4.3021545    4.3021545    4.3021545    2979.9931    2007.3779    5203.9895    1728.6118   -10030.532   -10821.865   -5250.3422     79.62657 
   79000     597.4693   -114.78439   0.54060278   -114.24379   -9905.7722    4.3093839    4.3093839    4.3093839   -9905.7722    642.25616   -31714.955    1355.3822   -26632.357    5067.9132    17792.235    80.028659 
   79100    789.44304   -114.95352   0.71430465   -114.23921    -2356.423    4.3067077    4.3067077    4.3067077    -2356.423    9596.6858   -12051.845   -4614.1094   -1441.6294    11922.578    20060.612    79.879658 
   79200    961.35354   -115.10444   0.86985288   -114.23459    5497.3794    4.3054066    4.3054066    4.3054066    5497.3794    2463.9695    8945.9642    5082.2045    3880.0016   -17338.739   -7161.3928     79.80728 
   79300    733.00893   -114.90196   0.66324189   -114.23872   -1154.0323    4.3058017    4.3058017    4.3058017   -1154.0323    1852.1801   -19569.094    14254.817   -21396.822   -13142.769     4941.343    79.829253 
   79400     672.7734   -114.84923   0.60873951   -114.24049   -3771.5167    4.3058522    4.3058522    4.3058522   -3771.5167    14812.194   -24422.719   -1704.0249   -12340.568    10160.257    23553.503    79.832063 
   79500    827.79538   -114.98811   0.74900665    -114.2391    1028.0605    4.3055738    4.3055738    4.3055738    1028.0605    9022.5471    3577.6185   -9515.9842     11050.62   -7881.8579    6640.9614    79.816578 
   79600    891.98087   -115.04413   0.80708304   -114.23705     918.2637    4.3059916    4.3059916    4.3059916     918.2637    3347.2017   -43.077223   -549.33341   -9692.1263   -18276.448   -3832.0368     79.83982 
   79700    753.72711   -114.92039   0.68198813    -114.2384   -8730.0757    4.3087637    4.3087637    4.3087637   -8730.0757    14556.825   -23190.656   -17556.396   -13874.531    1268.9993     20130.08    79.994115 
   79800    659.91583   -114.83579   0.59710571   -114.23868   -3290.7462    4.3048332    4.3048332    4.3048332   -3290.7462    21594.836   -11898.782   -19568.293    7890.7275     7786.568    19205.991    79.775397 
   79900     809.1387   -114.97046    0.7321257   -114.23833    387.06918    4.3061307    4.3061307    4.3061307    387.06918   -2124.8924    9271.1019    -5985.002    5912.7182   -10381.448   -11037.477    79.847555 
   80000     891.2084   -115.04409   0.80638409    -114.2377    2507.2865     4.303695     4.303695     4.303695    2507.2865     13300.09    1392.9244   -7171.1554   -2778.0235   -9951.7219    13075.123    79.712139 
   80100     686.5599   -114.86182   0.62121383    -114.2406    3421.6221    4.3047324    4.3047324    4.3047324    3421.6221    28648.659   -18661.516    277.72374   -2033.0654    10475.447    29331.343    79.769797 
   80200    661.39623   -114.83835   0.59844521    -114.2399   -9053.1053    4.3120572    4.3120572    4.3120572   -9053.1053   -15122.298    -6858.869   -5178.1492    10868.753   -951.59164   -5832.8167     80.17769 
   80300    775.38367   -114.93839   0.70158344   -114.23681    7582.9606    4.2991807    4.2991807    4.2991807    7582.9606    1163.7797    17853.709    3731.3927    4868.3263   -12826.401    237.41212    79.461564 
   80400    816.84004   -114.97832   0.73909403   -114.23923   -4940.7797    4.3058728    4.3058728    4.3058728   -4940.7797    26531.116   -19839.629   -21513.826   -6267.8887   -2007.5399    34967.458     79.83321 
   80500    924.85214   -115.07324   0.83682565   -114.23641   -11404.901    4.3104503    4.3104503    4.3104503   -11404.901    4832.6088   -15022.083    -24025.23    3942.6125    5881.0378     12231.56    80.088088 
   80600    787.45187   -114.95035     0.712503   -114.23785    5171.4726    4.2989169    4.2989169    4.2989169    5171.4726    266.48272    19114.439   -3866.5036    11012.605    -8113.257   -8844.6172    79.446938 
   80700    527.82733   -114.72112   0.47758926   -114.24353   -15090.598    4.3108421    4.3108421    4.3108421   -15090.598    10163.253   -20053.542   -35381.505   -32.942408   -12499.699    35649.831    80.109927 
   80800     954.3151    -115.1035   0.86348435   -114.24002   -3478.1425    4.3055702    4.3055702    4.3055702   -3478.1425    22942.694   -17121.603   -16255.519   -3109.9294    1178.5737    27904.506    79.816379 
   80900    1163.7829   -115.28882    1.0530152   -114.23581    13613.654    4.3001927    4.3001927    4.3001927    13613.654    6829.6531    19866.041    14145.267    6711.5064    2177.2402   -13725.725    79.517691 
   81000    485.38696   -114.68509   0.43918832    -114.2459   -6947.8023    4.3116828    4.3116828    4.3116828   -6947.8023    4386.5868   -15515.583   -9714.4102     7898.116   -8057.5134    23851.095    80.156808 
   81100    522.22187    -114.7195   0.47251732   -114.24698    1087.1593    4.3058917    4.3058917    4.3058917    1087.1593    24823.687   -6049.3227   -15512.887   -6786.2514   -1637.5869    35247.835    79.834263 
   81200    1274.9489   -115.38864    1.1536006   -114.23504     13080.94    4.3031717    4.3031717    4.3031717     13080.94    12260.325    14816.872    12165.622   -3879.4038    4087.8619   -9537.0873    79.683062 
   81300    964.21947   -115.11408   0.87244604   -114.24164    3450.3933    4.3062031    4.3062031    4.3062031    3450.3933    15451.021     1137.432   -6237.2728    14158.023   -1699.8232    8835.1237     79.85158 
   81400    384.84232   -114.59743   0.34821342   -114.24922   -7549.3055    4.3071241    4.3071241    4.3071241   -7549.3055    13562.088   -9315.6069   -26894.398    2094.7775   -4677.5685    41239.923    79.902826 
   81500    925.21666   -115.07955   0.83715548   -114.24239   -4844.8396    4.3053325    4.3053325    4.3053325   -4844.8396   -3780.7413   -4839.5301   -5914.2475   -13324.914   -405.33519    3826.2279     79.80316 
   81600     1158.684   -115.28523    1.0484016   -114.23683    4999.3465    4.3026887    4.3026887    4.3026887    4999.3465    7712.5832    112.60921    7172.8472    1488.8049    3769.1248   -8441.1355    79.656237 
   81700     700.1435   -114.87659   0.63350455   -114.24308   -8142.0868     4.308058     4.308058     4.308058   -8142.0868    12070.162   -19396.965   -17099.458    9199.8293   -8367.6769    34974.823    79.954813 
   81800    585.29319   -114.77381   0.52958558   -114.24423   -7600.5462    4.3060793    4.3060793    4.3060793   -7600.5462   -8097.0912   -11968.239   -2736.3088   -12136.353   -9753.0274    13772.188    79.844697 
   81900    920.09801    -115.0716   0.83252401   -114.23908    6002.6452    4.3010262    4.3010262    4.3010262    6002.6452    702.77614    438.86764    16866.292   -15437.255    3062.2606   -15550.504    79.563936 
   82000    970.65025    -115.1151   0.87826474   -114.23683    544.25119    4.3089978    4.3089978    4.3089978    544.25119    15139.932   -21145.361    7638.1826    6578.5566    2552.4227    16928.007    80.007153 
   82100    698.07025   -114.87162   0.63162863   -114.23999   -735.23502    4.3077645    4.3077645    4.3077645   -735.23502    11677.926   -17586.831    3703.1998   -2020.7499   -14227.512    24266.738    79.938474 
   82200    673.50481   -114.84957   0.60940131   -114.24017    3143.6873     4.298604     4.298604     4.298604    3143.6873    -3882.226    1429.6339    11883.654    -20815.66   -13378.112   -6175.4688    79.429592 
   82300    913.17581   -115.06635   0.82626067   -114.24008    -2680.244    4.3061652    4.3061652    4.3061652    -2680.244   -2305.1824   -12948.973    7213.4235   -7601.9089    10978.369   -2386.9894    79.849476 
   82400    951.91232   -115.09897   0.86131027   -114.23766   -4000.0366    4.3095162    4.3095162    4.3095162   -4000.0366    15367.957   -18999.722   -8368.3444    7712.1803    1117.7181    21137.377    80.036034 
   82500    695.47235   -114.86864   0.62927799   -114.23936   -4949.9044    4.3039995    4.3039995    4.3039995   -4949.9044    -12852.85     356.0157    -2352.879   -18522.094   -22249.971    5834.1261     79.72906 
   82600    762.92677   -114.93021   0.69031218   -114.23989   -6082.8765    4.3042906    4.3042906    4.3042906   -6082.8765   -28377.461   -637.74211    10766.574   -19753.862   -2361.9135   -4215.7584    79.745235 
   82700    996.16296   -115.13849   0.90134918   -114.23714     2052.452    4.3034802    4.3034802    4.3034802     2052.452    11212.605    -12012.83    6957.5809    7867.6365     11844.72    10559.054    79.700205 
   82800    723.37053   -114.89655   0.65452085   -114.24203   -2750.7524    4.3084223    4.3084223    4.3084223   -2750.7524   -8348.0767   -3467.2156    3563.0351    3741.5613   -10793.077     14222.19      79.9751 
   82900    697.57518   -114.87303   0.63118068   -114.24185    189.67908    4.3052565    4.3052565    4.3052565    189.67908   -23234.313    5901.6303     17901.72   -18783.087   -24452.769    -1316.095    79.798936 
   83000    1006.7047   -115.14665   0.91088756   -114.23577     7113.613    4.3016417    4.3016417    4.3016417     7113.613    13680.578   -9649.0385    17309.299   -7292.6734   -359.85784   -3052.6995    79.598097 
   83100    819.44515   -114.98086   0.74145119    -114.2394   -9832.1676    4.3103564    4.3103564    4.3103564   -9832.1676    1764.9025   -25133.522   -6127.8834    14969.462    2226.6508    13154.303    80.082854 
   83200    588.13884   -114.77615   0.53216038   -114.24399    -1998.193    4.3007108    4.3007108    4.3007108    -1998.193   -13451.227    1679.6684      5776.98   -800.50049   -29460.111    2681.1994    79.546432 
   83300    938.74521   -115.09066   0.84939639   -114.24127    1332.4796    4.3033558    4.3033558    4.3033558    1332.4796   -6096.9444   -480.12223    10574.505   -13728.742   -12661.003   -3868.7247    79.693291 
   83400    930.74287   -115.08087   0.84215571   -114.23871   -13590.299    4.3127148    4.3127148    4.3127148   -13590.299    4020.5792   -32700.175   -12091.301    3026.2986    11351.818    6905.8674    80.214379 
   83500    620.43507   -114.80282   0.56138269   -114.24143    3263.8965    4.2988009    4.2988009    4.2988009    3263.8965    15370.587   -15133.818    9554.9207    10547.856   -15951.495    7979.5626    79.440503 
   83600    916.82167   -115.06925   0.82955952   -114.23969    3449.8798    4.3048915    4.3048915    4.3048915    3449.8798   -12814.767    3756.2498    19408.157   -3506.7614   -18548.417   -1200.4017    79.778641 
   83700    984.10851   -115.12905   0.89044206   -114.23861    3019.4351    4.3074516    4.3074516    4.3074516    3019.4351    2584.3245   -4764.4408    11238.422   -7395.2297    14308.228   -3008.9868    79.921058 
   83800    581.67319   -114.76994   0.52631013   -114.24363    6392.3568    4.3026714    4.3026714    4.3026714    6392.3568    19209.702   -23863.444    23830.812    7146.6887    8048.0553     10179.13    79.655275 
   83900    896.42071   -115.05236    0.8111003   -114.24126   -1054.4831    4.3065736    4.3065736    4.3065736   -1054.4831   -4347.1879   -19145.065    20328.804    7048.3606   -15947.499      5664.13    79.872195 
   84000    1149.0884   -115.27636    1.0397194   -114.23664     13063.46    4.3009018    4.3009018    4.3009018     13063.46   -5394.8769    17299.676    27285.582   -1873.0024    5110.6881   -4115.7461    79.557035 
   84100    645.36845   -114.82899   0.58394293   -114.24505   -10274.055    4.3098227    4.3098227    4.3098227   -10274.055   -1401.5191   -15007.136    -14413.51    776.29716    22701.583    8147.4467    80.053113 
   84200    661.76472   -114.84419   0.59877862   -114.24541   -8999.5248    4.3042604    4.3042604    4.3042604   -8999.5248    9139.9277   -36675.134    536.63207    9587.4594   -3742.9475    7982.4618    79.743558 
   84300    1139.0598   -115.26915    1.0306452    -114.2385     7316.918    4.3002132    4.3002132    4.3002132     7316.918    4696.0006   -2726.8198    19981.573    4485.1123   -1647.4096   -3968.7762    79.518824 
   84400    949.29299    -115.0987   0.85894024   -114.23976   -10166.717    4.3121984    4.3121984    4.3121984   -10166.717   -15152.576   -2771.7415   -12575.834   -7047.2556    28893.402    4280.4626    80.185566 
   84500    677.65964   -114.85636   0.61316068    -114.2432     2422.191    4.2996305    4.2996305    4.2996305     2422.191    15819.049   -15443.541    6891.0644    4108.4108    6215.4083    5953.6343    79.486508 
   84600    920.53948   -115.07412   0.83292347   -114.24119    1868.4128    4.3037153    4.3037153    4.3037153    1868.4128    22468.232   -23421.703    6558.7091    12383.831   -5783.2644   -5946.8185    79.713266 
   84700    966.90736   -115.11345    0.8748781   -114.23857   -3791.6833    4.3098489    4.3098489    4.3098489   -3791.6833   -7439.3735    -5315.459    1379.7826   -6576.9335    14385.931    15.808887    80.054572 
   84800    721.53312   -114.89365   0.65285833   -114.24079    3526.6707    4.3014055    4.3014055    4.3014055    3526.6707    2011.4462    1380.3162    7188.2496   -9085.8983     16070.62    8019.9738    79.584988 
   84900    876.97927   -115.03375   0.79350928   -114.24024   -4173.5101    4.3067689    4.3067689    4.3067689   -4173.5101    35717.265   -25923.666    -22314.13    4359.7843   -3228.6624    959.69011     79.88306 
   85000    1067.5111   -115.20273   0.96590645   -114.23683    4047.4861    4.3029866    4.3029866    4.3029866    4047.4861    19410.197   -5526.3362   -1741.4025   -2046.9345   -1105.0368   -5765.3127    79.672781 
   85100    642.77773   -114.82581    0.5815988   -114.24421   -4137.8589     4.306094     4.306094     4.306094   -4137.8589   -8409.6479    2366.7998   -6370.7287   -11589.199    19367.689    4214.5015    79.845514 
   85200    605.90309    -114.7934   0.54823385   -114.24517   -8928.2859    4.3082075    4.3082075    4.3082075   -8928.2859    26902.804   -25601.441    -28086.22   -3338.1441    6649.7452    8006.7357     79.96314 
   85300    1096.0811   -115.22892    0.9917572   -114.23716    10408.063    4.2991961    4.2991961    4.2991961    10408.063    37917.282    -11921.22    5228.1254    8898.9144   -5051.8551   -6505.2649    79.462419 
   85400    969.76964   -115.11745   0.87746795   -114.23998   -1602.4959    4.3088447    4.3088447    4.3088447   -1602.4959   -1890.1455    4249.3622   -7166.7043   -3906.6374    13760.008   -2459.6558    79.998625 
   85500    664.55239   -114.84422   0.60130097   -114.24292    -4449.431     4.307045     4.307045     4.307045    -4449.431    13075.602   -3153.5148    -23270.38   -10233.308    13960.954    9503.8045    79.898427 
   85600    807.78546   -114.96982   0.73090126   -114.23892    5835.7647    4.3012489    4.3012489    4.3012489    5835.7647     27608.13   -22930.755    12829.919    9875.1621   -4605.7294    2450.0881    79.576297 
   85700    940.43017   -115.08722   0.85092098    -114.2363   -5108.9575    4.3099917    4.3099917    4.3099917   -5108.9575   -661.67484   -15806.083    1140.8857    12594.917    5784.7011   -4664.7798    80.062531 
   85800    820.10593   -114.97902   0.74204908   -114.23697     1606.084    4.3040341    4.3040341    4.3040341     1606.084    11342.783    11883.732   -18408.262   -2677.6089     19718.99    3626.4742    79.730984 
   85900    794.27928   -114.95764   0.71868058   -114.23896    3483.6169    4.3025331    4.3025331    4.3025331    3483.6169    25702.042   -8295.4158   -6955.7757   -2845.3341   -1184.3832    10979.911    79.647592 
   86000    855.61306   -115.01198   0.77417668    -114.2378   -1038.2164    4.3072245    4.3072245    4.3072245   -1038.2164    19927.189   -28334.113    5292.2754    15092.912   -3103.0839    -1748.996    79.908419 
   86100    686.76092   -114.86094   0.62139572   -114.23954   -2014.5767    4.3051906    4.3051906    4.3051906   -2014.5767    4485.2826    3382.2385   -13911.251     12036.41    21712.054   -3222.5405     79.79527 
   86200    592.95761   -114.77873    0.5365205   -114.24221   -9810.9353    4.3053951    4.3053951    4.3053951   -9810.9353   -3093.4095    5869.5398   -32208.936   -9189.7429    8460.0344    12774.472     79.80664 
   86300    960.19212   -115.10675   0.86880201   -114.23795    2506.2481    4.3018131    4.3018131    4.3018131    2506.2481    17939.585   -3537.4144   -6883.4264    4145.7662   -14498.937     6825.817    79.607614 
   86400    1021.8084   -115.16219   0.92455376   -114.23763   -4359.8923    4.3073525    4.3073525    4.3073525   -4359.8923    -3859.389   -1529.3308   -7690.9571    12952.201    18139.981   -3153.1104    79.915544 
   86500     449.8165   -114.65227   0.40700343   -114.24527   -11742.112    4.3061884    4.3061884    4.3061884   -11742.112   -14368.283    11327.755   -32185.809   -3508.5198    24913.771      4106.65    79.850766 
   86600    621.36863   -114.80709   0.56222739   -114.24486    194.55488     4.301317     4.301317     4.301317    194.55488    16360.861    5316.9773   -21094.174   -2868.5056   -19514.312     8722.385    79.580074 
   86700    1105.3164   -115.23682    1.0001135    -114.2367    3358.3014    4.3076649    4.3076649    4.3076649    3358.3014    13217.005    1119.5213   -4261.6224   -2321.7826   -5090.1953    1409.0205    79.932929 
   86800    855.05123   -115.01417   0.77366832    -114.2405    1565.7108    4.3042102    4.3042102    4.3042102    1565.7108     12285.86     8916.542    -16505.27    1642.1839    31495.918   -3142.7011    79.740769 
   86900    449.38515   -114.65274   0.40661313   -114.24612   -9663.3761    4.3038744    4.3038744    4.3038744   -9663.3761   -5914.1109    6804.5766   -29880.594   -4529.7295   -5489.6827    10236.338    79.722106 
   87000    789.43554   -114.95744   0.71429787   -114.24315   -4217.9324    4.3034436    4.3034436    4.3034436   -4217.9324    -4093.267   -6164.7606   -2395.7697   -15456.561   -25612.051    7526.0845    79.698167 
   87100    1106.1424   -115.23799    1.0008609   -114.23712    578.73467    4.3084142    4.3084142    4.3084142    578.73467    11432.432   -6173.8668   -3522.3616    347.99975    18128.551   -8718.9727    79.974647 
   87200    875.82506   -115.03237   0.79246492   -114.23991   -2603.7027    4.3059781    4.3059781    4.3059781   -2603.7027     11552.13    2976.6279   -22339.866    884.08474    6538.2801    4730.1697    79.839069 
   87300    527.41899   -114.72086   0.47721979   -114.24364    2960.3798    4.2987916    4.2987916    4.2987916    2960.3798    13735.468   -1771.9261    -3082.402   -13061.973   -28227.373     12664.27     79.43999 
   87400    839.85494   -115.00347    0.7599184   -114.24356   -5318.3084    4.3103824    4.3103824    4.3103824   -5318.3084    13586.861    -27919.93   -1621.8563   -6103.2252   -3408.2679   -6223.6185    80.084304 
   87500    1209.8257   -115.33134    1.0946758   -114.23667    6403.7379    4.3033483    4.3033483    4.3033483    6403.7379    24768.531   -6236.8342    679.51666    7550.2918    7757.2129   -4113.5099    79.692873 
   87600    785.25459   -114.95376   0.71051485   -114.24324    2931.3321    4.3004497    4.3004497    4.3004497    2931.3321      12470.3   -249.56126   -3426.7428   -947.09606   -19710.722    14389.574    79.531947 
   87700     570.3253   -114.76252   0.51604231   -114.24648   -16352.683    4.3104742    4.3104742    4.3104742   -16352.683   -13357.463   -25014.679   -10685.907   -11427.757   -18908.995    4250.9762    80.089422 
   87800    1121.9865   -115.25371     1.015197   -114.23851    5552.3317    4.3023528    4.3023528    4.3023528    5552.3317    8122.2142   -11173.225    19708.006    117.61397    4897.3511   -12523.249    79.637583 
   87900    1067.6529   -115.20371   0.96603477   -114.23768    1706.6114    4.3052539    4.3052539    4.3052539    1706.6114    14130.647   -5870.4041    -3140.409    3989.6945   -6246.6786    11966.552    79.798788 
   88000    557.19773   -114.74992   0.50416422   -114.24575   -6376.3344    4.3054254    4.3054254    4.3054254   -6376.3344    5749.8903   -5740.4655   -19138.428   -7703.1529   -27453.185    21270.542    79.808324 
   88100    838.45703    -115.0026   0.75865354   -114.24395    5820.6943    4.3036465    4.3036465    4.3036465    5820.6943    6050.3268   -7424.9091    18836.665    -9898.678   -3188.6435   -4119.6095    79.709446 
   88200    1221.5521   -115.34193     1.105286   -114.23665    36.393842    4.3073742    4.3073742    4.3073742    36.393842    5170.0188   -9530.4975    4469.6602    1929.2957    8757.7841    322.35475    79.916747 
   88300    661.38407    -114.8436   0.59843421   -114.24517    5541.0629    4.3000287    4.3000287    4.3000287    5541.0629     15953.72    17511.396   -16841.927   -123.75479   -10723.429    20975.039    79.508591 
   88400    620.04416   -114.80851   0.56102899   -114.24748   -7805.0578    4.3068412    4.3068412    4.3068412   -7805.0578   -14591.175   -13937.717    5113.7194   -19214.912   -12772.237    12857.411    79.887088 
   88500    1111.7376   -115.24517    1.0059235   -114.23925    3179.2901    4.3066736    4.3066736    4.3066736    3179.2901    -5690.568   -7793.9857    23022.424   -10368.934    2530.9037   -7037.7429     79.87776 
   88600     1044.818   -115.18425    0.9453733   -114.23888    8851.6556    4.3002323    4.3002323    4.3002323    8851.6556    10943.613    13458.283    2153.0713    5859.7242     5487.991    9585.4294    79.519888 
   88700    536.27345   -114.72969   0.48523148   -114.24446    -11287.52    4.3097146    4.3097146    4.3097146    -11287.52   -16646.573   -17142.258   -73.730051    -14991.52   -12858.666    19406.352    80.047085 
   88800    790.38424   -114.95716   0.71515627     -114.242   -3700.1824     4.303039     4.303039     4.303039   -3700.1824   -10594.848   -17082.956    16577.257   -22635.517    -9004.644   -4114.9544    79.675693 
   88900    1140.5741   -115.26929    1.0320154   -114.23727     6898.877    4.3006445    4.3006445    4.3006445     6898.877    12911.096   -1385.8634    9171.3984    4035.3174    8228.4361   -12363.164    79.542758 
   89000    878.83799   -115.03718   0.79519108   -114.24199   -10583.037    4.3084928    4.3084928    4.3084928   -10583.037    -10542.65   -11698.967   -9507.4947    180.38881   -2995.2131    10249.909    79.979025 
   89100    478.50825   -114.67962   0.43296432   -114.24666   -8851.8207    4.3023436    4.3023436    4.3023436   -8851.8207   -19562.292   -12015.955    5022.7849   -34423.332   -13087.265     9600.149    79.637073 
   89200     879.2573     -115.038   0.79557049   -114.24243   -5301.7581     4.306718     4.306718     4.306718   -5301.7581   -3422.3812   -7645.5607   -4837.3325   -12531.949   -3112.3034   -20025.667    79.880229 
   89300    1154.7848   -115.27972    1.0448735   -114.23484    2796.4317    4.3070716    4.3070716    4.3070716    2796.4317    3289.0434    6548.8447   -1448.5929    11438.699    6517.0096   -6329.6686    79.899908 
   89400    553.90614   -114.74469   0.50118592    -114.2435    864.74799    4.3004727    4.3004727    4.3004727    864.74799   -18931.268    9682.9521    11842.559   -27493.664   -5572.6431     16093.88    79.533225 
   89500    441.08357   -114.64733   0.39910168   -114.24823   -9030.0915     4.307287     4.307287     4.307287   -9030.0915    -19458.48   -9706.6904    2074.8962   -26559.542   -10778.872   -3606.0317    79.911897 
   89600     1176.035   -115.30206    1.0641012   -114.23795    5959.2129    4.3044149    4.3044149    4.3044149    5959.2129    1712.4254    12917.695    3247.5179    9431.3921    1960.7304   -12502.111    79.752147 
   89700     934.7509   -115.08725   0.84578226   -114.24147    9822.6539     4.302446     4.302446     4.302446    9822.6539   -5624.3631    10454.545     24637.78   -16539.048    1253.2991    3916.1863    79.642758 
   89800    394.81137   -114.60561   0.35723363   -114.24838   -8845.1105    4.3082069    4.3082069    4.3082069   -8845.1105    -24591.07   -21140.894    19196.633   -31592.423   -7231.7152    12002.506    79.963104 
   89900    813.16513    -114.9774    0.7357689   -114.24163    3055.8582    4.3035736    4.3035736    4.3035736    3055.8582   -7718.1875    10202.509    6683.2534    5530.0935   -7407.3724   -4449.3197     79.70539 
   90000    1061.3574   -115.19575    0.9603385   -114.23541    2434.3464    4.3051574    4.3051574    4.3051574    2434.3464   -4050.2597    4110.6715    7242.6276   -5077.4042    7309.0836   -9386.4718    79.793423 
   90100    623.99324   -114.80562    0.5646022   -114.24102   -3148.4356    4.3062146    4.3062146    4.3062146   -3148.4356   -20808.914   -18191.163     29554.77   -36606.268     5114.894    7976.8318    79.852222 
   90200    779.37147   -114.94469   0.70519169   -114.23949    1214.3414     4.301678     4.301678     4.301678    1214.3414   -12145.499    10212.973    5575.5498    -1271.537   -17533.525   -103.71906    79.600116 
   90300     922.3535   -115.07191   0.83456483   -114.23734   -4730.1136    4.3070694    4.3070694    4.3070694   -4730.1136   -16713.492    15757.838   -13234.687    8648.9156    3382.4166   -3732.7919    79.899785 
   90400    735.55165   -114.90641   0.66554259   -114.24087   -8546.9502      4.30483      4.30483      4.30483   -8546.9502   -38322.766    486.36926    12195.547   -31837.026    15211.749   -203.12163    79.775221 
   90500    803.45082    -114.9667   0.72697919   -114.23972    3538.8635    4.3021415    4.3021415    4.3021415    3538.8635   -19968.524    9551.7397    21033.375   -14464.987    -8517.908    4016.9265    79.625846 
   90600    1016.2346   -115.15602   0.91951039   -114.23651   -6485.8001    4.3084812    4.3084812    4.3084812   -6485.8001   -16534.075    6102.5191    -9025.845    15877.482   -5799.3418    7503.6167    79.978382 
   90700    655.79441   -114.83488   0.59337657    -114.2415    1033.4337    4.3023043    4.3023043    4.3023043    1033.4337   -25827.906    16726.203    12202.004    -18598.55    17179.751   -4276.6381    79.634889 
   90800    740.10165   -114.91014   0.66965952   -114.24048   -1472.0159    4.3064111    4.3064111    4.3064111   -1472.0159    -18070.02   -2699.9121    16353.884   -22325.655    10592.898   -193.69903    79.863156 
   90900    955.60935   -115.10093   0.86465542   -114.23627   -1415.3753    4.3083133    4.3083133    4.3083133   -1415.3753   -4679.8928    -8688.719    9122.4859    20230.196   -13386.631    2510.0762    79.969029 
   91000    771.55045   -114.93693   0.69811507   -114.23882    7042.1465    4.2972893    4.2972893    4.2972893    7042.1465   -5210.0018    16893.807    9442.6347    1991.9195    11706.828    3911.6326    79.356732 
   91100    656.82726    -114.8373    0.5943111   -114.24299   -9245.1536    4.3093267    4.3093267    4.3093267   -9245.1536   -22661.791   -982.25529   -4091.4141   -27506.909    20460.522    577.06887    80.025475 
   91200    866.09122   -115.02171   0.78365754   -114.23805   -2577.6646    4.3078832    4.3078832    4.3078832   -2577.6646   -11376.059   -9335.2212    12978.286    6691.6991   -5623.2454   -11474.466    79.945085 
   91300    865.29301   -115.01873    0.7829353    -114.2358    6432.1334    4.2991906    4.2991906    4.2991906    6432.1334   -977.59781    9206.3231    11067.675    18287.915    3399.2035    10460.573    79.462109 
   91400    674.91004   -114.84992   0.61067279   -114.23924   -9785.1103    4.3096706    4.3096706    4.3096706   -9785.1103    -21597.23    5570.1956   -13328.296   -12784.246    21639.039    10140.119    80.044637 
   91500    840.56895   -114.99666   0.76056445    -114.2361    259.65612    4.3048404    4.3048404    4.3048404    259.65612   -11034.307    5888.7476    5924.5272   -7177.9907    8756.6648   -14477.484    79.775801 
   91600    741.75965   -114.90821   0.67115972   -114.23705    2341.7905    4.3040651    4.3040651    4.3040651    2341.7905   -1374.2114   -9131.3161    17530.899    17854.241   -8119.7698   -6303.9598    79.732704 
   91700    669.26667   -114.84452   0.60556655   -114.23895   -7258.4611    4.3064286    4.3064286    4.3064286   -7258.4611   -4186.9925    -3494.447   -14093.944    4611.8619    13526.252    19757.152    79.864128 
   91800    767.17848   -114.93225   0.69415921   -114.23809    2367.8938    4.3028809    4.3028809    4.3028809    2367.8938   -199.32448    12089.721    -4786.715   -9847.8848     15874.57    5538.4537    79.666912 
   91900    908.15535   -115.05859   0.82171805   -114.23687   -4584.0386    4.3072546    4.3072546    4.3072546   -4584.0386    -2828.912   -12072.427    1149.2229     8453.772   -9455.4507   -25368.454    79.910092 
   92000     594.1782   -114.77896   0.53762492   -114.24134   -45.386854    4.3022555    4.3022555    4.3022555   -45.386854      12338.9   -8175.5783   -4299.4826    10121.393    4546.8272    11089.225    79.632176 
   92100    627.60068   -114.81007   0.56786628    -114.2422   -3285.1336    4.3051937    4.3051937    4.3051937   -3285.1336   -550.97768    4609.8667    -13914.29   -893.51838    19932.217    28817.214    79.795441 
   92200    1011.0458   -115.14938   0.91481547   -114.23457   -6299.6347    4.3102446    4.3102446    4.3102446   -6299.6347   -8692.5696    682.93199   -10889.267    1576.7574    1208.1106   -17617.548     80.07662 
   92300    800.08528   -114.96092   0.72393397   -114.23699    6128.0206    4.2989041    4.2989041    4.2989041    6128.0206    14528.244   -2928.2483    6784.0658    7694.1136   -4749.1112    -4937.011    79.446227 
   92400    367.41069   -114.57831   0.33244091   -114.24587    -9423.892    4.3060962    4.3060962    4.3060962    -9423.892    2674.7742   -13595.479   -17350.971    6157.5225    18372.383    34052.349    79.845634 
   92500    783.98861   -114.95325   0.70936937   -114.24388    -7023.148     4.307303     4.307303     4.307303    -7023.148   -5631.6912    5214.5353   -20652.288   -5095.7216    17163.463    7264.4867    79.912787 
   92600    1133.8431   -115.26222    1.0259251    -114.2363    12398.835    4.2995421    4.2995421    4.2995421    12398.835    14302.504    12988.385    9905.6157    245.53231   -7197.2195   -10110.617    79.481604 
   92700    524.91449   -114.72124   0.47495367   -114.24629   -8031.1403    4.3094398    4.3094398    4.3094398   -8031.1403    11187.802   -17715.639   -17565.584    10391.791    11151.076    25715.428    80.031778 
   92800    419.15596   -114.62557   0.37926112   -114.24631    -3889.856    4.3059559    4.3059559    4.3059559    -3889.856    9605.7884    5241.8109   -26517.167     652.9123    23085.963    23530.735    79.837834 
   92900    1145.0676   -115.27173    1.0360812   -114.23565    5949.9843    4.3048538    4.3048538    4.3048538    5949.9843    2827.4751    19580.897   -4558.4196   -2702.1487   -2939.2215   -9690.5685    79.776547 
   93000    985.33314   -115.13033   0.89155014   -114.23878    1164.6835    4.3044354    4.3044354    4.3044354    1164.6835    16319.574    3307.6495   -16133.173    2914.3508   -6221.2042     13948.74    79.753283 
   93100    350.26336   -114.56601   0.31692565   -114.24908   -1328.1357    4.3010945    4.3010945    4.3010945   -1328.1357    10754.024   -1424.7664   -13313.664    7135.6554    21729.414      31004.9    79.567725 
   93200    721.09438   -114.90079   0.65246135   -114.24833   -11387.322    4.3100002    4.3100002    4.3100002   -11387.322   -22762.165    2760.3851   -14160.186   -3188.7785    16877.602    -3323.404       80.063 
   93300    1273.7909   -115.38934    1.1525528   -114.23679    8371.1038    4.3007314    4.3007314    4.3007314    8371.1038    11973.888    10734.897    2404.5267   -7379.6771   -13161.121   -3448.1447    79.547578 
   93400    682.32238   -114.86335   0.61737963   -114.24597   -170.81184    4.3041347    4.3041347    4.3041347   -170.81184    6430.5714   -4488.8419    -2454.165    8535.3438    10116.317    23092.608    79.736574 
   93500    426.54822   -114.63381   0.38594979   -114.24786   -15596.323    4.3117026    4.3117026    4.3117026   -15596.323   -26529.542   -4795.5598   -15463.868    7728.2388    30513.108    13433.426    80.157911 
   93600     1158.762   -115.28597    1.0484722    -114.2375    13116.954    4.2968221    4.2968221    4.2968221    13116.954    9423.7658    20562.444     9364.653    847.44712   -513.68001   -9838.5463     79.33085 
   93700    1107.1603   -115.24106    1.0017819   -114.23928    321.76441    4.3053906    4.3053906    4.3053906    321.76441    9543.8561   -4954.3094   -3624.2535   -1012.2519   -2268.5524   -872.39137    79.806389 
   93800    449.11988   -114.65622   0.40637311   -114.24985   -7590.9462    4.3064745    4.3064745    4.3064745   -7590.9462   -7964.1766    9444.3273   -24252.989    7603.4009    28149.602    20134.002    79.866679 
   93900    734.21637   -114.91035    0.6643344   -114.24601    5614.3813    4.3004829    4.3004829    4.3004829    5614.3813    1478.3971     15773.99   -409.24275    11213.241    19448.662    2021.5929    79.533789 
   94000    1198.3765   -115.32133    1.0843162   -114.23701    -2144.714    4.3085676    4.3085676    4.3085676    -2144.714     8577.937   -11344.927   -3667.1516   -4372.8312   -10030.205     -15422.5    79.983191 
   94100    746.90778   -114.91863   0.67581786   -114.24282    3653.0674     4.300933     4.300933     4.300933    3653.0674    18903.212    10290.716   -18234.726    1157.3447    16697.192    5448.2068    79.558765 
   94200    567.60274   -114.75874   0.51357888   -114.24516   -4459.6425    4.3042533    4.3042533    4.3042533   -4459.6425   -6691.7354    2124.2934   -8811.4855    12484.069    29584.116    13175.965    79.743165 
   94300    936.20411   -115.08702   0.84709715   -114.23992   -5310.5106    4.3073621    4.3073621    4.3073621   -5310.5106   -2433.8773   -17966.399    4468.7447    9248.2675   -12296.226   -8756.8356    79.916075 
   94400    979.36775   -115.12348   0.88615252   -114.23732     7580.394    4.2986267    4.2986267    4.2986267     7580.394    22167.925    5244.7183    -4671.461   -5417.2498    624.65442   -13603.473    79.430849 
   94500    700.51099   -114.87597   0.63383707   -114.24213   -9723.4045    4.3077122    4.3077122    4.3077122   -9723.4045   -17668.511    946.75295   -12448.455    1956.6591    28111.043    10795.247    79.935562 
   94600    706.17964   -114.88074   0.63896618   -114.24177    -2690.549     4.304198     4.304198     4.304198    -2690.549   -7887.0612   -10366.919    10182.334    26873.726    4508.0358    5629.8543     79.74009 
   94700    979.98589   -115.12439   0.88671183   -114.23768    3417.7592    4.3006674    4.3006674    4.3006674    3417.7592    7971.3398    718.48455    1563.4532    1197.7459   -9923.9411    -13483.23    79.544024 
   94800    831.82019   -114.99153   0.75264839   -114.23889   -4975.6208    4.3083725    4.3083725    4.3083725   -4975.6208   -5492.1568     4255.445   -13690.151   -13136.602    16006.975   -542.94148    79.972326 
   94900    641.46766   -114.82153   0.58041342   -114.24112    2016.1243    4.3020305    4.3020305    4.3020305    2016.1243   -4568.0172   -1038.2089    11654.599    26544.534    19437.584    6154.1323    79.619685 
   95000    839.59541   -115.00027   0.75968357   -114.24059    2209.7352    4.3035367    4.3035367    4.3035367    2209.7352    6953.8051   -7528.7424    7204.1429    26280.571   -11715.791   -193.62746    79.703342 
   95100    1040.9794   -115.17851       0.9419   -114.23661    6267.1711    4.3033774    4.3033774    4.3033774    6267.1711     18277.74    6818.8841   -6295.1111   -12991.743    3492.8383   -6486.2983    79.694489 
   95200    580.71471   -114.76994   0.52544288    -114.2445    1777.2041     4.304287     4.304287     4.304287    1777.2041    5574.5789   -3445.5817     3202.615    1126.2737    20399.483   -2006.4679    79.745038 
   95300     576.9856   -114.76584    0.5220687   -114.24377   -6308.6037    4.3089252    4.3089252    4.3089252   -6308.6037   -12526.423   -18519.468     12120.08    37415.634   -134.49505    7137.6543    80.003108 
   95400    1168.9749   -115.29209     1.057713   -114.23438    8427.5021    4.2985507    4.2985507    4.2985507    8427.5021    20840.467    938.60271    3503.4365    5113.3911    610.64116   -1723.5358    79.426636 
   95500     875.3859   -115.03341   0.79206756   -114.24135   -2821.5663    4.3045912    4.3045912    4.3045912   -2821.5663    2634.5852   -3945.7424   -7153.5417   -12447.577     12185.39   -4704.3238    79.761947 
   95600    406.64141   -114.61484    0.3679377    -114.2469   -14275.929    4.3087407    4.3087407    4.3087407   -14275.929    -17551.64   -32457.084    7180.9354     31346.73    13504.955   -351.69895    79.992835 
   95700    790.23432   -114.95787   0.71502062   -114.24284    4723.1707    4.3012321    4.3012321    4.3012321    4723.1707    20415.761    -17476.24    11229.991    17952.732   -7140.6701    9755.0257    79.575365 
   95800    1124.4763   -115.25324    1.0174498   -114.23579   -149.32812    4.3040236    4.3040236    4.3040236   -149.32812    11843.768    213.80755    -12505.56   -10056.472   -12726.277     3992.879    79.730398 
   95900    715.35388   -114.88885   0.64726722   -114.24159   -3732.2811    4.3046072    4.3046072    4.3046072   -3732.2811   -139.51417   -17644.706    6587.3769    20674.946     14050.98   -4009.2884    79.762835 
   96000     563.4058   -114.75391    0.5097814   -114.24413   -7865.6377    4.3050685    4.3050685    4.3050685   -7865.6377    -8320.465   -27137.144    11860.696    27189.649    1468.0732    11066.305    79.788479 
   96100    852.94228   -115.01183    0.7717601   -114.24007    2125.6365    4.3029537    4.3029537    4.3029537    2125.6365    6367.2096    8983.5317   -8973.8318   -6660.9711   -20674.506    9412.4862    79.670954 
   96200    950.14992   -115.09566   0.85971562   -114.23594    -3054.305    4.3073479    4.3073479    4.3073479    -3054.305   -1482.9992    351.10003   -8031.0158    7286.3183   -3129.9075   -1941.2488    79.915283 
   96300    720.06172   -114.89024   0.65152697   -114.23871   -5903.5143    4.3054494    4.3054494    4.3054494   -5903.5143   -13354.248   -18056.873    13700.578    32869.572    11906.119    136.57282    79.809659 
   96400    615.51844   -114.79728   0.55693402   -114.24035    6819.9603    4.2988745    4.2988745    4.2988745    6819.9603    10765.202    11506.083   -1811.4047    3334.7791   -12622.564    12006.343    79.444584 
   96500    826.55394   -114.98824   0.74788338   -114.24036   -298.10043    4.3067802    4.3067802    4.3067802   -298.10043    2504.6524    17032.986    -20431.94   -8549.6117   -30237.721    9980.0872     79.88369 
   96600    960.33947   -115.10652   0.86893534   -114.23759    5307.1021    4.3049745    4.3049745    4.3049745    5307.1021   -2124.5279    3753.6046     14292.23    19314.708    5265.6287   -5314.9921    79.783257 
   96700    734.39796   -114.90436   0.66449871   -114.23987    317.92228    4.3039778    4.3039778    4.3039778    317.92228    2281.0764    863.27992   -2190.5895    20780.731   -116.14564     11244.92    79.727853 
   96800    617.18746   -114.79866   0.55844419   -114.24021   -1909.0113    4.3064137    4.3064137    4.3064137   -1909.0113   -1443.7875    18128.446   -22411.692   -9830.0223   -28471.744    14098.756    79.863298 
   96900    944.57898   -115.09017   0.85467491    -114.2355    2743.6533    4.3028685    4.3028685    4.3028685    2743.6533   -3255.7854    6822.8162    4663.9291    3061.3196   -4386.4042   -2541.6169    79.666219 
   97000    934.59002   -115.08221   0.84563669   -114.23657   -3847.8726    4.3046333    4.3046333    4.3046333   -3847.8726   -4767.0114   -14414.899    7638.2921     24655.95    5932.8322   -1640.9063    79.764288 
   97100     687.2555   -114.86337   0.62184322   -114.24152    -4384.893    4.3026732    4.3026732    4.3026732    -4384.893   -2686.5457     10022.47   -20490.603    4937.1167    -18181.15    6429.5364    79.655376 
   97200    757.19986   -114.92653   0.68513034    -114.2414    1920.2631    4.3042036    4.3042036    4.3042036    1920.2631     663.4073    14462.759   -9365.3775   -11378.236   -16946.848     8587.874    79.740404 
   97300    894.78927   -115.04656   0.80962414   -114.23693   -2887.2558    4.3077651    4.3077651    4.3077651   -2887.2558   -6044.3368   -12497.768    9880.3374   -3085.1105    3624.6382   -7833.2114    79.938511 
   97400    764.32503   -114.92899   0.69157735   -114.23742   -616.33755    4.3025192    4.3025192    4.3025192   -616.33755   -2932.5023    7736.7785   -6653.2888    13968.269   -11925.231   -6015.2498    79.646823 
   97500    803.88844   -114.96541   0.72737515   -114.23803   -580.81452    4.3032623    4.3032623    4.3032623   -580.81452   -7653.6462     23724.12   -17812.917   -6875.1465   -22911.767    4372.0208    79.688096 
   97600    839.03035     -114.996   0.75917229   -114.23682    2124.6059    4.3061917    4.3061917    4.3061917    2124.6059   -8045.4634    3982.2604    10437.021   -23674.836    3604.6272   -5746.1786    79.850948 
   97700     756.2261   -114.92308   0.68424927   -114.23883   -2468.3659    4.3048167    4.3048167    4.3048167   -2468.3659   -6513.8813   -5659.6851    4768.4687    4679.4752     -659.386   -10068.477    79.774479 
   97800    793.34358   -114.95583   0.71783394   -114.23799   -137.22039    4.3030551    4.3030551    4.3030551   -137.22039    -5279.881    20531.797   -15663.578    13364.687   -22566.739   -3809.8845    79.676588 
   97900    821.84008   -114.98232   0.74361817    -114.2387    220.64186    4.3046932    4.3046932    4.3046932    220.64186   -7836.0511    4085.8565    4412.1202   -21426.461   -5092.4357    3263.1807    79.767617 
   98000    854.87465   -115.01231   0.77350855    -114.2388   -1009.6704    4.3057415    4.3057415    4.3057415   -1009.6704   -6029.7856   -14286.067    17286.842   -26240.063    7921.9353   -4650.5746    79.825905 
   98100    893.88627   -115.04638   0.80880708   -114.23757    2437.0355    4.3018275    4.3018275    4.3018275    2437.0355    8881.4554    7448.9266   -9019.2754    13500.148   -21506.646    -13048.67    79.608413 
   98200    771.34334   -114.93762   0.69792767    -114.2397   -7217.4677     4.307344     4.307344     4.307344   -7217.4677   -12353.988   -3249.7688    -6048.646   -4776.1216   -19745.361    1496.1549     79.91507 
   98300    789.73076   -114.95423   0.71456499   -114.23967   -6389.5272    4.3048399    4.3048399    4.3048399   -6389.5272   -15947.305   -20763.831    17542.554   -39069.764    9967.6171    2749.4072    79.775769 
   98400    969.66275   -115.11489   0.87737123   -114.23752    4773.8947    4.2994241    4.2994241    4.2994241    4773.8947    6044.2577    2816.4174     5461.009   -3562.4285    1468.7575   -7199.6039    79.475057 
   98500    970.77748   -115.11678   0.87837986    -114.2384   -7552.3403    4.3075938    4.3075938    4.3075938   -7552.3403   -8679.7594   -1529.8202   -12447.441    7568.7388   -21637.231   -2934.0369    79.928972 
   98600    696.94596   -114.87277   0.63061135   -114.24216   -2227.7469     4.303406     4.303406     4.303406   -2227.7469   -14521.419   -14694.346    22532.525   -28849.653   -7183.6185    4006.2833    79.696082 
   98700    832.12191   -114.99331    0.7529214   -114.24038    2043.3177    4.3030192    4.3030192    4.3030192    2043.3177    490.51505    -3856.326    9495.7642   -18948.139    18589.708   -1207.9315    79.674593 
   98800    1009.1282   -115.14969   0.91308037   -114.23661    1371.3473    4.3061159    4.3061159    4.3061159    1371.3473    3551.3288    7441.5768   -6878.8639    10201.041   -3267.0628   -9909.0073    79.846732 
   98900    868.43302   -115.02417   0.78577644   -114.23839    6840.4251    4.3016559    4.3016559    4.3016559    6840.4251    1283.5712   -2835.3289    22073.033   -19224.205   -19299.439   -492.18909    79.598887 
   99000    697.62557   -114.87245   0.63122627   -114.24122   -3490.5281    4.3072155    4.3072155    4.3072155   -3490.5281    -16158.96     -12215.7    17903.076   -29174.489    10212.959    2484.0161    79.907918 
   99100    960.67366   -115.10772   0.86923772   -114.23849    4854.9619    4.3019392    4.3019392    4.3019392    4854.9619   -180.88562    12038.854    2706.9174    7147.4036    20161.513   -8966.6051    79.614616 
   99200    951.14066   -115.09842   0.86061206   -114.23781    9065.3076    4.3019472    4.3019472    4.3019472    9065.3076    6177.9522    6651.1655    14366.805   -4886.5231    -1188.416   -7180.2339    79.615063 
   99300     759.9501   -114.92778   0.68761882   -114.24016   -9182.4103    4.3102612    4.3102612    4.3102612   -9182.4103   -19715.327   -22662.906    14831.002   -38049.778   -8097.6283   -385.83928    80.077548 
   99400     818.3532   -114.97925   0.74046318   -114.23879    6394.2671    4.2988928    4.2988928    4.2988928    6394.2671     -552.781    6971.2113    12764.371   -5509.1731    16509.798    2017.8515      79.4456 
   99500    917.50364   -115.06846   0.83017657   -114.23828    1667.7943    4.3033115    4.3033115    4.3033115    1667.7943    3547.6075     7678.419   -6222.6436    14143.368    17879.562   -11874.687    79.690833 
   99600    757.44806   -114.92575   0.68535492   -114.24039   -8149.4499    4.3090051    4.3090051    4.3090051   -8149.4499   -10120.084   -22044.735    7716.4689   -32370.581   -9529.1997   -6478.7966    80.007558 
   99700    870.79048   -115.02582   0.78790953   -114.23791    3133.5848    4.3004417    4.3004417    4.3004417    3133.5848   -8271.4436    4557.5435    13114.654   -23216.284   -1759.0412    6672.8016    79.531505 
   99800    948.10506   -115.09445   0.85786538   -114.23658   -4787.0675    4.3054729    4.3054729    4.3054729   -4787.0675    -10841.21     11902.12   -15422.113    15458.047    18451.776   -5804.5106    79.810966 
   99900    684.44611   -114.85981   0.61930122   -114.24051   -1502.8235    4.3040735    4.3040735    4.3040735   -1502.8235   -11793.995    2062.9328    5222.5916   -6800.4642    6371.4199   -9107.1627     79.73317 
  100000    826.50332   -114.98688   0.74783757   -114.23905   -940.33257    4.3032846    4.3032846    4.3032846   -940.33257   -16446.271    428.72699    13196.547   -26003.565   -8487.5816   -2116.7157    79.689339 
Loop time of 22.23 on 1 procs for 100000 steps with 8 atoms

Pair  time (%) = 7.12574 (32.0546)
Kspce time (%) = 5.31811 (23.9231)
Neigh time (%) = 0 (0)
Comm  time (%) = 1.07224 (4.82337)
Outpt time (%) = 0.0248048 (0.111583)
Other time (%) = 8.68912 (39.0874)

Nlocal:    8 ave 8 max 8 min
Histogram: 1 0 0 0 0 0 0 0 0 0
Nghost:    2189 ave 2189 max 2189 min
Histogram: 1 0 0 0 0 0 0 0 0 0
Neighs:    2344 ave 2344 max 2344 min
Histogram: 1 0 0 0 0 0 0 0 0 0

Total # of neighbors = 2344
Ave neighs/atom = 293
Neighbor list builds = 0
Dangerous builds = 0
unfix 20
unfix 21
print "seeds:2576997"
seeds:2576997
