LAMMPS (16 Mar 2018)
# ---- initialize simulations
clear
units metal
dimension 3
boundary p p p
atom_style charge
atom_modify map array
# ---- create atoms
read_data /home/manuelesp/repos/pypospack/dev/MgO_iterative_sampler/rank_7/MgO_NaCl_fr_a.lmps_min_pos/lammps.structure
  triclinic box = (0 0 0) to (12.7919 12.7919 12.7919) with tilt (0 0 0)
  1 by 1 by 1 MPI processor grid
  reading atoms ...
  216 atoms
# ---- define interatomic potential
include potential.mod
mass 1 24.305
mass 2 15.999

group Mg type 1
108 atoms in group Mg
group O type 2
108 atoms in group O

set group Mg charge 1.9179406879711596
  108 settings made for charge
set group O charge -1.9179406879711596
  108 settings made for charge

variable R_cut equal 10.0

pair_style buck/coul/long ${R_cut}
pair_style buck/coul/long 10
pair_coeff 1 1 0.0 0.5 0.0 ${R_cut}
pair_coeff 1 1 0.0 0.5 0.0 10
pair_coeff 1 2 810.4136342137181 0.29896087357084233 0.0 ${R_cut}
pair_coeff 1 2 810.4136342137181 0.29896087357084233 0.0 10
pair_coeff 2 2 4888.921747208894 0.3126294278687661 51.00665792627922 ${R_cut}
pair_coeff 2 2 4888.921747208894 0.3126294278687661 51.00665792627922 10

kspace_style pppm 1.0e-5

neighbor 1.0 bin
neigh_modify every 1 delay 0 check yes
# ---- define settings
compute eng all pe/atom
compute eatoms all reduce sum c_eng

# ---- run minimization
reset_timestep 0
thermo 1
thermo_style custom step pe lx ly lz xy xz yz press pxx pyy pzz pxy pxz pyz c_eatoms
min_style cg
minimize 1e-20 1e-20 1000 100000
PPPM initialization ...
  using 12-bit tables for long-range coulomb (../kspace.cpp:321)
  G vector (1/distance) = 0.345002
  grid = 20 20 20
  stencil order = 5
  estimated absolute RMS force accuracy = 0.000102911
  estimated relative force accuracy = 7.14674e-06
  using double precision FFTs
  3d grid and FFT values/proc = 19683 8000
Neighbor list info ...
  update every 1 steps, delay 0 steps, check yes
  max neighbors/atom: 2000, page size: 100000
  master list distance cutoff = 11
  ghost atom cutoff = 11
  binsize = 5.5, bins = 3 3 3
  1 neighbor lists, perpetual/occasional/extra = 1 0 0
  (1) pair buck/coul/long, perpetual
      attributes: half, newton on
      pair build: half/bin/newton/tri
      stencil: half/bin/3d/newton/tri
      bin: standard
Per MPI rank memory allocation (min/avg/max) = 7.318 | 7.318 | 7.318 Mbytes
Step PotEng Lx Ly Lz Xy Xz Yz Press Pxx Pyy Pzz Pxy Pxz Pyz c_eatoms 
       0    -4029.909      12.7919      12.7919      12.7919            0            0            0     89030.11     89030.11     89030.11     89030.11   -1524.1264   -1524.1264   -1524.1264    -4029.909 
       1   -4063.9055      12.7919      12.7919      12.7919            0            0            0    62190.378    62190.378    62190.378    62190.378   -856.22189   -856.22189   -856.22189   -4063.9055 
       2   -4084.2613      12.7919      12.7919      12.7919            0            0            0    49734.055    49734.055    49734.055    49734.055      49.4287      49.4287      49.4287   -4084.2613 
       3   -4093.9847      12.7919      12.7919      12.7919            0            0            0     48651.65     48651.65     48651.65     48651.65    899.69401    899.69401    899.69401   -4093.9847 
       4   -4097.0257      12.7919      12.7919      12.7919            0            0            0    49604.368    49604.368    49604.368    49604.368    802.42333    802.42333    802.42333   -4097.0257 
       5   -4098.7046      12.7919      12.7919      12.7919            0            0            0    50995.602    50995.602    50995.602    50995.602   -71.519214   -71.519214   -71.519214   -4098.7046 
       6   -4099.3568      12.7919      12.7919      12.7919            0            0            0    52703.537    52703.537    52703.537    52703.537    192.61113    192.61113    192.61113   -4099.3568 
       7   -4099.7462      12.7919      12.7919      12.7919            0            0            0    55402.081    55402.081    55402.081    55402.081   -159.73588   -159.73588   -159.73588   -4099.7462 
       8   -4099.9808      12.7919      12.7919      12.7919            0            0            0    56937.827    56937.827    56937.827    56937.827   -408.31008   -408.31008   -408.31008   -4099.9808 
       9   -4100.1297      12.7919      12.7919      12.7919            0            0            0    58924.115    58924.115    58924.115    58924.115   -415.60605   -415.60605   -415.60605   -4100.1297 
      10   -4100.2618      12.7919      12.7919      12.7919            0            0            0    60738.693    60738.693    60738.693    60738.693   -343.44827   -343.44827   -343.44827   -4100.2618 
      11   -4100.3367      12.7919      12.7919      12.7919            0            0            0    61944.026    61944.026    61944.026    61944.026   -625.93981   -625.93981   -625.93981   -4100.3367 
      12   -4100.4018      12.7919      12.7919      12.7919            0            0            0    63109.493    63109.493    63109.493    63109.493   -596.54911   -596.54911   -596.54911   -4100.4018 
      13   -4100.4604      12.7919      12.7919      12.7919            0            0            0    64186.308    64186.308    64186.308    64186.308   -886.22784   -886.22784   -886.22784   -4100.4604 
      14   -4100.5211      12.7919      12.7919      12.7919            0            0            0    66268.765    66268.765    66268.765    66268.765   -1052.5409   -1052.5409   -1052.5409   -4100.5211 
      15   -4100.6172      12.7919      12.7919      12.7919            0            0            0    69438.021    69438.021    69438.021    69438.021   -960.79505   -960.79505   -960.79505   -4100.6172 
      16   -4100.7416      12.7919      12.7919      12.7919            0            0            0    74500.136    74500.136    74500.136    74500.136   -733.14392   -733.14392   -733.14392   -4100.7416 
      17   -4100.9205      12.7919      12.7919      12.7919            0            0            0    82760.818    82760.818    82760.818    82760.818    676.21188    676.21188    676.21188   -4100.9205 
      18   -4101.1692      12.7919      12.7919      12.7919            0            0            0    93530.361    93530.361    93530.361    93530.361    2509.5609    2509.5609    2509.5609   -4101.1692 
      19   -4101.6436      12.7919      12.7919      12.7919            0            0            0    114851.96    114851.96    114851.96    114851.96    7598.6624    7598.6624    7598.6624   -4101.6436 
      20   -4102.2022      12.7919      12.7919      12.7919            0            0            0    139215.18    139215.18    139215.18    139215.18    13767.714    13767.714    13767.714   -4102.2022 
      21   -4103.2802      12.7919      12.7919      12.7919            0            0            0    175324.38    175324.38    175324.38    175324.38    24935.679    24935.678    24935.678   -4103.2802 
      22   -4104.3875      12.7919      12.7919      12.7919            0            0            0     213331.9     213331.9    213331.89     213331.9     33267.84    33267.839    33267.839   -4104.3875 
      23   -4106.0713      12.7919      12.7919      12.7919            0            0            0    247815.85    247815.85    247815.85    247815.85    42211.636    42211.639    42211.637   -4106.0713 
      24   -4107.8762      12.7919      12.7919      12.7919            0            0            0    272506.93    272506.93    272506.93    272506.93     45475.96    45475.962    45475.965   -4107.8762 
      25   -4110.4971      12.7919      12.7919      12.7919            0            0            0    294462.71    294462.71    294462.71    294462.71    50031.287    50031.288    50031.286   -4110.4971 
      26   -4113.4136      12.7919      12.7919      12.7919            0            0            0    306859.32    306859.33    306859.32    306859.32    52182.649    52182.646    52182.645   -4113.4136 
      27   -4115.1445      12.7919      12.7919      12.7919            0            0            0    320050.38    320050.38    320050.37    320050.38    53525.904    53525.908    53525.908   -4115.1445 
      28    -4116.777      12.7919      12.7919      12.7919            0            0            0    337027.04    337027.05    337027.04    337027.04    52337.413    52337.413     52337.42    -4116.777 
      29   -4118.8487      12.7919      12.7919      12.7919            0            0            0    351582.65    351582.65    351582.66    351582.65    53126.297    53126.298    53126.297   -4118.8487 
      30   -4121.7036      12.7919      12.7919      12.7919            0            0            0    370251.26    370251.27    370251.25    370251.26    51416.128    51416.124    51416.135   -4121.7036 
      31   -4125.5907      12.7919      12.7919      12.7919            0            0            0    380468.47    380468.47    380468.47    380468.47    45115.954    45115.956    45115.966   -4125.5907 
      32   -4130.8079      12.7919      12.7919      12.7919            0            0            0    381114.99    381114.98    381114.99    381114.99    39006.308    39006.297    39006.295   -4130.8079 
      33   -4138.4786      12.7919      12.7919      12.7919            0            0            0    374990.58    374990.58    374990.58    374990.58     36491.01    36491.008    36491.004   -4138.4786 
      34   -4146.0872      12.7919      12.7919      12.7919            0            0            0    364376.65    364376.65    364376.65    364376.65    26162.183    26162.176    26162.182   -4146.0872 
      35   -4152.4579      12.7919      12.7919      12.7919            0            0            0    359177.95    359177.95    359177.95    359177.95    26675.697    26675.696    26675.699   -4152.4579 
      36   -4156.5173      12.7919      12.7919      12.7919            0            0            0    353494.79     353494.8    353494.79    353494.79    23725.387    23725.389    23725.393   -4156.5173 
      37   -4159.0548      12.7919      12.7919      12.7919            0            0            0    350448.85    350448.85    350448.84    350448.85    17906.393     17906.39     17906.39   -4159.0548 
      38   -4161.1601      12.7919      12.7919      12.7919            0            0            0    349300.26    349300.27    349300.25    349300.25    16409.743    16409.739    16409.737   -4161.1601 
      39   -4162.5235      12.7919      12.7919      12.7919            0            0            0    347793.97    347793.97    347793.97    347793.97    15446.496    15446.484    15446.486   -4162.5235 
      40   -4163.1834      12.7919      12.7919      12.7919            0            0            0    346257.86    346257.85    346257.86    346257.86    14025.552    14025.549    14025.547   -4163.1834 
      41   -4163.5669      12.7919      12.7919      12.7919            0            0            0     345520.5     345520.5     345520.5     345520.5    14620.888    14620.885    14620.886   -4163.5669 
      42   -4163.7898      12.7919      12.7919      12.7919            0            0            0    345107.48    345107.48    345107.48    345107.48     14027.32    14027.303    14027.301   -4163.7898 
      43   -4163.9373      12.7919      12.7919      12.7919            0            0            0    344362.92    344362.92    344362.92    344362.92      13832.5    13832.482    13832.491   -4163.9373 
      44   -4163.9951      12.7919      12.7919      12.7919            0            0            0    344166.23    344166.23    344166.22    344166.23      13071.9    13071.884    13071.887   -4163.9951 
      45   -4164.0374      12.7919      12.7919      12.7919            0            0            0    344001.94    344001.94    344001.93    344001.94    13036.021    13036.005    13035.998   -4164.0374 
      46   -4164.0788      12.7919      12.7919      12.7919            0            0            0    343576.81     343576.8    343576.81    343576.81    12517.688    12517.671    12517.675   -4164.0788 
      47   -4164.1037      12.7919      12.7919      12.7919            0            0            0    343443.39    343443.39    343443.39     343443.4    12264.461    12264.451    12264.449   -4164.1037 
      48    -4164.119      12.7919      12.7919      12.7919            0            0            0    343253.45    343253.44    343253.45    343253.45    11649.659    11649.644    11649.638    -4164.119 
      49   -4164.1324      12.7919      12.7919      12.7919            0            0            0    343010.21    343010.21    343010.21     343010.2    11334.176    11334.149    11334.148   -4164.1324 
      50   -4164.1407      12.7919      12.7919      12.7919            0            0            0    342876.13    342876.12    342876.12    342876.13    11065.311    11065.277     11065.28   -4164.1407 
      51    -4164.147      12.7919      12.7919      12.7919            0            0            0    342687.84    342687.84    342687.85    342687.84    10938.617    10938.562    10938.566    -4164.147 
      52   -4164.1495      12.7919      12.7919      12.7919            0            0            0    342618.36    342618.36    342618.35    342618.37    10881.642     10881.59    10881.591   -4164.1495 
      53   -4164.1515      12.7919      12.7919      12.7919            0            0            0    342598.79    342598.78    342598.79     342598.8    10962.868    10962.808    10962.814   -4164.1515 
      54   -4164.1543      12.7919      12.7919      12.7919            0            0            0    342571.58    342571.58    342571.57    342571.58    10871.814    10871.735    10871.747   -4164.1543 
      55   -4164.1557      12.7919      12.7919      12.7919            0            0            0     342523.5    342523.49     342523.5    342523.51    10786.472    10786.391    10786.393   -4164.1557 
      56   -4164.1567      12.7919      12.7919      12.7919            0            0            0    342520.35    342520.35    342520.35    342520.36    10703.108    10703.007    10703.012   -4164.1567 
      57   -4164.1571      12.7919      12.7919      12.7919            0            0            0    342499.05    342499.05    342499.04    342499.05    10697.961    10697.854    10697.865   -4164.1571 
      58   -4164.1575      12.7919      12.7919      12.7919            0            0            0    342463.86    342463.86    342463.86    342463.87    10641.859    10641.732    10641.746   -4164.1575 
      59   -4164.1575      12.7919      12.7919      12.7919            0            0            0     342441.4     342441.4    342441.39     342441.4    10611.792     10611.64    10611.656   -4164.1575 
      60   -4164.1576      12.7919      12.7919      12.7919            0            0            0    342430.58    342430.57    342430.58     342430.6    10561.625    10561.449    10561.472   -4164.1576 
      61   -4164.1577      12.7919      12.7919      12.7919            0            0            0    342423.05    342423.05    342423.05    342423.07    10555.719    10555.534    10555.561   -4164.1577 
      62   -4164.1577      12.7919      12.7919      12.7919            0            0            0    342419.56    342419.55    342419.55    342419.57      10548.2    10548.012    10548.026   -4164.1577 
      63   -4164.1577      12.7919      12.7919      12.7919            0            0            0    342421.06    342421.06    342421.05    342421.08    10553.936    10553.709    10553.729   -4164.1577 
      64   -4164.1578      12.7919      12.7919      12.7919            0            0            0    342419.73    342419.71    342419.72    342419.75    10542.468    10542.222    10542.259   -4164.1578 
      65   -4164.1578      12.7919      12.7919      12.7919            0            0            0    342411.36    342411.35    342411.35    342411.39    10533.885    10533.571    10533.607   -4164.1578 
      66   -4164.1579      12.7919      12.7919      12.7919            0            0            0    342406.79    342406.78    342406.77    342406.81    10513.337    10512.941    10512.979   -4164.1579 
      67   -4164.1579      12.7919      12.7919      12.7919            0            0            0    342398.36    342398.34    342398.35    342398.39    10502.713    10502.228    10502.285   -4164.1579 
      68   -4164.1579      12.7919      12.7919      12.7919            0            0            0    342393.69    342393.67    342393.67    342393.72    10487.603    10487.055    10487.114   -4164.1579 
      69   -4164.1579      12.7919      12.7919      12.7919            0            0            0    342391.44    342391.42    342391.42    342391.49    10481.004    10480.371    10480.441   -4164.1579 
      70   -4164.1579      12.7919      12.7919      12.7919            0            0            0    342391.44    342391.42    342391.42    342391.49    10481.004    10480.371    10480.441   -4164.1579 
Loop time of 1.66511 on 1 procs for 70 steps with 216 atoms

67.6% CPU use with 1 MPI tasks x no OpenMP threads

Minimization stats:
  Stopping criterion = linesearch alpha is zero
  Energy initial, next-to-last, final = 
        -4029.90904449     -4164.15792021     -4164.15792021
  Force two-norm initial, final = 117.717 0.0186178
  Force max component initial, final = 31.713 0.00443215
  Final line search alpha, max atom move = 3.05176e-05 1.35259e-07
  Iterations, force evaluations = 70 154

MPI task timing breakdown:
Section |  min time  |  avg time  |  max time  |%varavg| %total
---------------------------------------------------------------
Pair    | 1.1001     | 1.1001     | 1.1001     |   0.0 | 66.07
Kspace  | 0.54114    | 0.54114    | 0.54114    |   0.0 | 32.50
Neigh   | 0.016333   | 0.016333   | 0.016333   |   0.0 |  0.98
Comm    | 0.0039647  | 0.0039647  | 0.0039647  |   0.0 |  0.24
Output  | 0.0019264  | 0.0019264  | 0.0019264  |   0.0 |  0.12
Modify  | 0          | 0          | 0          |   0.0 |  0.00
Other   |            | 0.001674   |            |       |  0.10

Nlocal:    216 ave 216 max 216 min
Histogram: 1 0 0 0 0 0 0 0 0 0
Nghost:    4009 ave 4009 max 4009 min
Histogram: 1 0 0 0 0 0 0 0 0 0
Neighs:    64725 ave 64725 max 64725 min
Histogram: 1 0 0 0 0 0 0 0 0 0

Total # of neighbors = 64725
Ave neighs/atom = 299.653
Neighbor list builds = 5
Dangerous builds = 0

# ---- define output variables ----
variable natoms equal "count(all)"
variable tot_energy equal "c_eatoms"
variable a11 equal "xhi-xlo"
variable a22 equal "yhi-ylo"
variable a33 equal "zhi-zlo"
variable tilt_xy equal "xy"
variable tilt_xz equal "xz"
variable tilt_yz equal "yz"
variable tot_press equal "press"
variable press_xx equal "pxx"
variable press_yy equal "pyy"
variable press_zz equal "pzz"
variable press_xy equal "pxy"
variable press_xz equal "pxz"
variable press_yz equal "pyz"

# ---- output ----
print "pypospack:output_section:begin"
pypospack:output_section:begin
print "tot_energy = ${tot_energy}"
tot_energy = -4164.15792020568
print "num_atoms = ${natoms}"
num_atoms = 216
print "a11 = ${a11}"
a11 = 12.7919
print "a22 = ${a22}"
a22 = 12.7919
print "a33 = ${a33}"
a33 = 12.7919
print "a12 = ${tilt_xy}"
a12 = 0
print "a13 = ${tilt_xz}"
a13 = 0
print "a23 = ${tilt_yz}"
a23 = 0
print "tot_press = ${tot_press}"
tot_press = 342391.444379822
print "pxx = ${press_xx}"
pxx = 342391.424701314
print "pyy = ${press_yy}"
pyy = 342391.420351871
print "pzz = ${press_zz}"
pzz = 342391.488086281
print "pxy = ${press_xy}"
pxy = 10481.0040557193
print "pxz = ${press_xz}"
pxz = 10480.3706535234
print "pyz = ${press_yz}"
pyz = 10480.4413649404
print "pypospack:output_section:done"
pypospack:output_section:done
print "pypospack:lammps_sim:done"
pypospack:lammps_sim:done
Total wall time: 0:00:01
