LAMMPS (10 Feb 2015)
# ---- initialize simulations
clear
units metal
dimension 3
boundary p p p
atom_style charge
atom_modify map array
# ---- create atoms
read_data /Users/eugeneragasa/pyflamestk_git/pypospack/tests/tests_integration/workflow/WorkflowLammpsThermalExpansion/MgO_NaCl_unit.npt.T100/lammps.structure
  triclinic box = (0 0 0) to (4.2565 4.2565 4.2565) with tilt (0 0 0)
  1 by 1 by 1 MPI processor grid
  reading atoms ...
  8 atoms
# ---- define interatomic potential
include potential.mod
mass 1 24.305
mass 2 15.999

group Mg type 1
4 atoms in group Mg
group O type 2
4 atoms in group O

set group Mg charge 1.7
  4 settings made for charge
set group O charge -1.7
  4 settings made for charge

variable R_cut equal 10.0

pair_style buck/coul/long ${R_cut}
pair_style buck/coul/long 10
pair_coeff 1 1 0.0 0.5 0.0 ${R_cut}
pair_coeff 1 1 0.0 0.5 0.0 10
pair_coeff 1 2 929.69 0.29909 0.0 ${R_cut}
pair_coeff 1 2 929.69 0.29909 0.0 10
pair_coeff 2 2 4870 0.2679 77 ${R_cut}
pair_coeff 2 2 4870 0.2679 77 10

kspace_style pppm 1.0e-5

neighbor 1.0 bin
neigh_modify every 1 delay 0 check yes
# ---- define settings
compute eng all pe/atom
compute eatoms all reduce sum c_eng
# ---- run minimization
reset_timestep 0
fix 1 all box/relax iso 0.0 vmax 0.001
thermo 10
thermo_style custom step pe lx ly lz xy xz yz press pxx pyy pzz pxy pxz pyz c_eatoms
min_style cg
minimize 1e-25 1e-25 5000 10000
PPPM initialization ...
  G vector (1/distance) = 0.353152
  grid = 8 8 8
  stencil order = 5
  estimated absolute RMS force accuracy = 4.10333e-05
  estimated relative force accuracy = 2.84961e-06
  using double precision FFTs
  3d grid and FFT values/proc = 3375 512
Neighbor list info ...
  1 neighbor list requests
  update every 1 steps, delay 0 steps, check yes
  master list distance cutoff = 11
Memory usage per processor = 4.06549 Mbytes
Step PotEng Lx Ly Lz Xy Xz Yz Press Pxx Pyy Pzz Pxy Pxz Pyz eatoms 
       0   -119.82944       4.2565       4.2565       4.2565            0            0            0   -43102.631   -43102.631   -43102.631   -43102.631 -1.1410716e-10 2.0651384e-11 1.0044018e-10   -119.82944 
       9    -119.8549     4.222448     4.222448     4.222448            0            0            0   -490.28356   -490.28356   -490.28356   -490.28356 -3.7927136e-11 -7.2182599e-11 3.2130495e-11    -119.8549 
Loop time of 0.12399 on 1 procs for 9 steps with 8 atoms

Minimization stats:
  Stopping criterion = linesearch alpha is zero
  Energy initial, next-to-last, final = 
        -119.829437963     -119.854898204     -119.854898204
  Force two-norm initial, final = 6.22404 0.0696885
  Force max component initial, final = 6.22404 0.069669
  Final line search alpha, max atom move = 1.75215e-06 1.2207e-07
  Iterations, force evaluations = 9 35

Pair  time (%) = 0.0150807 (12.1628)
Kspce time (%) = 0.0259471 (20.9268)
Neigh time (%) = 0 (0)
Comm  time (%) = 0.0110266 (8.89315)
Outpt time (%) = 0 (0)
Other time (%) = 0.0719357 (58.0173)

Nlocal:    8 ave 8 max 8 min
Histogram: 1 0 0 0 0 0 0 0 0 0
Nghost:    2189 ave 2189 max 2189 min
Histogram: 1 0 0 0 0 0 0 0 0 0
Neighs:    2344 ave 2344 max 2344 min
Histogram: 1 0 0 0 0 0 0 0 0 0

Total # of neighbors = 2344
Ave neighs/atom = 293
Neighbor list builds = 0
Dangerous builds = 0
unfix 1
# ---- define output variables ----
variable natoms equal "count(all)"
variable tot_energy equal "c_eatoms"
variable length_x equal "lx"
variable length_y equal "ly"
variable length_z equal "lz"
variable tilt_xy equal "xy"
variable tilt_xz equal "xz"
variable tilt_yz equal "yz"
variable tot_press equal "press"
variable press_xx equal "pxx"
variable press_yy equal "pyy"
variable press_zz equal "pzz"
variable press_xy equal "pxy"
variable press_xz equal "pxz"
variable press_yz equal "pyz"

# ---- output ----
print "pypospack:output_section:begin"
pypospack:output_section:begin
print "tot_energy = ${tot_energy}"
tot_energy = -119.854898204259
print "num_atoms = ${natoms}"
num_atoms = 8
print "xx = ${length_x}"
xx = 4.222448
print "yy = ${length_y}"
yy = 4.222448
print "zz = ${length_z}"
zz = 4.222448
print "xy = ${tilt_xy}"
xy = 0
print "xz = ${tilt_xz}"
xz = 0
print "yz = ${tilt_yz}"
yz = 0
print "tot_press = ${tot_press}"
tot_press = -490.283556338482
print "pxx = ${press_xx}"
pxx = -490.283556338668
print "pyy = ${press_yy}"
pyy = -490.283556338614
print "pzz = ${press_zz}"
pzz = -490.283556338163
print "pxy = ${press_xy}"
pxy = -3.79271362347293e-11
print "pxz = ${press_xz}"
pxz = -7.2182599384956e-11
print "pyz = ${press_yz}"
pyz = 3.21304951944417e-11
print "pypospack:output_section:done"
pypospack:output_section:done
print "pypospack:lammps_sim:done"
pypospack:lammps_sim:done
#------------------------------------------------------------------------------
# RUN THERMOSTAT
# running using an NPT Nose-Hoover style thermostat
#------------------------------------------------------------------------------
variable tempdamp equal 0.1
variable pressdamp equal 1.0
# set initial velocities
velocity all create 100 8450351 mom yes dist gaussian loop all
# fix for Nose-Hoover style thermostat
fix 20 all npt temp 100 100 0.1 aniso 0.0 0.0 1.0 drag 1.0 couple xyz
variable boxx equal lx
variable boxy equal ly
variable boxz equal lz
variable boxp equal press
variable boxt equal temp
# calculate averages every 10000 steps
reset_timestep 0
fix 21 all ave/time 10 10 100 v_boxx v_boxy v_boxz v_boxp v_boxt file lattice.out
thermo_style custom step temp pe ke etotal press lx ly lz press pxx pyy pzz pxy pxz pyz vol
thermo_modify flush yes
thermo 100
run 100000
PPPM initialization ...
  G vector (1/distance) = 0.353501
  grid = 8 8 8
  stencil order = 5
  estimated absolute RMS force accuracy = 4.03791e-05
  estimated relative force accuracy = 2.80417e-06
  using double precision FFTs
  3d grid and FFT values/proc = 3375 512
Memory usage per processor = 3.06549 Mbytes
Step Temp PotEng KinEng TotEng Press Lx Ly Lz Press Pxx Pyy Pzz Pxy Pxz Pyz Volume 
       0          100    -119.8549  0.090482101   -119.76441    793.91535     4.222448     4.222448     4.222448    793.91535    493.22461    1351.1388     537.3826     428.4078    299.53324    659.38912    75.282309 
     100    51.807514   -119.79841  0.046876527   -119.75153     1234.798    4.2232614    4.2232614    4.2232614     1234.798   -1145.8381    3840.5175    1009.7147     -272.683   -724.14908   -813.51824    75.325822 
     200    63.424316    -119.7856  0.057387654   -119.72821   -1424.9552    4.2249743    4.2249743    4.2249743   -1424.9552   -3381.5163    732.02655   -1625.3758    274.29027   -975.96992   -1177.5126    75.417512 
     300     67.22188   -119.76689   0.06082377   -119.70606   -463.57832    4.2263936    4.2263936    4.2263936   -463.57832   -649.92715   -362.28478   -378.52305    1047.2449   -538.68468   -1229.5049    75.493547 
     400    129.78309   -119.80616   0.11743047   -119.68873   -3475.7646    4.2281038    4.2281038    4.2281038   -3475.7646   -6153.3895   -956.97247   -3316.9319   -335.69618    409.48807   -471.46393    75.585226 
     500    90.444811   -119.76071  0.081836365   -119.67887    166.14926    4.2276044    4.2276044    4.2276044    166.14926   -2943.9965     2994.154     448.2903    839.75456    405.69506    938.46528    75.558447 
     600    98.189679   -119.76363  0.088844085   -119.67479   -41.870403    4.2267543    4.2267543    4.2267543   -41.870403   -2679.2136    2865.6134   -312.01104    658.48288   -343.50279   -452.99628    75.512877 
     700    48.678845   -119.71798  0.044045642   -119.67394    4276.2653    4.2252431    4.2252431    4.2252431    4276.2653   -823.60937    12616.817    1035.5884    70.191631   -1345.9474   -1351.8449    75.431908 
     800    61.475675   -119.72944  0.055624483   -119.67381    4066.5974    4.2235403    4.2235403    4.2235403    4066.5974     -2474.09    11138.278    3535.6046    589.29656   -503.84009    1173.8321     75.34075 
     900    126.13369   -119.78763   0.11412841    -119.6735    4363.5264    4.2232146    4.2232146    4.2232146    4363.5264      51.7625    9136.2523    3902.5643   -896.35797    582.72212    540.76664    75.323322 
    1000    111.13346   -119.77433   0.10055589   -119.67377    3958.1043    4.2237748    4.2237748    4.2237748    3958.1043   -777.10692    10463.208    2188.2123   -977.38391   -1315.4187    797.57472    75.353297 
    1100    60.437045     -119.729  0.054684709   -119.67431    936.83525     4.224432     4.224432     4.224432    936.83525   -3276.5044    4843.1422    1243.8679    397.52431   -907.79253   -424.43257    75.388479 
    1200    61.481161   -119.73032  0.055629446   -119.67469    1378.5786    4.2262415    4.2262415    4.2262415    1378.5786   -937.47621    4032.7424    1040.4695   -588.30592   -1091.3678   -1850.8512    75.485395 
    1300    147.75942   -119.80783   0.13369583   -119.67414   -2555.7202    4.2278347    4.2278347    4.2278347   -2555.7202   -4741.5589    2034.1301   -4959.7317    -200.7963    216.38542    652.40075    75.570797 
    1400    113.77581   -119.77676   0.10294674   -119.67381   -996.76048    4.2278615    4.2278615    4.2278615   -996.76048   -4428.4803    2909.6874   -1471.4886    84.782711    3.2597244     403.3692    75.572231 
    1500    120.70236   -119.78316   0.10921403   -119.67395   -3221.1613    4.2284391    4.2284391    4.2284391   -3221.1613   -4365.8128   -862.18092   -4435.4903    276.37643   -786.72517   -1353.2534    75.603208 
    1600    88.663134   -119.75461  0.080224266   -119.67439   -890.97199    4.2271489    4.2271489    4.2271489   -890.97199    -4152.074    4866.4101    -3387.252    1130.9537   -1509.0661   -985.35221    75.534024 
    1700    103.26054   -119.76739   0.09343231   -119.67396    -1285.025    4.2256747    4.2256747    4.2256747    -1285.025    -2001.052   -649.33994   -1204.6831    297.43924   -288.48355   -1697.6443    75.455027 
    1800    113.83901   -119.77648   0.10300393   -119.67347   -115.53447    4.2252016    4.2252016    4.2252016   -115.53447   -3454.0068    495.32508    2612.0783    229.46044    346.26396    150.44093    75.429687 
    1900    151.49409   -119.81081   0.13707503   -119.67374     891.1374    4.2243693    4.2243693    4.2243693     891.1374   -1090.5863    2791.1152    972.88337    732.50008   -505.65091    583.57711    75.385121 
    2000    87.752977   -119.75382  0.079400738   -119.67442    1443.8763    4.2245663    4.2245663    4.2245663    1443.8763   -1296.5347    1329.3798    4298.7839    298.14725   -534.23157    -2023.929    75.395669 
    2100    56.812122   -119.72597  0.051404802   -119.67457    1085.5531    4.2263251    4.2263251    4.2263251    1085.5531   -3720.7553    5268.7878    1708.6269   -249.20923   -526.49691   -955.26481    75.489876 
    2200    112.41076   -119.77588   0.10171162   -119.67417    124.30989    4.2268074    4.2268074    4.2268074    124.30989   -3379.9757    3797.7922    -44.88679   -513.71806     1113.251    535.50862    75.515724 
    2300    121.53038   -119.78369   0.10996325   -119.67372   -823.18948    4.2275829    4.2275829    4.2275829   -823.18948   -4526.9267    3086.2664   -1028.9081   -1301.4181   -304.40633    900.85254    75.557297 
    2400    90.117001   -119.75534  0.081539756    -119.6738   -1677.7019    4.2284188    4.2284188    4.2284188   -1677.7019   -5117.2577    2997.2778   -2913.1258   -667.28615   -672.32872    1262.4399    75.602123 
    2500     79.21101   -119.74597  0.071671786    -119.6743   -1210.0898    4.2269634    4.2269634    4.2269634   -1210.0898    -4761.457    4539.5201   -3408.3324   -280.73594   -1560.1911    -792.5835    75.524081 
    2600    88.302898   -119.75432  0.079898318   -119.67442   -609.06781    4.2263403    4.2263403    4.2263403   -609.06781   -1942.1032    2905.7446   -2790.8449   -405.37276    -406.2705   -398.84728    75.490687 
    2700    83.886356    -119.7499  0.075902137     -119.674    613.88792    4.2263949    4.2263949    4.2263949    613.88792   -3890.8115    7031.5809   -1299.1057   -300.31668   -121.50032    642.78048    75.493614 
    2800    113.64963   -119.77661   0.10283257   -119.67378    2210.1798    4.2246767    4.2246767    4.2246767    2210.1798   -2925.1755    10151.263   -595.54846    520.19512   -837.68306   -34.411122    75.401579 
    2900    110.53465   -119.77403   0.10001408   -119.67402    2988.6907    4.2250574    4.2250574    4.2250574    2988.6907   -967.65815    8360.9536    1572.7765    441.14245   -1160.9432   -1593.2421    75.421966 
    3000     61.50782   -119.72987  0.055653568   -119.67422    2226.8346    4.2260938    4.2260938    4.2260938    2226.8346   -3026.3574    10399.657   -692.79621    942.40843    85.926779   -1896.1192    75.477481 
    3100    84.471677   -119.75054  0.076431749   -119.67411    555.55609    4.2255871    4.2255871    4.2255871    555.55609   -4677.0852    5669.7097    674.04375    659.76827    469.21304   -1700.6333    75.450335 
    3200    122.67259   -119.78495   0.11099674   -119.67396   -352.70171    4.2268739    4.2268739    4.2268739   -352.70171    -1428.239     1686.091   -1315.9572   -912.29446   -310.72652    119.58267    75.519289 
    3300     110.6598   -119.77392   0.10012731    -119.6738   -2300.1167     4.227676     4.227676     4.227676   -2300.1167   -6203.3095    1304.2775    -2001.318    404.61696   -200.68404   -1150.7649    75.562286 
    3400    82.403854   -119.74853  0.074560738   -119.67397   -1332.8687    4.2266116    4.2266116    4.2266116   -1332.8687    -3477.593    323.92841   -844.94153   -30.071639   -1461.5795   -1741.4253     75.50523 
    3500     114.1134   -119.77724    0.1032522   -119.67399   -1900.0396    4.2273936    4.2273936    4.2273936   -1900.0396    -3842.624   -834.77391   -1022.7208   -1371.8484    661.81857   -1493.2325    75.547147 
    3600    95.306192   -119.76029  0.086235046   -119.67406   -683.79726    4.2270104    4.2270104    4.2270104   -683.79726   -3218.9035     1844.817   -677.30537   -653.61179    -173.4882    534.57991    75.526605 
    3700    114.94656    -119.7777   0.10400606   -119.67369   -816.72469    4.2259018    4.2259018    4.2259018   -816.72469   -4279.6822     849.7818    979.72634    -1091.512   -663.44688    892.41244    75.467194 
    3800    134.02793   -119.79501   0.12127129   -119.67374   -1191.5932    4.2270279    4.2270279    4.2270279   -1191.5932   -3845.7428    1262.8325   -991.86929   -407.81467   -556.91473    665.76368    75.527539 
    3900    117.31371   -119.78016   0.10614791   -119.67401   -1332.8407    4.2265219    4.2265219    4.2265219   -1332.8407   -2463.3535     499.7388   -2034.9074    995.59945    92.294624   -310.16162    75.500422 
    4000    83.187413   -119.74945  0.075269719   -119.67418   -1308.3603     4.225694     4.225694     4.225694   -1308.3603   -4996.8993    2397.7135   -1325.8952   -1073.5047     189.0761    710.85703    75.456061 
    4100    109.75585   -119.77329  0.099309395   -119.67398   -364.27794    4.2267622    4.2267622    4.2267622   -364.27794    -2707.356    4333.2415   -2718.7193     238.8971    190.61193    1760.5336    75.513299 
    4200    126.38019   -119.78808   0.11435145   -119.67373    862.92674    4.2255894    4.2255894    4.2255894    862.92674   -2056.7826    6491.8548    -1846.292    659.13061   -1019.1374    624.23789    75.450457 
    4300     86.36379   -119.75192  0.078143772   -119.67378    1057.6751    4.2252801    4.2252801    4.2252801    1057.6751   -3651.0456     6209.229    614.84179   -217.52719   -683.93763   -1237.6268    75.433892 
    4400    90.097281   -119.75562  0.081521914    -119.6741    1302.3108    4.2270108    4.2270108    4.2270108    1302.3108    -3048.271    8016.0727   -1060.8692    762.55436    1061.1461   -740.92037    75.526623 
    4500    81.051976   -119.74767  0.073337531   -119.67434    400.87013    4.2264665    4.2264665    4.2264665    400.87013   -4306.1952    5624.3498   -115.54418   -594.37617   -333.32267   -875.71571    75.497451 
    4600    68.070005   -119.73592  0.061591171   -119.67433   -40.292665    4.2267859    4.2267859    4.2267859   -40.292665   -4258.2266    3573.0922    564.25644   -392.01082    129.95409    215.04404    75.514568 
    4700    87.723748   -119.75339  0.079374291   -119.67402   -501.84824    4.2283901    4.2283901    4.2283901   -501.84824   -6527.8966    5955.4549   -933.10305    399.91844    -543.6488   -1127.5318    75.600584 
    4800     110.1156   -119.77355  0.099634905   -119.67391   -226.86588    4.2265899    4.2265899    4.2265899   -226.86588   -3186.4886    4427.6236   -1921.7326   -620.24091    754.68638   -2683.7298    75.504066 
    4900    74.095369   -119.74107  0.067043047   -119.67403    1657.6282    4.2260457    4.2260457    4.2260457    1657.6282   -3023.6235    7693.9041    302.60409   -747.88584    776.34795   -401.62161    75.474905 
    5000    69.664818    -119.7373  0.063034192   -119.67426    1017.0052     4.226291     4.226291     4.226291    1017.0052   -3955.9688    8281.6872   -1274.7027   -433.62008   -476.59324    334.16778    75.488047 
    5100    116.48568   -119.77951   0.10539869   -119.67412    2599.1301    4.2243745    4.2243745    4.2243745    2599.1301   -1127.2218    7992.5141    932.09812     -1118.93   -1165.7756    125.47786    75.385398 
    5200    124.66995   -119.78661   0.11280399   -119.67381    550.26768    4.2250616    4.2250616    4.2250616    550.26768   -2131.7472    3268.0971    514.45307    661.14548   -255.73014    638.79362    75.422192 
    5300    108.68449   -119.77205  0.098340013   -119.67371   -1271.4442    4.2267013    4.2267013    4.2267013   -1271.4442   -4749.2371    2026.5068   -1091.6024   -426.02282   -77.750813   -833.61259    75.510037 
    5400    105.52175   -119.76948  0.095478296     -119.674   -1786.2461    4.2265288    4.2265288    4.2265288   -1786.2461   -3300.4205   -123.65479   -1934.6629   -393.98649   -583.99911    1239.0204     75.50079 
    5500    113.90428   -119.77684   0.10306299   -119.67377   -4840.0972    4.2284618    4.2284618    4.2284618   -4840.0972   -6576.7622   -4836.4028   -3107.1267    443.84747   -754.69667    2577.3579    75.604429 
    5600    97.423355   -119.76186  0.088150699   -119.67371   -2402.7499    4.2290581    4.2290581    4.2290581   -2402.7499   -5223.9099    230.39173   -2214.7314    113.68475   -1132.2067    397.72254    75.636417 
    5700    144.65089    -119.8046   0.13088317   -119.67372   -4007.7422    4.2276626    4.2276626    4.2276626   -4007.7422   -6477.8869    -2242.147   -3303.1927    395.68565    1244.1491    309.97089    75.561568 
    5800     102.2141   -119.76669  0.092485466   -119.67421    478.44037    4.2273747    4.2273747    4.2273747    478.44037   -2363.8954    3960.2542   -161.03766    166.45641   -249.33946   -105.12602    75.546131 
    5900    86.203795   -119.75231  0.077999005   -119.67431   -532.67323    4.2260473    4.2260473    4.2260473   -532.67323    -3302.163    1718.4421   -14.298749   -404.90754   -369.69579    89.106678    75.474987 
    6000    69.174968   -119.73692  0.062590965   -119.67433    3220.1309    4.2236035    4.2236035    4.2236035    3220.1309   -2572.9842    6715.0123    5518.3645     140.5212   -779.46841    1353.1388    75.344129 
    6100    140.33461   -119.80065    0.1269777   -119.67367    1967.5861     4.224575     4.224575     4.224575    1967.5861   -894.25744    4059.3664    2737.6495    495.34697   -135.43072   -1939.5794    75.396132 
    6200    86.550752   -119.75212  0.078312939   -119.67381    2601.5536     4.224565     4.224565     4.224565    2601.5536   -2353.9103     5479.059    4679.5121   -323.06113    589.82537   -1137.6342    75.395599 
    6300    91.365895   -119.75682  0.082669782   -119.67415     567.6195      4.22527      4.22527      4.22527     567.6195   -4144.7233    5869.8587   -22.276877   -450.31409    193.36227    391.53758    75.433351 
    6400     69.17568   -119.73712  0.062591609   -119.67453    86.624159    4.2280974    4.2280974    4.2280974    86.624159   -4825.0963    6521.2222   -1436.2534   -219.84213    -884.7584    414.24388    75.584885 
    6500     99.52692   -119.76426  0.090054049   -119.67421   -2457.1707    4.2288277    4.2288277    4.2288277   -2457.1707   -6595.2468    4852.2781   -5628.5435     41.55478   -67.329202    1247.8485    75.624058 
    6600    90.624121   -119.75572  0.081998609   -119.67372    -1244.165    4.2281791    4.2281791    4.2281791    -1244.165   -6073.7359    5977.8934   -3636.6526    -522.9118    1159.7536   -165.98141    75.589267 
    6700      123.748   -119.78577   0.11196979    -119.6738   -2377.9302    4.2288141    4.2288141    4.2288141   -2377.9302   -6305.5045     4960.769   -5789.0552   -465.75725   -148.87545    -208.2038    75.623329 
    6800    81.258334    -119.7477  0.073524248   -119.67417    886.23398      4.22616      4.22616      4.22616    886.23398   -813.99918    4271.6998   -798.99867   -1367.3403   -21.925866    2861.5973    75.481026 
    6900    69.594289   -119.73714  0.062970376   -119.67417     1358.888    4.2243649    4.2243649    4.2243649     1358.888   -4114.2479    4856.8355    3334.0765   -38.919041   -1246.1572    1223.5956    75.384886 
    7000    115.66063   -119.77848   0.10465217   -119.67383    2575.9727    4.2245692    4.2245692    4.2245692    2575.9727   -1721.4754    5513.2492    3936.1444    291.88651    478.85805    1573.0319    75.395825 
    7100     128.0255   -119.78955   0.11584016   -119.67371    2620.9177    4.2239403    4.2239403    4.2239403    2620.9177    372.63072    3618.4473     3871.675   -732.03271    888.62857    373.62862    75.362156 
    7200    102.19606   -119.76624  0.092469143   -119.67377   -150.45197    4.2252402    4.2252402    4.2252402   -150.45197   -4811.5486    2381.8069    1978.3857    218.43816    263.24389   -392.95033    75.431753 
    7300     72.90904   -119.74022  0.065969632   -119.67425   -690.88023    4.2277459    4.2277459    4.2277459   -690.88023    -5187.253    2957.2369    157.37538    203.46755   -628.04841    2038.3941    75.566034 
    7400    118.75429   -119.78151   0.10745137   -119.67405   -4689.5706    4.2285553    4.2285553    4.2285553   -4689.5706   -6328.9227   -3782.7096   -3957.0796    232.92753    788.75401    68.239716    75.609443 
    7500    105.52268   -119.76893  0.095479135   -119.67346   -3912.3564    4.2293714    4.2293714    4.2293714   -3912.3564   -7556.8418   -1387.5306   -2792.6966     1028.967    1411.3167   -1922.9182    75.653231 
    7600    134.86353   -119.79562   0.12202735   -119.67359   -5040.5583    4.2295262    4.2295262    4.2295262   -5040.5583   -6462.2487   -4266.3684   -4393.0577   -515.87919    446.94169   -382.49469    75.661535 
    7700    105.20267   -119.76947  0.095189586   -119.67428   -850.08541    4.2268884    4.2268884    4.2268884   -850.08541   -2336.7886    653.97349   -867.44116   -260.81205   -218.40127   -1520.7742    75.520062 
    7800    89.067675   -119.75485  0.080590304   -119.67426    581.30028    4.2259573    4.2259573    4.2259573    581.30028   -2684.2018    3349.1232    1078.9795    582.69987   -830.04897    598.77917    75.470169 
    7900    84.002196   -119.75002  0.076006952   -119.67402    2863.7745    4.2246649    4.2246649    4.2246649    2863.7745    -2690.581     7454.378    3827.5265   -505.62894    733.87538    113.00079    75.400945 
    8000    138.05788   -119.79843   0.12491767   -119.67351    2430.6502    4.2238574    4.2238574    4.2238574    2430.6502   -511.02779    7724.5122     78.46635    608.32106    63.295861   -1659.1874    75.357717 
    8100    105.47531   -119.76911  0.095436277   -119.67367    1510.6957    4.2253526    4.2253526    4.2253526    1510.6957   -2956.4199     7727.525   -239.01803   -254.18612    -120.2415    1128.8295    75.437772 
    8200    62.891131   -119.73118  0.056905217   -119.67427   -635.55522    4.2266418    4.2266418    4.2266418   -635.55522   -6435.0539    6930.0406   -2401.6524   -371.30077   -1102.6068    1999.7988    75.506845 
    8300    67.982433   -119.73612  0.061511934   -119.67461    -1260.937    4.2272331    4.2272331    4.2272331    -1260.937   -5673.0995    4652.2899   -2762.0015    1022.4359    722.06187    1076.6223    75.538539 
    8400      99.7689    -119.7643  0.090272997   -119.67402    -1720.935    4.2289172    4.2289172    4.2289172    -1720.935   -7188.6306     6009.138   -3983.3123   -179.58988     1076.303    1548.0105    75.628857 
    8500    96.474297     -119.761  0.087291971   -119.67371   -548.83635    4.2282224    4.2282224    4.2282224   -548.83635   -4737.0884    4742.6882   -1652.1088   -139.24255    386.14943     -439.689    75.591587 
    8600    87.845988   -119.75344  0.079484896   -119.67396    1684.4181    4.2267301    4.2267301    4.2267301    1684.4181    -2431.814    8143.6565   -658.58833    84.194659   -315.63696     1698.989    75.511577 
    8700    78.096741   -119.74509  0.070663572   -119.67442    2155.9736    4.2263389    4.2263389    4.2263389    2155.9736   -2840.4808    7397.8072    1910.5943   -411.00329    114.71509    1954.9088    75.490613 
    8800    72.039543   -119.73969  0.065182893   -119.67451    2570.8575    4.2249012    4.2249012    4.2249012    2570.8575   -634.02356    5566.8139     2779.782    894.27086    1107.2503    354.89548    75.413599 
    8900    122.56173   -119.78489   0.11089643   -119.67399     627.5541    4.2244636    4.2244636    4.2244636     627.5541   -4027.4266    5220.8476    689.24132    237.20401    972.78335     288.6888     75.39017 
    9000    145.06928   -119.80502   0.13126173   -119.67376   -1242.9998    4.2258879    4.2258879    4.2258879   -1242.9998   -2453.8631    886.00561   -2161.1417   -936.25497     843.1976   -133.88368    75.466449 
    9100    98.060784   -119.76285  0.088727458   -119.67412   -2015.7602    4.2264412    4.2264412    4.2264412   -2015.7602   -4715.8843    1244.4224   -2575.8187    829.77948   -824.28464    607.31375    75.496097 
    9200    88.473513    -119.7542  0.080052694   -119.67415   -3968.4836    4.2273467    4.2273467    4.2273467   -3968.4836   -8026.5031   -275.77701   -3603.1708   -206.13605    1267.9293    1135.1648    75.544633 
    9300    115.52083   -119.77856   0.10452567   -119.67403   -1602.2212    4.2282571    4.2282571    4.2282571   -1602.2212   -4838.6435    2675.5619   -2643.5821    215.56897    861.90094   -1104.2953    75.593449 
    9400    155.05023    -119.8138    0.1402927   -119.67351   -3450.1862    4.2278845    4.2278845    4.2278845   -3450.1862   -4629.1321   -2521.7237   -3199.7027     14.19274   -171.26975   -118.57731    75.573466 
    9500    98.146927   -119.76281  0.088805402   -119.67401   -32.009392    4.2273952    4.2273952    4.2273952   -32.009392   -2002.2075    2542.4785   -636.29923    -219.2508   -1046.8522    447.75135    75.547233 
    9600    105.89414   -119.77032  0.095815242   -119.67451   -1892.3786    4.2272661    4.2272661    4.2272661   -1892.3786   -4522.9053   -924.80805   -229.42226    354.19885   -282.82142    1334.1863     75.54031 
    9700    67.721296    -119.7359  0.061275651   -119.67462    125.86394     4.226162     4.226162     4.226162    125.86394   -715.15374    471.62782    621.11773    680.95106    45.708624    1711.4756    75.481133 
    9800    112.24565   -119.77536   0.10156223    -119.6738   -901.55523    4.2265325    4.2265325    4.2265325   -901.55523   -6124.1062    4057.7015   -638.26101   -316.20909    930.69304   -475.15552     75.50099 
    9900    109.69338   -119.77291  0.099252871   -119.67366    252.03343    4.2260561    4.2260561    4.2260561    252.03343   -3889.0602    5434.2673   -789.10688    312.46868   -390.49106    1104.4242     75.47546 
   10000    103.34166   -119.76757   0.09350571   -119.67407    1246.3198    4.2256932    4.2256932    4.2256932    1246.3198   -2578.3807    7475.5473   -1158.2073    257.20663   -320.86013    1645.6863    75.456019 
   10100     43.81977   -119.71419  0.039649049   -119.67454    1907.1422    4.2262479    4.2262479    4.2262479    1907.1422   -6079.9567    12082.963   -281.58023     796.8188    1977.1418     998.2016    75.485736 
   10200    82.723955   -119.74922  0.074850373   -119.67437    1715.5353    4.2261609    4.2261609    4.2261609    1715.5353   -5405.5409    10257.794    294.35286    890.59273    960.47503    211.10822    75.481074 
   10300    121.67128   -119.78408   0.11009073   -119.67399    1763.2154    4.2259957    4.2259957    4.2259957    1763.2154   -573.12746     7015.591   -1152.8174    900.32022    304.20076   -480.33467    75.472223 
   10400    103.50039   -119.76745  0.093649326    -119.6738   -194.78976    4.2269872    4.2269872    4.2269872   -194.78976   -4354.2776    5178.2289   -1408.3206    245.79226   -223.97888   -50.596193    75.525358 
   10500     80.69388   -119.74711  0.073013518   -119.67409   -27.312624    4.2266706    4.2266706    4.2266706   -27.312624   -2427.1706     3946.952   -1601.7193    914.26981    -10.39463    1234.5575     75.50839 
   10600    71.884569    -119.7394  0.065042668   -119.67435   -788.49429     4.226624     4.226624     4.226624   -788.49429   -3299.6324      2579.45   -1645.3004    951.70132    427.04397   -131.43068    75.505893 
   10700    114.21523   -119.77741   0.10334434   -119.67407    -1454.917    4.2273298    4.2273298    4.2273298    -1454.917   -4586.1571    3165.5501   -2944.1439   -119.73306    237.10272   -359.85842    75.543726 
   10800    104.87802   -119.76868  0.094895841   -119.67378   -65.074045       4.2267       4.2267       4.2267   -65.074045   -4756.0101    5168.9005   -608.11249   -471.14753   -1273.8096   -618.76023    75.509968 
   10900    130.83825   -119.79221    0.1183852   -119.67382   -1508.8569    4.2264948    4.2264948    4.2264948   -1508.8569    -3966.715    1311.6464   -1871.5021   -575.04091   -290.78612    501.12171    75.498968 
   11000    68.610572   -119.73631  0.062080288   -119.67422    1836.3824    4.2261907    4.2261907    4.2261907    1836.3824   -3557.1266    6573.6838    2492.5899   -569.73442    986.29127    953.87692    75.482672 
   11100    92.729579   -119.75807  0.083903671   -119.67417   -714.82996    4.2254042    4.2254042    4.2254042   -714.82996   -6081.6711    1200.6567    2736.5245    108.88541    634.04139   -332.31891    75.440538 
   11200    125.34382   -119.78716   0.11341373   -119.67375     1716.279    4.2251253    4.2251253    4.2251253     1716.279    -495.8412    1907.0712    3737.6069   -1193.0003     493.6492    537.31471    75.425602 
   11300    139.66859   -119.80013   0.12637507   -119.67375   -342.40205    4.2255267    4.2255267    4.2255267   -342.40205   -1170.8936   -929.49284    1073.1803   -370.29251   -157.24653    471.76804    75.447101 
   11400    99.674432   -119.76444  0.090187521   -119.67425   -562.29551    4.2257629    4.2257629    4.2257629   -562.29551   -2614.2483    918.86554    8.4962276      1013.21    1018.4587    1512.3799    75.459755 
   11500    76.336181   -119.74346  0.069070581   -119.67439   -503.14347    4.2271972    4.2271972    4.2271972   -503.14347   -2340.4157    3566.9991   -2736.0138    760.75024    1658.0843    1599.7446    75.536617 
   11600    127.49915   -119.78927   0.11536391    -119.6739   -4007.2797    4.2282059    4.2282059    4.2282059   -4007.2797   -6758.0878    29.205869   -5292.9572    1110.2164    1158.6687   -376.38411    75.590705 
   11700    105.03052   -119.76864  0.095033821    -119.6736    -1223.271    4.2280772    4.2280772    4.2280772    -1223.271   -3677.3685    4089.6242   -4082.0688    570.44215    249.39242   -99.038932    75.583799 
   11800    127.80118   -119.78958   0.11563719   -119.67394   -4248.3153    4.2284486    4.2284486    4.2284486   -4248.3153   -8631.6352    1327.1339   -5440.4446    126.15597     544.5217    1035.9648    75.603721 
   11900    66.708927   -119.73483  0.060359639   -119.67447    1365.5273    4.2265689    4.2265689    4.2265689    1365.5273   -2486.3052    7123.9001     -541.013    1628.4128    1408.7318   -377.61643    75.502939 
   12000    84.993001   -119.75133  0.076903454   -119.67442     418.8212    4.2252028    4.2252028    4.2252028     418.8212   -4862.8355    5033.6889    1085.6103   -116.03723     804.3777     836.6163    75.429751 
   12100     69.30483   -119.73688  0.062708467   -119.67417    4549.2077     4.224622     4.224622     4.224622    4549.2077   -1761.2735    11936.311    3472.5863    83.865659   -768.94825   -1888.4871    75.398648 
   12200    123.59357   -119.78556   0.11183006   -119.67373    3985.4225    4.2242112    4.2242112    4.2242112    3985.4225   -225.89838    9446.3282    2735.8378   -58.318113   -937.25756   -833.06919    75.376658 
   12300    71.196807   -119.73855  0.064420367   -119.67413    3813.5657     4.224689     4.224689     4.224689    3813.5657   -66.373673     9996.323    1510.7477   -579.78663     316.9735   -137.22997    75.402238 
   12400    66.305252   -119.73435  0.059994386   -119.67436    1221.8656    4.2269481    4.2269481    4.2269481    1221.8656   -4301.8772    9664.5708   -1697.0969    189.79157    243.59365   -881.28328    75.523265 
   12500    82.846828   -119.74934  0.074961551   -119.67438   -1999.6023    4.2281456    4.2281456    4.2281456   -1999.6023   -5754.4359    2643.8322   -2888.2032    57.972477    741.69458   -777.17924    75.587467 
   12600    113.60521   -119.77679   0.10279238   -119.67399   -3334.8829    4.2288992    4.2288992    4.2288992   -3334.8829   -5923.6891    350.52354   -4431.4833   -1218.1702   -477.85602   -692.56505    75.627895 
   12700    119.58732   -119.78184   0.10820512   -119.67363   -4509.0591    4.2294075    4.2294075    4.2294075   -4509.0591   -7843.1381   -644.85181   -5039.1874    766.96399     873.8241   -712.85389    75.655165 
   12800    92.858368   -119.75794  0.084020203   -119.67392    -1883.694    4.2276036    4.2276036    4.2276036    -1883.694   -6264.2906    2452.7932   -1839.5845   -162.32145    1886.1241    1397.6986    75.558406 
   12900    119.48024   -119.78194   0.10810823   -119.67383    -609.2241    4.2256877    4.2256877    4.2256877    -609.2241   -2241.2806    886.17241   -472.56408    456.10552    992.43161    144.81202    75.455725 
   13000    91.673906   -119.75685  0.082948476    -119.6739    2751.7932    4.2242907    4.2242907    4.2242907    2751.7932   -1284.7111    7017.4827     2522.608     136.6164   -308.48418    305.83871    75.380913 
   13100    146.90264   -119.80638   0.13292059   -119.67346    1880.6459    4.2232402    4.2232402    4.2232402    1880.6459   -1339.4068    4241.6158    2739.7285   -972.17622    261.51864    1103.3622    75.324687 
   13200    109.18376   -119.77261  0.098791761   -119.67382    2570.9573    4.2239357    4.2239357    4.2239357    2570.9573    3179.4909    3155.8721    1377.5089    -216.0972    8.3608797   -558.67288    75.361907 
   13300    110.57653   -119.77412   0.10005197   -119.67407   -1708.2594    4.2262743    4.2262743    4.2262743   -1708.2594   -5001.6545    1112.4912   -1235.6148    124.94645    589.30282    1922.6576    75.487152 
   13400    79.654768   -119.74627  0.072073308    -119.6742   -2261.1603    4.2277549    4.2277549    4.2277549   -2261.1603   -5112.8239   -1025.9486   -644.70832   -1121.8606   -197.75228   -877.71152    75.566518 
   13500    115.18465   -119.77802    0.1042215    -119.6738   -4342.0436    4.2296326    4.2296326    4.2296326   -4342.0436    -7636.984   -1602.5049   -3786.6419   -405.84612   -1310.2566   -1247.3428    75.667246 
   13600    107.59631   -119.77091  0.097355405   -119.67355    -2750.755    4.2294345    4.2294345    4.2294345    -2750.755    -6580.096    760.20814   -2432.3773   -764.56127    197.04519   -115.68351    75.656617 
   13700    91.727247   -119.75686  0.082996741   -119.67386   -694.61602    4.2276032    4.2276032    4.2276032   -694.61602   -6687.3586    5175.9619    -572.4514    186.28619    794.95959   -947.93821    75.558383 
   13800    93.066593   -119.75842  0.084208609   -119.67421    1625.1779    4.2260667    4.2260667    4.2260667    1625.1779     -2582.18    7997.5007   -539.78691     240.4657   -104.68524   -589.94328    75.476026 
   13900     82.15591   -119.74852  0.074336394   -119.67418    3977.6252    4.2241024    4.2241024    4.2241024    3977.6252    292.50887    9000.4228     2639.944   -217.60974   -103.59464    17.122756    75.370833 
   14000    96.051575   -119.76077  0.086909483   -119.67386    3594.7675    4.2228123    4.2228123    4.2228123    3594.7675   -1696.3162    10336.877    2143.7413   -240.23565    29.463157   -2805.1531    75.301793 
   14100    95.345124    -119.7601  0.086270272   -119.67383    3379.3585    4.2240521    4.2240521    4.2240521    3379.3585    702.72731    9304.4174    130.93075    596.03731    992.85098    1179.4078    75.368141 
   14200     106.9853    -119.7707  0.096802546   -119.67389    711.13941    4.2254123    4.2254123    4.2254123    711.13941   -2271.6889    5973.0849   -1567.9777    296.84358    1536.4598    155.47226    75.440973 
   14300    69.896929   -119.73728   0.06324421   -119.67403   -183.64501    4.2268391    4.2268391    4.2268391   -183.64501   -6401.0481    6976.1653   -1126.0523   -102.14417    157.66476   -175.09479    75.517421 
   14400    93.529937   -119.75861  0.084627852   -119.67398   -2441.1107    4.2292304    4.2292304    4.2292304   -2441.1107   -6760.7874    3583.9254   -4146.4703   -697.29076    132.31009    1287.3563    75.645663 
   14500    93.406625   -119.75842  0.084516277   -119.67391   -1883.0891    4.2295168    4.2295168    4.2295168   -1883.0891   -7495.9718    4228.4173   -2381.7127    114.04671    988.74259   -54.699473    75.661034 
   14600     104.2579   -119.76809  0.094334741   -119.67375   -2052.2147    4.2285056    4.2285056    4.2285056   -2052.2147   -6073.4658    2747.6819   -2830.8601    59.993578    1012.1995    1440.7539    75.606777 
   14700     95.86181    -119.7607   0.08673778   -119.67397   -388.84138    4.2274603    4.2274603    4.2274603   -388.84138   -4967.6715    4493.0217    -691.8744    575.89938   -197.67413    1392.6663    75.550722 
   14800    92.080026    -119.7573  0.083315942   -119.67398    1115.9171    4.2252514    4.2252514    4.2252514    1115.9171   -941.89119    1802.7318    2486.9107    -471.7766   -903.09023   -278.20646    75.432357 
   14900    107.95778   -119.77139  0.097682464   -119.67371    1555.9677    4.2237418    4.2237418    4.2237418    1555.9677    -1077.389    2506.9556    3238.3363   -417.78124    -500.1491    46.383985    75.351531 
   15000    92.117974   -119.75728  0.083350279   -119.67393    2920.1868    4.2238453    4.2238453    4.2238453    2920.1868     -2.81175    5919.3737    2843.9985    52.307473    621.00407    104.68694    75.357069 
   15100    154.98777   -119.81396   0.14023619   -119.67372   -552.18102    4.2249383    4.2249383    4.2249383   -552.18102    -2337.999    118.62655    562.82938   -304.74327    144.47977   -755.98036    75.415589 
   15200    93.298962   -119.75855  0.084418861   -119.67413    564.44529    4.2264612    4.2264612    4.2264612    564.44529   -2905.6414    5308.2083     -709.231   -940.17519    69.854074    627.50311     75.49717 
   15300    126.02953   -119.78792   0.11403417   -119.67389   -5505.0329    4.2286465    4.2286465    4.2286465   -5505.0329    -9181.163   -2661.7901   -4672.1457   -1079.1904    309.30656   -1805.4141    75.614338 
   15400    79.792003   -119.74613  0.072197481   -119.67393   -1805.3189    4.2287013    4.2287013    4.2287013   -1805.3189   -4661.6374    2046.1048   -2800.4239   -1913.7503    1662.7321    173.06274    75.617276 
   15500    149.83295   -119.80913     0.135572   -119.67356   -5879.1912    4.2289709    4.2289709    4.2289709   -5879.1912   -8034.1912   -2899.5308   -6703.8515   -275.87664    1910.2427   -256.77704    75.631742 
   15600    88.978829   -119.75423  0.080509914   -119.67372    200.35974    4.2272343    4.2272343    4.2272343    200.35974   -1195.9081    3458.1261   -1661.1387   -1402.4908    494.72046    1071.6251    75.538605 
   15700    113.16074    -119.7765   0.10239022   -119.67411   -756.47031    4.2256991    4.2256991    4.2256991   -756.47031   -4591.3783    2712.5982   -390.63081   -1235.5315    70.067148    693.66369    75.456333 
   15800     62.89469   -119.73139  0.056908437   -119.67448    4256.5427    4.2245712    4.2245712    4.2245712    4256.5427    1310.5101    9256.6015    2202.5165    -612.8517    1072.6936    291.36815    75.395928 
   15900     83.85407   -119.75005  0.075872924   -119.67417    4036.9326    4.2241322    4.2241322    4.2241322    4036.9326   -1751.8994    11714.823    2147.8745   -278.92188    889.17361    411.49436    75.372427 
   16000    91.920697   -119.75709  0.083171778   -119.67392    3792.2088    4.2241705    4.2241705    4.2241705    3792.2088   -2598.7594    10711.407    3263.9786    791.10937     659.5083    1714.2836    75.374478 
   16100    104.38751   -119.76839  0.094452014   -119.67393    2919.1372    4.2257253    4.2257253    4.2257253    2919.1372   -1618.3763    10058.208    317.58012    1164.6697   -254.70458    543.64938    75.457739 
   16200    77.357341    -119.7442  0.069994548   -119.67421   -683.06804    4.2268874    4.2268874    4.2268874   -683.06804   -6755.4884    5649.4478   -943.16347   -366.46934   -409.21945    537.90379    75.520009 
   16300    53.179445   -119.72252  0.048117879    -119.6744   -138.57676    4.2274508    4.2274508    4.2274508   -138.57676   -6247.9968    7167.9507   -1335.6841    1345.2682     1188.542    118.86342    75.550211 
   16400    119.82939   -119.78253   0.10842415   -119.67411   -2960.2096    4.2283442    4.2283442    4.2283442   -2960.2096   -5680.1686     2754.421   -5954.8811    406.59665    689.37472   -489.34331    75.598123 
   16500    108.26112   -119.77186  0.097956941    -119.6739   -1152.7083    4.2277579    4.2277579    4.2277579   -1152.7083   -3245.7005    3492.6992   -3705.1237    222.50727   -978.09391    516.82932    75.566677 
   16600    120.26591   -119.78253   0.10881912   -119.67371   -1636.9149    4.2269746    4.2269746    4.2269746   -1636.9149   -4907.6637     2618.652   -2621.7329   -58.623504   -123.97482   -1328.4958    75.524685 
   16700    70.598244   -119.73817  0.063878775   -119.67429    390.22827     4.226195     4.226195     4.226195    390.22827   -1878.6382    3762.8669   -713.54392   -1315.2163    402.07932   -574.68509    75.482904 
   16800    112.04312   -119.77559   0.10137897   -119.67422    211.11191    4.2258529    4.2258529    4.2258529    211.11191   -1763.2101    1999.9097     396.6361   -509.61375    1331.7093   -1368.5277    75.464573 
   16900    105.31564   -119.76919  0.095291805    -119.6739    298.92598    4.2257592    4.2257592    4.2257592    298.92598   -4830.7136    3170.4946    2556.9969    50.226015    796.55469   -2.1721427    75.459553 
   17000    139.34253   -119.79986   0.12608005   -119.67378   -524.06397    4.2259545    4.2259545    4.2259545   -524.06397   -2961.0831    1130.4724    258.41886   -1266.7804   -161.08062   -304.82642    75.470017 
   17100    104.27983   -119.76865  0.094354584    -119.6743   -59.144963    4.2263436    4.2263436    4.2263436   -59.144963   -3771.3434    1131.0148    2462.8937    75.714321    252.00598     134.6112    75.490868 
   17200    71.494638     -119.739  0.064689851   -119.67431   -1169.3102    4.2267275    4.2267275    4.2267275   -1169.3102    -8199.518    3655.6852    1035.9021    -117.4584    1919.4613   -127.16926    75.511437 
   17300     102.2474   -119.76646  0.092515595   -119.67394   -528.64739    4.2265805    4.2265805    4.2265805   -528.64739   -3398.7136    2266.2725   -453.50111    820.36379    182.93424    756.22446    75.503561 
   17400    134.13521   -119.79499   0.12136836   -119.67363   -1732.9464    4.2271527    4.2271527    4.2271527   -1732.9464   -3232.4602   -812.12944   -1154.2496    737.58159   -896.39717    461.47086    75.534228 
   17500    120.63957   -119.78288   0.10915722   -119.67372   -1261.7464    4.2273967    4.2273967    4.2273967   -1261.7464   -4493.4959    2261.7346    -1553.478   -4.7052295   -843.37411    1887.2295    75.547312 
   17600    73.143994   -119.74045  0.066182223   -119.67427   -1052.5952    4.2271123    4.2271123    4.2271123   -1052.5952   -3010.3505    1384.5912   -1532.0263   -118.50781     -121.556    -461.7676    75.532065 
   17700    87.598614   -119.75362  0.079261067   -119.67436   -963.06582    4.2272938    4.2272938    4.2272938   -963.06582   -3966.0994    1890.1797   -813.27776    361.91132    555.34717    190.25581    75.541794 
   17800    104.30238   -119.76835  0.094374989   -119.67397    526.77185    4.2269808    4.2269808    4.2269808    526.77185   -4189.8622    7016.5861   -1246.4084    -477.5298   -444.83237    266.22128    75.525015 
   17900     112.0263   -119.77492   0.10136375   -119.67356    142.49042    4.2260804    4.2260804    4.2260804    142.49042   -4530.3284    7131.5576   -2173.7579   -358.64452   -581.29238   -381.89707    75.476762 
   18000    98.860383   -119.76343  0.089450952   -119.67398    2245.4197    4.2257213    4.2257213    4.2257213    2245.4197   -3088.7459    9623.4946    201.51039    -1000.704    567.52584    236.54896    75.457524 
   18100    62.076863   -119.73068   0.05616845   -119.67451    2021.5649    4.2252608    4.2252608    4.2252608    2021.5649   -5125.7852    11521.373    -330.8935   -278.57187    2245.7411   -1656.6677     75.43286 
   18200    70.200472   -119.73793  0.063518862   -119.67442    2091.0611    4.2250724    4.2250724    4.2250724    2091.0611   -4852.3035    10020.257    1105.2296   -240.75424    545.32234   -980.92067    75.422765 
   18300    104.61796   -119.76869  0.094660531   -119.67403    2107.8483     4.225662     4.225662     4.225662    2107.8483   -747.81287    5438.6887    1632.6692    265.77105    182.36699   -814.44495    75.454349 
   18400    131.04584   -119.79231   0.11857303   -119.67373   -383.48998    4.2264063    4.2264063    4.2264063   -383.48998   -4085.4278    3141.9059   -206.94803    133.35833    115.45706   -1171.9459    75.494228 
   18500    60.779008   -119.72909  0.054994123   -119.67409    851.88608    4.2270247    4.2270247    4.2270247    851.88608   -1530.8312    2964.7185    1121.7709    340.49551    1494.2418   -1298.1208    75.527371 
   18600    85.689532   -119.75186  0.077533689   -119.67432   -2703.9571    4.2282296    4.2282296    4.2282296   -2703.9571   -7160.3563   -1419.5724    468.05743    1198.8214    872.01191    -506.2055    75.591976 
   18700    99.046498   -119.76427  0.089619353   -119.67465   -240.59458    4.2275628    4.2275628    4.2275628   -240.59458   -3291.0183    4248.5464   -1679.3118    1260.8746    106.90691   -1146.2192    75.556214 
   18800    147.52049   -119.80747   0.13347964   -119.67399   -3130.2964    4.2274047    4.2274047    4.2274047   -3130.2964   -5630.5548   -945.33972   -2814.9947    586.89932   -782.57134    1454.9292     75.54774 
   18900    108.37629   -119.77217  0.098061142   -119.67411   -784.16104    4.2267032    4.2267032    4.2267032   -784.16104   -5329.7707    4267.8695   -1290.5819    485.99224    536.17976    -972.0051    75.510136 
   19000    117.55243   -119.78067   0.10636391    -119.6743    -1594.416    4.2251986    4.2251986    4.2251986    -1594.416     -4011.65    630.50467   -1402.1026   -405.65433    1435.1025    389.50225    75.429529 
   19100    86.716822   -119.75274  0.078463203   -119.67428    79.439653    4.2247757    4.2247757    4.2247757    79.439653   -3620.4025     2977.749    880.97241    829.57989   -311.98063   -202.50574    75.406878 
   19200    118.62825     -119.781   0.10733733   -119.67366   -75.251861    4.2254876    4.2254876    4.2254876   -75.251861   -4146.4685    2057.4057    1863.3072   -95.950238   -966.70519   -593.25586    75.445004 
   19300    143.76091   -119.80355   0.13007789   -119.67347    48.520012    4.2256235    4.2256235    4.2256235    48.520012   -45.552658    1434.9227     -1243.81   -643.92147   -343.48504    1108.9567    75.452286 
   19400    102.65029   -119.76687  0.092880136   -119.67399   -153.24144    4.2274232    4.2274232    4.2274232   -153.24144   -3858.7506    3161.7148    237.31143    181.20702    1336.6277   -141.16425    75.548733 
   19500    64.613894   -119.73282   0.05846401   -119.67436    -1628.178    4.2291693    4.2291693    4.2291693    -1628.178   -7478.5023    3887.9875   -1294.0193     62.64592    780.47326   -1172.5092    75.642384 
   19600    72.142718   -119.73954  0.065276247   -119.67427   -1077.5893    4.2285942    4.2285942    4.2285942   -1077.5893   -6456.6065    5941.1736   -2717.3348    596.36606    206.40065    592.68067    75.611532 
   19700    121.97446   -119.78422   0.11036506   -119.67386   -2124.9951    4.2286816    4.2286816    4.2286816   -2124.9951   -5250.4392    2818.6391   -3943.1851    643.90276   -613.31776   -1322.0438     75.61622 
   19800    80.978493   -119.74715  0.073271042   -119.67388    455.06521    4.2274142    4.2274142    4.2274142    455.06521   -6894.2226    8787.6255   -528.20736   -680.63593    1167.9784   -185.16099    75.548249 
   19900    83.682188   -119.74985  0.075717402   -119.67413    1067.1632    4.2247631    4.2247631    4.2247631    1067.1632   -3857.2772    6834.8169    223.94983    818.77735    1517.3281    -448.7424    75.406207 
   20000    60.573034   -119.72929  0.054807754   -119.67448    4509.3542    4.2239351    4.2239351    4.2239351    4509.3542   -682.76193     10010.69    4200.1346   -32.375073   -664.51047   -2468.8044    75.361879 
   20100    94.370755    -119.7597  0.085388643   -119.67431    3071.7271    4.2241353    4.2241353    4.2241353    3071.7271   -4431.3009     10169.67    3476.8125   -382.49916   -1334.1213    1062.2764    75.372593 
   20200    109.23793    -119.7728  0.098840778   -119.67396     3064.957    4.2242705    4.2242705    4.2242705     3064.957    600.79723    7629.2787    964.79504    72.221442   -255.00641   -542.96972    75.379833 
   20300    134.20499   -119.79526   0.12143149   -119.67383   -233.86663    4.2270434    4.2270434    4.2270434   -233.86663   -2365.1978    2832.6558   -1169.0579   -877.54579    727.12292   -761.99532     75.52837 
   20400    84.516879   -119.75053  0.076472648   -119.67405   -3283.8908    4.2290459    4.2290459    4.2290459   -3283.8908   -8912.0618     2380.305   -3319.9157    72.919318   -219.84553    724.10722    75.635761 
   20500    78.430284    -119.7448  0.070965369   -119.67383   -4669.9087    4.2294283    4.2294283    4.2294283   -4669.9087   -6726.1358   -2259.6721    -5023.918    970.97455   -621.01815    -773.5336    75.656282 
   20600     139.3963   -119.79976   0.12612871   -119.67363   -6325.0111    4.2304231    4.2304231    4.2304231   -6325.0111   -8091.3723   -4339.7377   -6543.9233   -190.51232   -1346.9419    579.28121    75.709679 
   20700    126.35148     -119.788   0.11432548   -119.67367   -2828.1619    4.2283553    4.2283553    4.2283553   -2828.1619   -5440.0306     -1156.79   -1887.6651       855.28    1439.9933    795.39266    75.598715 
   20800    114.13539   -119.77735    0.1032721   -119.67408    -1365.615    4.2258667    4.2258667    4.2258667    -1365.615   -5350.5389    633.65386    620.04007    292.42418     758.0321   -1765.5462    75.465313 
   20900    68.132038   -119.73609    0.0616473   -119.67444    3219.2644    4.2249729    4.2249729    4.2249729    3219.2644   -1975.0936    4582.1978     7050.689    712.78427   -666.42439    35.599537    75.417441 
   21000    118.31969   -119.78103   0.10705814   -119.67398    2700.3915    4.2235003    4.2235003    4.2235003    2700.3915     -2406.16    5283.7373    5223.5971    914.17694   -1050.8557   -905.88722    75.338608 
   21100    86.718909   -119.75222  0.078465091   -119.67375    3423.1153    4.2237665    4.2237665    4.2237665    3423.1153   -1047.1887    5510.3763    5806.1584   -374.44622    75.657755   -1466.0515    75.352855 
   21200    139.16258   -119.79953   0.12591722   -119.67362   -553.98984    4.2267456    4.2267456    4.2267456   -553.98984   -2892.3186    1427.0683   -196.71927   -333.63919    751.95421    461.42315    75.512408 
   21300    78.348701   -119.74513  0.070891551   -119.67424   -580.44118    4.2271379    4.2271379    4.2271379   -580.44118   -5767.0296    3996.1527    29.553341   -57.025511    156.08253   -2553.0881    75.533438 
   21400    70.819471   -119.73845  0.064078946   -119.67437   -3977.9492    4.2288287    4.2288287    4.2288287   -3977.9492   -7768.1543    1040.4999   -5206.1931   -379.67465   -1145.2189   -544.28902    75.624111 
   21500    78.027898   -119.74484  0.070601281   -119.67424    -1717.135    4.2300235    4.2300235    4.2300235    -1717.135    -6880.426    4864.4274   -3135.4063   -497.10626   -1101.0271   -909.28231     75.68823 
   21600    137.36607   -119.79815    0.1242917   -119.67386   -2232.0511    4.2278901    4.2278901    4.2278901   -2232.0511   -5598.8629    4028.6762   -5125.9667   -946.65648    936.94287   -1352.0335    75.573768 
   21700    96.452084    -119.7614  0.087271873   -119.67413    1601.5173    4.2265947    4.2265947    4.2265947    1601.5173   -3007.0888     8267.298   -455.65721   -195.55145   -386.34991    67.560135     75.50432 
   21800    65.394969   -119.73349  0.059170742   -119.67432    1387.8227    4.2261289    4.2261289    4.2261289    1387.8227   -6081.4291    8833.9089    1410.9883    454.80534   -964.07722   -147.99976     75.47936 
   21900    88.085955   -119.75405  0.079702023   -119.67435    2973.2195    4.2236615    4.2236615    4.2236615    2973.2195   -1400.5525    7967.0315    2353.1794     361.4147   -2174.4752    139.43575    75.347234 
   22000    104.04187   -119.76821  0.094139267   -119.67407    2289.3923    4.2244112    4.2244112    4.2244112    2289.3923   -1347.4054    6324.9874    1890.5948    423.58384    110.28848    2759.9817    75.387362 
   22100    118.04101   -119.78039   0.10680598   -119.67359   -355.51137    4.2262221    4.2262221    4.2262221   -355.51137     -4778.57    3273.8053    438.23057   -19.440829    589.38243   -166.39626    75.484356 
   22200    101.41019   -119.76582   0.09175807   -119.67406    638.72235    4.2260796    4.2260796    4.2260796    638.72235    -2320.573     3579.908    656.83199    643.63772   -60.142213       1509.7    75.476721 
   22300     87.84814   -119.75373  0.079486844   -119.67425   -2953.4147    4.2284652    4.2284652    4.2284652   -2953.4147   -6698.4009    118.84303   -2280.6864    255.89673   -1067.6059     613.2825    75.604612 
   22400    71.325771   -119.73879  0.064537056   -119.67425   -1214.1879    4.2292569    4.2292569    4.2292569   -1214.1879   -7712.6593    2714.2424    1355.8533   -372.09124   -26.275935    307.96761    75.647087 
   22500    143.18982   -119.80325   0.12956116   -119.67369   -3405.4338    4.2278748    4.2278748    4.2278748   -3405.4338   -4959.9054   -3457.2373   -1799.1586   -796.00904    605.68612    1036.5076    75.572944 
   22600    127.75338   -119.78944   0.11559394   -119.67384   -1651.9158    4.2281036    4.2281036    4.2281036   -1651.9158   -4584.4498   -699.07608    327.77838   -1093.6657    419.27895   -746.55422    75.585219 
   22700    92.092699   -119.75738  0.083327409   -119.67406   -1979.0851    4.2269418    4.2269418    4.2269418   -1979.0851   -6171.9777    8.5854917    226.13684   -16.827179    -1357.047   -1105.6854    75.522927 
   22800    80.014617   -119.74668  0.072398907   -119.67428   -642.43797    4.2248177    4.2248177    4.2248177   -642.43797   -4189.6164    489.91728    1772.3852   -85.586796   -1616.0992     74.04199    75.409129 
   22900      133.517   -119.79458   0.12080899   -119.67377    542.79861    4.2259217    4.2259217    4.2259217    542.79861   -1067.2473    4719.4682   -2023.8251   -562.88354    611.65263   -1586.7631    75.468258 
   23000    121.73297   -119.78356   0.11014655   -119.67341    408.11048    4.2254141    4.2254141    4.2254141    408.11048   -4450.9806    5442.1205    233.19149    464.02883   -116.15684   -126.08739     75.44107 
   23100    105.63792   -119.76951  0.095583412   -119.67392    1486.7063    4.2251969    4.2251969    4.2251969    1486.7063   -2111.5919    7827.0881   -1255.3775    515.38185   -485.41298   -251.24563    75.429437 
   23200    92.866994   -119.75849  0.084028008   -119.67446    578.62687    4.2275513    4.2275513    4.2275513    578.62687     -4066.15    7446.5543   -1644.5237    1066.2438   -1157.5835   -773.64695    75.555598 
   23300    71.292957   -119.73893  0.064507366   -119.67442   -441.16193    4.2272518    4.2272518    4.2272518   -441.16193   -8096.7099    6685.8892    87.334849    919.32724   -395.31171    1082.3414    75.539544 
   23400     89.32356   -119.75491  0.080821834   -119.67409   -612.55216    4.2269783    4.2269783    4.2269783   -612.55216   -4554.8109    2355.5763    361.57811   -1015.3821    557.33123     544.0359    75.524884 
   23500    114.22733   -119.77726   0.10335528   -119.67391    -1500.698    4.2285326    4.2285326    4.2285326    -1500.698   -5856.0648    3760.1873   -2406.2166    558.11344    106.49462    1180.3796    75.608226 
   23600    78.600646   -119.74528  0.071119517   -119.67416    515.84682    4.2266041    4.2266041    4.2266041    515.84682   -5068.6562    6026.8912    589.30554   -90.779167   -1572.1997     1426.886    75.504824 
   23700    48.478028   -119.71822  0.043863938   -119.67436    1046.6558     4.225858     4.225858     4.225858    1046.6558   -4597.6789    6803.6921     933.9541    -642.1328   -601.10653    922.47268    75.464848 
   23800    90.190799    -119.7559  0.081606531   -119.67429    1981.0444    4.2269504    4.2269504    4.2269504    1981.0444   -3782.3229    10177.928   -452.47166   -386.02043     605.2264    1642.7564    75.523387 
   23900    121.08199   -119.78349   0.10955753   -119.67393    2014.5445     4.225395     4.225395     4.225395    2014.5445   -2450.1193     8061.397     432.3557    -1595.097    113.11197      824.592    75.440048 
   24000    88.895713   -119.75424  0.080434709   -119.67381    1120.1741    4.2256874    4.2256874    4.2256874    1120.1741   -3767.4952    7957.1664   -829.14895   -607.08527    -355.4329   -328.51471    75.455707 
   24100    106.85506   -119.77053  0.096684702   -119.67384   -511.03258    4.2274075    4.2274075    4.2274075   -511.03258   -4938.5749    5189.8888   -1784.4116    197.80296   -1430.8138   -297.92907    75.547888 
   24200    99.756977    -119.7644  0.090262209   -119.67413   -953.99704     4.226034     4.226034     4.226034   -953.99704   -5120.3801    1853.7775    404.61143   -820.06982    2.7696905   -422.19886    75.474278 
   24300    118.92612   -119.78124   0.10760686   -119.67363    -3420.179    4.2271102    4.2271102    4.2271102    -3420.179   -6683.6821   -1502.7367   -2074.1183   -19.963534   -5.7809415   -385.34018    75.531952 
   24400    110.81657    -119.7741   0.10026916   -119.67383   -1953.3377    4.2281003    4.2281003    4.2281003   -1953.3377   -4290.0627    752.44779   -2322.3982    330.38249   -902.00678   -170.43692     75.58504 
   24500    146.89646   -119.80685   0.13291501   -119.67394   -3442.2927    4.2270127    4.2270127    4.2270127   -3442.2927   -5956.6357    -1210.815   -3159.4275    387.55249   -2065.1738   -1016.4771    75.526724 
   24600    73.566083    -119.7408  0.066564138   -119.67423   -950.70496    4.2279339    4.2279339    4.2279339   -950.70496    -4548.737    3770.8972   -2074.2752    1260.2595   -951.30772    87.906101    75.576118 
   24700    103.06911   -119.76715  0.093259094   -119.67389   -2900.9207    4.2285644    4.2285644    4.2285644   -2900.9207   -7382.6698    -38.05912   -1282.0333    -303.5864    145.73632    34.145959    75.609933 
   24800    112.60547   -119.77576    0.1018878   -119.67388   -191.89233    4.2265905    4.2265905    4.2265905   -191.89233   -3508.4964    2011.5384    921.28104    484.88974   -201.49137    769.20085    75.504094 
   24900    119.58985   -119.78193   0.10820741   -119.67372   -1122.4883    4.2272602    4.2272602    4.2272602   -1122.4883   -4125.5471    1330.8795   -572.79732    276.91796   -946.26858    344.06286    75.539993 
   25000    80.912331   -119.74724  0.073211178   -119.67403    425.11103    4.2262808    4.2262808    4.2262808    425.11103   -5582.5968     3625.368    3232.5619    428.88724   -672.33908    1277.9554      75.4875 
   25100    104.05099   -119.76844  0.094147525   -119.67429    1261.2008    4.2243106    4.2243106    4.2243106    1261.2008   -2789.8544    2457.0564    4116.4002   -268.63866    651.64627    709.27753    75.381976 
   25200    95.906399   -119.76083  0.086778126   -119.67405     1697.421    4.2257352    4.2257352    4.2257352     1697.421   -3708.9127    8347.2677    453.90795   -655.14287    190.92191    1174.0753    75.458267 
   25300    83.732427   -119.74956  0.075762859   -119.67379    1544.0038    4.2257675    4.2257675    4.2257675    1544.0038   -4912.6064    8792.9124    751.70528    -252.0032   -358.21698    645.09301    75.460002 
   25400    117.37616   -119.77999   0.10620442   -119.67379    743.06901    4.2256122    4.2256122    4.2256122    743.06901   -2553.8888    7738.0927   -2954.9969     255.3056   -1944.8972   -134.84165    75.451681 
   25500     98.34284   -119.76293  0.088982668   -119.67394   -845.12249    4.2284113    4.2284113    4.2284113   -845.12249   -6798.6605    8827.6568   -4564.3638   -310.90882   -174.33157   -526.07773    75.601722 
   25600    75.414411   -119.74227  0.068236544   -119.67404   -2347.3419    4.2283836    4.2283836    4.2283836   -2347.3419   -6562.9088    2058.9722   -2538.0891    156.16575   -44.790338   -40.378244    75.600232 
   25700    78.013979    -119.7446  0.070588687   -119.67402   -1120.1152    4.2273474    4.2273474    4.2273474   -1120.1152   -6895.8934    4404.3932   -868.84538   -339.68286   -794.54981   -1445.4208    75.544666 
   25800    121.60889     -119.784   0.11003428   -119.67397   -1180.2275    4.2284071    4.2284071    4.2284071   -1180.2275   -3478.0534    2939.0873   -3001.7163    148.16168   -1447.3353   -568.16717    75.601494 
   25900    78.376619   -119.74483  0.070916812   -119.67391    2552.5603    4.2257259    4.2257259    4.2257259    2552.5603   -4689.4326    7724.6972    4622.4162     215.5466   -600.51567   -1869.6665    75.457772 
   26000    90.985894   -119.75621  0.082325949   -119.67388    2489.0239    4.2241712    4.2241712    4.2241712    2489.0239   -2859.2093    6250.3614    4075.9196   -654.35428    43.167587   -1347.4485    75.374516 
   26100    88.799176   -119.75449  0.080347361   -119.67415    4579.4983    4.2250071    4.2250071    4.2250071    4579.4983   -1488.4385    10694.372    4532.5611   -168.52657    180.53259    223.35937    75.419269 
   26200    95.851586   -119.76097  0.086728529   -119.67424    1470.5573    4.2242886    4.2242886    4.2242886    1470.5573   -3947.5276    4813.7261    3545.4734    -497.4474     -968.014   -906.27099      75.3808 
   26300    97.900316   -119.76243  0.088582263   -119.67384   -410.05418    4.2257829    4.2257829    4.2257829   -410.05418   -5117.5018    3517.2584    370.08086     645.0566   -1492.6455   -5.9235711    75.460826 
   26400     134.9855   -119.79601   0.12213772   -119.67387   -3372.9203    4.2288082    4.2288082    4.2288082   -3372.9203   -5609.7672   -1454.1241   -3054.8698   -17.889935    856.46534    679.52442    75.623009 
   26500    106.45342   -119.77011  0.096321289   -119.67379   -5534.1739    4.2289465    4.2289465    4.2289465   -5534.1739   -8890.2953   -5362.2335   -2349.9931   -766.83645     350.3921   -158.62255     75.63043 
   26600    83.625236   -119.74937  0.075665871    -119.6737   -3741.9669    4.2295539    4.2295539    4.2295539   -3741.9669   -6417.5783    -969.5404    -3838.782     91.66197   -352.20783    1553.6824    75.663023 
   26700    136.94209   -119.79749   0.12390808   -119.67358   -4362.7218    4.2296754    4.2296754    4.2296754   -4362.7218   -6778.4195   -1658.4035   -4651.3423    57.402547   -1152.1805    442.22203    75.669544 
   26800    128.11418   -119.78959   0.11592041   -119.67367    614.21341    4.2263638    4.2263638    4.2263638    614.21341   -1457.3293    3025.5677    274.40175    95.305296   -291.01392    6.6992921     75.49195 
   26900    110.06414   -119.77342  0.099588345   -119.67383    285.61369    4.2255171    4.2255171    4.2255171    285.61369   -4902.8304    6292.2646   -532.59313    129.47975     43.26926     1581.127    75.446584 
   27000    82.106753   -119.74856  0.074291916   -119.67427    2967.9153    4.2246969    4.2246969    4.2246969    2967.9153   -1482.8573    7017.7836    3368.8196   -1315.2707   -331.55651   -360.73749    75.402658 
   27100    112.58771   -119.77598   0.10187173   -119.67411    1689.6162     4.223414     4.223414     4.223414    1689.6162   -2607.4547    5554.1849    2122.1184    253.13222   -2182.0016    257.87448    75.333987 
   27200    76.762536   -119.74335  0.069456355   -119.67389    791.95173    4.2253017    4.2253017    4.2253017    791.95173   -5469.1266    6378.0415    1466.9403    371.55939    -1636.719   -13.390314     75.43505 
   27300    109.21407   -119.77279  0.098819184   -119.67397   -618.11344    4.2271458    4.2271458    4.2271458   -618.11344   -5719.0801    2892.5931    972.14661   -937.57341    706.78327   -1764.9917    75.533861 
   27400     86.52775   -119.75261  0.078292126   -119.67432   -172.36669    4.2271517    4.2271517    4.2271517   -172.36669   -5385.6475    2860.6871    2007.8603    397.37802    98.473753    449.49649    75.534178 
   27500    61.933969    -119.7304  0.056039157   -119.67436   -512.89709    4.2291953    4.2291953    4.2291953   -512.89709    -7279.391    7506.2724   -1765.5727   -506.63202   -335.27065   -536.00129    75.643781 
   27600    68.671096   -119.73652  0.062135051   -119.67439    662.55947    4.2287979    4.2287979    4.2287979    662.55947   -4637.9401    6316.6763    308.94225    720.72873    -652.2211   -620.18933    75.622456 
   27700    120.57177   -119.78321   0.10909587   -119.67411    685.63338    4.2266344    4.2266344    4.2266344    685.63338   -3840.7886    7261.7357    -1364.047    650.06892    629.74996     735.6625    75.506452 
   27800    107.40197   -119.77107  0.097179564   -119.67389    1193.0862    4.2265552    4.2265552    4.2265552    1193.0862   -2132.3405    7393.4148   -1681.8159   -287.22987      878.566   -938.73179    75.502204 
   27900    71.151143   -119.73831  0.064379049   -119.67393     732.0056    4.2249352    4.2249352    4.2249352     732.0056   -3950.7767    4392.8983    1753.8952   -122.99847    82.089141    1102.1336    75.415421 
   28000    111.65868    -119.7749   0.10103112   -119.67387    506.84664    4.2238135    4.2238135    4.2238135    506.84664   -2927.3071    3951.2324    496.61465    374.90377   -2104.2771    1431.3057    75.355371 
   28100    112.72406   -119.77592    0.1019951   -119.67393    469.20518    4.2253831    4.2253831    4.2253831    469.20518   -3111.8759    4671.1813   -151.68983   -510.14084   -673.18242   -369.97118    75.439411 
   28200    124.62574   -119.78638   0.11276399   -119.67361    -1798.841    4.2263613    4.2263613    4.2263613    -1798.841     -6630.58    208.28835    1025.7687    388.90088    304.44392    1960.8797    75.491816 
   28300    111.36251   -119.77463   0.10076314   -119.67387   -239.79778    4.2270708    4.2270708    4.2270708   -239.79778   -3673.9376    3216.6217    -262.0774   -1230.2163    -244.2908    117.30859    75.529838 
   28400    111.29226   -119.77465   0.10069957   -119.67395   -3232.0789    4.2293843    4.2293843    4.2293843   -3232.0789   -7555.7107    143.45003    -2283.976   -708.57776   -1056.0433    468.09071    75.653919 
   28500    73.270911   -119.74019   0.06629706   -119.67389   -1357.1952    4.2288132    4.2288132    4.2288132   -1357.1952   -4757.1017   -121.14669    806.66287   -720.73714   -1145.3344    1179.7297    75.623279 
   28600    122.24949   -119.78434   0.11061391   -119.67372   -2894.3571    4.2279157    4.2279157    4.2279157   -2894.3571   -6285.6853   -573.26919   -1824.1167   -869.04658    560.20506   -1674.4823    75.575138 
   28700     127.5486   -119.78925   0.11540866   -119.67384   -1135.0249    4.2275806    4.2275806    4.2275806   -1135.0249   -2360.2585   -604.65392   -440.16227   -325.96655     590.7326    69.159476    75.557172 
   28800    81.420522   -119.74773  0.073670999   -119.67406    117.33895    4.2254077    4.2254077    4.2254077    117.33895   -3198.5034    91.984281    3458.5359   -709.93604   -357.47895   -173.26827    75.440725 
   28900    75.501693   -119.74253  0.068315518   -119.67421     1256.723      4.22452      4.22452      4.22452     1256.723   -4647.4705    5677.9941    2739.6455    434.85377   -1822.6617   -1704.0702    75.393191 
   29000    102.87739   -119.76716  0.093085623   -119.67407      3204.69    4.2251906    4.2251906    4.2251906      3204.69   -2306.9252    9419.4054    2501.5898    818.18963    34.690212    257.18586    75.429097 
   29100    116.06388   -119.77873   0.10501703   -119.67371    1467.6293    4.2250779    4.2250779    4.2250779    1467.6293   -3430.9592    4979.2165    2854.6306    480.97053    874.61719   -1543.5063    75.423062 
   29200    82.437608   -119.74841   0.07459128   -119.67382    1938.3611     4.226423     4.226423     4.226423    1938.3611   -5633.8944    12556.792   -1107.8146    350.72564    695.61076   -914.96642     75.49512 
   29300    109.12475   -119.77294  0.098738368    -119.6742    -1431.568     4.228276     4.228276     4.228276    -1431.568   -4987.4195    3156.8156      -2464.1    419.22187   -1358.7494    1030.3675    75.594463 
   29400    67.565846   -119.73545  0.061134997   -119.67432   -1052.0943    4.2276088    4.2276088    4.2276088   -1052.0943   -6578.5313    5571.6422   -2149.3939    265.99086   -517.79843   -1077.2238    75.558684 
   29500    99.888554   -119.76424  0.090381263   -119.67386   -2945.9073    4.2282123    4.2282123    4.2282123   -2945.9073   -6151.0885    2419.0977   -5105.7312     609.0902    497.06238    946.46141    75.591046 
   29600    111.34419   -119.77453   0.10074656   -119.67378   -662.25836    4.2276352    4.2276352    4.2276352   -662.25836   -3582.5923     3955.544   -2359.7268   -1078.3829    178.93656    297.75777    75.560099 
   29700    111.24056   -119.77444    0.1006528   -119.67379      379.897    4.2257138    4.2257138    4.2257138      379.897   -2206.7152    3042.8745    303.53171   -574.02564   -915.16614    -233.5446    75.457122 
   29800    56.439458   -119.72523  0.051067607   -119.67416    2448.6156    4.2254404    4.2254404    4.2254404    2448.6156   -4389.4461     9039.032     2696.261   -606.31829   -1867.7503    1965.3979     75.44248 
   29900    90.973162   -119.75662  0.082314429    -119.6743    2526.4221    4.2255252    4.2255252    4.2255252    2526.4221   -3997.0662    6871.0212    4705.3115   -455.40163     198.7499   -6.4861043    75.447019 
   30000    124.83323   -119.78688   0.11295173   -119.67392     1461.178    4.2252619    4.2252619    4.2252619     1461.178   -2522.7585    3294.8072    3611.4854   -258.10459    1599.2058    185.86725    75.432919 
   30100    98.745814   -119.76312  0.089347287   -119.67377    243.52745    4.2265552    4.2265552    4.2265552    243.52745   -5387.1097    4775.9142    1341.7779   -1125.0728    594.31657    1438.0683    75.502206 
   30200    110.46095   -119.77386  0.099947388   -119.67391   -2683.1964    4.2276678    4.2276678    4.2276678   -2683.1964   -6280.0305   -2421.0206    651.46193    378.26805     -792.948   -847.67732    75.561844 
   30300    91.231636   -119.75667  0.082548301   -119.67412   -1473.6119    4.2271421    4.2271421    4.2271421   -1473.6119   -4312.9812    1028.4682   -1136.3228   -41.027952    821.53587    945.24216    75.533664 
   30400    118.62848   -119.78107   0.10733754   -119.67374   -4044.2583    4.2279258    4.2279258    4.2279258   -4044.2583   -7195.2622   -930.89626   -4006.6163    398.94678    929.92481   -859.11291     75.57568 
   30500    107.28097   -119.77073   0.09707008   -119.67366    -522.1322    4.2272439    4.2272439    4.2272439    -522.1322   -911.53384    805.56177   -1460.4245    170.57888    954.10519   -1279.4715     75.53912 
   30600    158.61166   -119.81719   0.14351516   -119.67368   -1918.6362    4.2266529    4.2266529    4.2266529   -1918.6362    -4467.865    1464.4405   -2752.4843   -23.124293   -951.31271    741.28602    75.507441 
   30700    72.480965   -119.73988    0.0655823    -119.6743    915.05196     4.226858     4.226858     4.226858    915.05196   -3007.9561     6283.396     -530.284    476.58707   -1141.8069   -927.96775    75.518433 
   30800    91.821266   -119.75725  0.083081811   -119.67417   -1100.1232    4.2267758    4.2267758    4.2267758   -1100.1232   -6775.8348    2141.4565    1334.0087    1365.7612    874.59603    37.808614    75.514026 
   30900    103.39476   -119.76754  0.093553748   -119.67399    151.29592    4.2264996    4.2264996    4.2264996    151.29592   -4592.3811    6122.6185   -1076.3496   -729.89128    1350.3113     152.3805    75.499227 
   31000    125.90172   -119.78764   0.11391852   -119.67372   -685.73673    4.2269696    4.2269696    4.2269696   -685.73673    -4800.055    4056.6943   -1313.8495    466.80103    63.511238    -805.4133    75.524413 
   31100    65.020573   -119.73311   0.05883198   -119.67428    813.78666     4.225937     4.225937     4.225937    813.78666    -5528.886    5859.7741    2110.4718   -920.47033   -629.93222    1481.0966    75.469077 
   31200    74.021813   -119.74152  0.066976492   -119.67454    2026.7775    4.2255441    4.2255441    4.2255441    2026.7775   -4281.0231    9863.3038     498.0518   -219.02477    650.63319    372.47229    75.448031 
   31300    77.199581   -119.74438  0.069851803   -119.67452    3440.7829    4.2256817    4.2256817    4.2256817    3440.7829   -2663.8352    12070.042     916.1421    408.90731    1393.9796    487.95127    75.455405 
   31400    87.418488   -119.75327  0.079098085   -119.67418    2780.9446    4.2254321    4.2254321    4.2254321    2780.9446   -1113.7378     7067.763    2388.8085   -721.34683     929.7856    1339.9639     75.44203 
   31500    113.14444   -119.77623   0.10237547   -119.67386    2081.2459    4.2262207    4.2262207    4.2262207    2081.2459   -2797.8239    8401.5244    640.03709    193.75914    -1049.969   -88.555271    75.484281 
   31600    91.602231   -119.75704  0.082883623   -119.67415    -415.7319    4.2274015    4.2274015    4.2274015    -415.7319   -5097.3769    4254.8657   -404.68452    786.42751   -239.79948    1021.7522    75.547571 
   31700    71.641436   -119.73903  0.064822677   -119.67421   -2050.7162    4.2276925    4.2276925    4.2276925   -2050.7162   -6563.2307   -214.42332    625.50553    621.75366    1112.0499    339.93806    75.563174 
   31800    101.06099    -119.7654  0.091442106   -119.67396   -2874.8828    4.2279954    4.2279954    4.2279954   -2874.8828   -7814.5969    3495.6227   -4305.6743    1093.6047    1746.8526   -1077.4399    75.579415 
   31900    154.07081   -119.81306    0.1394065   -119.67365   -3303.1233    4.2278678    4.2278678    4.2278678   -3303.1233   -4969.8779   -430.84858   -4508.6433    224.82897    123.72962    270.58753    75.572572 
   32000    114.57629    -119.7775   0.10367104   -119.67383   -808.27958    4.2265757    4.2265757    4.2265757   -808.27958   -3873.8993    3037.8101   -1588.7495    246.39833   -790.90267   -886.76481    75.503303 
   32100    81.472213   -119.74782   0.07371777    -119.6741   -354.29585    4.2256462    4.2256462    4.2256462   -354.29585   -6082.3972    5820.7244    -801.2147    1261.8344    1259.0748   -526.56905    75.453503 
   32200    111.78846    -119.7752   0.10114855   -119.67405    2002.1261    4.2251453    4.2251453    4.2251453    2002.1261   -824.19989     5633.923    1196.6553   -242.31092      1365.57   -511.31677    75.426671 
   32300     115.6615   -119.77839   0.10465295   -119.67374    1208.6856    4.2251239    4.2251239    4.2251239    1208.6856    -869.9315    845.88794    3650.1003    611.18655    272.86001   -1243.6228    75.425528 
   32400    129.39054   -119.79054   0.11707528   -119.67347   -566.24949    4.2261603    4.2261603    4.2261603   -566.24949   -3872.6174    844.40572    1329.4632   -578.99445   -810.40633    885.55836    75.481046 
   32500    88.538889   -119.75451  0.080111847    -119.6744   -318.13981    4.2273226    4.2273226    4.2273226   -318.13981   -4151.6394    229.07432    2968.1457   -209.08801    131.82125    681.17722    75.543337 
   32600    92.644242   -119.75832  0.083826457   -119.67449   -3914.6281    4.2285706    4.2285706    4.2285706   -3914.6281   -8303.1494   -2750.8147    -689.9202    568.47811    1374.5414    624.56889    75.610264 
   32700    62.193562   -119.73048  0.056274042    -119.6742   -646.42784    4.2286734    4.2286734    4.2286734   -646.42784   -6648.0267      7254.53   -2545.7868   -638.37158    2018.3273    1555.1369    75.615781 
   32800    142.63474   -119.80278   0.12905891   -119.67372    -3468.156    4.2281974    4.2281974    4.2281974    -3468.156   -7272.2966    650.23918   -3782.4105   -195.13927   -603.02618    10.792698    75.590249 
   32900    101.29979   -119.76561  0.091658177   -119.67395    2257.5591    4.2265158    4.2265158    4.2265158    2257.5591   -2198.7626    9981.1402   -1009.7003   -30.961727    186.50149    2068.7332    75.500092 
   33000    74.612771   -119.74177  0.067511203   -119.67425    1269.0193    4.2251332    4.2251332    4.2251332    1269.0193   -5549.6172    9991.2374   -634.56238     287.7934    1703.3233    902.08236    75.426026 
   33100    61.561555   -119.73006  0.055702189   -119.67436    4367.4996    4.2236479    4.2236479    4.2236479    4367.4996   -1301.5258    10583.424    3820.6005    554.87236    1032.2073    147.93754    75.346505 
   33200    124.70279    -119.7867   0.11283371   -119.67386    3498.9986    4.2239532    4.2239532    4.2239532    3498.9986    828.34332    7192.3049    2476.3477    551.91356    163.66258    657.43998    75.362848 
   33300    109.94777   -119.77305  0.099483053   -119.67357    1584.7946    4.2251168    4.2251168    4.2251168    1584.7946   -2801.5769    7122.0776    433.88305    40.614137   -702.06171   -1043.7404    75.425148 
   33400    77.899772    -119.7446  0.070485351   -119.67412    1269.7468    4.2265439    4.2265439    4.2265439    1269.7468   -4111.9418    6060.9749    1860.2072    1564.1457     220.2107   -625.81156    75.501601 
   33500    84.682242    -119.7509  0.076622272   -119.67428    -2151.453    4.2286544    4.2286544    4.2286544    -2151.453   -7468.2267    4287.5524   -3273.6847    254.71997    1680.9234   -796.44289    75.614758 
   33600    76.451257    -119.7434  0.069174704   -119.67422   -1723.4605    4.2293967    4.2293967    4.2293967   -1723.4605    -7768.785    7193.6142   -4595.2105    649.50422    1197.7826   -2485.0472    75.654585 
   33700     124.0557   -119.78589    0.1122482   -119.67364   -3741.0934    4.2292338    4.2292338    4.2292338   -3741.0934   -7248.1592   -795.86196    -3179.259   -673.13889   -917.87593   -367.22664    75.645843 
   33800    105.00096   -119.76884  0.095007074   -119.67384   -1152.2436    4.2278125    4.2278125    4.2278125   -1152.2436   -6087.8822    4896.3745   -2265.2231    265.79677    596.14314   -1245.6564    75.569606 
   33900    107.90315   -119.77169  0.097633038   -119.67406   -523.76588     4.225995     4.225995     4.225995   -523.76588    -3795.699     2127.049    97.352362     302.1576    1230.5834   -599.48708    75.472187 
   34000    53.236189   -119.72254  0.048169222   -119.67437    2579.7177    4.2241772    4.2241772    4.2241772    2579.7177    -2616.734    3944.8744    6411.0126    224.91026     1027.547    218.43192    75.374837 
   34100    147.67593   -119.80728   0.13362029   -119.67366     1525.226    4.2240253    4.2240253    4.2240253     1525.226   -671.36158    2050.1099    3196.9296    98.511893   -261.88553   -1155.8494    75.366703 
   34200      124.659   -119.78678   0.11279408   -119.67398    2923.5153    4.2243453    4.2243453    4.2243453    2923.5153    762.26636    5116.2703    2892.0091   -438.39273   -621.92866    974.93351    75.383836 
   34300    119.01185   -119.78164   0.10768442   -119.67396   -1709.3892    4.2266178    4.2266178    4.2266178   -1709.3892   -4974.6838    196.06222   -349.54613     365.8426    990.85349    785.15782    75.505558 
   34400    76.183402   -119.74319  0.068932343   -119.67425   -2030.2863    4.2287249    4.2287249    4.2287249   -2030.2863   -6765.4533    5446.7625   -4772.1681    485.75922    2050.3013    -117.3147     75.61854 
   34500    125.98913   -119.78783   0.11399761   -119.67383   -6534.3555    4.2298804    4.2298804    4.2298804   -6534.3555   -8192.5528   -2874.8519   -8535.6618   -796.16825       1059.3    692.10173    75.680547 
   34600    111.59974   -119.77452   0.10097779   -119.67355   -4744.4807     4.230041     4.230041     4.230041   -4744.4807    -7154.731   -1701.3089   -5377.4021   -461.16803   -345.28315   -1188.2917    75.689168 
   34700    112.61583   -119.77559   0.10189717   -119.67369   -3872.0427     4.228826     4.228826     4.228826   -3872.0427   -7562.0264    1566.0795   -5620.1813   -142.89194    991.10288    253.76392    75.623964 
   34800    95.758249   -119.76097  0.086644076   -119.67432    857.96186    4.2258576    4.2258576    4.2258576    857.96186   -3778.9937    5420.6044    932.27496   -253.77013    1525.6714     42.10082    75.464826 
   34900    70.635823   -119.73814  0.063912777   -119.67422    4383.8903    4.2243123    4.2243123    4.2243123    4383.8903   -234.22792    8190.0367    5195.8621     793.7688    810.61754   -1921.1021    75.382071 
   35000    84.367896   -119.75007  0.076337845   -119.67373    5541.7166     4.223592     4.223592     4.223592    5541.7166   -1958.5362    13321.583    5262.1035   -1223.4252   -913.43488   -193.98121    75.343516 
   35100    105.37477   -119.76898   0.09534531   -119.67363    6342.0607    4.2232264    4.2232264    4.2232264    6342.0607    1397.9572    12839.368    4788.8567   -252.56017   -258.13329   -1292.1301    75.323953 
   35200    90.779399   -119.75605  0.082139108   -119.67391    2608.7451    4.2256057    4.2256057    4.2256057    2608.7451   -2318.7775    8534.4371    1610.5758   -54.456724    873.35957   -1211.9081    75.451334 
   35300    54.453788   -119.72356  0.049270932   -119.67429   -140.64847    4.2276006    4.2276006    4.2276006   -140.64847   -8055.1688    10992.332   -3359.1081   -634.79684    1603.0335    551.92301    75.558245 
   35400    93.019589   -119.75826  0.084166079   -119.67409   -3698.6837    4.2286298    4.2286298    4.2286298   -3698.6837    -6208.291   -286.08225   -4601.6778   -312.74104    578.47053   -1939.3238     75.61344 
   35500    109.58802     -119.773  0.099157544   -119.67384   -4193.7227    4.2298307    4.2298307    4.2298307   -4193.7227   -7937.3611    1222.1233   -5865.9302   -1527.1388   -241.75325      625.518     75.67788 
   35600    101.01485   -119.76512  0.091400364   -119.67372   -3107.9532     4.228872     4.228872     4.228872   -3107.9532   -5976.1547    2120.7169   -5468.4217   -486.42672    1738.9503    711.76704    75.626432 
   35700    99.855813   -119.76426  0.090351638   -119.67391   -215.79884    4.2266762    4.2266762    4.2266762   -215.79884   -4847.1545    5097.2094   -897.45136     74.32494    1900.1771   -203.66023    75.508691 
   35800     106.8759   -119.77063   0.09670356   -119.67392    2261.6915    4.2257453    4.2257453    4.2257453    2261.6915    -316.5704    5156.8385    1944.8065   -537.70108    816.71442    1303.8672     75.45881 
   35900    108.41222   -119.77178  0.098093651   -119.67368    2502.0996    4.2244967    4.2244967    4.2244967    2502.0996   -1474.3881    6570.5709     2410.116   -101.63002   -375.00676   -620.01006    75.391943 
   36000    104.55445   -119.76836  0.094603068   -119.67375    2386.5008    4.2241799    4.2241799    4.2241799    2386.5008   -1345.1199    4267.8947    4236.7275    407.54814    412.77432   -431.76549    75.374982 
   36100    136.34212   -119.79701   0.12336521   -119.67365   -1254.0459     4.226319     4.226319     4.226319   -1254.0459   -3524.6129    278.19159   -515.71651   -506.50158    706.05749     1457.926     75.48955 
   36200    84.108756   -119.75018   0.07610337   -119.67407   -1298.2732    4.2267566    4.2267566    4.2267566   -1298.2732   -5459.9108    2759.0967   -1194.0055    1598.3622    1445.2042   -1755.7409    75.512998 
   36300    108.26779   -119.77189  0.097962973   -119.67393   -4823.5399    4.2283302    4.2283302    4.2283302   -4823.5399   -8267.4361   -4134.4418   -2068.7417   -570.35699   -594.50178   -2.5857254     75.59737 
   36400    100.60649   -119.76491  0.091030871   -119.67388   -1706.3419    4.2290986    4.2290986    4.2290986   -1706.3419   -4578.9002    1852.5558   -2392.6813    173.12166   -554.22034   -1317.6232    75.638592 
   36500    122.07818   -119.78411    0.1104589   -119.67365   -2899.8613    4.2279292    4.2279292    4.2279292   -2899.8613   -6018.9625    354.39094   -3035.0122    515.72042    1181.9278   -1313.5636    75.575864 
   36600    78.780697   -119.74522   0.07128243   -119.67393    1487.9811    4.2269977    4.2269977    4.2269977    1487.9811   -1307.0126    4141.8068    1629.1493    124.02514    1074.6799    375.38896    75.525923 
   36700    113.10367   -119.77619   0.10233857   -119.67385    654.26399    4.2267307    4.2267307    4.2267307    654.26399   -3442.5686    5622.5714    -217.2108   -54.061398    136.52335   -1602.2411    75.511611 
   36800    96.025809   -119.76091   0.08688617   -119.67402    2262.2869    4.2248152    4.2248152    4.2248152    2262.2869     1575.724     4484.535    726.60173   -430.53704   -206.51637   -1078.8311    75.408997 
   36900    90.754935   -119.75601  0.082116972   -119.67389     1149.692    4.2252885    4.2252885    4.2252885     1149.692   -3168.4461    5571.9115    1045.6105   -1469.5235    602.33864    542.34231    75.434342 
   37000    100.70154   -119.76495  0.091116865   -119.67384   -118.43479    4.2263004    4.2263004    4.2263004   -118.43479   -4490.5626     7673.707   -3538.4487   -251.20153    1694.0902   -611.79235    75.488552 
   37100     100.8196   -119.76506  0.091223697   -119.67384    713.89484    4.2255585    4.2255585    4.2255585    713.89484   -3782.9485    7823.2498   -1898.6168    -563.2209     1860.756    1269.7665    75.448805 
   37200     86.42394   -119.75203  0.078198197   -119.67383   -793.23703    4.2271077    4.2271077    4.2271077   -793.23703   -6412.7322    5704.7462   -1671.7251   -1130.5968    -615.5694    303.51038    75.531818 
   37300    75.464657   -119.74241  0.068282008   -119.67413    1132.2051    4.2275498    4.2275498    4.2275498    1132.2051   -5746.6953    10093.186   -949.87507   -419.12587      406.792    182.06145    75.555521 
   37400    107.65169   -119.77144  0.097405511   -119.67403     671.3811    4.2265759    4.2265759    4.2265759     671.3811   -2970.8953    5484.5829   -499.54432    11.638706    776.79663    2128.6357    75.503316 
   37500    76.666695   -119.74349  0.069369637   -119.67412    1500.3478    4.2272567    4.2272567    4.2272567    1500.3478   -3081.7094    4439.9125    3142.8402    1243.9558    285.67719    460.64538    75.539805 
   37600    106.05757   -119.76976  0.095963117   -119.67379    20.084339    4.2272449    4.2272449    4.2272449    20.084339   -2305.5069    2638.2298   -272.46993    360.90096   -976.32602    896.75487    75.539173 
   37700    87.320185   -119.75304  0.079009139   -119.67403    146.05075    4.2259937    4.2259937    4.2259937    146.05075   -1849.2146     102.3122    2185.0547    864.83351   -1216.5366    327.38991    75.472116 
   37800    107.30902   -119.77093  0.097095456   -119.67383   -1438.2791    4.2272426    4.2272426    4.2272426   -1438.2791   -1695.1393   -1225.9432   -1393.7547    249.36087    2.9366206   -928.56254    75.539052 
   37900     89.62715   -119.75517  0.081096529   -119.67407   -550.42328    4.2265068    4.2265068    4.2265068   -550.42328   -5345.5818    5945.3587   -2251.0467    755.97354    1298.2586    965.47634    75.499613 
   38000    138.63214   -119.79925   0.12543728   -119.67382   -1752.8319    4.2261051    4.2261051    4.2261051   -1752.8319   -3424.4331    1271.1156   -3105.1783    233.39123    610.75759   -166.19708    75.478089 
   38100    118.40338   -119.78092   0.10713387   -119.67379   -635.98874    4.2272268    4.2272268    4.2272268   -635.98874   -3707.6932     3298.399    -1498.672   -1025.3397   -311.00459    -750.2838    75.538202 
   38200    101.39571   -119.76564  0.091744971   -119.67389    -2350.532    4.2265431    4.2265431    4.2265431    -2350.532   -6324.5378    1607.5957   -2334.6538   -796.49937    1055.2462   -360.30551    75.501557 
   38300     112.3156   -119.77548   0.10162551   -119.67385   -654.56628    4.2264751    4.2264751    4.2264751   -654.56628   -3160.6404     810.5857    386.35583   -756.22261    1171.3006   -613.96239    75.497913 
   38400     117.5886   -119.78006   0.10639664   -119.67367   -1927.5625    4.2278548    4.2278548    4.2278548   -1927.5625    -4019.493   -558.12453   -1205.0699   -370.61683    1300.1989     326.1985    75.571875 
   38500    115.19915   -119.77776   0.10423461   -119.67353   -1152.0562    4.2270596    4.2270596    4.2270596   -1152.0562   -2615.9008    45.667542   -885.93529    14.189493   -574.17027    33.073524    75.529237 
   38600    91.015364   -119.75638  0.082352614   -119.67403   -368.21868    4.2272898    4.2272898    4.2272898   -368.21868   -3108.7473    2362.7961   -358.70486   -247.64074   -317.46651   -948.15524     75.54158 
   38700    88.766387   -119.75452  0.080317692    -119.6742   -983.61329    4.2283671    4.2283671    4.2283671   -983.61329   -3459.5459    3883.3154   -3374.6093   -74.012653    640.64454    886.89564    75.599348 
   38800    68.217865   -119.73586  0.061724958   -119.67414    1960.4797    4.2264076    4.2264076    4.2264076    1960.4797   -3046.9903    10371.257   -1442.8274     1385.023    1049.3778    234.95241    75.494294 
   38900    100.66621   -119.76498  0.091084899    -119.6739     242.2432    4.2261772    4.2261772    4.2261772     242.2432   -4315.2123    6486.0235   -1444.0815      299.066    75.860709    1206.3656    75.481949 
   39000    96.644253   -119.76127  0.087445751   -119.67383    3063.3551    4.2262546    4.2262546    4.2262546    3063.3551   -1891.0995    10238.128    843.03678    1510.5033   -618.27388    -363.8147    75.486098 
   39100    81.445521   -119.74784  0.073693619   -119.67415    1459.4557    4.2245159    4.2245159    4.2245159    1459.4557   -2350.5022    5799.7041    929.16536   -369.43493    261.59681   -461.76134     75.39297 
   39200    66.587823   -119.73456  0.060250062   -119.67431    2430.9613     4.225123     4.225123     4.225123    2430.9613   -4164.2179    7633.1668    3823.9351    483.34021    1483.7476   -4.1653973    75.425479 
   39300    111.33168   -119.77485   0.10073524   -119.67412    896.48244    4.2266021    4.2266021    4.2266021    896.48244   -823.10987    4828.9543   -1316.3971    619.90015    954.84162   -14.990117    75.504721 
   39400    121.18973   -119.78337   0.10965501   -119.67371   -1107.3228    4.2264487    4.2264487    4.2264487   -1107.3228   -3799.9909    1988.7654    -1510.743   -723.77885    -381.3002   -500.54565    75.496497 
   39500    103.06035   -119.76697  0.093251174   -119.67372   -1303.5249    4.2282814    4.2282814    4.2282814   -1303.5249   -2370.2742     2129.344   -3669.6445   -1193.4501    722.07395   -251.35612    75.594753 
   39600    99.696707   -119.76425  0.090207676   -119.67404   -4460.2224    4.2294324    4.2294324    4.2294324   -4460.2224   -7612.2443    453.92585   -6222.3486   -969.86483     1243.182   -1296.0772    75.656502 
   39700    87.836326   -119.75361  0.079476153   -119.67414   -1839.7543    4.2277592    4.2277592    4.2277592   -1839.7543    -3139.356    1945.4735   -4325.3805   -1869.9981    2146.7217    576.08328    75.566746 
   39800    129.06744   -119.79045   0.11678293   -119.67367   -3556.4901    4.2281862    4.2281862    4.2281862   -3556.4901   -6497.2046   -2168.0848    -2004.181    157.49589    243.35538    -151.6619    75.589644 
   39900    106.33329   -119.76997  0.096212598   -119.67376    693.89947    4.2264609    4.2264609    4.2264609    693.89947   -2394.7488    2923.4276    1553.0196   -971.61207   -660.62478   -105.95695    75.497152 
   40000    120.91666   -119.78341   0.10940793     -119.674    1081.1562     4.224457     4.224457     4.224457    1081.1562   -897.26031   -247.46198    4388.1909    -980.3346    238.08555    82.409504    75.389817 
   40100    54.622711   -119.72372  0.049423777   -119.67429    3419.2545    4.2250222    4.2250222    4.2250222    3419.2545   -1439.1619    5252.1858    6444.7397     1049.432    624.36822   -65.980676    75.420077 
   40200    117.30074   -119.77994   0.10613618    -119.6738    1334.2782    4.2253305    4.2253305    4.2253305    1334.2782   -1820.0426    2948.8625    2874.0147   -195.13812   -657.88862    1347.0333    75.436589 
   40300    110.20967   -119.77332  0.099720023    -119.6736    825.03603    4.2259147    4.2259147    4.2259147    825.03603    694.77796     1787.313   -6.9828596    742.34111   -1023.3486    585.06262    75.467885 
   40400    125.26139   -119.78687   0.11333914   -119.67353    -3410.959    4.2292278    4.2292278    4.2292278    -3410.959   -5579.5089   -187.97096    -4465.397    507.48471   -608.79248   -258.23916    75.645526 
   40500    69.227156   -119.73665  0.062638186   -119.67401   -3316.6003    4.2294358    4.2294358    4.2294358   -3316.6003   -5266.2352    2055.0841   -6738.6498   -856.52424    730.58593    269.10536    75.656687 
   40600    94.057096   -119.75904  0.085104837   -119.67393   -4973.5017    4.2290838    4.2290838    4.2290838   -4973.5017   -7879.1234   -108.08309   -6933.2985    100.24912    1586.8606    602.27867    75.637799 
   40700    103.22091   -119.76719  0.093396444   -119.67379   -1759.7825    4.2293057    4.2293057    4.2293057   -1759.7825   -4821.4699    3682.2451   -4140.1227   -250.69025   -460.18839    732.27729    75.649703 
   40800    112.40402   -119.77526   0.10170552   -119.67356     105.4435    4.2263301    4.2263301    4.2263301     105.4435   -4898.5168    6162.9505   -948.10328   -1162.2573    37.604401     -14.1997     75.49014 
   40900    97.157745   -119.76192   0.08791037   -119.67401    3977.9104    4.2240458    4.2240458    4.2240458    3977.9104    -750.9848    9296.1576    3388.5583   -217.99799    609.55465   -1555.1627    75.367803 
   41000    66.176157   -119.73414  0.059877577   -119.67427    4983.8269    4.2244892    4.2244892    4.2244892    4983.8269   -76.056654    10472.671    4554.8659   -542.88806    807.58019    200.91611    75.391539 
   41100    82.729203   -119.74902  0.074855122   -119.67416    3670.8424    4.2237116    4.2237116    4.2237116    3670.8424   -1365.9761    9171.4602    3207.0431     33.73886    89.149517   -521.51783    75.349913 
   41200    102.74165   -119.76683  0.092962808   -119.67387    2201.7243    4.2251892    4.2251892    4.2251892    2201.7243    911.21023    4809.7529     884.2096    669.97196   -907.92962    -586.5211    75.429022 
   41300    125.65219   -119.78738   0.11369274   -119.67369   -2882.6732     4.228804     4.228804     4.228804   -2882.6732   -3768.5865   -1924.4073   -2955.0258   -604.94911   -645.03119   -137.89027    75.622787 
   41400    72.094608   -119.73917  0.065232717   -119.67393   -2894.9834    4.2288555    4.2288555    4.2288555   -2894.9834   -5842.9497    1067.3326   -3909.3331    337.91213    1275.6622   -1872.4563    75.625548 
   41500    90.383701   -119.75572  0.081781072   -119.67394   -5303.2225    4.2297949    4.2297949    4.2297949   -5303.2225   -7861.0742   -4630.9775    -3417.616   -28.297678    585.76303    673.79772    75.675959 
   41600    106.37198    -119.7702  0.096247605   -119.67396   -2434.1462    4.2297377    4.2297377    4.2297377   -2434.1462   -5979.7556    434.14674   -1756.8298    604.99964   -603.95377     51.58443    75.672889 
   41700    142.40574    -119.8025    0.1288517   -119.67365   -1378.8305    4.2265548    4.2265548    4.2265548   -1378.8305   -2617.4534    -1819.918    300.88006    205.01417   -254.27867   -715.50574    75.502185 
   41800    111.27111   -119.77469   0.10068044   -119.67401    1505.2836    4.2251125    4.2251125    4.2251125    1505.2836   -3249.4645    5095.9177    2669.3975   -205.40892    157.02841    868.83509    75.424918 
   41900    103.23872   -119.76747   0.09341256   -119.67406    1854.7998    4.2246271    4.2246271    4.2246271    1854.7998    -711.7566    2713.8961    3562.2599   -51.201566    1742.7405   -29.359979    75.398925 
   42000    96.779352   -119.76144  0.087567992   -119.67387    1599.5011    4.2234405    4.2234405    4.2234405    1599.5011    -497.1746    5272.2065    23.471459    521.34306    407.25596    1184.7527    75.335406 
   42100    114.57846   -119.77716     0.103673   -119.67349    -65.22751    4.2257068    4.2257068    4.2257068    -65.22751   -2828.7964    3269.6187   -636.50485    -416.8468    -344.9942    2396.6078    75.456745 
   42200    128.97661   -119.79031   0.11670075   -119.67361   -2427.0803    4.2280114    4.2280114    4.2280114   -2427.0803   -2175.3772   -114.27976   -4991.5838   -136.64273    751.33624   -1486.8499    75.580272 
   42300    87.252432   -119.75301  0.078947834   -119.67406    -2155.917    4.2283211    4.2283211    4.2283211    -2155.917   -5621.2184    3274.8412   -4121.3739   -459.32249    1448.7203    823.88111    75.596884 
   42400    67.950683    -119.7357  0.061483206   -119.67422   -2896.9099    4.2302996    4.2302996    4.2302996   -2896.9099   -7319.6067    2818.3136   -4189.4366   -47.548679    532.52464    193.29971    75.703051 
   42500    71.238154   -119.73865  0.064457779   -119.67419    -193.5107    4.2295529    4.2295529    4.2295529    -193.5107   -6007.6435    5297.1121     129.9993      454.763   -162.20122   -87.592844    75.662971 
   42600    112.99186   -119.77615   0.10223741   -119.67391    542.58289    4.2268582    4.2268582    4.2268582    542.58289   -1709.1617    3860.7072   -523.79679    131.04448   -987.17253    537.35105    75.518446 
   42700    87.836317   -119.75341  0.079476145   -119.67393    3113.5171    4.2262013    4.2262013    4.2262013    3113.5171   -2393.0945    8368.8563    3364.7894   -393.41658    602.49067    -1810.944    75.483239 
   42800     80.38786   -119.74661  0.072736625   -119.67387    2705.5609    4.2245191    4.2245191    4.2245191    2705.5609   -2027.2594    6934.3612     3209.581    29.046612    785.12024   -1222.8823     75.39314 
   42900    75.307821   -119.74212  0.068140099   -119.67398    3200.7323    4.2230596    4.2230596    4.2230596    3200.7323    574.95103    6996.5224    2030.7235    540.29459   -928.38637    1049.6586    75.315028 
   43000    110.60939   -119.77405    0.1000817   -119.67397    654.15922     4.225622     4.225622     4.225622    654.15922   -2076.7355    4084.3008   -45.087685    74.749543   -198.02709   -1189.1812    75.452207 
   43100    121.89478   -119.78402   0.11029296   -119.67373   -1458.8608     4.226883     4.226883     4.226883   -1458.8608   -4031.2945    2036.8564   -2382.1443    442.58692    30.811972   -50.542761    75.519773 
   43200    118.35433   -119.78086   0.10708948   -119.67377   -2426.1461    4.2278267    4.2278267    4.2278267   -2426.1461    -3209.429   -439.87277   -3629.1365    69.436978    788.25626   -42.272702    75.570365 
   43300    96.550396    -119.7612  0.087360828   -119.67384   -4494.6655    4.2306272    4.2306272    4.2306272   -4494.6655   -8731.1614   -641.78895   -4111.0461    278.18812    571.22094   -91.974028     75.72064 
   43400     89.90167   -119.75515  0.081344921    -119.6738   -2896.9254     4.229652     4.229652     4.229652   -2896.9254    -3919.955   -2720.8672   -2049.9541    1260.2304   -1214.6359    2538.5684     75.66829 
   43500     140.4183   -119.80052   0.12705343   -119.67346   -3493.2471    4.2280733    4.2280733    4.2280733   -3493.2471   -3821.4923   -2806.6264   -3851.6225    636.92983   -770.49043   -118.22103    75.583589 
   43600    113.57686   -119.77656   0.10276673   -119.67379   -381.72476    4.2275595    4.2275595    4.2275595   -381.72476   -147.29324   -1560.5169    562.63586    26.416654    595.06171    -5.968744    75.556041 
   43700    110.99085    -119.7745   0.10042686   -119.67407    -186.3587    4.2250601    4.2250601    4.2250601    -186.3587   -2414.9743    2547.2835   -691.38529    741.36036   -346.28628    1027.3344     75.42211 
   43800    58.730433    -119.7275   0.05314053   -119.67436    3043.9475     4.223637     4.223637     4.223637    3043.9475   -3.7302334    5798.9405    3336.6321   -129.55184    -277.4743   -611.51135    75.345921 
   43900    121.63339   -119.78392   0.11005645   -119.67386     909.0296    4.2256303    4.2256303    4.2256303     909.0296   -1047.5849    3385.5835    389.09018    -20.65558   -820.66726    1020.5092     75.45265 
   44000    86.607557   -119.75222  0.078364338   -119.67386    2712.1426     4.225303     4.225303     4.225303    2712.1426   -2510.9562    7500.6975    3146.6865    -207.5682    71.242173   -1264.4685    75.435117 
   44100    118.93389   -119.78142   0.10761389    -119.6738   -1076.6713    4.2272149    4.2272149    4.2272149   -1076.6713   -5641.8017    4153.3946   -1741.6069   -1654.3828     1926.995    -2048.824    75.537566 
   44200    60.304056   -119.72892  0.054564377   -119.67435    546.45057    4.2292274    4.2292274    4.2292274    546.45057    -5445.737    4419.8735    2665.2152   -119.33708   -126.47318   -22.708571    75.645503 
   44300    84.917312   -119.75121  0.076834969   -119.67437   -3082.8387    4.2283917    4.2283917    4.2283917   -3082.8387   -6668.0118    296.63744   -2877.1418    202.33302   -659.67668   -505.50641    75.600669 
   44400    84.143753   -119.75037  0.076135036   -119.67424   -210.48152    4.2281258    4.2281258    4.2281258   -210.48152   -2717.2629    3532.8564   -1447.0381   -227.17996   -151.06627   -74.171616    75.586409 
   44500    121.79968   -119.78406   0.11020691   -119.67386   -1738.3936    4.2280141    4.2280141    4.2280141   -1738.3936     -2983.78    919.83731    -3151.238    522.72679    537.48501   -37.899329    75.580417 
   44600    97.100232    -119.7618   0.08785833   -119.67394    1507.2062    4.2252129    4.2252129    4.2252129    1507.2062    768.40946    5719.1281    -1965.919   -221.57247      852.265   -1207.5425    75.430292 
   44700    78.102664   -119.74473  0.070668932   -119.67406    1373.1234    4.2253994    4.2253994    4.2253994    1373.1234   -2702.4306    7799.5656   -977.76476    769.60473   -119.83563     2086.605    75.440282 
   44800    103.73937   -119.76774  0.093865561   -119.67387    718.40984    4.2260688    4.2260688    4.2260688    718.40984    246.69035    1820.6992    87.840017    1071.1521   -1291.7153    1014.8462     75.47614 
   44900    122.85854   -119.78492   0.11116499   -119.67375    1020.8673    4.2251906    4.2251906    4.2251906    1020.8673   -933.87452    3567.0034    429.47289   -380.31779    1243.9963    1093.1482    75.429096 
   45000    129.53305   -119.79063   0.11720423   -119.67342   -2765.2979    4.2276111    4.2276111    4.2276111   -2765.2979   -6299.6531   -719.83222   -1276.4083    111.60077    279.47419    1249.7359    75.558809 
   45100    96.333834   -119.76102  0.087164878   -119.67385   -1527.1326    4.2286816    4.2286816    4.2286816   -1527.1326   -4914.7925   -1705.6154      2039.01    -328.9294   -273.48434     871.0509    75.616218 
   45200    104.20655   -119.76823  0.094288274   -119.67394   -4143.0598    4.2279867    4.2279867    4.2279867   -4143.0598   -5637.1538   -4592.5794   -2199.4462   -472.11891   -618.76051    1529.3572     75.57895 
   45300    92.954204   -119.75796  0.084106918   -119.67385   -1723.2761    4.2288199    4.2288199    4.2288199   -1723.2761   -5073.8862   -113.45993    17.517776   -53.567758   -557.43446     895.1132    75.623638 
   45400    129.93156    -119.7911   0.11756481   -119.67354   -2075.0825    4.2281597    4.2281597    4.2281597   -2075.0825   -2823.4508   -1313.6757   -2088.1209   -1625.0561    1173.5105   -2076.1741    75.588225 
   45500    100.30378   -119.76455  0.090756966   -119.67379    470.04159    4.2258415    4.2258415    4.2258415    470.04159   -1903.5188    3292.7934     20.85015    -514.5321    704.98629   -125.94473    75.463966 
   45600    86.166638   -119.75214  0.077965384   -119.67418     1105.009    4.2265054    4.2265054    4.2265054     1105.009   -1897.9317    6049.9821   -837.02355    525.66831   -929.23123   -952.47663    75.499535 
   45700    62.069673    -119.7305  0.056161944   -119.67434    1479.8579    4.2259717    4.2259717    4.2259717    1479.8579   -2286.6872    4268.8433    2457.4176   -29.127532   -34.070243   -92.768281    75.470941 
   45800    111.46969   -119.77477   0.10086012   -119.67391    1723.9907    4.2253112    4.2253112    4.2253112    1723.9907   -205.11109    6441.1428   -1064.0595    1260.7322    393.76227    767.25007     75.43556 
   45900    108.69572   -119.77205   0.09835017    -119.6737    710.32992    4.2270606    4.2270606    4.2270606    710.32992   -4285.4343    5507.4821    908.94197    859.22044   -151.21264   -1528.9982    75.529293 
   46000    85.194897   -119.75099  0.077086134    -119.6739   -66.565424    4.2270782    4.2270782    4.2270782   -66.565424   -5292.2715    5735.2855   -642.71025    724.68082   -2.5259516    698.00427    75.530235 
   46100    79.953206   -119.74647  0.072343341   -119.67413    330.28553    4.2265913    4.2265913    4.2265913    330.28553   -2235.0935    4146.1872   -920.23717    2352.1541   -2023.2385    1540.1869    75.504141 
   46200    87.565952   -119.75347  0.079231514   -119.67424   -873.94232    4.2277816    4.2277816    4.2277816   -873.94232   -5224.0671    4988.6776   -2386.4375    443.86391    -252.1687    513.42779    75.567949 
   46300    120.58055   -119.78294   0.10910382   -119.67384   -390.92815    4.2269938    4.2269938    4.2269938   -390.92815    -1696.262    2515.0542   -1991.5767   -115.06341    568.27786    1391.9437     75.52571 
   46400    106.80163   -119.77056  0.096636355   -119.67392   -801.05939    4.2265475    4.2265475    4.2265475   -801.05939   -3552.8877    3826.3301   -2676.6205   -226.33576   -180.94368    386.48908    75.501793 
   46500    105.09389   -119.76917  0.095091157   -119.67408    -1145.247    4.2276793    4.2276793    4.2276793    -1145.247   -2113.8539    61.323377   -1383.2103   -1138.5469   -403.60823    1071.9751    75.562464 
   46600    70.850735   -119.73832  0.064107234   -119.67421   -277.83031    4.2267784    4.2267784    4.2267784   -277.83031   -3468.3384    853.17498    1781.6724   -402.55208    34.597772    2335.4076    75.514165 
   46700    119.16324   -119.78165   0.10782141   -119.67382   -1634.4572    4.2266653    4.2266653    4.2266653   -1634.4572   -3285.0224   -894.40578   -723.94344   -898.26473    637.25014    -35.90711    75.508105 
   46800    127.74785   -119.78916   0.11558894   -119.67357    414.91451    4.2273512    4.2273512    4.2273512    414.91451   -2791.5603    1561.8712    2474.4326   -1307.3331    1497.6056   -516.04403    75.544873 
   46900    111.40151   -119.77453   0.10079843   -119.67373   -963.01335    4.2261966    4.2261966    4.2261966   -963.01335   -3984.4545    382.78326    712.63122    261.13045   -448.45934   -64.954006    75.482991 
   47000    82.990522   -119.74915  0.075091568   -119.67406    835.28353    4.2260471    4.2260471    4.2260471    835.28353   -2800.8003    5068.2297    238.42122    618.34166   -1050.1574    -665.8222    75.474981 
   47100     102.8886   -119.76696  0.093095768   -119.67387   -410.17927    4.2271372    4.2271372    4.2271372   -410.17927   -1019.7167    1120.5323   -1331.3534    1057.7135    514.40153    92.937191    75.533399 
   47200    127.35193   -119.78868   0.11523071   -119.67345   -1361.7403    4.2264135    4.2264135    4.2264135   -1361.7403   -3618.3827    1977.6701   -2444.5084    753.54678    -29.68379   -1326.9863    75.494613 
   47300    103.64022   -119.76739  0.093775851   -119.67362   -568.04359    4.2269951    4.2269951    4.2269951   -568.04359     -1574.28    3632.0776   -3761.9284     1158.354   -37.532461   -838.99111     75.52578 
   47400    110.97417    -119.7744   0.10041176   -119.67399   -2882.7622    4.2284126    4.2284126    4.2284126   -2882.7622   -4606.4716    -1037.394    -3004.421    1332.9466   -1187.7758    518.55574    75.601792 
   47500    63.634379   -119.73177  0.057577723    -119.6742    847.46093    4.2271771    4.2271771    4.2271771    847.46093   -1765.8669    5811.2704   -1503.0207    1212.2944   -677.99226       1845.6    75.535538 
   47600    106.17415   -119.76987    0.0960686    -119.6738   -1861.8021    4.2276951    4.2276951    4.2276951   -1861.8021    -7000.037    4012.6084   -2597.9777    428.21316    627.85129    1100.7458    75.563312 
   47700    89.548416   -119.75488  0.081025288   -119.67386    2312.5975    4.2275774    4.2275774    4.2275774    2312.5975   -3140.3497    9392.0626    686.07959   -131.42895   -202.36854    1280.6868    75.556998 
   47800    117.15371   -119.77986   0.10600314   -119.67386    428.15959    4.2259202    4.2259202    4.2259202    428.15959   -3916.1863    5930.0598    -729.3948   -502.27284   -1012.1776    984.71571    75.468182 
   47900    38.179346   -119.70899  0.034545475   -119.67444    3578.3272    4.2251876    4.2251876    4.2251876    3578.3272   -3265.5293    12216.732    1783.7791    46.258639   -459.23458    2008.1251    75.428938 
   48000    93.269582   -119.75874  0.084392278   -119.67435    1481.9321    4.2255265    4.2255265    4.2255265    1481.9321   -878.12103    2934.4413    2389.4761   -1037.6387    330.92119    1429.9866    75.447088 
   48100     95.21201    -119.7604  0.086149828   -119.67425    2350.6013    4.2247918    4.2247918    4.2247918    2350.6013   -52.099447    6793.3874    310.51594   -348.56098    782.61943    956.48638    75.407739 
   48200    112.61609   -119.77588    0.1018974   -119.67399    233.25349    4.2263236    4.2263236    4.2263236    233.25349    -2839.498    4235.2798   -696.02138   -338.23865    549.86485   -312.54832    75.489793 
   48300    88.604535   -119.75441  0.080171245   -119.67423   -767.39779     4.227932     4.227932     4.227932   -767.39779   -1121.3577    173.49558   -1354.3313     358.3937   -1072.0658    1070.5986    75.576012 
   48400    99.999763   -119.76469  0.090481887   -119.67421   -2134.6011    4.2282666    4.2282666    4.2282666   -2134.6011   -4852.3753    2334.6815   -3886.1095    1383.4264    616.68528    583.07382    75.593961 
   48500    112.40265   -119.77543   0.10170428   -119.67372   -3561.9526    4.2291772    4.2291772    4.2291772   -3561.9526   -5798.2704   -748.06322   -4139.5241    936.74739     -171.343   -602.24002     75.64281 
   48600     119.3174   -119.78156   0.10796089    -119.6736   -3144.3775    4.2286961    4.2286961    4.2286961   -3144.3775   -7346.1362    -466.0235   -1620.9729    969.58954   -347.26101   -946.22548    75.616998 
   48700    138.10695   -119.79861   0.12496207   -119.67365   -2391.7793    4.2266872    4.2266872    4.2266872   -2391.7793   -2835.1757    -63.79744   -4276.3648    945.92517   -1248.6239     -1469.18    75.509282 
   48800    99.020238   -119.76351  0.089595592   -119.67392   -159.80771    4.2258824    4.2258824    4.2258824   -159.80771   -3615.3604    2136.6321    999.30522    442.33545   -1336.5557    493.34913    75.466153 
   48900    102.86485   -119.76679   0.09307428   -119.67371   -15.908496    4.2251399    4.2251399    4.2251399   -15.908496    -1872.388    292.71629    1531.9462    624.19938    131.70343     711.9473    75.426384 
   49000    112.21348   -119.77522   0.10153311   -119.67369    2210.1685    4.2243633    4.2243633    4.2243633    2210.1685    389.07517    4712.9677    1528.4627   -970.80661    822.54671   -132.96716    75.384798 
   49100    120.53178   -119.78268   0.10905969   -119.67362    529.72982    4.2261929    4.2261929    4.2261929    529.72982   -2103.5658    3329.9588    362.79647   -1003.5758   -588.34375    316.15347     75.48279 
   49200    72.848899   -119.73981  0.065915215   -119.67389    888.49808    4.2274297    4.2274297    4.2274297    888.49808   -1643.9624    3002.5353    1306.9214    -315.0232   -148.94016    1119.0139    75.549083 
   49300    91.078696   -119.75635  0.082409918   -119.67394   -1437.2687    4.2283028    4.2283028    4.2283028   -1437.2687   -4052.7762    3128.8275   -3387.8574   -1171.0249    896.52469    843.17083      75.5959 
   49400     88.88242    -119.7544  0.080422682   -119.67398   -1885.4927    4.2297027    4.2297027    4.2297027   -1885.4927    -6230.023    3275.7724   -2702.2276   -70.670579    423.07364    1399.2838    75.671008 
   49500    88.952562   -119.75424  0.080486148   -119.67375   -1925.7921    4.2292254    4.2292254    4.2292254   -1925.7921   -6285.5138    3089.2772   -2581.1397   -454.36908    912.19437   -894.16538    75.645397 
   49600    92.404378   -119.75744  0.083609423   -119.67383   -713.25596    4.2269749    4.2269749    4.2269749   -713.25596    -4846.742    6863.6232   -4156.6491   -698.32204   -1681.8331   -11.513908    75.524699 
   49700    93.729924   -119.75874  0.084808805   -119.67393    1885.8275    4.2259266    4.2259266    4.2259266    1885.8275   -1103.0773    5721.0127     1039.547    1044.2828   -233.27308    861.27463    75.468521 
   49800    94.109126   -119.75894  0.085151915   -119.67379    2482.5258    4.2244321    4.2244321    4.2244321    2482.5258   -2205.5078    8399.2485    1253.8366   -432.37266     393.9695   -430.03278    75.388484 
   49900     80.32256   -119.74657   0.07267754   -119.67389    4449.1035     4.223155     4.223155     4.223155    4449.1035   -880.69025     10894.24    3333.7607   -29.762184   -473.76814    97.980035    75.320133 
   50000    126.69076   -119.78858   0.11463246   -119.67395    1995.2005    4.2250689    4.2250689    4.2250689    1995.2005    355.41284    4784.0917    846.09701    867.91378   -1252.7684    -1360.826    75.422579 
   50100    81.396546    -119.7477  0.073649305   -119.67405    964.39734    4.2267899    4.2267899    4.2267899    964.39734    -3287.924    5047.8981     1133.218   -180.52915   -617.00821   -682.57152    75.514784 
   50200    110.11307   -119.77335   0.09963262   -119.67372   -3261.8588    4.2282556    4.2282556    4.2282556   -3261.8588   -4457.5966   -1247.6084   -4080.3715    919.05463   -543.18575     1014.572     75.59337 
   50300    97.013836    -119.7616  0.087780158   -119.67382   -3395.5781    4.2300315    4.2300315    4.2300315   -3395.5781   -6642.7694   -2011.9768   -1531.9881     835.8275    469.86237   -568.36536    75.688657 
   50400     117.7417   -119.78025   0.10653517   -119.67372   -5125.1229    4.2298744    4.2298744    4.2298744   -5125.1229   -6032.4783   -3988.1512   -5354.7392   -693.56145   -807.49663   -696.18353    75.680224 
   50500    89.394187   -119.75465  0.080885739   -119.67377   -1509.7549    4.2275804    4.2275804    4.2275804   -1509.7549   -4572.2398    1857.4799   -1814.5049    869.11817   -1748.0452    472.14458    75.557162 
   50600    120.36983   -119.78267   0.10891315   -119.67375   -551.96238    4.2265452    4.2265452    4.2265452   -551.96238   -914.88635   -1657.6044     916.6036   -413.40389     430.0333   -434.85778    75.501668 
   50700    124.41582   -119.78628   0.11257405   -119.67371    2718.9267    4.2245526    4.2245526    4.2245526    2718.9267    89.671738    4995.4493    3071.6591    222.20334    95.453796    2161.8804    75.394934 
   50800    90.791205   -119.75585   0.08214979    -119.6737    3072.8715    4.2234715    4.2234715    4.2234715    3072.8715   -1414.2261    6710.6749    3922.1656   -85.614685    272.52232   -604.14488    75.337066 
   50900    114.42913   -119.77722   0.10353788   -119.67368    1404.3323    4.2249773    4.2249773    4.2249773    1404.3323   -809.72982    1532.3334    3490.3933   -675.87781   -333.24526   -222.15635    75.417673 
   51000     101.0274   -119.76522  0.091411712    -119.6738     1129.065    4.2259699    4.2259699    4.2259699     1129.065   -598.97818    4512.7426   -526.56933   -189.19023   -935.32794    225.53525    75.470843 
   51100    119.68162   -119.78183   0.10829044   -119.67354    -3778.075    4.2277061    4.2277061    4.2277061    -3778.075   -7114.5703    111.28269   -4330.9374     275.5609    171.34341    62.856602    75.563902 
   51200    72.739343   -119.73955  0.065816086   -119.67373   -1147.7221    4.2295849    4.2295849    4.2295849   -1147.7221   -4379.6865    3317.6098   -2381.0895   -495.88939    130.99798   -39.304149    75.664686 
   51300    113.58572   -119.77672   0.10277475   -119.67395   -4516.8566    4.2293533    4.2293533    4.2293533   -4516.8566   -8027.1196     2403.547   -7926.9973      70.0649   -1734.4349   -1062.7432    75.652258 
   51400    54.588981   -119.72361  0.049393257   -119.67422    1532.7309    4.2276745    4.2276745    4.2276745    1532.7309   -2346.4151    9226.7138   -2282.1061   -520.76955    -1724.777    -1907.998    75.562207 
   51500    109.10153   -119.77256  0.098717356   -119.67384   -231.19991    4.2274206    4.2274206    4.2274206   -231.19991    -3744.973    4015.8454   -964.47217    452.04292   -411.44089    833.08679     75.54859 
   51600    80.397381   -119.74673   0.07274524   -119.67398    5117.0345    4.2243828    4.2243828    4.2243828    5117.0345    1832.1175    10688.147    2830.8386    400.15252   -285.02981   -706.35278    75.385842 
   51700    102.43946   -119.76674  0.092689378   -119.67405    3339.4343    4.2237426    4.2237426    4.2237426    3339.4343    -765.9958    7758.3716    3025.9272   -142.85998    449.25313   -939.72218    75.351575 
   51800     48.95859   -119.71866  0.044298761   -119.67436    3742.6251     4.224975     4.224975     4.224975    3742.6251   -377.64708    5899.0662     5706.456    321.17959   -1615.5483   -873.73941    75.417551 
   51900    118.46486   -119.78134    0.1071895   -119.67415    1055.2526    4.2253043    4.2253043    4.2253043    1055.2526   -928.86329    4345.3351   -250.71396     61.62887   -26.521412   -2158.9923    75.435189 
   52000    112.99302    -119.7762   0.10223845   -119.67396   -970.90241    4.2270041    4.2270041    4.2270041   -970.90241   -3858.3291    1992.9173   -1047.2954    162.30353    229.54065    1025.8496    75.526266 
   52100    107.88727   -119.77142  0.097618669    -119.6738   -3552.7626    4.2297086    4.2297086    4.2297086   -3552.7626   -8133.9506    318.55652   -2842.8937   -541.46027    155.85137    356.98057    75.671327 
   52200    98.045818   -119.76245  0.088713917   -119.67373   -3558.5168    4.2287363    4.2287363    4.2287363   -3558.5168   -5250.4264   -117.55045   -5307.5735   -1140.6518   -1098.4673   -1302.0811    75.619153 
   52300    111.37716   -119.77462   0.10077639   -119.67384    -3724.725    4.2284709    4.2284709    4.2284709    -3724.725   -5532.4819   -1981.2581   -3660.4349   -1082.5671    -893.8514    637.22093    75.604914 
   52400    124.21888   -119.78587   0.11239585   -119.67348   -1882.6327    4.2283889    4.2283889    4.2283889   -1882.6327   -1771.5177   -2806.7752   -1069.6053   -676.31334    146.30104    14.453232    75.600516 
   52500    123.44694   -119.78524   0.11169739   -119.67355   -852.66533    4.2256464    4.2256464    4.2256464   -852.66533   -2225.3704    150.12373    -482.7493    -514.8922    723.42231    886.70511    75.453511 
   52600    121.14862   -119.78366   0.10961782   -119.67404     1138.435    4.2249963    4.2249963    4.2249963     1138.435     1502.311    95.695935    1817.2981   -347.32198   -574.56533      1318.11    75.418691 
   52700    74.379562    -119.7414  0.067300191    -119.6741    1766.1108    4.2256872    4.2256872    4.2256872    1766.1108   -1203.8653    4135.3032    2366.8945    195.32035    -1163.376   -1929.5418    75.455698 
   52800    100.11576    -119.7643  0.090586844   -119.67372    1093.9015    4.2248007    4.2248007    4.2248007    1093.9015   -1064.9471    4176.2107    170.44091    865.59117    94.783633    671.90155    75.408219 
   52900    121.18407   -119.78314    0.1096499   -119.67349     1635.358    4.2262064    4.2262064    4.2262064     1635.358   -1135.1111    6301.0747   -259.88974    800.87553   -710.69375    742.10414    75.483511 
   53000    101.31866   -119.76553  0.091675252   -119.67385   -1170.9077    4.2280532    4.2280532    4.2280532   -1170.9077   -6570.7783    4367.0446   -1308.9893    1001.4069     383.8127   -886.43473    75.582515 
   53100    53.952505   -119.72304   0.04881736   -119.67423    724.70904    4.2270347    4.2270347    4.2270347    724.70904    -4463.052    8919.2242    -2282.045    483.53642   -1701.9001   -299.18271    75.527907 
   53200    78.281491   -119.74526  0.070830738   -119.67443   -639.68526    4.2280344    4.2280344    4.2280344   -639.68526   -4222.7995    2735.9361   -432.19239   -469.85634   -1005.1542   -1968.7508    75.581507 
   53300    104.55975   -119.76866  0.094607859   -119.67405    775.27618    4.2278591    4.2278591    4.2278591    775.27618   -2539.2032    5267.4766   -402.44487    1134.2368    576.06547   -212.62639    75.572105 
   53400    95.000559   -119.75974  0.085958502   -119.67378    1583.6296    4.2257326    4.2257326    4.2257326    1583.6296   -1283.5319    5886.2667    148.15392   -524.63866    499.11736    929.67399    75.458131 
   53500    94.009961    -119.7591  0.085062188   -119.67403     1116.153      4.22629      4.22629      4.22629     1116.153   -1263.3055    3998.9967    612.76772   -559.45919   -363.78647   -1100.3272    75.487994 
   53600    73.185458   -119.74054  0.066219741   -119.67432    2783.9442    4.2259764    4.2259764    4.2259764    2783.9442    260.17374     7751.009    340.64986   -497.18252    79.625467   -1474.4472    75.471193 
   53700    98.166378   -119.76299  0.088823002   -119.67417   -297.92572    4.2250125    4.2250125    4.2250125   -297.92572   -2651.1887    3421.1875   -1663.7759   -1244.2608   -560.10655   -789.75459     75.41956 
   53800    121.83378   -119.78401   0.11023776   -119.67377    231.11142    4.2270175    4.2270175    4.2270175    231.11142    -2971.319    4653.9408   -989.28755   -276.60167    756.22686    -137.9368    75.526983 
   53900    138.76657   -119.79923   0.12555891   -119.67367   -2694.5934    4.2274051    4.2274051    4.2274051   -2694.5934     -4172.24   -1214.4811    -2697.059    40.383924     151.7882    1104.8511     75.54776 
   54000    76.137219   -119.74293  0.068890556   -119.67404   -1498.6486    4.2263207    4.2263207    4.2263207   -1498.6486   -5863.6035    2723.0983   -1355.4407   -1768.2543    -2497.621   -1447.2576    75.489638 
   54100    92.921155   -119.75813  0.084077014   -119.67405   -2009.7067    4.2283619    4.2283619    4.2283619   -2009.7067   -2754.1542   -4351.1304    1076.1644    669.89109   -599.18752   -618.64716    75.599069 
   54200     137.2727   -119.79784   0.12420722   -119.67364   -1783.3982     4.227687     4.227687     4.227687   -1783.3982   -3268.8024   -1381.8364   -699.55563   -301.55781   -445.32723   0.11595427    75.562877 
   54300    129.01219   -119.79025   0.11673294   -119.67351   -218.87792    4.2263068    4.2263068    4.2263068   -218.87792   -319.73231   -1126.2127    789.31125    176.32581   -811.30707    158.49214    75.488892 
   54400    97.842906   -119.76275  0.088530317   -119.67422   -1570.2593    4.2282988    4.2282988    4.2282988   -1570.2593    -3798.635   -328.73723   -583.40565    710.27239   -891.95415   -223.99927    75.595686 
   54500    75.558227   -119.74277  0.068366671    -119.6744    503.12847    4.2271228    4.2271228    4.2271228    503.12847   -980.63487    2751.5971   -261.57677   -578.23464   -1945.0238   -1762.9579    75.532628 
   54600    109.69816   -119.77332    0.0992572   -119.67406   -1399.2649     4.226108     4.226108     4.226108   -1399.2649   -3242.9336    1550.6358   -2505.4968     295.4579   -789.24931   -2035.0864    75.478242 
   54700    92.220395   -119.75725  0.083442952   -119.67381    446.10788    4.2274749    4.2274749    4.2274749    446.10788   -4348.4249    4795.7321    891.01645    125.92045    377.44785    604.76177    75.551503 
   54800    133.07153   -119.79418   0.12040592   -119.67378   -601.50085    4.2262283    4.2262283    4.2262283   -601.50085   -3806.6719     4230.062   -2227.8927   -1249.1013   -1108.4192   -845.33856    75.484686 
   54900    54.971636   -119.72416  0.049739491   -119.67442    2920.1254    4.2249542    4.2249542    4.2249542    2920.1254   -1776.7091    9021.1021    1515.9831    -601.1194    -1416.551   -912.76723    75.416437 
   55000    79.043291   -119.74577  0.071520031   -119.67425    492.70423    4.2270959    4.2270959    4.2270959    492.70423    -4449.066    5201.8836    725.29508   -1122.3557      240.253   -1270.0202    75.531186 
   55100    82.672658   -119.74888  0.074803958   -119.67408    3145.5816    4.2258822    4.2258822    4.2258822    3145.5816    1425.5329    8175.5812   -164.36938   -497.88872   -203.79292   -403.12558    75.466146 
   55200    148.21931   -119.80759   0.13411195   -119.67348    -493.7852     4.226555     4.226555     4.226555    -493.7852   -3127.8516    4122.3228   -2475.8268    626.06742    987.29257    1634.6488    75.502196 
   55300    63.040043   -119.73106  0.057039955   -119.67402    776.15115    4.2284998    4.2284998    4.2284998    776.15115   -656.13687    5003.0702   -2018.4799   -884.35467   -1190.0909    59.451229    75.606467 
   55400    81.666973   -119.74831  0.073893994   -119.67441   -2616.8585    4.2275045    4.2275045    4.2275045   -2616.8585   -4288.9229   -203.91186   -3357.7408    668.81386   -974.57613   -1527.9498    75.553091 
   55500    90.619442   -119.75636  0.081994375   -119.67437   -702.05448    4.2273418    4.2273418    4.2273418   -702.05448   -1673.9051    1618.9216   -2051.1799    509.26851   -352.36154   -424.47159    75.544368 
   55600    127.28344   -119.78906   0.11516873   -119.67389   -1898.5309     4.228104     4.228104     4.228104   -1898.5309   -5700.7605   -923.24637    928.41417   -35.206455   -496.14098    530.48933    75.585239 
   55700    110.25582   -119.77369  0.099761779   -119.67393    934.72442    4.2252292    4.2252292    4.2252292    934.72442   -3139.8487    3964.4582    1979.5637     995.1626   -641.20181    1143.8809    75.431164 
   55800    100.68342   -119.76528  0.091100477   -119.67418    1839.5905    4.2252573    4.2252573    4.2252573    1839.5905    -1622.963    2281.0831    4860.6514   -266.41274   -915.81977    -581.6419    75.432672 
   55900    87.160969   -119.75297  0.078865076    -119.6741    1339.6635     4.226109     4.226109     4.226109    1339.6635   -2377.5677    2210.2298    4186.3283    203.52596   -557.92437   -1682.1625    75.478296 
   56000    99.631687   -119.76415  0.090148844     -119.674    684.36041    4.2249386    4.2249386    4.2249386    684.36041    291.80368   -250.99381    2012.2713    1006.6203    1274.0258   -1072.0193      75.4156 
   56100    152.28896   -119.81124   0.13779425   -119.67345   -2273.1786    4.2275147    4.2275147    4.2275147   -2273.1786   -1774.1832   -2574.2472   -2471.1054   -206.31672    946.30364   -510.84873    75.553638 
   56200     109.2113   -119.77264  0.098816676   -119.67382    -3274.141     4.229481     4.229481     4.229481    -3274.141   -3737.8176   -2189.0207   -3895.5847   -239.90286   -187.06791   -972.84166    75.659112 
   56300    80.951071   -119.74725   0.07324623   -119.67401   -4589.9736    4.2283952    4.2283952    4.2283952   -4589.9736   -3691.7727   -4674.0578   -5404.0903   -80.532383     996.0267   -2852.1703    75.600859 
   56400     89.80846   -119.75534  0.081260582   -119.67407   -2871.6161    4.2294893    4.2294893    4.2294893   -2871.6161   -5820.9493    1572.7574   -4366.6565   -1079.9171    208.59199   -2273.2396    75.659556 
   56500    135.30773   -119.79592   0.12242928    -119.6735   -2058.3838    4.2288533    4.2288533    4.2288533   -2058.3838   -4211.1447     876.9387   -2840.9453    502.58837    1432.6583   -185.88005    75.625431 
   56600    96.105765   -119.76056  0.086958516    -119.6736    2192.4108    4.2251015    4.2251015    4.2251015    2192.4108   -4010.6182    10166.189    421.66147   -1022.9166     -51.5493    283.27993    75.424326 
   56700    85.968601   -119.75198  0.077786197   -119.67419    2729.2287    4.2252948    4.2252948    4.2252948    2729.2287   -2792.0225    7491.5065    3488.2022   -527.03659   -1557.7024   -341.08406    75.434677 
   56800    69.594008    -119.7374  0.062970121   -119.67443    5148.1047    4.2245124    4.2245124    4.2245124    5148.1047    761.01235      10851.5    3831.8022   -437.94479   -20.031831   -927.18779    75.392783 
   56900    81.985838    -119.7483  0.074182509   -119.67411    3162.5293       4.2235       4.2235       4.2235    3162.5293   -736.76735    6864.1147    3360.2406    519.56141   -4.6070945   -547.32161    75.338592 
   57000    102.30336   -119.76627  0.092566231   -119.67371     1826.624    4.2263519    4.2263519    4.2263519     1826.624   -692.27714    5518.3315    653.81764    112.48567   -1296.0057    1794.8036    75.491312 
   57100    105.37062    -119.7694  0.095341548   -119.67406   -728.77229    4.2281305    4.2281305    4.2281305   -728.77229    -2075.582    1554.3066   -1665.0414    310.89249   -783.59644     984.4209    75.586661 
   57200    70.745343   -119.73808  0.064011873   -119.67407   -2541.5508    4.2282386    4.2282386    4.2282386   -2541.5508   -4252.9811   -678.12415    -2693.547    51.063993   -1133.8311   -1053.0598    75.592458 
   57300    65.916256   -119.73383  0.059642414   -119.67419   -2064.3821    4.2301866    4.2301866    4.2301866   -2064.3821   -5361.1849    770.89458   -1602.8561    475.95776   -270.67307   -260.08065    75.696984 
   57400    134.41987   -119.79557   0.12162592   -119.67394   -3052.7493    4.2290051    4.2290051    4.2290051   -3052.7493   -5330.0512   -1718.7461   -2109.4507    458.92551    1056.2539    431.02163    75.633572 
   57500    120.10126    -119.7825   0.10867014   -119.67383    241.46261    4.2264645    4.2264645    4.2264645    241.46261   -2830.7322    3670.5092   -115.38918    372.01004   -1143.1475    919.37856    75.497346 
   57600    108.39842   -119.77196  0.098081164   -119.67388   -951.17227    4.2264446    4.2264446    4.2264446   -951.17227   -5166.9338   -132.69999     2446.117   -700.09774     -148.569   -395.81183    75.496277 
   57700    92.688606   -119.75788  0.083866599   -119.67402    1558.5525    4.2241732    4.2241732    4.2241732    1558.5525    1185.7674    2003.9853    1485.9049    416.25886    933.45203   -2809.3965    75.374623 
   57800    128.75589   -119.79008   0.11650104   -119.67358    355.57183    4.2239195    4.2239195    4.2239195    355.57183    277.55316    786.44912    2.7132155    305.34208   -97.598766   -1421.6446    75.361045 
   57900    119.15912   -119.78118   0.10781768   -119.67337   -643.00387     4.226399     4.226399     4.226399   -643.00387   -2576.3859    1849.7242   -1202.3498   -153.06765    427.50121   -347.12012    75.493833 
   58000    129.23091   -119.79069   0.11693084   -119.67375   -1361.8266    4.2269318    4.2269318    4.2269318   -1361.8266    407.35385   -1864.6731   -2628.1605    590.82266   -1089.0115   -308.64099    75.522391 
   58100    99.024919   -119.76375  0.089599828   -119.67415    -2525.121    4.2286006    4.2286006    4.2286006    -2525.121   -5206.5145    1415.4509   -3784.2995   -539.12354   -1391.5285   -831.12785    75.611876 
   58200    68.137568   -119.73573  0.061652304   -119.67408   -2520.7052    4.2310029    4.2310029    4.2310029   -2520.7052   -5119.6945   -898.06323   -1544.3578    342.12589   -214.85449   -1558.3052    75.740816 
   58300    101.92915   -119.76599  0.092227633   -119.67376   -2211.3418    4.2290781    4.2290781    4.2290781   -2211.3418   -6074.5824    1668.1969   -2227.6399    807.69229   -752.54194    873.13774    75.637491 
   58400    108.85482   -119.77244  0.098494127   -119.67395   -413.82946    4.2278217    4.2278217    4.2278217   -413.82946   -3997.6456     3194.826   -438.66872     50.59246   -1542.0967    1130.3876    75.570097 
   58500    87.805181    -119.7537  0.079447973   -119.67425    1197.5984    4.2270508    4.2270508    4.2270508    1197.5984   -4253.1567    5022.0267    2823.9252    682.99796    -242.6117     803.8488    75.528766 
   58600    46.264588   -119.71612  0.041861172   -119.67426    3614.1201    4.2235151    4.2235151    4.2235151    3614.1201    305.77892      6985.75    3550.8314    457.77242   -466.11418    -918.2902    75.339399 
   58700    97.865447    -119.7627  0.088550713   -119.67414    3847.4841    4.2235379    4.2235379    4.2235379    3847.4841    1110.2007    8529.6272    1902.6243    73.242362    1528.6387   -832.16332    75.340622 
   58800    92.252424   -119.75773  0.083471932   -119.67426    3475.1724    4.2253449    4.2253449    4.2253449    3475.1724    534.35263    8723.8236    1167.3408    586.32355    543.31906    792.54333    75.437364 
   58900    111.54646   -119.77474   0.10092958   -119.67381    85.262826    4.2258802    4.2258802    4.2258802    85.262826   -2081.2882    2840.7261   -503.64941    -1255.081   -371.41622    1404.7187    75.466035 
   59000    89.413695   -119.75496  0.080903391   -119.67406   -439.43539    4.2284416    4.2284416    4.2284416   -439.43539   -2514.3858    4170.1861   -2974.1065   -1216.0393    851.97808   -1680.1049    75.603345 
   59100     102.4547   -119.76663  0.092703168   -119.67392   -5412.6168    4.2309921    4.2309921    4.2309921   -5412.6168   -7244.8412    -5186.977   -3806.0321   -290.14602     789.2891   -1205.2221    75.740235 
   59200    91.429159   -119.75632  0.082727025   -119.67359   -3373.6369    4.2295104    4.2295104    4.2295104   -3373.6369   -4045.9159   -578.44586   -5496.5489   -1597.1758    442.27239   -1572.9546    75.660687 
   59300    145.52061   -119.80517   0.13167011    -119.6735     -5464.93    4.2294624    4.2294624    4.2294624     -5464.93   -7414.8141   -4496.7298   -4483.2463    363.87845   -431.60251   -111.49531    75.658113 
   59400    117.20307   -119.78005    0.1060478     -119.674   -829.89085    4.2274937    4.2274937    4.2274937   -829.89085   -897.46207     76.10371   -1668.3142   -1003.2927   -1338.6103   -161.89061    75.552514 
   59500    94.695941   -119.75974  0.085682878   -119.67405     300.3607    4.2246288    4.2246288    4.2246288     300.3607   -1018.9419      845.769     1074.255   -347.62334    8.4990402    -2112.819    75.399013 
   59600    89.704661   -119.75508  0.081166663   -119.67391    2731.3169    4.2242646    4.2242646    4.2242646    2731.3169    662.64505    5046.7976    2484.5081     1482.854    275.98014   -1118.1101    75.379517 
   59700    131.82272   -119.79285   0.11927597   -119.67357    2439.7285    4.2245486    4.2245486    4.2245486    2439.7285    2868.7704    2113.0154    2337.3998    45.158815   -1502.0451    1217.7305    75.394722 
   59800    100.87989   -119.76479  0.091278245   -119.67351    1307.1028     4.225149     4.225149     4.225149    1307.1028    -1270.548    2551.9867    2639.8698    429.94965   -209.76473    1395.9458     75.42687 
   59900    96.408342   -119.76111  0.087232294   -119.67388   -669.70537    4.2279719    4.2279719    4.2279719   -669.70537   -4390.1165    1402.1857    978.81475    1145.6856   -291.06558    740.94033    75.578154 
   60000     80.15564    -119.7467  0.072526508   -119.67418   -1885.2424     4.229216     4.229216     4.229216   -1885.2424   -3365.2195   -1913.5128   -376.99488    -939.7804     769.1174   -382.74745    75.644888 
   60100     93.50843    -119.7585  0.084608392   -119.67389   -3217.3659    4.2293567    4.2293567    4.2293567   -3217.3659   -6826.5575    2117.2256   -4942.7658    1033.7414    1704.5322   -485.22091    75.652442 
   60200    91.294811   -119.75642  0.082605464   -119.67381   -1626.4024    4.2296659    4.2296659    4.2296659   -1626.4024   -5192.2153    2989.9939   -2676.9857   -559.38487   -221.92468     2541.446    75.669037 
   60300    113.24049   -119.77624   0.10246238   -119.67378   -1105.1723    4.2276095    4.2276095    4.2276095   -1105.1723   -3530.8468    3756.2988   -3540.9689   -1175.3283    766.70834     78.23457    75.558723 
   60400    79.724306   -119.74619  0.072136228   -119.67405    2460.0913    4.2252137    4.2252137    4.2252137    2460.0913    1483.8326    7317.6767   -1421.2354    512.30839    1473.8758    137.90246    75.430336 
   60500    78.070216   -119.74462  0.070639572   -119.67398    2457.9709    4.2248804    4.2248804    4.2248804    2457.9709   -1604.9209    9119.0158   -140.18222   -638.42757    384.56768   -1523.9631    75.412486 
   60600    107.32042   -119.77091   0.09710577   -119.67381    3370.1958    4.2240491    4.2240491    4.2240491    3370.1958    4284.1038    4946.1749     880.3087   -210.36025    455.17109    23.601547     75.36798 
   60700    117.54131   -119.78001   0.10635385   -119.67365    2424.0671     4.224551     4.224551     4.224551    2424.0671    426.00525    6743.3622    102.83395    558.51942    -690.3893    1029.4473     75.39485 
   60800    94.670288   -119.75948  0.085659666   -119.67382   -574.63052    4.2274336    4.2274336    4.2274336   -574.63052   -4881.9938    484.84464    2673.2576   -1325.7332   -1213.6577   -991.63898    75.549288 
   60900    88.570213   -119.75403   0.08014019   -119.67389   -1135.3643    4.2284488    4.2284488    4.2284488   -1135.3643   -3014.2059    -83.75195   -308.13511    461.04058    644.70462   -2419.3044    75.603731 
   61000    108.66643    -119.7721   0.09832367   -119.67378   -4082.3094    4.2292483    4.2292483    4.2292483   -4082.3094   -6970.5971   -2160.3252    -3116.006    860.06659   -627.07172   -684.89225    75.646625 
   61100    101.97388     -119.766  0.092268114   -119.67373    -2939.954     4.229852     4.229852     4.229852    -2939.954   -5908.4771   -830.39552   -2080.9895   -296.18705   -1228.5502   -463.13991    75.679024 
   61200    113.93429   -119.77683   0.10309014   -119.67374   -2926.8242     4.228222     4.228222     4.228222   -2926.8242   -3105.1063     -4390.58   -1284.7862    520.51139    272.33312     1438.241    75.591564 
   61300    104.59812   -119.76853  0.094642575   -119.67389   -735.25973    4.2265062    4.2265062    4.2265062   -735.25973   -1014.1494    -636.0785   -555.55128   -640.62654    82.557612    -273.5354    75.499581 
   61400    93.946196     -119.759  0.085004493   -119.67399    823.76814    4.2258299    4.2258299    4.2258299    823.76814    47.163327    289.24447    2134.8966   -350.47693    1544.4161   -1517.0504    75.463339 
   61500     96.30871   -119.76095  0.087142145   -119.67381    1543.0322    4.2249117    4.2249117    4.2249117    1543.0322     1842.908    364.25926    2421.9293     370.9717    345.98667    2519.6579    75.414164 
   61600    127.13315   -119.78861   0.11503274   -119.67358    2076.8993    4.2251652    4.2251652    4.2251652    2076.8993   -209.06262    5658.1108    781.64959   -1264.1675   -445.87593     1531.386    75.427739 
   61700    100.98721   -119.76505  0.091375351   -119.67367    703.57041    4.2265966    4.2265966    4.2265966    703.57041   -2029.8548    1486.3811    2654.1849   -388.45478    528.54029    897.49287    75.504424 
   61800    92.354665   -119.75738  0.083564442   -119.67381   -652.37762    4.2274387    4.2274387    4.2274387   -652.37762   -4701.3871    5256.5033   -2512.2491    31.598858     800.2541   -408.24143    75.549563 
   61900    93.292355   -119.75829  0.084412883   -119.67387   -1426.3956    4.2284298    4.2284298    4.2284298   -1426.3956   -3735.9754    3786.5481   -4329.7593    56.213782   -698.05586   -848.06009    75.602713 
   62000    111.66366   -119.77478   0.10103563   -119.67375   -3058.1094    4.2289124    4.2289124    4.2289124   -3058.1094   -6359.6436    2851.7802    -5666.465    633.48885   -482.97838    1028.4352    75.628601 
   62100    87.894236   -119.75332  0.079528552   -119.67379   -1147.1094    4.2278293    4.2278293    4.2278293   -1147.1094   -652.60865    1201.8475   -3990.5672    19.257379   -1397.5294    2185.4584    75.570508 
   62200    98.672321   -119.76331   0.08928079   -119.67403   -787.81794    4.2272048    4.2272048    4.2272048   -787.81794   -3968.6825    3391.8836   -1786.6549    457.79084   -20.692322   -2336.1998    75.537022 
   62300    82.593619   -119.74877  0.074732442   -119.67403    2338.6764    4.2259449    4.2259449    4.2259449    2338.6764    2009.7846    3052.7664    1953.4781    1188.6863   -36.844971   -710.58909    75.469502 
   62400    87.370244   -119.75286  0.079054433    -119.6738     2790.527    4.2249928    4.2249928    4.2249928     2790.527    800.43313     5101.667    2469.4809    623.44093   -1206.0326   -829.56819    75.418502 
   62500    96.528454   -119.76116  0.087340974   -119.67381    3313.6769    4.2254129    4.2254129    4.2254129    3313.6769   -985.29934    6000.6085    4925.7217    859.82531   -91.044095    295.49134    75.441006 
   62600    105.96422   -119.76971  0.095878656   -119.67383    1889.2189    4.2262019    4.2262019    4.2262019    1889.2189   -880.67833     2420.266    4128.0691    591.06425    162.53635     291.6129    75.483274 
   62700    80.896068   -119.74727  0.073196462   -119.67408   -57.652237    4.2267788    4.2267788    4.2267788   -57.652237   -3868.8362    2523.5871    1172.2924    551.48536    877.12883   -1860.6261     75.51419 
   62800    101.37919   -119.76559  0.091730018   -119.67386   -2579.9547    4.2282138    4.2282138    4.2282138   -2579.9547   -5881.5722    -193.4831   -1664.8086    888.83035    1313.8274   -503.17899    75.591124 
   62900    110.00883   -119.77346  0.099538302   -119.67392   -2857.7946    4.2284052    4.2284052    4.2284052   -2857.7946   -2326.6861   -3702.8912   -2543.8066    747.00286     -32.2269    2052.1369     75.60139 
   63000    125.83891   -119.78743   0.11386169   -119.67357   -4197.5132    4.2280669    4.2280669    4.2280669   -4197.5132   -3624.1151   -4220.6423   -4747.7821    132.11334    315.27658    1707.6919    75.583246 
   63100    93.334193   -119.75838  0.084450739   -119.67393   -867.35589    4.2274704    4.2274704    4.2274704   -867.35589   -948.00291   -1287.2429   -366.82188    286.60808    1229.2853    506.92025    75.551262 
   63200    129.97518   -119.79149   0.11760428   -119.67388   -1705.0264    4.2271122    4.2271122    4.2271122   -1705.0264   -1380.7783   -2198.0903   -1536.2106    647.99535   -213.75731   -591.93633    75.532058 
   63300    95.947628   -119.76065   0.08681543   -119.67383    1856.2775     4.226357     4.226357     4.226357    1856.2775    1616.8484    5942.5613   -1990.5771    296.74981    3.0630002    215.46808    75.491586 
   63400    123.73167   -119.78559   0.11195502   -119.67364    -873.7871    4.2266153    4.2266153    4.2266153    -873.7871   -4158.4037    954.24952    582.79288   -87.841602   -729.75204    2430.0324    75.505427 
   63500    92.041153   -119.75728  0.083280769     -119.674    1135.2805    4.2268339    4.2268339    4.2268339    1135.2805   -532.86413    4757.5672   -818.86155   -374.20511   -604.41145   -279.00551    75.517143 
   63600    107.67009   -119.77125  0.097422162   -119.67382   -1500.7196    4.2271749    4.2271749    4.2271749   -1500.7196    -4839.686    2416.3495   -2078.8223   -659.76215    984.86638   -770.32052    75.535423 
   63700    66.132292   -119.73388  0.059837888   -119.67404     23.46595    4.2268429    4.2268429    4.2268429     23.46595   -4757.9107    5018.0344   -189.72582    525.10996   -402.21389   -2264.0595    75.517624 
   63800    103.70531   -119.76774  0.093834744    -119.6739   -838.01521    4.2271537    4.2271537    4.2271537   -838.01521   -2030.3783    550.84408   -1034.5114    -195.1385   -480.15294    674.08178    75.534285 
   63900     78.83349   -119.74537  0.071330198   -119.67404     1771.409     4.226697     4.226697     4.226697     1771.409   -1020.2452     6074.837    259.63523    -762.5867    834.39932     638.3348    75.509805 
   64000    80.032411    -119.7465  0.072415007   -119.67408    2167.0704    4.2261794    4.2261794    4.2261794    2167.0704   -1679.4229    4158.9943    4021.6398    287.93998    1133.9117   -1391.7928    75.482066 
   64100     79.73512   -119.74631  0.072146012   -119.67417    3273.0723    4.2264018    4.2264018    4.2264018    3273.0723    1668.9688    5468.2903    2681.9578    140.78511    942.43603   -2266.1903    75.493983 
   64200    103.04367   -119.76731  0.093236076   -119.67408    1569.5151    4.2267801    4.2267801    4.2267801    1569.5151   -1368.2558    6356.0794   -279.27851    292.34909     806.7631    571.97895     75.51426 
   64300    100.23485   -119.76447  0.090694597   -119.67377     -98.4691     4.226861     4.226861     4.226861     -98.4691   -1067.7744   -304.86025    1077.2273    885.61708   -691.42596     262.1346    75.518596 
   64400    97.715928   -119.76224  0.088415425   -119.67382    -1644.469     4.227498     4.227498     4.227498    -1644.469   -3059.2265    319.10939   -2193.2899    -414.1404    1107.7191    1998.3575    75.552742 
   64500    130.42649   -119.79165   0.11801263   -119.67363   -3825.5207    4.2277355    4.2277355    4.2277355   -3825.5207   -4404.0162   -2828.5681   -4243.9778       892.63    485.00423   -696.07882    75.565479 
   64600    100.10013   -119.76432  0.090572703   -119.67375   -1643.4071    4.2269457    4.2269457    4.2269457   -1643.4071    -4110.061    449.90071   -1270.0612    1133.4322   -480.90352   -721.43954    75.523137 
   64700    134.78527   -119.79538   0.12195655   -119.67343   -3259.1166    4.2270019    4.2270019    4.2270019   -3259.1166   -3624.1414   -2411.1108   -3742.0974   -642.22833     197.3441    2774.7974    75.526146 
   64800    96.912786    -119.7615  0.087688725   -119.67381    2158.9926     4.225946     4.225946     4.225946    2158.9926    1264.7115     4349.615    862.65124    487.63409   -205.58571    1403.7001    75.469563 
   64900    129.95525   -119.79124   0.11758624   -119.67365   -482.90422     4.226009     4.226009     4.226009   -482.90422   -2114.3672   -705.88097    1371.5355   -573.01384    721.83366    96.207123    75.472936 
   65000     75.24554   -119.74193  0.068083746   -119.67385    2993.8153    4.2263436    4.2263436    4.2263436    2993.8153    2639.2172    4720.2766    1621.9521   -350.50266    641.50679    -590.7711    75.490866 
   65100    131.43844   -119.79271   0.11892826   -119.67378   -1387.9335    4.2269995    4.2269995    4.2269995   -1387.9335   -2859.2197   -643.30432    -661.2764    1004.4542   -152.51244   -900.45524    75.526018 
   65200    71.243852   -119.73875  0.064462935   -119.67429    44.777941    4.2275131    4.2275131    4.2275131    44.777941    215.72942    451.97922   -533.37481   -447.93357    -48.18147     1749.539    75.553549 
   65300    91.415899   -119.75676  0.082715027   -119.67404   -2233.6615    4.2284319    4.2284319    4.2284319   -2233.6615   -4127.1514   -494.26194   -2079.5711    132.31321    1222.9498    1098.2244    75.602825 
   65400    72.505887   -119.73973   0.06560485   -119.67413   -31.943983    4.2272257    4.2272257    4.2272257   -31.943983   -4008.6405    4436.9083   -524.09974    1094.3003    206.01397   -2861.2549    75.538146 
   65500    107.81892   -119.77144  0.097556823   -119.67388    663.28978     4.226918     4.226918     4.226918    663.28978   -3725.8604    4642.7949    1072.9348   -213.45216    915.55516   -889.11406    75.521649 
   65600    74.447476   -119.74125  0.067361641   -119.67388    2740.5446    4.2262292    4.2262292    4.2262292    2740.5446   -2128.0275    9559.4257    790.23573    1389.3402   -447.89266   -503.07519    75.484736 
   65700    90.830069   -119.75609  0.082184956    -119.6739    3092.8854     4.224874     4.224874     4.224874    3092.8854   -967.68829    7111.2607    3135.0838   -338.99614   -74.584674    1100.8199    75.412141 
   65800    96.215156   -119.76108  0.087057495   -119.67402    3202.8653    4.2252526    4.2252526    4.2252526    3202.8653    2160.2189     5343.526    2104.8512   -622.18868    676.30543    405.75221     75.43242 
   65900    102.41576   -119.76643   0.09266793   -119.67376    269.48494    4.2264488    4.2264488    4.2264488    269.48494   -1552.0269    3853.6195   -1493.1378    713.04418   -542.70803   -1383.8547    75.496505 
   66000    119.19385   -119.78145    0.1078491    -119.6736   -1324.2452     4.226726     4.226726     4.226726   -1324.2452   -658.26565   -1478.1948   -1836.2752   -819.57817   -955.85414    383.60674    75.511359 
   66100    107.46965   -119.77103  0.097240798   -119.67379   -3296.2689     4.228309     4.228309     4.228309   -3296.2689    -2126.089   -2455.9995   -5306.7182   -905.02162   -348.59519    2558.5895    75.596234 
   66200    110.50108   -119.77374  0.099983699   -119.67375   -4253.7577    4.2292219    4.2292219    4.2292219   -4253.7577   -2922.4833   -4310.7998   -5527.9901   -581.58071   -113.22101    1237.3617    75.645208 
   66300    92.276203   -119.75712  0.083493448   -119.67363   -1849.7501    4.2280005    4.2280005    4.2280005   -1849.7501   -4912.0635    387.22724   -1024.4141   -1562.3829     403.0897   -212.49503    75.579687 
   66400    142.12941   -119.80215   0.12860168   -119.67355   -2476.9619    4.2277893    4.2277893    4.2277893   -2476.9619   -3511.5283   -2087.9209   -1831.4363    595.76347    161.31848   -808.54721    75.568363 
   66500    90.400363   -119.75568  0.081796148   -119.67389    2547.4993    4.2263633    4.2263633    4.2263633    2547.4993   -800.67395    5950.1736    2492.9982   -296.92088   -1252.5812    515.94842    75.491924 
   66600    99.704135   -119.76409  0.090214397   -119.67388    900.77833    4.2247862    4.2247862    4.2247862    900.77833   -1612.6582   -5.8774449    4320.8706   -685.19312    1236.3117     2250.713     75.40744 
   66700    83.923508   -119.74999  0.075935754   -119.67406    4054.1965    4.2246865    4.2246865    4.2246865    4054.1965    2632.6831    3821.7581    5708.1482    1361.2898    186.15845   -807.97652    75.402106 
   66800    114.44923   -119.77742   0.10355607   -119.67386       900.38    4.2253922    4.2253922    4.2253922       900.38   -506.10764    991.32737    2215.9203    484.00226    74.668668   -1288.1643    75.439898 
   66900     89.33826   -119.75478  0.080835135   -119.67394    603.05407    4.2258794    4.2258794    4.2258794    603.05407   -2308.3799    1016.7583    3100.7838     1245.951     3.375435   -1469.6306    75.465994 
   67000    87.976126   -119.75369  0.079602648   -119.67408   -194.31128    4.2279745    4.2279745    4.2279745   -194.31128   -632.65483    2064.8166   -2015.0956    1139.8118   -417.32014    843.97197    75.578294 
   67100    91.214563   -119.75662  0.082532854   -119.67409   -2410.1173     4.228778     4.228778     4.228778   -2410.1173   -4762.6518    2003.3495   -4471.0497   -734.31726    172.75368       761.96    75.621389 
   67200    77.972986    -119.7445  0.070551596   -119.67395    105.84444    4.2284553    4.2284553    4.2284553    105.84444   -2749.3383    4103.2679   -1036.3962    473.62676    712.33223   -742.55037    75.604081 
   67300    120.18738   -119.78238   0.10874807   -119.67363   -2675.0414    4.2288955    4.2288955    4.2288955   -2675.0414   -6519.4009    3273.8043   -4779.5277    179.65294   -713.55807   -1247.1572    75.627695 
   67400    90.396235    -119.7555  0.081792413   -119.67371    1534.2022    4.2267614    4.2267614    4.2267614    1534.2022    387.34168    5108.7118    -893.4469   -990.67881    174.77566    1837.5024    75.513258 
   67500    102.20413   -119.76627  0.092476442    -119.6738   -43.743803    4.2254802    4.2254802    4.2254802   -43.743803   -1398.4182    1290.1129   -22.926168    5.8909681    928.67334    2040.1277    75.444608 
   67600    76.006517   -119.74258  0.068772294   -119.67381    2521.3153    4.2252434    4.2252434    4.2252434    2521.3153    1375.7075    3740.7213    2447.5172   -725.06079    104.41246    2133.1067    75.431925 
   67700    143.45993   -119.80323   0.12980556   -119.67342    1064.0502    4.2245909    4.2245909    4.2245909    1064.0502    645.42574     1706.913    839.81182    182.17791    1546.3132   -395.06397    75.396983 
   67800    97.061782    -119.7615   0.08782354   -119.67368    1387.1237    4.2252791    4.2252791    4.2252791    1387.1237    -973.7098    2674.2482    2460.8326    1527.5316   -447.33088    453.54144    75.433839 
   67900    111.29836   -119.77464    0.1007051   -119.67393   -1342.9283    4.2278008    4.2278008    4.2278008   -1342.9283   -2661.3684    527.10038   -1894.5169   -8.2455472    195.11863    2817.4357    75.568978 
   68000    78.684657   -119.74524  0.071195531   -119.67405   -926.78652    4.2281112    4.2281112    4.2281112   -926.78652   -2137.1936    153.11169   -796.27768    1044.8018     1134.788    1612.0598    75.585623 
   68100    123.73762   -119.78567    0.1119604   -119.67371   -4175.6927    4.2292691    4.2292691    4.2292691   -4175.6927   -5734.8216   -4652.5408   -2139.7157    1065.1715    219.45683    85.978887    75.647739 
   68200     91.89688   -119.75685  0.083150228    -119.6737   -1505.4445    4.2296611    4.2296611    4.2296611   -1505.4445   -4629.4877   -240.31919    353.47337    1009.7489   -62.589087    -852.6675    75.668774 
   68300    114.91561   -119.77775   0.10397806   -119.67377   -2708.1312    4.2276731    4.2276731    4.2276731   -2708.1312   -3860.4674   -3769.8338    -494.0923     968.7438    145.97156    31.512898    75.562131 
   68400    79.048472   -119.74578  0.071524719   -119.67425    2331.4744    4.2257023    4.2257023    4.2257023    2331.4744    1740.6034    1441.9089    3811.9109   -197.85058   -566.67376    1790.0905    75.456505 
   68500    87.438282    -119.7531  0.079115995   -119.67398    2080.0559    4.2251159    4.2251159    4.2251159    2080.0559     314.1464    3111.2194    2814.8018   -820.51693    709.48071    114.76789    75.425099 
   68600    111.49278   -119.77448   0.10088101    -119.6736     3900.845    4.2234223    4.2234223    4.2234223     3900.845    1144.0179    5794.3553     4764.162    758.63258   -376.36131   -2446.0765    75.334435 
   68700    108.79911   -119.77219  0.098443718   -119.67374    3745.7916    4.2243529    4.2243529    4.2243529    3745.7916    1881.5138    8112.1223    1243.7388   -532.07561   -1389.6313    -364.1942    75.384241 
   68800    97.548834   -119.76226  0.088264235     -119.674   -276.22186    4.2266641    4.2266641    4.2266641   -276.22186   -3435.8395    5063.4331   -2456.2591   -467.61099    1009.3347    740.45309    75.508041 
   68900    65.026625   -119.73319  0.058837457   -119.67435     567.9871    4.2272973    4.2272973    4.2272973     567.9871   -644.22124    4335.2337   -1987.0512    -870.2812   -428.47269     1826.785    75.541981 
   69000    129.64561   -119.79099   0.11730607   -119.67369   -5346.2137    4.2296604    4.2296604    4.2296604   -5346.2137   -7136.2468   -1907.2151   -6995.1792   -133.03344     895.5967    509.06451    75.668741 
   69100    89.764146   -119.75488  0.081220486   -119.67366   -1494.9757    4.2296084    4.2296084    4.2296084   -1494.9757   -3647.6514    1886.8611   -2724.1369    668.34726   -192.30992   -948.12374    75.665946 
   69200    114.95791   -119.77776   0.10401633   -119.67374   -3700.0553    4.2281951    4.2281951    4.2281951   -3700.0553   -5306.9671    -2207.653   -3585.5457    747.23498   -493.63542    1678.8446    75.590122 
   69300     64.35172   -119.73244  0.058226789   -119.67421    2171.2275    4.2268412    4.2268412    4.2268412    2171.2275    521.24528    3695.0131    2297.4241   -70.887661    560.00038    2369.2133    75.517532 
   69400    114.75709   -119.77766   0.10383462   -119.67383    2009.6584    4.2253194    4.2253194    4.2253194    2009.6584       1125.9    3485.9546    1417.1205    878.60462    382.38089    843.97034    75.435997 
   69500    86.149064   -119.75176  0.077949483   -119.67381     4891.881    4.2234598    4.2234598    4.2234598     4891.881    508.65947    5827.1808    8339.8027    791.04042   -1087.6916   -479.40146    75.336439 
   69600     134.6342   -119.79531   0.12181985   -119.67349    2274.5098    4.2249219    4.2249219    4.2249219    2274.5098   -26.288969    4861.1433    1988.6751     402.1898    729.15534   -381.62906    75.414708 
   69700    82.271062   -119.74835  0.074440586   -119.67391    1556.4583    4.2256307    4.2256307    4.2256307    1556.4583    613.06616    2231.1134    1825.1954   -27.357968   -802.62358    1311.5802     75.45267 
   69800    102.11387   -119.76628  0.092394772   -119.67388   -3169.1215    4.2271876    4.2271876    4.2271876   -3169.1215   -4302.5485    -3662.452   -1542.3641   -1136.1773    33.879695     2375.489    75.536101 
   69900    100.64694   -119.76475  0.091067471   -119.67369   -3258.7831    4.2296096    4.2296096    4.2296096   -3258.7831   -3425.5494   -3312.4343   -3038.3657   -756.90433    1035.4887   -1176.9299     75.66601 
   70000    146.48841   -119.80597    0.1325458   -119.67342   -6372.6618    4.2300892    4.2300892    4.2300892   -6372.6618   -7045.2644   -5226.4515   -6846.2696    354.35812   -1459.3402   -1096.4566    75.691755 
   70100    93.725223   -119.75864  0.084804551   -119.67384   -2138.5954    4.2289361    4.2289361    4.2289361   -2138.5954   -2074.3073   -1232.1125   -3109.3664   -737.93381    612.32313    -303.5022    75.629873 
   70200    90.538205   -119.75593   0.08192087   -119.67401   -1808.6108    4.2286299    4.2286299    4.2286299   -1808.6108   -4132.5489    3073.0699   -4366.3534   -673.30489    461.57389    1608.9887    75.613444 
   70300    98.700591   -119.76321  0.089306369   -119.67391    2584.4029    4.2258862    4.2258862    4.2258862    2584.4029    2319.0775    5792.5967    -358.4656    23.560928   -142.76493    643.13678    75.466357 
   70400     112.4457   -119.77531   0.10174323   -119.67357    3255.1978     4.224371     4.224371     4.224371    3255.1978   -955.01683    8814.8242    1905.7862    107.17452    802.83696   -327.13258    75.385209 
   70500    101.00348   -119.76517  0.091390072   -119.67378    2636.6713     4.224777     4.224777     4.224777    2636.6713   -915.20712    7552.5077    1272.7132    1155.8778    -389.9851    64.635096    75.406949 
   70600    74.736303   -119.74202  0.067622977    -119.6744    2893.7294    4.2244621    4.2244621    4.2244621    2893.7294    773.72483     6720.384    1187.0794    371.28105   -697.55771    3551.1084    75.390086 
   70700    75.747555   -119.74301  0.068537979   -119.67447   -245.80353    4.2261036    4.2261036    4.2261036   -245.80353   -1708.4548     2538.413   -1567.3688   -1084.8636    1753.3907    3004.5693    75.478005 
   70800    78.219488   -119.74516  0.070774637   -119.67439    412.86871    4.2278968    4.2278968    4.2278968    412.86871   -4567.8879     5983.598    -177.1039    1153.5662   -856.66016    1702.7094    75.574124 
   70900    114.06139   -119.77716   0.10320514   -119.67395   -1184.3322    4.2283986    4.2283986    4.2283986   -1184.3322   -2231.7336    1852.4613   -3173.7244    485.20956   -133.42458    382.14134    75.601038 
   71000    92.946564   -119.75811  0.084100005   -119.67401     19.11332    4.2286309    4.2286309    4.2286309     19.11332   -4592.7675    5319.7312   -669.62379   -369.57471    490.79038     2021.464    75.613499 
   71100    73.447481   -119.74058  0.066456825   -119.67412    74.112491     4.228357     4.228357     4.228357    74.112491   -74.527899    2818.2553     -2521.39   -379.11397   -635.38803    2624.8807    75.598807 
   71200    96.499664   -119.76131  0.087314924     -119.674   -291.52459    4.2268082    4.2268082    4.2268082   -291.52459   -2704.9617    529.90526    1300.4827   -1598.4514    1130.2977    1578.1013    75.515763 
   71300    136.81685   -119.79733   0.12379476   -119.67354   -70.091716    4.2262074    4.2262074    4.2262074   -70.091716   -68.283056    1682.4934   -1824.4855   -40.074458   -479.89396   -720.50506     75.48357 
   71400    128.14526   -119.78935   0.11594852   -119.67341    -1358.355    4.2257524    4.2257524    4.2257524    -1358.355   -3438.1607   -418.35416   -218.55022    1204.3539   -320.95355    -560.4199    75.459191 
   71500    100.31977   -119.76454  0.090771435   -119.67376    -470.4969     4.225068     4.225068     4.225068    -470.4969   -606.24496    581.82631   -1387.0721   -1565.7871    1038.6427    1403.5908    75.422533 
   71600    106.64874   -119.77032  0.096498019   -119.67382   -933.12305    4.2262013    4.2262013    4.2262013   -933.12305   -1660.4209    1598.8342   -2737.7825    245.95966    352.46034      1213.19    75.483239 
   71700    114.06282   -119.77674   0.10320644   -119.67353   -668.07559    4.2270526    4.2270526    4.2270526   -668.07559   -3216.4527     3016.029   -1803.8031   -356.65393   -115.01886   -651.09792    75.528866 
   71800    124.36376   -119.78593   0.11252695    -119.6734   -795.16069     4.227554     4.227554     4.227554   -795.16069    -2098.704    615.59863   -902.37665   -268.43532    525.25075   -427.30543    75.555745 
   71900    100.59834     -119.765   0.09102349   -119.67397   -591.62318    4.2285774    4.2285774    4.2285774   -591.62318   -2743.3875    3711.7424   -2743.2245    756.41576   -1214.3902    883.80175     75.61063 
   72000    75.117414   -119.74221  0.067967815   -119.67424   -371.05508      4.22855      4.22855      4.22855   -371.05508   -701.16228   -28.619586   -383.38338   -1006.9891    685.31394    2933.5101    75.609162 
   72100    71.671683   -119.73912  0.064850045   -119.67427   -110.25772    4.2274804    4.2274804    4.2274804   -110.25772   -1240.2662     782.4362    127.05687   -681.57939   -56.103154     2260.764    75.551798 
   72200    111.17535   -119.77446    0.1005938   -119.67387    218.52835    4.2270482    4.2270482    4.2270482    218.52835   -2764.7531    3172.0175    248.32067    1563.5325    -627.0278     540.3839    75.528627 
   72300    113.66902   -119.77658   0.10285012   -119.67373    914.85827    4.2257893    4.2257893    4.2257893    914.85827   -729.98776    3826.7383   -352.17578   -337.12465      1126.26     1207.175    75.461169 
   72400    68.193835   -119.73576  0.061703215   -119.67406    2253.7461    4.2248128    4.2248128    4.2248128    2253.7461   -729.39071    7127.1844    363.44467    503.92162   -452.42639    3130.8315    75.408866 
   72500    79.486076   -119.74619  0.071920672   -119.67427    2049.2309    4.2252838    4.2252838    4.2252838    2049.2309   -1722.2812    9271.2119   -1401.2379   -235.10844    1161.7242    2003.3115    75.434092 
   72600    101.06313   -119.76581  0.091444047   -119.67436    2469.9185    4.2255662    4.2255662    4.2255662    2469.9185    791.65712    7320.4011   -702.30276   -847.76378    668.06788   -12.506538    75.449217 
   72700    132.29286   -119.79338   0.11970136   -119.67368   -308.11352    4.2266833    4.2266833    4.2266833   -308.11352   -4214.7313    4316.3597   -1025.9689    1648.8557   -788.51365   -2124.8897     75.50907 
   72800    92.527448    -119.7577  0.083720779   -119.67398   -413.07383    4.2280085    4.2280085    4.2280085   -413.07383   -982.48175    2177.8915   -2434.6312    160.93911    184.87878    143.94774    75.580114 
   72900    96.175044   -119.76115  0.087021201   -119.67413   -3147.3315     4.228749     4.228749     4.228749   -3147.3315   -3380.4282   -4058.2466   -2003.3198    -1089.654    438.07413    910.73781    75.619833 
   73000    78.631587   -119.74524  0.071147512   -119.67409   -2140.5203    4.2285523    4.2285523    4.2285523   -2140.5203   -1160.9907   -2746.1141   -2514.4561    332.66013   -960.97587    675.27362    75.609284 
   73100    125.20693   -119.78694   0.11328986   -119.67365   -2615.6416    4.2283276    4.2283276    4.2283276   -2615.6416   -5609.0182   -1664.5949    -573.3117   -700.86276    807.06642   -1219.1757    75.597231 
   73200    123.01648   -119.78504    0.1113079   -119.67373    64.447327    4.2266491    4.2266491    4.2266491    64.447327   -557.90602    13.757692    737.49031    560.44342    -1619.839    -219.5921    75.507239 
   73300    93.945539   -119.75899  0.085003898   -119.67399    1312.0346    4.2257122    4.2257122    4.2257122    1312.0346    -1640.786    3545.7491    2031.1408    76.831572     79.24481    1601.7303    75.457036 
   73400    68.521802   -119.73616  0.061999966   -119.67416    2519.0314    4.2251849    4.2251849    4.2251849    2519.0314   -1001.6567    4508.7966    4049.9542   -1708.6648    1025.2474    2615.6543    75.428793 
   73500    107.48001    -119.7712  0.097250174   -119.67395    1832.7989    4.2250908    4.2250908    4.2250908    1832.7989   -446.00019    1070.3668      4874.03    203.64115   -991.06386    290.77854    75.423753 
   73600     129.7666   -119.79087   0.11741555   -119.67345    983.98772    4.2261516    4.2261516    4.2261516    983.98772    -1572.832    2181.0804    2343.7148    482.17349     558.1576     1036.211     75.48058 
   73700    104.34229   -119.76817  0.094411101   -119.67375   -1178.9311    4.2274978    4.2274978    4.2274978   -1178.9311   -4439.3028   -900.38489    1802.8945   -101.31834    494.92258    1336.5741    75.552732 
   73800    77.979864   -119.74467   0.07055782   -119.67411   -1540.2804    4.2283661    4.2283661    4.2283661   -1540.2804    -926.8013    -1638.763   -2055.2771    208.66749    139.14669    2650.6269    75.599294 
   73900    90.977376   -119.75625  0.082318242   -119.67393   -2746.7424    4.2291614    4.2291614    4.2291614   -2746.7424   -5996.2639    1478.5236    -3722.487   -545.86174    1318.9723    1713.8731    75.641963 
   74000    116.18537   -119.77858   0.10512696   -119.67346   -2574.2197    4.2289845    4.2289845    4.2289845   -2574.2197   -3724.4868    1301.6355   -5299.8078     591.9723    216.60156   -1147.0271     75.63247 
   74100    119.26113   -119.78142   0.10790998   -119.67351   -1222.5415     4.227929     4.227929     4.227929   -1222.5415   -5168.0703    3753.6841   -2253.2383    959.03441   -409.73317   -688.79497    75.575852 
   74200    96.876787    -119.7618  0.087656153   -119.67415   -300.60035     4.226824     4.226824     4.226824   -300.60035   -1418.6798     4267.956   -3751.0772   -1233.8872    1458.0666     1225.586     75.51661 
   74300    63.512939   -119.73193  0.057467842   -119.67446    2430.2399    4.2254085    4.2254085    4.2254085    2430.2399   -1071.2341    5634.5198    2727.4339   -1029.4988   -617.49652    161.30615    75.440768 
   74400    97.502742   -119.76233   0.08822253   -119.67411    1627.0562    4.2250656    4.2250656    4.2250656    1627.0562    -776.3441    2262.6654    3394.8472   -843.88081    398.22362   -81.669691    75.422402 
   74500      125.503   -119.78725   0.11355775   -119.67369    2582.0005    4.2251879    4.2251879    4.2251879    2582.0005    -778.9298    5096.9761    3427.9552   -646.75511   -152.60095   -1699.9578    75.428956 
   74600    105.94165   -119.76979  0.095858229   -119.67393    876.64186    4.2261944    4.2261944    4.2261944    876.64186   -1568.2488    -366.0147    4564.1891    231.97776   -734.47269   -280.72383     75.48287 
   74700    67.569432   -119.73559  0.061138242   -119.67446   -764.81816    4.2275527    4.2275527    4.2275527   -764.81816   -2432.8042   -667.62423    805.97392   -1015.8659     904.1786    2606.3879    75.555674 
   74800    76.195989   -119.74345  0.068943732   -119.67451   -1114.3357    4.2284148    4.2284148    4.2284148   -1114.3357   -3447.2481   -620.00169    724.24265   -615.94155    694.45792    1008.0013    75.601909 
   74900    125.13289   -119.78706   0.11322287   -119.67384   -3566.2807     4.229134     4.229134     4.229134   -3566.2807    -5890.231   -4080.2342    -728.3769    642.98021    512.01211   -409.24236    75.640492 
   75000    109.38138   -119.77265  0.098970568   -119.67368   -802.67851    4.2285459    4.2285459    4.2285459   -802.67851     -4019.03   -1331.1727    2942.1672    169.53358    778.61846    378.27746    75.608941 
   75100    109.53732   -119.77309   0.09911167   -119.67398   -1999.0934    4.2276595    4.2276595    4.2276595   -1999.0934   -4792.2468   -2058.6067    853.57322   -87.876606    462.04656     840.2738    75.561401 
   75200    65.142113   -119.73326  0.058941952   -119.67432    1783.2439    4.2261706    4.2261706    4.2261706    1783.2439    257.37136   -487.89379    5580.2542    -595.0266    801.68947    2518.2917    75.481596 
   75300    117.51502   -119.78012   0.10633006   -119.67379     412.7749    4.2256017    4.2256017    4.2256017     412.7749   -2044.8316    1171.2673     2111.889   -736.56314    591.42253    767.87438    75.451119 
   75400     115.5687   -119.77803   0.10456899   -119.67346    1818.9382    4.2251616    4.2251616    4.2251616    1818.9382   -2048.6753    4852.2384    2653.2515     1096.195    -902.7079   -223.62541    75.427545 
   75500    137.86266   -119.79827   0.12474103   -119.67353    74.574234    4.2260219    4.2260219    4.2260219    74.574234   -498.54966    1733.2715   -1010.9992    10.951206    366.34415    1382.4333    75.473631 
   75600    64.604385   -119.73265  0.058455406   -119.67419   -78.132283    4.2270259    4.2270259    4.2270259   -78.132283   -3001.9587    4288.9066   -1521.3448   -874.88649   -229.38564    2252.3117    75.527434 
   75700    94.812489   -119.75984  0.085788333   -119.67406   -2342.9147    4.2282596    4.2282596    4.2282596   -2342.9147   -4601.7336    2346.4651   -4773.4755   -448.78343    358.89807     1242.315    75.593581 
   75800    105.95715   -119.76958  0.095872253   -119.67371   -1477.7952    4.2288541    4.2288541    4.2288541   -1477.7952   -4603.1793    1023.1938   -853.40006   -584.02042   -37.486953    171.59023    75.625475 
   75900    135.41025   -119.79594   0.12252204   -119.67342   -3203.9361    4.2289956    4.2289956    4.2289956   -3203.9361   -5691.3039   -1132.6979   -2787.8066    38.829955   -195.77802   -1347.6337    75.633065 
   76000     73.40392   -119.74055   0.06641741   -119.67414    540.73058    4.2277765    4.2277765    4.2277765    540.73058   -3104.5153    1570.5265    3156.1805   -529.16554    602.49325    1249.8701    75.567677 
   76100    76.525256   -119.74365   0.06924166   -119.67441   -391.15957    4.2268806    4.2268806    4.2268806   -391.15957   -1946.5586    -2054.664    2827.7439   -1598.2889    430.55214    1073.5282    75.519644 
   76200    86.574302   -119.75259  0.078334248   -119.67425    3157.5809    4.2255652    4.2255652    4.2255652    3157.5809    194.00338    4431.7874     4846.952   -246.97231     250.3142     67.52792    75.449163 
   76300    118.31786   -119.78085   0.10705649    -119.6738    1977.5044    4.2249774    4.2249774    4.2249774    1977.5044   -2780.0079    2317.9359    6394.5851    808.25555    64.520343   -850.31123    75.417682 
   76400    108.62487   -119.77215  0.098286069   -119.67386    1910.8871    4.2254037    4.2254037    4.2254037    1910.8871   -171.75431    1999.1084    3905.3073   -773.52531    574.04841   -560.20459    75.440512 
   76500     72.38581   -119.73977  0.065496202   -119.67427     1606.336    4.2261282    4.2261282    4.2261282     1606.336   -516.62947    276.79998    5058.8375   -207.15503    448.23036    1296.1223    75.479322 
   76600    87.124742   -119.75302  0.078832297   -119.67419   -2122.1483    4.2275114    4.2275114    4.2275114   -2122.1483    -5154.736   -2490.0344    1278.3254   -1056.7596    837.99983    1765.3996    75.553458 
   76700    98.616638    -119.7633  0.089230407   -119.67407     -319.097    4.2284581    4.2284581    4.2284581     -319.097   -2608.2579   -2729.3511    4380.3179   -177.52758     26.89022   -838.50888    75.604231 
   76800    150.55359   -119.80977   0.13622406   -119.67354   -4650.9699    4.2291103    4.2291103    4.2291103   -4650.9699   -6513.6611   -5027.6938   -2411.5547     275.4142    18.111527    450.86068    75.639217 
   76900    77.674069   -119.74443   0.07028113   -119.67415   -485.08731    4.2283822    4.2283822    4.2283822   -485.08731   -1767.1905   -1925.6622    2237.5908   -797.66001   -386.63717    1212.4275    75.600158 
   77000    104.05403   -119.76827  0.094150277   -119.67412   -3276.9083    4.2281602    4.2281602    4.2281602   -3276.9083    -3471.087   -2609.9275   -3749.7104   -1317.1028    693.23259    2671.8682    75.588249 
   77100    80.468115   -119.74693  0.072809242   -119.67412    744.93991    4.2267622    4.2267622    4.2267622    744.93991   -927.96599    5451.8314   -2289.0457    509.58445   -840.51069    1928.7008      75.5133 
   77200    158.70128   -119.81701   0.14359626   -119.67341   -868.39973    4.2261338    4.2261338    4.2261338   -868.39973   -2962.4338    1999.7841   -1642.5495   -145.38416   -226.33142    -350.9943    75.479624 
   77300    87.392657   -119.75289  0.079074713   -119.67382    1566.0173    4.2258064    4.2258064    4.2258064    1566.0173   -1142.5248    5506.0589     334.5178    664.88298   -24.452272     137.8115    75.462082 
   77400    108.47105   -119.77219  0.098146889   -119.67404   -105.34632    4.2261311    4.2261311    4.2261311   -105.34632    -2478.147    2455.1464   -293.03832    106.34436    -254.0297    1785.0553    75.479477 
   77500    63.775295   -119.73194  0.057705227   -119.67423    1310.5154    4.2266038    4.2266038    4.2266038    1310.5154   -1485.0295     1095.021    4321.5546   -1156.2461    665.45515   -273.99657    75.504809 
   77600    122.28907   -119.78421   0.11064972   -119.67356   -1992.3428    4.2280998    4.2280998    4.2280998   -1992.3428    -6400.476   -1828.3852    2251.8326    919.51543   -498.79937   -555.96094    75.585012 
   77700      98.6761   -119.76275  0.089284209   -119.67347    206.01361    4.2281796    4.2281796    4.2281796    206.01361   -2233.7465   -374.27794    3226.0653    348.37936   -957.27616   -1988.6713     75.58929 
   77800    103.55608   -119.76756  0.093699717   -119.67386   -2635.3108    4.2286205    4.2286205    4.2286205   -2635.3108   -5178.8559   -4854.8647    2127.7882   -921.25753    341.77682   -555.32952    75.612941 
   77900    61.672802   -119.73004  0.055802848   -119.67424    842.78108    4.2281084    4.2281084    4.2281084    842.78108    81.829353   -242.56888    2689.0828   -256.22071   -545.06313     1440.023    75.585472 
   78000    92.660788   -119.75783  0.083841428   -119.67399   -941.11424    4.2272992    4.2272992    4.2272992   -941.11424      -4730.6    99.668976    1807.5883   -141.69081   -768.17333    320.14554    75.542086 
   78100    116.67658   -119.77922   0.10557142   -119.67364    1436.0702    4.2264641    4.2264641    4.2264641    1436.0702   -252.75745   -73.982208    4634.9503    215.23503     70.19935    -457.6283    75.497324 
   78200     108.5907    -119.7719  0.098255147   -119.67364     889.4192    4.2262093    4.2262093    4.2262093     889.4192   -2526.0914   -650.24653    5844.5955    1101.4892   -1141.7032     1433.459    75.483667 
   78300    78.106518   -119.74469  0.070672419   -119.67402    813.58857    4.2257753    4.2257753    4.2257753    813.58857   -1914.8676    288.91333      4066.72   -1510.2341    901.46209    1665.4685    75.460418 
   78400    86.538162   -119.75242  0.078301547   -119.67412    1336.6686    4.2261766    4.2261766    4.2261766    1336.6686   -1708.5525   -900.98151    6619.5398   -490.73813    75.728497    3148.1674    75.481916 
   78500    118.23944    -119.7808   0.10698553   -119.67381   -1007.4502    4.2268097    4.2268097    4.2268097   -1007.4502   -3227.4408    38.496071    166.59408    808.70026   -941.19987    1227.3757    75.515845 
   78600    115.43622   -119.77805   0.10444912    -119.6736   -318.81222    4.2271924    4.2271924    4.2271924   -318.81222   -4098.1495    1562.8892    1578.8237   -650.72328    517.24577    161.03721    75.536359 
   78700    106.88346    -119.7707  0.096710405   -119.67399   -1949.4857    4.2278179    4.2278179    4.2278179   -1949.4857   -532.42329   -1243.4957   -4072.5383   -53.375026   -587.15413    1879.3806    75.569897 
   78800    91.135671   -119.75672   0.08246147   -119.67426   -1516.9542    4.2281209    4.2281209    4.2281209   -1516.9542   -2562.8781    1968.2935   -3956.2779   -770.68584    79.583477    2157.7743    75.586143 
   78900     97.60858   -119.76241  0.088318294   -119.67409   -1195.1119    4.2277913    4.2277913    4.2277913   -1195.1119   -1797.8031    677.27361   -2464.8063   -643.11111    74.119815     450.5859    75.568466 
   79000    120.26582   -119.78256   0.10881904   -119.67375   -1737.1798    4.2275713    4.2275713    4.2275713   -1737.1798   -3754.6735    1.0925792   -1457.9584    781.99538   -1344.7494   -979.41109    75.556674 
   79100    117.61392   -119.78015   0.10641954   -119.67374    362.36398    4.2271645    4.2271645    4.2271645    362.36398   -497.95197   -200.58229    1785.6262   -437.16179    466.19558   -2076.3286    75.534861 
   79200    92.371726   -119.75745  0.083579879   -119.67387   -682.58927    4.2265242    4.2265242    4.2265242   -682.58927   -4216.4235   -1232.2268    3400.8825    -1698.049    647.95447     11.70908    75.500545 
   79300    78.565106   -119.74508  0.071087359   -119.67399    993.11253    4.2264044    4.2264044    4.2264044    993.11253   -1771.7812     -407.038    5158.1568   -42.794245   -400.26365    306.96355    75.494124 
   79400    113.21226   -119.77621   0.10243683   -119.67377   0.61558448     4.226513     4.226513     4.226513   0.61558448   -2722.7955   -229.72378     2954.366   -740.01592    1054.3773   -996.68923    75.499944 
   79500    102.05027   -119.76596  0.092337225   -119.67363     773.9097    4.2264661    4.2264661    4.2264661     773.9097   -4320.0768    -76.85295    6718.6589    497.67168    -1054.651   -701.13297    75.497433 
   79600    93.815687   -119.75866  0.084886405   -119.67377    668.55943    4.2270805    4.2270805    4.2270805    668.55943    -470.2546   -1210.3182    3686.2511    120.89228    714.29371     326.7431     75.53036 
   79700    75.094358   -119.74208  0.067946953   -119.67414    629.08542    4.2275252    4.2275252    4.2275252    629.08542   -2082.7991   -21.291316    3991.3466   -787.31229    716.88873    2076.1106    75.554201 
   79800    90.711319   -119.75609  0.082077508   -119.67401    354.09211    4.2276837    4.2276837    4.2276837    354.09211   -2772.3045   -2154.4379    5989.0188     1147.034   -1099.9435    1734.8461    75.562698 
   79900    89.827393   -119.75517  0.081277713   -119.67389   -589.33372    4.2281249    4.2281249    4.2281249   -589.33372   -3285.1793   -2582.2363    4099.4144    654.05066   -39.095908    183.23599    75.586358 
   80000    107.18819    -119.7708  0.096986129   -119.67381   -748.36701    4.2279662    4.2279662    4.2279662   -748.36701   -3103.2489   -1871.9166    2730.0645    502.02629   -78.491802    685.49901    75.577849 
   80100    99.773822   -119.76417  0.090277451   -119.67389   -836.60262    4.2273001    4.2273001    4.2273001   -836.60262   -3397.5766   -2381.2743    3269.0431   -429.12718    -836.7166    1747.6647     75.54213 
   80200    77.682159   -119.74421   0.07028845   -119.67392   -196.75053    4.2269402    4.2269402    4.2269402   -196.75053   -2775.0528    1809.3175    375.48364   -338.43224    615.13707    1572.0324     75.52284 
   80300    118.95888    -119.7812   0.10763649   -119.67357   -440.73529     4.226428     4.226428     4.226428   -440.73529   -3730.6357    2414.9202    -6.490407    533.22077   -1625.4291    378.06275     75.49539 
   80400     113.2288   -119.77618    0.1024518   -119.67373    1034.2818    4.2257493    4.2257493    4.2257493    1034.2818   -931.90185    2457.4506    1577.2966    1139.0635   -1045.4404   -1042.4599    75.459023 
   80500    130.43038   -119.79167   0.11801615   -119.67365   -1048.2544    4.2264609    4.2264609    4.2264609   -1048.2544   -2508.7739    612.14769   -1248.1371   -1319.7146    678.62416   -265.37077    75.497151 
   80600    80.643618   -119.74706   0.07296804   -119.67409    353.29566    4.2270119    4.2270119    4.2270119    353.29566    508.04742    681.90617   -130.06661    589.05637   -278.67873    1076.0653    75.526682 
   80700    134.96293   -119.79596   0.12211729   -119.67384    -3885.826     4.228023     4.228023     4.228023    -3885.826   -5183.3136   -4600.9321   -1873.2323    2.6776695    591.18121    235.62288    75.580892 
   80800    89.261812   -119.75465  0.080765964   -119.67389   -2072.9866    4.2290141    4.2290141    4.2290141   -2072.9866   -2291.4138   -3124.9606   -802.58558    808.60393    226.43419   -708.21007    75.634057 
   80900    129.21063    -119.7906   0.11691249   -119.67368   -5147.6764    4.2294844    4.2294844    4.2294844   -5147.6764   -6901.9514   -5965.0879     -2575.99    635.72747     118.9973    -647.6065    75.659294 
   81000    87.669993   -119.75335  0.079325652   -119.67403   -826.28359    4.2281233    4.2281233    4.2281233   -826.28359   -2681.9426   -2595.7547    2798.8465   -1278.1884    1415.3448    1254.8584    75.586271 
   81100     100.9872   -119.76546  0.091375337   -119.67408   -1094.4313    4.2275125    4.2275125    4.2275125   -1094.4313   -3371.1446   -1154.0345    1241.8851    349.76556    187.81561    1852.5905    75.553522 
   81200    67.938585    -119.7355   0.06147226   -119.67403    3428.6386    4.2258008    4.2258008    4.2258008    3428.6386    -3104.764    2702.7249    10687.955    955.62277   -597.43808    1237.7093    75.461786 
   81300    105.26776   -119.76902  0.095248479   -119.67377    3668.4338    4.2246808    4.2246808    4.2246808    3668.4338   -304.55268    1624.5789    9685.2752   -510.12886   -267.81295    15.912985      75.4018 
   81400    85.798742   -119.75151  0.077632505   -119.67388    4777.3862    4.2248703    4.2248703    4.2248703    4777.3862     825.1871    2540.4754    10966.496   -171.89647   -244.55757    1532.7286    75.411944 
   81500    74.688839    -119.7415  0.067580031   -119.67392    2528.1585    4.2257348    4.2257348    4.2257348    2528.1585   -1662.5634    1177.6483    8069.3905   -520.11811    100.98583    1929.6677    75.458248 
   81600    84.616551    -119.7506  0.076562833   -119.67403    317.00682    4.2268619    4.2268619    4.2268619    317.00682   -1263.5213   -2093.8032    4308.3449   -983.49527   -682.80118      1982.45    75.518642 
   81700    92.570982   -119.75767   0.08376017   -119.67391   -1868.0185    4.2289393    4.2289393    4.2289393   -1868.0185   -4622.9335   -1933.2958    952.17393    1021.3696   -450.07214   -465.30198    75.630045 
   81800    107.60712   -119.77094  0.097365181   -119.67358   -4082.7122    4.2296732    4.2296732    4.2296732   -4082.7122   -5355.3436   -4751.3059   -2141.4871   -1853.9632    235.64793    118.85998    75.669428 
   81900    95.430964      -119.76  0.086347942   -119.67365   -2376.1235    4.2291726    4.2291726    4.2291726   -2376.1235   -5411.5259   -1160.2314   -556.61334   -1346.3096     503.4148    236.57922    75.642562 
   82000    125.93749   -119.78749   0.11395088   -119.67354   -3160.3022    4.2288758    4.2288758    4.2288758   -3160.3022   -3580.8996   -2298.6339   -3601.3731    445.18592    511.11017    1123.2938    75.626637 
   82100    88.201958   -119.75355  0.079806985   -119.67374    1085.9232    4.2265978    4.2265978    4.2265978    1085.9232   -3742.6537    1729.7295    5270.6937   -484.23818   -646.08442   -1163.6857    75.504486 
   82200    136.08568   -119.79661   0.12313319   -119.67348   -174.72175    4.2250251    4.2250251    4.2250251   -174.72175   -953.62401      343.248    86.210774    808.40338   -458.53651   -1144.1037    75.420235 
   82300    112.54646   -119.77539    0.1018344   -119.67356    2733.9376    4.2247131    4.2247131    4.2247131    2733.9376    2043.2631    1894.1574    4264.3922   -206.17091   -359.08653   -671.99949    75.403528 
   82400    128.89209   -119.79019   0.11662427   -119.67357   -607.44152     4.224963     4.224963     4.224963   -607.44152   -768.84464   -877.19692   -176.28299   -657.30548   -676.56391    570.05455    75.416908 
   82500    83.595402   -119.74972  0.075638876   -119.67408   -144.62017    4.2260873    4.2260873    4.2260873   -144.62017   -1576.1969    283.89161    858.44475    1406.6976   -761.67244    713.65085     75.47713 
   82600    116.73063   -119.77957   0.10562033   -119.67395   -2771.4627    4.2288534    4.2288534    4.2288534   -2771.4627   -3334.1451   -4489.7035   -490.53941    763.92003   -1426.0296    51.966841    75.625437 
   82700    95.004327   -119.75971  0.085961912   -119.67375   -2475.2736    4.2292944    4.2292944    4.2292944   -2475.2736   -6718.1257   -2118.7367    1411.0417   -1298.8721   -445.41444   -448.03222    75.649099 
   82800    92.105153   -119.75715  0.083338678   -119.67381   -1677.2112    4.2295936    4.2295936    4.2295936   -1677.2112   -4028.3332   -2550.5435     1547.243    227.38749    207.28346    1821.4689    75.665156 
   82900    88.105246   -119.75388  0.079719478   -119.67416   -539.91871     4.229173     4.229173     4.229173   -539.91871   -6075.3391   -672.79426    5128.3773   -619.84901   -733.36382    1154.1177    75.642582 
   83000    76.914983   -119.74377  0.069594293   -119.67418    2400.6185    4.2263143    4.2263143    4.2263143    2400.6185   -1868.9007    220.65893    8850.0971    998.09386   -242.76204    696.65155    75.489294 
   83100    82.874346   -119.74906   0.07498645   -119.67407     2989.347    4.2248035    4.2248035    4.2248035     2989.347    -1181.697    1949.0391    8200.6988    461.79695   -977.81766    479.75359    75.408366 
   83200    82.801008   -119.74876  0.074920092   -119.67384    4420.4131    4.2242587    4.2242587    4.2242587    4420.4131    1651.6811    2444.4166    9165.1415   -1552.5591    652.89217   -497.74228      75.3792 
   83300    106.59915    -119.7702  0.096453152   -119.67375    3067.2047    4.2236501    4.2236501    4.2236501    3067.2047    1443.3198    185.78412    7572.5103    765.22046    1036.0667    2149.8778    75.346624 
   83400    70.694968     -119.738  0.063966293   -119.67403    2342.1876    4.2254708    4.2254708    4.2254708    2342.1876   -664.89184    1280.2287    6411.2261    561.17579   -704.81023    893.07279    75.444107 
   83500    112.71845   -119.77605   0.10199002   -119.67406   -1580.4581    4.2282063    4.2282063    4.2282063   -1580.4581   -3910.4547   -3783.0279    2952.1083    195.62621   -168.31369   -853.51949    75.590726 
   83600    98.442531   -119.76291  0.089072871   -119.67384   -1663.6679    4.2288208    4.2288208    4.2288208   -1663.6679   -4945.7731   -1885.7497    1840.5192   -372.41153   -74.444929    93.285391    75.623688 
   83700    131.17621   -119.79218   0.11869099   -119.67349   -5394.9734    4.2306643    4.2306643    4.2306643   -5394.9734   -6411.2367   -4723.1732   -5050.5102   -315.81343   -929.51453   -13.834188    75.722632 
   83800    92.266734   -119.75717   0.08348488   -119.67369   -2776.5608       4.2302       4.2302       4.2302   -2776.5608   -5610.5703   -1894.5776   -824.53461    265.36042    226.26643     173.7748    75.697701 
   83900    132.02209   -119.79312   0.11945636   -119.67366   -3959.1589    4.2277963    4.2277963    4.2277963   -3959.1589   -5161.1608   -3177.3536   -3538.9624    1833.6436   -1812.6323    1070.8504    75.568737 
   84000    99.048075    -119.7634   0.08962078   -119.67378    517.34252    4.2263603    4.2263603    4.2263603    517.34252    272.75081    257.13762    1022.1391   -1135.7016   -956.66828   -1608.4839    75.491758 
   84100    119.65384   -119.78169   0.10826531   -119.67343    572.00756     4.224881     4.224881     4.224881    572.00756   -623.00108    1697.9186    641.10517    93.665613    638.39192     578.3812     75.41252 
   84200     107.7191    -119.7711  0.097466506   -119.67363    3287.0271    4.2232734    4.2232734    4.2232734    3287.0271    1995.4404    3736.6342    4129.0068   -269.39579    -813.7611    1744.3746    75.326465 
   84300    99.681024   -119.76398  0.090193485   -119.67379    2186.3209     4.225353     4.225353     4.225353    2186.3209    514.79466    1103.2981    4940.8699   -48.199821   -15.313725   -123.78275    75.437798 
   84400    88.887395   -119.75434  0.080427183   -119.67391    143.00455    4.2271357    4.2271357    4.2271357    143.00455   -4319.9346    1728.4672     3020.481    529.94664   -321.15616    1115.7089    75.533319 
   84500    90.436576   -119.75566  0.081828914   -119.67383   -546.59062    4.2282471    4.2282471    4.2282471   -546.59062   -3906.5646   -1305.6191    3572.4118   -1639.7262   -1001.9052   -627.16663    75.592914 
   84600    103.79611    -119.7676    0.0939169   -119.67369   -3419.4327    4.2307381    4.2307381    4.2307381   -3419.4327   -6855.1744   -2201.4021   -1201.7215   -424.94422    858.79303    117.12802    75.726593 
   84700    76.996507   -119.74341  0.069668058   -119.67374   -1682.6132    4.2297613    4.2297613    4.2297613   -1682.6132   -5185.4075   -3866.9928    4004.5607    1148.4562   -974.58066    1611.5951    75.674155 
   84800    93.249574   -119.75837  0.084374174   -119.67399   -1610.2236    4.2278278    4.2278278    4.2278278   -1610.2236   -5040.9971   -2558.3011    2768.6274    519.01344   -1488.4129   -398.76221    75.570426 
   84900    87.890797   -119.75354   0.07952544   -119.67401    1499.3291    4.2268453    4.2268453    4.2268453    1499.3291   -222.23886   -2455.9466    7176.1727    256.76573   -609.44474   -551.88367    75.517753 
   85000    96.242573   -119.76094  0.087082303   -119.67386    2967.1623    4.2243816    4.2243816    4.2243816    2967.1623    1198.5008    -39.30378    7742.2899    180.14116   -1052.1694    577.56806    75.385778 
   85100    95.004534   -119.75982  0.085962099   -119.67386    4055.0307     4.223426     4.223426     4.223426    4055.0307     1415.691    2671.9683    8077.4327   -348.61414    636.62221   -1344.7246    75.334631 
   85200    106.94937   -119.77056  0.096770041   -119.67379    2914.0944    4.2253989    4.2253989    4.2253989    2914.0944    767.83798    269.67688    7704.7685      2124.95   -272.07206    834.41339    75.440253 
   85300    98.163573   -119.76267  0.088820464   -119.67385    393.80021    4.2262641    4.2262641    4.2262641    393.80021   -2682.7689    963.03473    2901.1348   -88.065278   -591.54976   -1605.1572    75.486607 
   85400    103.77987   -119.76758  0.093902206   -119.67367   -2176.0745    4.2281758    4.2281758    4.2281758   -2176.0745   -5712.9178    179.86181   -995.16745   -1121.3552     819.0722   -1688.6708    75.589087 
   85500    114.82487   -119.77748   0.10389595   -119.67359   -4303.7858    4.2307055    4.2307055    4.2307055   -4303.7858   -5119.1214   -1963.2334   -5829.0027    581.02227    408.35776   -414.47154    75.724841 
   85600    107.62256   -119.77087  0.097379152   -119.67349   -4634.9114    4.2296644    4.2296644    4.2296644   -4634.9114   -7242.7638   -3144.6815   -3517.2889    160.85038    531.35316   -172.58344    75.668952 
   85700    100.63637    -119.7647    0.0910579   -119.67364     -3126.55    4.2287573    4.2287573    4.2287573     -3126.55   -3561.6284   -2399.4035   -3418.6183    1089.1738    137.68601    333.42319    75.620281 
   85800    108.04062    -119.7715  0.097757423   -119.67374    -1014.578     4.228036     4.228036     4.228036    -1014.578   -2677.5947   -791.05089    424.91171   -410.69935   -385.32192    196.40064    75.581593 
   85900    109.74982   -119.77288  0.099303945   -119.67358    1858.6496    4.2248467    4.2248467    4.2248467    1858.6496    1852.6744    1306.5765    2416.6979   -820.93707    1203.8403   -510.82033    75.410683 
   86000    97.678968     -119.762  0.088381983   -119.67362    2834.7311    4.2244567    4.2244567    4.2244567    2834.7311    1005.7645    2708.0517    4790.3772    581.98647     416.9828    2022.7175    75.389799 
   86100    105.01462   -119.76874  0.095019435   -119.67372    2340.2722    4.2256655    4.2256655    4.2256655    2340.2722    376.08023    2386.3729    4258.3634    1199.0544   -489.23888    1105.4889    75.454535 
   86200    99.803462   -119.76421   0.09030427   -119.67391    963.46674    4.2255551    4.2255551    4.2255551    963.46674   -2876.6084    490.02281    5276.9858   -1004.8916    92.466101     479.7684    75.448623 
   86300    88.647842   -119.75408   0.08021043   -119.67387   -739.21995    4.2279505    4.2279505    4.2279505   -739.21995   -4534.4856   -8.5590263    2325.3848    398.81757   -559.65598    960.90767    75.577006 
   86400    99.206813    -119.7635   0.08976441   -119.67373   -2391.8513    4.2298042    4.2298042    4.2298042   -2391.8513   -6987.3059   -3637.1856    3448.9376   -387.98111    715.96086   -592.40722    75.676455 
   86500    88.857322   -119.75423  0.080399973   -119.67383   -1414.9623    4.2285558    4.2285558    4.2285558   -1414.9623   -4724.6652   -3683.5971    4163.3755    1286.0545   -22.176106    1101.0031     75.60947 
   86600    100.37418   -119.76461  0.090820666   -119.67379    -2108.802     4.228924     4.228924     4.228924    -2108.802   -6038.5342   -5510.5089    5222.6371    1291.1672   -444.45462    144.07706    75.629223 
   86700    69.341605   -119.73677  0.062741742   -119.67403    1514.5117    4.2274008    4.2274008    4.2274008    1514.5117    345.43942   -985.05608    5183.1519   -1200.0507    163.55541   -1671.8838     75.54753 
   86800    117.46547   -119.78021   0.10628523   -119.67392    899.02934     4.224947     4.224947     4.224947    899.02934   -1660.6907    784.95752    3572.8212    106.17711    476.42023   -735.05005    75.416053 
   86900    66.279271   -119.73404  0.059970877   -119.67407    4415.4134    4.2251107    4.2251107    4.2251107    4415.4134    4125.8307    2863.7281    6256.6813    115.57782    282.07399   -1021.9561    75.424819 
   87000     123.4397    -119.7854   0.11169084   -119.67371    640.97662    4.2255664    4.2255664    4.2255664    640.97662   -1952.0079    2263.8251    1611.1126    328.76942   -233.87584   -973.48801    75.449228 
   87100    84.150872   -119.75019  0.076141478   -119.67405     2783.966    4.2252467    4.2252467    4.2252467     2783.966   -674.24773    4393.0973    4633.0485   -248.64502   -884.93881     93.90238    75.432103 
   87200    131.36835   -119.79265   0.11886484   -119.67379   -3066.7445    4.2283656    4.2283656    4.2283656   -3066.7445   -5379.1792   -1105.1136   -2715.9408   -452.32969    5.9635635   -1837.6508     75.59927 
   87300    74.791866    -119.7415  0.067673252   -119.67383   -1091.3861    4.2286576    4.2286576    4.2286576   -1091.3861   -4346.7911    192.46771    880.16502   -499.11208    -332.7908    399.39993    75.614934 
   87400    140.00514   -119.80026   0.12667959   -119.67358   -5134.3433    4.2284788    4.2284788    4.2284788   -5134.3433   -6356.4406   -5006.2457   -4040.3436    2481.4779   -126.92634    899.46073    75.605343 
   87500    101.64485    -119.7657  0.091970396   -119.67372   -1738.0172    4.2291316    4.2291316    4.2291316   -1738.0172   -3752.5143   -2852.0792    1390.5419   -219.62686   -470.02112    82.223786    75.640361 
   87600    121.61968   -119.78365   0.11004405    -119.6736   -2843.3339    4.2276403    4.2276403    4.2276403   -2843.3339   -2220.1705   -3760.9703   -2548.8608    41.812211   -682.62811    863.49349    75.560373 
   87700    95.470718   -119.76031  0.086383912   -119.67393    1171.1244    4.2255881    4.2255881    4.2255881    1171.1244    140.45362    1316.1721    2056.7473     29.27755    1319.0351   -745.27987     75.45039 
   87800    110.34365   -119.77368  0.099841258   -119.67384    1181.0311    4.2264677    4.2264677    4.2264677    1181.0311    1158.4556   -509.84903    2894.4868    574.63649    329.60405    119.10167    75.497515 
   87900    99.915887   -119.76414  0.090405994   -119.67373    1848.6895    4.2254375    4.2254375    4.2254375    1848.6895    280.91089    315.01137    4950.1463    1183.6534    493.30828    1271.4048    75.442321 
   88000    92.857494   -119.75778  0.084019412   -119.67376    2346.8449    4.2256905    4.2256905    4.2256905    2346.8449   -2320.7908    1822.6409    7538.6846   -102.21399    518.31038   -743.48038    75.455874 
   88100     99.92777   -119.76447  0.090416746   -119.67405   -432.99759    4.2281125    4.2281125    4.2281125   -432.99759   -4737.9988   -1898.7739      5337.78   -500.55283   -86.557451   -1040.6583    75.585693 
   88200    55.712312   -119.72463  0.050409671   -119.67422    1371.0112    4.2273763    4.2273763    4.2273763    1371.0112   -3175.1629   -233.59548     7521.792    1039.5076    923.39187   -569.34551    75.546217 
   88300    104.06893   -119.76809  0.094163753   -119.67393   -2267.7387    4.2279105    4.2279105    4.2279105   -2267.7387   -7287.6431   -3980.8706    4465.2976    1495.1206    242.63279   -1360.7776    75.574862 
   88400    78.731866   -119.74527  0.071238247   -119.67403    1375.0629    4.2281556    4.2281556    4.2281556    1375.0629   -1472.3182   -83.033796    5680.5407   -151.18355   -1066.9212    230.80462    75.588008 
   88500    111.46021   -119.77458   0.10085154   -119.67373   -957.46548    4.2264476    4.2264476    4.2264476   -957.46548   -3360.0622   -642.78042    1130.4461    411.28433    855.38631   -1965.1663    75.496439 
   88600    51.719177   -119.72097  0.046796598   -119.67417    3309.8723    4.2256413    4.2256413    4.2256413    3309.8723     1793.946    3698.0721    4437.5988   -197.20177   -198.83041   -1135.2855    75.453236 
   88700     127.8145   -119.78956   0.11564924   -119.67391    711.28592    4.2266138    4.2266138    4.2266138    711.28592   -366.09834    10.083236    2489.8729    1600.0929    154.24291    266.60736    75.505347 
   88800    96.647937   -119.76153  0.087449085   -119.67408    2671.5071    4.2253825    4.2253825    4.2253825    2671.5071     1436.215    2152.3864    4425.9199    708.01587    14.826349    558.76656    75.439378 
   88900    138.01321   -119.79849   0.12487726   -119.67362   -1555.0737    4.2270168    4.2270168    4.2270168   -1555.0737   -4129.7243   -2494.9296    1959.4327   -324.24732   -1242.2483    159.97893    75.526946 
   89000    94.088945   -119.75904  0.085133655    -119.6739   -1345.3586    4.2282993    4.2282993    4.2282993   -1345.3586   -3628.0873   -558.25695    150.26833    534.93878     443.6042    444.38216    75.595713 
   89100     125.0681   -119.78692   0.11316424   -119.67376   -4860.7404    4.2278864    4.2278864    4.2278864   -4860.7404   -5816.0047   -5536.3283   -3229.8883    750.91901   -210.51149   -640.70266    75.573569 
   89200    98.595165    -119.7628  0.089210977   -119.67359   -2631.9192    4.2282371    4.2282371    4.2282371   -2631.9192   -5184.2635   -2731.3943    19.900305    1898.9454   -507.89617    1061.3464    75.592377 
   89300    141.51883   -119.80149   0.12804921   -119.67344   -4096.7561    4.2283922    4.2283922    4.2283922   -4096.7561   -4228.4174   -4816.6886   -3245.1622    251.98521    -280.6697    231.05208    75.600696 
   89400     101.2804   -119.76558  0.091640636   -119.67394    1087.9081    4.2260881    4.2260881    4.2260881    1087.9081   -231.13439    1774.6799    1720.1787   -39.609179   -1082.9906   -811.35498    75.477176 
   89500    84.234119   -119.75032  0.076216801    -119.6741     847.9902    4.2265812    4.2265812    4.2265812     847.9902   -1301.7202     -751.382    4597.0728    219.53378    87.313012   -764.28434    75.503601 
   89600    79.049316   -119.74561  0.071525482   -119.67408    3630.3309    4.2263719    4.2263719    4.2263719    3630.3309     2893.401    1727.5242    6270.0675    1456.6417   -2.6840012   -786.99447    75.492381 
   89700    112.43139   -119.77546   0.10173029   -119.67373    2426.0613    4.2257064    4.2257064    4.2257064    2426.0613   -2547.5432    1080.0398    8745.6873   -311.98964   -1427.4128   -962.55087    75.456725 
   89800    93.062828    -119.7581  0.084205202   -119.67389    647.13159     4.227439     4.227439     4.227439    647.13159   -2168.4394   -1829.6902    5939.5244    450.60514    443.89758   -1222.7854    75.549579 
   89900    64.060297   -119.73222  0.057963103   -119.67425    155.76078     4.227809     4.227809     4.227809    155.76078   -5252.9015    336.18767    5383.9962   -654.44807   -725.56963   -2508.4456    75.569417 
   90000    78.397094   -119.74535  0.070935339   -119.67442   -1850.2427    4.2272823    4.2272823    4.2272823   -1850.2427   -5455.6515   -4117.7214    4022.6448    1593.7305    162.07985   -2253.0343    75.541177 
   90100    91.387224   -119.75685  0.082689081   -119.67416    57.923363    4.2277518    4.2277518    4.2277518    57.923363   -5031.9263   -2492.4856     7698.182    1594.6913    462.56668   -797.68597     75.56635 
   90200    112.00275   -119.77507   0.10134244   -119.67373   -623.31383    4.2272164    4.2272164    4.2272164   -623.31383   -2430.0716   -2213.6116    2773.7417   -679.22259   -1147.7415   -633.54248    75.537647 
   90300    101.13922   -119.76541  0.091512891   -119.67389    1844.2934     4.225883     4.225883     4.225883    1844.2934   -2127.0471    1239.5061    6420.4211   -201.32869    748.09281   -859.48871    75.466189 
   90400    87.100257    -119.7529  0.078810143   -119.67409    1705.9343    4.2266546    4.2266546    4.2266546    1705.9343     632.4646   -114.95719    4600.2955    381.34116    802.40337   -276.16811    75.507535 
   90500    95.328125   -119.76025  0.086254891   -119.67399    76.857257    4.2269451    4.2269451    4.2269451    76.857257   -712.90922    452.27742    491.20357    747.67776   -53.346571      227.984    75.523102 
   90600    131.49383   -119.79256   0.11897838   -119.67358   -609.92728    4.2271551    4.2271551    4.2271551   -609.92728   -2335.7359   -1885.8576    2391.8117    69.834974    593.01493    1186.3078    75.534362 
   90700    133.00524   -119.79395   0.12034593   -119.67361   -4015.8995    4.2287746    4.2287746    4.2287746   -4015.8995   -5287.2579   -2649.0881   -4111.3526    62.000529   -641.56624     980.4566     75.62121 
   90800    84.532681   -119.75045  0.076486946   -119.67396   -2675.9917    4.2284331    4.2284331    4.2284331   -2675.9917   -3753.0565   -2225.1666   -2049.7521   -550.48127    17.838594   -788.79082    75.602892 
   90900    94.206045   -119.75922  0.085239609   -119.67398   -3380.7169    4.2277941    4.2277941    4.2277941   -3380.7169   -7353.9176   -2003.4775   -784.75573    2741.9238    983.43339   -180.73629    75.568618 
   91000    117.53427   -119.77999   0.10634748   -119.67365   -1127.9282    4.2276391    4.2276391    4.2276391   -1127.9282   -3832.0131   -1693.6146    2141.8433    225.23082   -609.15323   -123.37451     75.56031 
   91100    124.55556   -119.78605   0.11270049   -119.67335    613.83108    4.2264276    4.2264276    4.2264276    613.83108   -1168.3405    2571.1195    438.71422   -117.06114    692.40165   -1189.0398    75.495367 
   91200    92.656094   -119.75773  0.083837181   -119.67389    1682.0933    4.2256263    4.2256263    4.2256263    1682.0933   -2684.6604    2189.7394    5541.2008    266.24718   -194.44236   -597.60288    75.452434 
   91300    78.829947   -119.74551  0.071326993   -119.67419    3269.2646    4.2262823    4.2262823    4.2262823    3269.2646    1664.3364    4372.9853    3770.4722    788.04772     655.4034   -2021.8975     75.48758 
   91400      89.0293   -119.75462  0.080555582   -119.67407    1136.9009    4.2263142    4.2263142    4.2263142    1136.9009   -1349.8753     737.2038    4023.3741    1301.3855    372.55788    -776.4205    75.489293 
   91500    108.27071   -119.77171  0.097965613   -119.67374    558.43395    4.2269516    4.2269516    4.2269516    558.43395   -2149.7604   -1360.0223    5185.0846    788.56783   -683.84397   -310.25067    75.523451 
   91600    115.55242    -119.7784   0.10455426   -119.67384   -1620.8322    4.2282693    4.2282693    4.2282693   -1620.8322   -4216.1418   -3498.0914    2851.7366   -184.11241   -595.37906   -833.03874    75.594104 
   91700    70.071182   -119.73764  0.063401878   -119.67424   -1588.8351    4.2279808    4.2279808    4.2279808   -1588.8351   -3693.7096   -5215.4259    4142.6301    915.99523   -155.58804    -813.5672    75.578632 
   91800    73.563737    -119.7408  0.066562016   -119.67424   -879.29099    4.2276845    4.2276845    4.2276845   -879.29099   -6383.0939   -4285.8605    8031.0814    2405.5584   -380.50588    154.75584    75.562744 
   91900    104.53191   -119.76866  0.094582666   -119.67408   -185.06534    4.2274023    4.2274023    4.2274023   -185.06534    -3813.748   -1620.9278    4879.4798    277.21925    229.34503    548.79215     75.54761 
   92000    132.10683   -119.79311   0.11953304   -119.67358    1339.0566    4.2261757    4.2261757    4.2261757    1339.0566   -1771.6637    879.46419    4909.3693    610.27604   -1073.5109    2334.7522    75.481871 
   92100    82.427648   -119.74848  0.074582268    -119.6739    2499.4228    4.2254016    4.2254016    4.2254016    2499.4228   -1038.4907    4277.3761    4259.3829     -195.128    333.31991    113.40472      75.4404 
   92200    83.466915   -119.74968  0.075522619   -119.67416    1441.2448    4.2261314    4.2261314    4.2261314    1441.2448   -290.46165    4743.3716   -129.17563    1378.1378    868.86298     266.2835    75.479495 
   92300    94.657369   -119.75978  0.085647977   -119.67413    1657.8097    4.2261397    4.2261397    4.2261397    1657.8097    234.12448    3145.1347      1594.17    1390.1157    253.91981    13.133034    75.479941 
   92400    130.49472   -119.79178   0.11807436   -119.67371   -2281.8076    4.2273139    4.2273139    4.2273139   -2281.8076   -4739.3759   -369.02475   -1737.0222    414.76019    1022.3825   -106.19127    75.542874 
   92500    107.02814   -119.77074  0.096841309    -119.6739   -1127.0155    4.2284579    4.2284579    4.2284579   -1127.0155   -1894.3567   -281.15676    -1205.533   -177.00924    299.83813   -96.546202     75.60422 
   92600    98.142914   -119.76286  0.088801771   -119.67406   -3829.3582    4.2286598    4.2286598    4.2286598   -3829.3582   -6882.9125   -2552.7966   -2052.3655    1423.4084      993.253   -1089.8969    75.615052 
   92700    75.318448   -119.74212  0.068149714   -119.67397   -1494.6823    4.2282878    4.2282878    4.2282878   -1494.6823   -5415.6046   -1698.5642    2630.1219    2225.9101    1195.3904   -1945.5467    75.595096 
   92800    120.12231   -119.78244   0.10868919   -119.67376   -2085.9844    4.2281722    4.2281722    4.2281722   -2085.9844   -5282.3635    2287.2061   -3262.7957    282.16004    122.09724    176.74463    75.588895 
   92900    122.28649   -119.78421   0.11064739   -119.67356    334.87669    4.2267127    4.2267127    4.2267127    334.87669   -2894.7762    922.37445    2977.0318   -62.096425    500.97901   -1359.8246    75.510644 
   93000     104.8482   -119.76867  0.094868858    -119.6738    1552.9544    4.2259585    4.2259585    4.2259585    1552.9544   -1418.7637    4463.1291    1614.4977   -784.98131    113.12826   -741.46553    75.470232 
   93100    65.226197   -119.73318  0.059018034   -119.67416    1776.8744     4.226181     4.226181     4.226181    1776.8744      494.358    1865.3337    2970.9316    1586.0935    340.11107    -606.4428    75.482154 
   93200    101.16011   -119.76543  0.091531789   -119.67389    1843.9898    4.2261443    4.2261443    4.2261443    1843.9898   -2301.6309     774.8568    7058.7436   -210.49242    431.25712   -894.07745    75.480184 
   93300    117.67763   -119.78001   0.10647719   -119.67353   -236.06205     4.226987     4.226987     4.226987   -236.06205   -2240.4029   -4004.4473    5536.6641    129.78886   -687.48466    1331.4766     75.52535 
   93400    97.361893   -119.76183  0.088095087   -119.67374   -878.16634     4.228236     4.228236     4.228236   -878.16634   -3320.3076   -3441.7815    4127.5901   -752.89428   -98.860589    312.29578    75.592318 
   93500    81.866112   -119.74816  0.074074179   -119.67408   -1749.3121    4.2282798    4.2282798    4.2282798   -1749.3121   -5486.2922   -4570.1612    4808.5171    1481.0518     601.3313   -581.98558    75.594666 
   93600    74.701851   -119.74188  0.067591805   -119.67429    -1404.579    4.2280865    4.2280865    4.2280865    -1404.579   -6527.7841   -1455.3118    3769.3587    1942.2913     128.8262     1039.986    75.584302 
   93700    111.78206   -119.77505   0.10114275    -119.6739   -1011.1096    4.2282025    4.2282025    4.2282025   -1011.1096   -3634.3124    1711.3856   -1110.4019    237.63697    1491.6727   -185.68675    75.590519 
   93800    110.97127   -119.77412   0.10040914   -119.67371    304.43399     4.226675     4.226675     4.226675    304.43399   -4074.7701    3023.6301    1964.4419   -927.36294   -651.02696    965.35702    75.508627 
   93900    109.46212   -119.77296  0.099043631   -119.67392     1145.741    4.2260449    4.2260449    4.2260449     1145.741   -491.54976    4772.8104   -844.03761    528.17389    746.88502    688.47239    75.474859 
   94000    74.273791    -119.7414  0.067204487   -119.67419    1629.7029    4.2261829    4.2261829    4.2261829    1629.7029    1698.1171    3441.9596   -250.96796    1250.4516    865.37573   -1491.7152    75.482256 
   94100    104.19199   -119.76828  0.094275103   -119.67401    369.51686    4.2257023    4.2257023    4.2257023    369.51686   -3057.1152    2396.8539    1768.8119    675.98255   -407.54207     252.4485    75.456507 
   94200     125.5259   -119.78722   0.11357847   -119.67364    76.901947    4.2266866    4.2266866    4.2266866    76.901947   -1195.7553    550.69728    875.76388    711.67535   -95.338416    99.067004    75.509248 
   94300    111.42241   -119.77456   0.10081733   -119.67374   -1806.6134    4.2280288    4.2280288    4.2280288   -1806.6134   -2892.8717   -748.34184   -1778.6268   -1319.4409   -257.52486   -741.80327    75.581203 
   94400    91.922304    -119.7571  0.083173232   -119.67392   -2068.7876    4.2281111    4.2281111    4.2281111   -2068.7876    -6080.587    -1422.009    1296.2331    1632.4771   -924.26615    123.33295    75.585619 
   94500    84.376286   -119.75049  0.076345436   -119.67415   -1913.9524    4.2285734    4.2285734    4.2285734   -1913.9524   -5646.8791    1845.9209    -1940.899    721.79303    1158.8208   -1679.3166    75.610414 
   94600    120.11743   -119.78234   0.10868477   -119.67365    -2285.398    4.2287071    4.2287071    4.2287071    -2285.398    -5311.041   -1688.8924    143.73948   -696.94384   -1063.8357   -337.29248    75.617586 
   94700    95.799571    -119.7603  0.086681465   -119.67361    891.69554    4.2269923    4.2269923    4.2269923    891.69554    -2742.274     1982.952    3434.4086   -1324.3959   -223.35948    320.44206    75.525635 
   94800    112.26785   -119.77534   0.10158231   -119.67376   -114.06152    4.2267168    4.2267168    4.2267168   -114.06152    -2004.174   -1432.6575    3094.6469    120.29447    574.12022   -1495.6226    75.510865 
   94900     66.17669   -119.73395  0.059878059   -119.67408    3469.2692    4.2261566    4.2261566    4.2261566    3469.2692    2348.3527    970.01682    7089.4381    585.85147   -212.76849   -318.84245    75.480847 
   95000    107.06487   -119.77062  0.096874549   -119.67374    245.56948    4.2257499    4.2257499    4.2257499    245.56948   -3420.7941   -2106.1513    6263.6539    1506.9885    1133.9045   -130.73724    75.459057 
   95100    91.178063   -119.75633  0.082499827   -119.67383    2357.3805    4.2263052    4.2263052    4.2263052    2357.3805   -584.53233    1552.3745    6104.2993   -841.99763    290.84769   -65.269465    75.488807 
   95200    123.41175   -119.78538   0.11166555   -119.67372   -1521.8599     4.227594     4.227594     4.227594   -1521.8599   -2864.9016   -2498.9574    798.27926   -250.49897   -2.0702235    2044.9282    75.557888 
   95300    72.444084   -119.73943  0.065548929   -119.67388    -364.6237    4.2274376    4.2274376    4.2274376    -364.6237    -4955.674    1262.5495    2599.2535    2342.6563    1523.7379     -705.277    75.549505 
   95400    103.34045   -119.76735  0.093504614   -119.67385   -2656.3233    4.2286049    4.2286049    4.2286049   -2656.3233   -5540.5222    2103.4917   -4531.9394    242.59572    589.74474    457.47694    75.612105 
   95500    103.90972   -119.76775  0.094019694   -119.67373   -1876.7641    4.2287637    4.2287637    4.2287637   -1876.7641   -5280.2178    1039.4663   -1389.5408   -185.56881    719.27302    723.76626    75.620624 
   95600    115.93035   -119.77861   0.10489622   -119.67371   -1371.9216    4.2275692    4.2275692    4.2275692   -1371.9216   -3733.3109    1743.0707   -2125.5246   -1957.8034    433.94531   -113.14832    75.556559 
   95700    105.11167   -119.76896  0.095107249   -119.67385   -834.23645    4.2274721    4.2274721    4.2274721   -834.23645    -376.6186     717.5312   -2843.6219   -405.18096   -482.64248    617.09457    75.551356 
   95800    92.196457    -119.7573  0.083421292   -119.67388    1018.4655    4.2267131    4.2267131    4.2267131    1018.4655   -76.766798    1895.4945    1236.6689    948.58393    832.51055   -591.24454    75.510666 
   95900     111.4927   -119.77456   0.10088094   -119.67368    175.71788    4.2258352    4.2258352    4.2258352    175.71788   -2256.2733     1193.198     1590.229   -267.83144   -262.09892   -1534.8721    75.463627 
   96000    84.445051    -119.7503  0.076407657    -119.6739    2248.9117    4.2262533    4.2262533    4.2262533    2248.9117    532.67436    3403.0292    2811.0317    -1518.431   -1129.2451    745.56236    75.486025 
   96100    130.57965   -119.79189   0.11815122   -119.67374   -786.82008    4.2268639    4.2268639    4.2268639   -786.82008   -4143.4821   -383.36341    2166.3853     246.0694    179.16636   -1621.9349    75.518749 
   96200    66.794435   -119.73459  0.060437009   -119.67415    1670.9969    4.2265051    4.2265051    4.2265051    1670.9969   -1799.2184    2319.5389    4492.6701    757.00753    -942.2677   -852.47593    75.499518 
   96300    114.83388   -119.77785   0.10390411   -119.67394   -2829.7313    4.2282631    4.2282631    4.2282631   -2829.7313   -6830.3796   -1659.4056   0.59135422    1274.9838    685.19953   -1080.3556    75.593771 
   96400     64.64956   -119.73269  0.058496281   -119.67419    855.42846    4.2279101    4.2279101    4.2279101    855.42846   -2860.7068   -672.99052    6099.9827   -371.93191   -178.28132   -1174.3715    75.574839 
   96500    133.57381   -119.79469   0.12086039   -119.67383    -2943.143    4.2275983    4.2275983    4.2275983    -2943.143    -6191.518   -5320.5524    2682.6415   -2007.7236   -689.46716     1339.093    75.558121 
   96600    74.327525   -119.74125  0.067253107     -119.674    1228.5401    4.2277342    4.2277342    4.2277342    1228.5401     2490.653   -616.08154    1811.0487     1734.865    241.11216    835.78686    75.565405 
   96700    126.67097   -119.78834   0.11461456   -119.67372   -1855.6214     4.227152     4.227152     4.227152   -1855.6214   -3878.3801   -2988.4544    1299.9704    636.03705    389.23854   -335.95841    75.534194 
   96800    78.181955   -119.74472  0.070740676   -119.67398    2130.6502    4.2258977    4.2258977    4.2258977    2130.6502   -183.46827    4737.1422    1838.2767    745.72207   -79.035901    2032.3464    75.466974 
   96900     119.4075   -119.78164   0.10804242    -119.6736   -733.84815    4.2271381    4.2271381    4.2271381   -733.84815   -1826.3549    2250.4896   -2625.6791   -1060.5385    851.68861    577.38667     75.53345 
   97000     98.40049   -119.76266  0.089034831   -119.67363     1423.928    4.2264407    4.2264407    4.2264407     1423.928    -2556.152    5733.6933    1094.2429   -445.36583   -737.43463    1757.3049     75.49607 
   97100    122.05072   -119.78399   0.11043406   -119.67355   -997.94407    4.2267754    4.2267754    4.2267754   -997.94407   -4339.7915    4146.9904   -2801.0311    264.78002    614.90494    812.96598    75.514005 
   97200    89.552902   -119.75486  0.081029348   -119.67383   -726.00746    4.2282539    4.2282539    4.2282539   -726.00746   -4320.9747    3706.9529   -1564.0006    807.70855    296.72329    -1343.454     75.59328 
   97300    89.560908   -119.75498  0.081036592   -119.67395   -1837.9803    4.2280065    4.2280065    4.2280065   -1837.9803   -6523.7297    769.65662    240.13211   -3170.3482   -332.40863    83.520686    75.580007 
   97400    104.69101    -119.7686  0.094726626   -119.67387   -1804.9779     4.227868     4.227868     4.227868   -1804.9779   -4064.1021   -1263.2085   -87.623003   -1069.9868   -156.73777   -868.38115     75.57258 
   97500    91.766639   -119.75686  0.083032383   -119.67383   -396.90432     4.228504     4.228504     4.228504   -396.90432   -1248.9089    1111.1748   -1052.9789    125.81968   -524.19587   -1757.8311    75.606694 
   97600    102.40214   -119.76656  0.092655612    -119.6739   -251.35919    4.2271228    4.2271228    4.2271228   -251.35919   -2031.4899    380.03527    897.37703    488.37731    400.54511   -827.98297    75.532627 
   97700    65.343105   -119.73334  0.059123814   -119.67422    3301.0093    4.2260939    4.2260939    4.2260939    3301.0093   -1479.2877    6990.5147    4391.8009    241.70761    553.34838   -2363.5396    75.477484 
   97800    103.32559   -119.76765  0.093491165   -119.67416    1032.4105    4.2266488    4.2266488    4.2266488    1032.4105   -1170.1861    1572.9075    2694.5101   -2036.5733     101.9138   -307.85092    75.507223 
   97900    81.665792   -119.74808  0.073892925   -119.67419    3163.8455    4.2256247    4.2256247    4.2256247    3163.8455   -1401.4846     4176.506     6716.515   -680.15795    278.07747    424.89241    75.452349 
   98000    131.95557   -119.79307   0.11939617   -119.67367   -1450.8824     4.226452     4.226452     4.226452   -1450.8824    -4436.765    -1049.789    1133.9068    548.89686    1021.0252   -1200.1421    75.496676 
   98100     86.06283   -119.75193  0.077871457   -119.67405   -773.62724    4.2278229    4.2278229    4.2278229   -773.62724   -3403.8029   -818.84879    1901.7699   -887.77963    897.69277    650.62801    75.570164 
   98200    109.66295   -119.77313  0.099225344    -119.6739   -4175.8636    4.2279664    4.2279664    4.2279664   -4175.8636   -7276.7604   -4544.3348   -706.49574   -2849.9888     941.0557    478.69711    75.577858 
   98300    105.70157   -119.76944     0.095641    -119.6738   -2650.4488    4.2282383    4.2282383    4.2282383   -2650.4488   -3514.7419   -1199.6385   -3236.9661    -1948.111   -277.79428    1251.7639     75.59244 
   98400    141.60699   -119.80164   0.12812898   -119.67352   -3082.2941     4.228895     4.228895     4.228895   -3082.2941    -2699.511   -1293.1929   -5254.1785   -883.72838    398.24848     2037.187    75.627665 
   98500    108.40107   -119.77186  0.098083564   -119.67377    -385.2943    4.2272149    4.2272149    4.2272149    -385.2943   -1269.9582    4600.1441   -4486.0688     534.4053    135.78244   -713.66497    75.537564 
   98600    100.85359   -119.76526  0.091254444   -119.67401    677.56378    4.2270068    4.2270068    4.2270068    677.56378    -1543.918    5371.7229   -1795.1136   -1676.0888   -255.79008   -326.54093    75.526409 
   98700    89.365283   -119.75498  0.080859586   -119.67412    1570.4397    4.2267726    4.2267726    4.2267726    1570.4397   -1300.5939    4940.7141    1071.1989   -1613.9068   -313.39441   -141.61662    75.513856 
   98800    102.81409   -119.76675  0.093028353   -119.67372    1153.0768    4.2257085    4.2257085    4.2257085    1153.0768   -2818.4485    3413.4642    2864.2146   -676.21636   -900.82467   -1676.2188    75.456839 
   98900    100.24507   -119.76446  0.090703847   -119.67376    692.60936    4.2264794    4.2264794    4.2264794    692.60936   -2822.4972    2762.3139    2138.0114     221.1294   -172.69445    -625.9519    75.498145 
   99000    77.503326    -119.7442  0.070126638   -119.67408    200.16577    4.2271715    4.2271715    4.2271715    200.16577   -5597.4284    2765.0562    3432.8695    49.663681   -58.382031   -2341.9065    75.535237 
   99100    67.115834   -119.73507  0.060727817   -119.67435    115.63317    4.2266789    4.2266789    4.2266789    115.63317   -4813.5462    1004.7498    4155.6959   -3018.1332   -253.39684   -1516.0477    75.508832 
   99200     74.09294   -119.74139  0.067040849   -119.67435    710.65602    4.2278507    4.2278507    4.2278507    710.65602   -4283.0528    6686.5676   -271.54665   -773.45172   -271.49457     392.2605    75.571656 
   99300    120.39219   -119.78273   0.10893338    -119.6738   -43.024352     4.228176     4.228176     4.228176   -43.024352   -1334.8573    2430.8162   -1225.0319    432.30053   -149.90654   -1397.9039    75.589099 
   99400    92.394375   -119.75739  0.083600372   -119.67379    1787.5481    4.2268899    4.2268899    4.2268899    1787.5481   -1700.3502    8850.4133   -1787.4189    843.01667    423.08594   -234.43921    75.520143 
   99500    98.441975   -119.76306  0.089072367   -119.67399   -604.64732    4.2275005    4.2275005    4.2275005   -604.64732   -249.74871    1610.1458   -3174.3391   -1399.5071    860.56593    221.81433    75.552878 
   99600    89.047004   -119.75463    0.0805716   -119.67406     768.9681    4.2268396    4.2268396    4.2268396     768.9681   -1907.9651    3220.5684    994.30102   -1319.4299    63.542761   -47.027231    75.517447 
   99700    131.02401   -119.79225   0.11855327   -119.67369   -1864.3889    4.2258496    4.2258496    4.2258496   -1864.3889    -3077.004   -987.30723   -1528.8555   -1919.5364    323.59623    1844.8513    75.464399 
   99800    120.61885   -119.78272   0.10913847   -119.67358   -856.37872    4.2267246    4.2267246    4.2267246   -856.37872   -1831.1285    552.15341    -1290.161    1106.7663    362.31606    301.55256    75.511286 
   99900    108.46167   -119.77218  0.098138399   -119.67404   -1365.9162    4.2270996    4.2270996    4.2270996   -1365.9162   -5195.3243    1505.6423    -408.0666   -1519.3293    282.69394   -406.81754    75.531386 
  100000    93.146561   -119.75852  0.084280966   -119.67424   -819.14763    4.2266956    4.2266956    4.2266956   -819.14763   -5473.7886    703.95739    2312.3883   -2451.9067    284.76407    851.15756     75.50973 
Loop time of 221.076 on 1 procs for 100000 steps with 8 atoms

Pair  time (%) = 79.0351 (35.7503)
Kspce time (%) = 53.2059 (24.0668)
Neigh time (%) = 0 (0)
Comm  time (%) = 9.61574 (4.34952)
Outpt time (%) = 0.251046 (0.113557)
Other time (%) = 78.9678 (35.7198)

Nlocal:    8 ave 8 max 8 min
Histogram: 1 0 0 0 0 0 0 0 0 0
Nghost:    2189 ave 2189 max 2189 min
Histogram: 1 0 0 0 0 0 0 0 0 0
Neighs:    2472 ave 2472 max 2472 min
Histogram: 1 0 0 0 0 0 0 0 0 0

Total # of neighbors = 2472
Ave neighs/atom = 309
Neighbor list builds = 0
Dangerous builds = 0
unfix 20
unfix 21
print "seeds:8450351"
seeds:8450351
