LAMMPS (10 Feb 2015)
# ---- initialize simulations
clear
units metal
dimension 3
boundary p p p
atom_style charge
atom_modify map array
# ---- create atoms
read_data /Users/eugeneragasa/pyflamestk_git/pypospack/tests/tests_integration/workflow/WorkflowLammpsThermalExpansion/param_2217/MgO_NaCl_unit.npt.T600/lammps.structure
  triclinic box = (0 0 0) to (4.2565 4.2565 4.2565) with tilt (0 0 0)
  1 by 1 by 1 MPI processor grid
  reading atoms ...
  8 atoms
# ---- define interatomic potential
include potential.mod
mass 1 24.305
mass 2 15.999

group Mg type 1
4 atoms in group Mg
group O type 2
4 atoms in group O

set group Mg charge 1.63539617609
  4 settings made for charge
set group O charge -1.63539617609
  4 settings made for charge

variable R_cut equal 10.0

pair_style buck/coul/long ${R_cut}
pair_style buck/coul/long 10
pair_coeff 1 1 0.0 0.5 0.0 ${R_cut}
pair_coeff 1 1 0.0 0.5 0.0 10
pair_coeff 1 2 1445.86118726 0.28350177361 0.0 ${R_cut}
pair_coeff 1 2 1445.86118726 0.28350177361 0.0 10
pair_coeff 2 2 14001.7361193 0.0970682303871 13.3227844282 ${R_cut}
pair_coeff 2 2 14001.7361193 0.0970682303871 13.3227844282 10

kspace_style pppm 1.0e-5

neighbor 1.0 bin
neigh_modify every 1 delay 0 check yes
# ---- define settings
compute eng all pe/atom
compute eatoms all reduce sum c_eng
# ---- run minimization
reset_timestep 0
fix 1 all box/relax iso 0.0 vmax 0.001
thermo 10
thermo_style custom step pe lx ly lz xy xz yz press pxx pyy pzz pxy pxz pyz c_eatoms
min_style cg
minimize 1e-25 1e-25 5000 10000
PPPM initialization ...
  G vector (1/distance) = 0.35265
  grid = 8 8 8
  stencil order = 5
  estimated absolute RMS force accuracy = 3.8734e-05
  estimated relative force accuracy = 2.68993e-06
  using double precision FFTs
  3d grid and FFT values/proc = 3375 512
Neighbor list info ...
  1 neighbor list requests
  update every 1 steps, delay 0 steps, check yes
  master list distance cutoff = 11
Memory usage per processor = 4.06549 Mbytes
Step PotEng Lx Ly Lz Xy Xz Yz Press Pxx Pyy Pzz Pxy Pxz Pyz eatoms 
       0   -107.83625       4.2565       4.2565       4.2565            0            0            0    103722.55    103722.55    103722.55    103722.55 -7.9651797e-11 -6.6040977e-11 3.4954802e-10   -107.83625 
      10   -107.94585     4.299065     4.299065     4.299065            0            0            0    48505.206    48505.206    48505.206    48505.206 -1.814552e-10 -8.0829294e-11 -4.0355362e-11   -107.94585 
      20   -107.98099     4.341612     4.341612     4.341612            0            0            0  -0.16598057  -0.16598057  -0.16598058  -0.16598057 -1.539671e-10 -9.8603927e-12 -7.0562295e-11   -107.98099 
      24     -107.981    4.3416118    4.3416118    4.3416118            0            0            0 -0.022137581 -0.022137581 -0.022137581 -0.022137581 -7.2866315e-11 -1.1353573e-10 -3.1341588e-11     -107.981 
Loop time of 0.0151889 on 1 procs for 24 steps with 8 atoms

Minimization stats:
  Stopping criterion = linesearch alpha is zero
  Energy initial, next-to-last, final = 
        -107.836253395     -107.981002151     -107.981002151
  Force two-norm initial, final = 14.9776 3.56003e-06
  Force max component initial, final = 14.9776 3.3258e-06
  Final line search alpha, max atom move = 0.5 1.6629e-06
  Iterations, force evaluations = 24 36

Pair  time (%) = 0.00337076 (22.1922)
Kspce time (%) = 0.00452614 (29.7989)
Neigh time (%) = 0 (0)
Comm  time (%) = 0.000486374 (3.20216)
Outpt time (%) = 2.88486e-05 (0.189932)
Other time (%) = 0.00677681 (44.6168)

Nlocal:    8 ave 8 max 8 min
Histogram: 1 0 0 0 0 0 0 0 0 0
Nghost:    2189 ave 2189 max 2189 min
Histogram: 1 0 0 0 0 0 0 0 0 0
Neighs:    2344 ave 2344 max 2344 min
Histogram: 1 0 0 0 0 0 0 0 0 0

Total # of neighbors = 2344
Ave neighs/atom = 293
Neighbor list builds = 0
Dangerous builds = 0
unfix 1
# ---- define output variables ----
variable natoms equal "count(all)"
variable tot_energy equal "c_eatoms"
variable length_x equal "lx"
variable length_y equal "ly"
variable length_z equal "lz"
variable tilt_xy equal "xy"
variable tilt_xz equal "xz"
variable tilt_yz equal "yz"
variable tot_press equal "press"
variable press_xx equal "pxx"
variable press_yy equal "pyy"
variable press_zz equal "pzz"
variable press_xy equal "pxy"
variable press_xz equal "pxz"
variable press_yz equal "pyz"

# ---- output ----
print "pypospack:output_section:begin"
pypospack:output_section:begin
print "tot_energy = ${tot_energy}"
tot_energy = -107.981002151143
print "num_atoms = ${natoms}"
num_atoms = 8
print "xx = ${length_x}"
xx = 4.34161184326772
print "yy = ${length_y}"
yy = 4.34161184326772
print "zz = ${length_z}"
zz = 4.34161184326772
print "xy = ${tilt_xy}"
xy = 0
print "xz = ${tilt_xz}"
xz = 0
print "yz = ${tilt_yz}"
yz = 0
print "tot_press = ${tot_press}"
tot_press = -0.0221375810241508
print "pxx = ${press_xx}"
pxx = -0.0221375810918532
print "pyy = ${press_yy}"
pyy = -0.0221375807194137
print "pzz = ${press_zz}"
pzz = -0.0221375812611855
print "pxy = ${press_xy}"
pxy = -7.28663154154814e-11
print "pxz = ${press_xz}"
pxz = -1.13535727889352e-10
print "pyz = ${press_yz}"
pyz = -3.13415884666446e-11
print "pypospack:output_section:done"
pypospack:output_section:done
print "pypospack:lammps_sim:done"
pypospack:lammps_sim:done
#------------------------------------------------------------------------------
# RUN THERMOSTAT
# running using an NPT Nose-Hoover style thermostat
#------------------------------------------------------------------------------
variable tempdamp equal 0.1
variable pressdamp equal 1.0
# set initial velocities
velocity all create 600 8602210 mom yes dist gaussian loop all
# fix for Nose-Hoover style thermostat
fix 20 all npt temp 600 600 0.1 aniso 0.0 0.0 1.0 drag 1.0 couple xyz
variable boxx equal lx
variable boxy equal ly
variable boxz equal lz
variable boxp equal press
variable boxt equal temp
# calculate averages every 10000 steps
reset_timestep 0
fix 21 all ave/time 10 10 100 v_boxx v_boxy v_boxz v_boxp v_boxt file lattice.out
thermo_style custom step temp pe ke etotal press lx ly lz press pxx pyy pzz pxy pxz pyz vol
thermo_modify flush yes
thermo 100
run 100000
PPPM initialization ...
  G vector (1/distance) = 0.3518
  grid = 8 8 8
  stencil order = 5
  estimated absolute RMS force accuracy = 4.02804e-05
  estimated relative force accuracy = 2.79732e-06
  using double precision FFTs
  3d grid and FFT values/proc = 3375 512
Memory usage per processor = 3.06549 Mbytes
Step Temp PotEng KinEng TotEng Press Lx Ly Lz Press Pxx Pyy Pzz Pxy Pxz Pyz Volume 
       0          600   -107.98101   0.54289261   -107.43812    7083.6177    4.3416118    4.3416118    4.3416118    7083.6177     8412.387    8441.1175    4397.3485   -5853.1449    1821.6408   -609.86768    81.837618 
     100    120.17279   -107.47211   0.10873486   -107.36338    44.904251    4.3609914    4.3609914    4.3609914    44.904251   -2970.1674   -564.96546    3669.8456    10547.512    1278.8087    2920.7133    82.938406 
     200    470.70207   -107.64048   0.42590113   -107.21458   -8419.6516    4.3591781    4.3591781    4.3591781   -8419.6516    -14884.77   -6193.6844   -4180.5006    5584.2802    881.61312   -2377.3286    82.834995 
     300    513.30376   -107.55324   0.46444803   -107.08879    14149.946    4.3531368    4.3531368    4.3531368    14149.946    7367.7365    28006.469    7075.6311   -3688.7094   -81.943255    1235.1696    82.491073 
     400    381.21415   -107.33646   0.34493057   -106.99153   -11536.782     4.372464     4.372464     4.372464   -11536.782   -15085.201   -15693.271   -3831.8754    23539.697    1882.0838    3573.1158    83.594699 
     500    902.02517   -107.73273   0.81617133   -106.91656    1502.3041    4.3603313    4.3603313    4.3603313    1502.3041   -5356.2329    7013.3433    2849.8019    780.73174   -3141.9589   -5247.1452    82.900753 
     600    407.30117   -107.26062   0.36853466   -106.89208    6330.2406    4.3625776    4.3625776    4.3625776    6330.2406    8101.4963    13718.223   -2828.9975    13215.239   -154.80482    5930.9973    83.028942 
     700     484.7332   -107.32332   0.43859678   -106.88472   -11812.708    4.3725974    4.3725974    4.3725974   -11812.708   -19009.203   -25251.134    8822.2128    15424.137    806.55235   -252.28296     83.60235 
     800    856.70354   -107.65428   0.77516336   -106.87912     16538.55    4.3561521    4.3561521    4.3561521     16538.55    22837.537    31541.601   -4763.4884   -2077.9505   -8565.5036   -1478.8035    82.662607 
     900    420.14664   -107.27163   0.38015751   -106.89147   -10799.743    4.3728835    4.3728835    4.3728835   -10799.743   -9919.3993   -23447.348    967.51687    18968.368    2503.5544    5506.6818    83.618762 
    1000    718.64086   -107.53666   0.65024135   -106.88641   -509.72798    4.3611221    4.3611221    4.3611221   -509.72798   -13676.131    5453.7219    6693.2257   -3619.8643   -5481.0228   -2628.0916    82.945865 
    1100    555.17249   -107.39258   0.50233174   -106.89024       5035.3    4.3611128    4.3611128    4.3611128       5035.3    12103.886    7349.4187   -4347.4047    10251.546    157.13363    3396.3538    82.945333 
    1200    526.33013   -107.36862   0.47623456   -106.89239   -18565.172    4.3764324    4.3764324    4.3764324   -18565.172   -22145.026   -27415.343   -6135.1481    10629.241   -3018.8184   -810.98211    83.822515 
    1300    812.80742   -107.61764   0.73544523   -106.88219    25049.373    4.3488016    4.3488016    4.3488016    25049.373    27601.936    30096.192     17449.99   -6315.2284   -2304.2088   -299.29997    82.244863 
    1400    425.29975   -107.27719   0.38482015   -106.89237    -23796.78    4.3787598    4.3787598    4.3787598    -23796.78   -21067.236   -33391.261   -16931.841    26679.333     2837.498    382.78117    83.956315 
    1500    611.62579   -107.44095   0.55341187   -106.88754    6920.6183    4.3580761    4.3580761    4.3580761    6920.6183   -1878.4435    7177.5129    15462.785    650.94414   -3791.0072    -3314.523    82.772187 
    1600    656.01209   -107.48278   0.59357353    -106.8892    10035.223    4.3583773    4.3583773    4.3583773    10035.223    30089.191    -1961.593    1978.0701    9460.6562    1845.3374   -1866.0487     82.78935 
    1700    555.27435   -107.39142    0.5024239     -106.889   -26797.077    4.3801702    4.3801702    4.3801702   -26797.077   -34031.215    -26841.45   -19518.566    23644.723    3673.8429    2217.1038    84.037468 
    1800    712.24466   -107.52401   0.64445394   -106.87955    25571.997    4.3452928    4.3452928    4.3452928    25571.997    29752.062    25957.388    21006.542   -8037.8772   -1427.7947   -5744.2044    82.045945 
    1900    410.07317    -107.2629   0.37104282   -106.89186    -22015.05     4.377152     4.377152     4.377152    -22015.05   -26127.771    -31487.01   -8430.3683    25507.307   -289.13893    3137.2043    83.863868 
    2000    681.70981   -107.50432   0.61682537   -106.88749   -2594.9223    4.3605792    4.3605792    4.3605792   -2594.9223    4826.1909   -4320.3727   -8290.5851    8008.0928    6482.8893   -3579.4211    82.914889 
    2100     661.8668   -107.48477   0.59887099    -106.8859    14196.766     4.357997     4.357997     4.357997    14196.766    21482.508    2001.6546    19106.135    -370.5196   -5387.0484   -744.46111    82.767682 
    2200    456.49221   -107.30231   0.41304375   -106.88927   -21739.052    4.3758367    4.3758367    4.3758367   -21739.052   -31765.071   -27102.548   -6349.5382    23044.756    5674.3483   -82.540539    83.788288 
    2300    713.84125   -107.52804   0.64589857   -106.88214    17825.775    4.3502646    4.3502646    4.3502646    17825.775    21154.308    9470.6428    22852.374   -6846.4568   -2549.1137   -4295.6209    82.327898 
    2400    491.92699   -107.33476   0.44510588   -106.88965   -13402.995    4.3742596    4.3742596    4.3742596   -13402.995   -18548.029   -18604.889   -3056.0672    20289.413   -2097.5813    4071.4455    83.697726 
    2500    686.59544   -107.50907   0.62124598   -106.88782   -2007.5933     4.357756     4.357756     4.357756   -2007.5933    531.40282    -12162.19     5608.007    8327.7437    4168.9174   -5846.0444     82.75395 
    2600    609.10303   -107.43884   0.55112922   -106.88771     6154.492     4.365004     4.365004     4.365004     6154.492    6090.6091     4517.557    7855.3098    1125.9602    -10365.06    2464.0687    83.167557 
    2700    414.07356    -107.2645   0.37466246   -106.88984   -12693.256    4.3697498    4.3697498    4.3697498   -12693.256   -20284.013   -23522.809    5727.0555     24108.49    4100.8038    1541.8227    83.439122 
    2800    825.18612   -107.62755   0.74664574   -106.88091     11686.95    4.3509983    4.3509983    4.3509983     11686.95    22886.759    5476.3677    6697.7223   -3093.7112   -6458.5358    154.24672     82.36956 
    2900    431.41207   -107.27702   0.39035071   -106.88667     -5632.38    4.3789053    4.3789053    4.3789053     -5632.38   -14979.659   -14411.449    12493.968    13237.132    -5119.785    1490.6832    83.964685 
    3000    681.73367   -107.50134   0.61684695   -106.88449    2580.2716    4.3528127    4.3528127    4.3528127    2580.2716     2781.871   -7941.8378    12900.782    12832.519    2694.3659    1694.3456    82.472647 
    3100    536.77452   -107.37571   0.48568487   -106.89002     13721.65    4.3620952    4.3620952    4.3620952     13721.65    6173.5458    10947.455    24043.951   -1358.0459   -3131.2324    2130.7179    83.001399 
    3200    553.31334   -107.38909   0.50064953   -106.88844   -20436.002    4.3772489    4.3772489    4.3772489   -20436.002   -22477.382   -32839.339   -5991.2833    16684.325    508.92007   -1399.1959    83.869439 
    3300    680.74551   -107.49653   0.61595284   -106.88058    19997.411    4.3387138    4.3387138    4.3387138    19997.411    19581.686    20557.604    19852.942   -1735.0843     2104.952    1004.3581    81.673846 
    3400    512.65783   -107.35672   0.46386358   -106.89286   -16375.122    4.3809097    4.3809097    4.3809097   -16375.122   -29479.292   -13791.709   -5854.3643    6741.1501   -2622.5595   -3346.0886    84.080036 
    3500    642.58438   -107.47379   0.58142386   -106.89236   -3794.2401    4.3605217    4.3605217    4.3605217   -3794.2401   -6782.0437   -19148.356     14547.68    10809.571    2528.8757   -1523.1844    82.911613 
    3600    655.31952   -107.47515   0.59294688    -106.8822    27801.269    4.3424694    4.3424694    4.3424694    27801.269    27659.865    34129.331     21614.61   -3578.5919    5481.1534   -2817.5481    81.886121 
    3700    498.33946    -107.3311   0.45090802   -106.88019   -22913.486    4.3878766    4.3878766    4.3878766   -22913.486   -21124.578   -41777.928   -5837.9515    13439.033   -4853.5513     2241.956     84.48181 
    3800    717.34182   -107.53089   0.64906595   -106.88182    17081.933    4.3391919    4.3391919    4.3391919    17081.933    11169.015    17861.432    22215.352    3035.4359     10230.97   -3795.9623    81.700851 
    3900     494.0762   -107.34468   0.44705053   -106.89763    2993.6305    4.3639822    4.3639822    4.3639822    2993.6305   -3307.5619    5774.0556    6514.3977    1389.3629   -6467.6033   -171.59812    83.109163 
    4000    776.04385   -107.58849   0.70218078   -106.88631   -25890.679    4.3763138    4.3763138    4.3763138   -25890.679    -25350.61   -38971.518   -13349.909    16438.436    1854.3322   -844.26272    83.815696 
    4100    503.63097   -107.33081   0.45569589   -106.87512    37510.236    4.3319708    4.3319708    4.3319708    37510.236    34192.936    47866.386    30471.385   -1998.9178    3931.6641    1326.2224    81.293638 
    4200    583.26371   -107.41361   0.52774926   -106.88586   -22920.923    4.3814075    4.3814075    4.3814075   -22920.923   -24047.418   -29826.676   -14888.676    6563.2758   -2958.2217   -1124.0773    84.108705 
    4300    658.25006   -107.48476   0.59559849   -106.88916    3208.4838    4.3557231    4.3557231    4.3557231    3208.4838    -135.3178   -6882.6105     16643.38    7388.4822    6900.8624   -738.80668    82.638189 
    4400    614.16022   -107.44163   0.55570507   -106.88592    23259.995    4.3447144    4.3447144    4.3447144    23259.995     25822.72    34695.923     9261.343   -2803.0997    2061.8093    1063.4444    82.013186 
    4500    702.68703   -107.51521   0.63580599    -106.8794   -25730.429    4.3821862    4.3821862    4.3821862   -25730.429   -26210.152   -41392.095   -9589.0398    3687.9645    1414.5346   -3080.9012    84.153558 
    4600    447.41295   -107.28832   0.40482864   -106.88349    17956.767    4.3423105    4.3423105    4.3423105    17956.767    5461.0501    38025.683    10383.569    1589.6968    9772.1822    2839.3927    81.877132 
    4700    665.14813   -107.49318      0.60184   -106.89134   -2326.4342    4.3613946    4.3613946    4.3613946   -2326.4342   -6641.6904   -3744.5961    3406.9838    404.05249    1327.5678   -5573.7599    82.961411 
    4800    705.95315   -107.52438   0.63876124   -106.88562   -19421.542     4.372472     4.372472     4.372472   -19421.542   -21919.793   -21940.803   -14404.032    -1472.683    8250.2473   -723.12129    83.595158 
    4900    505.57269   -107.33809    0.4574528   -106.88064    22527.263    4.3418715    4.3418715    4.3418715    22527.263    20728.139    39842.412    7011.2386     2065.578    14169.657    1736.2454      81.8523 
    5000    758.51173   -107.57121   0.68631735   -106.88489   -14283.602     4.368537     4.368537     4.368537   -14283.602    -14050.12    -23006.42   -5794.2667   -158.13354   -4036.7282   -850.02604    83.369666 
    5100    337.08763   -107.19634   0.30500397   -106.89134    1973.5809    4.3623037    4.3623037    4.3623037    1973.5809   -17350.891    13540.649    9730.9853   -163.69464    17012.209    2665.8699      83.0133 
    5200    886.68926   -107.68697   0.80229508   -106.88467    7493.0868    4.3509401    4.3509401    4.3509401    7493.0868    13719.998    9053.5018   -294.23927    2335.6149    6437.7186    2747.2849    82.366254 
    5300    581.09275   -107.41474   0.52578493   -106.88896   -3104.0834    4.3646859    4.3646859    4.3646859   -3104.0834   -15819.208   -9476.9111    15983.869    3210.9502   -610.85771   -1217.9575    83.149375 
    5400    344.54599   -107.20194   0.31175245   -106.89019   -1799.7353    4.3633738    4.3633738    4.3633738   -1799.7353   -17454.346    22032.764    -9977.624   -432.54749    20911.253    3216.6693     83.07441 
    5500    912.48004   -107.70811   0.82563112   -106.88248    5826.7726    4.3513528    4.3513528    4.3513528    5826.7726    3696.3447    14.951938    13769.021    1940.3361   -6830.2233    942.17387    82.389693 
    5600    375.79537   -107.23331   0.34002755   -106.89328   -312.83301    4.3636881    4.3636881    4.3636881   -312.83301   -14880.927    7243.8748    6698.5533    1497.1167    13541.292      1027.42    83.092363 
    5700    740.02892   -107.55693   0.66959372   -106.88734   -4210.2108    4.3647345    4.3647345    4.3647345   -4210.2108    -4386.018    4141.1101   -12385.725   -1728.1136    7443.4846     1200.028    83.152154 
    5800    644.92999   -107.47002   0.58354621   -106.88647    15624.528     4.345391     4.345391     4.345391    15624.528    7567.9669    7989.1167      31316.5   -1798.8069   -905.90855   -2412.7885    82.051509 
    5900    272.62032   -107.14192   0.24667259   -106.89525    -12098.23      4.37305      4.37305      4.37305    -12098.23   -34601.896    8712.0486   -10404.842    392.81345    18009.656    2347.8145    83.628309 
    6000    1037.6139   -107.82421   0.93885482   -106.88536    4064.1791    4.3537785    4.3537785    4.3537785    4064.1791    11054.668    77.537632    1060.3316   -2256.3359   -4513.8244   -4134.6075     82.52756 
    6100    403.42381   -107.25847   0.36502634   -106.89344    12945.321    4.3489446    4.3489446    4.3489446    12945.321   -7002.9712    23471.075    22367.859   -2799.4147    12937.974   -173.48618    82.252978 
    6200    484.46958   -107.32741   0.43835826   -106.88905   -24648.378    4.3782274    4.3782274    4.3782274   -24648.378   -33625.759   -8282.7761   -32036.597    4481.3543    7762.6448   -1497.8834    83.925697 
    6300    788.75648   -107.59501   0.71368344   -106.88132    21028.287    4.3401904    4.3401904    4.3401904    21028.287    20400.322    19629.545    23054.996   -6926.9917   -2914.8516   -1092.2367    81.757261 
    6400    409.36485   -107.26383   0.37040191   -106.89343   -6399.6601    4.3650359    4.3650359    4.3650359   -6399.6601   -17533.171     7483.221   -9149.0299   -698.17744    19920.915    184.90205    83.169382 
    6500    830.53045   -107.63603   0.75148141   -106.88455   -7321.1911    4.3651857    4.3651857    4.3651857   -7321.1911     4033.278   -9084.0238   -16912.828    1981.2097   -5333.7916    2327.2582    83.177945 
    6600    489.99525   -107.32791     0.443358   -106.88455    20488.245    4.3413397    4.3413397    4.3413397    20488.245    11342.316    23970.528    26151.892   -2480.8013    6629.7174   -354.46001    81.822231 
    6700    476.05661   -107.32057   0.43074602   -106.88982   -19875.296    4.3746693    4.3746693    4.3746693   -19875.296   -27532.336   -7214.0851   -24879.467    4964.8478     15641.41    2777.6046    83.721248 
    6800    918.09727   -107.71592    0.8307137    -106.8852    9298.6956    4.3505617    4.3505617    4.3505617    9298.6956    19992.946    3353.5397     4549.601    229.15585   -15378.349     2499.806    82.344763 
    6900    441.74532   -107.29127   0.39970045   -106.89157    10924.179    4.3518543    4.3518543    4.3518543    10924.179    3647.0373     26802.59    2322.9086    1157.8756    20265.065    188.08542    82.418185 
    7000    593.19701   -107.42403   0.53673712   -106.88729   -13277.967     4.371754     4.371754     4.371754   -13277.967    -8200.356   -7875.4545   -23758.091    1417.1841   -212.63559    1236.2395    83.553981 
    7100    584.51999   -107.41503   0.52888597   -106.88614    19018.505    4.3466525    4.3466525    4.3466525    19018.505     27165.12    21649.042    8241.3528    -140.5957   -7666.9149    1683.4654    82.122994 
    7200    599.89813   -107.43454   0.54280044   -106.89173    2055.4721    4.3591373    4.3591373    4.3591373    2055.4721    3050.3982    11961.994    -8845.976    2462.9158    23708.064    1285.5954    82.832668 
    7300     727.8177   -107.54606   0.65854475   -106.88752   -3404.1863    4.3648645    4.3648645    4.3648645   -3404.1863    8465.8283   -7495.8538   -11182.533   -3802.3693   -16670.881    -933.2744    83.159581 
    7400    515.16151   -107.35271   0.46612896   -106.88658    10974.786    4.3475322    4.3475322    4.3475322    10974.786    2176.9407     20194.32    10553.098    2586.4112    9259.2733    1345.6503    82.172865 
    7500      553.053   -107.39113   0.50041398   -106.89071   -5199.7772    4.3658113    4.3658113    4.3658113   -5199.7772   -7837.9039    3137.6449   -10899.073   -367.28466    7174.8263   -1011.6164    83.213709 
    7600     717.8417   -107.54003   0.64951826   -106.89051    2902.2059    4.3582939    4.3582939    4.3582939    2902.2059    13101.794   -2997.4437   -1397.7321    10.851161   -17594.522   -1172.1302    82.784599 
    7700    670.30835   -107.49595   0.60650908   -106.88944     17290.67    4.3476377    4.3476377    4.3476377     17290.67    13553.826    27480.611    10837.574    3000.4013    19523.219   -2640.0326    82.178848 
    7800    491.34333   -107.33278   0.44457777    -106.8882    -10559.45    4.3710613    4.3710613    4.3710613    -10559.45   -6293.8281   -7363.5347   -18020.987    4806.7662   -14742.364   -421.62555    83.514273 
    7900     558.0512    -107.3919   0.50493646   -106.88697    14055.798    4.3464118    4.3464118    4.3464118    14055.798   -2394.6249    27775.359    16786.661   -1813.4246   -382.72196    1188.2322    82.109349 
    8000    715.40882   -107.53915   0.64731693   -106.89184    2779.5653    4.3585424    4.3585424    4.3585424    2779.5653    3632.0995    12819.464   -8112.8681    1805.5629    11489.458   -2323.5962    82.798758 
    8100    571.57695   -107.40841   0.51717484   -106.89124   -10873.802    4.3658843    4.3658843    4.3658843   -10873.802   -15396.507   -13662.385   -3562.5134    5547.4318   -20812.677    4143.4405    83.217882 
    8200    592.98545   -107.42062    0.5365457   -106.88407    22160.589    4.3408645    4.3408645    4.3408645    22160.589    5680.4652    38029.233     22772.07    -2741.555     17250.88   -2045.3385    81.795362 
    8300     556.5212   -107.39082   0.50355208   -106.88726   -17421.251    4.3727525    4.3727525    4.3727525   -17421.251   -18755.745   -18134.939   -15373.068    7209.8899   -7641.2951    528.04384    83.611246 
    8400    641.72115   -107.47095   0.58064278   -106.89031    9565.0923    4.3484551    4.3484551    4.3484551    9565.0923    848.18981     9910.185    17936.902    3659.5214   -9725.8816    3413.2762    82.225207 
    8500    771.14614   -107.58753   0.69774923   -106.88978    11827.187    4.3527992    4.3527992    4.3527992    11827.187    11956.248    18859.742    4665.5698   -3672.1013     14112.33   -2788.6208    82.471883 
    8600    445.28235   -107.29211   0.40290082   -106.88921   -18738.666    4.3707857    4.3707857    4.3707857   -18738.666   -28851.216   -14639.129   -12725.652    6185.6119   -18446.349   -1020.0158    83.498472 
    8700    532.61516   -107.36409   0.48192139   -106.88217    23934.461      4.33986      4.33986      4.33986    23934.461    6265.8713    35179.768    30357.742   -2198.8339    1687.3052    5113.2097    81.738593 
    8800    749.27615   -107.56542   0.67796081   -106.88746   -13689.895    4.3675262    4.3675262    4.3675262   -13689.895    -12240.53   -11805.578   -17023.576    879.02862    632.23399   -6777.8794    83.311808 
    8900    526.08093    -107.3674   0.47600908   -106.89139    2822.7581    4.3536993    4.3536993    4.3536993    2822.7581   -10335.541   -4376.7759    23180.591    6019.8422   -15444.454    2534.5271    82.523053 
    9000    695.34578   -107.51572   0.62916348   -106.88656    6714.8106    4.3528168    4.3528168    4.3528168    6714.8106   -411.83107    10220.799    10335.464   -3011.5022     4928.261    1817.6053     82.47288 
    9100    492.52524   -107.33465   0.44564718     -106.889   -15308.638    4.3653195    4.3653195    4.3653195   -15308.638   -26155.655   -13843.275   -5926.9829    7850.6386   -7282.4132    -7634.145    83.185591 
    9200    570.35475   -107.40355   0.51606897   -106.88748     17767.43    4.3467927    4.3467927    4.3467927     17767.43     11300.63     15659.89    26341.769   -3386.8114   -7110.9896     6826.276    82.130941 
    9300    810.22087   -107.61984   0.73310487   -106.88673   -10801.289    4.3657159    4.3657159    4.3657159   -10801.289   -8366.1457    -7536.763   -16500.957    640.74027    4541.8459   -4640.8195    83.208256 
    9400    404.94841   -107.25762   0.36640584   -106.89122    2500.2754    4.3497402    4.3497402    4.3497402    2500.2754   -9182.1437    3602.0661    13080.904    10116.976   -10657.303    -1960.296     82.29813 
    9500    610.88874   -107.44269   0.55274497   -106.88995   -733.13361    4.3597817    4.3597817    4.3597817   -733.13361   -4514.9993   -3327.2726     5642.871   -6524.5039    3263.0545    2301.2582    82.869408 
    9600    712.86233   -107.53431   0.64501282    -106.8893   -10999.143    4.3602217    4.3602217    4.3602217   -10999.143   -9646.2783   -10446.253   -12904.898    10051.827   -4631.8826    -6808.307    82.894501 
    9700    556.11308    -107.3922    0.5031828   -106.88902    14137.352    4.3439313    4.3439313    4.3439313    14137.352    4296.9755    9426.1393    28688.941    6697.0363   -7963.7394    1048.7314    81.968852 
    9800    646.13557   -107.46982   0.58463704   -106.88519   -14030.481    4.3729898    4.3729898    4.3729898   -14030.481   -19963.745   -14685.167    -7442.533   -8467.0283    3918.5876   -2987.4387     83.62486 
    9900    473.08682    -107.3173    0.4280589   -106.88924    6586.1736    4.3435309    4.3435309    4.3435309    6586.1736    340.10886    6852.0452    12566.367    10948.412   -13302.784   -6867.6986    81.946185 
   10000    621.01794   -107.45414   0.56191008   -106.89223    5336.2241    4.3560834    4.3560834    4.3560834    5336.2241    3886.6882   -2692.6481    14814.632   -2183.2675   -192.03289    3405.2742    82.658699 
   10100    704.28911   -107.52274   0.63725558   -106.88548   -14128.712    4.3693692    4.3693692    4.3693692   -14128.712   -10474.124   -15823.662   -16088.349   -5509.0724   -7315.1226   -9289.7586     83.41732 
   10200    461.90039    -107.3008   0.41793718   -106.88287    18428.186    4.3345177    4.3345177    4.3345177    18428.186    7329.7239    12956.392    34998.442    8470.1832   -13041.939   -312.78892     81.43711 
   10300    649.44093   -107.47165    0.5876278   -106.88402   -14361.975    4.3721292    4.3721292    4.3721292   -14361.975   -23162.461   -14633.784   -5289.6798   -6812.4981    1248.6755    2128.5373    83.575494 
   10400    555.65089   -107.39129   0.50276461   -106.88852    4521.2795    4.3511968    4.3511968    4.3511968    4521.2795     1390.047    4458.2814    7715.5101    1048.9243       -14583   -11554.735    82.380831 
   10500    688.04969   -107.51039   0.62256182   -106.88783    8962.2559    4.3447314    4.3447314    4.3447314    8962.2559   -1232.6465    5046.2944     23073.12    591.85099   -8038.6885    7196.4419    82.014153 
   10600    618.81783   -107.44343   0.55991938   -106.88351   -8904.2982    4.3715891    4.3715891    4.3715891   -8904.2982   -16876.037   -12078.132    2241.2751   -7076.4369   -2057.7677   -7129.7087    83.544525 
   10700    423.79393   -107.27068   0.38345766   -106.88722    7619.5702    4.3436933    4.3436933    4.3436933    7619.5702     -3525.35    5596.3258    20787.735    7919.0374   -14942.704    -2830.935    81.955377 
   10800    726.56363   -107.54578   0.65741004   -106.88837   -1997.4707    4.3571698    4.3571698    4.3571698   -1997.4707   -6303.8207   -7875.7169    8187.1254   -5376.8647   -1760.1012    1324.7695    82.720557 
   10900    664.95208   -107.48943   0.60166261   -106.88777    2976.8764     4.359577     4.359577     4.359577    2976.8764   -1273.2595    1007.7824    9196.1062   -271.04529   -5212.5982   -10304.258    82.857733 
   11000    472.65673   -107.31702   0.42766974   -106.88935   -2963.3344     4.352314     4.352314     4.352314   -2963.3344   -20128.332   -2167.8514     13406.18    11927.509   -9755.5985    1876.8318    82.444308 
   11100    671.00511   -107.49383   0.60713953   -106.88669    2224.2152    4.3548878    4.3548878    4.3548878    2224.2152   -8470.8136   -1658.9592    16802.418   -9095.3956     6201.272   -5072.0825    82.590653 
   11200    491.40173   -107.33672   0.44463061   -106.89209    396.32203    4.3583237    4.3583237    4.3583237    396.32203   -12964.766    7074.0639    7079.6684    6823.7625   -14557.347   -5806.1355    82.786295 
   11300    719.94579   -107.54189   0.65142208   -106.89047   -10521.129    4.3564972    4.3564972    4.3564972   -10521.129   -15384.882   -15005.847   -1172.6576    6455.5192    2881.7799    919.16374    82.682258 
   11400    624.83052   -107.45277   0.56535978   -106.88741    15303.863    4.3473607    4.3473607    4.3473607    15303.863    5008.8126      12293.4    28609.377   -5199.3706    -4880.735   -3041.6442    82.163139 
   11500    399.66088   -107.25249   0.36162156   -106.89087   -25173.773    4.3692648    4.3692648    4.3692648   -25173.773   -40588.475   -12258.715    -22674.13    10960.536   -16061.335    -3552.478     83.41134 
   11600    725.41194   -107.54415   0.65636797   -106.88778    11080.013    4.3418504    4.3418504    4.3418504    11080.013    8875.0122    312.39322    24052.633    1164.1297    8388.5399    8049.0797    81.851107 
   11700    693.30091   -107.52084   0.62731323   -106.89352   -1595.2266    4.3572701    4.3572701    4.3572701   -1595.2266   -5940.5366    10396.423    -9241.566    1085.3446   -18016.633   -1704.2818    82.726272 
   11800    454.30828   -107.30239   0.41106768   -106.89132   -24156.555     4.366352     4.366352     4.366352   -24156.555   -37510.679   -21164.083   -13794.903    8603.7155   -4956.7296    2458.4302    83.244632 
   11900    636.87386   -107.45633   0.57625686   -106.88007    21620.288     4.331743     4.331743     4.331743    21620.288    15296.477    20990.681    28573.706   -5137.5626    -1068.803    9563.4949    81.280813 
   12000    543.89225   -107.38063   0.49212514    -106.8885   -26680.447    4.3736982    4.3736982    4.3736982   -26680.447   -39766.014   -11378.252   -28897.074    6171.2022    -14950.16   -4701.5312    83.665502 
   12100    683.35518   -107.50972   0.61831412   -106.89141   -1629.6652     4.347143     4.347143     4.347143   -1629.6652   -2379.9573    -10766.52    8257.4819    3983.9657     655.2615    8594.8843    82.150795 
   12200    647.75351   -107.47377   0.58610099   -106.88767    9878.7511    4.3437562    4.3437562    4.3437562    9878.7511    6137.1854    17338.393    6160.6753   -3173.6327   -5179.6344    3112.1112    81.958938 
   12300    421.89481    -107.2667   0.38173929   -106.88496   -28521.072    4.3730946    4.3730946    4.3730946   -28521.072   -42961.439   -23217.124   -19384.653    12850.969   -8134.3122   -1416.9264     83.63087 
   12400    676.34581   -107.49357    0.6119719    -106.8816     17531.82    4.3347259    4.3347259    4.3347259     17531.82    19884.314    11588.306     21122.84   -1296.5668    4212.2575    10922.231    81.448843 
   12500    680.13949   -107.50322   0.61540451   -106.88782   -12242.821    4.3625718    4.3625718    4.3625718   -12242.821   -12148.813   -2452.2438   -22127.405    3080.3007   -11943.527    1582.0307    83.028609 
   12600    564.79061   -107.40077   0.51103441   -106.88974   -11884.265    4.3555257    4.3555257    4.3555257   -11884.265   -22391.772   -12887.492   -373.53098    12212.245   -564.20794    1386.7295    82.626952 
   12700    491.34318   -107.33047   0.44457764   -106.88589    8696.2473    4.3449639    4.3449639    4.3449639    8696.2473    2948.4163    10707.983    12432.343   -2593.8912   -5185.2007    12320.502    82.027316 
   12800    642.62925   -107.46841   0.58146445   -106.88694   -17624.121     4.362602     4.362602     4.362602   -17624.121   -31132.691   -10698.095   -11041.578     9215.294   -11695.514   -3016.3209    83.030331 
   12900    630.56594   -107.45821   0.57054932   -106.88766     8874.558    4.3477522    4.3477522    4.3477522     8874.558     7051.603    380.84066     19191.23    6452.3421    5969.3452    8361.7909    82.185339 
   13000    633.53932   -107.46009   0.57323969   -106.88685   -8651.1661     4.358332     4.358332     4.358332   -8651.1661   -3533.3197   -2726.1047   -19694.074   -434.21215   -16574.922    11838.501     82.78677 
   13100    499.51816   -107.34098   0.45197453     -106.889   -13.316585    4.3495112    4.3495112    4.3495112   -13.316585   -16860.774    1871.3474    14949.477    9042.7884   -386.25562   -4853.6741    82.285128 
   13200    629.86493   -107.45845   0.56991502   -106.88854   -3872.6937    4.3574248    4.3574248    4.3574248   -3872.6937    1748.4343   -6923.1478   -6443.3676    3996.4886   -1727.0108    17802.198     82.73508 
   13300    668.96203   -107.49474    0.6052909   -106.88945   -3052.0465    4.3522629    4.3522629    4.3522629   -3052.0465   -7389.8336    5377.7718   -7144.0775   -299.92859   -13773.006    45.236628    82.441399 
   13400    571.74848   -107.40737   0.51733004   -106.89004    1883.5083    4.3484695    4.3484695    4.3484695    1883.5083   -5564.4383   -2679.8988    13894.862    11120.454    4127.4343    4223.7993    82.226025 
   13500    549.15363   -107.38496   0.49688574   -106.88808    -8647.359     4.363611     4.363611     4.363611    -8647.359    -6596.956   -7862.0673   -11483.054   -1767.1553   -4145.2131    12208.171    83.087955 
   13600    578.15496   -107.41105   0.52312676   -106.88792    5859.8124    4.3426324    4.3426324    4.3426324    5859.8124    -7955.522    6142.6132    19392.346    7186.9913    -8048.093    -4298.978    81.895341 
   13700    670.51723   -107.49595   0.60669808   -106.88925   -3266.1248    4.3585214    4.3585214    4.3585214   -3266.1248    7456.2717   -12860.313   -4394.3332    7274.1146    5793.2998    12615.258    82.797563 
   13800    664.30396   -107.48941   0.60107618   -106.88833   -4544.7062    4.3561275    4.3561275    4.3561275   -4544.7062   -2746.5918   -1430.3491   -9457.1776   -3064.4009   -7157.9469    2204.3251     82.66121 
   13900    459.13466   -107.30482   0.41543469   -106.88939    3743.8463    4.3446943    4.3446943    4.3446943    3743.8463   -8331.3352    1852.8728    17710.001    14160.727   -4814.7875    1246.9509    82.012052 
   14000    678.84851   -107.50085    0.6142364   -106.88661   -5920.5522    4.3615316    4.3615316    4.3615316   -5920.5522   -3188.5342    -9636.797   -4936.3254   -1308.0057    5447.0792    7564.4337    82.969233 
   14100    568.59369   -107.40344   0.51447552   -106.88896     2961.493    4.3491956    4.3491956    4.3491956     2961.493   -12754.326    7507.8176    14130.988    4960.9318   -14704.783   -646.57287    82.267221 
   14200    624.22614   -107.45332   0.56481293    -106.8885    24.096496    4.3538171    4.3538171    4.3538171    24.096496     6282.809   -10225.831    4015.3112    10461.574    4199.6235    726.48275    82.529755 
   14300    637.02327   -107.46279   0.57639204    -106.8864    2034.9395    4.3537587    4.3537587    4.3537587    2034.9395   -4461.0755    1164.2392    9401.6548   -4177.1517   -8787.9285    5858.3319    82.526431 
   14400    417.65972   -107.26974   0.37790729   -106.89183   -2938.5181    4.3533158    4.3533158    4.3533158   -2938.5181   -14627.457   -3885.3719    9697.2749    8300.5298   -8679.5362   -1895.6869    82.501248 
   14500    833.16848   -107.63988   0.75386835   -106.88601    2549.3254    4.3549763    4.3549763    4.3549763    2549.3254     12673.65   -8397.6523    3371.9786    3399.8001    2316.8713    581.26394    82.595689 
   14600    544.20404   -107.38275   0.49240725   -106.89035    4371.5579     4.348512     4.348512     4.348512    4371.5579    -3549.209    7822.7614    8841.1213   -5664.2197   -14791.407    5564.2321    82.228434 
   14700    507.90222    -107.3498    0.4595606   -106.89024   -9356.5269    4.3604931    4.3604931    4.3604931   -9356.5269   -11523.272   -12589.021   -3957.2871    8742.0499    1489.9232   -6224.4344    82.909978 
   14800     694.3015   -107.51449   0.62821859   -106.88627    10092.986    4.3467746    4.3467746    4.3467746    10092.986    5923.2169    9150.5683    15205.172   -2533.1616   -5320.8206    3239.7892    82.129915 
   14900    468.63455   -107.31827   0.42403039   -106.89424   -6643.0288    4.3542721    4.3542721    4.3542721   -6643.0288   -16640.114    2492.4834   -5781.4555   -3337.9442   -9651.1368   -558.85718    82.555629 
   15000    807.38303   -107.61862   0.73053713   -106.88808   -371.69223    4.3572441    4.3572441    4.3572441   -371.69223    12960.819   -9476.5052   -4599.3908    8546.6662    5824.9612   -3386.4252     82.72479 
   15100     542.2059   -107.37974   0.49059929   -106.88914    7751.4839    4.3447535    4.3447535    4.3447535    7751.4839   -1873.8623     13989.59    11138.724   -8139.5954   -10730.151    2731.1427    82.015405 
   15200    400.57251   -107.25419   0.36244643   -106.89175   -13883.321    4.3626682    4.3626682    4.3626682   -13883.321   -17616.407   -11754.953   -12278.603     3859.122   -4289.7604   -1980.7523    83.034114 
   15300    832.55762   -107.63911   0.75331563   -106.88579    12688.271    4.3452622    4.3452622    4.3452622    12688.271    18277.521    5892.5035    13894.789     2232.621    5425.5217   -1960.4154    82.044216 
   15400     493.5612   -107.34025   0.44658454   -106.89367   -5794.8566    4.3546834    4.3546834    4.3546834   -5794.8566   -14759.006    3486.4959   -6112.0604    -6449.767   -13436.598    964.23065    82.579024 
   15500    646.33242   -107.47314   0.58481516   -106.88833   -5496.9148    4.3579824    4.3579824    4.3579824   -5496.9148    1364.6893   -10323.263   -7532.1708    8373.3313    3668.9741    -3824.501    82.766845 
   15600    560.05537   -107.39355   0.50674987    -106.8868    9878.4611    4.3427745    4.3427745    4.3427745    9878.4611   -1918.4565    16667.455    14886.385   -6047.3207   -4232.9869   -5947.0298    81.903384 
   15700    467.13268   -107.31444   0.42267146   -106.89177   -16705.636    4.3629596    4.3629596    4.3629596   -16705.636   -23769.637   -10149.692   -16197.579   -3331.1127   -8468.6659    3695.8101    83.050752 
   15800    836.48813   -107.64289   0.75687204   -106.88602    14596.732    4.3457439    4.3457439    4.3457439    14596.732    26146.274    6724.6449    10919.279    3635.4681    4401.7011   -11686.373    82.071505 
   15900    529.36272   -107.37106   0.47897851   -106.89209   -6286.7397    4.3526078    4.3526078    4.3526078   -6286.7397   -17105.209    897.35525   -2652.3653   -12668.379   -8724.8123    103.17475    82.461004 
   16000    450.60666   -107.29787   0.40771838   -106.89016   -7449.2772    4.3592361    4.3592361    4.3592361   -7449.2772   -11343.655   -6777.7361   -4226.4409   -1502.6648     923.7856   -3297.2217    82.838301 
   16100    705.28464   -107.52389   0.63815637   -106.88573    7080.6498    4.3451726    4.3451726    4.3451726    7080.6498    6121.7097    9077.4789    6042.7608   -1689.4663    -3626.882   -14078.012    82.039137 
   16200     526.1426   -107.36722   0.47606488   -106.89116   -12935.133    4.3591214    4.3591214    4.3591214   -12935.133   -25897.567   -2208.0709    -10699.76   -14322.159   -5623.8433    3784.2814     82.83176 
   16300    804.33022   -107.61356   0.72777488   -106.88578    8498.3793    4.3480613    4.3480613    4.3480613    8498.3793    21354.235    5331.3729   -1190.4706    1539.8913   -142.13123   -15312.388    82.202871 
   16400    474.43955   -107.31954   0.42928287   -106.89026   -7661.2426    4.3552027    4.3552027    4.3552027   -7661.2426   -23374.686    1916.7756   -1525.8171   -6367.2828   -6263.2498   -2525.0642    82.608571 
   16500     465.9399   -107.31273   0.42159221   -106.89114   -4831.7637    4.3531897    4.3531897    4.3531897   -4831.7637   -13130.384    2674.6441   -4039.5514   -7632.2236   -2681.4058   -1748.0117    82.494081 
   16600    768.14756   -107.58203   0.69503606     -106.887    7804.6375    4.3501455    4.3501455    4.3501455    7804.6375     20435.32    594.01102    2384.5817    2500.5066    655.79988   -11082.116    82.321134 
   16700    584.33837   -107.41944   0.52872163   -106.89072   -13932.782    4.3573086    4.3573086    4.3573086   -13932.782    -25343.59   -5052.9065    -11401.85   -8271.6978   -9018.3051    3121.8767    82.728465 
   16800    557.67172   -107.39251   0.50459309   -106.88792    9154.2532     4.346304     4.346304     4.346304    9154.2532     13049.87    12407.048     2005.842    837.34745    1638.7913   -4577.6335    82.103242 
   16900    595.19385   -107.42697    0.5385439   -106.88843   -11459.545    4.3584878    4.3584878    4.3584878   -11459.545   -17263.606   -10420.537   -6694.4928   -1214.4317   -2539.6618   -6453.5841    82.795645 
   17000    520.52505   -107.36292     0.470982   -106.89194   -1373.1862     4.349504     4.349504     4.349504   -1373.1862   -12972.355    10381.277   -1528.4808   -6719.1625   -6199.4875    2588.2447    82.284721 
   17100     790.9801   -107.60326   0.71569541   -106.88756    8455.5857    4.3509987    4.3509987    4.3509987    8455.5857    20036.081    2784.7441    2545.9316    4251.1245    4083.3528    -6582.597    82.369579 
   17200    534.21507   -107.37329   0.48336903   -106.88993   -13504.963    4.3589059    4.3589059    4.3589059   -13504.963   -27513.395   -8078.1455   -4923.3497   -5077.9693   -2923.4579   -4839.1975    82.819474 
   17300    448.81798   -107.29511   0.40609994   -106.88901    11026.763     4.343909     4.343909     4.343909    11026.763    7784.1208     16642.21    8653.9584   -4885.0779   -1081.3335    2620.0158    81.967586 
   17400     709.8666   -107.52995   0.64230222   -106.88765   -6823.0422    4.3591128    4.3591128    4.3591128   -6823.0422    950.71105   -15807.169   -5612.6683    6210.6405    947.31303   -12877.562    82.831268 
   17500    618.11685   -107.44973   0.55928512   -106.89044   -2318.9903    4.3510112    4.3510112    4.3510112   -2318.9903   -8626.3887    2146.2457   -476.82796    -6302.138   -1619.3385    1199.6476     82.37029 
   17600    650.82762   -107.47577   0.58888251   -106.88689    9042.3378    4.3500316    4.3500316    4.3500316    9042.3378    14666.521     10601.89    1858.6017    924.62868    -2989.164   -3806.8329     82.31467 
   17700    533.87019   -107.37149   0.48305696   -106.88844    -9145.394    4.3573799    4.3573799    4.3573799    -9145.394   -17592.331   -11352.825    1508.9736    8269.7216   -46.036534   -9570.5976    82.732523 
   17800    541.43376   -107.37898   0.48990065   -106.88908    10893.183     4.346893     4.346893     4.346893    10893.183    5286.7782     16670.88    10721.891   -7687.2934   -4870.5096    5064.6715    82.136627 
   17900    725.99875   -107.54451   0.65689892   -106.88762    1118.2816    4.3568117    4.3568117    4.3568117    1118.2816    13382.507   -10202.969    175.30722     8381.248    22.243221   -4210.0634    82.700166 
   18000    580.63655   -107.41512   0.52537215   -106.88975    1546.8209    4.3500732    4.3500732    4.3500732    1546.8209   -5401.5883     2528.534     7513.517     5390.113   -4730.9722    62.392329    82.317031 
   18100    549.39542   -107.38571   0.49710452   -106.88861     7205.386     4.352001     4.352001     4.352001     7205.386    9657.8256    10417.928    1540.4043   -4374.2021   -3539.9667    4521.1776    82.426518 
   18200    578.69457   -107.41276   0.52361501   -106.88914   -6351.8539    4.3560525    4.3560525    4.3560525   -6351.8539    -4373.052   -15351.237    668.72685    14184.017    2257.6919     255.8197    82.656937 
   18300    645.24288   -107.47305   0.58382932   -106.88922    10260.268    4.3469199    4.3469199    4.3469199    10260.268    12042.405    12871.938    5866.4605   -916.09212   -7423.5285    878.07366    82.138149 
   18400    675.08435   -107.49924    0.6108305   -106.88841    476.52693    4.3567275    4.3567275    4.3567275    476.52693    10586.389   -3634.0088   -5522.7999    3040.8296    3041.7791    8658.5089    82.695372 
   18500    535.46714   -107.37394   0.48450192   -106.88944    600.53299    4.3515721    4.3515721    4.3515721    600.53299   -6906.5332   -864.55915    9572.6914    13372.267   -75.117246   -2422.4156     82.40215 
   18600    577.19141   -107.41079   0.52225491   -106.88854    10197.998    4.3500314    4.3500314    4.3500314    10197.998    12147.416    13231.617    5214.9603   -6061.7259   -2777.6986    6931.5573    82.314658 
   18700    596.75444   -107.42947   0.53995595   -106.88952   -2180.6325    4.3563034    4.3563034    4.3563034   -2180.6325    8979.0805   -19773.876    4252.8976    14148.725    1606.1967     8562.607    82.671224 
   18800    671.96169   -107.49678   0.60800506   -106.88877    8124.5058    4.3493114    4.3493114    4.3493114    8124.5058    11640.975    3914.6348    8817.9071    5104.0083    460.35331   -5753.8823    82.273789 
   18900    593.95075   -107.42573   0.53741912   -106.88832    1402.2121    4.3535803    4.3535803    4.3535803    1402.2121    4983.7728   -567.43104   -209.70563    340.03138   -2085.3855    13325.402     82.51629 
   19000    485.48967   -107.32988   0.43928126    -106.8906   -1355.6351    4.3529155    4.3529155    4.3529155   -1355.6351    250.41543   -14023.674     9706.353    18803.171    2249.3771   -2031.0866    82.478489 
   19100    711.93238   -107.53147   0.64417138    -106.8873    5797.9978    4.3526283    4.3526283    4.3526283    5797.9978    6250.5188     6582.999    4560.4756   -4340.8134    1271.6955    704.45317    82.462168 
   19200    600.01822   -107.43261    0.5429091    -106.8897     3642.227     4.351802     4.351802     4.351802     3642.227    16030.092   -8767.1529    3663.7424     12963.16   -1688.5574    11663.789    82.415212 
   19300    638.23576   -107.46616   0.57748913   -106.88867    5897.2781    4.3540674    4.3540674    4.3540674    5897.2781    6146.8464   -655.31064    12200.298    12795.257   -1076.4205   -4854.5115    82.543986 
   19400    589.00274   -107.42093   0.53294206   -106.88798    6208.8708     4.351303     4.351303     4.351303    6208.8708     1685.767    6259.3716    10681.474   -5136.4693   -3730.1788    8316.3001    82.386864 
   19500    429.40562   -107.28085   0.38853523   -106.89232   -326.40734    4.3526715    4.3526715    4.3526715   -326.40734    6808.6399   -19260.944    11473.082    21618.331   -1576.5194    6183.8442    82.464623 
   19600    809.99778   -107.61952   0.73290301   -106.88662    6286.9778    4.3550176    4.3550176    4.3550176    6286.9778    2222.1388    3103.5077    13535.287   -561.34725   -5922.8386    934.48581    82.598039 
   19700    570.12451     -107.407   0.51586064   -106.89114     4712.283    4.3481004    4.3481004    4.3481004     4712.283    7457.8296   -1571.5942    8250.6137    4660.9367    993.26849    9498.0927    82.205086 
   19800    491.83807   -107.33693   0.44502542    -106.8919   -2600.4484    4.3571273    4.3571273    4.3571273   -2600.4484   -4489.3181   -11350.779    8038.7521    19474.031   -697.28729    4765.8697     82.71814 
   19900    717.71861   -107.53645   0.64940688   -106.88704    11368.694    4.3506224    4.3506224    4.3506224    11368.694    4361.8083    10880.934     18863.34   -8319.2938   -1265.1798   -262.80228    82.348213 
   20000    460.27297   -107.30984   0.41646466   -106.89338   -2277.4432    4.3513211    4.3513211    4.3513211   -2277.4432    2973.5189   -12855.073     3049.224    22520.191    2396.5296     12195.38    82.387893 
   20100    782.06821   -107.59658   0.70763176   -106.88895    5558.6492    4.3565276    4.3565276    4.3565276    5558.6492    390.86552    762.01127    15523.071    3152.3772    513.15168   -949.88368    82.683986 
   20200    607.63595   -107.44068   0.54980178   -106.89088    2454.5462    4.3488027    4.3488027    4.3488027    2454.5462   -8124.2066    8225.3286    7262.5167    5781.5619    1172.4102    5824.6497    82.244925 
   20300    320.55225   -107.18465   0.29004242   -106.89461   -6379.9359    4.3546871    4.3546871    4.3546871   -6379.9359   -12088.112    -18105.83    11054.134    23599.499    81.358928    12324.755    82.579237 
   20400    840.52881   -107.64621   0.76052813   -106.88569    8113.8255    4.3535177    4.3535177    4.3535177    8113.8255    8320.3186    3645.6198    12375.538   -7918.8866    246.78573   -7169.8515     82.51273 
   20500    515.22792   -107.36017   0.46618905   -106.89398   -8091.1103    4.3511781    4.3511781    4.3511781   -8091.1103   -12991.177   -10591.803   -690.35099    24325.342   -3016.7159     12083.39    82.379769 
   20600    617.76564   -107.45181   0.55896733   -106.89284    5025.6548    4.3527031    4.3527031    4.3527031    5025.6548    4688.2427   -2289.2857    12678.007     8279.232   -623.96527    1358.9357    82.466419 
   20700    717.18464   -107.53758   0.64892373   -106.88866   -2440.5006    4.3555589    4.3555589    4.3555589   -2440.5006   -10691.315    3135.6703    234.14247     1323.194   -2376.3178   -3436.6367    82.628842 
   20800    298.88751   -107.16552    0.2704397   -106.89508   -5704.0891    4.3499812    4.3499812    4.3499812   -5704.0891   -11565.245   -12199.197    6652.1745    27011.829   -1534.0631    11910.621     82.31181 
   20900    862.69512    -107.6682   0.78058467   -106.88761    7200.6863    4.3530583    4.3530583    4.3530583    7200.6863    12419.911    5667.4752    3514.6732   -4735.4413   -2909.8651   -1206.9316    82.486609 
   21000    541.42404   -107.38325   0.48989185   -106.89336   -9757.2898    4.3560794    4.3560794    4.3560794   -9757.2898   -23438.327   -9154.0145    3320.4722    18565.502    1284.5087    726.04828    82.658472 
   21100    457.56685   -107.30649    0.4140161   -106.89248    964.32764    4.3484868    4.3484868    4.3484868    964.32764   -1455.6592   -6908.1596    11256.802    11261.254   -4211.2937    13493.076    82.227003 
   21200    785.31407   -107.59726   0.71056867   -106.88669    1636.5376    4.3562308    4.3562308    4.3562308    1636.5376     3828.544   -3331.9734    4413.0423   -2231.7469   -63.921771   -3215.7845     82.66709 
   21300    399.14921   -107.25574   0.36115859   -106.89458   -7910.5926     4.352204     4.352204     4.352204   -7910.5926   -12983.739   -12502.267    1754.2278    24071.091    1926.2474    5537.3561    82.438052 
   21400    722.96523   -107.54446   0.65415414   -106.89031    6357.3689    4.3503141    4.3503141    4.3503141    6357.3689    17276.884     5415.199   -3619.9763   -6828.8042   -3881.2497    12898.295    82.330707 
   21500    678.20552   -107.50375   0.61365461   -106.89009   -5393.4756    4.3558756    4.3558756    4.3558756   -5393.4756   -17619.463   -2943.6918    4382.7281    15251.817    4818.3945   -5643.9112    82.646871 
   21600    376.70883   -107.23445   0.34085407   -106.89359   -5524.4051    4.3506759    4.3506759    4.3506759   -5524.4051   -3104.3182   -14728.622    1259.7244    15933.032   -1389.6771    14550.332    82.351252 
   21700    780.99127   -107.59404   0.70665731   -106.88738    2433.7605    4.3536524    4.3536524    4.3536524    2433.7605    11623.542    1323.4338   -5645.6941    -9697.126    804.30494    159.05219    82.520388 
   21800    513.81143   -107.35672   0.46490738   -106.89181   -7910.7329    4.3539018    4.3539018    4.3539018   -7910.7329    -13118.21   -15797.997    5184.0086    29964.001   -550.42581     2210.702    82.534568 
   21900    563.48606   -107.40105   0.50985403   -106.89119    1088.9101    4.3520213    4.3520213    4.3520213    1088.9101    14339.195   -5703.1745     -5369.29   -1373.5206    1281.6769    13445.166     82.42767 
   22000    721.32314   -107.54024   0.65266834   -106.88757    3212.4353    4.3523363    4.3523363    4.3523363    3212.4353   -229.31111   -3537.0334     13403.65    6149.9664   -2381.4218   -5417.9983    82.445573 
   22100    442.48734   -107.29318   0.40037185   -106.89281   -8784.5527    4.3538888    4.3538888    4.3538888   -8784.5527   -786.51979    -19224.92   -6342.2183    24265.608   -1449.2789    13618.758    82.533828 
   22200    678.98916   -107.50242   0.61436366   -106.88806    1924.8494    4.3537288    4.3537288    4.3537288    1924.8494    18531.808    4161.8177   -16919.078    -9436.318    504.94454    7243.9258    82.524733 
   22300    644.99542   -107.47295   0.58360541   -106.88935   -3489.9883    4.3495685    4.3495685    4.3495685   -3489.9883   -12273.308   -8958.3724    10761.716    20043.149   -1723.6361   -1736.7838    82.288382 
   22400    514.74443   -107.35766   0.46575158   -106.89191   -9264.9512    4.3589706    4.3589706    4.3589706   -9264.9512    6301.6331   -18848.337    -15248.15     7232.259     1108.992    18288.953    82.823166 
   22500    719.41905   -107.53827   0.65094548   -106.88732       6025.8    4.3475374    4.3475374    4.3475374       6025.8    9656.1126    4738.7364     3682.551   -956.66935   -2536.3535    767.61215    82.173156 
   22600    473.54632   -107.32175   0.42847466   -106.89327    -4284.065    4.3520501    4.3520501    4.3520501    -4284.065    2279.3448   -19678.824    4547.2845    20805.166    2951.1241    5116.8425    82.429311 
   22700    642.92129   -107.47039   0.58172869   -106.88866   -5807.3134    4.3608434    4.3608434    4.3608434   -5807.3134    9033.9295   -3406.9002    -23048.97   -4294.2608   -4379.7022    16929.288    82.929962 
   22800    666.79522   -107.49064   0.60333032   -106.88731    9356.8595    4.3413812    4.3413812    4.3413812    9356.8595    2990.0621   -1832.7439     26913.26     13925.38    2410.6484   -6484.9999    81.824578 
   22900    478.73049   -107.32546   0.43316541    -106.8923   -10467.857    4.3608457    4.3608457    4.3608457   -10467.857    1058.3901    -21883.26     -10578.7    13056.318   -511.77363    13515.174    82.930094 
   23000    705.42896   -107.52627   0.63828695   -106.88799    321.48351    4.3517264    4.3517264    4.3517264    321.48351    12934.534    807.92729   -12778.011   -4991.8941   -760.90292    7680.2307     82.41092 
   23100    473.90312   -107.31993    0.4287975   -106.89113    -316.6235    4.3452347    4.3452347    4.3452347    -316.6235    1287.4268   -13394.524    11157.226    24864.969    1199.8528   -3014.7111    82.042657 
   23200    623.61405   -107.45209    0.5642591   -106.88783   -11733.759    4.3645187    4.3645187    4.3645187   -11733.759    625.50572   -14509.599   -21317.184   -2643.6738   -2326.7786    17671.391    83.139821 
   23300    706.79874   -107.52619   0.63952635   -106.88666    7065.7246    4.3418562    4.3418562    4.3418562    7065.7246    10003.344   -4976.7535    16170.583    9254.4494    2899.7513   -5255.6396    81.851436 
   23400    442.77102   -107.29381   0.40062853   -106.89318   -6673.3752     4.355601     4.355601     4.355601   -6673.3752   -104.75227   -17535.968   -2379.4056    18383.651   -4631.6141      9777.62    82.631237 
   23500    742.99968   -107.55874   0.67228173   -106.88646   -3196.7393    4.3574114    4.3574114    4.3574114   -3196.7393    14422.557   -3743.6213   -20269.154   -9630.8795    2755.9604    9103.3396    82.734317 
   23600    488.25833   -107.33116   0.44178639   -106.88938    2711.8077    4.3426827    4.3426827    4.3426827    2711.8077    1052.6561   -8978.0077    16060.775    21897.585   -1079.2267   -5662.4026    81.898189 
   23700    631.05454   -107.46085   0.57099141   -106.88986   -10245.982     4.360914     4.360914     4.360914   -10245.982    590.57311   -21782.165   -9546.3547    981.43234    1782.3158    14130.112    82.933989 
   23800    741.59306   -107.55892   0.67100899   -106.88791   -3927.6871    4.3506966    4.3506966    4.3506966   -3927.6871    4758.0174    -10551.58    -5989.499     4985.036    1786.2201   -3443.6242    82.352423 
   23900    330.68776   -107.19322   0.29921323   -106.89401   -3585.6855    4.3470156    4.3470156    4.3470156   -3585.6855   -842.15661   -14189.271    4274.3711    18765.566    159.06141   -2012.0425    82.143573 
   24000     831.4657   -107.63944   0.75232764   -106.88711   -7056.8909    4.3600029    4.3600029    4.3600029   -7056.8909    144.85447   -8000.2407   -13315.286   -3881.2912    4186.9489    7144.6517    82.882021 
   24100    440.83966   -107.29272   0.39888099   -106.89384   -1685.2125    4.3504544    4.3504544    4.3504544   -1685.2125   -1488.5932   -16978.495    13411.451    18681.665   -3037.2528   -10524.784    82.338672 
   24200    586.25885   -107.42341   0.53045932   -106.89295    520.57201     4.346685     4.346685     4.346685    520.57201    1925.5975   -11733.564    11369.682    6477.2348    5451.0136    1083.4981    82.124834 
   24300    821.71172   -107.63117   0.74350203   -106.88767   -5561.3237    4.3609978    4.3609978    4.3609978   -5561.3237    5511.6143   -10725.849   -11469.736      2392.73   -152.02224    2920.4178    82.938775 
   24400    275.23885     -107.146   0.24904189   -106.89696   -8085.8294    4.3476987    4.3476987    4.3476987   -8085.8294   -10181.275   -17986.492    3910.2786    21880.485   -478.34179   -10935.248    82.182305 
   24500    791.98338   -107.60781   0.71660321    -106.8912    486.83957    4.3487879    4.3487879    4.3487879    486.83957    1363.4346   -3513.8463    3610.9305    -9843.211    798.48742    5682.6864    82.244088 
   24600     618.1819   -107.45033   0.55934397   -106.89099   -14681.297     4.362697     4.362697     4.362697   -14681.297   -6731.9716   -25334.922   -11976.997    17052.123   -595.59668   -5168.6309    83.035755 
   24700    425.98411   -107.27914   0.38543938    -106.8937    2901.5829    4.3407675    4.3407675    4.3407675    2901.5829     4251.178   -7426.2752    11879.846    7580.0187   -1575.0213   -5765.3135    81.789878 
   24800     914.9424   -107.71626   0.82785911    -106.8884   -68.568925    4.3566664    4.3566664    4.3566664   -68.568925    10422.362   -1318.7708   -9309.2977   -10812.372   -3214.1443    3391.3345    82.691893 
   24900    275.72279   -107.14662   0.24947978   -106.89714   -7747.8099    4.3566684    4.3566684    4.3566684   -7747.8099   -9444.9541    -17838.61     4040.134    26781.115    2271.9224   -8378.3655    82.692005 
   25000    664.50363   -107.49098   0.60125685   -106.88972    7033.2979    4.3415301    4.3415301    4.3415301    7033.2979    8516.5183   -3569.8593    16153.235   -10225.388   -3738.0374    -62.35974    81.832994 
   25100     764.9723   -107.57916   0.69216301     -106.887   -6935.6052    4.3619895    4.3619895    4.3619895   -6935.6052    -1987.439   -12638.089   -6181.2873    8522.3494    3046.8886   -1531.2336    82.995369 
   25200    386.60502   -107.24459   0.34980835   -106.89478    -1491.614     4.347466     4.347466     4.347466    -1491.614   -719.39998   -10809.754    7054.3119     19678.08    747.03558   -7190.7593    82.169112 
   25300    804.07962   -107.61384   0.72754814    -106.8863    3501.2998    4.3506189    4.3506189    4.3506189    3501.2998    8538.3214    3359.9477   -1394.3697   -10265.293    2166.9345    415.55413    82.348013 
   25400    378.83438   -107.23539   0.34277731   -106.89262   -3490.7184    4.3567826    4.3567826    4.3567826   -3490.7184    4054.5374   -12638.683   -1888.0095    21538.374    2761.5914   -2189.5316    82.698508 
   25500    611.41736   -107.44396   0.55322328   -106.89073    6649.8295    4.3475504    4.3475504    4.3475504    6649.8295     15005.87   -1510.8597    6454.4782    6418.3819   -27.434298   -8487.5885    82.173894 
   25600    859.38322   -107.66463     0.777588   -106.88704    2630.1199    4.3546859    4.3546859    4.3546859    2630.1199    12876.958    3396.4964   -8383.0949   -2537.3096    2838.0316    4678.2093     82.57917 
   25700    360.58478   -107.22087   0.32626468    -106.8946   -790.10333    4.3497055    4.3497055    4.3497055   -790.10333   -1753.1726   -2528.7871    1911.6498    21291.482   -1903.0858   -6380.8055    82.296157 
   25800    704.36368   -107.52566   0.63732306   -106.88833   -1841.4031    4.3565172    4.3565172    4.3565172   -1841.4031    8842.1381   -4451.6836   -9914.6637   -8268.9574    1375.2537   -5567.7121    82.683396 
   25900    585.65154   -107.42203   0.52990982   -106.89212   -903.08331     4.347455     4.347455     4.347455   -903.08331   -1651.0171   -2083.8392    1025.6064    12142.657   -2473.3384    5992.8388    82.168486 
   26000    481.11006   -107.33171   0.43531849   -106.89639    3616.9596    4.3531078    4.3531078    4.3531078    3616.9596    17907.788    486.04452   -7542.9535    13289.219    2029.8886   -12634.707    82.489421 
   26100    963.20169   -107.75977   0.87152513   -106.88825   -57.622127    4.3552102    4.3552102    4.3552102   -57.622127    3258.8609     6487.953   -9919.6803   -8082.2902   -2055.8355    56.238077    82.609002 
   26200    236.37617   -107.10979   0.21387813   -106.89591    12140.423    4.3429888    4.3429888    4.3429888    12140.423    13995.672    13419.532    9006.0656    27174.566   -371.16975    131.71354    81.915507 
   26300    647.48844   -107.47704   0.58586115   -106.89118   -13150.147    4.3649111    4.3649111    4.3649111   -13150.147     1908.867   -20733.771   -20625.537   -3812.7834    1682.5287   -11474.992    83.162246 
   26400    770.14284   -107.58552   0.69684143   -106.88867    12627.602    4.3417713    4.3417713    4.3417713    12627.602    10264.499    15812.846     11805.46    11281.387   -3836.1391    5420.1097    81.846638 
   26500    407.95074   -107.26653    0.3691224    -106.8974   -1860.3321    4.3513603    4.3513603    4.3513603   -1860.3321    10103.411    -9855.789   -5828.6187    21788.796    397.64962    -5098.826    82.390123 
   26600    816.89207   -107.62612   0.73914111   -106.88698   -9644.8848    4.3619975    4.3619975    4.3619975   -9644.8848   -7211.0699    -7623.603   -14099.981   -7547.9344   -1796.3376   -6277.8593    82.995822 
   26700    356.82129   -107.21346    0.3228594    -106.8906    20383.236    4.3359404    4.3359404    4.3359404    20383.236    29461.901    12010.513    19677.294    21379.053   -2890.6064    5569.9614    81.517324 
   26800    605.74261   -107.43958   0.54808865   -106.89149   -17783.155    4.3654458    4.3654458    4.3654458   -17783.155   -199.48816   -26484.733   -26665.243    6264.3981   -529.17841   -12822.533    83.192812 
   26900     882.5936   -107.68582   0.79858924   -106.88723    13851.674    4.3440443    4.3440443    4.3440443    13851.674    20466.041    14392.306    6696.6745   -3669.4137    -3450.807    689.85369    81.975245 
   27000    408.22343   -107.26503   0.36936914   -106.89566   -3191.5441    4.3486498    4.3486498    4.3486498   -3191.5441    2426.8451   -11676.155   -325.32264    21352.129    -2663.815   -4250.2526    82.236253 
   27100    659.38947   -107.48458   0.59662945   -106.88795   -14741.055    4.3619633    4.3619633    4.3619633   -14741.055   -2434.8798   -22259.084   -19529.201   -2872.9066    355.37182   -12237.874    82.993868 
   27200    561.76009   -107.39568   0.50829233   -106.88739    11942.239    4.3398206    4.3398206    4.3398206    11942.239    12960.148    5593.9495    17272.619    4402.0336   -5447.8867    5820.3279    81.736365 
   27300    567.54061   -107.40399   0.51352267   -106.89047     -13386.2     4.360102     4.360102     4.360102     -13386.2    671.86496   -23669.903   -17160.562    17882.774   -385.16785   -11162.899    82.887672 
   27400    837.23094   -107.64333   0.75754415   -106.88579    7744.8669     4.347219     4.347219     4.347219    7744.8669    15165.252    4839.2929    3230.0559   -11742.831   -1787.0616   -3820.7505    82.155105 
   27500    337.50825   -107.19869   0.30538456    -106.8933   -555.65018    4.3508455    4.3508455    4.3508455   -555.65018    1595.3801   -13429.999    10167.669    16491.893   -3750.7559    1961.5546     82.36088 
   27600    653.29143   -107.48171   0.59111182    -106.8906   -7191.6192    4.3558683    4.3558683    4.3558683   -7191.6192    9638.7226   -15849.776   -15363.805    3592.0181    1179.8515   -12114.942    82.646454 
   27700    700.50331   -107.52254   0.63383012   -106.88871    10488.542      4.34667      4.34667      4.34667    10488.542    15166.194    8236.0837     8063.349   -3440.1626    682.96703    820.00464    82.123983 
   27800    508.40313   -107.35326   0.46001383   -106.89324   -10084.622    4.3547702    4.3547702    4.3547702   -10084.622   -12763.684   -16984.777   -505.40527    16627.294   -3490.6548   -4538.9422    82.583967 
   27900     677.9853   -107.50117   0.61345534   -106.88772    5171.0589    4.3490396    4.3490396    4.3490396    5171.0589    21072.372   -996.14607    -4563.049   -3801.0938    4154.2925   -7818.7403    82.258368 
   28000    495.32983   -107.33967   0.44818484   -106.89149   -6660.6272    4.3541826    4.3541826    4.3541826   -6660.6272   -9527.5492   -20466.702    10012.369    4489.6414   -531.10848    3527.3077    82.550541 
   28100    608.00375   -107.44139   0.55013457   -106.89125    3868.9983    4.3483212    4.3483212    4.3483212    3868.9983    21577.624   -5180.8356   -4789.7937    11128.498   -1640.7107   -8741.9572     82.21761 
   28200    802.67795   -107.61451   0.72627988   -106.88823    86.949424    4.3544235    4.3544235    4.3544235    86.949424    11653.698   -2480.7651   -8912.0847   -6291.4156    5381.6147   -312.22329    82.564239 
   28300    398.81452   -107.25399   0.36085576   -106.89314   -3110.5361    4.3506157    4.3506157    4.3506157   -3110.5361   -6939.7633   -16562.044    14170.199    9542.9667   -4117.7135    1037.6931    82.347831 
   28400     610.4056   -107.44159   0.55230781   -106.88928    5217.8869     4.348292     4.348292     4.348292    5217.8869    21468.449    645.61515   -6460.4039    4413.5215    3416.7606   -12438.852    82.215955 
   28500    688.20373   -107.51236    0.6227012   -106.88966   -10464.251    4.3565666    4.3565666    4.3565666   -10464.251   -12107.613    -13661.02   -5624.1202   -7285.8946    1368.5917    4945.4571    82.686205 
   28600    495.83462   -107.34018   0.44864159   -106.89153    7894.8248    4.3456807    4.3456807    4.3456807    7894.8248    15359.254   -3061.2723    11386.493    14508.113    -1951.184   -6779.9572     82.06792 
   28700    752.54728   -107.56785   0.68092059   -106.88693   -9300.6042    4.3575846    4.3575846    4.3575846   -9300.6042    -1896.984   -13171.775   -12833.053   -10408.052    4526.0042   -6463.2712    82.744183 
   28800    384.65538   -107.24033   0.34804427   -106.89228    4030.2971    4.3451493    4.3451493    4.3451493    4030.2971    10896.388   -16911.464    18105.967    4679.3805    632.04053    3718.1765    82.037819 
   28900    692.77407   -107.51863   0.62683654   -106.89179    -733.6572    4.3538937    4.3538937    4.3538937    -733.6572     10434.18   -7737.8742   -4897.2771    8125.2892    565.19347   -6732.0543     82.53411 
   29000    697.28376   -107.52132     0.630917    -106.8904    -5411.985     4.355149     4.355149     4.355149    -5411.985    1243.4801   -4255.8541   -13223.581   -9858.0459    7311.1535    540.92705    82.605515 
   29100    420.97755   -107.27255   0.38090934   -106.89164     8313.698    4.3387173    4.3387173    4.3387173     8313.698    4480.5584   -1629.9756    22090.511    13622.011   -999.43352   -590.11046    81.674044 
   29200     710.7296   -107.52844   0.64308308   -106.88536   -18202.787    4.3669008    4.3669008    4.3669008   -18202.787   -11465.068   -19227.815    -23915.48   -538.14578    4384.7191   -2946.1592    83.276024 
   29300    517.34596   -107.35977   0.46810549   -106.89166     5269.743    4.3386887    4.3386887    4.3386887     5269.743    10765.577    -4894.976    9938.6281   -2416.7892    7773.0408    1690.3771    81.672429 
   29400    679.18818   -107.50977   0.61454374   -106.89523   -3604.9611    4.3499983    4.3499983    4.3499983   -3604.9611    3675.6426   -17757.156      3266.63    14782.613   -5069.2585   -1179.1684    82.312778 
   29500    706.07586   -107.52589   0.63887228   -106.88701   -13767.811    4.3636963    4.3636963    4.3636963   -13767.811   -6156.9862   -12992.256    -22154.19   -4243.3061    10752.278   -1489.4176    83.092831 
   29600    344.49154   -107.19941   0.31170318   -106.88771    12509.653    4.3299956    4.3299956    4.3299956    12509.653    17001.631   -11369.044    31896.371    3003.4254    282.26513     5594.947    81.182487 
   29700    705.18085    -107.5269   0.63806246   -106.88884   -12251.639    4.3655216    4.3655216    4.3655216   -12251.639   -5372.6696   -17668.424   -13713.824    9483.4708    1612.2383   -818.23425    83.197142 
   29800    691.08254   -107.51744   0.62530601   -106.89214    2566.3872    4.3469015    4.3469015    4.3469015    2566.3872    6836.2298    3041.1366   -2178.2048   -9286.9484    11711.794    1903.0889    82.137105 
   29900    430.18569   -107.28132   0.38924106   -106.89208    3907.8041    4.3396113    4.3396113    4.3396113    3907.8041    -1806.297   -9362.9758    22892.685    10078.875   -3757.6982    5747.1149    81.724544 
   30000    717.53389   -107.53186   0.64923974   -106.88262   -14093.892    4.3648987    4.3648987    4.3648987   -14093.892   -12213.464   -10097.535   -19970.677   -413.87811    7788.6566   -1998.5546    83.161536 
   30100    453.34419   -107.29975   0.41019535   -106.88955    5693.1043    4.3393288    4.3393288    4.3393288    5693.1043    15002.292   -17127.721    19204.742    -856.2976     3219.557    4140.5648    81.708581 
   30200    684.33305   -107.51104   0.61919893   -106.89184   -5766.3345    4.3511545    4.3511545    4.3511545   -5766.3345    -1192.287   -18933.075    2826.3588     9163.296   -1135.8874    691.90839    82.378432 
   30300     752.3325    -107.5677   0.68072626   -106.88698   -1231.0157    4.3554805    4.3554805    4.3554805   -1231.0157     6495.243     2297.191   -12485.481   -2796.1271    4102.1261   -1595.4625    82.624383 
   30400    392.82724    -107.2465   0.35543834   -106.89106    -4890.429    4.3449001    4.3449001    4.3449001    -4890.429   -9130.5282   -24130.648    18589.889    4289.7051   -494.99278    970.02002    82.023705 
   30500    616.64412   -107.44771   0.55795256   -106.88976   -658.76508    4.3502727    4.3502727    4.3502727   -658.76508   -1362.1524    2255.0316   -2869.1744    6665.6629   -2040.8428   -901.98594    82.328355 
   30600    670.83766     -107.497   0.60698802   -106.89001   -5054.1908    4.3543456    4.3543456    4.3543456   -5054.1908    774.50026   -8365.4416   -7571.6312   -4342.6711   -116.39031   -3531.8448    82.559811 
   30700     580.4647   -107.41678   0.52521666   -106.89156   -1511.8802     4.345712     4.345712     4.345712   -1511.8802   -8131.9455   -12573.838    16170.143    7099.9435    39.345325    788.58985    82.069694 
   30800    657.79437   -107.48541   0.59518617   -106.89022      2698.26    4.3491346    4.3491346    4.3491346      2698.26    5970.6799    12250.622   -10126.522   -1653.9801    -7680.533   -2993.9228    82.263759 
   30900    477.15853   -107.32297   0.43174307   -106.89123   -11965.716    4.3567293    4.3567293    4.3567293   -11965.716   -5293.1207   -35132.009     4527.982   -603.43285    3013.5942   -3657.5435    82.695472 
   31000    605.92677   -107.43746   0.54825528    -106.8892    4157.3876     4.341381     4.341381     4.341381    4157.3876    3708.9502   -4658.6069    13421.819    5675.1246   -6980.4483    1988.5752    81.824562 
   31100    718.72586   -107.53909   0.65031826   -106.88877   -2785.5989    4.3546028    4.3546028    4.3546028   -2785.5989    4093.9193    3928.2259   -16378.942   -3022.8139   -6937.8592   -7578.5852    82.574441 
   31200    525.74208   -107.36728   0.47570248   -106.89158   -7602.2318    4.3509824    4.3509824    4.3509824   -7602.2318   -19999.848   -19654.755    16847.908    7825.3749    3693.9909    2695.7715    82.368656 
   31300    539.07741   -107.37813   0.48776857   -106.89036    3949.5706    4.3440038    4.3440038    4.3440038    3949.5706    2331.0606    13422.171   -3904.5195    1713.8118   -15955.312   -1499.7609    81.972954 
   31400    657.32219   -107.48232   0.59475893   -106.88756   -5645.2333    4.3565566    4.3565566    4.3565566   -5645.2333    6571.0411   -17428.027   -6078.7141    250.78099     78.43021    -3550.423    82.685638 
   31500       578.26   -107.41361    0.5232218   -106.89039   -2621.8553    4.3455592    4.3455592    4.3455592   -2621.8553   -8136.8474   -13024.327    13295.608    6057.8505   -5365.6178    4281.8736     82.06104 
   31600    673.25937   -107.49902   0.60917923   -106.88984    2576.6951    4.3504334    4.3504334    4.3504334    2576.6951    12253.946    10656.892   -15180.753   -1231.8696   -12895.589    -2830.286    82.337479 
   31700    621.76844   -107.45277   0.56258915   -106.89018   -7052.8444    4.3516092    4.3516092    4.3516092   -7052.8444   -7876.5229   -23999.357    10717.347   -839.98438    5047.9573   -767.37581    82.404259 
   31800    378.57733   -107.23654   0.34254472   -106.89399   -2779.5598    4.3484858    4.3484858    4.3484858   -2779.5598    1202.9718   -12058.796    2517.1449     4134.167   -12436.733    809.85613    82.226946 
   31900    876.81518   -107.68073    0.7933608   -106.88737    2287.4192    4.3501793    4.3501793    4.3501793    2287.4192    10755.739    3164.6877   -7058.1686   -4026.7199   -3024.6835   -1791.1977    82.323053 
   32000    443.92551   -107.29562   0.40167313   -106.89395   -1199.4214    4.3486686    4.3486686    4.3486686   -1199.4214   -9490.2461   -11546.946    17438.927    1166.5645    933.84096   -1679.3848    82.237318 
   32100    551.23625    -107.3918   0.49877014   -106.89303   -2983.2435    4.3533078    4.3533078    4.3533078   -2983.2435    621.46901    968.18372   -10539.383    3010.2052   -13165.905    1654.4281    82.500794 
   32200    794.79959   -107.60777   0.71915137   -106.88862    11727.575    4.3442998    4.3442998    4.3442998    11727.575    24852.082   -2231.9217    12562.565   -1059.1052    3957.5159   -3403.6445    81.989714 
   32300     328.6529   -107.19467   0.29737205   -106.89729   -6443.5825    4.3532343    4.3532343    4.3532343   -6443.5825   -466.69977   -25439.442    6575.3948    3477.6979   -5224.2774    2898.0247    82.496615 
   32400    853.49575   -107.66096   0.77226089    -106.8887    2910.6217    4.3512526    4.3512526    4.3512526    2910.6217    13430.523    3628.2535   -8326.9114    3067.2202   -7202.8823    37.751541    82.384004 
   32500    498.46329   -107.34367   0.45102006   -106.89265    6766.7258    4.3431604    4.3431604    4.3431604    6766.7258    6782.3865   -3299.3096      16817.1    902.62606     7002.506   -1773.6503     81.92522 
   32600    476.76056   -107.32707   0.43138298   -106.89569   -10984.712     4.356676     4.356676     4.356676   -10984.712   -7774.0408    -22862.78   -2317.3169    2596.0751   -8159.6258    3443.8676    82.692436 
   32700    860.52962   -107.66645   0.77862529   -106.88783      13620.6    4.3465206    4.3465206    4.3465206      13620.6    36502.074     5718.576   -1358.8499     986.9656    2706.3266   -1156.5699    82.115516 
   32800    376.44551   -107.23676   0.34061581   -106.89615    -4393.687    4.3473651    4.3473651    4.3473651    -4393.687   -12255.395   -12269.023    11343.356    3059.5273    5819.2402   -306.95177    82.163389 
   32900    676.68433   -107.50395    0.6122782   -106.89167    4118.4766    4.3547765    4.3547765    4.3547765    4118.4766    18480.824   -4884.3111   -1241.0835    317.71449   -5506.3223    2004.8518    82.584323 
   33000    717.73536    -107.5405   0.64942204   -106.89108    3576.5526    4.3473585    4.3473585    4.3473585    3576.5526    12292.374   -369.28764   -1193.4284    2679.1645    11512.712    153.58981    82.163017 
   33100    370.37107   -107.23151   0.33511953   -106.89639   -2131.3311     4.347112     4.347112     4.347112   -2131.3311    2315.1077   -23245.726    14536.625    4911.3863   -65.897227     1059.737    82.149042 
   33200    816.52822   -107.62624   0.73881189   -106.88742    934.45545    4.3548453    4.3548453    4.3548453    934.45545    15454.441    -6358.691   -6292.3841   -3620.5139    1976.0082     3430.066    82.588239 
   33300    444.04121    -107.2961   0.40177781   -106.89433   -6775.8004    4.3478374    4.3478374    4.3478374   -6775.8004   -21562.298   -1970.5105    3205.4075    7525.3677    10459.453   -1345.8321    82.190173 
   33400    589.39295   -107.42732   0.53329513   -106.89402    6003.0369    4.3459087    4.3459087    4.3459087    6003.0369    12961.274   -11408.927    16456.764   -1185.5473   -4624.6643    5451.5764    82.080842 
   33500    800.59421   -107.61342   0.72439447   -106.88902   -5646.0326    4.3577434    4.3577434    4.3577434   -5646.0326    5668.2181   -6716.8121   -15889.504   -1322.1014    9373.1367    -1275.695    82.753234 
   33600    323.29967   -107.18773   0.29252834    -106.8952    3014.7637    4.3420941    4.3420941    4.3420941    3014.7637   -1974.6529   -5700.5307    16719.475    4028.7824    5449.8654     66.94745     81.86489 
   33700     758.6213   -107.57709   0.68641649   -106.89067    1626.7809    4.3506444    4.3506444    4.3506444    1626.7809     5152.217    -6285.581    6013.7068   -3716.5668   -1904.6224    2941.9175    82.349462 
   33800    599.93062   -107.43499   0.54282983   -106.89216   -11444.117    4.3571764    4.3571764    4.3571764   -11444.117   -15876.885   -2265.8469   -16189.619    329.70592    13176.633   -4928.2499    82.720931 
   33900     528.3166    -107.3695   0.47803196   -106.89147    8842.1459    4.3369343    4.3369343    4.3369343    8842.1459    9620.3618   -10982.152    27888.228     3109.241   -165.28338    2401.9018    81.573393 
   34000    742.26209   -107.55933   0.67161433   -106.88771   -10747.237    4.3592081    4.3592081    4.3592081   -10747.237    -6200.104   -13976.395   -12065.212   -346.85658     4218.723   -2131.8078    82.836706 
   34100     390.6594   -107.24688   0.35347683   -106.89341   -587.80588     4.346893     4.346893     4.346893   -587.80588   -12326.822    4364.5845    6198.8198    4364.4892    9929.4894   -1797.6808    82.136627 
   34200    694.49434   -107.51832   0.62839307   -106.88993    8350.7154    4.3442186    4.3442186    4.3442186    8350.7154    10247.219   -6268.4785    21073.406    2300.9773   -3960.5047   -1091.3524    81.985114 
   34300    743.05738   -107.56066   0.67233394   -106.88832    -7230.864    4.3580419    4.3580419    4.3580419    -7230.864    -5274.532    788.83631   -17206.896    1677.8826    10198.471    35.548966    82.770237 
   34400     441.0644   -107.28968   0.39908433    -106.8906    10793.178    4.3409387    4.3409387    4.3409387    10793.178    10661.352   -3788.9969     25507.18    4095.0627     2598.813   -4351.1891    81.799558 
   34500    609.21195   -107.43918   0.55122778   -106.88795   -10269.484    4.3555673    4.3555673    4.3555673   -10269.484   -14528.398   -15090.405    -1189.649   -2519.5701    687.96856    760.30837     82.62932 
   34600    600.67342   -107.43281   0.54350193    -106.8893    2027.2007    4.3462621    4.3462621    4.3462621    2027.2007   -5682.6842     13776.04   -2011.7535    3390.5994    11544.601    -1293.285    82.100868 
   34700    648.65967   -107.47735    0.5869209   -106.89043   -707.35443    4.3492751    4.3492751    4.3492751   -707.35443   -2839.5846   -17227.516    17945.038   -192.57874   -3054.3862   -2220.3153    82.271729 
   34800    622.62289    -107.4529   0.56336228   -106.88954   -7784.4292    4.3531504    4.3531504    4.3531504   -7784.4292   -3660.8399   -5650.1009   -14042.347   -3874.5594    8165.1837    4652.2671    82.491845 
   34900    511.94154   -107.35277   0.46321546   -106.88955    8911.7692    4.3423258    4.3423258    4.3423258    8911.7692     1953.176    7251.4106    17530.721    4870.7229    4044.6524   -3049.1754    81.877999 
   35000     569.8271    -107.4047   0.51559153   -106.88911    -9992.393    4.3577451    4.3577451    4.3577451    -9992.393   -13295.679   -18950.758    2269.2581   -1380.1872    45.974872    5598.3051    82.753327 
   35100    713.17191   -107.53396   0.64529293   -106.88867    5399.4801    4.3429784    4.3429784    4.3429784    5399.4801    4326.6255    18873.637   -7001.8227   -449.01966    9069.8631    1311.4466    81.914919 
   35200     647.0036   -107.47607   0.58542245   -106.89065   -825.36568    4.3498893    4.3498893    4.3498893   -825.36568    -5067.197   -13666.099    16257.198    8583.0992   -1901.0326    1256.8599    82.306589 
   35300    487.05995   -107.33159   0.44070208   -106.89089   -11207.036    4.3539401    4.3539401    4.3539401   -11207.036   -16100.028   -14681.848   -2839.2321   -3407.9291    4403.8959    3793.6691    82.536747 
   35400    567.81553   -107.40271   0.51377142   -106.88894    2668.5238    4.3422118    4.3422118    4.3422118    2668.5238   -5938.3096    8291.8143    5652.0667      6098.34      2528.77    1501.7562     81.87155 
   35500    624.48366   -107.45471   0.56504594   -106.88966    -5266.039    4.3551123    4.3551123    4.3551123    -5266.039   -7661.1038    -19608.62    11471.607      5494.31   -784.00876      186.073    82.603427 
   35600    747.10878   -107.56464   0.67599973   -106.88864    -100.1103    4.3466373    4.3466373    4.3466373    -100.1103    1091.6931    6494.9052   -7886.9292   -3496.0755    5511.1422    1642.8489    82.122129 
   35700    481.51526   -107.32627   0.43568512   -106.89059    2026.2995    4.3484041    4.3484041    4.3484041    2026.2995    373.55451   -5408.6436    11113.988    10508.263   -436.49346    439.60167    82.222314 
   35800    515.93195   -107.35722   0.46682607    -106.8904    -6227.385    4.3511402    4.3511402    4.3511402    -6227.385   -12282.698   -15161.764    8762.3062   -568.29824    2263.1583    -3632.822    82.377619 
   35900    708.13151   -107.52961   0.64073227   -106.88888   -121.78399    4.3493075    4.3493075    4.3493075   -121.78399    -1322.252    9083.6242   -8126.7241    1183.8362    3448.8407    2831.8051    82.273568 
   36000    627.25678   -107.45872   0.56755512   -106.89117   -1884.8133     4.348207     4.348207     4.348207   -1884.8133   -3803.9177   -16905.218    15054.695     11874.69   -1319.6995   -6222.8633    82.211135 
   36100    577.21731   -107.41255   0.52227835   -106.89027   -2953.6539    4.3489367    4.3489367    4.3489367   -2953.6539   -6213.0794   -3545.4603    897.57799   -6413.0305     2756.751   -1271.6892    82.252527 
   36200    547.28291   -107.38408   0.49519308   -106.88888   -6334.3835    4.3531024    4.3531024    4.3531024   -6334.3835   -8997.3206   -10997.674    991.84416    9699.7307    1677.8618   -1918.3471    82.489119 
   36300    501.64077   -107.34555   0.45389511   -106.89166    6121.8703    4.3428912    4.3428912    4.3428912    6121.8703     7178.514   -10712.442    21899.539    7606.8979   -1106.0064   -5462.5271    81.909987 
   36400    799.53169   -107.61249   0.72343308   -106.88906   -5303.3168    4.3557399    4.3557399    4.3557399   -5303.3168   -1456.5051    1446.4214   -15899.867   -7505.0705    6159.6323    846.50599    82.639144 
   36500    577.91598    -107.4132   0.52291052   -106.89029    3384.6699    4.3466059    4.3466059    4.3466059    3384.6699    4070.3018   -8423.2616     14506.97    17261.077    1018.0958   -2095.6534    82.120353 
   36600    466.16888   -107.31294    0.4217994   -106.89114    57.708217    4.3450795    4.3450795    4.3450795    57.708217   -6907.9288   -5584.9921    12666.046   -4093.1381    1889.4652   -1686.8785    82.033869 
   36700    638.23139    -107.4661   0.57748517   -106.88861   -10384.596     4.357655     4.357655     4.357655   -10384.596   -9468.8711   -6565.7226   -15119.194    2159.5592    7076.7573    1134.9964    82.748198 
   36800    627.29028   -107.45803   0.56758543   -106.89044    7856.7709    4.3401269    4.3401269    4.3401269    7856.7709    7645.4612   -9200.4314    25125.283    15532.628   -1994.3247    1065.5859    81.753677 
   36900    675.44372   -107.50032   0.61115567   -106.88917    -7384.442    4.3546889    4.3546889    4.3546889    -7384.442   -7413.8204   -1105.7764   -13633.729   -8854.6222    7110.7206   -3821.8346     82.57934 
   37000    504.17271   -107.34651   0.45618606   -106.89033   -2449.2352    4.3482001    4.3482001    4.3482001   -2449.2352    195.57956   -12999.999    5456.7138    16305.279    2115.6634    7385.7732    82.210744 
   37100    547.13037   -107.38615   0.49505506   -106.89109     5236.607     4.344519     4.344519     4.344519     5236.607    1060.6408   -4334.0868    18983.267    7749.6657    4.8059166   -2978.8249    82.002127 
   37200    728.13108   -107.54713    0.6588283    -106.8883   -8074.6542    4.3567974    4.3567974    4.3567974   -8074.6542   -3027.5475   -3187.4197   -18008.996   -5305.1272    6584.4771    1252.6273    82.699349 
   37300    527.16399   -107.36826   0.47698905   -106.89127    4587.6001    4.3411704    4.3411704    4.3411704    4587.6001    2742.8924   -4310.8095    15330.717    26376.096   -2900.9359    6752.8573    81.812656 
   37400    651.07454   -107.47765   0.58910592   -106.88854   -2718.4323    4.3532863    4.3532863    4.3532863   -2718.4323   -13056.596   -359.74542    5261.0443   -5700.7086    3225.6885     -4117.14    82.499572 
   37500    508.16303   -107.35143   0.45979659   -106.89163    -5526.879    4.3489613    4.3489613    4.3489613    -5526.879   -9861.6169   -7437.5648    718.54462    9132.9945    1901.5835     5403.956    82.253926 
   37600    550.04243   -107.39186   0.49768995   -106.89417    3326.3923    4.3457945    4.3457945    4.3457945    3326.3923    50.306601   -10234.973    20163.844    22567.026   -2441.3188     914.6451     82.07437 
   37700    892.00995    -107.6946   0.80710934   -106.88749   -1617.4514    4.3540238    4.3540238    4.3540238   -1617.4514   -552.79703     5287.911   -9587.4681   -14286.214    3058.3327     351.7241    82.541505 
   37800     311.7004   -107.17716   0.28203308   -106.89513   -1732.3619     4.343897     4.343897     4.343897   -1732.3619    -9610.988   -4746.6874    9160.5898    27363.711    1766.8605    4112.7736    81.966907 
   37900    652.17779   -107.48249   0.59010417   -106.89238   -672.19029    4.3520822    4.3520822    4.3520822   -672.19029   -7435.9291   -59.570385    5478.9286     4659.491   -1665.4139     4720.873    82.431133 
   38000    735.10262   -107.55686    0.6651363   -106.89172     142.5144     4.349576     4.349576     4.349576     142.5144   -6771.4374    5791.4872    1407.4934    226.29168    5511.7345    1443.8897     82.28881 
   38100    378.89067    -107.2414   0.34282824   -106.89857   -3522.7791    4.3463991    4.3463991    4.3463991   -3522.7791   -11118.153   -8080.0361    8629.8521     31983.45   -726.46386    9139.9754    82.108633 
   38200    894.99079   -107.69807   0.80980648   -106.88826    3729.6454    4.3516064    4.3516064    4.3516064    3729.6454    1034.0581    7753.7214    2401.1568   -7027.3976   -532.14869    3710.9088    82.404102 
   38300    330.31602   -107.19618   0.29887687    -106.8973   -4179.1967    4.3480336    4.3480336    4.3480336   -4179.1967   -27095.504   -35.887052    14593.801     23243.35    4683.6301   -77.354322    82.201297 
   38400    524.96787   -107.37289   0.47500196   -106.89789   -663.23537     4.349784     4.349784     4.349784   -663.23537    348.91398     -8963.52    6624.8999    16190.031   -3470.2515    10625.205    82.300615 
   38500    1016.4347   -107.80871   0.91969148   -106.88902    7285.2217    4.3488658    4.3488658    4.3488658    7285.2217    3572.9852     11364.01    6918.6694   -1686.4233    3060.6929   -6270.7329    82.248505 
   38600    238.57128   -107.11541   0.21586431   -106.89954   -6765.0872    4.3494706    4.3494706    4.3494706   -6765.0872   -16794.326   -6909.5974    3408.6616    32885.286    1090.4612     5588.049    82.282824 
   38700    707.84537   -107.53192   0.64047337   -106.89145    277.59311    4.3490772    4.3490772    4.3490772    277.59311    3627.1631    1195.8111   -3990.1949   -3486.2042    317.38243    4995.0098    82.260502 
   38800    597.37182   -107.43351   0.54051457   -106.89299   -975.23304    4.3492952    4.3492952    4.3492952   -975.23304   -18765.965    2098.8432    13741.423    13960.714    2333.7579   -4976.8354    82.272872 
   38900    486.38775   -107.33751   0.44009385   -106.89742   -8380.7688    4.3497177    4.3497177    4.3497177   -8380.7688   -7400.7719    -17799.63    58.095124    21819.029    2457.8008    11467.478    82.296851 
   39000    902.13219   -107.70565   0.81626817   -106.88938    4772.9551    4.3483907    4.3483907    4.3483907    4772.9551    8455.6883    1989.5142    3873.6627   -13490.425    1740.3248    2055.2383    82.221552 
   39100    369.64083   -107.22987   0.33445879   -106.89541   -4906.1199    4.3493951    4.3493951    4.3493951   -4906.1199   -23599.705   -8133.3015    17014.647    25898.279    2185.6935    794.17131    82.278544 
   39200    483.05177   -107.33107   0.43707539     -106.894   -4219.4068    4.3508014    4.3508014    4.3508014   -4219.4068     4026.259   -9974.8788   -6709.6007    2106.0298     3893.959    13123.468    82.358379 
   39300    816.45416   -107.62771   0.73874488   -106.88897    5497.4616    4.3470056    4.3470056    4.3470056    5497.4616    726.70985    962.99903    14802.676   -2897.0539   -755.08172    504.70324    82.143007 
   39400     528.3191   -107.37251   0.47803423   -106.89447    -6259.228    4.3504965    4.3504965    4.3504965    -6259.228   -3049.4484    -15443.43   -284.80583    27117.797    2114.8761    5697.1424    82.341062 
   39500    622.82751     -107.454   0.56354742   -106.89045   -4781.8336    4.3503574    4.3503574    4.3503574   -4781.8336    6351.6912   -9292.4249   -11404.767   -10712.242   -1453.9538    16291.053    82.333165 
   39600    547.23656   -107.38521   0.49515114   -106.89006   -1298.8169    4.3462445    4.3462445    4.3462445   -1298.8169   -19938.505   -3447.7689    19489.823    14544.733   -955.29322   -4318.1752    82.099868 
   39700    524.87758    -107.3678   0.47492026   -106.89288   -8095.5757    4.3524193    4.3524193    4.3524193   -8095.5757     1824.729    -18682.15   -7429.3064    12901.814   -1704.5545    16474.761    82.450288 
   39800    805.65617   -107.61796   0.72897463   -106.88898    2308.9998    4.3489268    4.3489268    4.3489268    2308.9998    9687.7346   -3167.8717    407.13645   -7043.9261   -2613.5434     8241.582    82.251967 
   39900    570.24491   -107.40724   0.51596958   -106.89127    1505.7641    4.3461088    4.3461088    4.3461088    1505.7641   -5172.1849   -9916.7935    19606.271    20918.423    43.819336   -3137.4921    82.092181 
   40000    425.03554   -107.27656   0.38458109   -106.89198   -5578.8827    4.3529042    4.3529042    4.3529042   -5578.8827    10413.801   -8707.1873   -18443.261   -2696.5584   -2319.3568    21632.251     82.47785 
   40100    655.05523    -107.4822   0.59270774    -106.8895    290.28778    4.3479332    4.3479332    4.3479332    290.28778   -9992.1223   -2271.7846     13134.77    2874.0633    734.98833   -5087.0657    82.195602 
   40200    643.46231   -107.47416   0.58221822   -106.89194   -1791.3558    4.3469824    4.3469824    4.3469824   -1791.3558    8186.3319   -15263.003    1702.6036    12625.838   -1405.9584    10680.136    82.141691 
   40300     658.0025   -107.48585   0.59537449   -106.89047   -4884.7549    4.3536688    4.3536688    4.3536688   -4884.7549    8516.4353   -7331.6009   -15839.099   -8312.4071    1166.6412    14227.999    82.521319 
   40400    552.68673   -107.38987   0.50008257   -106.88979   -2061.9586    4.3459105    4.3459105    4.3459105   -2061.9586   -16056.718   -8680.0369    18550.879    10788.235    318.54634   -6155.9331     82.08094 
   40500    447.96811   -107.29785   0.40533096   -106.89252    1340.0112    4.3480766    4.3480766    4.3480766    1340.0112    15030.326   -5658.0451   -5352.2469     6102.945    928.22422    19001.665    82.203735 
   40600    764.82588   -107.58181   0.69203053   -106.88978   -3523.8108    4.3541403    4.3541403    4.3541403   -3523.8108    1380.3007    -7707.215   -4244.5181   -6447.9868    5328.1062    1919.6779    82.548135 
   40700    621.59082   -107.45354   0.56242844   -106.89111    6408.7434    4.3434414    4.3434414    4.3434414    6408.7434    11107.009   -11513.418     19632.64    15660.836    -686.2214    2489.6305     81.94112 
   40800    564.90787   -107.40145   0.51114052   -106.89031   -3354.5477    4.3524026    4.3524026    4.3524026   -3354.5477    11154.522   -3397.3958   -17820.769   -1745.2346    1892.9746    17431.898    82.449342 
   40900    518.26719   -107.35874   0.46893904    -106.8898   -5484.1131    4.3503847    4.3503847    4.3503847   -5484.1131   -16611.606   -11376.939    11536.205    347.25034    1443.0072   -4918.3674    82.334716 
   41000     576.9876    -107.4138    0.5220705   -106.89173    2491.5541    4.3449994    4.3449994    4.3449994    2491.5541    11947.258   -9831.8834     5359.288    14685.194   -1308.8008    10363.345    82.029329 
   41100    819.28552   -107.62949   0.74130675   -106.88818   -1357.2875    4.3535078    4.3535078    4.3535078   -1357.2875    12057.472   -6511.3568   -9617.9778   -7054.5529   -2831.5303    8644.3459    82.512166 
   41200    469.75992   -107.31708   0.42504865   -106.89203   -1054.6708     4.345988     4.345988     4.345988   -1054.6708   -3339.5643   -18730.133    18905.685     8829.013    -257.2622   -7300.1697    82.085335 
   41300    520.78045   -107.36211   0.47121309   -106.89089    2827.7269    4.3511218    4.3511218    4.3511218    2827.7269    12062.762   -1677.7021   -1901.8788    6268.4071   -2538.0086    12282.975    82.376576 
   41400    710.53954    -107.5334   0.64291111   -106.89048    863.08813    4.3479473    4.3479473    4.3479473    863.08813    6390.1226   -8112.5344    4311.6761   -5564.3272   -3644.3765   -2219.3781    82.196405 
   41500    499.65549   -107.34823   0.45209879   -106.89613    2816.0826    4.3477388    4.3477388    4.3477388    2816.0826    7621.3572   -17436.845    18263.736    11504.979    1053.5657   -4115.7551     82.18458 
   41600     856.4149   -107.66269    0.7749022   -106.88778    287.37474    4.3526636    4.3526636    4.3526636    287.37474    9579.6702     680.0757   -9397.6217   -1187.3573   -3694.1617    9968.9953    82.464171 
   41700    309.34558   -107.17371   0.27990238   -106.89381    -727.2022    4.3444837    4.3444837    4.3444837    -727.2022   -5997.0815   -15852.314    19667.789    3101.9877    1234.2358    -9792.181    82.000126 
   41800    564.57742   -107.40622   0.51084152   -106.89538   -6341.7759    4.3534453    4.3534453    4.3534453   -6341.7759   -5219.7422   -16694.368    2888.7826     11940.52   -2896.8715    2021.6538    82.508611 
   41900    940.21262   -107.74067   0.85072414   -106.88995    11862.563    4.3455098    4.3455098    4.3455098    11862.563     27044.33    2119.7208    6423.6393   -4230.2391   -329.19345    1327.0857    82.058238 
   42000    305.57576   -107.17542   0.27649137   -106.89893   -8691.7334    4.3501966    4.3501966    4.3501966   -8691.7334   -6381.0526   -33589.495    13895.348    12485.163    1557.1686   -10002.583    82.324034 
   42100    680.92254   -107.50714   0.61611302   -106.89102    2167.5169    4.3521301    4.3521301    4.3521301    2167.5169    287.72057    2150.0492     4064.781    2664.3955   -4354.2016    2972.7961    82.433857 
   42200     658.6002   -107.48818    0.5959153   -106.89226    7091.1255    4.3420519    4.3420519    4.3420519    7091.1255    15475.472   -4720.2231    10518.128    1785.5363    3322.6008   -5877.3882    81.862504 
   42300    410.95452   -107.27111   0.37184028   -106.89927   -11156.194    4.3565927    4.3565927    4.3565927   -11156.194   -12349.241   -30037.843    8918.5013    14371.946   -1234.7335   -6618.5024    82.687691 
   42400    976.90474   -107.77186   0.88392394   -106.88794    10369.807    4.3449721    4.3449721    4.3449721    10369.807    20538.567    8154.1531    2416.7009   -5194.8821   -3187.5839    1771.5646    82.027785 
   42500    255.57746   -107.12826   0.23125185   -106.89701   -6824.1892    4.3476485    4.3476485    4.3476485   -6824.1892   -6563.3198   -21146.778    7237.5298    11230.396    357.48182   -9223.6944    82.179456 
   42600    547.55065   -107.39111   0.49543533   -106.89567   -9861.7913    4.3548183    4.3548183    4.3548183   -9861.7913    -12678.46   -21401.204    4494.2905    3360.9011   -144.41698   -3483.3928    82.586699 
   42700    949.49572   -107.74805   0.85912368   -106.88892    14238.061    4.3427929    4.3427929    4.3427929    14238.061     30851.97    6080.9503    5781.2629   -2007.9396   -3024.9543    741.04627    81.904421 
   42800    363.35028   -107.22665   0.32876697   -106.89788   -11296.326     4.351997     4.351997     4.351997   -11296.326   -12784.713   -29639.788    8535.5218    14450.599     276.5748   -11410.683    82.426293 
   42900    625.67957   -107.45668   0.56612802   -106.89055    6493.7764    4.3504221    4.3504221    4.3504221    6493.7764    9196.8013    1595.9429     8688.585   -2866.5243     2440.041    3333.6219     82.33684 
   43000    591.49983   -107.42661   0.53520147   -106.89141    1191.2907    4.3468961    4.3468961    4.3468961    1191.2907    8250.7312   -8659.4098    3982.5507     8445.824   -4522.4815   -2259.7893    82.136797 
   43100     505.9365    -107.3535   0.45778198   -106.89572   -4566.3143    4.3499047    4.3499047    4.3499047   -4566.3143   -7230.0576   -21218.237    14749.352     12444.45     2769.362   -7727.0152    82.307466 
   43200    898.50507   -107.70098   0.81298627     -106.888    4322.7545    4.3501033    4.3501033    4.3501033    4322.7545    16856.943   -2269.0391   -1619.6404    -5988.085   -1046.8495     10615.91    82.318742 
   43300    368.82866   -107.22789   0.33372392   -106.89417   -9685.3681    4.3489175    4.3489175    4.3489175   -9685.3681   -14522.245   -15648.198    1114.3394     17798.41   -2271.6347   -5546.4125    82.251441 
   43400    541.26795   -107.38254   0.48975062   -106.89279    268.19836    4.3475869    4.3475869    4.3475869    268.19836   -488.03636   -9375.9927    10668.624    2816.8224    1315.2604    899.55255    82.175965 
   43500    796.97553   -107.61053   0.72112021   -106.88941    1069.4934    4.3527568    4.3527568    4.3527568    1069.4934    14801.713   -4004.4269   -7588.8058    262.67003   -1468.3568    11267.071    82.469469 
   43600    512.82486   -107.35788   0.46401471   -106.89386   -1174.0018    4.3457035    4.3457035    4.3457035   -1174.0018   -3887.9636   -14019.562     14385.52    22161.531    2097.3315   -8168.8293    82.069212 
   43700    643.96345   -107.47294   0.58267166   -106.89027    6884.6822    4.3487605    4.3487605    4.3487605    6884.6822    7962.8485    6649.3931    6041.8051   -7538.4445   -706.35518    8587.8615    82.242531 
   43800     475.5309   -107.32217   0.43027035   -106.89189   -7539.9101    4.3538397    4.3538397    4.3538397   -7539.9101   -9905.2285   -12752.413    37.911301    13422.695    1502.6391    6994.2301    82.531037 
   43900    604.01237   -107.43861   0.54652308   -106.89208    4791.4705    4.3425753    4.3425753    4.3425753    4791.4705    1589.6041   -5861.9502    18646.758    13938.097     797.9729   -7913.7979    81.892112 
   44000    843.78953   -107.65286    0.7634785   -106.88939    1183.3588    4.3522676    4.3522676    4.3522676    1183.3588    8728.9908    -1682.858   -3496.0563   -7783.6274    2282.8131    13546.905    82.441668 
   44100    407.93907   -107.26323   0.36911184   -106.89411   -8103.3182    4.3513455    4.3513455    4.3513455   -8103.3182   -13175.012   -11606.236     471.2933    25348.311    -448.0937    179.83756    82.389281 
   44200    579.45997   -107.41424   0.52430755   -106.88993    8240.7578     4.342004     4.342004     4.342004    8240.7578    8198.5037      7442.32    9081.4496    967.76682    4266.2129   -6020.4151    81.859799 
   44300    622.93141   -107.45408   0.56364143   -106.89044   -4043.7369    4.3557176    4.3557176    4.3557176   -4043.7369   -523.22143   -3593.9458   -8014.0435    5522.2903    3384.3248    14888.761    82.637875 
   44400    601.28747   -107.43727   0.54405754   -106.89321    380.18667    4.3474945    4.3474945    4.3474945    380.18667    2390.5424   -14461.938    13211.955    24991.648   -1662.2697    -9503.978    82.170729 
   44500    760.94031   -107.57687   0.68851478   -106.88835    9908.4084    4.3448389    4.3448389    4.3448389    9908.4084    10280.226    14218.739    5226.2607   -8457.0205    7137.1271    1677.1914    82.020238 
   44600    378.84845   -107.23569   0.34279003    -106.8929   -12528.021    4.3554841    4.3554841    4.3554841   -12528.021    -19468.25   -19883.713    1767.9014    19416.492   -1573.4263    11585.974    82.624588 
   44700    569.23651   -107.40667   0.51505716   -106.89161    4028.6134    4.3438344    4.3438344    4.3438344    4028.6134    4149.9426   -3618.6016    11554.499    10605.966    810.44973   -13666.293    81.963365 
   44800    842.56728   -107.65197   0.76237258    -106.8896    1194.8406    4.3503305    4.3503305    4.3503305    1194.8406    6935.7553   -171.77435   -3179.4591   -2995.7415    3434.8575     10811.88     82.33164 
   44900    458.50643   -107.31003   0.41486625   -106.89517   -6512.8096    4.3513374    4.3513374    4.3513374   -6512.8096   -5473.0361   -17559.188    3493.7953    25380.539    -2757.404    1447.7973    82.388818 
   45000    646.92901   -107.47486   0.58535497    -106.8895    6872.7246    4.3448436    4.3448436    4.3448436    6872.7246    9904.4594    8960.0643    1753.6502   -2769.4379    1326.3661   -9340.3599    82.020506 
   45100    516.02161   -107.35818    0.4669072   -106.89127   -3763.2083    4.3523947    4.3523947    4.3523947   -3763.2083   -5720.4778   -4113.3755   -1455.7715    11334.169    1145.1959     12811.09    82.448894 
   45200    518.59181   -107.36298   0.46923277   -106.89374     352.5203    4.3473309    4.3473309    4.3473309     352.5203    7214.8159   -15978.511    9821.2563     18338.38   -1807.6126   -7236.7429     82.16145 
   45300    902.81118    -107.7055   0.81688252   -106.88862    3651.4015     4.349005     4.349005     4.349005    3651.4015     8060.441    5132.6524   -2238.8888   -7518.1684    1830.8546   -3356.5237    82.256405 
   45400    431.81855   -107.28512    0.3907185    -106.8944   -3425.8926    4.3495428    4.3495428    4.3495428   -3425.8926   -8310.5114   -12337.883    10370.716    24542.724    326.23451    7937.6833    82.286924 
   45500    531.09083   -107.37279   0.48054214   -106.89224    468.77166    4.3480889    4.3480889    4.3480889    468.77166    6778.3134   -3360.9398   -2011.0586    3348.1369   -3734.2541   -12008.037    82.204437 
   45600    651.30375    -107.4795   0.58931332   -106.89019    3553.1712    4.3496955    4.3496955    4.3496955    3553.1712    11642.701    318.23493   -1301.4224    2942.1253    4030.9022     604.3251    82.295589 
   45700     526.7818   -107.37109   0.47664324   -106.89444      1813.78    4.3484383    4.3484383    4.3484383      1813.78    10507.174   -9517.1971    4451.3633    26244.133   -3099.2409    1639.5438    82.224254 
   45800    846.04361   -107.65402   0.76551804    -106.8885    6397.0725    4.3490699    4.3490699    4.3490699    6397.0725    14743.461    7457.5522   -3009.7955   -9084.3267   -77.824272   -12476.139    82.260086 
   45900    416.02003   -107.26995   0.37642366   -106.89353   -1957.4347    4.3489075    4.3489075    4.3489075   -1957.4347   -6592.2034   -5553.8862    6273.7854    19856.625    5166.5214    5197.1151    82.250873 
   46000    508.20607   -107.35335   0.45983553   -106.89351   -2056.1815    4.3500397    4.3500397    4.3500397   -2056.1815    2340.5914   -10787.451    2278.3155     12841.47   -2784.7521   -3639.8017    82.315131 
   46100    837.84842   -107.64707   0.75810286   -106.88897    7561.7451    4.3467659    4.3467659    4.3467659    7561.7451    22880.151   -788.61472    593.69948   -4482.4123    4707.8387   -6957.1504    82.129421 
   46200    402.49648   -107.26092   0.36418727   -106.89673   -3496.1687    4.3510438    4.3510438    4.3510438   -3496.1687   -4246.5024   -14477.549    8235.5453    26579.944    1790.6319    6395.4343    82.372146 
   46300    805.43995   -107.61864     0.728779   -106.88986    4481.8277     4.349152     4.349152     4.349152    4481.8277    13673.759    478.22609   -706.50216   -3341.6119    1933.1089   -5059.7188    82.264743 
   46400    476.57369   -107.32518   0.43121389   -106.89397    4736.5631    4.3452466    4.3452466    4.3452466    4736.5631    6646.6227   -942.91788    8505.9846    11015.292    1788.1836   -793.46988    82.043333 
   46500    400.55205   -107.26031   0.36242791   -106.89788   -11928.642    4.3544678    4.3544678    4.3544678   -11928.642   -11123.996   -17210.228   -7451.7006     16171.74    4375.3234    5551.8068     82.56676 
   46600    981.98709   -107.77676   0.88852256   -106.88824    13881.128    4.3444171    4.3444171    4.3444171    13881.128    26030.553    8093.7319    7519.0974   -7458.9125    1348.7481   -3807.6955    81.996354 
   46700    404.50866    -107.2637   0.36600793   -106.89769   -7893.8758    4.3507027    4.3507027    4.3507027   -7893.8758   -18755.196   -16580.279    11653.848    22255.718    233.03745    3776.2034    82.352772 
   46800    548.42414   -107.39077   0.49622568   -106.89454   -4549.3068    4.3516677    4.3516677    4.3516677   -4549.3068    791.73201     -12011.5   -2428.1522   -918.80946    4949.7598    5911.0372    82.407581 
   46900    744.07284   -107.56267   0.67325275   -106.88941    9405.5394    4.3434586    4.3434586    4.3434586    9405.5394    15373.825   -42.136663     12884.93    8153.7645   -4510.3959   -2317.4004    81.942091 
   47000    348.00141   -107.21093   0.31487899   -106.89605   -15819.146    4.3557257    4.3557257    4.3557257   -15819.146   -17762.009   -22134.005    -7561.423    18214.862    3461.7797    7162.3065    82.638336 
   47100     857.7644   -107.66463   0.77612326    -106.8885    6567.6713     4.344976     4.344976     4.344976    6567.6713    13401.491    5733.7941    567.72864   -8100.6791   -2723.6987    4752.9095    82.028005 
   47200    576.11009   -107.41405   0.52127652   -106.89277   -1406.4501    4.3488682    4.3488682    4.3488682   -1406.4501   -13121.954   -5263.4864     14166.09    21562.496   -4346.2136   -1215.1703    82.248641 
   47300     442.1705   -107.29473   0.40008516   -106.89464   -9430.2571    4.3522507    4.3522507    4.3522507   -9430.2571    -1110.359   -18387.405   -8793.0076    1523.9542    2473.7596     8858.195    82.440709 
   47400    736.78668   -107.55522   0.66666007   -106.88856     8421.453    4.3451521    4.3451521    4.3451521     8421.453    17917.085    8067.7136   -720.44004     283.9777   -9214.6542    1266.9856    82.037979 
   47500    473.29811   -107.32216   0.42825008   -106.89391   -6093.8852    4.3518775    4.3518775    4.3518775   -6093.8852   -13387.837   -17526.949    12633.131    20001.076    1237.0081    800.63696    82.419502 
   47600    689.86419   -107.51561   0.62420362   -106.89141    590.01155    4.3478056    4.3478056    4.3478056    590.01155    7654.5174   -7338.0854    1453.6027   -9889.6931   -4104.9073    9431.1293    82.188368 
   47700    680.35082   -107.50578   0.61559572   -106.89019    2965.6024    4.3488859    4.3488859    4.3488859    2965.6024   -1793.4187   -2658.5834    13348.809    10580.696   -6277.4411   -3220.0053    82.249648 
   47800    443.53219   -107.29432   0.40131725     -106.893   -5216.9262    4.3501868    4.3501868    4.3501868   -5216.9262    4473.7861   -15317.976   -4806.5888    8823.6975    2769.5286    8163.5055    82.323479 
   47900    622.91264    -107.4535   0.56362445   -106.88988    2965.4899     4.347694     4.347694     4.347694    2965.4899    15514.632    4578.7437   -11196.906   -10657.407    -3978.217    4283.1688    82.182039 
   48000    656.67379   -107.48503   0.59417225   -106.89086   -105.53417    4.3497888    4.3497888    4.3497888   -105.53417   -5070.5079   -6141.6732    10895.579    17681.646   -2016.4848   -1768.3677    82.300884 
   48100    610.56589   -107.44383   0.55245285   -106.89138    2305.0302    4.3491198    4.3491198    4.3491198    2305.0302    12263.943   -12659.771    7310.9185   -2577.6377     4397.056    12678.576    82.262917 
   48200    643.71186   -107.47141   0.58244402   -106.88897   -721.80678     4.349868     4.349868     4.349868   -721.80678    6182.9507    604.05019   -8952.4212   -1062.2268   -6678.4501   -3997.0354    82.305383 
   48300    459.07453   -107.30639   0.41538028   -106.89101    5302.3058    4.3471353    4.3471353    4.3471353    5302.3058     10416.02   -7484.9998    12975.898    16041.821   -1996.2944     3731.357     82.15036 
   48400    640.63547   -107.47063   0.57966043   -106.89097   -628.24239    4.3510949    4.3510949    4.3510949   -628.24239    10664.347   -9879.5605   -2669.5133   -10041.869    1661.2743    8705.9544    82.375046 
   48500    715.16953   -107.53771   0.64710042   -106.89061    6270.6406    4.3474861    4.3474861    4.3474861    6270.6406    7955.1145    234.86369    10621.944    8065.5079   -13881.191   -8838.9962    82.170249 
   48600    582.36859   -107.41903   0.52693934   -106.89209    2663.8998    4.3475136    4.3475136    4.3475136    2663.8998    18141.191   -13383.882    3234.3911    6412.5618    3286.0205    10004.793    82.171809 
   48700    483.04285   -107.32843   0.43706732   -106.89137   -6594.8461    4.3530859    4.3530859    4.3530859   -6594.8461     6018.204   -639.84094   -25162.901   -9600.7183     -5705.86     492.5297    82.488179 
   48800    617.28322   -107.44865   0.55853083   -106.89012    4857.7055     4.344923     4.344923     4.344923    4857.7055    13963.815   -837.37247    1446.6736    11900.661   -10057.997   -7045.5416    82.025002 
   48900    706.27605   -107.52969   0.63905341   -106.89063    1023.1766    4.3512481    4.3512481    4.3512481    1023.1766    7375.5047   -15013.621    10707.646   -3607.7815    5267.6618    13483.457    82.383746 
   49000    648.39483   -107.47734   0.58668127   -106.89066    104.63732    4.3490261    4.3490261    4.3490261    104.63732    8346.9372   -274.63506   -7758.3902   -4915.3054   -13720.289    -9878.945    82.257602 
   49100    472.23935   -107.31816   0.42729209   -106.89087    7048.6587    4.3474035    4.3474035    4.3474035    7048.6587    21298.059   -5988.4511    5836.3678    8166.1451   -88.584696    3473.2115    82.165566 
   49200    563.62767   -107.40066   0.50998216   -106.89068   -5117.8545    4.3518363    4.3518363    4.3518363   -5117.8545    7765.0171   -9724.1776   -13394.403   -8800.0512   -2260.0648     8792.879    82.417158 
   49300    625.39641   -107.45765   0.56587181   -106.89178       6708.1    4.3449787    4.3449787    4.3449787       6708.1     14099.13    4222.5931    1802.5773   -36.053752   -11944.626   -14288.188    82.028159 
   49400    772.22191   -107.58859   0.69872262   -106.88987   -5106.4191     4.352559     4.352559     4.352559   -5106.4191    3728.6867   -17631.298   -1416.6454    3691.0016    3742.4932    15018.928    82.458227 
   49500    461.24401   -107.30898   0.41734328   -106.89163   -1987.6265    4.3471618    4.3471618    4.3471618   -1987.6265    7704.6185    6231.7748   -19899.273   -5928.9771   -9035.6977   -4135.0858    82.151863 
   49600    511.08907   -107.35471   0.46244413   -106.89226   -4703.4568    4.3494634    4.3494634    4.3494634   -4703.4568    8812.0557   -6978.6428   -15943.783    2467.5736   -6993.7121   -9353.2112     82.28242 
   49700    754.47214   -107.57281   0.68266225   -106.89014   -44.932924    4.3506053    4.3506053    4.3506053   -44.932924    4093.0472   -10947.037    6719.1912    2876.1852    3108.5907    17891.575    82.347242 
   49800    607.65128   -107.44203   0.54981565   -106.89221    2614.4306    4.3443813    4.3443813    4.3443813    2614.4306    9370.8432    1935.1773   -3462.7286   -3146.7661    -14941.16   -18431.077    81.994325 
   49900    529.98488   -107.37007   0.47954146   -106.89053   -3806.0117    4.3552724    4.3552724    4.3552724   -3806.0117    6769.6357   -13343.971   -4843.7003    3903.5342   -1448.8782    3878.5138    82.612541 
   50000    588.69326   -107.42261   0.53266203   -106.88994    2051.1913    4.3439372    4.3439372    4.3439372    2051.1913    13512.304    1583.0123   -8941.7419    4600.3372   -1785.0034    8662.1599    81.969185 
   50100    498.66192   -107.34545   0.45119979   -106.89425   -3599.5979    4.3497159    4.3497159    4.3497159   -3599.5979    4700.6093   -1254.8589   -14244.544   -2781.6457   -16529.422   -20292.659     82.29675 
   50200    849.77617   -107.65767   0.76889534   -106.88878   -4626.0629    4.3524979    4.3524979    4.3524979   -4626.0629    1024.0704    -16108.24    1205.9804     8033.172    5411.9731    15746.623    82.454753 
   50300    482.20354   -107.32727    0.4363079   -106.89096   -210.80308    4.3433997    4.3433997    4.3433997   -210.80308    1471.5397    10176.851     -12280.8    1517.9843   -11935.449   -6700.8641    81.938763 
   50400    479.02633   -107.32579   0.43343309   -106.89235    -11897.31    4.3544379    4.3544379    4.3544379    -11897.31   -1401.3991   -10823.495   -23467.036   -595.13233   -9157.8195   -9457.2666     82.56506 
   50500    774.01051   -107.58951   0.70034098   -106.88917    6461.8612    4.3454414    4.3454414    4.3454414    6461.8612    6950.0446   -1312.1509     13747.69    7338.1404    3690.6375    13927.342    82.054363 
   50600    548.59509   -107.38987   0.49638036   -106.89349   -5292.6781    4.3489803    4.3489803    4.3489803   -5292.6781   -5302.4405   -285.13688   -10290.457   -2916.2149   -18637.118   -15223.626    82.255004 
   50700    609.36003   -107.44159   0.55136176   -106.89022    438.31033    4.3520659    4.3520659    4.3520659    438.31033    5252.3513   -5308.9585    1371.5382    1105.3399    4271.7002   -1602.5539    82.430206 
   50800     565.0443   -107.40137   0.51126396   -106.89011    1652.6582    4.3441807    4.3441807    4.3441807    1652.6582    4020.2124    8716.3482    -7778.586    5725.2988   -8142.2057    4575.8637    81.982969 
   50900    453.40397   -107.30568   0.41024944   -106.89543   -8639.0973    4.3525487    4.3525487    4.3525487   -8639.0973   -3100.7686   -452.28802   -22364.235   -3666.0193   -13641.598   -17900.361    82.457643 
   51000    901.42396   -107.70438   0.81562734   -106.88876    4905.6883    4.3464408    4.3464408    4.3464408    4905.6883    3500.0978   -2703.7895    13920.757    3944.8207    8069.5648    1504.6872    82.110994 
   51100    450.26517   -107.30111   0.40740939    -106.8937   -7096.1551    4.3500674    4.3500674    4.3500674   -7096.1551   -16733.361     7959.144   -12514.248    5662.9563    -18708.52   -3410.4015    82.316702 
   51200    505.58794   -107.34994   0.45746659   -106.89247   -5448.0232    4.3500198    4.3500198    4.3500198   -5448.0232   -2471.5525   -1189.9359   -12682.581   -4931.6144     -1765.32   -15428.341       82.314 
   51300    738.05388   -107.55748   0.66780666   -106.88968    9591.0809    4.3448544    4.3448544    4.3448544    9591.0809    2876.4094    11401.314    14495.519    9081.3952    1600.6864     7224.993    82.021118 
   51400     537.2458   -107.38085   0.48611129   -106.89474   -8213.8644    4.3531688    4.3531688    4.3531688   -8213.8644   -10755.806     -2813.24   -11072.547    1736.9841    -19611.93   -11286.291    82.492889 
   51500    661.47201   -107.48856   0.59851378   -106.89005    7800.6301    4.3467467    4.3467467    4.3467467    7800.6301    7228.2129    5434.3207    10739.357   -1003.9592    6737.4007   -4329.3481     82.12833 
   51600    524.76049   -107.36563   0.47481432   -106.89081   -1717.2533    4.3478386    4.3478386    4.3478386   -1717.2533   -9637.7635    11764.063   -7278.0597    11692.273   -9409.9551    4214.3795    82.190238 
   51700    469.26802   -107.31775   0.42460356   -106.89315    -7476.439    4.3522879    4.3522879    4.3522879    -7476.439   -3095.9641    750.61153   -20083.964    -1376.348   -12420.918   -12895.786    82.442822 
   51800    872.34791   -107.67829   0.78931872   -106.88897    6119.6441    4.3452826    4.3452826    4.3452826    6119.6441   -1222.1657    5723.4656    13857.632    4888.4936    11575.368    3736.1802    82.045373 
   51900    535.42523   -107.37712     0.484464   -106.89265    -4758.892    4.3499876    4.3499876    4.3499876    -4758.892    -19034.97    6853.7285   -2095.4342    8621.0325   -17705.839    -3981.303    82.312171 
   52000     482.1681   -107.32871   0.43627583   -106.89244   -3553.9971     4.350769     4.350769     4.350769   -3553.9971    -107.8601    717.74981   -11271.881   -2442.0938    1498.1021   -10728.776    82.356536 
   52100    629.86414   -107.46025   0.56991431   -106.89034    9191.0379    4.3445944    4.3445944    4.3445944    9191.0379    1435.9538    17357.529    8779.6308    6769.1983    4688.0277    1971.5949    82.006393 
   52200    617.06632   -107.45127   0.55833457   -106.89293   -5705.0218    4.3525454    4.3525454    4.3525454   -5705.0218   -4914.9005   -5785.2093   -6414.9555    5235.2963   -18566.632   -9804.9878    82.457454 
   52300    682.39386   -107.50777   0.61744431   -106.89033    4640.1759    4.3481226    4.3481226    4.3481226    4640.1759    3966.6759    6502.2302    3451.6216   -3026.9979    13085.829   -11014.116    82.206346 
   52400    545.33268   -107.38319   0.49342847   -106.88976     127.6453    4.3457864    4.3457864    4.3457864     127.6453   -11286.724    12047.549   -377.88917    11672.343   -8312.3309    3069.0194    82.073912 
   52500    454.78022    -107.3041    0.4114947   -106.89261   -9900.5445    4.3536959    4.3536959    4.3536959   -9900.5445   -3114.3313   -3986.2293   -22601.073   -2151.1561   -6609.5665   -15835.748    82.522862 
   52600    771.77927   -107.58837   0.69832211   -106.89005     7668.803    4.3439957    4.3439957    4.3439957     7668.803      2883.39    10719.249    9403.7695    1268.7326    13354.449   -4291.0279    81.972497 
   52700    644.65152   -107.47508   0.58329424   -106.89178   -2432.8398    4.3504471    4.3504471    4.3504471   -2432.8398     -8290.66    -1808.457    2800.5975     11450.34   -13081.111    1126.8729    82.338256 
   52800     495.2665    -107.3396   0.44812753   -106.89147   -3356.1517     4.351303     4.351303     4.351303   -3356.1517    2444.6447   -2506.3661   -10006.734   -8439.2375    2764.5887   -17788.546    82.386868 
   52900    567.39306   -107.40286   0.51338917   -106.88947    8904.6296    4.3429549    4.3429549    4.3429549    8904.6296    3713.9667    16095.513    6904.4088    11138.307    3919.6282    7323.3115     81.91359 
   53000    588.55576   -107.42477   0.53253762   -106.89223   -9491.6744    4.3543395    4.3543395    4.3543395   -9491.6744   -2749.3403   -13970.473    -11755.21    4101.5618   -10309.523   -9430.3416    82.559465 
   53100    735.33898   -107.55541   0.66535016   -106.89006    4475.0759    4.3465833    4.3465833    4.3465833    4475.0759    7017.7765    5661.0446    746.40643   -3697.9807    4869.4992   -9590.5556    82.119071 
   53200    598.91143    -107.4323   0.54190765    -106.8904   -508.73051    4.3459388    4.3459388    4.3459388   -508.73051   -6985.7816    3002.0238    2457.5663    15215.163   -739.76074    8214.4423    82.082544 
   53300     407.3572   -107.26088   0.36858536   -106.89229    -10622.91    4.3537594    4.3537594    4.3537594    -10622.91    25.384632   -6571.3684   -25322.745   -2107.0564   -6716.1908   -18171.476     82.52647 
   53400    718.82267   -107.53982   0.65040586   -106.88941     7518.415    4.3454945    4.3454945    4.3454945     7518.415    8420.1629    10364.085    3770.9966    4178.3338    5940.5688     1726.946    82.057373 
   53500    645.90126   -107.47648   0.58442504   -106.89205     -752.487    4.3479065    4.3479065    4.3479065     -752.487    2798.0059   -8725.4628    3669.9959    12445.609   -6352.2591    -2116.346    82.194089 
   53600    588.33671   -107.42453   0.53233942   -106.89219   -1494.5519    4.3519641    4.3519641    4.3519641   -1494.5519    7759.5288   -2290.0311   -9953.1533    -3389.482   -3701.0018   -18397.255    82.424421 
   53700    594.08233   -107.42734   0.53753817    -106.8898    5412.2593    4.3458992    4.3458992    4.3458992    5412.2593    5124.0454    6703.6099    4409.1225    9522.8798    4030.1272    9043.0608    82.080304 
   53800    399.51811   -107.25585   0.36149238   -106.89436   -6382.4624    4.3484422    4.3484422    4.3484422   -6382.4624    5813.2045   -7965.1562   -16995.436    6724.4169   -8161.3398    -13788.81    82.224473 
   53900    823.38082   -107.63552   0.74501227   -106.89051   -360.22795    4.3522437    4.3522437    4.3522437   -360.22795     6050.981    1118.4444   -8250.1093   -5036.4636    1758.9916   -10079.534    82.440311 
   54000     686.2593   -107.51257   0.62094184   -106.89163    3404.7079    4.3450931    4.3450931    4.3450931    3404.7079    4544.8954   -2040.3884    7709.6168    12714.572    1371.8331     7953.872    82.034637 
   54100    384.65476   -107.24284   0.34804371    -106.8948   -7278.2477    4.3493522    4.3493522    4.3493522   -7278.2477    7479.4176   -1468.5236   -27845.637   -2777.6131   -6910.9159   -23090.918    82.276109 
   54200    699.29566   -107.52141   0.63273741   -106.88867     4968.371    4.3515752    4.3515752    4.3515752     4968.371    8261.4931    8557.8447   -1914.2249    3153.9058    789.94156      2343.82    82.402329 
   54300    546.48877   -107.38859   0.49447453   -106.89412    4402.8672    4.3435791    4.3435791    4.3435791    4402.8672    16847.582   -5803.9769     2164.997    13082.037   -846.03271   -3921.5447    81.948917 
   54400    634.46874    -107.4689   0.57408065   -106.89482   -532.92051     4.352245     4.352245     4.352245   -532.92051    10428.424    1063.7997   -13090.985   -5205.4661    -10440.28   -18852.161    82.440385 
   54500    763.33241    -107.5802    0.6906792   -106.88952    6275.7243    4.3478432    4.3478432    4.3478432    6275.7243    8392.9389      2926.73    7507.5039    14855.631    1188.8619    9037.6822    82.190499 
   54600    281.68238   -107.14985   0.25487214   -106.89498   -4155.4254    4.3461558    4.3461558    4.3461558   -4155.4254    13679.644   -844.92079   -25300.999    3753.2453   -4265.9381   -17345.447    82.094843 
   54700    725.98849   -107.54811   0.65688964   -106.89122   -3737.4509    4.3526253    4.3526253    4.3526253   -3737.4509    5906.2521    927.52345   -18046.128    819.26911   -9445.1332   -4785.2631    82.461997 
   54800    718.17543   -107.54128   0.64982022   -106.89146    11280.683    4.3444248    4.3444248    4.3444248    11280.683    18489.977    2966.4989    12385.573    12654.356    4321.4941   -195.09029    81.996788 
   54900    523.06591   -107.36756   0.47328103   -106.89428   -6825.8983    4.3509119    4.3509119    4.3509119   -6825.8983    10409.164   -5149.8225   -25737.037   -2523.6828   -9525.7905    -16921.92    82.364652 
   55000    625.59845   -107.45533   0.56605462   -106.88927    9652.4623    4.3480538    4.3480538    4.3480538    9652.4623    13449.649    14280.891    1226.8461    4061.1476    -1960.692    4522.8754    82.202443 
   55100    476.63968   -107.32381    0.4312736   -106.89254    14.094824    4.3476964    4.3476964    4.3476964    14.094824     14887.44   -9496.6086   -5348.5472    6184.4297    1090.3145   -11014.657    82.182176 
   55200    668.36234   -107.49621   0.60474829   -106.89146   -2002.6934    4.3506262    4.3506262    4.3506262   -2002.6934    11392.387   -5675.9777   -11724.489   -3919.7516   -9399.0039   -9970.7918    82.348428 
   55300    717.98863   -107.53987    0.6496512   -106.89022    6125.0652    4.3450692    4.3450692    4.3450692    6125.0652    7390.0116    1687.0598    9298.1242    6311.0583    6241.3158    2166.7752    82.033285 
   55400    443.05767   -107.29433   0.40088789   -106.89345   -9785.7644    4.3525062    4.3525062    4.3525062   -9785.7644    5582.7863   -9162.4334   -25777.646    3275.9328   -2973.0657   -18114.709    82.455225 
   55500    723.39355     -107.543   0.65454169   -106.88845    4060.7599    4.3461676    4.3461676    4.3461676    4060.7599    14567.776    7978.6508   -10364.147   -1321.2822   -2524.3799   -2848.0326    82.095513 
   55600    464.59931   -107.31423   0.42037922   -106.89385    1807.8874     4.348744     4.348744     4.348744    1807.8874    5496.9889    -4209.454    4136.1274    11674.286    8255.9373   -4099.9734    82.241596 
   55700    707.35268   -107.53196   0.64002757   -106.89193   -3210.2502    4.3510225    4.3510225    4.3510225   -3210.2502    12942.112   -12943.132   -9629.7307   -886.91661   -5359.6573   -17302.049    82.370932 
   55800    689.90971   -107.51415   0.62424481    -106.8899    11928.246      4.34414      4.34414      4.34414    11928.246    8601.7346    12902.229    14280.775    6956.1075    2784.7644    5825.9024    81.980665 
   55900     302.1174   -107.17062   0.27336217   -106.89726   -12950.146    4.3521444    4.3521444    4.3521444   -12950.146   -5205.6391   -18316.504   -15328.295     7686.906    7042.0339   -13748.656    82.434668 
   56000    831.06498   -107.64237   0.75196506   -106.89041       3689.3    4.3477763    4.3477763    4.3477763       3689.3    15874.166   -5063.4933    257.22755   -3835.8456   -3946.4761   -5755.1408    82.186705 
   56100     618.7191   -107.45453   0.55983005    -106.8947   -2702.5817    4.3478361    4.3478361    4.3478361   -2702.5817   -2451.5864    -8968.196    3312.0373     10489.54     6489.137    3025.6779      82.1901 
   56200    389.76274   -107.25038   0.35266552   -106.89771   -7664.3079      4.35028      4.35028      4.35028   -7664.3079   -2396.3664   -9542.0773    -11054.48   -688.53657    4852.4313   -17463.597     82.32877 
   56300    895.94036   -107.69898   0.81066566   -106.88831    7560.8653    4.3472957    4.3472957    4.3472957    7560.8653    15080.746    7067.5718    534.27859   -1298.8823   -4976.6083    7646.2029    82.159456 
   56400    298.14984   -107.16829   0.26977224   -106.89852   -1862.9275     4.349668     4.349668     4.349668   -1862.9275    3764.1996   -7232.2599   -2120.7222    9230.6004     7666.323   -7697.1295    82.294029 
   56500    713.67771   -107.54071   0.64575059   -106.89496   -230.40386    4.3485889    4.3485889    4.3485889   -230.40386    8116.0645   -10504.195    1696.9187   -5416.4841   -1505.3986   -9929.5474    82.232798 
   56600    752.08919   -107.57134    0.6805061   -106.89084     6158.857     4.348863     4.348863     4.348863     6158.857    6885.9841    92.173808    11498.413    3843.7016   -462.28803    8557.6185    82.248346 
   56700    293.43484   -107.16304   0.26550601   -106.89753    -8453.367     4.348475     4.348475     4.348475    -8453.367   -4356.9171   -9221.9275   -11781.257    5538.5958    6853.6089   -16825.302    82.226334 
   56800    793.31358   -107.60815    0.7178068   -106.89034    1228.2848    4.3497174    4.3497174    4.3497174    1228.2848    9242.1514    2345.0467   -7902.3437   -3896.1731    -3167.916    71.496618    82.296834 
   56900    671.27225   -107.50001   0.60738123   -106.89263   -728.45852    4.3482558    4.3482558    4.3482558   -728.45852    10678.313   -8953.7459   -3909.9427    8054.7093    3576.3229    2087.0297      82.2139 
   57000    414.09409   -107.26999   0.37468103   -106.89531   -477.63213    4.3476407    4.3476407    4.3476407   -477.63213   -588.34918     2187.524   -3032.0712    1179.6561    3761.1629   -16937.513    82.179017 
   57100    742.90636   -107.56141   0.67219729   -106.88921    -244.0299    4.3508625    4.3508625    4.3508625    -244.0299    2457.3234    4837.9558   -8027.3689    754.93435    -5669.923    9692.9569    82.361849 
   57200    459.22172   -107.30943   0.41551346   -106.89392    5098.5785    4.3466013    4.3466013    4.3466013    5098.5785    16006.455    245.52364   -956.24315    6037.7224    4070.9768   -9404.3283     82.12009 
   57300    688.90554   -107.51524   0.62333621    -106.8919   -3558.2917    4.3500909    4.3500909    4.3500909   -3558.2917    3847.3747   -4398.5262   -10123.724   -2602.9752   -484.56583   -8716.5666    82.318034 
   57400    693.72878   -107.51706   0.62770038   -106.88936     3339.706    4.3488098    4.3488098    4.3488098     3339.706    10375.503    1303.8594   -1660.2445    1296.3045   -7297.9218    9340.8465    82.245329 
   57500    447.40332   -107.29749   0.40481993   -106.89267    -3439.633    4.3479174    4.3479174    4.3479174    -3439.633    3499.1424   -4212.8353   -9605.2062    1975.5172    6889.0118   -19675.382    82.194705 
   57600     622.5317   -107.45423   0.56327977   -106.89095   -2082.6747    4.3509237    4.3509237    4.3509237   -2082.6747   -2469.2379    11323.057   -15101.843   -1818.2173   -9083.7763    6366.8461    82.365324 
   57700    712.94124   -107.53592   0.64508422   -106.89084    5696.4337    4.3449249    4.3449249    4.3449249    5696.4337    23344.138   -354.20026   -5900.6369    1317.4452   -2542.8442   -3902.7601    82.025113 
   57800    515.97862   -107.35952    0.4668683   -106.89265   -1009.0139    4.3516935    4.3516935    4.3516935   -1009.0139    4886.6836   -2291.9934    -5621.732    3403.4352   -44.200517   -15988.632     82.40905 
   57900    623.85941   -107.45411   0.56448111   -106.88963    481.14834    4.3482328    4.3482328    4.3482328    481.14834   -2149.5158    14184.552   -10591.591    -2093.576   -12998.653    10645.901    82.212596 
   58000    502.04079   -107.34634   0.45425706   -106.89208    5854.5638     4.345787     4.345787     4.345787    5854.5638    21629.472   -427.53328   -3638.2469    4399.4602    3571.3169    -19048.03    82.073944 
   58100    708.06129   -107.53159   0.64066874   -106.89092   -6082.9491    4.3535734    4.3535734    4.3535734   -6082.9491     940.3624   -1995.6418   -17193.568    4458.9042   -7825.4291   -3346.0107    82.515893 
   58200    663.48503   -107.49002    0.6003352   -106.88969    7763.8781    4.3434589    4.3434589    4.3434589    7763.8781    19107.512    8795.1972   -4611.0746   -962.71736   -7982.0939    741.84986    81.942109 
   58300    478.72704   -107.32563   0.43316229   -106.89247   -5640.3599    4.3514376    4.3514376    4.3514376   -5640.3599    8386.0224   -13133.758   -12173.344    8722.2292    2914.6797   -20838.964    82.394514 
   58400    599.13646   -107.43205   0.54211126   -106.88994     1095.609    4.3495685    4.3495685    4.3495685     1095.609   -7980.5939     22731.72   -11464.299    1139.3057   -13269.515    5839.2307     82.28838 
   58500    638.43068   -107.46907    0.5776655    -106.8914    2577.3909    4.3447559    4.3447559    4.3447559    2577.3909    21024.364    -1920.786   -11371.405    2329.0036    -1846.264   -13484.952    82.015537 
   58600    603.45687   -107.43772   0.54602046    -106.8917   -2222.1213    4.3528245    4.3528245    4.3528245   -2222.1213    10662.122   -6487.9085   -10840.577    5024.3897   -1860.8416   -12654.864    82.473318 
   58700    671.82315   -107.49712    0.6078797   -106.88924    3698.5387    4.3452144    4.3452144    4.3452144    3698.5387    760.79879    17377.378   -7042.5604   -2875.7837   -13073.174    3167.7526    82.041509 
   58800     426.3777   -107.27884    0.3857955   -106.89304   -3796.7433    4.3504961    4.3504961    4.3504961   -3796.7433    11501.717   -11216.956   -11674.991    1763.8541    3842.3134   -21277.514    82.341041 
   58900     687.3365   -107.51239   0.62191651   -106.89047    -349.2904    4.3487118    4.3487118    4.3487118    -349.2904    1250.7319    7163.0616   -9461.6647    267.50216   -9031.3394     594.0723    82.239768 
   59000    677.46155   -107.50371   0.61298145   -106.89073    912.16099    4.3474428    4.3474428    4.3474428    912.16099    9977.3945    1693.5424   -8934.4539   -2491.3211   -8595.9339   -9022.5733    82.167794 
   59100    550.95051   -107.39025    0.4985116   -106.89174   -6056.2257    4.3508549    4.3508549    4.3508549   -6056.2257    10503.358    -15854.89   -12817.145    2443.6363    1400.4765   -15962.099    82.361413 
   59200    562.51241   -107.39893   0.50897305   -106.88996    4067.5217    4.3454297    4.3454297    4.3454297    4067.5217   -8340.7229     26198.55   -5655.2623    2134.4966    -14124.14    6413.1854      82.0537 
   59300     608.3288   -107.44149   0.55042868   -106.89106   -6379.3185    4.3522199    4.3522199    4.3522199   -6379.3185    2792.6745   -5144.2865   -16786.344   -2508.4253   -146.82465   -20582.467    82.438957 
   59400    614.15683   -107.44747     0.555702   -106.89177    8157.1062    4.3452785    4.3452785    4.3452785    8157.1062    18185.524    6066.9536     218.8406    6889.1337   -3789.0357   -1019.8723     82.04514 
   59500    646.97921   -107.47676   0.58540039   -106.89136   -921.02671    4.3493346    4.3493346    4.3493346   -921.02671    -4154.527    5514.4667   -4123.0199   -2394.1799   -10217.955    449.84921     82.27511 
   59600    575.66795   -107.41076   0.52087646   -106.88988   -1299.9267    4.3515227    4.3515227    4.3515227   -1299.9267    5981.5463   -4046.3907   -5834.9358    1702.3466    5459.1102   -18299.988    82.399344 
   59700    497.43136   -107.34117   0.45008635   -106.89108    4119.8552    4.3422403    4.3422403    4.3422403    4119.8552   -2500.7046    16801.574   -1941.3041    7071.1733   -10715.114    10623.827    81.873159 
   59800    669.48054   -107.49715   0.60576006   -106.89139   -7471.1658    4.3550759    4.3550759    4.3550759   -7471.1658   -8215.9489   -2565.4133   -11632.135    -6423.413   -4254.6736   -8744.6697    82.601357 
   59900    784.17393   -107.59916   0.70953705   -106.88963    7835.2777    4.3445826    4.3445826    4.3445826    7835.2777    16999.222    5412.5239    1094.0869    8086.8146    3632.2666   -6667.6657    82.005723 
   60000    357.09972   -107.21757   0.32311133   -106.89446   -1659.4628    4.3479296    4.3479296    4.3479296   -1659.4628   -13176.893    14045.539   -5847.0337   -983.73377   -12533.075    10807.208    82.195397 
   60100    714.77161   -107.53563   0.64674037   -106.88889    -1504.661    4.3530494    4.3530494    4.3530494    -1504.661    -6072.131    5606.8348   -4048.6868   -3575.6047    2079.4858   -10749.917    82.486104 
   60200    534.28129     -107.376   0.48342894   -106.89257    11003.882    4.3423628    4.3423628    4.3423628    11003.882    10476.556    15825.958    6709.1326    7620.1904   -2543.5308    6242.6587    81.880092 
   60300    550.45311   -107.39533   0.49806154   -106.89727   -10827.661    4.3528988    4.3528988    4.3528988   -10827.661   -15658.091   -10012.211   -6812.6798   -6122.6101   -9708.3912    5377.7641    82.477541 
   60400    918.29301   -107.71883   0.83089081   -106.88794    12947.737    4.3464372    4.3464372    4.3464372    12947.737    11847.976    14050.732    12944.503    620.56524    1957.2348   -5016.6702    82.110788 
   60500    236.37696   -107.11229   0.21387884   -106.89841   -12341.681    4.3498417    4.3498417    4.3498417   -12341.681   -21405.908    -3324.936   -12294.197    4187.7973   -9714.5296    9763.7402    82.303888 
   60600    586.62614   -107.42758   0.53079166   -106.89679   -1345.1884    4.3480713    4.3480713    4.3480713   -1345.1884   -8075.7288    5784.4472   -1744.2836   -9680.2003    -5736.235    2760.5433    82.203435 
   60700    933.54472   -107.73643   0.84469088   -106.89174    7437.0465    4.3475158    4.3475158    4.3475158    7437.0465    13372.471    7040.2409    1898.4273    4713.6346    189.63506    386.13849    82.171932 
   60800    295.86532   -107.16906   0.26770516   -106.90136   -11790.518    4.3517307    4.3517307    4.3517307   -11790.518   -18377.523   -8586.0631   -8407.9682    -1859.082   -11473.414    10935.651    82.411163 
   60900    796.44669   -107.61126    0.7206417   -106.89062    9330.0528    4.3441828    4.3441828    4.3441828    9330.0528    5941.5592    12952.502    9096.0968   -5639.6148    1110.5461    907.52964    81.983087 
   61000    452.17176   -107.30466   0.40913451   -106.89552    -3961.454    4.3526777    4.3526777    4.3526777    -3961.454   -10478.092    3129.2999   -4535.5698    7315.2212   -2783.6105    1954.4552    82.464975 
   61100    511.71857   -107.36076   0.46301371   -106.89775   -2120.4244    4.3454156    4.3454156    4.3454156   -2120.4244   -1601.1153   -2595.7566   -2164.4013    -6416.778   -12551.353    11799.058    82.052906 
   61200    925.99269   -107.72787   0.83785764   -106.89001    9064.8711    4.3499317    4.3499317    4.3499317    9064.8711    19193.278    6738.4981     1262.837    2488.7653    6603.8638   -7880.4612    82.308998 
   61300    436.40455   -107.29154   0.39486801   -106.89667   -8685.4125    4.3498761    4.3498761    4.3498761   -8685.4125    -16524.92   -168.05132   -9363.2659    1880.9229   -10013.918    7032.6406    82.305842 
   61400    446.40365   -107.29716    0.4039154   -106.89324    3312.4511    4.3444488    4.3444488    4.3444488    3312.4511    4164.7417    8726.3099   -2953.6982   -4692.5031   -4393.4294    2434.3216    81.998151 
   61500    723.90131   -107.54447   0.65500112   -106.88947   -6860.5535    4.3542483    4.3542483    4.3542483   -6860.5535    -2002.116   -260.57725   -18318.967    3731.9399    6326.4043    -11525.14    82.554276 
   61600    586.82028   -107.42388   0.53096732   -106.89291    5202.4559    4.3431552    4.3431552    4.3431552    5202.4559    2648.0058    7174.8582    5784.5038     104.0467   -13547.202    11487.801    81.924921 
   61700     720.4078   -107.54241   0.65184012   -106.89057   -2415.3076    4.3518828    4.3518828    4.3518828   -2415.3076     10901.44   -7017.4944   -11129.868   -931.88392    4402.1833   -11492.058    82.419802 
   61800    498.95412   -107.34287   0.45146418    -106.8914    2419.6585    4.3478419    4.3478419    4.3478419    2419.6585   -3984.6123    13751.719   -2508.1312    3521.7585   -2153.3283   -4158.2885    82.190426 
   61900    497.06445   -107.34117   0.44975436   -106.89141   -36.912706    4.3462642    4.3462642    4.3462642   -36.912706    4594.5608     3818.412   -8523.7108    1132.1707   -10106.487    5695.1711    82.100983 
   62000    665.41905   -107.49244   0.60208514   -106.89035   -3796.1789     4.353111     4.353111     4.353111   -3796.1789    15385.937   -5501.8588   -21272.615   -2139.5887    6874.5441   -19046.859    82.489607 
   62100    746.59293   -107.56534   0.67553298   -106.88981    5309.8571     4.342574     4.342574     4.342574    5309.8571    483.87941    16112.152   -666.46011    3496.0456   -10267.288     5654.283    81.892037 
   62200     499.3462   -107.34311   0.45181894   -106.89129   -8020.6213     4.353595     4.353595     4.353595   -8020.6213    665.53607   -7073.1751   -17654.225   -1410.7557   -2722.9828    -7643.633    82.517123 
   62300    519.57234   -107.36069   0.47011997   -106.89057   -140.24566    4.3459496    4.3459496    4.3459496   -140.24566    6722.9376    7683.2814   -14826.956   -1048.3042    2648.3986   -15531.399    82.083159 
   62400    646.20802   -107.47474   0.58470259   -106.89004    3195.3051    4.3478516    4.3478516    4.3478516    3195.3051    873.48784    12422.031   -3709.6034    1045.0229   -16473.594    7206.2331    82.190976 
   62500    680.81856   -107.50772   0.61601894    -106.8917   -5221.1806    4.3518154    4.3518154    4.3518154   -5221.1806    22870.253   -18310.967   -20222.828   -1609.7597    5220.2266   -20825.547    82.415974 
   62600    627.54682   -107.45835   0.56781755   -106.89053    9259.3864    4.3430589    4.3430589    4.3430589    9259.3864    7089.7584    21698.142   -1009.7414   -813.83854   -9532.2777   -3527.1779    81.919476 
   62700    496.81738   -107.34005    0.4495308   -106.89052   -10207.868    4.3539687    4.3539687    4.3539687   -10207.868    -7708.054    253.50756   -23169.058   -1465.2111   -11672.772   -4788.7333    82.538374 
   62800    505.07096   -107.34812   0.45699882   -106.89112    1467.5964    4.3445012    4.3445012    4.3445012    1467.5964    20983.107    1259.3409   -17839.659   -1517.2088    5402.0891   -20776.268    82.001114 
   62900     771.3713   -107.58796   0.69795297      -106.89   -1334.4099    4.3501871    4.3501871    4.3501871   -1334.4099   -4619.1907    15024.373   -14408.412    26.816919    -18015.72    5054.3923    82.323497 
   63000    632.51076   -107.46395   0.57230903   -106.89164   -3942.4018    4.3504448    4.3504448    4.3504448   -3942.4018    13674.122     -8471.42   -17029.907    1289.7201   -1072.9735    -18645.54    82.338128 
   63100    532.24789   -107.37224   0.48158908   -106.89065    5496.1276    4.3429411    4.3429411    4.3429411    5496.1276    14931.204     11505.08   -9947.9019    788.03672   -3980.2342   -6976.1324    81.912809 
   63200    494.62776   -107.33804   0.44754959   -106.89049   -6860.5113    4.3547115    4.3547115    4.3547115   -6860.5113   -10013.388    9835.0737   -20403.219    2378.7989   -14089.719    632.35226    82.580626 
   63300    661.80173   -107.48943   0.59881212   -106.89061    4566.5969     4.343626     4.343626     4.343626    4566.5969    31476.612   -7261.8689   -10514.952    3159.7165    4976.2855   -20962.593    81.951569 
   63400    710.10809   -107.53382   0.64252072    -106.8913   -243.19828    4.3495314    4.3495314    4.3495314   -243.19828    1342.0768    10018.502   -12090.174    432.25858   -11606.556    7021.7469    82.286279 
   63500    528.92721   -107.37009   0.47858446    -106.8915   -6920.9029    4.3513143    4.3513143    4.3513143   -6920.9029   -496.15142    1511.5995   -21778.157    1140.5261   -5140.9198   -9305.9439    82.387508 
   63600    541.89597   -107.37959   0.49031886   -106.88927    2405.8051    4.3430776    4.3430776    4.3430776    2405.8051    13323.035    4634.9764   -10740.596    2631.4342    1360.8901   -10547.862    81.920533 
   63700    570.16597   -107.40759   0.51589815   -106.89169    -5297.636     4.352081     4.352081     4.352081    -5297.636   -1059.4217    7525.3683   -22358.854    -3186.786   -16179.596    10474.441    82.431064 
   63800    751.43983   -107.57054   0.67991855   -106.89062    5072.4625    4.3467452    4.3467452    4.3467452    5072.4625    24858.045   -2925.9526   -6714.7048    1356.6072    4492.4386   -17203.322    82.128247 
   63900    607.80392     -107.441   0.54995376   -106.89105   -69.286906    4.3486163    4.3486163    4.3486163   -69.286906    11841.334   -137.16146   -11912.033   -702.77126   -11215.534     4296.808    82.234353 
   64000    369.15245   -107.22711    0.3340169   -106.89309   -2091.6564    4.3481283    4.3481283    4.3481283   -2091.6564   -3207.9098    10885.184   -13952.243   -3814.5642   -7876.7289     1341.984    82.206669 
   64100    730.73554   -107.55021   0.66118487   -106.88902   -844.89122    4.3484886    4.3484886    4.3484886   -844.89122    8952.5633   -3360.7185   -8126.5185    1873.6636    4223.9918   -12830.547    82.227109 
   64200     615.3993   -107.44964   0.55682622   -106.89281    -2938.603    4.3491332    4.3491332    4.3491332    -2938.603    7831.5901   -848.48455   -15798.915   -2308.3591   -16828.706     14023.32    82.263679 
   64300    678.57629    -107.5054   0.61399008   -106.89141    1366.1554    4.3460826    4.3460826    4.3460826    1366.1554    8629.6675    6126.2433   -10657.445   -2117.9516    2739.9393   -9666.4077    82.090696 
   64400    568.41188   -107.40452   0.51431101   -106.89021   -3522.3092    4.3519873    4.3519873    4.3519873   -3522.3092    9514.5053    -4848.458   -15232.975    4592.6417    -2119.388    2221.7557    82.425743 
   64500    358.43171   -107.21892   0.32431654    -106.8946    2514.1743    4.3444916    4.3444916    4.3444916    2514.1743    12701.034    9470.9956   -14629.506   -320.81391   -11191.405    10041.621    82.000571 
   64600    867.56151   -107.67482   0.78498789   -106.88983    3220.8946    4.3504813    4.3504813    4.3504813    3220.8946     9345.823    1059.4114   -742.55068      883.464    7363.9873   -8780.9079    82.340201 
   64700    626.88329   -107.46044   0.56721717   -106.89322   -566.38299    4.3494961    4.3494961    4.3494961   -566.38299    16494.103   -6888.8717    -11304.38    7784.3707   -7021.5429    12485.776    82.284273 
   64800     433.2987    -107.2859   0.39205777   -106.89384    1482.0077    4.3447573    4.3447573    4.3447573    1482.0077   -3441.9579    13587.444   -5699.4626   -5430.1436   -5984.7064     3027.876    82.015621 
   64900     698.6748   -107.52081   0.63217564   -106.88864   -3336.6749    4.3530243    4.3530243    4.3530243   -3336.6749    1626.0811   -2450.3456   -9185.7601    5261.4895    7867.2663    403.34204    82.484679 
   65000    438.48205    -107.2919   0.39674777   -106.89515    1884.1704    4.3449371    4.3449371    4.3449371    1884.1704    19739.966   -2519.5406   -11567.914    5119.2916   -12987.124    14873.067    82.025804 
   65100    830.69689    -107.6435     0.751632   -106.89187     1595.321    4.3488875    4.3488875    4.3488875     1595.321    6219.3326    4836.4184   -6269.7881   -6758.4106     3356.166   -388.18247    82.249737 
   65200    603.47318   -107.43848   0.54603522   -106.89245    1202.8216    4.3505926    4.3505926    4.3505926    1202.8216    16947.227   -6029.0048    -7309.757     12171.43    89.858793    6835.9757    82.346518 
   65300    331.79716   -107.19578   0.30021705   -106.89556   -4708.7357    4.3467252    4.3467252    4.3467252   -4708.7357   -5139.1345    5637.7062   -14624.779   -2579.1592   -11552.013    12872.965    82.127115 
   65400    815.59157   -107.62691   0.73796439   -106.88895    6724.9694    4.3490706    4.3490706    4.3490706    6724.9694    6633.7371    7160.4609    6380.7101     629.8153    6887.2729   -4501.3104    82.260125 
   65500    559.80374   -107.40134   0.50652219   -106.89481   -37.999655    4.3481591    4.3481591    4.3481591   -37.999655    15225.267   -9250.5927   -6088.6735    10898.207   -7928.6329    13246.926    82.208417 
   65600    586.32322   -107.42421   0.53051757   -106.89369   -406.94595    4.3502626    4.3502626    4.3502626   -406.94595    1383.3613    2903.6577   -5507.8569   -6040.5445   -4804.6649    4782.2087    82.327786 
   65700    702.16728   -107.52471   0.63533571   -106.88938    4551.0875    4.3465502    4.3465502    4.3465502    4551.0875    9115.2646     3140.575     1397.423    7878.7345    3848.1308   -3819.9746    82.117193 
   65800    314.79575   -107.18157   0.28483381   -106.89673   -8337.7075    4.3492836    4.3492836    4.3492836   -8337.7075   -1081.4002    -8776.181   -15155.541     7245.106   -10690.722    16377.665    82.272214 
   65900    852.40444   -107.66157   0.77127345    -106.8903    2212.9247    4.3493623    4.3493623    4.3493623    2212.9247    6159.1205    1009.8193   -530.16586   -3380.3127   -3029.8306    -5119.994    82.276678 
   66000    614.38865   -107.44917   0.55591176   -106.89326   -129.85857    4.3479312    4.3479312    4.3479312   -129.85857    12523.854   -16185.047     3271.617    12191.595   -590.21578    4250.0166    82.195492 
   66100    413.81441   -107.27083   0.37442797    -106.8964   -5418.1696    4.3496281    4.3496281    4.3496281   -5418.1696   -5257.4035    953.61073   -11950.716    3180.0122     -14354.3    10837.012    82.291766 
   66200    787.29513   -107.60084   0.71236118   -106.88848    8206.8323    4.3471762    4.3471762    4.3471762    8206.8323    6030.5674    7702.9322    10886.997   -2491.9556    1773.3655   -6309.9092    82.152681 
   66300    399.31038   -107.25724   0.36130442   -106.89594    -9746.601    4.3507449    4.3507449    4.3507449    -9746.601   -5733.7961    -15437.97   -8068.0371    13224.328   -6143.6683    10748.096    82.355168 
   66400     633.2975    -107.4671   0.57302089   -106.89407    1760.0694    4.3470847    4.3470847    4.3470847    1760.0694    2972.2616   -518.46104    2826.4076   -2073.9342   -14277.057    5112.5731    82.147493 
   66500    830.63652   -107.64196   0.75157738   -106.89038   -1012.2492    4.3492205    4.3492205    4.3492205   -1012.2492     3140.419   -10974.783     4797.616    3438.2937    6780.0692    -2177.542     82.26863 
   66600    318.66593   -107.18562   0.28833563   -106.89728   -9525.4601    4.3504773    4.3504773    4.3504773   -9525.4601   -11048.072    -5645.912   -11882.396     10616.41   -15386.662    13739.592    82.339972 
   66700    776.75538   -107.59273   0.70282459   -106.88991    4696.1443    4.3455601    4.3455601    4.3455601    4696.1443    4692.2704    5795.3215    3600.8409    -3512.712   -8344.4721   -1530.7025    82.061091 
   66800    534.31812   -107.37674   0.48346226   -106.89327   -2926.5817     4.351926     4.351926     4.351926   -2926.5817    4145.4548   -22894.746    9969.5457    8793.6084    4291.9961    2704.5077    82.422257 
   66900    436.97921   -107.29195   0.39538798   -106.89656   -2797.7024    4.3470375    4.3470375    4.3470375   -2797.7024    -3631.201    1265.6268    -6027.533    3215.5116   -22436.423    12359.683    82.144817 
   67000    875.92265   -107.68151   0.79255322   -106.88895    5206.6474     4.348993     4.348993     4.348993    5206.6474    243.76205    4076.0053    11300.175   -755.30919    1814.5753   -6660.3458    82.255725 
   67100    479.23383   -107.32839   0.43362084   -106.89477   -7572.3275    4.3504011    4.3504011    4.3504011   -7572.3275   -12682.156   -4994.6124   -5040.2145    9576.9053   -6101.0565     10207.15    82.335648 
   67200     514.3796   -107.35895   0.46542147   -106.89353    -512.9041    4.3466372    4.3466372    4.3466372    -512.9041    707.23793    1306.6874   -3552.6376   -1879.7169   -19912.898    4609.9759    82.122124 
   67300    738.47899   -107.55749   0.66819131    -106.8893    -1601.794    4.3510717    4.3510717    4.3510717    -1601.794    5299.5779   -19714.254     9609.294    1747.9484    8803.4662   -4458.8488    82.373726 
   67400    437.82311   -107.29154   0.39615155   -106.89539   -2110.7818     4.346565     4.346565     4.346565   -2110.7818   -294.37743    -187.6713   -5850.2967    7088.7746    -19027.48    11603.447     82.11803 
   67500    752.17332   -107.57158   0.68058223     -106.891   -477.62151    4.3516676    4.3516676    4.3516676   -477.62151     -1603.56    5967.9332   -5797.2377   -5959.4965   -6314.5124   -2467.0073    82.407578 
   67600    599.87336   -107.43435   0.54277802   -106.89157    1848.5834    4.3467174    4.3467174    4.3467174    1848.5834   -1488.8126   -8676.9093    15711.472    4577.5006     3050.456   -478.91065    82.126669 
   67700    381.11273   -107.24042   0.34483881   -106.89558    -5615.894    4.3484624    4.3484624    4.3484624    -5615.894   -5418.5219   -793.54569   -10635.614    4869.0225   -22230.933    7568.9634    82.225622 
   67800    785.11542    -107.5992   0.71038894   -106.88881   -560.65518    4.3531819    4.3531819    4.3531819   -560.65518   -3587.5864   -3902.0088    5807.6296   -8446.4006    6390.4981   -4946.5606    82.493634 
   67900    636.16171   -107.46711   0.57561248    -106.8915    1576.7858    4.3432045    4.3432045    4.3432045    1576.7858   -2969.8588    8847.3599   -1147.1438    11480.025   -10758.484    3698.3438    81.927715 
   68000    505.68344    -107.3511     0.457553   -106.89355   -6363.0123    4.3529698    4.3529698    4.3529698   -6363.0123   -3328.5307    2119.7037    -17880.21   -3510.7914   -14459.511    5058.7475    82.481581 
   68100    669.68085   -107.49529    0.6059413   -106.88935    2607.3235    4.3467376    4.3467376    4.3467376    2607.3235    4437.8127     -11390.6    14774.758   -4396.5764    6748.6048    -2986.746    82.127814 
   68200    389.90205   -107.24764   0.35279157   -106.89485   -3985.7349    4.3484561    4.3484561    4.3484561   -3985.7349   -176.03333   -6658.9883   -5122.1831    11558.107   -18231.836    10713.299     82.22526 
   68300     773.4623    -107.5901   0.69984495   -106.89026   -3145.9246    4.3530004    4.3530004    4.3530004   -3145.9246    -9637.866    9191.2392   -8991.1469   -11121.597    -3453.849    532.91578    82.483315 
   68400    753.91387   -107.57149   0.68215711   -106.88934    9192.4907    4.3418186    4.3418186    4.3418186    9192.4907    802.44112    9182.4844    17592.547    6058.5001    2354.1203    5271.2275    81.849312 
   68500    349.09686    -107.2106   0.31587017   -106.89473   -10701.023    4.3547879    4.3547879    4.3547879   -10701.023   -9025.2934   -2052.1984   -21025.578    4877.1833   -18855.487    9710.6482     82.58497 
   68600     684.5433   -107.50849   0.61938916    -106.8891    5015.8518    4.3468054    4.3468054    4.3468054    5015.8518     3449.902   -1114.5241    12712.177   -7348.3504    5482.4514   -2993.5188    82.131657 
   68700    559.96864   -107.39933   0.50667139   -106.89265   -715.95496    4.3462183    4.3462183    4.3462183   -715.95496    1758.1028   -1982.2434   -1923.7243    12974.358   -7605.0025    10101.483    82.098385 
   68800    602.80305   -107.43913   0.54542887    -106.8937    -8533.871    4.3533739    4.3533739    4.3533739    -8533.871   -10342.945    5619.4882   -20878.156   -916.12503   -14179.549    1197.3097    82.504551 
   68900    788.18845    -107.6013   0.71316947   -106.88813    7881.3636    4.3434374    4.3434374    4.3434374    7881.3636     6748.385   -713.28049    17608.986   -205.62802    7924.4907    -3215.072    81.940893 
   69000    279.90398   -107.14852     0.253263   -106.89526   -15435.773    4.3538364    4.3538364    4.3538364   -15435.773    -13992.06   -20823.652   -11491.606    11798.908    -18109.82    8604.1063    82.530848 
   69100    694.87522    -107.5212    0.6287377   -106.89246    3959.2708    4.3459284    4.3459284    4.3459284    3959.2708    -2805.079    11739.061    2943.8306   -7201.7264   -4052.8459   -4663.3537    82.081957 
   69200    819.67162   -107.63275   0.74165611   -106.89109    3593.5495    4.3479547    4.3479547    4.3479547    3593.5495    -1068.592    3033.8073    8815.4334    6069.5952     381.0925    3.3360668    82.196824 
   69300    374.82623   -107.23663   0.33915065   -106.89748   -10933.414    4.3521751    4.3521751    4.3521751   -10933.414   -10140.257   -1321.6291   -21338.357     6506.514   -19547.855    7343.2018    82.436411 
   69400    758.73271   -107.57525    0.6865173   -106.88873     8695.624    4.3447234    4.3447234    4.3447234     8695.624    11167.186   -1429.9219    16349.607   -6502.5556    1550.2087   -4416.6604    82.013699 
   69500    403.95016   -107.26062   0.36550259   -106.89512   -12482.043    4.3527005    4.3527005    4.3527005   -12482.043   -11815.549   -21524.742   -4105.8375    13868.304   -9177.8251     5883.951    82.466269 
   69600    539.44331   -107.38536   0.48809965   -106.89726   -579.81047    4.3453917    4.3453917    4.3453917   -579.81047   -8017.8653    10403.582    -4125.148   -1196.8492   -17298.875    5683.7849    82.051552 
   69700    1005.9649    -107.7987    0.9102182   -106.88848    3891.4579    4.3504255    4.3504255    4.3504255    3891.4579   -518.98511    2185.5558    10007.803    3911.5295    4390.3154   -1567.0838    82.337031 
   69800    255.79322   -107.13062   0.23144708   -106.89917    -10559.27    4.3500964    4.3500964    4.3500964    -10559.27   -12512.518   -14952.823   -4212.4676    12896.848   -16874.573    8064.5964    82.318349 
   69900     645.1155   -107.47785   0.58371406   -106.89414    7679.1026    4.3448423    4.3448423    4.3448423    7679.1026    5168.6885    10057.259    7811.3603   -4307.7962   -9473.7432    2915.3409    82.020434 
   70000    713.67841   -107.53877   0.64575122   -106.89301   -2167.2076    4.3526117    4.3526117    4.3526117   -2167.2076   -7139.0703   -5568.1381    6205.5855    10674.252    3176.9287   -439.51205    82.461223 
   70100    354.57643   -107.22044    0.3208282   -106.89961   -1407.2161    4.3457194    4.3457194    4.3457194   -1407.2161   -9570.7099    9322.8868   -3973.8251    5428.7153    -23925.63     7856.235    82.070112 
   70200    963.92356   -107.76063   0.87217829   -106.88845    6002.2691    4.3511825    4.3511825    4.3511825    6002.2691    6469.5468    3071.7376    8465.5228   -2088.4744    3235.6819    49.061602    82.380018 
   70300    391.75609   -107.25155   0.35446914   -106.89708   -4992.9801    4.3483335    4.3483335    4.3483335   -4992.9801   -6170.8809   -16091.096    7283.0363    11299.487   -9177.0551    2709.0908    82.218308 
   70400    440.13764   -107.29603   0.39824578   -106.89778   -2559.2539    4.3463453    4.3463453    4.3463453   -2559.2539   -9456.9294    2353.9942   -574.82661    949.08926   -16085.059    8483.6127    82.105582 
   70500    896.49938   -107.70007   0.81117148    -106.8889    3536.0855    4.3520379    4.3520379    4.3520379    3536.0855   -5563.2014    4441.1613    11730.297   -986.23137    8711.5843    -2722.565    82.428617 
   70600    402.07699   -107.26064   0.36380771   -106.89683   -5730.6612    4.3483309    4.3483309    4.3483309   -5730.6612   -12488.362   -815.83816   -3887.7837    9161.8661    -16438.07    6064.7129    82.218163 
   70700    755.71068   -107.57554    0.6837829   -106.89175    4794.3687    4.3474604    4.3474604    4.3474604    4794.3687    8047.5373    1685.9767    4649.5921   -3746.5888   -3533.8605    4071.6084    82.168793 
   70800      595.467   -107.43086   0.53879106   -106.89207    4134.7815    4.3486642    4.3486642    4.3486642    4134.7815   -1749.6269   -1816.2397    15970.211    1128.6036     1138.666   -2000.8704    82.237066 
   70900    325.65539   -107.19091   0.29465984   -106.89625   -7286.0103    4.3509973    4.3509973    4.3509973   -7286.0103    -19122.67    1316.6799   -4052.0404    6921.4826   -20522.726    9269.5306    82.369501 
   71000    844.67139   -107.65261   0.76427643   -106.88834    10956.806     4.345358     4.345358     4.345358    10956.806    7205.5132     8876.064    16788.842   -8213.9305    3829.7788   -52.659707    82.049642 
   71100    615.99852    -107.4508   0.55736841   -106.89343   -4890.1394    4.3515593    4.3515593    4.3515593   -4890.1394   -8409.6021   -5790.8927   -469.92326    5631.1704   -9240.6382    1959.6974    82.401422 
   71200    543.65359   -107.38497    0.4919092   -106.89306   -1886.2711    4.3473699    4.3473699    4.3473699   -1886.2711     921.2559   -3042.6827   -3537.3864   -2522.4739   -16261.334    8574.9652    82.163664 
   71300    612.52889   -107.44345   0.55422901   -106.88922    5279.9614    4.3474185    4.3474185    4.3474185    5279.9614    -3441.844    672.31644    18609.412   -8859.5363    7865.4379   -4097.7775    82.166415 
   71400    466.13694   -107.31434    0.4217705   -106.89256   -9591.5975    4.3532189    4.3532189    4.3532189   -9591.5975   -18750.753    2582.5854   -12606.625    8473.6897   -20261.458    4057.3655    82.495742 
   71500    698.36931   -107.52254   0.63189922   -106.89065    11067.712    4.3430216    4.3430216    4.3430216    11067.712    13871.338    3858.4109    15473.387   -12886.246    -2666.188    3927.2519    81.917361 
   71600    741.57643   -107.56109   0.67099393    -106.8901    -3270.601    4.3528085    4.3528085    4.3528085    -3270.601   -7724.8845   -5171.8404     3084.922    626.58352    20.557233   -5635.2444    82.472408 
   71700    399.68218   -107.25419   0.36164084   -106.89255   -1849.3926     4.347666     4.347666     4.347666   -1849.3926   -10546.973    4787.3567     211.4389    5863.7178   -15917.051    6709.1605    82.180448 
   71800    566.56858   -107.40354   0.51264316   -106.89089    1699.1101    4.3461018    4.3461018    4.3461018    1699.1101   -5421.1925   -2824.3793    13342.902   -18195.596    7163.9239     412.2009    82.091784 
   71900     738.4523   -107.55782   0.66816716   -106.88965   -3793.1634    4.3532013    4.3532013    4.3532013   -3793.1634   -5308.6453    1319.5686   -7390.4136     11020.13   -6835.1175   -1196.2678    82.494741 
   72000    605.31472   -107.43991   0.54770148   -106.89221    3837.6748    4.3441539    4.3441539    4.3441539    3837.6748    9476.1871    1476.9902    559.84712   -8921.5922   -6482.4266    7138.1475    81.981455 
   72100    611.16807   -107.44324   0.55299771   -106.89025   -1678.6429     4.350675     4.350675     4.350675   -1678.6429   -8586.9078   -8523.4937    12074.473   -14998.006    2428.5882    745.21298    82.351201 
   72200    493.76915   -107.33732    0.4467727   -106.89055   -522.81447    4.3486027    4.3486027    4.3486027   -522.81447   -13515.489    14756.191   -2809.1449    10971.363   -10086.302    2949.3048     82.23358 
   72300    489.99405    -107.3377   0.44335692   -106.89434   -2234.4351    4.3470134    4.3470134    4.3470134   -2234.4351   -9346.5399   -10271.342    12914.577   -22345.288   -1764.8539    8582.5733    82.143449 
   72400     907.8972   -107.71059   0.82148447    -106.8891    3824.6063    4.3499627    4.3499627    4.3499627    3824.6063    3960.1681    3594.1946    3919.4562   -1916.1662   -1056.2391    1638.8527    82.310755 
   72500    536.67437   -107.37879   0.48559425    -106.8932   -1789.9741    4.3489618    4.3489618    4.3489618   -1789.9741    -10525.42    3298.3318    1857.1658    1314.2358   -10239.194    4623.4138    82.253953 
   72600    367.18705   -107.22636   0.33223856   -106.89412   -4133.3695    4.3481903    4.3481903    4.3481903   -4133.3695   -9372.0222   -12943.271    9915.1847   -24131.804    3254.1822    9587.8389    82.210185 
   72700    790.27679   -107.60337   0.71505904   -106.88831    4943.9402    4.3480258    4.3480258    4.3480258    4943.9402     3791.855    12864.488   -1824.5228    8699.3615   -7525.7513   -3688.0588    82.200856 
   72800    506.98636   -107.35441   0.45873191   -106.89568   -7566.0953    4.3511822    4.3511822    4.3511822   -7566.0953    -9429.454   -8350.2553   -4918.5767   -17169.198   -7288.0565    7172.8132    82.380004 
   72900    732.58162   -107.55521   0.66285525   -106.89236    3193.9035    4.3454606    4.3454606    4.3454606    3193.9035    4538.5618   -2540.9843     7584.133   -12228.338    3188.0356    3775.0523    82.055455 
   73000    608.63437   -107.44138   0.55070517   -106.89067   -2175.9952    4.3510351    4.3510351    4.3510351   -2175.9952   -20643.647    17334.146   -3218.4837    4184.2168   -10444.358   -6101.1375    82.371651 
   73100    285.86399   -107.15487   0.25865575   -106.89621   -9864.9426    4.3498087    4.3498087    4.3498087   -9864.9426   -18467.726   -17217.747    6090.6449   -26693.393   -975.58417    10612.331    82.302014 
   73200    884.70494   -107.69054   0.80049962   -106.89004    12069.318     4.344131     4.344131     4.344131    12069.318    22826.495    10414.529    2966.9299    3592.8993    531.60117   -3588.0423    81.980156 
   73300    655.56753    -107.4872   0.59317128   -106.89403   -8030.4632    4.3537605    4.3537605    4.3537605   -8030.4632   -12232.695   -4908.0167    -6950.678   -16408.988   -7661.8476   -505.59621    82.526536 
   73400    357.35038   -107.21849   0.32333814   -106.89515    1436.0457    4.3455341    4.3455341    4.3455341    1436.0457    2921.6006   -6283.6485    7670.1849   -18015.764    1174.5425    11173.039    82.059616 
   73500    728.38925   -107.54751    0.6590619   -106.88845   -1026.8168     4.349008     4.349008     4.349008   -1026.8168   -5903.6691     9221.242   -6398.0231    5426.1732   -2845.4456   -7686.5772    82.256572 
   73600    459.95426   -107.31094   0.41617628   -106.89476   -7343.9638    4.3513323    4.3513323    4.3513323   -7343.9638   -12070.543   -6012.5532   -3948.7947   -24285.571   -6727.7225    5366.2305     82.38853 
   73700    842.48398   -107.65322   0.76229721   -106.89093     4148.558    4.3441782    4.3441782    4.3441782     4148.558    16314.873   -1765.4475   -2103.7509    614.08442    2273.0898    6972.3744    81.982827 
   73800    587.67588   -107.42269   0.53174149   -106.89094   -5701.1367    4.3527018    4.3527018    4.3527018   -5701.1367   -15178.746    5711.9322   -7636.5961   -3909.3189   -6038.2702   -9805.7658    82.466346 
   73900    321.02202   -107.18491   0.29046747   -106.89444   -5529.9704    4.3469129    4.3469129    4.3469129   -5529.9704   -12521.542   -8865.0977    4796.7286   -19456.644    -3108.831    10943.071    82.137753 
   74000    763.67999   -107.58042    0.6909937   -106.88943    5489.5968    4.3477119    4.3477119    4.3477119    5489.5968     17499.67    4504.2406   -5535.1196    5719.6844    2170.1929   -303.24522    82.183055 
   74100    652.91783   -107.48407   0.59077378    -106.8933   -5396.3699    4.3512709    4.3512709    4.3512709   -5396.3699   -2973.7961    -7294.185   -5921.1286   -13245.527   -7971.6389   -6426.3944    82.385042 
   74200    555.61825   -107.39469   0.50273507   -106.89195    3420.2179    4.3463256    4.3463256    4.3463256    3420.2179     9522.758   -2187.0161    2924.9117   -11311.546   -558.71251    12295.528    82.104466 
   74300    614.32159   -107.44514   0.55585109   -106.88929   -2967.8585     4.349239     4.349239     4.349239   -2967.8585   -7796.7625    2655.9494   -3762.7624    3010.6203    131.32964   -7640.7951    82.269685 
   74400    395.13825   -107.25189   0.35752939   -106.89436   -4426.1518    4.3498498    4.3498498    4.3498498   -4426.1518    -14393.39   -43.990674    1158.9256   -22320.904   -8821.2794    65.612861    82.304351 
   74500    890.88477   -107.69545   0.80609126   -106.88936    3510.3349    4.3478381    4.3478381    4.3478381    3510.3349     19956.65   -804.46817   -8621.1775   -1477.8366    2450.1936    9154.2952    82.190212 
   74600    588.23913   -107.42432   0.53225113   -106.89207   -1163.6664    4.3488114    4.3488114    4.3488114   -1163.6664   -4418.3132    4581.7802   -3654.4662   -10452.107   -2287.5213   -9691.6178    82.245421 
   74700     369.0503   -107.22753   0.33392446    -106.8936   -5700.6628    4.3489894    4.3489894    4.3489894   -5700.6628   -13336.997   -2637.1816   -1127.8095   -19017.202    -5774.286    9074.0508    82.255519 
   74800    717.59867   -107.53812   0.64929835   -106.88882    3961.9782    4.3488113    4.3488113    4.3488113    3961.9782    14101.455    1992.9586   -4208.4788    6509.4649    4624.6179    5538.2035    82.245414 
   74900       598.77   -107.43482   0.54177968   -106.89304   -4261.3943     4.349395     4.349395     4.349395   -4261.3943   -7079.5004   -4873.0692   -831.61321   -21842.019   -5183.6399   -8296.5034    82.278533 
   75000    695.53465   -107.52125   0.62933437   -106.89192    3389.0288     4.347626     4.347626     4.347626    3389.0288    11502.924    1780.3824   -3116.2198   -644.92632   -2075.0904    13891.327    82.178182 
   75100    584.16616   -107.41868   0.52856582   -106.89012    1392.9485    4.3487289    4.3487289    4.3487289    1392.9485   -5145.2165    7179.4535    2144.6086   -1707.6671    844.90461   -4676.9763    82.240741 
   75200    324.93568   -107.18887   0.29400863   -106.89486   -5842.7392    4.3500135    4.3500135    4.3500135   -5842.7392   -24273.677    2197.1187    4548.3412   -21789.363   -7825.1932   -2515.8742    82.313644 
   75300    849.04244   -107.65744   0.76823144   -106.88921    6118.2139    4.3478411    4.3478411    4.3478411    6118.2139     18777.88    5876.5989   -6299.8376    8523.6477   -815.35014    11275.433    82.190383 
   75400    651.24378    -107.4822   0.58925906   -106.89294   -515.64123    4.3478614    4.3478614    4.3478614   -515.64123    1390.3564   -2762.6066    -174.6735    -16357.86   -3057.5841   -10249.032    82.191534 
   75500    449.71138   -107.30109   0.40690831   -106.89419   -3808.4096    4.3493643    4.3493643    4.3493643   -3808.4096   -8373.4937    589.54079   -3641.2758   -11475.313   -8854.6995    4052.0406    82.276792 
   75600    673.16868   -107.49784   0.60909717   -106.88874    2348.7034    4.3490864    4.3490864    4.3490864    2348.7034    2780.8888    4689.0195   -423.79802     3367.646   -61.432197    3467.0997    82.261025 
   75700     467.6597   -107.31772   0.42314832   -106.89457   -3010.5646    4.3484787    4.3484787    4.3484787   -3010.5646   -14873.009   -1800.8981    7642.2137   -23481.804   -5198.2522   -9343.7827    82.226544 
   75800    826.32358    -107.6382   0.74767494   -106.89052    3311.0859      4.34903      4.34903      4.34903    3311.0859    8405.4375     7940.566   -6412.7458   -2176.1032   -10088.225    5774.1126     82.25782 
   75900    583.01625   -107.41959   0.52752536   -106.89206    5067.4912    4.3476934    4.3476934    4.3476934    5067.4912   -1201.8191    6405.5522    9998.7405   -8433.3439    3330.8279   -142.80513    82.182005 
   76000    312.06477   -107.17727   0.28236276   -106.89491   -7347.1661    4.3500251    4.3500251    4.3500251   -7347.1661   -22068.845   -4513.0233    4540.3698    -19528.67   -9796.5323   -7299.9556    82.314301 
   76100     806.1871   -107.61797   0.72945503   -106.88852    5704.1497    4.3490442    4.3490442    4.3490442    5704.1497    7284.1781    10778.242    -949.9711     4895.746   -2923.3981    9557.5279     82.25863 
   76200    604.26317   -107.44106   0.54675001   -106.89431   -2391.7969    4.3472972    4.3472972    4.3472972   -2391.7969    -3434.493     -10532.9    6792.0021   -18964.672    2457.6621   -4609.0951     82.15954 
   76300    587.77409   -107.42533   0.53183035    -106.8935   -4962.6915    4.3504474    4.3504474    4.3504474   -4962.6915   -7992.9171    988.71082   -7883.8683   -4133.6521   -8585.7795   -1121.5514    82.338274 
   76400    681.69106    -107.5056    0.6168084   -106.88879    347.52684    4.3490452    4.3490452    4.3490452    347.52684   -9274.2867    6619.3748    3697.4925   -150.39853    4628.4438    8083.4179    82.258684 
   76500    330.28508   -107.19365   0.29884888    -106.8948   -5827.0949    4.3484639    4.3484639    4.3484639   -5827.0949    -19709.71   -10637.252    12865.677   -22051.235   -2338.2106   -9318.6294    82.225705 
   76600    862.68414   -107.67176   0.78057474   -106.89118    1781.7577    4.3491857    4.3491857    4.3491857    1781.7577    1666.1964    10127.608   -6448.5317    9066.4971   -6993.1626    4190.9652    82.266659 
   76700    655.63367   -107.48558   0.59323112   -106.89235    4559.3379    4.3475224    4.3475224    4.3475224    4559.3379    -1072.089    1071.8181    13678.285   -16216.824    5016.9572   -1667.2957     82.17231 
   76800    325.34409   -107.18993   0.29437817   -106.89555   -9665.9081    4.3506073    4.3506073    4.3506073   -9665.9081   -18337.493   -10374.383   -285.84856   -10195.539   -9216.3555   -7064.5401    82.347353 
   76900    695.73938    -107.5184   0.62951961   -106.88888     2008.632    4.3486473    4.3486473    4.3486473     2008.632     -7019.68    10467.135    2578.4405    6310.0672   -4617.3219    550.82567    82.236109 
   77000    646.90883   -107.47837    0.5853367   -106.89303   -1307.7418    4.3468185    4.3468185    4.3468185   -1307.7418   -7734.2772   -8332.9901    12144.042   -22208.646    6360.7547   -4808.6046      82.1324 
   77100    647.01191   -107.47851   0.58542997   -106.89308   -4425.4157    4.3507646    4.3507646    4.3507646   -4425.4157   -3863.0785   -178.51441   -9234.6543    3397.4031   -16937.093   -6701.3703    82.356288 
   77200    635.33089   -107.46385   0.57486074   -106.88899    1709.3596    4.3486866    4.3486866    4.3486866    1709.3596   -11703.865     6608.501    10223.443   -6673.0895    5596.5509   -1376.3174    82.238341 
   77300    361.47316   -107.22011   0.32706851   -106.89304   -4391.5696    4.3486366    4.3486366    4.3486366   -4391.5696   -17910.984   -4614.4344    9350.7096   -13522.391   -4136.0166   -3850.1538    82.235503 
   77400    711.82689   -107.53569   0.64407593   -106.89161    241.86289     4.348054     4.348054     4.348054    241.86289   -1436.2934    6289.5338   -4127.6518    6585.1173   -16170.757   -6826.8822    82.202455 
   77500    771.49399   -107.58853   0.69806397   -106.89046    3130.8195    4.3500847    4.3500847    4.3500847    3130.8195   -3825.0681    556.53102    12660.995   -11613.004    11700.465    3483.9526    82.317682 
   77600    430.06041   -107.28163    0.3891277   -106.89251   -6554.4777    4.3489395    4.3489395    4.3489395   -6554.4777   -13487.711   -2848.1228   -3327.5997    -2461.524   -15299.864   -5936.7261    82.252686 
   77700    538.27129    -107.3776   0.48703918   -106.89056   -705.92586    4.3475991    4.3475991    4.3475991   -705.92586   -9590.7278    6725.4036    747.54664    5335.9306   -597.38073    1342.9698    82.176657 
   77800    711.29083    -107.5338   0.64359089   -106.89021   -709.81214    4.3510463    4.3510463    4.3510463   -709.81214   -7797.9536   -1169.0958     6837.613   -11342.948    7254.3098    975.13681    82.372287 
   77900    612.48328   -107.44771   0.55418774   -106.89352    397.86417    4.3457542    4.3457542    4.3457542    397.86417    3445.4607    6741.2632   -8993.1315    5877.9884   -17194.076   -5024.2071    82.072086 
   78000    648.01588   -107.47633   0.58633839   -106.88999    1258.7492    4.3517653    4.3517653    4.3517653    1258.7492   -9693.9429     2829.968    10640.222    1072.7928    8221.0749    4503.5947     82.41313 
   78100    467.11783   -107.31398   0.42265803   -106.89132   -2175.3757    4.3485052    4.3485052    4.3485052   -2175.3757   -15946.734    6403.1477    3017.4595   -7596.4131   -5433.5719   -6761.3158    82.228047 
   78200    466.65463   -107.31697   0.42223892   -106.89473    664.05101    4.3447915    4.3447915    4.3447915    664.05101   -812.53038     8439.555   -5634.8716    8209.1755   -14221.207   -1932.4772    82.017554 
   78300    963.25038   -107.76002   0.87156919   -106.88845   -1985.9976    4.3542476    4.3542476    4.3542476   -1985.9976    -2958.882   -723.99769    -2275.113   -3508.3679    11740.181   -665.34131    82.554235 
   78400    442.84801   -107.29511   0.40069818   -106.89442   -64.526973    4.3453852    4.3453852    4.3453852   -64.526973   -5113.4642    11321.341   -6401.4573   -949.94432    -19440.04   -7310.6843    82.051182 
   78500    467.87985   -107.31721   0.42334752   -106.89386   -4693.5728     4.348858     4.348858     4.348858   -4693.5728   -8040.2202   -9.2872578   -6031.2111    3987.8082   -2299.0786   -1101.5774    82.248064 
   78600    744.92044   -107.56334   0.67401967   -106.88932    5711.9345    4.3508545    4.3508545    4.3508545    5711.9345   -2988.5498    11602.473    8521.8799   -1597.9124     1105.659   -740.41277    82.361391 
   78700     501.2181   -107.34952   0.45351267     -106.896    740.83949    4.3449966    4.3449966    4.3449966    740.83949    2739.5923    11835.381   -12352.454     1383.212   -25747.081   -5176.5103    82.029169 
   78800    746.03295   -107.56579   0.67502629   -106.89076    1516.0008    4.3529502    4.3529502    4.3529502    1516.0008   -1286.6931   -368.51455      6203.21    1825.4231    9214.2604    2557.3422    82.480463 
   78900    550.83561   -107.39039   0.49840764   -106.89198     160.1563    4.3461621    4.3461621    4.3461621     160.1563   -13376.772    18093.756   -4236.5152   -502.63887   -16222.334   -1145.8231    82.095199 
   79000     333.5503   -107.19861   0.30180333    -106.8968   -5363.3349    4.3480992    4.3480992    4.3480992   -5363.3349   -4035.2362    2934.8869   -14989.655    4309.9615     -11398.4   -3084.7264    82.205019 
   79100    976.03673   -107.77147   0.88313854   -106.88833    568.45648    4.3519387    4.3519387    4.3519387    568.45648    4458.0866    961.46074   -3714.1779    3459.8634    5583.2492    6621.3786    82.422982 
   79200    501.09119   -107.34758   0.45339784   -106.89418    4168.0823    4.3452746    4.3452746    4.3452746    4168.0823   -4299.7629    17711.085   -907.07513   -1112.1495   -23029.872    -6325.382    82.044917 
   79300    483.67503   -107.33085   0.43763933   -106.89321   -5833.1404    4.3507882    4.3507882    4.3507882   -5833.1404   -5359.2247    -9921.592   -2218.6045     10363.23    343.33345    2230.7057    82.357625 
   79400    643.18189   -107.47134   0.58196449   -106.88937    7386.3348    4.3481331    4.3481331    4.3481331    7386.3348   -6482.5447    16714.559    11926.991   -922.41535   -8267.9357    1013.1329    82.206943 
   79500    554.66283   -107.39528   0.50187058   -106.89341   -4883.6291    4.3492857    4.3492857    4.3492857   -4883.6291   -1943.4254    8168.8899   -20876.352    2060.5866   -16958.842   -6318.3134    82.272333 
   79600    733.04489   -107.55321   0.66327442   -106.88994    1998.9452    4.3487369    4.3487369    4.3487369    1998.9452    8797.4218   -5294.0851    2493.4991    9719.6823    4910.8784    4457.7934     82.24119 
   79700    574.47286   -107.41049   0.51979512    -106.8907   -1520.8538    4.3480333    4.3480333    4.3480333   -1520.8538    -18076.11    15637.119   -2123.5706   -5654.3038   -18282.503   -3591.6409     82.20128 
   79800    449.97201   -107.29906   0.40714413   -106.89192   -5221.9037    4.3505266    4.3505266    4.3505266   -5221.9037   -7835.0332   -1148.0128   -6682.6651    6451.3133   -4012.1345   -465.09192     82.34277 
   79900    717.90916   -107.53952    0.6495793   -106.88994    2831.2529    4.3469989    4.3469989    4.3469989    2831.2529    768.99127     2151.562    5573.2054    3385.9099   -2886.5887    1760.5798    82.142627 
   80000     621.2637   -107.45402   0.56213246   -106.89189   -751.75832    4.3499782    4.3499782    4.3499782   -751.75832   -9488.2354    12890.006   -5657.0457   -4757.9256   -22595.021    372.31989    82.311639 
   80100    637.61991    -107.4668    0.5769319   -106.88987    1236.6437    4.3477998    4.3477998    4.3477998    1236.6437    4925.8525    -7150.143    5934.2217     7581.893    7032.3991     259.6818    82.188036 
   80200     427.4657   -107.27867   0.38677995   -106.89189   -2472.0585     4.349896     4.349896     4.349896   -2472.0585   -21072.332    9141.2027    4514.9535   -2392.8679   -17847.474    2275.6223    82.306971 
   80300     648.7168   -107.47841    0.5869726   -106.89144   -2104.6938    4.3481467    4.3481467    4.3481467   -2104.6938   -7324.8289    11540.026   -10529.278   -3100.9213   -10027.742     -342.739    82.207712 
   80400    770.70347   -107.58736   0.69734869   -106.89001    4200.9555    4.3477211    4.3477211    4.3477211    4200.9555    9319.3666   -768.17932    4051.6793    6850.5199    2938.5911   -555.58581    82.183577 
   80500    467.30842   -107.31662   0.42283048   -106.89379   -8330.6761    4.3515018    4.3515018    4.3515018   -8330.6761   -26640.143    4006.5296   -2358.4149   -9724.6538   -26439.299    1429.7689    82.398159 
   80600    625.86614   -107.45572   0.56629684   -106.88943    4751.0077    4.3454155    4.3454155    4.3454155    4751.0077    3373.5492    1929.3572    8950.1168    1294.5509    1773.6345   -4331.6902      82.0529 
   80700    538.09467   -107.37912   0.48687936   -106.89224   -3203.7871    4.3512356    4.3512356    4.3512356   -3203.7871   -9643.2579     -2822.02    2853.9167    4085.8455   -11897.665    3369.7072    82.383037 
   80800    577.73645   -107.41741   0.52274808   -106.89466   -89.007959    4.3479923    4.3479923    4.3479923   -89.007959   -7620.4049    9366.2833   -2012.9023   -13418.693   -19171.426    -3645.083    82.198955 
   80900    874.89741    -107.6799   0.79162556   -106.88827    5621.5923    4.3478483    4.3478483    4.3478483    5621.5923    12994.323   -2111.3061    5981.7603    8955.2168    6563.3294   -170.73637     82.19079 
   81000    299.26025   -107.16598   0.27077696   -106.89521   -8418.3146    4.3514086    4.3514086    4.3514086   -8418.3146    -30312.87    4434.9793    622.94642   -6105.7184   -21652.669    2528.0908    82.392866 
   81100    586.27524    -107.4234   0.53047415   -106.89293    2034.8114    4.3455868    4.3455868    4.3455868    2034.8114   -8669.8919    9528.6296    5245.6966   -8405.6992    -4253.421   -1701.9983      82.0626 
   81200    818.93995   -107.63134   0.74099407   -106.89035    2126.3812    4.3508834    4.3508834    4.3508834    2126.3812    3858.8354    3747.6571    -1227.349    6720.8101   -1005.0089    3106.1874    82.363035 
   81300    446.63969     -107.301   0.40412898   -106.89687   -3081.4572    4.3485295    4.3485295    4.3485295   -3081.4572   -9690.7156    5307.1016   -4860.7575   -12555.246   -24467.652     244.1644    82.229425 
   81400    740.40983   -107.55963   0.66993837    -106.8897    4627.2918    4.3476062    4.3476062    4.3476062    4627.2918    7179.1256   -1793.9683    8496.7181   -751.50772    9593.5262    3298.2381    82.177061 
   81500    405.61939   -107.26093   0.36701294   -106.89392   -5504.2352    4.3500507    4.3500507    4.3500507   -5504.2352   -12519.519   -476.65278   -3516.5342    142.25176   -17168.338   -1584.8578    82.315752 
   81600    509.63001   -107.35774   0.46112394   -106.89662   -2597.2015    4.3487581    4.3487581    4.3487581   -2597.2015   -13317.062    4481.3839    1044.0732   -13095.953   -12094.924    2590.6786    82.242398 
   81700    1006.7258   -107.79917   0.91090662   -106.88827    6485.6595    4.3487694    4.3487694    4.3487694    6485.6595    9901.3423    10622.035   -1066.3992    893.70646     8549.617   -1589.6296    82.243035 
   81800    380.30451   -107.24032   0.34410751   -106.89621   -2831.6412    4.3488816    4.3488816    4.3488816   -2831.6412   -10181.228    9613.4878   -7927.1835   -5251.5639   -27879.891   -820.74033    82.249403 
   81900    517.65613   -107.36114   0.46838615   -106.89275    1521.2568    4.3494119    4.3494119    4.3494119    1521.2568   -7197.3662    3565.8474    8195.2891   -15252.312    3867.8548    -78.14106    82.279493 
   82000    660.03978   -107.48778   0.59721787   -106.89057    2530.6925    4.3472684    4.3472684    4.3472684    2530.6925    5185.8903    6784.5675   -4378.3803    4552.1302   -8182.9744   -3223.0446    82.157905 
   82100    489.24053   -107.33944   0.44267511   -106.89677   -6988.9048    4.3512394    4.3512394    4.3512394   -6988.9048    -11101.24   -3929.8141   -5935.6602    -16930.67   -21384.524     1566.625    82.383251 
   82200    930.85081   -107.73098   0.84225337   -106.88873    5085.1781    4.3476989    4.3476989    4.3476989    5085.1781    5519.0385    4509.1854    5227.3104   -8357.4173    9351.9811   -2993.1059    82.182314 
   82300    424.36967   -107.27769    0.3839786   -106.89371   -2249.9433    4.3483467    4.3483467    4.3483467   -2249.9433   -6215.4221    9374.9754   -9909.3831    1750.3157    -20086.35   -78.504922    82.219057 
   82400    375.53407    -107.2348   0.33979112   -106.89501   -4677.5085    4.3510734    4.3510734    4.3510734   -4677.5085   -10223.405   -8570.4599    4761.3395   -21927.816   -4624.3841    435.87134    82.373823 
   82500     861.4373   -107.66779   0.77944657   -106.88835    11028.084    4.3461992    4.3461992    4.3461992    11028.084    14100.499    20214.402   -1230.6491    5794.1502    214.40427    1547.4532    82.097301 
   82600    568.65672   -107.40908   0.51453255   -106.89455   -7549.5993    4.3506397    4.3506397    4.3506397   -7549.5993   -12886.316    4194.6168   -13957.099   -11690.282   -21630.303   -2120.3178    82.349194 
   82700    592.32843   -107.42808   0.53595122   -106.89213    990.77103    4.3485082    4.3485082    4.3485082    990.77103   -8529.3886    2850.0854    8651.6163    -12966.25    5583.2567     4907.948     82.22822 
   82800    612.52506   -107.44391   0.55422554   -106.88968   -2668.1562    4.3489839    4.3489839    4.3489839   -2668.1562   -6387.1017    7236.7238   -8854.0906    5634.5323   -12850.262    1171.4625    82.255205 
   82900    392.53752   -107.24996    0.3551762   -106.89479   -5923.8576    4.3494231    4.3494231    4.3494231   -5923.8576   -5674.2795   -13325.063    1227.7697   -17988.935   -10799.597   -162.08758    82.280131 
   83000    860.09457   -107.66788   0.77823164   -106.88965    6495.0133    4.3482305    4.3482305    4.3482305    6495.0133     14421.62    4260.4781    802.94128   -2090.2811     5624.805    6395.6269    82.212464 
   83100    598.43274   -107.43361   0.54147452   -106.89214   -2828.5831    4.3504365    4.3504365    4.3504365   -2828.5831   -8968.1127    14654.157   -14171.794   -1511.2185   -19051.431   -1247.1792    82.337658 
   83200    384.17134   -107.24173    0.3476063   -106.89412   -2802.2785    4.3466839    4.3466839    4.3466839   -2802.2785    -13900.92   -3019.3849    8513.4697   -18465.743   -902.83392    5363.4975     82.12477 
   83300    727.90842   -107.54772   0.65862684   -106.88909    1482.1265    4.3511596    4.3511596    4.3511596    1482.1265    1072.9792    11109.508    -7736.108    2372.0451   -4848.3924    1780.5255    82.378719 
   83400    617.87902   -107.45247   0.55906992    -106.8934   -4094.8504    4.3475449    4.3475449    4.3475449   -4094.8504   -8092.2839    1225.4396   -5417.7068   -9281.4832   -16027.858    682.79363    82.173583 
   83500     623.4026    -107.4568   0.56406777   -106.89273    1992.1225    4.3485211    4.3485211    4.3485211    1992.1225    3579.4158   -150.98493    2547.9366    -15693.71    3873.1733    4420.8502     82.22895 
   83600    635.60852   -107.46435   0.57511195   -106.88924   -3665.3641     4.351983     4.351983     4.351983   -3665.3641   -4645.4607    5661.9988    -12012.63    5182.9045   -11480.207     50.75319    82.425495 
   83700    353.56382   -107.21334   0.31991198   -106.89343   -3102.4449    4.3444414    4.3444414    4.3444414   -3102.4449   -8166.0116   -10456.838    9315.5148   -22137.898   -6451.4756   -643.26764     81.99773 
   83800     784.0468   -107.60029   0.70942202   -106.89086   -2029.1103     4.352584     4.352584     4.352584   -2029.1103      7448.62   -5479.0083   -8056.9425    -4423.698    1715.1796    6931.6249    82.459648 
   83900     731.5738   -107.55379   0.66194334   -106.89185    2353.6156    4.3474709    4.3474709    4.3474709    2353.6156   -4351.2703    17271.494   -5859.3772   -3508.6626   -13765.641   -1574.3562    82.169385 
   84000    397.22944   -107.25368   0.35942155   -106.89426   -3374.8305    4.3472389    4.3472389    4.3472389   -3374.8305   -11288.568   -2770.7865    3934.8632   -21963.691    1093.7479    1725.1854    82.156236 
   84100    628.73094   -107.45762   0.56888897   -106.88874   -2121.7755    4.3536237    4.3536237    4.3536237   -2121.7755    1443.5057    5176.6932   -12985.525    7788.7617   -1186.4949    8757.0903    82.518754 
   84200    567.37544   -107.40461   0.51337322   -106.89124    2199.4235    4.3434591    4.3434591    4.3434591    2199.4235    1702.9614   -4083.1024    8978.4115   -16456.195   -10718.343   -5421.0885    81.942125 
   84300    647.48288   -107.47958   0.58585612   -106.89372   -6827.4356    4.3520182    4.3520182    4.3520182   -6827.4356    2977.1723   -15259.176   -8200.3035   -9200.0725    7466.3921     10479.91    82.427497 
   84400     759.1656   -107.57601   0.68690899    -106.8891    1245.9667     4.349328     4.349328     4.349328    1245.9667   -1235.0666      11540.5   -6567.5339    3186.7607   -3730.8816    2148.1553    82.274735 
   84500    382.63257   -107.23898   0.34621399   -106.89277   -4715.5377    4.3458417    4.3458417    4.3458417   -4715.5377    -11235.39   -11723.752    8812.5289   -19826.984   -5306.9162    2658.9782    82.077043 
   84600    552.26307   -107.39185   0.49969923   -106.89215   -3485.7664    4.3523829    4.3523829    4.3523829   -3485.7664    6358.6556   -1674.7558   -15141.199    2382.2721    7332.6949    11198.471    82.448223 
   84700    798.09794   -107.61102   0.72213579   -106.88889    6455.5352     4.346684     4.346684     4.346684    6455.5352    6032.8673    9308.8155    4024.9226   -8321.5538   -4304.2954   -1054.6208    82.124779 
   84800    532.68245   -107.37475   0.48198228   -106.89277   -4510.2279    4.3499738    4.3499738    4.3499738   -4510.2279   -1895.0576   -8692.2333   -2943.3926   -13759.642   -1458.9117    7787.3166    82.311388 
   84900    595.94329   -107.42891   0.53922201   -106.88968   -725.61145    4.3487983    4.3487983    4.3487983   -725.61145    2008.6527    9816.9156   -14002.403    3036.5611    7190.1911    5719.3586    82.244674 
   85000     520.9495   -107.36178   0.47136606   -106.89041   -2611.7751    4.3482811    4.3482811    4.3482811   -2611.7751   -6939.2144   -13409.693    12513.582   -16293.369   -2997.4765   -1358.6087    82.215338 
   85100    562.86817   -107.40168   0.50929495   -106.89238   -7021.9096    4.3500307    4.3500307    4.3500307   -7021.9096    7569.2527   -15308.443   -13326.538   -3176.2656    3592.7579    7842.2653    82.314618 
   85200    780.22285   -107.59572   0.70596203   -106.88976    4191.4331    4.3478403    4.3478403    4.3478403    4191.4331    2930.9843    15595.571   -5952.2557   -348.72701    8470.3458    4056.4005    82.190333 
   85300    622.47412   -107.45403   0.56322766    -106.8908   -2579.2991    4.3497015    4.3497015    4.3497015   -2579.2991   -1689.5165   -10720.389    4672.0085   -14310.063   -3962.6149   -2968.1382     82.29593 
   85400    412.51435   -107.26497   0.37325165   -106.89172    -759.8388    4.3482616    4.3482616    4.3482616    -759.8388    8700.6118    7636.9303   -18617.059    3894.5163    11565.669     10725.18    82.214232 
   85500    604.67422   -107.43707   0.54712194   -106.88995   -1136.4137     4.349243     4.349243     4.349243   -1136.4137   -2833.3671    -4948.528    4372.6541   -10022.063    4611.0998   -2928.7329     82.26991 
   85600    663.62795   -107.49137   0.60046451   -106.89091   -1280.0412    4.3487871    4.3487871    4.3487871   -1280.0412    5880.6322   -9819.3259    98.570034   -10688.286   -333.04503    3975.4075    82.244043 
   85700    685.43003   -107.51153    0.6201915   -106.89134    -1935.978    4.3484474    4.3484474    4.3484474    -1935.978    2056.7207    11427.112   -19291.767    3371.6149    17395.666     8390.956    82.224769 
   85800    555.71189   -107.39313   0.50281979   -106.89031   -4139.9973    4.3504051    4.3504051    4.3504051   -4139.9973   -10263.957   -13026.356    10870.321   -16629.807   -851.80168   -3465.3589    82.335874 
   85900    490.83705   -107.33468   0.44411968   -106.89056   -1461.5894    4.3469713    4.3469713    4.3469713   -1461.5894    18783.793   -15266.971     -7901.59   -252.21622     6662.579    12797.318    82.141064 
   86000    636.25729   -107.46623   0.57569897   -106.89053    28.181689    4.3501872    4.3501872    4.3501872    28.181689    498.80555    4818.4692   -5232.7297   -6816.9297    12107.673    1903.5829    82.323504 
   86100    706.33554   -107.52978   0.63910724   -106.89067   -183.50243    4.3492462    4.3492462    4.3492462   -183.50243    2096.9591   -8582.3999    5934.9335   -16063.939   -5057.0782    2770.8334     82.27009 
   86200    613.93731   -107.44581   0.55550338   -106.89031    1648.8005    4.3470228    4.3470228    4.3470228    1648.8005    9658.0642    11156.433   -15868.096    3534.2056    8322.3658    10717.213    82.143983 
   86300    464.66275   -107.31108   0.42043662   -106.89064   -6711.5335    4.3507022    4.3507022    4.3507022   -6711.5335   -13386.615   -10997.779    4249.7938   -16006.517    2910.9552   -923.15697    82.352742 
   86400    521.68229   -107.36364    0.4720291   -106.89161   -3363.0903    4.3482358    4.3482358    4.3482358   -3363.0903    3394.8482   -19793.798    6309.6788   -2951.5552   -4392.5162    5568.1052    82.212766 
   86500    822.76403   -107.63391   0.74445419   -106.88946    320.87256    4.3480247    4.3480247    4.3480247    320.87256     9669.509    606.42493   -9313.3163    1763.7694    6225.3712    7971.2493    82.200793 
   86600    570.42276   -107.40869    0.5161305   -106.89256   -3006.4247    4.3500013    4.3500013    4.3500013   -3006.4247   -9406.9637     -11150.8     11538.49   -17847.887    -2311.311   -2280.9258    82.312948 
   86700    526.20999   -107.36709   0.47612586   -106.89096   -1744.7506    4.3486036    4.3486036    4.3486036   -1744.7506    14242.748   -12320.738   -7156.2611    8645.3295   -3469.6115    8559.8928    82.233628 
   86800    558.39547   -107.39501   0.50524796   -106.88976    1541.6808    4.3483309    4.3483309    4.3483309    1541.6808   -39.543189    -262.4635    4927.0491   -11881.895    4844.3607    1668.4324    82.218163 
   86900    577.35832   -107.41525   0.52240594   -106.89285   -4162.0028    4.3498005    4.3498005    4.3498005   -4162.0028   -6803.8272   -12672.775    6990.5941   -10310.326   -4959.8544   -2384.9466    82.301548 
   87000    775.87705   -107.59147   0.70202986   -106.88944      2048.78    4.3486774    4.3486774    4.3486774      2048.78    7077.6623    6031.7797   -6963.1018    11289.286   -82.270368    9786.5554    82.237817 
   87100    528.76368   -107.36966   0.47843649   -106.89122   -4341.0332    4.3477957    4.3477957    4.3477957   -4341.0332   -7977.1725   -14049.197      9003.27   -24151.844    5473.5079   -6682.1778    82.187803 
   87200    404.84757   -107.25864   0.36631459   -106.89232   -5764.5246    4.3512077    4.3512077    4.3512077   -5764.5246    3856.8404   -24394.488    3244.0742    6129.4557   -5832.1077    6965.0833     82.38145 
   87300    780.08742   -107.59509   0.70583949   -106.88925    2592.0725    4.3477536    4.3477536    4.3477536    2592.0725    10921.771   -3361.1754    215.62234   -4605.4254    3090.1831    5385.2855    82.185416 
   87400    639.98531   -107.47101   0.57907215   -106.89194    3966.6543    4.3470283    4.3470283    4.3470283    3966.6543   -971.37287    1236.7646    11634.571   -20691.159    1511.9647   -5227.9409    82.144292 
   87500    527.69306   -107.36845   0.47746777   -106.89098   -4187.9684    4.3532422    4.3532422    4.3532422   -4187.9684    731.36828   -2763.6133    -10531.66    13892.452   -6094.7893    11234.966    82.497064 
   87600    527.23204   -107.36662   0.47705063   -106.88957    3085.3102     4.344993     4.344993     4.344993    3085.3102    1148.3649    275.40718    7832.1584   -16508.224    2705.6309   -1709.1332    82.028969 
   87700    630.19675   -107.46168   0.57021526   -106.89146   -4912.4347     4.349211     4.349211     4.349211   -4912.4347   -3731.4105   -13973.572    2967.6788    -2559.181   -2892.9125    1747.9115    82.268096 
   87800    703.53626   -107.52791   0.63657439   -106.89133   -4243.6438    4.3517747    4.3517747    4.3517747   -4243.6438   -979.87457   -3672.1439   -8078.9129    11266.939   -5814.9489    8037.6144    82.413662 
   87900    646.91653     -107.474   0.58534367   -106.88866    894.23847    4.3449059    4.3449059    4.3449059    894.23847   -2351.8283   -4128.6193     9163.163   -18779.676   -186.54072   -2244.2283    82.024034 
   88000    376.66977   -107.23224   0.34081872   -106.89142   -7210.6741    4.3521861    4.3521861    4.3521861   -7210.6741   -2561.4931   -14806.289   -4264.2404    10149.251   -4972.8527    7247.0178    82.437039 
   88100     584.7772   -107.42094    0.5291187   -106.89182    2943.1048    4.3470027    4.3470027    4.3470027    2943.1048     5991.866     2235.819    601.62946    1002.1135    -5893.614    3838.0601    82.142841 
   88200    884.66221    -107.6894   0.80046096   -106.88893    4812.5384    4.3478997    4.3478997    4.3478997    4812.5384    2904.3186    4147.0428    7386.2537   -13115.212   -199.85535   -2322.2958    82.193703 
   88300    439.84269   -107.29165   0.39797891   -106.89367   -6188.5479    4.3521596    4.3521596    4.3521596   -6188.5479   -6253.2704   -518.04611   -11794.327    18283.742   -8377.9615    9063.9726    82.435533 
   88400    573.70313   -107.40963   0.51909865   -106.89053    1408.5092    4.3455215    4.3455215    4.3455215    1408.5092    2395.4178    -147.8651     1977.975   -12471.615   -1472.0227   -1672.8579    82.058906 
   88500    618.47836   -107.45047   0.55961222   -106.89086   -2983.9914    4.3500813    4.3500813    4.3500813   -2983.9914    1568.0789   -5399.9303   -5120.1228    1487.5744   -1374.1747     750.0031    82.317492 
   88600    484.97605   -107.33543   0.43881652   -106.89661   -5325.6103    4.3503701    4.3503701    4.3503701   -5325.6103   -3466.8584     -662.714   -11847.258     10936.14   -7866.3257    9678.2965    82.333886 
   88700    932.69946   -107.73178   0.84392607   -106.88786    8486.4947    4.3464586    4.3464586    4.3464586    8486.4947    7099.8081    10794.933    7564.7433   -12575.987    6002.7324   -4279.5334    82.112003 
   88800    331.27607   -107.19633   0.29974555   -106.89659   -7736.2942    4.3504572    4.3504572    4.3504572   -7736.2942   -4392.1851    -8457.943   -10358.754    14729.773   -7764.1975    6237.0772    82.338833 
   88900    427.20306   -107.28491   0.38654231   -106.89837   -820.52143    4.3487962    4.3487962    4.3487962   -820.52143    468.31854    4541.3887   -7471.2715    5242.1614   -868.40244     5492.665    82.244558 
   89000     1043.917   -107.83316   0.94455807    -106.8886    6357.6879    4.3484764    4.3484764    4.3484764    6357.6879    12469.755    6161.9596    441.34927    469.41215    1983.1024   -2865.7452    82.226415 
   89100    304.03823    -107.1758   0.27510018    -106.9007   -7326.7442    4.3500953    4.3500953    4.3500953   -7326.7442   -11130.182    5089.3944   -15939.445    14578.811   -9991.9402     8005.871    82.318282 
   89200    734.22151   -107.55697   0.66433905   -106.89264    1925.9693     4.348042     4.348042     4.348042    1925.9693    2307.2497    4290.3724   -819.71403    3905.0951    2728.8003    1840.3534    82.201775 
   89300    543.06378   -107.38594   0.49137552   -106.89456   -1895.4842     4.348896     4.348896     4.348896   -1895.4842    5271.6682   -1003.4776   -9954.6431    1743.5466   -5864.0427     804.7622    82.250222 
   89400    370.61754   -107.23624   0.33534254    -106.9009    -8586.748    4.3492778    4.3492778    4.3492778    -8586.748   -5503.8128   -7842.8267   -12413.604     16887.04   -5582.3066    9930.0799    82.271883 
   89500    1046.5138   -107.83629   0.94690767   -106.88938    8618.7069     4.349193     4.349193     4.349193    8618.7069    9235.5165    10385.219    6235.3853   -4226.4654    479.82003    -1106.724    82.267074 
   89600    437.09227   -107.29301   0.39549027   -106.89752   -5850.1027    4.3490664    4.3490664    4.3490664   -5850.1027   -5029.3235   -4877.4871   -7643.4975    6981.8734   -8538.5154    4852.8864    82.259889 
   89700      387.829   -107.24694   0.35091583   -106.89602    1473.0302      4.34871      4.34871      4.34871    1473.0302   -684.37998    8630.7384   -3527.2679    9972.9711    -1022.768    6955.5186    82.239668 
   89800    797.93085   -107.61112    0.7219846   -106.88914    1796.1661    4.3499899    4.3499899    4.3499899    1796.1661    10186.901    1394.1633   -6192.5662    -14284.98   -1376.6916   -5470.4382    82.312301 
   89900    476.90385   -107.32702   0.43151262   -106.89551   -3999.2823    4.3488358    4.3488358    4.3488358   -3999.2823   -5379.2553    4187.3067   -10805.898    15072.907   -7442.2477    10363.062    82.246804 
   90000    754.18144   -107.57279   0.68239922   -106.89039   -305.23872    4.3485135    4.3485135    4.3485135   -305.23872   -3715.9258   -3644.0157    6444.2253   -5430.4094    3755.8011    518.20971    82.228519 
   90100    523.23096    -107.3644   0.47343037   -106.89097   -5443.4234    4.3501403    4.3501403    4.3501403   -5443.4234   -652.13462   -9574.4171   -6103.7183   -4877.6925   -3353.6452   -2063.3004    82.320841 
   90200    458.61349    -107.3082   0.41496312   -106.89324   -4880.6396    4.3491067    4.3491067    4.3491067   -4880.6396   -2938.2366   -3046.0494    -8657.633    15927.947   -4131.8509    9921.4093    82.262175 
   90300    771.36204   -107.58747   0.69794458   -106.88953    6967.1696    4.3475505    4.3475505    4.3475505    6967.1696    3917.2744    9861.0225    7123.2121   -15281.339    4138.1877   -5144.7921    82.173899 
   90400    636.28075   -107.46731   0.57572019   -106.89159   -2098.2037    4.3512466    4.3512466    4.3512466   -2098.2037   -5296.6491    3361.2883   -4359.2502    5717.2908   -6483.2667    2349.6995     82.38366 
   90500    478.23141   -107.32409   0.43271383   -106.89138    2033.3277    4.3474013    4.3474013    4.3474013    2033.3277   -3937.3313    4527.9919    5509.3226    6593.8521   -1104.2838    4368.3206    82.165444 
   90600    576.57975   -107.41174   0.52170147   -106.89004   -3734.1436    4.3493005    4.3493005    4.3493005   -3734.1436    2854.9755   -12033.652   -2023.7549   -17410.515     853.4449   -4844.1315    82.273174 
   90700    653.76752   -107.48242   0.59154259   -106.89088   -4426.2703      4.34988      4.34988      4.34988   -4426.2703   -90.426524   -1279.4629   -11908.921    15605.244   -7309.3159    7689.2053    82.306066 
   90800    642.70938   -107.47243   0.58153695   -106.89089    635.82416    4.3475333    4.3475333    4.3475333    635.82416   -6494.8946   -2724.7753    11127.142     -8584.89     1442.345   -1799.2123    82.172927 
   90900    616.44441   -107.44696   0.55777186   -106.88919   -5570.3823    4.3521094    4.3521094    4.3521094   -5570.3823   -4835.2118   -11306.401   -569.53399   -11401.548   -1981.1662   -214.79359    82.432677 
   91000    488.39381   -107.33251   0.44190898    -106.8906    4981.3775    4.3453044    4.3453044    4.3453044    4981.3775    7404.1029    8009.2553   -469.22559    13836.291   -4969.2075    7674.4064    82.046604 
   91100    604.43923   -107.43859   0.54690932   -106.89168     -2539.07    4.3510155    4.3510155    4.3510155     -2539.07    -2000.704   -7591.4102    1974.9041   -23859.705    2053.7753   -7128.6736    82.370536 
   91200     738.9706   -107.55761   0.66863613   -106.88897    1717.1766    4.3506888    4.3506888    4.3506888    1717.1766    3108.5234    7073.3093   -5030.3027    5093.8418    -3679.241    6289.5417     82.35198 
   91300    520.74859   -107.36282   0.47118427   -106.89163    942.77882    4.3443971    4.3443971    4.3443971    942.77882   -4198.9594   -5251.5873    12278.883     630.9937   -2957.3988    4117.7341    81.995223 
   91400    523.60737   -107.36483   0.47377095   -106.89106   -7678.5364    4.3539451    4.3539451    4.3539451   -7678.5364   -8350.4016    -14864.77    179.56236   -20627.255    2445.8226   -3015.6737    82.537032 
   91500    695.27691   -107.51859   0.62910116   -106.88949    956.07199    4.3459506    4.3459506    4.3459506    956.07199    10761.833    1424.0018   -9317.6186     14376.65   -2296.9148    10258.774    82.083217 
   91600    519.77655   -107.36316   0.47030475   -106.89285   -1768.9594    4.3488414    4.3488414    4.3488414   -1768.9594   -10197.937   -2197.5733    7088.6323   -17991.867   -779.44431    583.05378    82.247119 
   91700    737.80547   -107.55707   0.66758189   -106.88949   -3740.6883    4.3522244    4.3522244    4.3522244   -3740.6883   -3103.9466   -7329.7501   -788.36811   -5583.4753    4599.1065    3197.9975    82.439211 
   91800    482.95854   -107.32838   0.43699104   -106.89139    10325.426    4.3433943    4.3433943    4.3433943    10325.426    12781.783    11632.599    6561.8967     7260.675   -1142.4567    8916.0849    81.938456 
   91900    535.06584   -107.37657   0.48413882   -106.89243   -8198.5103    4.3538025    4.3538025    4.3538025   -8198.5103   -10515.637   -14613.816    533.92178   -21392.495    996.34399   -1622.0406    82.528921 
   92000    742.14396    -107.5601   0.67150745   -106.88859    5026.8739     4.347479     4.347479     4.347479    5026.8739    12266.624    14370.598     -11556.6    6687.3754    5533.3234    9014.3312    82.169849 
   92100     578.3001   -107.41507   0.52325808   -106.89181   -3803.0051    4.3463566    4.3463566    4.3463566   -3803.0051   -8431.8963   -12317.302    9340.1827   -10597.049   -3886.4467    4976.7207    82.106219 
   92200    574.04311   -107.41034   0.51940627   -106.89093   -9062.6595    4.3537403    4.3537403    4.3537403   -9062.6595   -10473.231   -17395.896     681.1477   -13626.481    5420.9498   -1996.7508    82.525382 
   92300     624.7067   -107.45452   0.56524775   -106.88927    2991.1139    4.3453613    4.3453613    4.3453613    2991.1139    17394.011    3046.0987   -11466.768    5818.4767    2953.8044    12956.199    82.049831 
   92400    525.69765   -107.36782   0.47566228   -106.89216   -572.29545    4.3494473    4.3494473    4.3494473   -572.29545   -7530.3493    2434.6083    3378.8547   -15665.466   -2217.4699   -4360.4589    82.281501 
   92500    712.18728    -107.5339   0.64440201    -106.8895    1277.9687    4.3509522    4.3509522    4.3509522    1277.9687    4671.8121    8425.6877   -9263.5936   -1942.3239    9689.2028    3688.9088    82.366942 
   92600    547.19513    -107.3863   0.49511366   -106.89118    4215.5298    4.3460516    4.3460516    4.3460516    4215.5298    6977.6793    1083.7691    4585.1411    276.20889   -1203.3833    9312.1793    82.088938 
   92700    547.29951   -107.38625    0.4952081   -106.89105   -5499.4558    4.3502416    4.3502416    4.3502416   -5499.4558   -7715.9855   -18075.379    9292.9966   -16465.293    2452.2903   -4758.1551    82.326592 
   92800    647.02304   -107.47559   0.58544004   -106.89015   -1981.2811     4.349583     4.349583     4.349583   -1981.2811    10591.693    5098.2975   -21633.834    4739.8157    8298.9328    10187.869    82.289205 
   92900    603.71699   -107.43809   0.54625582   -106.89183   -1265.0892    4.3474455    4.3474455    4.3474455   -1265.0892   -3628.2277   -2437.2096    2270.1697   -9316.8031    -2152.628    2757.2966    82.167947 
   93000    679.40556   -107.50445   0.61474043   -106.88971   -1608.9556    4.3494955    4.3494955    4.3494955   -1608.9556   -1089.7355   -4711.4886    974.35741   -10275.979    5712.7061    990.79838    82.284241 
   93100    480.56031   -107.32601   0.43482107   -106.89119   -482.40689    4.3499064    4.3499064    4.3499064   -482.40689    13632.775   -790.79145   -14289.205    4212.5917     6127.268    11668.768    82.307562 
   93200     569.7022   -107.40611   0.51547852   -106.89063    186.51296    4.3468726    4.3468726    4.3468726    186.51296   -2136.9889   -5027.0989    7723.6266    -20916.05   -893.75245   -1361.7799    82.135469 
   93300    729.62961   -107.55021   0.66018421   -106.89002    1068.1103    4.3508492    4.3508492    4.3508492    1068.1103    7130.7782    11064.264   -14990.711    721.61385    6190.9298    7653.2371    82.361089 
   93400    571.16659   -107.40913   0.51680353   -106.89233   -2402.2286    4.3482133    4.3482133    4.3482133   -2402.2286   -882.42517   -3272.2921   -3051.9684   -9685.2408    3047.9574    12577.347    82.211491 
   93500    559.37116   -107.39672   0.50613078   -106.89059   -717.78853    4.3482269    4.3482269    4.3482269   -717.78853   -5718.6246   -12940.436    16505.695    -13215.71   -2707.6525   -3204.4129    82.212264 
   93600    601.67009   -107.43394   0.54440374   -106.88954   -6532.3931    4.3517414    4.3517414    4.3517414   -6532.3931    9227.7577   -11299.423   -17525.514    6151.5515    7366.1816    16175.901    82.411769 
   93700    494.86067   -107.34091   0.44776034   -106.89315    1504.5987    4.3447852    4.3447852    4.3447852    1504.5987   -1233.4292    3828.6462    1918.5791   -16728.944   -2917.6667    1992.9114    82.017198 
   93800    833.80436   -107.64421   0.75444371   -106.88977   -3882.4542    4.3527281    4.3527281    4.3527281   -3882.4542   -2074.4671    -1324.564   -8248.3316   -325.73747    -12.67945    1858.7487     82.46784 
   93900    518.03031   -107.36067   0.46872472   -106.89195    2548.0567    4.3476653    4.3476653    4.3476653    2548.0567    12126.981    1444.0993     -5926.91   -3157.1036    5080.5108    13001.807     82.18041 
   94000    440.66881   -107.29193    0.3987264    -106.8932   -5167.2033    4.3465009    4.3465009    4.3465009   -5167.2033   -11417.194   -15665.558    11581.142   -18193.385   -5242.0501   -5302.4371    82.114398 
   94100     737.8535   -107.55635   0.66762536   -106.88872   -3512.8289    4.3530846    4.3530846    4.3530846   -3512.8289    5590.2181   -340.66069   -15788.044     3927.597    2128.0288    10914.175    82.488105 
   94200    591.33945   -107.42791   0.53505636   -106.89285   -325.49966    4.3450953    4.3450953    4.3450953   -325.49966    2831.9599   -4851.1543    1042.6954   -14196.818    500.07095    5304.1813    82.034763 
   94300    623.65881   -107.45557    0.5642996   -106.89127   -6702.3157    4.3515223    4.3515223    4.3515223   -6702.3157   -11122.642    -13853.44    4869.1354   -12470.125   -4944.5694   -1459.9246    82.399322 
   94400    620.45022   -107.45083   0.56139639   -106.88943    5138.1777    4.3475851    4.3475851    4.3475851    5138.1777    18658.467    378.61713   -3622.5509    2392.8515   -910.88005    11285.973    82.175862 
   94500    411.76848   -107.26649   0.37257677   -106.89391   -1707.2919    4.3480219    4.3480219    4.3480219   -1707.2919   -7824.2288   -580.78384    3283.1368       -24551   -1079.1618    450.58222    82.200637 
   94600    756.75848   -107.57465   0.68473098   -106.88992   -1836.3353     4.352033     4.352033     4.352033   -1836.3353   -1600.9888    11612.576   -15520.594   -1454.3684   -7929.1812    1698.2597    82.428338 
   94700     648.6384   -107.47819   0.58690165   -106.89129    3487.5824    4.3450202    4.3450202    4.3450202    3487.5824     13081.21     -2727.83    109.36669   -6662.0955    1078.4332    13014.772     82.03051 
   94800    444.03872   -107.29449   0.40177557   -106.89271   -11252.997    4.3523409    4.3523409    4.3523409   -11252.997   -14621.091   -25234.289    6096.3884   -20702.019   -4915.9984   -3204.4459    82.445835 
   94900    711.87238   -107.53261   0.64411709    -106.8885    108.43727    4.3476561    4.3476561    4.3476561    108.43727    9351.9715    134.43984   -9161.0995    9729.8745   -6630.7437    8185.2247     82.17989 
   95000    519.97885   -107.36293   0.47048779   -106.89244    666.96474    4.3475902    4.3475902    4.3475902    666.96474   -996.54086    1414.3799    1583.0551    -21590.61    3328.4913    6631.7856    82.176151 
   95100    691.86961   -107.51715   0.62601816   -106.89113   -5702.5989    4.3518989    4.3518989    4.3518989   -5702.5989   -10723.312    2941.0665   -9325.5513   -6583.6683   -11531.623   -4010.3609    82.420718 
   95200    590.75864   -107.42453   0.53453083      -106.89    8868.0563    4.3456165    4.3456165    4.3456165    8868.0563    17098.974    8540.0565    965.13844    74.487052    591.25486    10969.983    82.064286 
   95300    437.42388   -107.28908   0.39579032   -106.89329   -9528.5351    4.3512712    4.3512712    4.3512712   -9528.5351   -10548.817    -22100.83    4064.0415   -26907.645   -3336.6822   -1986.3485    82.385057 
   95400    737.21433   -107.55622   0.66704702   -106.88918    2487.5086    4.3486619    4.3486619    4.3486619    2487.5086    3730.1167    17637.721   -13905.312    7496.9637   -9560.9961    3543.4821    82.236935 
   95500    648.07151   -107.47751   0.58638872   -106.89113   -1844.0276    4.3478768    4.3478768    4.3478768   -1844.0276    1645.8393   -3921.5713   -3256.3507    -17418.31    3646.1988    7879.3678    82.192402 
   95600    461.32705   -107.31033   0.41741841   -106.89291   -6565.2543     4.349929     4.349929     4.349929   -6565.2543   -8611.2947   -14019.708    2935.2402   -14973.415   -7823.7537   -4367.9882    82.308847 
   95700     699.7071   -107.52195   0.63310969   -106.88884    459.02983    4.3481146    4.3481146    4.3481146    459.02983    6194.1792    1457.6043    -6274.694    2850.7354   -3314.0621    5859.8727     82.20589 
   95800    492.05112   -107.33868    0.4452182   -106.89346   -332.32976    4.3496714    4.3496714    4.3496714   -332.32976   -3929.0164   -2700.8655    5632.8927   -24107.195    2448.3224    3262.2009    82.294222 
   95900    750.98806    -107.5703   0.67950978   -106.89079    464.53372     4.348195     4.348195     4.348195    464.53372    -491.7698    15601.492   -13716.121   -1827.1262   -9160.3616   -5129.8178    82.210455 
   96000    611.40612   -107.44334    0.5532131   -106.89013    4506.4308    4.3496727    4.3496727    4.3496727    4506.4308    7397.4989    9642.3923   -3520.5988   -3989.3119   -192.29778     6563.828    82.294298 
   96100    401.22453   -107.25589   0.36303639   -106.89286   -5772.8713    4.3479967    4.3479967    4.3479967   -5772.8713   -3307.7016    -22021.34    8010.4273   -18577.488   -1716.4766    137.96825    82.199202 
   96200    675.11327   -107.50074   0.61085667   -106.88988   -1437.5722    4.3498196    4.3498196    4.3498196   -1437.5722     223.8107    6961.6035   -11498.131    5749.3342   -11217.349   -3453.8173    82.302632 
   96300    703.57275   -107.52786   0.63660741   -106.89125   -1406.0704    4.3483553    4.3483553    4.3483553   -1406.0704   -6673.3726   -196.74878    2651.9102   -16204.275    4954.9226    5628.6697    82.219547 
   96400     554.4313   -107.39393   0.50166109   -106.89227   -1389.1266    4.3485527    4.3485527    4.3485527   -1389.1266    926.09093   -3586.6157   -1506.8552   -11668.826   -8595.4934   -3841.5026    82.230744 
   96500    603.12579   -107.43533   0.54572089   -106.88961      1131.96    4.3499241    4.3499241    4.3499241      1131.96    6821.6416    1917.4501   -5343.2118    4257.2205   -6682.1787   -2013.1913    82.308566 
   96600    442.99268   -107.29283   0.40082908     -106.892     4848.677    4.3473056    4.3473056    4.3473056     4848.677     2136.926   -1139.4156    13548.521   -25920.022    4904.9503    1586.1842    82.160013 
   96700    763.14946   -107.58051   0.69051367      -106.89   -1897.4392    4.3505303    4.3505303    4.3505303   -1897.4392    -2062.912     11497.35   -15126.756    3933.1692   -15255.452   -5321.5806    82.342982 
   96800    657.68968   -107.48586   0.59509144   -106.89077     289.2284    4.3478393    4.3478393    4.3478393     289.2284   -4448.6961    6805.9183    -1489.537   -14767.836    526.22516    100.70805    82.190278 
   96900    502.78546   -107.34692   0.45493085   -106.89199   -6565.3825    4.3486636    4.3486636    4.3486636   -6565.3825    182.19777    -23940.19    4061.8443     -19167.4   -1911.2465   -480.30558    82.237036 
   97000    631.21126   -107.46011   0.57113321   -106.88898   -4588.7169     4.350661     4.350661     4.350661   -4588.7169    6356.2573   -11643.714   -8478.6936    6756.3874     -11474.5   -6419.4349    82.350405 
   97100    494.72024   -107.34049   0.44763327   -106.89286    1824.0857    4.3470805    4.3470805    4.3470805    1824.0857   -4393.2816   -498.05856    10363.597   -25855.566    7216.4052    2013.7016    82.147251 
   97200    772.52374    -107.5892   0.69899571   -106.89021    1741.3136    4.3501173    4.3501173    4.3501173    1741.3136    4430.2472    4916.4849   -4122.7912    2270.1601   -6117.3466   -4426.2969    82.319534 
   97300    603.48197    -107.4366   0.54604317   -106.89055    2286.7754    4.3487402    4.3487402    4.3487402    2286.7754     4306.948     2104.644    448.73407   -6964.4801   -1995.2456   -3897.1686     82.24138 
   97400    342.71485   -107.20462    0.3100956   -106.89452   -5386.0541    4.3482883    4.3482883    4.3482883   -5386.0541     -7114.71   -20794.785    11751.332   -20529.143    6481.7218    2660.2836    82.215742 
   97500     806.9647   -107.61888   0.73015862   -106.88873    -299.0573    4.3498317    4.3498317    4.3498317    -299.0573    7120.0663   -4766.5397   -3250.6985    8114.0302   -5766.8212   -3685.6273    82.303319 
   97600    597.52585    -107.4352   0.54065395   -106.89454   -4038.7818    4.3482757    4.3482757    4.3482757   -4038.7818   -9705.4736    -5778.491     3367.619   -21292.727    2783.0971    1361.7711     82.21503 
   97700    533.19583   -107.37748   0.48244679   -106.89503   -4233.8542    4.3491397    4.3491397    4.3491397   -4233.8542    1823.3885    -14708.17      183.219   -3995.5134    6414.9539    1721.4997    82.264049 
   97800    748.67931   -107.56589   0.67742077   -106.88847    63.669185    4.3490741    4.3490741    4.3490741    63.669185    13780.364   -15750.295    2160.9391   -37.397236   -3215.0235   -720.85484    82.260324 
   97900    284.75534   -107.15365   0.25765262     -106.896   -4203.5305    4.3496542    4.3496542    4.3496542   -4203.5305   -11946.385   -11257.976    10593.769   -24618.854    5595.0428     2064.984    82.293245 
   98000    832.23879   -107.64441   0.75302715   -106.89138       1588.6    4.3479939    4.3479939    4.3479939       1588.6    1210.0741    3857.8913   -302.16538    9656.8415    6123.4334    1379.8946    82.199047 
   98100    757.90636   -107.57728    0.6857696   -106.89151    5215.6534    4.3492841    4.3492841    4.3492841    5215.6534    5017.9985    1863.8878    8765.0738   -16356.254   -4975.9286    473.49895    82.272241 
   98200    300.88504   -107.16831   0.27224711   -106.89606   -7431.1428    4.3492065    4.3492065    4.3492065   -7431.1428   -4949.1433    -21018.42     3674.135   -8627.9518    8264.0177    4089.7525    82.267841 
   98300    638.38956   -107.46768   0.57762829   -106.89005    1074.4141    4.3484409    4.3484409    4.3484409    1074.4141    10097.816   -11969.896    5095.3221     11660.63    1279.4965   -494.62861      82.2244 
   98400    672.85148   -107.50088   0.60881016   -106.89207   -4041.1945     4.350086     4.350086     4.350086   -4041.1945   -8483.3094   -9810.5153    6170.2413   -22979.346   -2029.8318    2042.1979    82.317756 
   98500    574.25855   -107.41313    0.5196012   -106.89353   -1057.0592    4.3485743    4.3485743    4.3485743   -1057.0592   -3493.9458   -167.10939    489.87768    8768.1525     11544.08    2504.3141    82.231967 
   98600    752.63182   -107.56956   0.68099709   -106.88856    375.55652    4.3483168    4.3483168    4.3483168    375.55652    8023.1961   -12213.125     5316.599   -2222.4863    -4457.394   -3178.9454    82.217362 
   98700    332.72144   -107.19395   0.30105335   -106.89289    1379.3727    4.3499067    4.3499067    4.3499067    1379.3727    3788.8903   -8469.3061     8818.534   -16028.206    5829.5539    2119.3664    82.307578 
   98800    627.09158    -107.4599   0.56740564    -106.8925   -3198.5587    4.3487748    4.3487748    4.3487748   -3198.5587   -4858.8711   -605.44852   -4131.3566    16235.648    7436.6279   -2667.9424     82.24334 
   98900      825.498   -107.63708   0.74692794   -106.89016    5662.5618    4.3475113    4.3475113    4.3475113    5662.5618     971.7413    10618.853    5397.0911   -13551.252   -7931.8932    489.52689    82.171677 
   99000    533.41627   -107.37548   0.48264625   -106.89283   -8073.5762    4.3515265    4.3515265    4.3515265   -8073.5762   -7997.6285   -12535.202   -3687.8982   -1343.5529    11457.566    386.26238    82.399562 
   99100    473.06085   -107.31826    0.4280354   -106.89023    -4231.613    4.3479382    4.3479382    4.3479382    -4231.613    51.061523   -15812.554     3066.653    10422.692    150.37066    747.65545    82.195885 
   99200    624.10175   -107.45481   0.56470037   -106.89011   -366.62616    4.3476284    4.3476284    4.3476284   -366.62616     5272.734   -7962.8623    1590.2498   -17314.925   -4862.4255     545.2904    82.178317 
   99300     598.8246   -107.43483   0.54182908     -106.893    -1372.443    4.3519703    4.3519703    4.3519703    -1372.443   -5840.8981    4274.5792     -2551.01    12762.425    16372.713    2416.5617    82.424775 
   99400    775.46746   -107.59104   0.70165925   -106.88938    3030.0191    4.3458208    4.3458208    4.3458208    3030.0191    2928.9598    5681.0193    480.07835    -2027.877   -10274.405     1992.583    82.075857 
   99500    459.00243   -107.30672   0.41531504    -106.8914    440.54718    4.3505072    4.3505072    4.3505072    440.54718    175.38687   -2676.9179    3823.1726   -5119.0711    1624.6414    1495.4861    82.341672 
   99600    481.28198   -107.32691   0.43547405   -106.89144    -7592.551    4.3498826    4.3498826    4.3498826    -7592.551    -9636.173    -9069.252    -4072.228    13393.912    11535.935    4955.4511    82.306211 
   99700    703.59708   -107.52685   0.63662942   -106.89022    1928.8015    4.3463125    4.3463125    4.3463125    1928.8015    794.23198    9772.7855   -4780.6129   -8502.7835   -20233.366    -817.4716    82.103722 
   99800    731.10683   -107.55236   0.66152082   -106.89084    -3993.891    4.3516025    4.3516025    4.3516025    -3993.891     -2717.81    -1984.467   -7279.3959    6710.9847    14278.585    6127.3832    82.403878 
   99900     513.8562   -107.35608   0.46494789   -106.89113   -1437.5624    4.3472992    4.3472992    4.3472992   -1437.5624   -527.98321   -2690.5511   -1094.1529    3047.1958   -5014.8584   -929.47757    82.159652 
  100000    502.33702   -107.34509   0.45452509   -106.89056   -4218.0204    4.3493559    4.3493559    4.3493559   -4218.0204    2275.2201   -9962.6165   -4966.6647   -1863.3137   -14825.679    2244.4501    82.276316 
Loop time of 22.3244 on 1 procs for 100000 steps with 8 atoms

Pair  time (%) = 6.99187 (31.3194)
Kspce time (%) = 5.44511 (24.3909)
Neigh time (%) = 0 (0)
Comm  time (%) = 1.09377 (4.89943)
Outpt time (%) = 0.0247958 (0.11107)
Other time (%) = 8.76884 (39.2792)

Nlocal:    8 ave 8 max 8 min
Histogram: 1 0 0 0 0 0 0 0 0 0
Nghost:    2189 ave 2189 max 2189 min
Histogram: 1 0 0 0 0 0 0 0 0 0
Neighs:    2056 ave 2056 max 2056 min
Histogram: 1 0 0 0 0 0 0 0 0 0

Total # of neighbors = 2056
Ave neighs/atom = 257
Neighbor list builds = 0
Dangerous builds = 0
unfix 20
unfix 21
print "seeds:8602210"
seeds:8602210
