LAMMPS (10 Feb 2015)
# ---- initialize simulations
clear
units metal
dimension 3
boundary p p p
atom_style charge
atom_modify map array
# ---- create atoms
read_data /Users/eugeneragasa/pyflamestk_git/pypospack/tests/tests_integration/workflow/WorkflowLammpsThermalExpansion/MgO_NaCl_unit.npt.T600/lammps.structure
  triclinic box = (0 0 0) to (4.2565 4.2565 4.2565) with tilt (0 0 0)
  1 by 1 by 1 MPI processor grid
  reading atoms ...
  8 atoms
# ---- define interatomic potential
include potential.mod
mass 1 24.305
mass 2 15.999

group Mg type 1
4 atoms in group Mg
group O type 2
4 atoms in group O

set group Mg charge 1.7
  4 settings made for charge
set group O charge -1.7
  4 settings made for charge

variable R_cut equal 10.0

pair_style buck/coul/long ${R_cut}
pair_style buck/coul/long 10
pair_coeff 1 1 0.0 0.5 0.0 ${R_cut}
pair_coeff 1 1 0.0 0.5 0.0 10
pair_coeff 1 2 929.69 0.29909 0.0 ${R_cut}
pair_coeff 1 2 929.69 0.29909 0.0 10
pair_coeff 2 2 4870 0.2679 77 ${R_cut}
pair_coeff 2 2 4870 0.2679 77 10

kspace_style pppm 1.0e-5

neighbor 1.0 bin
neigh_modify every 1 delay 0 check yes
# ---- define settings
compute eng all pe/atom
compute eatoms all reduce sum c_eng
# ---- run minimization
reset_timestep 0
fix 1 all box/relax iso 0.0 vmax 0.001
thermo 10
thermo_style custom step pe lx ly lz xy xz yz press pxx pyy pzz pxy pxz pyz c_eatoms
min_style cg
minimize 1e-25 1e-25 5000 10000
PPPM initialization ...
  G vector (1/distance) = 0.353152
  grid = 8 8 8
  stencil order = 5
  estimated absolute RMS force accuracy = 4.10333e-05
  estimated relative force accuracy = 2.84961e-06
  using double precision FFTs
  3d grid and FFT values/proc = 3375 512
Neighbor list info ...
  1 neighbor list requests
  update every 1 steps, delay 0 steps, check yes
  master list distance cutoff = 11
Memory usage per processor = 4.06549 Mbytes
Step PotEng Lx Ly Lz Xy Xz Yz Press Pxx Pyy Pzz Pxy Pxz Pyz eatoms 
       0   -119.82944       4.2565       4.2565       4.2565            0            0            0   -43102.631   -43102.631   -43102.631   -43102.631 -1.1410716e-10 2.0651384e-11 1.0044018e-10   -119.82944 
       9    -119.8549     4.222448     4.222448     4.222448            0            0            0   -490.28356   -490.28356   -490.28356   -490.28356 -3.7927136e-11 -7.2182599e-11 3.2130495e-11    -119.8549 
Loop time of 0.212369 on 1 procs for 9 steps with 8 atoms

Minimization stats:
  Stopping criterion = linesearch alpha is zero
  Energy initial, next-to-last, final = 
        -119.829437963     -119.854898204     -119.854898204
  Force two-norm initial, final = 6.22404 0.0696885
  Force max component initial, final = 6.22404 0.069669
  Final line search alpha, max atom move = 1.75215e-06 1.2207e-07
  Iterations, force evaluations = 9 35

Pair  time (%) = 0.146239 (68.8606)
Kspce time (%) = 0.00446296 (2.10151)
Neigh time (%) = 0 (0)
Comm  time (%) = 0.00118756 (0.559197)
Outpt time (%) = 0 (0)
Other time (%) = 0.0604799 (28.4786)

Nlocal:    8 ave 8 max 8 min
Histogram: 1 0 0 0 0 0 0 0 0 0
Nghost:    2189 ave 2189 max 2189 min
Histogram: 1 0 0 0 0 0 0 0 0 0
Neighs:    2344 ave 2344 max 2344 min
Histogram: 1 0 0 0 0 0 0 0 0 0

Total # of neighbors = 2344
Ave neighs/atom = 293
Neighbor list builds = 0
Dangerous builds = 0
unfix 1
# ---- define output variables ----
variable natoms equal "count(all)"
variable tot_energy equal "c_eatoms"
variable length_x equal "lx"
variable length_y equal "ly"
variable length_z equal "lz"
variable tilt_xy equal "xy"
variable tilt_xz equal "xz"
variable tilt_yz equal "yz"
variable tot_press equal "press"
variable press_xx equal "pxx"
variable press_yy equal "pyy"
variable press_zz equal "pzz"
variable press_xy equal "pxy"
variable press_xz equal "pxz"
variable press_yz equal "pyz"

# ---- output ----
print "pypospack:output_section:begin"
pypospack:output_section:begin
print "tot_energy = ${tot_energy}"
tot_energy = -119.854898204259
print "num_atoms = ${natoms}"
num_atoms = 8
print "xx = ${length_x}"
xx = 4.222448
print "yy = ${length_y}"
yy = 4.222448
print "zz = ${length_z}"
zz = 4.222448
print "xy = ${tilt_xy}"
xy = 0
print "xz = ${tilt_xz}"
xz = 0
print "yz = ${tilt_yz}"
yz = 0
print "tot_press = ${tot_press}"
tot_press = -490.283556338482
print "pxx = ${press_xx}"
pxx = -490.283556338668
print "pyy = ${press_yy}"
pyy = -490.283556338614
print "pzz = ${press_zz}"
pzz = -490.283556338163
print "pxy = ${press_xy}"
pxy = -3.79271362347293e-11
print "pxz = ${press_xz}"
pxz = -7.2182599384956e-11
print "pyz = ${press_yz}"
pyz = 3.21304951944417e-11
print "pypospack:output_section:done"
pypospack:output_section:done
print "pypospack:lammps_sim:done"
pypospack:lammps_sim:done
#------------------------------------------------------------------------------
# RUN THERMOSTAT
# running using an NPT Nose-Hoover style thermostat
#------------------------------------------------------------------------------
variable tempdamp equal 0.1
variable pressdamp equal 1.0
# set initial velocities
velocity all create 600 1185466 mom yes dist gaussian loop all
# fix for Nose-Hoover style thermostat
fix 20 all npt temp 600 600 0.1 aniso 0.0 0.0 1.0 drag 1.0 couple xyz
variable boxx equal lx
variable boxy equal ly
variable boxz equal lz
variable boxp equal press
variable boxt equal temp
# calculate averages every 10000 steps
reset_timestep 0
fix 21 all ave/time 10 10 100 v_boxx v_boxy v_boxz v_boxp v_boxt file lattice.out
thermo_style custom step temp pe ke etotal press lx ly lz press pxx pyy pzz pxy pxz pyz vol
thermo_modify flush yes
thermo 100
run 100000
PPPM initialization ...
  G vector (1/distance) = 0.353501
  grid = 8 8 8
  stencil order = 5
  estimated absolute RMS force accuracy = 4.03791e-05
  estimated relative force accuracy = 2.80417e-06
  using double precision FFTs
  3d grid and FFT values/proc = 3375 512
Memory usage per processor = 3.06549 Mbytes
Step Temp PotEng KinEng TotEng Press Lx Ly Lz Press Pxx Pyy Pzz Pxy Pxz Pyz Volume 
       0          600    -119.8549   0.54289261     -119.312    7212.7894     4.222448     4.222448     4.222448    7212.7894    5906.7288    10346.599    5385.0401   -2735.9577   -679.67934   -1436.7087    75.282309 
     100    230.90799   -119.44551    0.2089304   -119.23658     -3624.87    4.2480898    4.2480898    4.2480898     -3624.87    -11600.19    14576.549   -13850.969    1748.6825    -3627.153   -1843.7073    76.662162 
     200    447.76757   -119.50045   0.40514951    -119.0953   -12229.019    4.2456124    4.2456124    4.2456124   -12229.019    -10417.96   -12407.368   -13861.729   -772.84645   -2109.7815   -3142.5277    76.528116 
     300    273.81788   -119.21171   0.24775617   -118.96395    22049.626    4.2392338    4.2392338    4.2392338    22049.626    13814.073    36145.264     16189.54   -3923.5506   -343.55986    -6692.786     76.18371 
     400    807.21549   -119.58718   0.73038554   -118.85679   -17698.651    4.2592614    4.2592614    4.2592614   -17698.651   -15903.449   -27935.983   -9256.5215    5767.1922     6189.908    1974.9591    77.268573 
     500    317.60526   -119.07815   0.28737591   -118.79077      10598.7    4.2528698    4.2528698    4.2528698      10598.7    2644.2718    28285.077    866.75082   -2891.9325    3724.4984   -1798.0046     76.92124 
     600    690.78984   -119.38346   0.62504116   -118.75842    -17543.14    4.2489107    4.2489107    4.2489107    -17543.14   -20414.875   -14536.461   -17678.083   -7291.9791   -2790.5424   -3221.9566    76.706613 
     700    526.85699   -119.23111   0.47671128   -118.75439    5592.1856    4.2545478    4.2545478    4.2545478    5592.1856   -6713.2289    29335.286   -5845.4997   -1475.5348   -4087.1167   -349.01118    77.012325 
     800    948.51552   -119.61016   0.85823677   -118.75192   -21969.099    4.2589777    4.2589777    4.2589777   -21969.099   -24104.517   -15186.839   -26615.941    -8947.917    2841.2018     4279.001    77.253134 
     900    409.23725   -119.12736   0.37028647   -118.75707    21733.543    4.2428358    4.2428358    4.2428358    21733.543    2869.6157    47199.601    15131.414    1698.8391    3871.6726    1462.0763    76.378067 
    1000    626.14531   -119.33137   0.56654944   -118.76482   -4735.2222    4.2557304    4.2557304    4.2557304   -4735.2222   -10822.396   -6527.1607    3143.8905   -1632.7963    1046.3916   -1365.0974     77.07656 
    1100    449.73214   -119.17175   0.40692709   -118.76482    4180.9173    4.2577659    4.2577659    4.2577659    4180.9173   -10665.221    19073.127     4134.846     -2439.01     869.2609   -11833.662    77.187208 
    1200    550.43455   -119.25935   0.49804475   -118.76131    14019.104    4.2383445    4.2383445    4.2383445    14019.104   -1692.4703    28328.717    15421.064    7109.4847    1472.9436    1237.4295    76.135775 
    1300    729.37078   -119.42612   0.65995001   -118.76617   -20499.476    4.2637093    4.2637093    4.2637093   -20499.476   -29093.479   -17212.742   -15192.206    -4206.702     2726.107   -3214.7543    77.510896 
    1400    554.69743   -119.26861   0.50190189   -118.76671    5739.5562    4.2473979    4.2473979    4.2473979    5739.5562   -170.89312    17977.978   -588.41654    -3691.765   -982.72896   -770.45842    76.624712 
    1500    825.45185   -119.51159   0.74688618   -118.76471   -1542.3329    4.2427724    4.2427724    4.2427724   -1542.3329    6707.7813   -7517.8588   -3816.9211   -8696.9942   -7332.8883    175.39546    76.374645 
    1600    399.00092   -119.12417   0.36102441   -118.76314   -8904.4666    4.2682151    4.2682151    4.2682151   -8904.4666   -8425.8668    6220.5114   -24508.044    -3174.848    904.18377    1504.7302    77.756894 
    1700     746.3498   -119.43368   0.67531298   -118.75836    12875.817    4.2359188    4.2359188    4.2359188    12875.817    14551.969    12153.732    11921.749    5354.7193    6288.3342    3258.3021    76.005123 
    1800    467.73557   -119.18947   0.42321697   -118.76625    3908.2418    4.2615764    4.2615764    4.2615764    3908.2418   -3463.3822    19847.004   -4658.8963   -7610.1639     2785.127   -4630.1211     77.39463 
    1900     646.3693   -119.34345   0.58484852    -118.7586   -18663.222    4.2593935    4.2593935    4.2593935   -18663.222   -24780.911    -22960.29    -8248.464   -1761.8346   -541.23687   -5412.0508    77.275763 
    2000    512.80293   -119.21776   0.46399487   -118.75376    10333.956    4.2391349    4.2391349    4.2391349    10333.956   -7644.1563    35623.474    3022.5508   -3990.1616    -3000.212   -2621.2614    76.178375 
    2100    733.09783   -119.41865   0.66332232   -118.75533   -27205.654     4.267046     4.267046     4.267046   -27205.654    -38318.01    -11195.14   -32103.812    4008.8319   -2037.2951   -3569.4488    77.693014 
    2200    830.44277   -119.50334   0.75140207   -118.75194    307.20636    4.2394241    4.2394241    4.2394241    307.20636    7162.8033   -4088.6779   -2152.5063   -942.17717   -504.82158    6634.5649    76.193967 
    2300    422.58853     -119.146   0.38236698   -118.76363    3550.0036    4.2534453    4.2534453    4.2534453    3550.0036   -6905.8752    15679.949    1875.9368   -5825.6204   -10876.122   -3706.2827    76.952469 
    2400     654.9373   -119.35396   0.59260103   -118.76136   -13106.244    4.2547349    4.2547349    4.2547349   -13106.244    1457.3866   -16355.514   -24420.604   -1445.8656    23.556214   -3298.8413    77.022482 
    2500    470.38585    -119.1869     0.425615   -118.76129    30504.062     4.239325     4.239325     4.239325    30504.062    40724.362    25852.348    24935.475    3746.5859    3105.9901   -2999.9396    76.188625 
    2600    690.48746   -119.38617   0.62476757    -118.7614   -21923.152    4.2686895    4.2686895    4.2686895   -21923.152   -7021.3962   -31392.761   -27355.298   -87.206405   -594.74539    70.359362    77.782821 
    2700    361.30925   -119.08706    0.3269202   -118.76014    15394.286    4.2387906    4.2387906    4.2387906    15394.286    32328.403    17562.566   -3708.1113   -2970.1434    3030.7812   -10325.369    76.159818 
    2800     798.7299   -119.48592    0.7227076   -118.76321   -7347.0239    4.2505931    4.2505931    4.2505931   -7347.0239    1410.2479   -17506.166   -5945.1531   -2587.4008    468.59517   -6816.9658     76.79777 
    2900    595.29064   -119.29606   0.53863148   -118.75743   -17503.518    4.2666523    4.2666523    4.2666523   -17503.518   -26396.161   -8313.8989   -17800.495    4857.3708    -6382.304    740.87915    77.671511 
    3000    819.98622   -119.49292   0.74194076   -118.75098   -3881.4855    4.2351997    4.2351997    4.2351997   -3881.4855   -1240.1643   -6803.1939   -3601.0984    8787.5675   -161.07153   -4553.8242    75.966424 
    3100    525.42841    -119.2379   0.47541867   -118.76248   -3314.1657    4.2581777    4.2581777    4.2581777   -3314.1657   -10785.521    11011.817   -10168.793   -3695.8234   -9826.2106   -2315.5533    77.209608 
    3200    753.21974   -119.43886   0.68152905   -118.75733   -15987.301    4.2583571    4.2583571    4.2583571   -15987.301   -11317.071   -7821.5728    -28823.26    -206.7507   -5884.1575   -4843.6557    77.219369 
    3300     471.1345   -119.18032    0.4262924   -118.75403    27602.489    4.2391763    4.2391763    4.2391763    27602.489     45918.35    24796.484    12092.633    1457.8296    3461.2884    6068.7201    76.180607 
    3400    532.94027    -119.2409   0.48221555   -118.75869   -4238.6508    4.2602774    4.2602774    4.2602774   -4238.6508    17513.505   -10235.355   -19994.102    369.50073    3195.8351     484.2799    77.323881 
    3500    415.91712   -119.13614   0.37633055   -118.75981    10111.656    4.2553603    4.2553603    4.2553603    10111.656    25938.409    7330.7543   -2934.1951   -6392.6551     8275.078    1089.9212    77.056451 
    3600    673.19857   -119.36723   0.60912421   -118.75811    7089.6265    4.2456309    4.2456309    4.2456309    7089.6265    32446.541   -1190.7696   -9986.8916   -3567.2232    4477.5474    5377.9654    76.529117 
    3700    481.62806   -119.19564   0.43578719   -118.75985   -2331.6809    4.2531521    4.2531521    4.2531521   -2331.6809   -4264.9242   -7762.2317    5032.1132     -8.37759   -763.19388   -4906.8699    76.936554 
    3800    694.63367   -119.38438   0.62851914   -118.75586   -17665.678    4.2577316    4.2577316    4.2577316   -17665.678    -24285.35   -19329.621   -9382.0614    3848.8039   -1878.9471    1758.5311    77.185346 
    3900    621.38378   -119.31867    0.5622411   -118.75643    2706.7969    4.2483499    4.2483499    4.2483499    2706.7969    -294.8306    14023.714   -5608.4924   -5703.3519    -2896.751   -16024.097    76.676247 
    4000    777.74414   -119.46569   0.70371924   -118.76197   -8795.4582    4.2512289    4.2512289    4.2512289   -8795.4582   -18507.139   -12556.793    4677.5577   -1551.6856   -1184.3369   -2963.0498    76.832235 
    4100    388.11604   -119.11487   0.35117555   -118.76369    1730.1088    4.2589694    4.2589694    4.2589694    1730.1088   -4024.4625    12669.484   -3454.6956    3560.7129   -1552.9536   -4370.2108    77.252683 
    4200    506.15316   -119.21793   0.45797801   -118.75996    6491.9612    4.2429671    4.2429671    4.2429671    6491.9612    25027.049   -14763.406    9212.2399    954.16107     141.2821   -6047.1243     76.38516 
    4300     563.2398   -119.27206   0.50963121   -118.76243    14006.925    4.2480725    4.2480725    4.2480725    14006.925    11708.543     28609.19    1703.0436   -380.34533    316.02689   -1174.8804    76.661227 
    4400    621.43534   -119.32287   0.56228776   -118.76058   -10307.276     4.264768     4.264768     4.264768   -10307.276   -25781.999   -29996.837    24857.007    -4549.096   -2409.2575   -2429.7326     77.56865 
    4500    611.61218   -119.30921   0.55339955   -118.75581    14391.017    4.2372806    4.2372806    4.2372806    14391.017   -2321.0253    9483.2994    36010.776    1211.9472   -3481.1055    10311.108    76.078452 
    4600    617.95739   -119.32656   0.55914083   -118.76742   -655.06362    4.2550889    4.2550889    4.2550889   -655.06362   -11437.434   -21364.649    30836.892    5990.0339   -1778.9746    160.67555    77.041711 
    4700    505.20077   -119.22095   0.45711628   -118.76384   -7234.3231    4.2611806    4.2611806    4.2611806   -7234.3231   -8095.9121   -20621.819    7014.7616    3870.7708     2584.452   -6833.5404    77.373072 
    4800    594.79721   -119.29447   0.53818501   -118.75629    17576.409    4.2298011    4.2298011    4.2298011    17576.409    39753.147    6058.8749    6917.2067    1960.5507    6493.9646   -18067.365    75.676289 
    4900     468.3166   -119.18602    0.4237427   -118.76228   -4721.0086    4.2593948    4.2593948    4.2593948   -4721.0086   -11350.656   -1729.8947   -1082.4751    12212.003    5737.2684    3052.1042    77.275834 
    5000    785.42632   -119.46822   0.71067024   -118.75755   -18509.719     4.255818     4.255818     4.255818   -18509.719   -18959.912   -9516.1647   -27053.081    3838.1063    2878.0356     1027.542    77.081322 
    5100    506.02795   -119.21449   0.45786472   -118.75662    15802.836    4.2395828    4.2395828    4.2395828    15802.836    9111.1488    33060.285    5237.0735    2522.4467    9321.5996   -3718.4441    76.202527 
    5200     684.9378    -119.3793   0.61974612   -118.75956   -20809.379    4.2611097    4.2611097    4.2611097   -20809.379   -32257.895   -6631.2548   -23538.988   -6825.6826    4977.3651    2863.4643    77.369209 
    5300    576.31367    -119.2818   0.52146072   -118.76034    4606.7024    4.2469538    4.2469538    4.2469538    4606.7024    537.37719    1069.5153    12213.215   -12076.574    5.8325188   -1063.9137    76.600677 
    5400    620.33368   -119.32505   0.56129095   -118.76376     3514.674    4.2485496    4.2485496    4.2485496     3514.674    9546.3041    6178.4318   -5180.7139   -890.87796   -5670.0051    2778.8974    76.687059 
    5500    592.27016   -119.29486   0.53589849   -118.75896   -11062.052    4.2615803    4.2615803    4.2615803   -11062.052   -584.25138    -24880.29   -7721.6149    73.743484   -4117.1258   -4131.5365    77.394846 
    5600    492.08719   -119.19978   0.44525083   -118.75453    15842.992    4.2434744    4.2434744    4.2434744    15842.992    27261.969   -1995.9053    22262.911    3004.6317   -2078.9039    688.73983     76.41256 
    5700    699.03097   -119.39084   0.63249792   -118.75834   -6355.2409    4.2536638    4.2536638    4.2536638   -6355.2409    16109.077   -16242.896   -18931.904    1464.2141   -11766.549    953.70401    76.964328 
    5800    384.77853   -119.11027    0.3481557   -118.76211    4849.9731    4.2542779    4.2542779    4.2542779    4849.9731    23792.994   -12473.939    3230.8647     11812.26   -9295.9983   -2320.6803    76.997667 
    5900    487.53568   -119.20194   0.44113253    -118.7608     10997.29    4.2451077    4.2451077    4.2451077     10997.29    17343.809    1473.7876    14174.273    11469.777   -7978.0682    -56.69458    76.500828 
    6000    665.52955   -119.36391   0.60218512   -118.76173   -2682.7539    4.2525192    4.2525192    4.2525192   -2682.7539     14342.75   -6299.0123   -16091.999    7036.0205    6098.6563   -148.81764    76.902216 
    6100    671.44242    -119.3673   0.60753521   -118.75976   -2664.8859    4.2523952    4.2523952    4.2523952   -2664.8859    4082.2111   -191.41842    -11885.45   -995.79223   -942.82855    2383.9351    76.895489 
    6200    719.77325   -119.41058   0.65126596   -118.75931   -15253.742    4.2500652    4.2500652    4.2500652   -15253.742   -14005.855   -16408.601    -15346.77     1731.731    2009.6304   -6788.2943    76.769161 
    6300    489.72311   -119.20384   0.44311176   -118.76073   -5728.9264    4.2500879    4.2500879    4.2500879   -5728.9264   -12941.164    -816.3592    -3429.256     2397.042    6453.8511   -5737.4315     76.77039 
    6400    777.45236   -119.46429   0.70345523   -118.76084   -9638.5963    4.2572939    4.2572939    4.2572939   -9638.5963   -182.18443   -14547.215    -14186.39   -319.68099    9381.8829   -3640.4423    77.161542 
    6500    804.27525   -119.48733   0.72772515    -118.7596    6565.9506    4.2443015    4.2443015    4.2443015    6565.9506    5717.5701   -2476.7942    16457.076   -2002.9765    4508.8741    2509.0557    76.457251 
    6600    569.33342   -119.27816   0.51514485   -118.76302    10658.356      4.24421      4.24421      4.24421    10658.356    20290.183     1262.954     10421.93    682.17213   -3932.0861   -1748.5595    76.452308 
    6700    426.43871   -119.14884   0.38585071   -118.76299    -7821.869    4.2638504    4.2638504    4.2638504    -7821.869   -20814.631   -20692.164    18041.188   0.21289385   -9648.1063   -3063.2962    77.518591 
    6800      520.856   -119.23142   0.47128145   -118.76013    16353.244    4.2426577    4.2426577    4.2426577    16353.244    15543.108   -15874.292    49390.914    7150.9768   -8235.8497    4115.4482    76.368454 
    6900    618.13026   -119.32246   0.55929725   -118.76316    5576.4087    4.2487502    4.2487502    4.2487502    5576.4087    6430.7164   -12305.229    22603.739   -126.46443   -8131.5635    3366.6201    76.697921 
    7000    580.80728   -119.28511   0.52552663   -118.75958   -10462.065    4.2622245    4.2622245    4.2622245   -10462.065   -19470.776    -25626.63     13711.21   -2094.8813   -12637.411     3915.976    77.429946 
    7100    510.13067   -119.22018   0.46157695   -118.75861    999.69828    4.2407654    4.2407654    4.2407654    999.69828    11044.718   -19156.944    11111.321    13036.867   -6876.9264    -5536.382     76.26631 
    7200    509.72377   -119.22393   0.46120878   -118.76272   -6160.1376    4.2498701    4.2498701    4.2498701   -6160.1376    5529.5621   -27862.946    3852.9713    4565.2138    3109.4674   -619.17294    76.758584 
    7300    836.51947   -119.51746    0.7569004   -118.76056   -16445.996    4.2589132    4.2589132    4.2589132   -16445.996   -23888.417   -30715.661    5266.0914   -2982.7103    7278.1011   -97.805326     77.24962 
    7400    586.14391   -119.29362   0.53035532   -118.76327    16113.312    4.2379847    4.2379847    4.2379847    16113.312    2970.6036   -5512.3848    50881.717    5306.9814     5350.727    6476.8816    76.116384 
    7500    584.96551   -119.29816   0.52928909   -118.76887   -11465.454    4.2497106    4.2497106    4.2497106   -11465.454   -12945.495   -26547.767    5096.9005    11507.723   -2768.0601    1863.8133    76.749943 
    7600     456.0122   -119.18017   0.41260942   -118.76756    2114.1187    4.2506083    4.2506083    4.2506083    2114.1187   -6775.1718   -2073.2485    15190.776   -2270.9653   -5511.1905   -10175.582    76.798592 
    7700    703.95892   -119.40137   0.63695682   -118.76441   -6213.7801    4.2474932    4.2474932    4.2474932   -6213.7801    3240.6898     -19687.2   -2194.8301   -1417.6239   -2730.1916   -971.88969    76.629869 
    7800    638.68586   -119.34129   0.57789639   -118.76339    7659.3695     4.244734     4.244734     4.244734    7659.3695    26763.562    281.83232   -4067.2853   -1119.4339   -250.63819   -1911.0616    76.480628 
    7900    563.47151   -119.27572   0.50984086   -118.76588    7264.9376    4.2527598    4.2527598    4.2527598    7264.9376    16046.816   -5017.9454    10765.943    558.56054   -7008.0616    1120.9796    76.915271 
    8000    523.46868   -119.24103   0.47364546   -118.76739    -1293.517    4.2530368    4.2530368    4.2530368    -1293.517    12649.623   -28783.854     12253.68   -2966.6782   -2805.2456   -5904.4269    76.930298 
    8100    739.51122   -119.43111    0.6691253   -118.76198    12150.191    4.2388576    4.2388576    4.2388576    12150.191    3022.8781    6895.3445    26532.351   -7719.8483   -2212.9809    6448.2336    76.163426 
    8200    722.67369   -119.41752   0.65389034   -118.76363   -14682.774    4.2593136    4.2593136    4.2593136   -14682.774   -19518.129   -26287.451    1757.2571   -3992.6007    3515.7548   -2013.5512    77.271411 
    8300    686.49187   -119.38399   0.62115227   -118.76284    -10689.46    4.2483439    4.2483439    4.2483439    -10689.46    10264.476   -30388.176    -11944.68    3743.0059    3742.9346    9770.9875    76.675923 
    8400    606.80109   -119.31319   0.54904638   -118.76415   -2189.5748    4.2402542    4.2402542    4.2402542   -2189.5748   -3511.8817   -15045.643      11988.8    4795.6428   -4949.1203    1455.4881    76.238735 
    8500    641.90756   -119.34296   0.58081145   -118.76215   -27676.269    4.2676674    4.2676674    4.2676674   -27676.269    -23446.75   -33222.843   -26359.213    -6905.302   -6982.6203   -5206.5594    77.726962 
    8600     664.8456   -119.36037   0.60156627   -118.75881    636.75781    4.2440187    4.2440187    4.2440187    636.75781    29183.644   -25917.323   -1356.0478    3502.8703   -5824.2973     12471.64    76.441968 
    8700    541.06264   -119.25135   0.48956485   -118.76178     4594.458    4.2435432    4.2435432    4.2435432     4594.458     23141.87   -18768.486    9409.9905    7581.7163   -3083.9666   -1599.4243    76.416279 
    8800    551.19006   -119.25706   0.49872835   -118.75834    -7964.865    4.2622946    4.2622946    4.2622946    -7964.865    4897.7578   -27968.705   -823.64787    -3913.448   -1516.9085    1749.3244    77.433769 
    8900      536.432   -119.24564   0.48537495   -118.76027    10990.683    4.2431903    4.2431903    4.2431903    10990.683    24659.786   -1123.0119    9435.2754    3089.2672   -2409.3671    2375.1531    76.397217 
    9000    590.05127   -119.29719   0.53389079    -118.7633    14229.432    4.2416716    4.2416716    4.2416716    14229.432    31036.875   -4255.6353    15907.056   -714.60282    937.39523    6230.2886    76.315214 
    9100    554.03865    -119.2662   0.50130581   -118.76489   -15541.157    4.2674748    4.2674748    4.2674748   -15541.157   -2326.0649   -20151.905     -24145.5     7435.585    10532.237     4710.026    77.716441 
    9200    529.29291   -119.24019   0.47891535   -118.76128    55.986463    4.2441005    4.2441005    4.2441005    55.986463   -747.98396   -11800.791    12716.734    2995.3198    2163.2925   -7500.1525    76.446389 
    9300    782.78666   -119.46838   0.70828182    -118.7601    5234.0082    4.2417001    4.2417001    4.2417001    5234.0082    15993.325    5219.8316   -5511.1325    1264.9307    6535.0719    -2967.765    76.316752 
    9400    525.60873   -119.23295   0.47558182   -118.75737   -17471.575    4.2686635    4.2686635    4.2686635   -17471.575   -15909.038   -3433.0936   -33072.592    3425.0029   -7951.2828   -2859.0894      77.7814 
    9500    725.92654   -119.40993   0.65683359   -118.75309    6511.3818    4.2372683    4.2372683    4.2372683    6511.3818    11237.284    8393.1165   -96.254744    1785.2255    -3556.566    5110.9582    76.077788 
    9600    718.09968    -119.4091   0.64975168   -118.75935    9924.1396    4.2424664    4.2424664    4.2424664    9924.1396    12513.574    1403.6093    15855.235    1678.8924    4229.0538   -2504.9353    76.358121 
    9700    784.19232   -119.46968   0.70955369   -118.76012   -11882.999    4.2620026    4.2620026    4.2620026   -11882.999   -897.01584   -17889.109   -16862.873   -6427.1864   -6255.3632   -6985.6651    77.417854 
    9800    600.62222   -119.30324    0.5434556   -118.75978    4970.5566    4.2417587    4.2417587    4.2417587    4970.5566   -5248.0916    11420.463    8739.2981    998.67196   -2102.6907    3784.3098    76.319916 
    9900    613.58211   -119.31839   0.55518198    -118.7632   -5653.7048    4.2422032    4.2422032    4.2422032   -5653.7048   -8711.1117   -5751.4767   -2498.5259    860.47809   -7802.5505    5330.6672    76.343913 
   10000    633.72963   -119.33935   0.57341189   -118.76594   -13585.504    4.2594944    4.2594944    4.2594944   -13585.504   -1504.6197   -29414.078   -9837.8155    -6956.677    214.44365    89.677738    77.281252 
   10100    666.34602   -119.36477   0.60292389   -118.76185   -3624.5815    4.2469484    4.2469484    4.2469484   -3624.5815    16197.401   -24108.219   -2962.9261   -3682.9312    5507.1093   -3908.8667    76.600386 
   10200    452.40602   -119.16954   0.40934647   -118.76019    11886.314    4.2416338    4.2416338    4.2416338    11886.314    44366.089   -11225.906    2518.7579   -5311.5693   -658.98667    140.77618    76.313175 
   10300    594.75349   -119.29899   0.53814545   -118.76084   -9798.8414    4.2562862    4.2562862    4.2562862   -9798.8414    18578.506   -26722.512   -21252.518   -5085.3385     -359.882    4754.5685    77.106761 
   10400    736.90554   -119.42991   0.66676762   -118.76315    -677.8831    4.2444022    4.2444022    4.2444022    -677.8831    21432.885   -11632.741   -11833.794   -2189.3869    9172.8502   -1112.8169    76.462693 
   10500    516.86666   -119.23481   0.46767182   -118.76714    3740.1627    4.2443595    4.2443595    4.2443595    3740.1627     24271.11   -16799.935    3749.3136   -2277.0209    10458.227   -3191.2067    76.460383 
   10600    535.24501   -119.25158   0.48430093   -118.76728    -18907.87    4.2547513    4.2547513    4.2547513    -18907.87   -15022.639   -26364.754   -15336.218   -1383.6754     3011.507   -4236.9503    77.023375 
   10700    602.89527   -119.30996   0.54551231   -118.76445    20151.248    4.2406892    4.2406892    4.2406892    20151.248    30227.018    14297.471    15929.254    3784.8965   -1648.6558    2100.6847    76.262202 
   10800    804.13164    -119.4945   0.72759521    -118.7669   -3578.7698    4.2519424    4.2519424    4.2519424   -3578.7698    30595.196   -20921.383   -20410.122    7998.5804   -5552.5211   -4657.3667    76.870929 
   10900    348.08935   -119.08169   0.31495856   -118.76673    13162.102     4.248163     4.248163     4.248163    13162.102    21444.622    16236.932     1804.752    2311.6028   -5904.3875   -6546.9809    76.666125 
   11000    385.55691   -119.11631   0.34885999   -118.76745    3447.5616    4.2424798    4.2424798    4.2424798    3447.5616    11630.951   -9033.0149    7744.7489    -1204.847   -6955.5155   -3456.9365    76.358843 
   11100    669.21091   -119.37104   0.60551609   -118.76553   -8835.0242    4.2539738    4.2539738    4.2539738   -8835.0242    6203.8866   -23902.686   -8806.2733   -8281.9182   -6118.3875   -2105.4507    76.981156 
   11200    660.28987   -119.35892   0.59744415   -118.76148   -4640.5859    4.2521766    4.2521766    4.2521766   -4640.5859    20948.691   -6886.5615   -27983.887    -8212.038   -9339.2211   -808.85881    76.883631 
   11300    552.62862   -119.25875   0.50002999   -118.75872      4575.99    4.2430295    4.2430295    4.2430295      4575.99    21379.684    8560.8775   -16212.591   -2255.3522    3888.5896   -5698.7246    76.388529 
   11400     348.6897   -119.07949   0.31550176   -118.76399    2354.9219    4.2598967    4.2598967    4.2598967    2354.9219    37366.201   -17848.095   -12453.341   -12949.306    3878.5036    3489.6286    77.303152 
   11500    615.75146   -119.31941   0.55714486   -118.76227    5077.8871    4.2483804    4.2483804    4.2483804    5077.8871    24602.577   -16501.592    7132.6768   -4843.5093    11456.069    6755.8635    76.677895 
   11600    550.85389    -119.2586   0.49842418   -118.76018     16425.34    4.2408406    4.2408406    4.2408406     16425.34    29122.879    3831.5757    16321.565     3296.088    4506.4149    1729.0136     76.27037 
   11700    585.56326   -119.28691   0.52982994   -118.75708   -9602.0636     4.261039     4.261039     4.261039   -9602.0636    13777.015   -26333.371   -16249.834   -1638.7988    6409.1329    -2668.361    77.365355 
   11800    675.09729   -119.36942   0.61084221   -118.75858    2873.3723    4.2416686    4.2416686    4.2416686    2873.3723    5204.0585     11613.83    -8197.772    1533.5845    3562.6504   -2718.9975    76.315053 
   11900    625.65016    -119.3269   0.56610142    -118.7608    3828.7148    4.2451548    4.2451548    4.2451548    3828.7148    18246.201   -6004.5689   -755.48751   -2664.4494   -4627.1702    4334.5849    76.503377 
   12000    426.02928   -119.14931   0.38548025   -118.76383   -5043.4151      4.25482      4.25482      4.25482   -5043.4151    341.37583   -7390.1917   -8081.4294    2331.1455   -656.52005   -1294.0454    77.027103 
   12100    656.28868   -119.35793   0.59382379    -118.7641    7969.9145    4.2358057    4.2358057    4.2358057    7969.9145    14483.074    5946.5788    3480.0912    1598.2244   -6057.9609   -7487.3703    75.999039 
   12200    643.23313   -119.35272   0.58201085   -118.77071   -1062.4211    4.2521467    4.2521467    4.2521467   -1062.4211    26150.727   -13506.691   -15831.299    574.55474   -8687.8523   -7173.5384     76.88201 
   12300    681.18372   -119.37855   0.61634935    -118.7622    -21661.93    4.2567766    4.2567766    4.2567766    -21661.93   -22428.918   -31176.963   -11379.908   -7690.7792   -2089.2802    5010.6783    77.133415 
   12400    374.46423   -119.09687   0.33882311   -118.75804    14157.977    4.2351664    4.2351664    4.2351664    14157.977    16554.309    8461.7239    17457.896   -10931.357   -8014.0672   -3119.1595    75.964631 
   12500    763.44939   -119.45244   0.69078505   -118.76165   -21530.243    4.2574793    4.2574793    4.2574793   -21530.243   -6509.7379   -28318.267   -29762.723    5302.1599   -103.74228   -7690.2611    77.171624 
   12600    659.48647   -119.35889   0.59671722   -118.76217     8816.088    4.2493636    4.2493636    4.2493636     8816.088    8729.9502    10718.564    6999.7503   -1844.2546    544.93379   -4366.3059    76.731143 
   12700    740.49098   -119.42819    0.6700118   -118.75818    7812.4754    4.2381112    4.2381112    4.2381112    7812.4754    6997.3523    10965.392    5474.6825   -13113.774    -1549.612     2925.776    76.123203 
   12800    458.76372   -119.17764   0.41509905   -118.76254    -307.7549    4.2577408    4.2577408    4.2577408    -307.7549   -3834.8964    -2631.718    5543.3497   -6862.2752    6296.3188    1643.6352    77.185842 
   12900    654.93424   -119.35188   0.59259827   -118.75929     9130.769    4.2438872    4.2438872    4.2438872     9130.769    11868.478    3603.1419    11920.687   -1254.4216   -878.59664   -8717.1785    76.434863 
   13000    761.82628   -119.44992   0.68931643    -118.7606   -8839.7898    4.2480152    4.2480152    4.2480152   -8839.7898    -2616.305   -1918.6619   -21984.403    1385.9208    3434.5213   -767.12907    76.658124 
   13100    672.79453   -119.37058   0.60875863   -118.76183   -8168.6595    4.2500751    4.2500751    4.2500751   -8168.6595    765.03781   -11230.601   -14040.415   -2672.8292    7462.0016   -2319.3474    76.769694 
   13200    695.26867   -119.39494   0.62909371   -118.76584   -11009.957    4.2443144    4.2443144    4.2443144   -11009.957   -12926.095   -22785.437    2681.6614    -13632.89   -3435.5291    793.08088     76.45795 
   13300    487.80429    -119.2071   0.44137557   -118.76573   -14509.209    4.2560901    4.2560901    4.2560901   -14509.209    18459.161   -34482.981   -27503.807     5707.673    7143.6559   -12902.536    77.096106 
   13400    567.12191    -119.2756   0.51314382   -118.76246    2607.6695    4.2414841    4.2414841    4.2414841    2607.6695    21479.326   -2368.5767   -11287.741    5035.9488    610.11768   -13910.494    76.305092 
   13500    671.28993   -119.37135   0.60739724   -118.76396   -1087.3581    4.2476261    4.2476261    4.2476261   -1087.3581    -4853.361    7750.6134   -6159.3267    2430.8401    1370.0527    352.26083     76.63706 
   13600    651.18967   -119.35206    0.5892101   -118.76285   -703.67162    4.2542554    4.2542554    4.2542554   -703.67162    13221.519   -1916.6848   -13415.849   -5086.1669    6806.0181   -7482.7751    76.996444 
   13700     553.7473   -119.26403   0.50104219   -118.76299     8502.297     4.237819     4.237819     4.237819     8502.297    27333.399    3748.7501   -5575.2579   -1535.3368   -3296.6898   -10471.422    76.107458 
   13800    440.16914   -119.16632   0.39827429   -118.76805   -5057.4119    4.2515997    4.2515997    4.2515997   -5057.4119   -18422.382    1964.3041     1285.842     7063.268   -109.15274    -5268.995    76.852344 
   13900    633.79952   -119.33725   0.57347512   -118.76377   -483.75218    4.2473941    4.2473941    4.2473941   -483.75218     4574.769   -12357.989    6331.9635    13911.448    1754.7891    5741.7907    76.624507 
   14000    656.78051   -119.35649   0.59426881   -118.76222    1425.3975     4.244396     4.244396     4.244396    1425.3975    12736.303   -11589.212    3129.1009   -8878.3746   -3222.3597    4628.4157    76.462359 
   14100    560.34413   -119.27266   0.50701114   -118.76565    3221.0738    4.2479024    4.2479024    4.2479024    3221.0738     3736.802   -6975.9063    12902.326    1820.7209    2256.1038   -233.18358    76.652017 
   14200    439.85062   -119.16595   0.39798609   -118.76796    3873.6729    4.2469924    4.2469924    4.2469924    3873.6729    18944.125   -16697.727    9374.6205    5950.1423   -5998.6329   -6396.4972    76.602768 
   14300    651.69458   -119.35477   0.58966695    -118.7651    -6327.696    4.2517599    4.2517599    4.2517599    -6327.696    2232.4935   -5955.8935   -15259.688    8522.2612    1340.0089    4341.4971    76.861027 
   14400    801.60262   -119.48515    0.7253069   -118.75984    2865.5697    4.2424374    4.2424374    4.2424374    2865.5697   -3315.6645    18974.193   -7061.8196   -8266.5864    8798.8283     66.12457    76.356556 
   14500    748.95356   -119.43962   0.67766892   -118.76195   -19441.569    4.2579732    4.2579732    4.2579732   -19441.569   -20452.228   -13235.339   -24637.141   -7035.6949   -2840.8106   -6703.2329    77.198482 
   14600    504.10657   -119.21771   0.45612622   -118.76158   -651.80981     4.248745     4.248745     4.248745   -651.80981    567.02646     208.6059   -2731.0618   -4045.5438    2758.9257    473.12615     76.69764 
   14700    488.28483   -119.20234   0.44181038   -118.76053    9399.7287    4.2406913    4.2406913    4.2406913    9399.7287    18434.677   -6474.2615     16238.77    4392.2127    320.10836    1413.5665    76.262314 
   14800    547.63966   -119.25504   0.49551587   -118.75953   -6110.8866    4.2604502    4.2604502    4.2604502   -6110.8866   -4400.7975   -7366.0331   -6565.8292    397.72034   -1521.8702    5171.3685    77.333291 
   14900    701.07107   -119.39133   0.63434384   -118.75699      7944.91    4.2446788    4.2446788    4.2446788      7944.91    16712.543    7923.5772   -801.38986   -1143.5114    -488.9635    6097.5912    76.477643 
   15000    601.55606   -119.30379   0.54430056   -118.75949    -1890.882    4.2442981    4.2442981    4.2442981    -1890.882     10765.36   -13593.262    -2844.744    7909.6949   -3463.2055   -3675.2864    76.457068 
   15100     360.2102   -119.08917   0.32592576   -118.76325   -4909.2163    4.2552569    4.2552569    4.2552569   -4909.2163    15695.133    -23887.79   -6534.9923    13570.012    4327.7501   -3446.8326    77.050837 
   15200    659.42929   -119.35889   0.59666548   -118.76222   -5025.4317    4.2463718    4.2463718    4.2463718   -5025.4317   -8068.5095   -5198.8465    -1808.939    2599.0025     3986.158   -720.22094     76.56919 
   15300    856.47052    -119.5342   0.77495252   -118.75925    -327.1016    4.2437982    4.2437982    4.2437982    -327.1016   -8792.1066    2496.9208     5313.881   -5513.1793   -3361.1099   -4461.4364    76.430055 
   15400    757.15924   -119.44759   0.68509359   -118.76249   -7228.5691    4.2503383    4.2503383    4.2503383   -7228.5691   -8274.4372   -14813.227    1401.9567    3028.0648   -2377.4119   -1771.5806    76.783957 
   15500     310.0827   -119.04891   0.28056935   -118.76834    5153.3453    4.2451979    4.2451979    4.2451979    5153.3453   -2229.9965    288.74964    17401.283    3054.6282   -857.72579    -4013.969    76.505704 
   15600    542.23135   -119.25819   0.49062232   -118.76757    5788.5586    4.2431209    4.2431209    4.2431209    5788.5586    26108.834   -15376.499    6633.3413    3092.7323   -2311.7636   -2651.4631    76.393469 
   15700    658.82548   -119.36258   0.59611914   -118.76646    3772.7266    4.2485307    4.2485307    4.2485307    3772.7266   -1040.5904    1494.7955    10863.975   -7696.6136   -991.50543    1060.7996    76.686035 
   15800    715.69542   -119.41237   0.64757625   -118.76479    -2469.932    4.2450345    4.2450345    4.2450345    -2469.932    3238.7657    -10791.72    143.15791    719.78812   -2197.1098    3011.3087    76.496869 
   15900    429.61591    -119.1562   0.38872551   -118.76747   -1142.1634    4.2486692    4.2486692    4.2486692   -1142.1634     9387.332   -17026.146     4212.324    8774.8674   -3928.1812   -5730.4086    76.693532 
   16000    597.91656   -119.30653   0.54100747   -118.76552   -8375.5155    4.2466516    4.2466516    4.2466516   -8375.5155   -10209.723   -26338.896    11422.072    8508.1268   -865.68959    441.33265    76.584329 
   16100    447.93093   -119.17156   0.40529732   -118.76626   -819.17466    4.2483658    4.2483658    4.2483658   -819.17466   -10796.098    2664.6591    5673.9152   -8963.2154    4398.4398   -2693.7131    76.677106 
   16200    743.31457   -119.43465   0.67256664   -118.76209   -10003.553    4.2479905    4.2479905    4.2479905   -10003.553   -5592.7645    -10837.64   -13580.254    925.04388   -2140.8096    4259.4353    76.656787 
   16300    696.04621   -119.39086   0.62979723   -118.76106   -2714.4932    4.2496488    4.2496488    4.2496488   -2714.4932   -10824.574   -713.60371    3394.6986    5305.0112    440.45028   -3138.4895    76.746597 
   16400    775.38958   -119.46273   0.70158879   -118.76114   -9581.9123    4.2485452    4.2485452    4.2485452   -9581.9123   -13803.257   -9825.1496   -5117.3303    2131.3693    4372.3283    -4879.167    76.686819 
   16500    468.37348   -119.18714   0.42379417   -118.76335    6006.8396    4.2455382    4.2455382    4.2455382    6006.8396    22111.014   -14796.461    10705.966   -8340.0246    113.68129   -6748.4702    76.524107 
   16600    544.61349   -119.25236   0.49277773   -118.75958    -10480.14    4.2583778    4.2583778    4.2583778    -10480.14   -8877.6496   -10712.835   -11849.936   -263.74966    1497.7198   -5032.4194    77.220491 
   16700    794.65164   -119.47526    0.7190175   -118.75624    14691.618    4.2393334    4.2393334    4.2393334    14691.618    12729.849    7213.0666    24131.938    7835.6698   -3653.5573    4888.8576     76.18908 
   16800    699.60951   -119.39702   0.63302138     -118.764    1271.9569    4.2484779    4.2484779    4.2484779    1271.9569   -175.09667   -4597.9799    8588.9473    3696.8653   -4484.3644    -2380.948    76.683177 
   16900    252.17016   -118.99455   0.22816886   -118.76638    1799.3374      4.25252      4.25252      4.25252    1799.3374    6720.7042   -7722.3296    6399.6376   -789.08557    5447.3921   -936.08872    76.902256 
   17000    394.33355   -119.12039   0.35680128   -118.76359    13203.041    4.2407112    4.2407112    4.2407112    13203.041    11594.059   -5255.6503    33270.715   -8115.6338    1507.6013    2715.1509    76.263389 
   17100    748.22234   -119.44129   0.67700729   -118.76428   -3215.3611    4.2519961    4.2519961    4.2519961   -3215.3611    785.59938   -20533.232     10101.55   -1017.7472   -3166.5744    9741.3594    76.873842 
   17200    860.17097   -119.53814   0.77830077   -118.75984    2429.1867    4.2453856    4.2453856    4.2453856    2429.1867    2162.8333   -11441.578    16566.304    296.23385    596.09623    477.70129    76.515854 
   17300    386.47927   -119.11283   0.34969456   -118.76313   -13582.889    4.2568647    4.2568647    4.2568647   -13582.889    1438.9956   -31658.917   -10528.746   -12484.336    5973.1114    1424.6501    77.138208 
   17400    506.11139   -119.21918   0.45794022   -118.76124   -7327.3703    4.2413955    4.2413955    4.2413955   -7327.3703    1364.7462   -7603.6397   -15743.217   -6809.7507    9869.2306     1795.456    76.300312 
   17500    762.41804   -119.45234   0.68985186   -118.76249    3122.3124    4.2450932    4.2450932    4.2450932    3122.3124     3605.584    3327.4487    2433.9046    755.86851    2352.7842    2685.5426    76.500046 
   17600    827.41407   -119.50695   0.74866164   -118.75829   -21838.511    4.2593564    4.2593564    4.2593564   -21838.511   -19060.644   -16045.426   -30409.462    2697.4942   -579.20206    564.70028    77.273744 
   17700    498.60696     -119.212   0.45115006   -118.76085    911.01915    4.2364542    4.2364542    4.2364542    911.01915    5015.3761    17610.959   -19893.277   -787.58017    2875.2052   -3189.1726     76.03395 
   17800    544.17701    -119.2605    0.4923828   -118.76812    -7228.545    4.2495041    4.2495041    4.2495041    -7228.545   -5346.8885   -2077.8646   -14260.882    1504.5884    9589.3467   -1460.0853    76.738757 
   17900     768.4972   -119.45774   0.69535241   -118.76239    -8283.678    4.2558865    4.2558865    4.2558865    -8283.678    12809.524   -26053.578    -11606.98    1539.6062    1841.1205    2610.8644    77.085039 
   18000    658.78905   -119.35181   0.59608618   -118.75572    12695.529    4.2406134    4.2406134    4.2406134    12695.529    14224.341    12013.075     11849.17    4505.3244   -5256.5185   -8497.3034    76.258112 
   18100    573.95335   -119.27885   0.51932505   -118.75952    6656.7257    4.2429445    4.2429445    4.2429445    6656.7257    27837.248   -8252.8453    385.77453     2269.655   -4614.8661   -5359.7716    76.383937 
   18200    380.46652   -119.10755    0.3442541    -118.7633   -945.52185    4.2585842    4.2585842    4.2585842   -945.52185     16107.02   -21804.969    2861.3833   -15107.231    937.69911    171.82758     77.23172 
   18300    728.79783   -119.42092    0.6594316   -118.76149    7393.9364    4.2404996    4.2404996    4.2404996    7393.9364    18303.494    -3735.639    7613.9545   -1652.6805   -4520.8045    4843.0917    76.251971 
   18400    471.16726   -119.18965   0.42632204   -118.76333    4850.6581    4.2466577    4.2466577    4.2466577    4850.6581     26823.31   -4331.1573   -7940.1783    2400.5482   -4718.0589   -430.70705    76.584654 
   18500    684.12378   -119.37816   0.61900957   -118.75915   -16288.523    4.2569638    4.2569638    4.2569638   -16288.523   -8971.0097   -30407.409   -9487.1499   -5365.0504    17.010716   -337.72231    77.143596 
   18600    624.21148   -119.32314   0.56479967   -118.75834    9061.7762    4.2413985    4.2413985    4.2413985    9061.7762    14377.214    10541.679    2266.4365   -846.96491    -1688.001    8741.7603    76.300474 
   18700    649.96867   -119.34879   0.58810531   -118.76068   -6886.1609    4.2482603    4.2482603    4.2482603   -6886.1609   -7.2232155   -6820.8664   -13830.393    3045.9093    7534.3371    5588.2709    76.671392 
   18800    437.50933   -119.15586   0.39586764   -118.75999    2401.0723    4.2531228    4.2531228    4.2531228    2401.0723    1329.3727    8298.4263    -2424.582    12603.804   -3925.3278    1051.3746    76.934967 
   18900    689.14432   -119.38167   0.62355226   -118.75812    7251.0763    4.2394898    4.2394898    4.2394898    7251.0763    4698.6046    5185.5996    11869.025    12119.043   -79.730751   -11492.941     76.19751 
   19000    659.40504   -119.35942   0.59664354   -118.76278    -819.4585     4.250347     4.250347     4.250347    -819.4585     -2151.19   -729.01165    421.82618   -3852.0294    4867.3638   -7069.1222    76.784428 
   19100    544.47169   -119.25418   0.49264943   -118.76153   -14977.338    4.2544776    4.2544776    4.2544776   -14977.338   -14342.411   -21508.969   -9080.6343   -1813.9632   -719.96679    4437.5183    77.008508 
   19200    444.71861    -119.1613   0.40239074   -118.75891   -3615.1452    4.2405791    4.2405791    4.2405791   -3615.1452    12354.629   -14338.059   -8862.0052     11747.59    492.23595   -9600.2558    76.256262 
   19300    781.76586   -119.46588   0.70735818   -118.75853   -17605.663    4.2532648    4.2532648    4.2532648   -17605.663   -10913.862   -22686.041   -19217.087    35.312117   -6324.3656   -6529.4207    76.942674 
   19400    785.50633   -119.46599   0.71074264   -118.75525   -11207.401    4.2540181    4.2540181    4.2540181   -11207.401   -12973.348   -10362.021   -10286.832   -5061.8842   -2072.7307    3701.5456    76.983559 
   19500    456.41454   -119.16847   0.41297347    -118.7555    4578.0175    4.2442597    4.2442597    4.2442597    4578.0175    17280.379   -7076.1246    3529.7984   -5728.7341    7139.2026    4245.8259    76.454994 
   19600    484.56648   -119.19803   0.43844593   -118.75959     11596.73     4.248178     4.248178     4.248178     11596.73    33640.351   -4894.3785    6044.2174    5371.3979    2128.5889    3035.8573    76.666937 
   19700        535.3   -119.24415   0.48435069    -118.7598     10781.99    4.2561794    4.2561794    4.2561794     10781.99    12860.686    12214.481    7270.8032    9695.4475    4567.9351   -5484.8106    77.100958 
   19800    733.62796    -119.4226     0.663802   -118.75879    13598.182     4.238239     4.238239     4.238239    13598.182    31147.553    -62.02708    9709.0189   -3407.2851    3146.3198   -452.20745    76.130085 
   19900    493.30452   -119.20981   0.44635229   -118.76346    9923.3129    4.2449623    4.2449623    4.2449623    9923.3129    25201.628    14069.402   -9501.0912   -5378.8889   -4574.8449   -133.50861    76.492967 
   20000    502.15593   -119.21594   0.45436124   -118.76158   -23760.889    4.2610933    4.2610933    4.2610933   -23760.889    -14223.78   -19138.488   -37920.399    9661.5647    782.13345    -262.0639    77.368316 
   20100    712.63384   -119.40436   0.64480608   -118.75956     12276.42    4.2306377    4.2306377    4.2306377     12276.42    28890.359   -3433.9824    11372.881    9950.5625   -7697.7764   -5948.4295    75.721202 
   20200     713.7676   -119.41063   0.64583192    -118.7648   -12082.772     4.252247     4.252247     4.252247   -12082.772   -3303.2592   -8004.1937   -24940.863    759.77182    -9830.097      691.428    76.887449 
   20300    502.99416   -119.21289   0.45511968   -118.75777   -14649.911    4.2592807    4.2592807    4.2592807   -14649.911     -1629.07   -24797.965   -17522.699   -8773.7965    3753.5628    4898.1913     77.26962 
   20400    560.99444   -119.26258   0.50759956   -118.75498    10295.629    4.2349136    4.2349136    4.2349136    10295.629     12289.07   -16499.566    35097.383    12232.469   -619.81139    5199.0629     75.95103 
   20500    642.29774     -119.344   0.58116449   -118.76283   -7842.8425    4.2503634    4.2503634    4.2503634   -7842.8425   -20294.478   -18690.188    15456.139    11518.393     1201.211    2467.3068     76.78532 
   20600    661.63419   -119.35634   0.59866052   -118.75768   -9058.3759    4.2574305    4.2574305    4.2574305   -9058.3759   -14518.921   -10163.114    -2493.092   -1545.0691   -17.709546    765.12793    77.168971 
   20700     638.8948   -119.33607   0.57808544   -118.75798    2945.3942    4.2350109    4.2350109    4.2350109    2945.3942    8586.8227   -7337.3272    7586.6871    134.54331    -8259.093    8733.3001    75.956262 
   20800     624.6714   -119.33005   0.56521581   -118.76484    8708.8981    4.2397708    4.2397708    4.2397708    8708.8981    10901.049    8422.9519    6802.6936    6272.8136    6351.5321    2128.3742    76.212663 
   20900    667.63882   -119.36504   0.60409363   -118.76094   -12986.546    4.2640649    4.2640649    4.2640649   -12986.546    336.00391    -17570.63   -21725.013    16212.886   -1731.4551    1535.3851    77.530292 
   21000    617.47021     -119.318   0.55870002    -118.7593    3824.0297    4.2384291    4.2384291    4.2384291    3824.0297    29826.926   -6574.9024   -11779.935   -5040.0696   -3353.0357    3078.6833    76.140331 
   21100    708.50427   -119.40624   0.64106956   -118.76517     11138.59    4.2366542    4.2366542    4.2366542     11138.59    27180.174    6570.1974   -334.60053    -654.3524   -616.02761    -5200.112    76.044716 
   21200    468.51514   -119.18609   0.42392234   -118.76217   -19623.436    4.2710682    4.2710682    4.2710682   -19623.436   -25841.843   -26077.021   -6951.4445    15850.012   -3365.3442    3698.6927    77.912929 
   21300    536.09009   -119.24393   0.48506558   -118.75887    11754.145    4.2331743    4.2331743    4.2331743    11754.145    6631.5023   -7541.7803    36172.713    19357.995   -729.58912   -4104.8005     75.85749 
   21400     617.4767   -119.32329    0.5587059   -118.76458    9088.9927    4.2447099    4.2447099    4.2447099    9088.9927    10479.814   -8168.5104    24955.675    13.100893   -3567.4023   -4800.4736    76.479325 
   21500    759.25071   -119.44245     0.686986   -118.75546   -28956.108    4.2666401    4.2666401    4.2666401   -28956.108    -30168.36     -30007.1   -26692.864    -23.03605   -5476.9286   -1599.7477    77.670847 
   21600    411.33554   -119.12637   0.37218504   -118.75419    19943.915    4.2266867    4.2266867    4.2266867    19943.915    14828.266    1775.6732    43227.806    31299.099    5595.0796   -6402.1962    75.509252 
   21700    540.44993   -119.25049   0.48901046   -118.76147   -16708.292    4.2515426    4.2515426    4.2515426   -16708.292   -3974.2512   -31739.874   -14410.749    14786.766   -2202.5857    2092.1722    76.849247 
   21800    834.23364   -119.50777   0.75483213   -118.75293   -20894.051     4.261401     4.261401     4.261401   -20894.051   -2562.1523   -27932.976   -32187.025   -11759.486    5042.6404   -4973.6979    77.385076 
   21900     551.3231   -119.25152   0.49884872   -118.75267    8559.8209    4.2366803    4.2366803    4.2366803    8559.8209   -260.47703   -5268.3116    31208.251    5353.2617    1749.1683    3561.8207    76.046122 
   22000    337.92323   -119.06829   0.30576004   -118.76253   -6538.2548    4.2492802    4.2492802    4.2492802   -6538.2548   -14225.983   -19095.491    13706.709    23307.337    189.32265    3198.2493    76.726625 
   22100     493.7289   -119.20757   0.44673629   -118.76083    6787.9581    4.2526584    4.2526584    4.2526584    6787.9581   -5477.5747    8509.7467    17331.702    2454.8345    5324.0834    4243.0169    76.909769 
   22200    883.45888    -119.5558   0.79937216   -118.75643    526.38224     4.242759     4.242759     4.242759    526.38224   -3353.4046    -522.1559    5454.7072   -8448.0156    2458.6452      5306.26    76.373921 
   22300    577.13197   -119.28311   0.52220114   -118.76091    11631.181    4.2430644    4.2430644    4.2430644    11631.181    719.37418     20429.08     13745.09    12865.409    863.33452    175.05232    76.390413 
   22400    486.56644   -119.20233   0.44025554   -118.76207   -16876.206    4.2586201    4.2586201    4.2586201   -16876.206   -21784.642   -5878.3374   -22965.638    24873.787    -3991.559    373.77618    77.233674 
   22500     646.4689   -119.34357   0.58493864   -118.75863   -4481.4381    4.2436689    4.2436689    4.2436689   -4481.4381    9604.3204   -10222.642   -12825.993    11485.052   -5417.9365    3441.9015    76.423068 
   22600    941.83599   -119.60936   0.85219299   -118.75717    4100.3665    4.2411872    4.2411872    4.2411872    4100.3665    3086.9637    641.17273    8572.9631   -5393.3232    2102.3076   -5214.7504     76.28907 
   22700     551.3845   -119.25912   0.49890428   -118.76022   -17190.361    4.2612213    4.2612213    4.2612213   -17190.361   -22907.102   -23894.342   -4769.6381    9742.3667    -2812.367    1642.5271    77.375284 
   22800    258.10957   -118.99559   0.23354296   -118.76205     14824.25    4.2395447    4.2395447    4.2395447     14824.25    19287.612   -9191.1853    34376.323    22020.725    472.44957    7459.2783    76.200472 
   22900    632.91715   -119.33343   0.57267674   -118.76075    5380.8655    4.2423044    4.2423044    4.2423044    5380.8655    24.984297   -4105.2905    20222.903   -2656.6306    3893.1345    3157.2492    76.349373 
   23000    687.09575   -119.37829   0.62169868   -118.75659   -8171.0199     4.258512     4.258512     4.258512   -8171.0199   -24107.987   -12629.228    12224.155   -8221.4704    6128.9085     2918.077    77.227794 
   23100    605.57431   -119.30763   0.54793636    -118.7597    2534.3474    4.2390947    4.2390947    4.2390947    2534.3474   -2521.7125    61.681218    10063.073    13104.388    8003.8652   -2611.1907    76.176211 
   23200    445.26075   -119.16676   0.40288129   -118.76388      2875.79    4.2399154    4.2399154    4.2399154      2875.79    -1956.851   -10288.827    20873.048    15051.253    2699.9195    2324.5074    76.220461 
   23300    753.71428   -119.44151   0.68197652   -118.75953   -11388.557    4.2588716    4.2588716    4.2588716   -11388.557   -7125.3979   -9153.7752   -17886.497   -754.64551     2392.962   -4198.0677    77.247362 
   23400    774.96385   -119.45831   0.70120358   -118.75711   -1873.8775    4.2451722    4.2451722    4.2451722   -1873.8775     8547.246    2442.7347   -16611.613     1758.756   -4582.5804   -292.75486    76.504317 
   23500    461.11926   -119.17772    0.4172304   -118.76049    10589.851    4.2411265    4.2411265    4.2411265    10589.851    11749.727    4826.9515    15192.875     20344.41   -1766.9825   -6184.5912    76.285796 
   23600    539.06542   -119.24687   0.48775772   -118.75911   -12952.238    4.2593774    4.2593774    4.2593774   -12952.238   -5320.3713   -20245.074   -13291.268      18607.6   -4081.9975    482.42851    77.274883 
   23700    772.53977   -119.45284   0.69901022   -118.75383   -1125.0111    4.2434413    4.2434413    4.2434413   -1125.0111   -7793.9766   -7269.2369     11688.18   -6582.4065   -3221.5276    5385.5757    76.410772 
   23800    600.45815   -119.29878   0.54330715   -118.75547   -4060.6072    4.2455137    4.2455137    4.2455137   -4060.6072   -18015.936   -15785.741    21619.855    5520.9082    820.89917   -2441.2734    76.522782 
   23900    370.41568   -119.09508   0.33515989   -118.75992   -5914.2231    4.2561612    4.2561612    4.2561612   -5914.2231   -22302.088   -25524.705    30084.124    19812.303    4477.7214    3056.8809    77.099969 
   24000    552.66376   -119.25798   0.50006178   -118.75792    11608.086    4.2455211    4.2455211    4.2455211    11608.086   -452.56482    -6687.694    41964.518   -861.04509    8096.0006   -4682.9721    76.523179 
   24100     677.2045   -119.36757   0.61274886   -118.75482    4857.4683    4.2472999    4.2472999    4.2472999    4857.4683    3457.8804    -12077.57    23192.095   -3777.2237     10086.04     3322.114    76.619407 
   24200    439.44745   -119.15544   0.39762129   -118.75782    11056.395    4.2494805    4.2494805    4.2494805    11056.395    1293.0526   -1657.6654    33533.797     10647.14       618.17     9.749704    76.737476 
   24300    552.97791    -119.2581   0.50034604   -118.75775   -4441.1358    4.2535786    4.2535786    4.2535786   -4441.1358   -7279.0184   -10202.075    4157.6859    9340.5832    -800.6737    1987.1896    76.959705 
   24400    834.30372   -119.50777   0.75489554   -118.75287   -2192.3596    4.2477186    4.2477186    4.2477186   -2192.3596    5022.9631   -16260.146    4660.1037   -9194.8331   -4052.7191    1251.0349    76.642069 
   24500    754.47343   -119.43841   0.68266341   -118.75574    1831.6296    4.2450761    4.2450761    4.2450761    1831.6296   -2137.5174     10364.97   -2732.5642      465.046   -7971.6017    721.45738    76.499118 
   24600    400.60123   -119.11989   0.36247241   -118.75742   -8217.4423     4.261203     4.261203     4.261203   -8217.4423     4030.667   -11555.164    -17127.83    17614.028    -4831.579    2214.7394    77.374287 
   24700    776.69171   -119.45438   0.70276698   -118.75161    7146.6403    4.2399313    4.2399313    4.2399313    7146.6403    16156.154   -3437.5521    8721.3189    5599.5335    2755.6693   -4106.3059    76.221318 
   24800    691.48159   -119.38472   0.62566707   -118.75905    7389.1162    4.2461618    4.2461618    4.2461618    7389.1162    19307.924   -4051.1105    6910.5356   -4047.3024    6240.8944   -2760.5384    76.557828 
   24900    434.10986    -119.1514   0.39279173   -118.75861   -13780.878    4.2625312    4.2625312    4.2625312   -13780.878   -27047.402   -19867.826    5572.5951    16482.254    7092.9271   -2048.0595    77.446666 
   25000    365.05737   -119.08578   0.33031158   -118.75547    21714.245    4.2340845    4.2340845    4.2340845    21714.245    7964.1576    4369.8661    52808.711    21074.057    4651.1488    4728.2581    75.906431 
   25100     791.7473   -119.47567   0.71638959   -118.75928   -2519.4151    4.2491789    4.2491789    4.2491789   -2519.4151   -11651.577   -21852.485    25945.817   -3778.7531     5684.998    353.50253    76.721143 
   25200    628.84243     -119.326   0.56898984   -118.75701   -6956.1319    4.2567484    4.2567484    4.2567484   -6956.1319   -15299.635   -8610.0357    3041.2751   -1225.3388   -460.32694    4491.5885    77.131885 
   25300    340.73075    -119.0665   0.30830034    -118.7582    2542.3336    4.2393803    4.2393803    4.2393803    2542.3336   -24057.519    853.16526    30831.354    21902.674   -515.76864    316.75197    76.191607 
   25400    598.83095   -119.30297   0.54183483   -118.76113   -11991.211    4.2482278    4.2482278    4.2482278   -11991.211   -21814.229   -15390.692    1231.2879    14032.093   -6072.4495   -331.63935    76.669633 
   25500    943.70672   -119.60992   0.85388567   -118.75603   -12720.932    4.2540848    4.2540848    4.2540848   -12720.932   -14246.718   -16977.278   -6938.8004   -4890.8744   -1468.8319   -5396.1008    76.987185 
   25600    647.18556   -119.34393    0.5855871   -118.75834     -12339.9    4.2471299    4.2471299    4.2471299     -12339.9   -18669.367   -11938.944   -6411.3899    11418.795   -1156.3627   -2492.0683    76.610205 
   25700    337.16387    -119.0662   0.30507295   -118.76113    10923.075    4.2397401    4.2397401    4.2397401    10923.075    14725.935   -6614.7795     24658.07    21299.131    3763.1525   -7563.2762    76.211008 
   25800    722.33994   -119.41362   0.65358836   -118.76003   -9857.4873    4.2589444    4.2589444    4.2589444   -9857.4873   -16505.464   -10073.061   -2993.9373    3830.9713    6163.4429   -5971.5231    77.251319 
   25900    858.22308   -119.53323   0.77653828    -118.7567    5629.7978    4.2419918    4.2419918    4.2419918    5629.7978   -2282.9259   -7867.4506     27039.77   -9951.7527    4913.0615    1112.3354    76.332497 
   26000    515.69005   -119.22872   0.46660719   -118.76212    6370.6733    4.2425949    4.2425949    4.2425949    6370.6733   -8890.1765    2532.6885    25469.508     12632.72    5259.9013   -4297.5922    76.365057 
   26100     335.6116   -119.06497   0.30366843    -118.7613   -14541.273    4.2600006    4.2600006    4.2600006   -14541.273   -39414.139   -10182.738    5973.0564    16327.498   -3478.4128    7172.5576    77.308809 
   26200    737.14418   -119.42239   0.66698354   -118.75541    10193.044     4.237061     4.237061     4.237061    10193.044   -7633.2993    21989.234    16223.197   -3607.4124    8102.3182    4472.1021    76.066627 
   26300    557.54703   -119.26351   0.50448027   -118.75903   -337.77563    4.2494897    4.2494897    4.2494897   -337.77563    -21466.19    16127.303    4325.5604    1888.5804   -560.80572    2900.4263    76.737979 
   26400    438.48721    -119.1557   0.39675244   -118.75895    903.08067    4.2490067    4.2490067    4.2490067    903.08067   -17814.985     15803.06    4721.1668    18239.533   -1102.3554    8194.7645    76.711816 
   26500    535.11653   -119.24482   0.48418468   -118.76063    10869.228     4.242881     4.242881     4.242881    10869.228   -3084.5739    14635.708     21056.55    12884.179   -1040.6563    2752.9483    76.380511 
   26600    854.94902   -119.53206   0.77357584   -118.75848   -5386.3644     4.248473     4.248473     4.248473   -5386.3644   -18729.031    4537.3338   -1967.3955   -10075.447    1228.2566    1485.8063    76.682911 
   26700       646.01   -119.34406   0.58452342   -118.75953    525.32493    4.2461778    4.2461778    4.2461778    525.32493   -694.97837    3604.9786   -1334.0255   -6442.9925    4164.8451   -5953.4711    76.558694 
   26800    496.46236      -119.21   0.44920958   -118.76079   -8084.5533    4.2463835    4.2463835    4.2463835   -8084.5533    -1039.259   -4950.3096   -18264.091    8469.3408    -3900.047   -6051.0654    76.569823 
   26900    777.74204   -119.46364   0.70371734   -118.75992   -3122.8276    4.2470153    4.2470153    4.2470153   -3122.8276   -4510.4256   -3137.0335   -1721.0236    4692.5489    1918.6806   -498.29866    76.604005 
   27000    649.45675   -119.34782   0.58764212   -118.76018   -13783.152    4.2538699    4.2538699    4.2538699   -13783.152   -6328.0378   -28321.716   -6699.7038   -8555.5482   -4961.1453   -912.68812    76.975515 
   27100    363.26946   -119.08908   0.32869384   -118.76039    6901.8354    4.2393715    4.2393715    4.2393715    6901.8354    11600.083   -382.88606    9488.3094   -7425.2301   -3594.9849    566.04815    76.191135 
   27200    529.18671    -119.2402   0.47881926   -118.76138    528.71996    4.2506956    4.2506956    4.2506956    528.71996    -25200.99   -9244.2657    36031.416     10433.02    3989.9434     2934.391    76.803323 
   27300     772.4993   -119.45728    0.6989736    -118.7583    135.04113    4.2483158    4.2483158    4.2483158    135.04113   -13642.926    72.728372    13975.321    2881.6722    3249.0571   -1854.2677    76.674401 
   27400    571.73129   -119.27595   0.51731449   -118.75863    12097.965    4.2384622    4.2384622    4.2384622    12097.965   -3568.8086    14168.606    25694.098   -6270.2428    6243.0944    7244.8609    76.142114 
   27500    321.15256    -119.0528   0.29058559   -118.76221   -9585.2604    4.2561498    4.2561498    4.2561498   -9585.2604   -31534.258    11649.677    -8871.201   -9300.8459     3870.236    697.80435    77.099349 
   27600    785.40775   -119.46771   0.71065343   -118.75706   -4083.7625    4.2473337    4.2473337    4.2473337   -4083.7625    -6327.609    10942.983   -16866.661    3066.3877    3892.1403    959.09775    76.621234 
   27700    796.21156   -119.47612   0.72042895   -118.75569   -730.36587    4.2463185    4.2463185    4.2463185   -730.36587   -416.82782    5635.2913   -7409.5611   -3635.1716    3083.7557    744.74971    76.566306 
   27800    395.91833   -119.11837   0.35823523   -118.76014   -6664.9974    4.2496389    4.2496389    4.2496389   -6664.9974   -5856.5271    3961.9174   -18100.383   -15152.937   -5724.5992    1712.9424    76.746061 
   27900    404.28128   -119.12681    0.3658022   -118.76101    5693.3417    4.2468653    4.2468653    4.2468653    5693.3417    20615.619   -315.36542   -3220.2289   -8374.5672   -5268.9935   -51.906004     76.59589 
   28000    865.86538   -119.54149   0.78345319   -118.75804   -4437.3667    4.2469763    4.2469763    4.2469763   -4437.3667   -17612.134   -5184.8957    9484.9301    8304.7283   -1594.7607   -4330.9292    76.601894 
   28100    756.16967   -119.44264   0.68419821   -118.75844    14672.115    4.2368905    4.2368905    4.2368905    14672.115    3583.8612    11204.872    29227.612   -930.59316   -3543.4468   -5135.1441    76.057445 
   28200    309.91804   -119.04665   0.28042036   -118.76623   -155.10637    4.2546483    4.2546483    4.2546483   -155.10637   -18711.771    15299.805     2946.647   -11683.589    1978.1881   -5251.2085    77.017783 
   28300    492.22852   -119.21165   0.44537871   -118.76627   -5143.8217    4.2478408    4.2478408    4.2478408   -5143.8217   -4944.6235    -1630.286   -8856.5556   -3770.3213    2382.9483   -1707.8901    76.648682 
   28400    863.31208   -119.54132   0.78114291   -118.76017    11016.982    4.2350975    4.2350975    4.2350975    11016.982    12279.451    10986.368    9785.1264    1174.1922    10036.399    466.15567    75.960926 
   28500     645.4753   -119.34246   0.58403962   -118.75842   -16000.497    4.2589439    4.2589439    4.2589439   -16000.497   -5395.2528   -5091.3447   -37514.894   -789.34066    289.73506    2699.8138    77.251295 
   28600    483.30278   -119.19443   0.43730251   -118.75712    1324.4807     4.243419     4.243419     4.243419    1324.4807    22847.622   -5505.5849   -13368.595   -12157.473   -5878.8559    334.64228    76.409571 
   28700    479.77117   -119.19736   0.43410704   -118.76325    4789.6472    4.2419316    4.2419316    4.2419316    4789.6472     14639.58    299.00788   -569.64653   -16048.965   -4682.5849    4373.3236    76.329249 
   28800    671.96356   -119.37026   0.60800675   -118.76225   -4692.7934    4.2481983    4.2481983    4.2481983   -4692.7934     1112.447    6676.9836   -21867.811   -230.31489   -10490.171    4060.8504    76.668037 
   28900    639.59181    -119.3377   0.57871611   -118.75898   -1404.3515    4.2500438    4.2500438    4.2500438   -1404.3515   -740.77851   -4926.3624    1454.0862   -455.08892   -1625.6432    949.42549       76.768 
   29000    568.71611   -119.27376   0.51458629   -118.75918   -5586.1048    4.2470951    4.2470951    4.2470951   -5586.1048   -14095.701   -7817.1857    5154.5725   -12367.025    1351.4594     4885.511    76.608324 
   29100    680.23159   -119.37552   0.61548783   -118.76003    2199.2142    4.2428036    4.2428036    4.2428036    2199.2142    854.49761    10577.439   -4834.2937    -2991.937    5188.5995    6389.5464     76.37633 
   29200    754.00184    -119.4401   0.68223671   -118.75787   -19568.194     4.259034     4.259034     4.259034   -19568.194   -12712.436   -18346.346   -27645.799   -484.57738    8669.4056    7338.7074    77.256196 
   29300    695.75151   -119.38311   0.62953059   -118.75358    5832.5268    4.2367527    4.2367527    4.2367527    5832.5268    5222.6719    10410.846    1864.0625    3756.0975     4556.271   -1392.8121    76.050023 
   29400    534.47104   -119.24913   0.48360063   -118.76553    3379.1333    4.2522811    4.2522811    4.2522811    3379.1333      23654.5   -14401.794    884.69406     -6770.21   -2611.4524   -2357.0367    76.889301 
   29500    449.73627   -119.16608   0.40693083   -118.75915   -2229.7702    4.2592093    4.2592093    4.2592093   -2229.7702    9157.9005   -24051.784    8204.5725   -5777.9312   -5251.7333     1650.837    77.265736 
   29600    678.43598   -119.36179   0.61386313   -118.74793    24368.754    4.2312315    4.2312315    4.2312315    24368.754     44078.99     7924.166    21103.106    2920.9916   -6092.2135    1958.9882    75.753089 
   29700    662.27317   -119.35194   0.59923868   -118.75271   -17246.296    4.2607651    4.2607651    4.2607651   -17246.296   -4129.6861   -23817.368   -23791.833   -3071.4184    -1407.504   -1300.8106    77.350435 
   29800    452.92825   -119.16861     0.409819   -118.75879    5948.0218    4.2426872    4.2426872    4.2426872    5948.0218     20805.19   -8560.1763    5599.0518   -2019.5474    1438.6611   -5022.8736    76.370045 
   29900    628.24151   -119.32806   0.56844612   -118.75961    1098.5832    4.2407553    4.2407553    4.2407553    1098.5832    12752.944   -4152.7159   -5304.4788   -6084.4871   -524.67306    1788.6373    76.265766 
   30000    628.78959   -119.32315   0.56894204   -118.75421   -15615.694    4.2594939    4.2594939    4.2594939   -15615.694   -13648.054   -6886.7063   -26312.321    4656.0093    2748.2955    670.34569    77.281223 
   30100     655.5184   -119.34635   0.59312683   -118.75322    7111.4672    4.2381608    4.2381608    4.2381608    7111.4672    14111.216    741.68726    6481.4982    4715.1334    4244.2329   -10941.539    76.125876 
   30200     414.5507   -119.13576   0.37509419   -118.76067   -7327.7328    4.2531286    4.2531286    4.2531286   -7327.7328   -9247.8658   -24503.185    11767.852   -11043.123    -562.5711   -7823.4913     76.93528 
   30300    629.28626   -119.32877   0.56939143   -118.75938   -4866.5094    4.2458651    4.2458651    4.2458651   -4866.5094     -843.875   -10544.737   -3210.9159   -5640.3075   -2870.2861    3035.7341    76.541785 
   30400    669.33293   -119.36414    0.6056265   -118.75851    705.33329    4.2432082    4.2432082    4.2432082    705.33329    9051.9069    3619.2658   -10555.173   -2946.8103   -4706.2792    3215.4863    76.398183 
   30500    794.53728   -119.47932   0.71891403   -118.76041   -4157.1798    4.2448631    4.2448631    4.2448631   -4157.1798    3535.8022     -7068.96   -8938.3818    2462.9344   -3352.3568   -4744.3738    76.487608 
   30600    650.49186   -119.35312   0.58857871   -118.76454    705.86553    4.2465596    4.2465596    4.2465596    705.86553    15903.581   -8234.0366   -5551.9473   -5944.9033   -2031.1513   -3560.0285    76.579347 
   30700    547.67276   -119.25912   0.49554583   -118.76358   -10364.809     4.247111     4.247111     4.247111   -10364.809   -15233.433   -16085.597    224.60393   -12090.516   -1263.6309    3007.9784    76.609185 
   30800    726.23581   -119.41737   0.65711342   -118.76026    11718.357    4.2356877    4.2356877    4.2356877    11718.357    13073.666    7751.4462     14329.96    2915.1358    -4771.523   -919.74168    75.992684 
   30900    701.49691   -119.39706   0.63472915   -118.76233   -13706.343    4.2569736    4.2569736    4.2569736   -13706.343   -2731.7673   -21160.852    -17226.41    2838.8371    173.98614   -10215.954     77.14413 
   31000    537.35028   -119.24825   0.48620582   -118.76204    13005.531    4.2341469    4.2341469    4.2341469    13005.531     31586.72   -7209.8641    14639.738   -3717.8704    3995.8156   -7731.9795    75.909784 
   31100    488.09586   -119.20561   0.44163939   -118.76397   -4190.0958    4.2443817    4.2443817    4.2443817   -4190.0958    17404.164   -23573.114   -6401.3379   -7382.4266    3301.8074     2996.586    76.461584 
   31200    664.60661    -119.3598   0.60135003   -118.75845   -18190.821    4.2541162    4.2541162    4.2541162   -18190.821    2807.1732   -32372.356   -25007.282   -1187.2928      6699.76   -478.65319    76.988889 
   31300    797.80602   -119.48027   0.72187165    -118.7584    816.53696    4.2387901    4.2387901    4.2387901    816.53696     28089.86   -17190.583   -8449.6659     9695.952   -6662.5939   -15113.326    76.159788 
   31400    532.87369   -119.24505   0.48215531    -118.7629   -10779.997    4.2450258    4.2450258    4.2450258   -10779.997    87.956175   -14702.863   -17725.082   -6356.6449    -1029.397   -5329.7569    76.496403 
   31500    491.11971   -119.20979   0.44437544   -118.76541   -3387.3573    4.2440902    4.2440902    4.2440902   -3387.3573    3786.2379   -5772.3156   -8175.9941    -8224.314    6017.8305    6052.9621    76.445834 
   31600    490.48646   -119.21016   0.44380245   -118.76636    4575.8566    4.2456834    4.2456834    4.2456834    4575.8566     29570.26   -23433.996    7591.3059   -5052.3965   -7751.5248   -4879.4845    76.531957 
   31700    585.09732   -119.29488   0.52940835   -118.76547    8176.5299    4.2394619    4.2394619    4.2394619    8176.5299    36244.992   -7537.2537   -4178.1488    2392.3414     430.4132   -12037.904    76.196009 
   31800    504.15391   -119.22094   0.45616905   -118.76477    14074.824    4.2477586    4.2477586    4.2477586    14074.824    34346.977    3149.7332    4727.7624    693.74402    745.46736   -7442.7367    76.644232 
   31900    794.43184   -119.48183   0.71881862   -118.76302   -1832.1046    4.2436072    4.2436072    4.2436072   -1832.1046     13839.86   -14708.363     -4627.81   -12748.711    -5851.063     6803.757    76.419735 
   32000    503.48753   -119.22091    0.4555661   -118.76534    14187.369    4.2376775    4.2376775    4.2376775    14187.369    34898.387   -7540.0887     15203.81   -3750.9636     10497.15   -2351.0067    76.099832 
   32100    365.01736   -119.09861   0.33027538   -118.76834   -10688.374    4.2507469    4.2507469    4.2507469   -10688.374      892.886   -31659.779   -1298.2291    7327.7774   -1339.4588   -18074.919    76.806104 
   32200    540.40757   -119.25705   0.48897212   -118.76808   -768.99038    4.2405622    4.2405622    4.2405622   -768.99038    15609.473   -20011.754    2095.3096    12787.386   -259.28381   -2728.5352    76.255349 
   32300    865.39692   -119.54804   0.78302932   -118.76501   -5139.8525    4.2426906    4.2426906    4.2426906   -5139.8525    6519.5236   -13960.684   -7978.3969    1854.2772    10943.056    3203.7845    76.370225 
   32400    665.04213   -119.36549   0.60174409   -118.76374   -16680.589    4.2494951    4.2494951    4.2494951   -16680.589   -13488.222   -23434.407    -13119.14   -6268.0059     1859.098   -5243.3169    76.738271 
   32500    417.15677   -119.14388   0.37745221   -118.76643    6647.0565     4.238625     4.238625     4.238625    6647.0565    31005.355    -14537.03     3472.845    8094.8172    2690.5975   -15057.956    76.150888 
   32600    575.09386   -119.28911   0.52035701   -118.76876   -8432.3105     4.246858     4.246858     4.246858   -8432.3105     15111.74   -31003.595   -9405.0763    12223.055    -88.59993   -3062.1024    76.595492 
   32700    707.24885   -119.40454   0.63993362   -118.76461    5657.7455    4.2421336    4.2421336    4.2421336    5657.7455    27381.836   -10848.195    439.59549      6797.01    3178.4906    7174.6897    76.340154 
   32800    694.81791   -119.39169   0.62868585   -118.76301   -7595.6128    4.2449525    4.2449525    4.2449525   -7595.6128   -2271.4648   -11644.572   -8870.8021   -6779.9199    6607.1796    -7298.947    76.492438 
   32900    623.16515   -119.32851   0.56385293   -118.76466    3630.0427    4.2423341    4.2423341    4.2423341    3630.0427    28859.731   -12190.929   -5778.6734    6136.2691   -584.34013   -11825.929    76.350979 
   33000    591.37036   -119.30051   0.53508433   -118.76542   -7182.6966    4.2466748    4.2466748    4.2466748   -7182.6966    356.71738   -26410.725    4505.9178    16268.343    1033.4018    2532.9776    76.585581 
   33100    541.16922    -119.2522   0.48966128   -118.76254   -5763.2255    4.2421984    4.2421984    4.2421984   -5763.2255   -10495.158   -18253.315    11458.797   -3826.9027   -5082.7371    4422.1063    76.343651 
   33200    576.18001   -119.28501   0.52133978   -118.76367    8265.8859    4.2425299    4.2425299    4.2425299    8265.8859    34341.125   -9362.7222   -180.74498   -9031.8291     1486.959   -5573.1837    76.361548 
   33300    879.87263   -119.55995   0.79612725   -118.76382   -4185.7034    4.2415704    4.2415704    4.2415704   -4185.7034    4551.9383   -13286.479   -3822.5692   -4190.5525    3023.9384    -4363.451    76.309752 
   33400    560.62441   -119.27239   0.50726475   -118.76513     16767.05    4.2395683    4.2395683    4.2395683     16767.05    43164.269   -3783.8998    10920.781    10925.981   -9875.9849   -83.646069    76.201745 
   33500    509.27472   -119.22571   0.46080247   -118.76491   -17693.623    4.2508972    4.2508972    4.2508972   -17693.623   -7306.4881   -31480.801   -14293.579    1053.3403   -319.07088    5333.7388     76.81425 
   33600    575.91281   -119.28583   0.52109802   -118.76474    2582.7914    4.2372204    4.2372204    4.2372204    2582.7914    14522.716   -10890.474    4116.1317   -19467.396   -4166.5817    1591.0842     76.07521 
   33700    736.70463   -119.43256   0.66658583   -118.76597   -14327.771    4.2461196    4.2461196    4.2461196   -14327.771   -6222.6044    -24146.39   -12614.318   -7875.7961   -1443.4547   -5270.7484    76.555547 
   33800    659.67387   -119.35849   0.59688678    -118.7616   -16970.965     4.247676     4.247676     4.247676   -16970.965   -8499.8193   -16165.217   -26247.858    9280.8845   -4734.7832    4890.9461    76.639765 
   33900       573.79   -119.28345   0.51917725   -118.76427    8133.9353    4.2358259    4.2358259    4.2358259    8133.9353    32281.075   -10246.205    2366.9352   -2240.5216   -7046.4188     5272.318    76.000124 
   34000    506.41675   -119.22746   0.45821652   -118.76924    -9556.888    4.2521401    4.2521401    4.2521401    -9556.888    18565.849   -40858.123   -6378.3895    -22945.49   -471.53679   -4575.5629    76.881653 
   34100    536.99975    -119.2542   0.48588866   -118.76831    9934.8911    4.2401292    4.2401292    4.2401292    9934.8911    37923.541   -13154.743     5035.875    -7829.342   -1254.8425    9.8108154     76.23199 
   34200    731.08592   -119.42455    0.6615019   -118.76305    330.26611    4.2381632    4.2381632    4.2381632    330.26611    11264.123   -9058.7856   -1214.5387    10978.515   -2418.3266      717.704    76.126001 
   34300    667.88514   -119.36976   0.60431651   -118.76545   -8568.1757    4.2534362    4.2534362    4.2534362   -8568.1757     12130.79   -27536.227    -10299.09   -7092.6242   -6848.0311    2225.1296    76.951974 
   34400    411.72841   -119.13922   0.37254052   -118.76667    2394.9435    4.2415872    4.2415872    4.2415872    2394.9435   -3097.0312   -9867.7948    20149.657     -20012.3   -4483.7343    1578.8526    76.310657 
   34500    537.96137   -119.25147   0.48675875   -118.76471    1899.2938    4.2395794    4.2395794    4.2395794    1899.2938    1383.5515   -14699.685    19014.015   -8483.7013    3696.4734   -3369.6408    76.202343 
   34600    654.36561   -119.35695   0.59208375   -118.76487    5135.3496     4.248141     4.248141     4.248141    5135.3496    35028.615   -15104.514   -4518.0523    8183.8635    1242.4389      20.4789    76.664935 
   34700    730.29279   -119.42617   0.66078426   -118.76538    10401.949    4.2369897    4.2369897    4.2369897    10401.949    30422.854    1683.8511   -900.85927   -4204.8197    5125.3403    4993.5971    76.062783 
   34800    490.21157   -119.20916   0.44355373   -118.76561   -4603.9822     4.249765     4.249765     4.249765   -4603.9822    20291.579   -25726.427   -8377.0985   -24175.414    600.02047    1654.8928    76.752893 
   34900    535.76623    -119.2495   0.48477254   -118.76472   -13085.215    4.2449649    4.2449649    4.2449649   -13085.215   -12021.649   -22876.367   -4357.6283   -13112.327    1406.8737   -5527.4548    76.493111 
   35000    701.86747   -119.39829   0.63506444   -118.76323   -5214.0302     4.240014     4.240014     4.240014   -5214.0302    11751.916   -20413.111   -6980.8957    9797.8979    7746.5537    3372.5006     76.22578 
   35100    550.54961   -119.26437   0.49814886   -118.76622   -10998.489    4.2491533    4.2491533    4.2491533   -10998.489   -4907.1246   -21286.527   -6801.8162    6350.0433   -624.16318    4499.0843    76.719752 
   35200    581.55311   -119.28971   0.52620148    -118.7635    2424.7877    4.2415236    4.2415236    4.2415236    2424.7877   -7938.4407    2262.1767    12950.627   -8956.7957    960.01511    575.71162    76.307224 
   35300    690.17546    -119.3853   0.62448526   -118.76082   -1557.6249    4.2503768    4.2503768    4.2503768   -1557.6249    18587.444    -13779.06   -9481.2582   -2306.5187    -4992.082   -2592.9774    76.786045 
   35400     753.8019   -119.44356    0.6820558   -118.76151    2783.3095    4.2413587    4.2413587    4.2413587    2783.3095    16840.001   -13241.172    4751.1002    16393.525   -5109.9364   -3525.5366    76.298324 
   35500    436.85989   -119.15804   0.39528001   -118.76276    9521.1479    4.2464346    4.2464346    4.2464346    9521.1479    1730.5859    13129.949    13702.908     10818.55    2220.2802    6321.2039    76.572584 
   35600    660.43839   -119.35687   0.59757853   -118.75929   -8916.3665    4.2486536    4.2486536    4.2486536   -8916.3665   -29367.292     7693.622   -5075.4296    -1724.097   -1750.2708    5334.6263    76.692693 
   35700    818.64869   -119.49899   0.74073054   -118.75826    4130.5814    4.2382692    4.2382692    4.2382692    4130.5814    4810.9272   -5207.7291    12788.546   -6233.3096    3594.1348   -3064.0313    76.131717 
   35800    562.24912   -119.27333   0.50873482   -118.76459   -9844.2261    4.2533832    4.2533832    4.2533832   -9844.2261   -2603.3921   -24067.235   -2862.0508    3735.1976    1739.2542    760.52479    76.949097 
   35900    437.08907   -119.15857   0.39548738   -118.76308   -9967.7124    4.2477022    4.2477022    4.2477022   -9967.7124   -12798.482   -19441.222    2336.5663    11655.358    9418.2202    7918.4503    76.641179 
   36000    593.88496   -119.29981   0.53735959   -118.76245    14131.081    4.2358071    4.2358071    4.2358071    14131.081    30553.656   -2217.9774    14057.565    -1784.617    13358.844    6775.9626    75.999112 
   36100    857.72425   -119.53661   0.77608693   -118.76052   -12522.104       4.2529       4.2529       4.2529   -12522.104   -1692.7914   -21091.661   -14781.859   -1987.4487   -3275.1006   -1769.6934    76.922876 
   36200    581.45868   -119.28754   0.52611604   -118.76142    6742.8756     4.241962     4.241962     4.241962    6742.8756    26628.631   -13337.934    6937.9296    9235.3457    420.39777    905.15636     76.33089 
   36300    439.57025    -119.1625    0.3977324   -118.76477   -2433.4604    4.2382827    4.2382827    4.2382827   -2433.4604    2647.6542   -23316.904    13368.869    12801.506    3501.5132    11231.725    76.132443 
   36400    473.15117   -119.19512   0.42811712     -118.767   -7934.6476      4.24678      4.24678      4.24678   -7934.6476    11953.055   -19325.879   -16431.119    -235.3268    5526.5546    7815.1226    76.591273 
   36500    611.70305   -119.31776   0.55348178   -118.76428   -6149.8111    4.2494276    4.2494276    4.2494276   -6149.8111    16783.005   -10789.983   -24442.455   -8328.6138    679.60702     -1581.18    76.734615 
   36600     725.5755   -119.42048   0.65651596   -118.76397    4518.7834    4.2388281    4.2388281    4.2388281    4518.7834    18579.044   -11689.243    6666.5494    2451.5897   -7134.4969   -2064.4626    76.161835 
   36700    477.93222    -119.2018   0.43244312   -118.76935    11544.002    4.2431091    4.2431091    4.2431091    11544.002    43984.365   -6716.2646   -2636.0955    7131.2085   -3969.1067     5074.062    76.392827 
   36800    380.08945   -119.11261   0.34391293   -118.76869    -7398.195    4.2530461    4.2530461    4.2530461    -7398.195    9166.5987   -13112.213    -18248.97    2040.7698    8802.6091    6718.9006    76.930805 
   36900    557.52691   -119.26691   0.50446207   -118.76245    20414.691    4.2321737    4.2321737    4.2321737    20414.691    19485.712    14663.565    27094.797   -3530.7854    2092.1429   -3528.3557    75.803709 
   37000    858.94365   -119.53854   0.77719027   -118.76135   -6521.9235    4.2489152    4.2489152    4.2489152   -6521.9235    2011.0266   -15809.386   -5767.4116   -5090.5983    1080.7203   -1066.0811    76.706858 
   37100    573.98147   -119.28111   0.51935049   -118.76176    3749.3185    4.2478606    4.2478606    4.2478606    3749.3185    9577.5495    145.32233    1525.0835    13869.013   -4216.6641    7256.5943    76.649753 
   37200    472.79768   -119.18971   0.42779728   -118.76191    -2303.161    4.2413935    4.2413935    4.2413935    -2303.161   -122.52663   -4364.3601   -2422.5964     6707.305    3947.4995    6394.8763    76.300205 
   37300    547.84002   -119.25883   0.49569716   -118.76313   -7140.8497    4.2455021    4.2455021    4.2455021   -7140.8497   -9211.3079   -4184.2036   -8027.0375   -6152.1434    11867.319    1301.9958    76.522151 
   37400    898.26543   -119.57544   0.81276944   -118.76267   -4729.6897     4.241256     4.241256     4.241256   -4729.6897   -5812.2228   -4011.7219   -4365.1244   -3121.9655   -3547.3557   -7839.0786    76.292782 
   37500    595.96198   -119.30497   0.53923892   -118.76573    -14080.11    4.2473914    4.2473914    4.2473914    -14080.11    1279.2213   -15654.159   -27865.392   -317.17502   -1258.9405    -487.3923    76.624357 
   37600    594.11492   -119.30483   0.53756766   -118.76726    1175.8328    4.2355982    4.2355982    4.2355982    1175.8328    6680.7887   -1374.4911   -1778.7994     9566.018    7286.1526    12399.858    75.987869 
   37700    630.20408   -119.34109   0.57022189   -118.77087    -5694.973    4.2468193    4.2468193    4.2468193    -5694.973   -8245.9915   -12864.246    4025.3185    741.77404    8597.3612    1292.7576      76.5934 
   37800    636.73812   -119.34158   0.57613404   -118.76545   -9889.4923    4.2490964    4.2490964    4.2490964   -9889.4923    6235.1645   -21770.972   -14132.669   -2671.0898     5527.007   -11255.102    76.716673 
   37900    617.43276   -119.31843   0.55866614   -118.75977    8888.4899     4.236728     4.236728     4.236728    8888.4899    21673.484    9324.5483   -4332.5625    990.81049   -7559.9043   -5839.1717     76.04869 
   38000    630.01809   -119.33247   0.57005361   -118.76241   -7943.9235     4.249915     4.249915     4.249915   -7943.9235    4394.5845   -7614.1965   -20612.158    6922.3831   -1191.0824    4641.9553     76.76102 
   38100    677.26089   -119.37411   0.61279988   -118.76131    5262.0962    4.2440411    4.2440411    4.2440411    5262.0962    20210.507   -7635.3842    3211.1656    10939.646    9043.2808    4139.8975    76.443179 
   38200    575.60052   -119.28364   0.52081545   -118.76282   -7894.5634    4.2475906    4.2475906    4.2475906   -7894.5634     7809.507   -16114.028   -15379.169   -3167.6508    2221.7562   -10008.987    76.635139 
   38300    536.56273   -119.24827   0.48549323   -118.76277    751.40488    4.2402832    4.2402832    4.2402832    751.40488    21437.404   -515.48905     -18667.7   -3948.1612    4078.7525   -8161.5993    76.240299 
   38400    637.85963   -119.34388    0.5771488   -118.76674    2222.0809    4.2484015    4.2484015    4.2484015    2222.0809    8279.9369    -2269.178    655.48366    1144.2828   -684.77386     9096.538    76.679037 
   38500    566.02189   -119.27682    0.5121485   -118.76467   -2283.2931    4.2498913    4.2498913    4.2498913   -2283.2931     6154.012   -10659.172   -2344.7197    4579.0261    5509.0893    6313.9693    76.759735 
   38600    433.71832   -119.15391   0.39243745   -118.76147    21514.396    4.2305484    4.2305484    4.2305484    21514.396    51104.228    14964.452   -1525.4924    224.50427    5462.7303   -5297.3637    75.716406 
   38700     402.5083   -119.12839   0.36419796   -118.76419   -4425.7169    4.2565197    4.2565197    4.2565197   -4425.7169    21010.232   -9849.1757   -24438.207    -15437.49   -2014.7609   -6890.1893    77.119454 
   38800    756.73913   -119.44485   0.68471347   -118.76014    6069.1325    4.2427868    4.2427868    4.2427868    6069.1325    24222.348   -3592.2252    -2422.725   -3812.3217     2691.875     6154.122    76.375424 
   38900    635.57234   -119.33418   0.57507921    -118.7591    6987.6752    4.2416657    4.2416657    4.2416657    6987.6752    32983.801   -2481.1603   -9539.6153    10283.612   -1945.4184    8193.2912    76.314894 
   39000    494.26624   -119.20774   0.44722248   -118.76052   -3872.9166    4.2499108    4.2499108    4.2499108   -3872.9166    22733.091   -17025.237   -17326.605    4225.6751    5837.0233   -6612.2802    76.760793 
   39100    449.62277   -119.16928   0.40682813   -118.76245    2166.5501    4.2454835    4.2454835    4.2454835    2166.5501    20738.432   -8631.4967   -5607.2849   -5193.3785    945.15726   -7775.2239    76.521147 
   39200    754.38009    -119.4448   0.68257896   -118.76222   -2781.5064    4.2404843    4.2404843    4.2404843   -2781.5064   -713.28509   -6529.9302   -1101.3038   -13944.386    -7260.152    3049.2309    76.251145 
   39300    655.53812   -119.35803   0.59314466   -118.76488    7007.1238    4.2367398    4.2367398    4.2367398    7007.1238    11792.106   -1370.4135    10599.679    2620.1818    38.975529    3508.8049    76.049326 
   39400    538.76157   -119.25255   0.48748279   -118.76507    -14126.38    4.2541075    4.2541075    4.2541075    -14126.38    4981.7714   -25498.595   -21862.317    6507.5524   -4760.5561    -8783.583    76.988413 
   39500    664.16858   -119.36537   0.60095369   -118.76442   -9998.4006     4.242592     4.242592     4.242592   -9998.4006   -2149.8937    -21433.61   -6411.6985   -12920.556    2604.8758   -10162.468    76.364903 
   39600     637.1838   -119.34209   0.57653729   -118.76555   -1041.0144    4.2358096    4.2358096    4.2358096   -1041.0144   -4649.7065   -10053.831    11580.495   -21821.893    1152.1503    2891.6408     75.99925 
   39700    690.27373   -119.38795   0.62457418   -118.76338   -22834.538    4.2570141    4.2570141    4.2570141   -22834.538   -8788.4415   -32444.414   -27270.758   -7690.5995   -6989.9721    573.31537    77.146327 
   39800    679.42174   -119.37545   0.61475507    -118.7607      5743.49     4.236532     4.236532     4.236532      5743.49    24840.155   -3577.2311   -4032.4535    5759.6297    4572.4952   -5581.3258     76.03814 
   39900    751.82431   -119.44311   0.68026643   -118.76285   -279.36524    4.2369621    4.2369621    4.2369621   -279.36524    9824.9967   -13251.112    2588.0195   -11008.181    301.93516   -6410.4669    76.061299 
   40000    602.21069    -119.3084   0.54489289    -118.7635   -3343.1314    4.2507105    4.2507105    4.2507105   -3343.1314     11963.72   -17141.769   -4851.3453   -18700.842    1380.6809    2155.1006    76.804132 
   40100    563.88882   -119.27121   0.51021846   -118.76099   -4542.1127    4.2449787    4.2449787    4.2449787   -4542.1127    14049.251   -8955.8956   -18719.694   -1360.9985    -3826.852      7361.01    76.493856 
   40200    615.61014   -119.31864     0.557017   -118.76162   -6082.3256    4.2400605    4.2400605    4.2400605   -6082.3256    6910.0929   -12779.891   -12377.179    8481.0614   -8759.4438   -6621.9056    76.228287 
   40300    731.21863   -119.42855   0.66162198   -118.76693   -3640.0752    4.2435407    4.2435407    4.2435407   -3640.0752   -7351.7333   -6325.0892    2756.5968    4591.3398   -3894.0848   -6992.6677    76.416144 
   40400    780.69517   -119.47222    0.7063894   -118.76583   -12743.765    4.2482033    4.2482033    4.2482033   -12743.765   -10158.847   -9616.0959   -18456.353    -10303.03   -1139.4779    5244.6274    76.668308 
   40500    616.22915   -119.32262   0.55757709   -118.76504   -93.497655    4.2376575    4.2376575    4.2376575   -93.497655    19504.487   -10193.807   -9591.1734   -6396.9333    4431.2578   -856.28793    76.098758 
   40600    518.50424   -119.23846   0.46915353   -118.76931   -3264.9758    4.2447199    4.2447199    4.2447199   -3264.9758    2648.8367   -17931.602    5487.8379    6996.5992    -11951.37   -7834.9719    76.479866 
   40700     608.7636   -119.31744    0.5508221   -118.76662   -3186.8928    4.2465895    4.2465895    4.2465895   -3186.8928    1984.5349   -9739.3896   -1805.8237    8436.5295   -5403.4965   -6579.9831    76.580967 
   40800    661.35768   -119.35977   0.59841033   -118.76136     4374.704    4.2445107    4.2445107    4.2445107     4374.704    15918.208   -8235.4355     5441.339   -4541.3617    370.00207   -2089.9647    76.468556 
   40900    737.49892   -119.42943   0.66730452   -118.76213    6884.5803     4.238712     4.238712     4.238712    6884.5803    23758.673   -9566.8912    6461.9587    -8895.014   -1414.9553    2692.8548    76.155579 
   41000    442.63169   -119.17001   0.40050245   -118.76951    9454.5272    4.2476644    4.2476644    4.2476644    9454.5272    33950.878   -23459.525    17872.228    6033.0758    6796.5626   -7636.5944    76.639135 
   41100    371.20058   -119.10514   0.33587008   -118.76927    35.380682    4.2483773    4.2483773    4.2483773    35.380682    27881.927    -25948.22   -1827.5647    11077.757   -4048.6723   -5383.7826    76.677728 
   41200      496.805   -119.21412   0.44951961    -118.7646    9245.3138    4.2339435    4.2339435    4.2339435    9245.3138    26009.963   -4693.6746    6419.6527     4124.623    295.86808    675.16298    75.898848 
   41300    811.23866   -119.49892   0.73402579    -118.7649   -5407.3627    4.2506722    4.2506722    4.2506722   -5407.3627    8616.0494    -24216.96   -621.17788   -6248.8095    14676.566   -1231.6549    76.802055 
   41400    645.60428    -119.3489   0.58415632   -118.76474   -4249.8114    4.2477347    4.2477347    4.2477347   -4249.8114    9524.1495   -18936.681   -3336.9023    4051.6353     2658.855   -3061.9023    76.642939 
   41500    356.24343   -119.08471   0.32233654   -118.76237    15402.015    4.2333222    4.2333222    4.2333222    15402.015    29323.434   -5259.4797    22142.092    15700.268   -2832.7113   -6703.2816    75.865441 
   41600    534.75175   -119.24672   0.48385462   -118.76287   -11462.841    4.2541375    4.2541375    4.2541375   -11462.841    15038.271   -31830.738   -17596.055   -976.07203   -10535.438   -55.305226    76.990042 
   41700      737.597   -119.42928   0.66739327   -118.76189    8931.1054    4.2404382    4.2404382    4.2404382    8931.1054    23870.787   -8915.2362    11837.765    -13936.31   -3679.1392   -830.38602    76.248659 
   41800    689.89647   -119.38709   0.62423283   -118.76285   -1915.9163    4.2418873    4.2418873    4.2418873   -1915.9163     15469.87   -22166.279    948.65969   -869.90322    3102.4767    -6557.118    76.326856 
   41900    403.07214   -119.12897   0.36470814   -118.76426   -6214.2805    4.2471917    4.2471917    4.2471917   -6214.2805    30587.481   -26841.444   -22388.878    8467.2728    -7371.121   -9344.1143     76.61355 
   42000    538.95943   -119.25292   0.48766182   -118.76525   -7500.2215    4.2437695    4.2437695    4.2437695   -7500.2215    6378.7877   -23610.188   -5269.2642   -2724.5525    -4684.467   -4426.5717    76.428507 
   42100    639.85606   -119.34357   0.57895521   -118.76462   -10793.751    4.2440919    4.2440919    4.2440919   -10793.751   -10875.176   -30986.647    9480.5694   -23954.257   -977.17337    1531.5992    76.445923 
   42200     652.1129   -119.35511   0.59004546   -118.76506    1736.4488    4.2392779    4.2392779    4.2392779    1736.4488    27937.647   -12359.722   -10368.579   -5372.0387    5286.3845   -2095.9371    76.186084 
   42300    762.17608   -119.45156   0.68963294   -118.76193   -9258.2992    4.2472724    4.2472724    4.2472724   -9258.2992    10197.318   -12207.813   -25764.402    8790.9468     4323.256   -3919.6948     76.61792 
   42400    595.33326   -119.30295   0.53867004   -118.76428    6077.1296    4.2440336    4.2440336    4.2440336    6077.1296    15750.864   -16016.501    18497.026    -6855.885    -4289.251    304.46281    76.442774 
   42500     484.6026   -119.20248   0.43847862     -118.764   -5837.4884    4.2469378    4.2469378    4.2469378   -5837.4884   -22305.393   -16822.753     21615.68   -18327.166   -2333.1773    349.75683    76.599811 
   42600    553.19818   -119.26283   0.50054534   -118.76228    4954.9734    4.2420019    4.2420019    4.2420019    4954.9734    4024.6304   -393.64045     11233.93   -5734.2981   -2385.9936   -827.26894    76.333042 
   42700     879.6152   -119.55539   0.79589432   -118.75949   -8681.0989    4.2466904    4.2466904    4.2466904   -8681.0989    1303.0464   -16344.985   -11001.358    7237.4566    4524.8268    1947.1702    76.586425 
   42800    731.58706    -119.4249   0.66195534   -118.76294    1433.0506    4.2433669    4.2433669    4.2433669    1433.0506   -20.815631   -2407.6023    6727.5697   -10398.012   -5604.1972    2637.0461    76.406756 
   42900    532.21111   -119.24541   0.48155579   -118.76385   -4029.6502    4.2460507    4.2460507    4.2460507   -4029.6502   -408.39761   -8902.5064   -2778.0464   -21254.495   -12288.358    1101.1576     76.55182 
   43000    459.95104   -119.17842   0.41617336   -118.76225    -1902.074    4.2448879    4.2448879    4.2448879    -1902.074    16335.442   -7084.4874   -14957.176   -6368.6478   -246.16688   -2323.0563    76.488947 
   43100    769.40456   -119.45553   0.69617342   -118.75936   -14.687198    4.2426558    4.2426558    4.2426558   -14.687198    4485.9629      4422.15   -8952.1745    7994.9611    4333.6704   -6946.7636    76.368347 
   43200    787.79217    -119.4736   0.71281091   -118.76079   -9888.0871    4.2452269    4.2452269    4.2452269   -9888.0871   -12742.226   -9755.1225   -7166.9127   -3855.5163    2712.6554   -982.20514    76.507273 
   43300    481.08135       -119.2   0.43529251   -118.76471    -1714.922    4.2375607    4.2375607    4.2375607    -1714.922    7546.0198   -9319.5393   -3371.2465   -20802.601   -3373.0462   -594.05639    76.093542 
   43400    589.33261   -119.29841   0.53324053   -118.76517    550.71965    4.2437249    4.2437249    4.2437249    550.71965    21223.253   -11729.351   -7841.7433   -3314.9329   -4568.0179   -4730.3277    76.426097 
   43500    747.11112   -119.43741   0.67600184   -118.76141   -13443.532    4.2527078    4.2527078    4.2527078   -13443.532   -936.45313   -14407.678   -24986.464    8271.3139    11029.233   -1703.1456    76.912447 
   43600    673.31532   -119.36974   0.60922985   -118.76052    11542.036    4.2310491    4.2310491    4.2310491    11542.036    6786.1609    11135.309    16704.637   -2170.9838     14263.06   -3042.0135    75.743297 
   43700    525.25138   -119.24035   0.47525848   -118.76509   -8236.0248    4.2487471    4.2487471    4.2487471   -8236.0248    -7864.134   -9638.2289   -7205.7116    -13906.82   -1635.0577   -2336.0935    76.697751 
   43800    656.05173   -119.35577   0.59360939   -118.76216   -12643.844    4.2492369    4.2492369    4.2492369   -12643.844    717.27667   -20015.367   -18633.441    -8913.771   -7621.0865   -2484.7359     76.72428 
   43900    749.06352   -119.43973   0.67776841   -118.76196    2063.3005     4.234163     4.234163     4.234163    2063.3005    307.51535      682.797    5199.5892    8792.6301    1037.2721   -3418.1203    75.910649 
   44000    561.01283   -119.27523    0.5076162   -118.76762   -7085.2955    4.2456683    4.2456683    4.2456683   -7085.2955   -4443.9724     2692.084   -19503.998    6165.5648    12785.927    3684.3504    76.531142 
   44100    582.36911   -119.29185   0.52693981   -118.76491   -10666.364    4.2487875    4.2487875    4.2487875   -10666.364    4835.8741    1257.7383   -38092.705   -6933.2301    3123.4066    3542.2889    76.699942 
   44200    770.76861   -119.45851   0.69740764   -118.76111     396.9263    4.2389957    4.2389957    4.2389957     396.9263    16420.562    -8995.286   -6234.4976   -2992.3528   -5676.3525   -4671.9274    76.170873 
   44300    742.60187   -119.43741   0.67192177   -118.76549   -2880.8269     4.240723     4.240723     4.240723   -2880.8269   -2477.4802   -6036.0273   -128.97315    373.68255    3254.4116   -1987.6853    76.264025 
   44400    375.02771   -119.10684   0.33933295    -118.7675    -1316.392    4.2493495    4.2493495    4.2493495    -1316.392      6543.83    3633.9489   -14126.955    10550.722    17876.762    54.150026    76.730382 
   44500    450.80326   -119.17178   0.40789627   -118.76388    2600.4562    4.2449061    4.2449061    4.2449061    2600.4562    20458.046   -7035.0652   -5621.6123   -721.60117    7670.8779    2955.7388    76.489928 
   44600    929.32555   -119.59958   0.84087329   -118.75871    10051.652    4.2334008    4.2334008    4.2334008    10051.652    25382.493   -3594.2154    8366.6782   -4677.6045   -6405.8809    2977.4508    75.869666 
   44700    736.77164   -119.43038   0.66664646   -118.76373   -8350.7729    4.2536759    4.2536759    4.2536759   -8350.7729   -1882.9723   -14465.495   -8703.8517    4339.5114    7709.4081   -2198.4585    76.964985 
   44800    396.61841   -119.12451   0.35886868   -118.76564   -3816.2612    4.2445144    4.2445144    4.2445144   -3816.2612    8700.4475    1727.7552   -21876.986    5128.0276    19661.099    1966.0205    76.468756 
   44900    453.19938   -119.17216   0.41006432    -118.7621     4918.498     4.236116     4.236116     4.236116     4918.498    23902.006    7733.0152   -16879.527    2775.3815    7692.8201    1910.3933    76.015741 
   45000    806.18989   -119.48949   0.72945756   -118.76003   -12460.221    4.2541299    4.2541299    4.2541299   -12460.221     2280.675   -19081.163   -20580.175   -4542.5678   -4060.6888   -4360.0826    76.989632 
   45100    676.85321   -119.37186   0.61243101   -118.75943    3069.1367    4.2418998    4.2418998    4.2418998    3069.1367    11883.251   -1528.0752   -1147.7659   -1862.8964   -3143.2806   -2857.8038    76.327532 
   45200    444.32321   -119.16477   0.40203298   -118.76273    2166.9285     4.238708     4.238708     4.238708    2166.9285    4283.3256   -1565.5392     3782.999     13211.45    13140.006   -3491.1874    76.155362 
   45300    392.67394   -119.12175   0.35529963   -118.76645    5915.2194    4.2460936    4.2460936    4.2460936    5915.2194    14671.743   -3897.7141    6971.6289    1686.2655    10910.565    1963.4304    76.554143 
   45400    708.72014   -119.40695   0.64126488   -118.76568    148.60654      4.24247      4.24247      4.24247    148.60654    3833.9157   -755.03972   -2633.0563   -4734.2782   -10004.515    2581.4439    76.358316 
   45500      546.999   -119.25831   0.49493619   -118.76338    8034.5333    4.2410392    4.2410392    4.2410392    8034.5333    17814.077    -647.0994    6936.6226    2867.4865   -8688.9683   -4336.7362    76.281085 
   45600    478.88023   -119.19805   0.43330089   -118.76475   -6908.9142    4.2469991    4.2469991    4.2469991   -6908.9142    -4351.888   -4396.4788   -11978.376     5878.027     6603.566   -759.30554    76.603126 
   45700    658.40465   -119.35952   0.59573837   -118.76379    2183.7574    4.2428368    4.2428368    4.2428368    2183.7574    3465.2235    6373.0075   -3286.9586    6494.4541    14840.219    954.63886    76.378123 
   45800    780.29058   -119.46874   0.70602331   -118.76272   -7592.6901    4.2459488    4.2459488    4.2459488   -7592.6901    6488.4592   -4482.7165   -24783.813   -3341.5408    9106.7485   -1684.2482    76.546311 
   45900    620.59823   -119.32466   0.56153032   -118.76313   -1474.1422    4.2398356    4.2398356    4.2398356   -1474.1422    3275.8001    10234.004   -17932.231   -3841.6111   -6595.7977    445.73947    76.216159 
   46000    525.28846   -119.24153   0.47529203   -118.76624   -2557.4842    4.2445765    4.2445765    4.2445765   -2557.4842   -11635.184   -2144.9675    6107.6987    8351.9389    45.823082   -2735.0837    76.472115 
   46100    575.08916    -119.2863   0.52035276   -118.76594    -7652.818    4.2466489    4.2466489    4.2466489    -7652.818   -17926.205   -7240.6837    2208.4343     3475.113    13020.642    878.54817    76.584178 
   46200    667.64502   -119.36725   0.60409924   -118.76315    6277.2675    4.2378063    4.2378063    4.2378063    6277.2675   -482.85628    12402.287     6912.372     378.6451    8971.1612    6971.5661    76.106771 
   46300    640.37093   -119.34065   0.57942107   -118.76123   -6495.0535    4.2507065    4.2507065    4.2507065   -6495.0535   -781.41245   -14641.031   -4062.7169    269.58834    -7537.535   -2684.3377    76.803918 
   46400    527.90383   -119.23955   0.47765848   -118.76189    715.87511    4.2448682    4.2448682    4.2448682    715.87511   -359.80962    -6856.922    9364.3569    1690.0282   -9940.5475   -2085.9864    76.487884 
   46500    540.49876   -119.25114   0.48905464   -118.76209    5060.1452    4.2391144    4.2391144    4.2391144    5060.1452   -8507.1849    9524.7535    14162.867    9449.7368    9557.9839   -3606.0414    76.177271 
   46600    551.97439   -119.26266   0.49943803   -118.76322   -4813.4772     4.248917     4.248917     4.248917   -4813.4772    3117.7554    1482.9463   -19041.133    631.46184    14694.077    -366.3577    76.706956 
   46700    748.62062   -119.43878   0.67736767   -118.76141    441.94487    4.2409467    4.2409467    4.2409467    441.94487    15510.484    1631.2132   -15815.863   -4341.0358   -1240.6072    2677.0864    76.276094 
   46800    554.47394   -119.26754   0.50169967   -118.76584    6168.8088    4.2414645    4.2414645    4.2414645    6168.8088    19975.802   -7418.2513     5948.876      2686.55   -5253.2325   -4510.3181    76.304037 
   46900    455.58023   -119.17955   0.41221857   -118.76733   -765.90172    4.2475396    4.2475396    4.2475396   -765.90172    -3949.892   -2907.2255    4559.4124    2505.8537    9463.6908   -2331.2467    76.632377 
   47000    435.70019   -119.16053   0.39423069    -118.7663    8979.8807    4.2436956    4.2436956    4.2436956    8979.8807     10085.12    15286.136    1568.3865    261.75195    17557.674    1816.6876    76.424514 
   47100    746.93245     -119.438   0.67584018   -118.76216   -5511.6073    4.2430507    4.2430507    4.2430507   -5511.6073    3577.7833   -10976.412   -9136.1934   -1092.3005    5346.4629     2566.349    76.389674 
   47200    731.20679   -119.42371   0.66161127    -118.7621    -396.2965    4.2422437    4.2422437    4.2422437    -396.2965    10467.085   -9751.9548   -1904.0198   -1132.4315   -4636.8935   -2015.9466    76.346097 
   47300    621.83433   -119.32856   0.56264877   -118.76592   -10971.296    4.2471046    4.2471046    4.2471046   -10971.296   -32292.123    10963.431   -11585.196    6683.7456    7529.6546   -4371.2057    76.608839 
   47400    408.80812   -119.13818   0.36989818   -118.76828   -1173.2983    4.2415872    4.2415872    4.2415872   -1173.2983    -16005.04    14151.533   -1666.3884    832.15427    14644.281   -168.70283    76.310656 
   47500    627.24681   -119.33437   0.56754609   -118.76683   -5128.2327    4.2411665    4.2411665    4.2411665   -5128.2327   -14209.114   -10542.524    9366.9397   -1625.7398    20.074503    2876.7018    76.287955 
   47600    896.75411   -119.57392   0.81140196   -118.76252   -10487.856    4.2482873    4.2482873    4.2482873   -10487.856    -15545.74   -8191.7371   -7726.0907      1982.17   -6894.7714    1135.9068    76.672858 
   47700    732.38181    -119.4284   0.66267445   -118.76573    2279.6461    4.2422532    4.2422532    4.2422532    2279.6461   -1960.9509    4404.2414    4395.6479     1421.468    9914.2386   -1307.7984    76.346613 
   47800    307.08211   -119.04714   0.27785434   -118.76929    920.58516      4.24346      4.24346      4.24346    920.58516   -8728.9982   -4343.4555    15834.209    2431.0103    21280.914    1560.3628    76.411782 
   47900    358.84381   -119.09101   0.32468942   -118.76632    3346.2183    4.2452796    4.2452796    4.2452796    3346.2183    7314.6594   -3279.5759    6003.5715   -558.24716    5116.8785    771.63902     76.51012 
   48000    902.35448   -119.57849    0.8164693   -118.76202   -215.53672    4.2407839    4.2407839    4.2407839   -215.53672    8361.0326    -2452.316   -6555.3268   -1942.7416   -10366.366   -1397.3022    76.267308 
   48100    744.86421   -119.43876   0.67396879   -118.76479    1393.9232    4.2434883    4.2434883    4.2434883    1393.9232    18302.214   -2940.5477   -11179.897    1319.7757     7617.862   -3529.0642    76.413314 
   48200    415.13496   -119.14335   0.37562283   -118.76772    1669.9852    4.2426069    4.2426069    4.2426069    1669.9852    9050.4285   -1601.9026   -2438.5703    2615.5939    23728.256   -825.28506    76.365705 
   48300    323.07591   -119.05909   0.29232587   -118.76676    754.34685    4.2486163    4.2486163    4.2486163    754.34685    1369.8426     357.1964     536.0015    7696.9334    4272.6602    1338.2202    76.690672 
   48400    815.83723   -119.49887   0.73818667   -118.76068    322.00423    4.2456368    4.2456368    4.2456368    322.00423    2577.2752   -910.59717   -700.66538    3401.5463   -16089.912    -476.2025    76.529435 
   48500     716.8012   -119.40828   0.64857679    -118.7597    1156.2366    4.2424037    4.2424037    4.2424037    1156.2366        10552   -3877.7094   -3205.5804   -522.34115   -3357.9445   -1388.3264    76.354734 
   48600    463.26004   -119.18056   0.41916742   -118.76139   -4341.2582    4.2429774    4.2429774    4.2429774   -4341.2582   -10580.731   -4169.9695    1726.9261    6275.8428    19201.495    362.02998    76.385716 
   48700    406.87093   -119.13462   0.36814537   -118.76648    5301.0006    4.2409939    4.2409939    4.2409939    5301.0006   -365.55187    4770.2217    11498.332    6785.4827    11108.684    -351.8122    76.278643 
   48800    735.94845   -119.43351   0.66590162   -118.76761   -1364.7365    4.2398167    4.2398167    4.2398167   -1364.7365   -12495.076    1756.4345    6644.4315    190.25445   -14029.273   -1916.4752    76.215138 
   48900    642.04993   -119.34574   0.58094027    -118.7648    769.82032    4.2461192    4.2461192    4.2461192    769.82032    9129.9909    -6269.826   -550.70395   -4073.7463   -11024.143   -2433.4674    76.555529 
   49000    593.61011    -119.2998    0.5371109   -118.76269   -15996.523    4.2483944    4.2483944    4.2483944   -15996.523   -17548.889   -21047.335   -9393.3458    1999.4006    14752.784   -1884.2514    76.678653 
   49100    578.06107   -119.28592    0.5230418   -118.76288   -1415.6231    4.2388452    4.2388452    4.2388452   -1415.6231    -9932.481   -939.96757    6625.5794    13681.322    15974.906    1158.2618     76.16276 
   49200    700.21695   -119.39741   0.63357101   -118.76384   -11696.657     4.246494     4.246494     4.246494   -11696.657   -25548.748    -7583.549   -1957.6744    9455.7404   -4911.3073    1061.9513    76.575799 
   49300    639.95624   -119.33987   0.57904585   -118.76082   -9771.9987    4.2453955    4.2453955    4.2453955   -9771.9987    -8712.407   -15235.922   -5367.6671   -5360.9773     -13536.8    1976.4424    76.516391 
   49400     711.2198   -119.40553   0.64352662     -118.762   -900.18512    4.2383533    4.2383533    4.2383533   -900.18512    6049.0529   -7939.9075   -809.70073    2249.7168    2317.1664    3349.8486    76.136248 
   49500    655.00104   -119.36105   0.59265871    -118.7684    6257.7034    4.2405973    4.2405973    4.2405973    6257.7034    8088.4899    3619.9046    7064.7158    11691.729    15099.746    194.74705    76.257244 
   49600    438.56998   -119.16421   0.39682734   -118.76738    4000.1797    4.2493348    4.2493348    4.2493348    4000.1797   -606.46764    866.54082    11740.466     7154.155    1411.8141     49.61489    76.729588 
   49700    480.07205   -119.19836   0.43437928   -118.76398    16613.844    4.2377922    4.2377922    4.2377922    16613.844     18039.11    7634.1055    24168.317   -5978.1234   -15232.552   -105.70613    76.106015 
   49800    673.44921   -119.37324     0.609351   -118.76389    6231.5432    4.2407824    4.2407824    4.2407824    6231.5432    14298.542   -6706.5483    11102.635   -8166.0179   -9244.7071   -2206.6349    76.267227 
   49900    632.91195   -119.33672   0.57267204   -118.76405   -625.61567    4.2486616    4.2486616    4.2486616   -625.61567   -2621.4819   -6588.4907    7333.1255    5932.3858    5438.5836    668.43587    76.693122 
   50000    446.41341    -119.1673   0.40392423   -118.76337   -1931.1044    4.2438756    4.2438756    4.2438756   -1931.1044   -6223.2658   -12588.383    13018.336    16032.345    6162.9342    2114.8956    76.434238 
   50100    572.07314   -119.28058    0.5176238   -118.76295   -5806.5541    4.2383538    4.2383538    4.2383538   -5806.5541   -3728.7896   -16930.124    3239.2518    2900.8468   -2590.1088    575.93495    76.136275 
   50200    780.17359    -119.4696   0.70591746   -118.76368    -6049.233    4.2466002    4.2466002    4.2466002    -6049.233    6656.8568   -14709.224   -10095.332   -8724.3843   -8098.3494    2948.0165    76.581548 
   50300    713.12401    -119.4082   0.64524959   -118.76295    -16262.09    4.2487034    4.2487034    4.2487034    -16262.09   -12017.721   -28286.866   -8481.6848    9897.4999    2434.0234    2589.1159    76.695389 
   50400    389.22235   -119.11606   0.35217657   -118.76388    10208.829      4.23068      4.23068      4.23068    10208.829     19229.05    -12488.49    23885.927    18607.981    15882.494    -2986.539    75.723476 
   50500    600.45876   -119.31004    0.5433077   -118.76673   -9348.9073    4.2464021    4.2464021    4.2464021   -9348.9073   -14922.716   -13460.286    336.28022    1722.0023    11688.475   -250.15999    76.570829 
   50600    789.92195   -119.47463   0.71473798   -118.75989   -4831.6421    4.2506143    4.2506143    4.2506143   -4831.6421   -5143.7964   -17474.617    8123.4869   -7204.8463   -1159.9766    345.57107    76.798916 
   50700    629.37043   -119.32922    0.5694676   -118.75975    437.14645    4.2396182    4.2396182    4.2396182    437.14645   -12874.274   -22519.152    36704.865    8796.6485    -600.7043    1130.5059    76.204436 
   50800     331.4719   -119.06388   0.29992274   -118.76396     6553.635    4.2400315    4.2400315    4.2400315     6553.635    3027.2977   -15716.028    32349.635    8124.2825    9626.0676    4429.9463    76.226721 
   50900    542.95537   -119.25621   0.49127743   -118.76493   -7619.3106    4.2521759    4.2521759    4.2521759   -7619.3106   -3804.2187   -17084.245   -1969.4681   -904.03668    15762.016    2063.6773     76.88359 
   51000    838.08107    -119.5189   0.75831336   -118.76059    3348.7045    4.2385473    4.2385473    4.2385473    3348.7045    2674.7616     1595.233    5776.1188   -2929.8051   -61.775392    796.74973    76.146704 
   51100     824.1806    -119.5064   0.74573592   -118.76066     -717.654    4.2372063    4.2372063    4.2372063     -717.654    13373.648   -17804.797    2278.1866    6302.4372   -8613.2258    2505.8006     76.07445 
   51200    419.45582   -119.14531   0.37953244   -118.76577   -7548.0287    4.2510104    4.2510104    4.2510104   -7548.0287    16598.022   -27521.267   -11720.841    12893.531    4774.5952   -2013.0335    76.820389 
   51300     477.1342   -119.19589   0.43172105   -118.76417    3204.6647    4.2430378    4.2430378    4.2430378    3204.6647    14818.449   -1362.4794   -3841.9751   -2763.3214    17454.091     1093.702     76.38898 
   51400     745.9074   -119.43573   0.67491269   -118.76082    3136.1756    4.2367894    4.2367894    4.2367894    3136.1756     4275.029    2588.3374    2545.1603   -10543.649    7796.0213    4423.9826    76.051997 
   51500    683.45799   -119.38278   0.61840715   -118.76437   -1659.0518    4.2451498    4.2451498    4.2451498   -1659.0518    16.531617   -10557.495    5563.8076    3546.9202   -7233.6535    2225.2583    76.503107 
   51600    627.04734   -119.33334   0.56736561   -118.76597   -4342.3906    4.2450555    4.2450555    4.2450555   -4342.3906   -3920.1788   -12721.428    3614.4347    6074.8053    5795.6971    2219.4546    76.498006 
   51700    546.37636   -119.26074   0.49437281   -118.76637    623.12608    4.2374653    4.2374653    4.2374653    623.12608    1236.9306    347.09546    285.35221    286.90441    22710.097   -2686.4012    76.088403 
   51800    579.75737   -119.29027   0.52457665    -118.7657   -10101.827    4.2439376    4.2439376    4.2439376   -10101.827   -10637.144   -2880.3553   -16787.981   -5540.6364    11875.175   -2195.2651    76.437587 
   51900    584.32019   -119.29265   0.52870519   -118.76395   -513.79674    4.2436039    4.2436039    4.2436039   -513.79674    17786.772   -5812.9827    -13515.18   -5434.4593   -10641.834    384.82754    76.419556 
   52000    735.04422   -119.42707   0.66508346   -118.76199    -6704.055    4.2465037    4.2465037    4.2465037    -6704.055   -4327.7801   -1058.9069   -14725.478    8463.0736   -5224.5986   -2403.9622    76.576326 
   52100    726.18907   -119.41826   0.65707113   -118.76119    9829.0224    4.2372486    4.2372486    4.2372486    9829.0224     9252.934    16612.758    3621.3753    6274.1763     16110.62    3252.3734    76.076727 
   52200    444.74636   -119.16755   0.40241586   -118.76513   -8276.7227     4.247651     4.247651     4.247651   -8276.7227   -3591.7919   -13762.115   -7476.2611    -5081.994    8660.0877    3347.0282    76.638408 
   52300    388.22177   -119.11393   0.35127122   -118.76266    1341.7687    4.2450925    4.2450925    4.2450925    1341.7687    21097.762   -13283.472   -3788.9837   -1484.6534   -17892.909   -2782.3536    76.500006 
   52400    663.99383   -119.36186   0.60079557   -118.76107    1827.7535    4.2440424    4.2440424    4.2440424    1827.7535    16727.213   -2634.6522   -8609.2998    490.71902   -18258.782   -2900.7255    76.443248 
   52500    826.58532    -119.5072   0.74791177   -118.75929     3514.283    4.2420779    4.2420779    4.2420779     3514.283    17402.363   -3083.8175   -3775.6961    2085.2473    7250.5712   -2263.4544    76.337143 
   52600    462.08842   -119.18055   0.41810731   -118.76244    581.22438     4.247087     4.247087     4.247087    581.22438     15941.56     5483.751   -19681.638   -3452.8077    5524.3239   -624.77687    76.607886 
   52700    370.89431   -119.10083   0.33559296   -118.76524    584.15542    4.2397794    4.2397794    4.2397794    584.15542    4041.5137    21620.077   -23909.124   -5032.3757   -19161.934    1853.6332    76.213127 
   52800    589.37117    -119.2989   0.53327542   -118.76562    4527.7561    4.2433931    4.2433931    4.2433931    4527.7561     17414.02    5751.1103   -9581.8624   -823.23578   -14243.407    3482.6781    76.408171 
   52900    882.21365   -119.55573   0.79824545   -118.75748    -14313.47    4.2509325    4.2509325    4.2509325    -14313.47   -8892.9025   -30725.494   -3322.0146    5790.4461    7876.8808    4135.3373    76.816166 
   53000    508.95885    -119.2185   0.46051666   -118.75798    5723.1092    4.2423987    4.2423987    4.2423987    5723.1092    10244.758    -5379.831    12304.401    2622.5319    1460.7159   -896.36611    76.354467 
   53100    336.26804   -119.06505   0.30426239   -118.76078    -4167.991    4.2521166    4.2521166    4.2521166    -4167.991   -21375.262    12193.322   -3322.0329   -2283.4174   -18713.947   -6815.1721    76.880373 
   53200    510.76704   -119.22373   0.46215275   -118.76158    14395.905    4.2391805    4.2391805    4.2391805    14395.905     9332.752    24261.786    9593.1768    1100.8524   -12057.996   -3216.8742    76.180835 
   53300    800.55491   -119.48264   0.72435891   -118.75828   -4991.3504    4.2457379    4.2457379    4.2457379   -4991.3504    1547.0243   -12867.464   -3653.6115    7899.3643    5293.2847    674.33096    76.534905 
   53400    657.33811   -119.35092   0.59477333   -118.75614   -6314.5638    4.2499248    4.2499248    4.2499248   -6314.5638    13992.195   -15008.275   -17927.611   -2989.3876   -3923.9417    970.09402    76.761552 
   53500    629.58235   -119.32913   0.56965934   -118.75947   -7907.3331    4.2428243    4.2428243    4.2428243   -7907.3331   -4868.6638    4283.9388   -23137.274   -9256.1089   -21641.053    919.68183    76.377447 
   53600     563.0692   -119.27066   0.50947685   -118.76118    896.68471    4.2422374    4.2422374    4.2422374    896.68471    3349.2595    4394.6117    -5053.817   -1683.1469   -16298.886    823.74638    76.345759 
   53700    625.43669   -119.32437   0.56590826   -118.75846   -10964.156    4.2501263    4.2501263    4.2501263   -10964.156   -9899.7336   -25178.859    2186.1239    6914.7173    4785.6223   -1716.4074    76.772467 
   53800    616.43759   -119.31647   0.55776568    -118.7587   -3926.4204    4.2416013    4.2416013    4.2416013   -3926.4204   -4786.6551   -12331.453    5338.8465    6620.8626   -1888.1928   -5445.7938     76.31142 
   53900     651.1136   -119.35255   0.58914127   -118.76341    6266.0632    4.2353831    4.2353831    4.2353831    6266.0632   -1313.5642     9791.627    10320.127   -2732.6104   -22041.998   -6344.4082    75.976292 
   54000    509.29209   -119.22739   0.46081819   -118.76657   -1844.0009    4.2501277    4.2501277    4.2501277   -1844.0009    14659.203   -19171.645   -1019.5606    2393.0244   -11935.852     575.1614    76.772543 
   54100    567.99037   -119.27582   0.51392962   -118.76189   -3543.4244    4.2457982    4.2457982    4.2457982   -3543.4244    15676.671   -31262.216    4955.2716    11908.992    7681.4103    3623.3734    76.538166 
   54200    725.79257   -119.41614   0.65671237   -118.75943     10973.42    4.2330604    4.2330604    4.2330604     10973.42    16423.216     6344.212    10152.833    4630.4599    8356.1559   -434.86967    75.851364 
   54300    683.67948   -119.38221   0.61860756    -118.7636   -10625.307    4.2548196    4.2548196    4.2548196   -10625.307     -8644.15   -7698.7085   -15533.061   -2059.9944   -6089.3239   -1240.9141    77.027082 
   54400    625.19393   -119.32633    0.5656886   -118.76064   -3047.5103    4.2430119    4.2430119    4.2430119   -3047.5103    4437.9122   -14197.221    616.77804   -8341.2951   -10862.151   -1625.3195    76.387579 
   54500    528.94659   -119.23793   0.47860199   -118.75933    5428.2147    4.2352291    4.2352291    4.2352291    5428.2147    12860.517   -14461.275    17885.403   -2778.9519    3782.2322   -1605.9924    75.968006 
   54600    592.41065   -119.29896    0.5360256   -118.76293   -7530.0543    4.2518523    4.2518523    4.2518523   -7530.0543   -9568.0637   -27692.034    14669.935    4956.9044     5914.539    -886.7694     76.86604 
   54700    591.38622   -119.29769   0.53509868   -118.76259    7319.7674    4.2422304    4.2422304    4.2422304    7319.7674    10134.008    -4153.544    15978.838   -1773.7148   -6639.3014   -2939.7025    76.345381 
   54800    609.95131   -119.31198   0.55189677   -118.76009    5297.0117    4.2375248    4.2375248    4.2375248    5297.0117    18052.196   -3799.4381    1638.2772   -468.63945   -13441.525   -2228.5266    76.091606 
   54900     609.4742   -119.31505   0.55146506   -118.76358   -651.70683    4.2430674    4.2430674    4.2430674   -651.70683     12651.91   -21939.419    7332.3883    6667.1537   -3860.2111   -409.08278    76.390578 
   55000    511.14839   -119.22971   0.46249781   -118.76721   -7349.4548    4.2464677    4.2464677    4.2464677   -7349.4548    1643.9697   -25914.109    2221.7752    10061.547    4513.8339   -3358.6721    76.574375 
   55100    603.76202   -119.30966   0.54629656   -118.76336   -801.47951    4.2400566    4.2400566    4.2400566   -801.47951    15688.235   -14881.991    -3210.682   -3577.0681    2137.6964   -3494.9985    76.228075 
   55200    647.28818   -119.34534   0.58567995   -118.75966   -7161.0554    4.2494877    4.2494877    4.2494877   -7161.0554    16889.148   -24848.081   -13524.234   -6042.6199   -3115.0114    636.52565    76.737869 
   55300    723.97503    -119.4175   0.65506782   -118.76243   -1665.3417    4.2424372    4.2424372    4.2424372   -1665.3417    12594.789   -16366.039   -1224.7752    5798.6295   -235.86414    1975.3994    76.356546 
   55400    349.16443   -119.08388   0.31593131   -118.76795    11574.821    4.2371008    4.2371008    4.2371008    11574.821    21393.599   -11355.503    24686.366    5858.9076    6916.5443    2455.0713    76.068769 
   55500    377.64402   -119.10765   0.34170025   -118.76595    -5598.853    4.2501494    4.2501494    4.2501494    -5598.853    14093.353   -36085.402    5195.4908   -1406.6716    7956.8326    312.48102    76.773719 
   55600    759.48043   -119.44564   0.68719386   -118.75845    2097.2231    4.2432179    4.2432179    4.2432179    2097.2231    32810.125   -20532.616   -5985.8403     -3458.25    1770.2322   -1443.9819    76.398707 
   55700    825.54534   -119.50815   0.74697077   -118.76118    4866.8002    4.2395766    4.2395766    4.2395766    4866.8002    23174.859   -6174.4339   -2400.0244    10247.352   -4001.8653    1496.5571    76.202192 
   55800    322.67558   -119.05925   0.29196365   -118.76729    3399.4443     4.247873     4.247873     4.247873    3399.4443    11887.954   -12069.594    10379.973     13145.41    3856.0959     2589.364    76.650426 
   55900    274.88298   -119.01269    0.2487199   -118.76397     7328.188    4.2436939    4.2436939    4.2436939     7328.188    21086.269   -8878.1501    9776.4454    3082.4104    3940.9622    2415.0737     76.42442 
   56000    761.60365   -119.44859   0.68911499   -118.75947    1817.7793    4.2413097    4.2413097    4.2413097    1817.7793    19904.926   -10562.674   -3888.9151   -412.35824   -5623.5312   -137.20015    76.295681 
   56100    768.14868   -119.45627   0.69503707   -118.76124    783.63991    4.2458609    4.2458609    4.2458609    783.63991    13538.324   -7852.4386   -3334.9652    4413.5758   -9263.4911   -1501.1011    76.541556 
   56200    422.69942   -119.14361   0.38246732   -118.76114   -10486.891    4.2513798    4.2513798    4.2513798   -10486.891   -1515.3594   -25677.457    -4267.856    9140.1973   -797.67807   -1.8297546     76.84042 
   56300    453.27196   -119.16867      0.41013   -118.75854    7375.4736    4.2347712    4.2347712    4.2347712    7375.4736    31315.419    -16914.25    7725.2519   -4525.8261    6320.7777   -3275.8486    75.943369 
   56400    771.76032   -119.46027   0.69830496   -118.76196   -4405.9098    4.2448318    4.2448318    4.2448318   -4405.9098    279.32411    2409.2316   -15906.285   -10824.259   -4000.6661   -2899.1048    76.485913 
   56500    537.20804   -119.24762   0.48607713   -118.76154    2517.5579    4.2482971    4.2482971    4.2482971    2517.5579     1843.355    21678.363   -15969.044   -468.30375   -14999.158    4315.3383    76.673389 
   56600    392.61544   -119.11696    0.3552467   -118.76172     5436.677    4.2408908    4.2408908    4.2408908     5436.677    3772.1119    14214.988   -1677.0691    1742.6943    55.599764    2641.1083    76.273077 
   56700    620.09554   -119.32122   0.56107548   -118.76014    4679.0943    4.2426208    4.2426208    4.2426208    4679.0943    8888.5937      4599.45    549.23913    6414.2718    5622.6516    2458.8837    76.366459 
   56800    741.85215   -119.43239   0.67124342   -118.76114   -2494.9465    4.2492677    4.2492677    4.2492677   -2494.9465    8071.0178   -2391.1253   -13164.732   -1165.4935   -6088.2854   -601.84145    76.725952 
   56900    628.97079     -119.329   0.56910599    -118.7599   -5917.7303    4.2443171    4.2443171    4.2443171   -5917.7303   -3307.5443   -65.009489   -14380.637   -1974.8884   -13934.323   -2855.6401    76.458097 
   57000    614.17076   -119.31265   0.55571461   -118.75694    1667.7964     4.239321     4.239321     4.239321    1667.7964    18163.773   -14622.913    1462.5296    10724.783   -5048.9427    2222.3942    76.188411 
   57100    784.82541   -119.46696   0.71012652   -118.75684     -16316.9    4.2538792    4.2538792    4.2538792     -16316.9   -2722.6429   -26332.513   -19895.544    6430.4516    4974.9059   -3289.5985    76.976019 
   57200    631.59005   -119.32972   0.57147595   -118.75824    4366.9283    4.2419685    4.2419685    4.2419685    4366.9283    1336.9304    12714.293   -950.43799   -1512.3027   -5504.9779   -898.47342    76.331238 
   57300    516.88771   -119.22659   0.46769086   -118.75889   -2989.0356     4.243057     4.243057     4.243057   -2989.0356   -6576.0646    15380.866   -17771.908   -6432.1332   -17790.471    3805.1358    76.390017 
   57400    614.27229   -119.31439   0.55580647   -118.75858   -6535.7674    4.2463462    4.2463462    4.2463462   -6535.7674   -1081.4111    729.09692   -19254.988   -3005.2288    30.032619    118.72588    76.567804 
   57500    772.32349   -119.46082   0.69881453     -118.762   -3257.0866    4.2401723    4.2401723    4.2401723   -3257.0866   -6246.5098   -6879.6899    3354.9399    6974.8148    7044.1204   -667.36344    76.234316 
   57600    518.17826   -119.23462   0.46885858   -118.76576   -3028.8715    4.2453402    4.2453402    4.2453402   -3028.8715    5419.1225   -12236.452   -2269.2853   -2786.1859   -9355.7081   -1410.8867    76.513397 
   57700    596.96273   -119.30153   0.54014442   -118.76139   -7791.1337    4.2439807    4.2439807    4.2439807   -7791.1337    8624.6932   -15010.918   -16987.176   -8806.9865   -11917.683   -1800.3739    76.439918 
   57800    764.04991   -119.45069   0.69132841   -118.75936   -1837.2585    4.2415769    4.2415769    4.2415769   -1837.2585    12162.926   -5176.8739   -12497.828   -1417.0651    5281.4091   -1474.9607    76.310101 
   57900     616.9349   -119.32208   0.55821566   -118.76386     -2898.71    4.2462765    4.2462765    4.2462765     -2898.71   -4662.6283    3618.0741   -7651.5757    8383.0554     9370.586   -1053.6563    76.564032 
   58000    464.51396   -119.18337     0.420302   -118.76307    5375.7134    4.2402599    4.2402599    4.2402599    5375.7134    7682.5014    723.58991     7721.049    5945.8464   -3460.1808    2170.1574    76.239041 
   58100     553.4463   -119.26035   0.50076985   -118.75958   -4661.1622    4.2455189    4.2455189    4.2455189   -4661.1622    12214.578   -20066.384   -6131.6801   -3239.0397   -8196.1977    930.05855    76.523063 
   58200    804.64282   -119.48686   0.72805773    -118.7588   -1408.8657    4.2429443    4.2429443    4.2429443   -1408.8657    20480.437   -8967.6275   -15739.407    1011.2018    9062.2941   -1465.8591     76.38393 
   58300    598.46496   -119.30498   0.54150368   -118.76348    1841.0748     4.242337     4.242337     4.242337    1841.0748    8770.4704   -4119.2809    872.03488    8425.1596    18548.116    302.97157    76.351133 
   58400    492.87078   -119.20876   0.44595984    -118.7628    324.14795    4.2426158    4.2426158    4.2426158    324.14795    18078.322   -21695.508      4589.63    3754.9002     1347.297    98.759249     76.36619 
   58500    600.41739   -119.30518   0.54327027   -118.76191    1092.5926    4.2444731    4.2444731    4.2444731    1092.5926    26824.256   -13962.579   -9583.8992   -1888.6445   -6575.8784   -1633.0575    76.466524 
   58600    658.37664   -119.35975   0.59571302   -118.76404    8272.5253    4.2409142    4.2409142    4.2409142    8272.5253    13919.744    12659.713   -1761.8805   -9056.6271    15655.299   -1002.9225    76.274342 
   58700    505.50599   -119.22216   0.45739244   -118.76477    1316.6215    4.2460191    4.2460191    4.2460191    1316.6215    14863.859    1932.5878   -12846.582   -2779.8441    21612.875   -715.66622     76.55011 
   58800    598.87163   -119.30258   0.54187164   -118.76071   -3135.0555    4.2436972    4.2436972    4.2436972   -3135.0555    19196.833   -21106.162   -7495.8367    3221.3932    407.39089   -2686.7728    76.424598 
   58900    748.98937   -119.44058   0.67770132   -118.76288   -1620.3726    4.2402145    4.2402145    4.2402145   -1620.3726    12053.011   -23038.782    6124.6537    1333.2896   -3586.3535    -2085.071    76.236595 
   59000    551.55494   -119.26603    0.4990585   -118.76697   -2331.8811    4.2461554    4.2461554    4.2461554   -2331.8811    2990.6284   -747.97998   -9238.2917   -244.31812    12581.083    -1188.681    76.557486 
   59100    374.41767   -119.10491   0.33878097   -118.76612   -1122.3535      4.24394      4.24394      4.24394   -1122.3535   -1530.5576    13267.904   -15104.407    396.46525    19774.432    1288.2188    76.437717 
   59200    602.86591   -119.30691   0.54548575   -118.76143    5390.0922    4.2391625    4.2391625    4.2391625    5390.0922    17902.464    5333.1172   -7065.3049    12188.769   -1941.1722   -1169.5325    76.179865 
   59300    793.68533   -119.47812   0.71814317   -118.75997   -8502.8804      4.24977      4.24977      4.24977   -8502.8804     2103.025   -17854.303   -9757.3629    15039.354   -9541.6891   -2606.5936    76.753163 
   59400    516.31667   -119.22761   0.46717417   -118.76044    3303.8878    4.2402688    4.2402688    4.2402688    3303.8878    15514.228   -2745.1783   -2857.3869   -86.748453     16385.27   -1521.6632    76.239524 
   59500    413.74185   -119.13642   0.37436232   -118.76205   -4488.9446    4.2402551    4.2402551    4.2402551   -4488.9446    10366.431   -4141.5925   -19691.672   -3165.5794    18600.061   -567.27909    76.238783 
   59600    676.47478   -119.37235   0.61208859   -118.76026   -6242.3984    4.2474242    4.2474242    4.2474242   -6242.3984     13063.31   -7931.9159   -23858.589    1308.4604   -11048.162   -753.76024    76.626132 
   59700    621.12785   -119.32346   0.56200953   -118.76145    3733.9637     4.245353     4.245353     4.245353    3733.9637    13608.404    11295.071   -13701.584    451.06301   -11864.424   -4127.6013    76.514091 
   59800    452.59434   -119.17011   0.40951687    -118.7606    8597.9283    4.2409238    4.2409238    4.2409238    8597.9283    22068.491     10446.09   -6720.7964   -5619.8353    11503.502    2696.9932    76.274859 
   59900    410.17229   -119.13112   0.37113251   -118.75999    381.65727    4.2496835    4.2496835    4.2496835    381.65727    32203.868   -11457.189   -19601.707   -10570.689    9465.5491    1279.2426    76.748477 
   60000    679.46314   -119.37367   0.61479253   -118.75888    437.71073    4.2442194    4.2442194    4.2442194    437.71073    21304.322    1932.6651   -21923.855   -83.816995   -17435.982   -2050.0222    76.452812 
   60100    610.78186   -119.31333   0.55264826   -118.76069    5538.5131    4.2409122    4.2409122    4.2409122    5538.5131    21616.002   -61.419347   -4939.0431    4058.5099   -15950.631    3260.3376    76.274234 
   60200    604.86087   -119.30591   0.54729083   -118.75862   -647.76073    4.2469892    4.2469892    4.2469892   -647.76073    17568.114   -14474.082   -5037.3141    1123.8736    7928.4633    656.19942    76.602592 
   60300     500.5257   -119.21265   0.45288617   -118.75977    -1359.764    4.2480781    4.2480781    4.2480781    -1359.764     6363.057    6777.4488   -17219.798   -1931.0435    3362.9488   -631.70304    76.661528 
   60400    477.78551   -119.19445   0.43231037   -118.76214    12324.185    4.2378447    4.2378447    4.2378447    12324.185    2302.8526    42466.262   -7796.5589   -1696.2298   -22340.302   -2454.2988    76.108844 
   60500     503.8125   -119.22006   0.45586014    -118.7642     309.2635    4.2466793    4.2466793    4.2466793     309.2635    93.320136    17490.596   -16656.125     5589.189   -15854.098   -26.046946    76.585825 
   60600    754.51663   -119.43984   0.68270251   -118.75714   -4936.8652    4.2443028    4.2443028    4.2443028   -4936.8652    18543.774   -16919.422   -16434.948    485.46373    7832.5342   -1799.4922    76.457323 
   60700    691.41047   -119.38526   0.62560272   -118.75965    -7181.057    4.2442102    4.2442102    4.2442102    -7181.057    7193.4286   -11215.061   -17521.538   -8343.2851   -6477.6706   -779.12997    76.452316 
   60800    469.09782    -119.1876   0.42444957   -118.76315   -5457.8011    4.2448262    4.2448262    4.2448262   -5457.8011    4676.3031    1474.6631   -22524.369   -7730.3707   -30809.175    1169.7445    76.485609 
   60900    536.18352   -119.24935   0.48515012    -118.7642     -3381.47    4.2417894    4.2417894    4.2417894     -3381.47    10536.723    2038.0807   -22719.214   -7867.0865    -9658.801   -2653.7846    76.321575 
   61000     776.0759   -119.46066   0.70220978   -118.75845   -789.82883    4.2413625    4.2413625    4.2413625   -789.82883    7815.4307    1630.2629    -11815.18   -1525.6195    12127.994   -180.24214    76.298529 
   61100    712.09198   -119.40766   0.64431578   -118.76334    934.39533    4.2442871    4.2442871    4.2442871    934.39533   -2503.4153    19286.712   -13980.111   -6004.4251   -13081.897   -1460.7807    76.456472 
   61200    473.96138   -119.19518   0.42885021   -118.76633    1618.0834    4.2431893    4.2431893    4.2431893    1618.0834   -98.096612    24311.723   -19359.376   -5274.2202   -24464.611    2823.1995     76.39716 
   61300    503.33485   -119.21795   0.45542795   -118.76252   -4590.3989    4.2460277    4.2460277    4.2460277   -4590.3989    16330.076     -13176.1   -16925.172     519.5179    2400.0938    -46.89544     76.55058 
   61400    792.33281   -119.47422   0.71691937    -118.7573   -8864.7737    4.2444828    4.2444828    4.2444828   -8864.7737   -2099.6618   -10555.859   -13938.801    760.01695    15717.499   -3119.3801    76.467048 
   61500    818.95927   -119.50147   0.74101156   -118.76046     3151.287    4.2368951    4.2368951    4.2368951     3151.287   -5190.5377    11427.755    3216.6433    8271.0845   -7226.8148    3915.3892     76.05769 
   61600    574.63177   -119.28154   0.51993891    -118.7616   -10460.577    4.2504339    4.2504339    4.2504339   -10460.577   -9924.5952   -3563.2973   -17893.839    2627.2288   -16836.156   -703.01476    76.789137 
   61700    453.55538   -119.16946   0.41038644   -118.75907    1761.8076    4.2427217    4.2427217    4.2427217    1761.8076    5087.6068    19422.275   -19224.459   -11041.522    4988.1411   -290.10502    76.371909 
   61800    642.60878    -119.3416   0.58144592   -118.76015   -3249.3939     4.244289     4.244289     4.244289   -3249.3939   -13098.399    15869.455   -12519.237   -6550.8808    16905.744    302.04726    76.456578 
   61900    682.71901   -119.37772   0.61773851   -118.75998   -1571.5274    4.2477982    4.2477982    4.2477982   -1571.5274   -11338.208    13242.126   -6618.5003   -1930.3255   -2909.4604   -941.13786    76.646376 
   62000    628.74019   -119.32731   0.56889734   -118.75841   -7349.1854    4.2422017    4.2422017    4.2422017   -7349.1854    -197.0474   -7706.6847   -14143.824   -3289.1569   -13996.852    1816.7103    76.343832 
   62100    491.24219   -119.20471   0.44448626   -118.76022   -2456.0532    4.2438656    4.2438656    4.2438656   -2456.0532    10408.978   -1866.3325   -15910.805   -10383.314    10060.216   -3163.3952    76.433698 
   62200    641.96112   -119.34314   0.58085992   -118.76228   -3426.5608    4.2450194    4.2450194    4.2450194   -3426.5608    1206.0532   -1882.6997   -9603.0359   -11983.435     17107.74    606.09181    76.496056 
   62300    656.05687   -119.35442   0.59361404   -118.76081     1188.648    4.2425459    4.2425459    4.2425459     1188.648    20601.567   -15191.662   -1843.9617    6356.8299   -5856.6022    224.92255    76.362412 
   62400    550.01534   -119.25716   0.49766544    -118.7595     1744.413    4.2449191    4.2449191    4.2449191     1744.413    12887.541    7280.7105   -14935.013    8399.1997   -7754.3022   -579.02518    76.490632 
   62500    499.76789   -119.21506   0.45220049   -118.76286    3716.7439    4.2428073    4.2428073    4.2428073    3716.7439    12231.419     21989.06   -23070.248   -2200.8283    15527.106    1097.7627     76.37653 
   62600    421.97058   -119.14749   0.38180785   -118.76568     9467.816    4.2431013    4.2431013    4.2431013     9467.816    15941.338    18720.435   -6258.3251   -3871.0997    15204.639    -28.82449     76.39241 
   62700    548.75316   -119.25822   0.49652339    -118.7617    3478.4779    4.2457057    4.2457057    4.2457057    3478.4779    30721.714    -13196.31   -7089.9705    2695.0682   -3252.8854    3778.4314    76.533162 
   62800    592.94453   -119.29672   0.53650867   -118.76021   -3023.1577    4.2476751    4.2476751    4.2476751   -3023.1577    32258.841   -24555.477   -16772.838    7759.2735   -2177.0367     864.4805    76.639715 
   62900    615.91175   -119.31945    0.5572899   -118.76216    5077.3223    4.2404643    4.2404643    4.2404643    5077.3223    18840.112    4573.8792   -8182.0241    2732.8487    19245.458   -506.51474    76.250067 
   63000    516.36225   -119.23054   0.46721541   -118.76332   -3390.4199    4.2477685    4.2477685    4.2477685   -3390.4199    6397.5097   -7968.2269   -8600.5425   -7568.8532    14793.403    2808.0497    76.644771 
   63100     636.8188   -119.33266   0.57620703   -118.75645   -3148.0426    4.2452516    4.2452516    4.2452516   -3148.0426    5164.0936   -14586.781   -21.439907   -829.08959   -7866.7188   -4666.1442    76.508608 
   63200    561.29845   -119.26726   0.50787464   -118.75939    8356.8745    4.2414357    4.2414357    4.2414357    8356.8745    2817.8889    17387.991     4864.744   -188.98373   -1046.6073   -3096.7743    76.302479 
   63300    568.67535   -119.27638   0.51454941   -118.76184    1233.4847    4.2460229    4.2460229    4.2460229    1233.4847   -7169.2771    25197.949   -14328.217    2053.4407    19767.987   -813.62601    76.550316 
   63400    501.99236   -119.21577   0.45421323   -118.76156    3888.6031    4.2443662    4.2443662    4.2443662    3888.6031    9743.7108    13939.455   -12017.357   -3882.6284    11060.921   -1605.5426    76.460747 
   63500    756.01128   -119.44147    0.6840549   -118.75741   -2700.8771    4.2395581    4.2395581    4.2395581   -2700.8771    9743.6889   -14895.366   -2950.9541    -6524.901   -8753.4608    1544.6122    76.201195 
   63600    765.27519   -119.45344   0.69243708     -118.761   -8674.8338     4.246138     4.246138     4.246138   -8674.8338   -476.85245   -13794.695   -11752.954    7542.3355    4624.0925   -1994.8237    76.556543 
   63700    582.09512   -119.28828   0.52669189   -118.76159   -11069.216    4.2464298    4.2464298    4.2464298   -11069.216    -17178.07     -5175.83   -10853.748    14613.209    21965.054   -289.85863    76.572329 
   63800    544.33974   -119.25293   0.49253003    -118.7604   -3633.1475    4.2414335    4.2414335    4.2414335   -3633.1475   -3106.2775   -2352.8214   -5440.3436    3868.6735    4756.9759   -19.110785    76.302364 
   63900    702.58783   -119.39483   0.63571623   -118.75912    -8639.596    4.2505282    4.2505282    4.2505282    -8639.596   -15125.337    4756.7564   -15550.208   -3852.1522   -10189.693   -5093.3537    76.794251 
   64000    751.86305    -119.4406   0.68030149    -118.7603    4166.5694    4.2419029    4.2419029    4.2419029    4166.5694   -13416.431    29425.042   -3508.9032   -968.69481    5310.2763   -3376.4045    76.327697 
   64100    379.67021   -119.10659   0.34353358   -118.76305    7367.2471    4.2427137    4.2427137    4.2427137    7367.2471    1102.9471    28949.348   -7950.5535    4522.8635    15052.778     843.2773    76.371478 
   64200    538.83455   -119.24576   0.48754883   -118.75821   -6626.4731    4.2509601    4.2509601    4.2509601   -6626.4731   -1588.8441     357.1476   -18647.723   -1521.8761   -309.52496    1347.3241     76.81766 
   64300    749.62181   -119.43443   0.67827356   -118.75616    6554.3258    4.2422142    4.2422142    4.2422142    6554.3258    8744.2572    13125.553   -2206.8332   -8678.5533   -10221.842   -1148.1969    76.344507 
   64400    668.55564   -119.36344   0.60492319   -118.75852   -3321.5631    4.2443819    4.2443819    4.2443819   -3321.5631   -3121.4525   -898.95311   -5944.2836   -1965.8462     10660.06    -535.3774    76.461597 
   64500    399.04744   -119.12059   0.36106651   -118.75952    570.87752    4.2446397    4.2446397    4.2446397    570.87752     13601.65   -13826.125    1937.1073    6239.5852    24271.716    -1487.038    76.475533 
   64600    654.31099   -119.35031   0.59203434   -118.75828   -5905.1998    4.2453198    4.2453198    4.2453198   -5905.1998    2351.8142   -12041.131   -8026.2829    5669.8372   -5164.5473   -4564.3772    76.512297 
   64700    732.92152   -119.42308   0.66316279   -118.75991   -3258.7544    4.2465083    4.2465083    4.2465083   -3258.7544   -10588.269    8430.6721   -7618.6662    6918.5967   -12504.788   -4187.0125    76.576575 
   64800    487.77652   -119.20229   0.44135045   -118.76094    8103.9706    4.2407928    4.2407928    4.2407928    8103.9706   -3963.2538    17682.203    10592.963    1946.8338    9653.5474   -1743.9708    76.267791 
   64900    450.95953   -119.16766   0.40803766   -118.75963   -6742.9377    4.2526378    4.2526378    4.2526378   -6742.9377   -9736.5285   -424.94292   -10067.342    2255.3942    11119.252   -2081.0953    76.908651 
   65000     823.9595   -119.50068   0.74553587   -118.75515    2125.4509     4.240259     4.240259     4.240259    2125.4509    -5389.638    10907.882    858.10922    2414.3326   -5708.9005    3074.7228    76.238991 
   65100    802.08723   -119.48511   0.72574538   -118.75937   -5438.8626    4.2429427    4.2429427    4.2429427   -5438.8626   -18216.066   -67.798359    1967.2761    -3792.489   -10640.698    1725.6186    76.383845 
   65200     429.1506   -119.14909   0.38830448   -118.76079   -7088.4156    4.2491616    4.2491616    4.2491616   -7088.4156   -19057.275   -8866.4809    6658.5089   -4969.3474    9952.1414   -1875.2802    76.720203 
   65300    424.54622   -119.14446   0.38413835   -118.76032    2922.2514    4.2417992    4.2417992    4.2417992    2922.2514    3236.6949   -10954.151     16484.21   -1617.7522    19682.536    1111.0972      76.3221 
   65400    740.99421   -119.42981   0.67046713   -118.75934    392.24012    4.2432322    4.2432322    4.2432322    392.24012    3332.1445   -7173.2673    5017.8432    6777.2809    2029.7491   -4475.8206    76.399477 
   65500    685.51785   -119.38039   0.62027095   -118.76012    4961.6112    4.2435034    4.2435034    4.2435034    4961.6112    5702.4317   -7362.8225    16545.224    6808.5726    501.32104   -4746.1654    76.414129 
   65600    344.51594   -119.07459   0.31172526   -118.76286   -9222.7556    4.2490651    4.2490651    4.2490651   -9222.7556   -20136.718   -18105.246    10573.697   -2264.8944     16381.66    83.741106    76.714976 
   65700    576.02373   -119.28186   0.52119838   -118.76066   -2491.5287    4.2403565    4.2403565    4.2403565   -2491.5287   -13534.794   -3380.0493    9440.2572   -3681.7724    11555.536    -4125.758    76.244252 
   65800    841.68979   -119.52177   0.76157861   -118.76019   -6339.7911    4.2492851    4.2492851    4.2492851   -6339.7911    -8379.558   -13113.557    2473.7418    1099.2156   -3233.4322   -3932.4746    76.726893 
   65900    704.30018   -119.39376    0.6372656   -118.75649   -6488.3375    4.2484826    4.2484826    4.2484826   -6488.3375   -17562.205   -2333.3101    430.50208     3911.099   -3354.7301    2693.9749    76.683429 
   66000     326.6679   -119.05332   0.29557598   -118.75775    14022.189    4.2400446    4.2400446    4.2400446    14022.189    1958.9067    28636.278    11471.383    5820.4409    9970.7469   -316.16123    76.227429 
   66100    567.65924    -119.2724   0.51363001   -118.75877   -2326.7751    4.2491444    4.2491444    4.2491444   -2326.7751   -4331.0604    2231.0254   -4880.2902    3471.5702    10100.188   -2199.9805     76.71927 
   66200    830.87155   -119.50854   0.75179004   -118.75675    2549.0159    4.2451784    4.2451784    4.2451784    2549.0159    11110.217   -11784.108    8320.9388    4081.5284   -6500.2468   -2308.5567    76.504648 
   66300     578.6104   -119.28078   0.52353884   -118.75724     2031.893    4.2437742    4.2437742    4.2437742     2031.893    19696.712   -21882.223    8281.1897    2924.1068     1794.868   -2623.6611    76.428759 
   66400     286.7922   -119.02176   0.25949561   -118.76226    1400.7087    4.2472285    4.2472285    4.2472285    1400.7087    2825.2075   -5983.6353    7360.5539   -4570.8408    17980.232    2952.0447    76.615544 
   66500     613.8743   -119.31766   0.55544637   -118.76221    4244.3875    4.2446788    4.2446788    4.2446788    4244.3875   -10488.386    16725.406    6496.1423    -3566.055    8417.2835   -3624.0139    76.477646 
   66600    887.50932   -119.56063   0.80303708   -118.75759   -2689.6787    4.2440573    4.2440573    4.2440573   -2689.6787   -4372.5372   -2983.8684   -712.63054   -1936.9691   -6625.2902   -845.05458    76.444054 
   66700     702.0092   -119.39424   0.63519268   -118.75904   -9329.1031    4.2453968    4.2453968    4.2453968   -9329.1031   -11372.658   -20065.261    3450.6089    3480.4384    1058.2439    2699.2863    76.516458 
   66800     411.9093   -119.13653   0.37270419   -118.76382   -5289.0893    4.2454727    4.2454727    4.2454727   -5289.0893   -27258.287    1257.9045    10133.114    5916.1041    17605.632   -2040.8407    76.520563 
   66900    625.08102   -119.32907   0.56558645   -118.76349   -6953.0785    4.2440944    4.2440944    4.2440944   -6953.0785   -24682.615    5319.7297   -1496.3507     3124.591    7545.8022   -171.06989    76.446061 
   67000    835.47872   -119.51586   0.75595871   -118.75991   -1423.2659    4.2411023    4.2411023    4.2411023   -1423.2659   -5930.8745   -2288.0819    3949.1587    190.90684   -11617.872    128.52551    76.284488 
   67100    621.93582   -119.32463    0.5627406   -118.76189    2326.7483    4.2451865    4.2451865    4.2451865    2326.7483    12584.321    -4022.598   -1581.4784   -3543.6913    6523.5964      1062.82    76.505086 
   67200    416.48521   -119.14194   0.37684457    -118.7651    64.116849    4.2497977    4.2497977    4.2497977    64.116849    11705.345    385.63934   -11898.634   -5050.6365    25604.645   -349.21794    76.754665 
   67300    505.37322   -119.22006   0.45727231   -118.76279    7044.6008    4.2425736    4.2425736    4.2425736    7044.6008    15790.743     149.1928    5193.8669   -2180.7126     10635.08   -2226.2629    76.363909 
   67400     667.9081   -119.36135   0.60433729   -118.75701   -7092.4398    4.2495664    4.2495664    4.2495664   -7092.4398    10912.859   -29961.822   -2228.3557    1772.9295   -9742.6444   -3711.0901    76.742133 
   67500    674.96764   -119.36732    0.6107249    -118.7566   -5369.6311    4.2443684    4.2443684    4.2443684   -5369.6311    45.962186   -8081.0858   -8073.7696    3089.2021    5601.8861   -63.695695    76.460865 
   67600    509.88346   -119.22182   0.46135327   -118.76046    9479.0452    4.2370922    4.2370922    4.2370922    9479.0452   -8626.1719      25960.8    11102.508    8532.6141    21116.887    5467.1072    76.068308 
   67700    570.03777   -119.27753   0.51578216   -118.76175   -9218.0409    4.2512887    4.2512887    4.2512887   -9218.0409   -19257.067   -5926.3562      -2470.7     4060.007    3538.1226    2934.6606    76.835475 
   67800    673.60017   -119.36699   0.60948759    -118.7575    5283.5258    4.2404311    4.2404311    4.2404311    5283.5258    -2720.406   -15173.168    33744.151   -2782.8369    -15599.57    3927.5237    76.248278 
   67900    650.09205   -119.34959   0.58821695   -118.76138   -2225.1098    4.2480158    4.2480158    4.2480158   -2225.1098    6956.9794   -21682.888     8050.579   -3603.7799    -91.82392   -539.38427    76.658157 
   68000    540.78312   -119.24924   0.48931193   -118.75993    884.18017    4.2481481    4.2481481    4.2481481    884.18017   -6260.7758   -1732.9347    10646.251    1211.7736    21788.433   -416.55883     76.66532 
   68100    531.21836   -119.23803   0.48065754   -118.75737    10349.305    4.2377155    4.2377155    4.2377155    10349.305     994.4255    7593.4875    22460.001    5886.9015    5940.3125   -2564.1956    76.101879 
   68200    532.64271   -119.23972   0.48194632   -118.75777   -7555.0971    4.2478076    4.2478076    4.2478076   -7555.0971    14321.941   -29408.022   -7579.2098      1492.12   -8214.1608   -4537.5984    76.646884 
   68300    559.04263   -119.26679   0.50583352   -118.76095    4580.9028    4.2397298    4.2397298    4.2397298    4580.9028    12886.106   -12706.925    13563.527   -3270.4177    582.63183    2428.4894     76.21045 
   68400    563.73335    -119.2746   0.51007778   -118.76453   -66.365742    4.2419229    4.2419229    4.2419229   -66.365742   -4873.4651   -6920.2064    11594.574    628.89255    15222.064    6209.0324    76.328781 
   68500    576.11883   -119.28474   0.52128443   -118.76345   -748.48606     4.244428     4.244428     4.244428   -748.48606   -1673.9121   -18163.243    17591.696    4019.3212    9161.9826     2495.146     76.46409 
   68600    608.64446   -119.31306    0.5507143   -118.76235    -2764.018    4.2439426    4.2439426    4.2439426    -2764.018   -1367.5208   -8445.2187    1520.6854    3526.5534    -15885.85    1613.0262    76.437856 
   68700    713.16998    -119.4066   0.64529118   -118.76131   -1892.9052    4.2397848    4.2397848    4.2397848   -1892.9052    2754.3699    2834.6801   -11267.766    1130.3276   -5192.9579    2034.9641    76.213416 
   68800     614.2762   -119.31902   0.55581001   -118.76321   -8780.0025    4.2457508    4.2457508    4.2457508   -8780.0025    6194.6248   -15690.555   -16844.077    251.61761    7357.7959   -174.09384    76.535602 
   68900    676.75917   -119.37281   0.61234592   -118.76047   -14143.508    4.2471254    4.2471254    4.2471254   -14143.508   -9828.9304   -31092.376   -1509.2181     9283.808    986.50426   -2115.5101    76.609963 
   69000    718.06459   -119.40859   0.64971993   -118.75887     679.2213    4.2400594    4.2400594    4.2400594     679.2213    3969.4262   -8894.7791    6963.0168    5418.1944   -5702.0002   -2157.8456    76.228226 
   69100    643.04179   -119.34295   0.58183773   -118.76111    1352.2672    4.2481743    4.2481743    4.2481743    1352.2672    2275.9409    5709.0058   -3928.1451   -5988.0975   -3603.8209    4022.7995    76.666735 
   69200    420.61424   -119.13895    0.3805806   -118.75836    7267.3386    4.2497573    4.2497573    4.2497573    7267.3386   -531.69261   -5660.7362    27994.445   -5276.3599     10975.51     7739.317    76.752473 
   69300    574.02759   -119.27345   0.51939223   -118.75406    7618.6696    4.2414265    4.2414265    4.2414265    7618.6696    5691.0835   -17599.828    34764.753    627.63348    12105.537    2663.1035    76.301984 
   69400    630.74915   -119.32656   0.57071508   -118.75584   -685.12065    4.2485074    4.2485074    4.2485074   -685.12065   -1242.0825   -16887.807    16074.528    3462.0068   -4093.3623    2752.7357    76.684772 
   69500    606.85314   -119.30671   0.54909347   -118.75762   -7172.7852    4.2488808    4.2488808    4.2488808   -7172.7852   -4973.9113   -11255.998   -5288.4461    14.527337   -1295.7065    1201.5852    76.704996 
   69600    499.51708   -119.21034   0.45197355   -118.75837    3913.2062    4.2371335    4.2371335    4.2371335    3913.2062    21279.363   -3196.8084   -6342.9356    1006.7036    7448.6098     617.0646    76.070532 
   69700    621.47571   -119.32299   0.56232429   -118.76067   -4409.7068    4.2461357    4.2461357    4.2461357   -4409.7068    6956.4369    -9569.456   -10616.101    11337.777   -173.10947   -1128.5976    76.556419 
   69800    624.42197   -119.32635   0.56499012   -118.76136   -423.75609    4.2480262    4.2480262    4.2480262   -423.75609   -8575.3989     8419.205   -1115.0744    12313.204   -5114.3134   -2539.3334    76.658718 
   69900    650.07249   -119.34739   0.58819925   -118.75919    -679.4699    4.2415711    4.2415711    4.2415711    -679.4699    6936.7542    11197.668   -20172.832   -509.22688   -8761.4474    6428.4902    76.309791 
   70000    606.21901    -119.3058    0.5485197   -118.75728   -3009.4558    4.2447867    4.2447867    4.2447867   -3009.4558    6601.7788   -11512.196   -4117.9502    -4260.521    3076.3398    2443.9786    76.483474 
   70100    710.48508   -119.40073   0.64286183   -118.75787   -8708.3081    4.2473142    4.2473142    4.2473142   -8708.3081   -539.16908   -26584.904    999.14927     5368.241     5822.451   -1358.9032    76.620179 
   70200    687.99503   -119.38081   0.62251236    -118.7583    2517.1452    4.2437849    4.2437849    4.2437849    2517.1452     7686.601   -5880.3322    5745.1667     5022.674   -9338.8395   -397.72914    76.429334 
   70300    513.17182   -119.22274   0.46432865   -118.75841    5256.1839    4.2439234    4.2439234    4.2439234    5256.1839      10034.6    2433.1059    3300.8455   -2033.4363     638.1674   -5566.3392    76.436819 
   70400    377.16968    -119.1011   0.34127106   -118.75983    3218.4926    4.2473062    4.2473062    4.2473062    3218.4926    13613.451     1767.302   -5725.2752    929.73343    12485.928    -4155.715    76.619748 
   70500    663.33889   -119.35837   0.60020297   -118.75817   -1847.8403    4.2460311    4.2460311    4.2460311   -1847.8403    2713.8718    2551.2189   -10808.611    7955.9859    7565.6958    1231.0567    76.550761 
   70600    873.05739   -119.54543   0.78996067   -118.75546   -6405.1422    4.2430731    4.2430731    4.2430731   -6405.1422   -1624.7776   -15013.286   -2577.3634     6079.801   -1419.8485    5323.0016    76.390887 
   70700    522.22461   -119.23209    0.4725198   -118.75957   -7043.8532    4.2477638    4.2477638    4.2477638   -7043.8532    5716.4264   -13765.529   -13082.457   -5852.1273   -1119.2716    7871.6615    76.644512 
   70800     438.7967   -119.15819   0.39703247   -118.76116   -3049.6432    4.2439564    4.2439564    4.2439564   -3049.6432    4496.7518    3160.9549   -16806.636   -4463.3923    9596.6661    3670.6865    76.438603 
   70900    752.47727   -119.43861   0.68085725   -118.75775    3120.0003    4.2437151    4.2437151    4.2437151    3120.0003   -10316.698    11016.762    8659.9371    75.637713    742.63443   -1202.0859    76.425563 
   71000    786.74668   -119.46768   0.71186493   -118.75582   -3731.2832    4.2490927    4.2490927    4.2490927   -3731.2832   -14403.915   -4842.4165    8052.4818   -1745.0893   -7256.7861   -6749.2574    76.716471 
   71100    349.98414   -119.07686   0.31667301   -118.76019    1820.9208    4.2452123    4.2452123    4.2452123    1820.9208    2132.7501    -11137.13    14467.143    394.05702   -3214.5364   -7503.5848    76.506484 
   71200    468.95265   -119.18516   0.42431821   -118.76085   -7045.3756    4.2488061    4.2488061    4.2488061   -7045.3756    1275.3665   -19156.297   -3255.1965   -1279.3705    7316.0521   -4320.9912    76.700948 
   71300    865.58683   -119.53932   0.78320115   -118.75612   -3836.6276    4.2444686    4.2444686    4.2444686   -3836.6276   -7803.3795   -8934.4822    5227.9791   -488.70707    3786.2786     484.7865    76.466284 
   71400    704.12088   -119.39354   0.63710337   -118.75643   -4950.9468     4.245753     4.245753     4.245753   -4950.9468   -8494.1359   -5961.6446   -397.05986    570.81446   -6353.7175    2575.4834    76.535721 
   71500    289.64141    -119.0249   0.26207363   -118.76282    8973.7743    4.2428579    4.2428579    4.2428579    8973.7743    21414.478    15970.468   -10463.624   -5147.3398   -3815.2564     6150.642    76.379261 
   71600    427.90494   -119.15344   0.38717738   -118.76626    5144.7394    4.2443874    4.2443874    4.2443874    5144.7394    11650.751    13295.042   -9511.5754   -6602.4658    7205.5304    7549.2355    76.461895 
   71700    759.43434   -119.45072   0.68715215   -118.76357    2945.2755    4.2419253    4.2419253    4.2419253    2945.2755   -90.472358    1483.0012    7443.2975   -6380.6653    4964.3951    2990.2532     76.32891 
   71800    802.97356   -119.48749   0.72654735   -118.76094   -5875.6692    4.2421753    4.2421753    4.2421753   -5875.6692    4792.4234   -17205.013   -5214.4176    1531.7468   -9014.5096   -3991.3838    76.342405 
   71900    630.05069   -119.33446   0.57008311   -118.76438   -14685.905    4.2479425    4.2479425    4.2479425   -14685.905   -1616.5584   -17950.095   -24491.061    3674.4037   -6405.7137   -5683.2295    76.654188 
   72000    557.45131   -119.26898   0.50439366   -118.76458     1102.793     4.236637     4.236637     4.236637     1102.793    2550.6332    12466.408   -11708.662   -4680.6464    5060.3637   -3891.2386    76.043794 
   72100    477.91178   -119.19847   0.43242463   -118.76604   -7565.4976    4.2483089    4.2483089    4.2483089   -7565.4976   -4379.6708   -12873.102   -5443.7197    -1737.097    6175.2079    3599.5371    76.674027 
   72200    604.17309    -119.3083   0.54666851   -118.76163      3984.51    4.2448452    4.2448452    4.2448452      3984.51    7595.4141   -10698.155    15056.271    3493.1679   -736.70346    3882.1569    76.486637 
   72300    708.19275   -119.40148   0.64078769   -118.76069     12888.54    4.2376014    4.2376014    4.2376014     12888.54    12469.673    7743.4308    18452.516    639.47373   -7736.9775    1352.0205    76.095734 
   72400    531.02396    -119.2409   0.48048164   -118.76042   -1328.7045    4.2514786    4.2514786    4.2514786   -1328.7045    1570.9419   -14303.587    8746.5321   -4722.3216    4427.6728     2053.208    76.845774 
   72500    467.53845   -119.18247   0.42303861   -118.75943    3324.3378    4.2433936    4.2433936    4.2433936    3324.3378    8704.8636    -24431.96     25700.11   -6077.1377    6642.5841   -193.27548    76.408198 
   72600    714.41767   -119.40462   0.64642012    -118.7582    -5310.204     4.242943     4.242943     4.242943    -5310.204    1081.0938   -23302.423    6290.7169    3018.5066   -3888.8817   -1543.0976    76.383859 
   72700    773.87144   -119.45724   0.70021514   -118.75703   -3248.4733     4.247108     4.247108     4.247108   -3248.4733   -1003.3176    10690.563   -19432.666    4617.6917   -2026.6519   -4225.0694     76.60902 
   72800    497.81529   -119.20845   0.45043374   -118.75802   -7206.7292    4.2499451    4.2499451    4.2499451   -7206.7292   -19061.531    21569.492   -24128.148   -3454.1925    2383.3817    2489.4786     76.76265 
   72900    425.79283   -119.14321    0.3852663   -118.75795    7309.7129     4.241514     4.241514     4.241514    7309.7129    3865.8412    15582.843    2480.4546    4996.1339    8026.6808    5512.6064    76.306705 
   73000    604.57317   -119.30683   0.54703051    -118.7598    7138.6027    4.2475328    4.2475328    4.2475328    7138.6027    15861.546    1610.3294    3943.9331    9868.8413   -1588.0221    3635.5084    76.632012 
   73100    744.35633   -119.42947   0.67350925   -118.75597   -7502.6976    4.2506313    4.2506313    4.2506313   -7502.6976   -3713.4319   -2417.2126   -16377.448    4399.0564   -4721.4894   -1254.9015    76.799838 
   73200    624.22704   -119.31844   0.56481374   -118.75363    1478.9262    4.2399086    4.2399086    4.2399086    1478.9262    13823.288    7550.6429   -16937.152   -401.28447    8153.2957   -4414.4998    76.220096 
   73300    595.52205   -119.29648   0.53884086   -118.75764    -12391.92    4.2471611    4.2471611    4.2471611    -12391.92     4167.657    -27187.47   -14155.947    -160.8129    6550.5442   -4408.1105    76.611893 
   73400    666.96553    -119.3622   0.60348443   -118.75872   -6391.7937    4.2482837    4.2482837    4.2482837   -6391.7937    3721.7267   -23092.717    195.60869    5454.1185   -1114.4929   -853.18118    76.672659 
   73500    690.36609   -119.38167   0.62465775   -118.75701   -684.60104    4.2414451    4.2414451    4.2414451   -684.60104   -4116.6524    4056.8574   -1994.0081    2786.1637    2810.2987    2290.9016    76.302987 
   73600    574.40394   -119.27861   0.51973276   -118.75888   -5638.8094    4.2452558    4.2452558    4.2452558   -5638.8094   -10588.296    13226.847   -19554.979   -3526.6075    4796.5428     4553.003    76.508836 
   73700    548.17876   -119.25796   0.49600366   -118.76196    203.53386    4.2487959    4.2487959    4.2487959    203.53386    3627.6631    14370.719   -17387.781    2646.7608    1780.9742    1111.6522    76.700398 
   73800    467.28997   -119.18651   0.42281379   -118.76369    7497.9881    4.2422229    4.2422229    4.2422229    7497.9881     7028.142    14888.269    577.55344    9985.5043   -3188.7111    -2173.524    76.344972 
   73900     457.4962   -119.17684   0.41395217   -118.76289    10728.942    4.2402968    4.2402968    4.2402968    10728.942    5814.4295    25948.748    423.64733    4470.1221   -1670.7594   -2726.4037    76.241031 
   74000    686.71911   -119.38176   0.62135788   -118.76041    1798.8917    4.2478965    4.2478965    4.2478965    1798.8917    9128.1833    13735.764   -17467.273   -3394.8194    5166.8483   -2220.1597    76.651697 
   74100    779.21126   -119.46804   0.70504672   -118.76299   -2141.5321    4.2425848    4.2425848    4.2425848   -2141.5321    7125.3145    25.460255   -13575.371   -1500.6642   -1562.5922    238.71657    76.364514 
   74200    417.46517   -119.14326   0.37773126   -118.76553    2883.5844    4.2382988    4.2382988    4.2382988    2883.5844    14974.395   -13876.004    7552.3619    3315.9235   -4776.1591    1971.4646    76.133308 
   74300    450.32983   -119.17286   0.40746789   -118.76539   -14206.016    4.2495246    4.2495246    4.2495246   -14206.016   -5157.9429   -37595.491    135.38528    415.78981    2623.0198    3610.3546    76.739866 
   74400    922.15621    -119.5934   0.83438632   -118.75901   -9054.8213    4.2458046    4.2458046    4.2458046   -9054.8213   -2283.0361   -11009.544   -13871.884   -2220.6941    1082.4312    851.00066     76.53851 
   74500    940.59746   -119.61182   0.85107235   -118.76075   -2717.4769    4.2409082    4.2409082    4.2409082   -2717.4769    9996.1731   -5732.8117   -12415.792    2868.2817   -92.898418   -728.25384    76.274016 
   74600    310.32732   -119.04695   0.28079068   -118.76616      -3740.6    4.2492065    4.2492065    4.2492065      -3740.6    4164.7758   -17732.833    2346.2574    9395.0094    1846.0922   -997.61346    76.722637 
   74700    303.27112   -119.03946   0.27440608   -118.76506    5382.8141    4.2417576    4.2417576    4.2417576    5382.8141    13391.144   -5806.5551     8563.853    2922.4697    449.43073    945.42615    76.319858 
   74800    856.47634   -119.53633   0.77495779   -118.76137    5170.5672    4.2394065    4.2394065    4.2394065    5170.5672    10654.629    15361.749   -10504.676   -5654.3939    415.36685    499.62123    76.193019 
   74900    763.57275   -119.45278   0.69089667   -118.76188    5085.8858    4.2466587    4.2466587    4.2466587    5085.8858    6945.5573     19124.16    -10812.06    7126.2039    755.06258    2675.5371    76.584709 
   75000    247.64599   -118.98993   0.22407529   -118.76585    7873.1088    4.2440533    4.2440533    4.2440533    7873.1088    3526.5275    11522.653    8570.1461    13040.349   -3097.0962    3819.8731    76.443837 
   75100    332.14493     -119.067   0.30053171   -118.76647    5665.6298    4.2441726    4.2441726    4.2441726    5665.6298     7898.095    8585.0562    513.73815    2648.7984    782.87878   -1852.8737    76.450286 
   75200    874.22872   -119.55293   0.79102052   -118.76191   -4056.1951     4.246683     4.246683     4.246683   -4056.1951    624.87888     956.7294   -13750.194   -9256.1802    3006.3255   -3787.7922    76.586024 
   75300    781.73652   -119.46515   0.70733163   -118.75782   -5423.9318    4.2451308    4.2451308    4.2451308   -5423.9318    -11216.38   -4646.7955   -408.61995    3254.1979    659.37751   -6488.0218    76.502075 
   75400    419.21567   -119.14011   0.37931515   -118.76079   -3929.4839    4.2436936    4.2436936    4.2436936   -3929.4839   -6442.4586   -29475.385    24129.392    15665.659    842.23982   -2058.7604    76.424403 
   75500    595.73291   -119.30048   0.53903165   -118.76145   -6665.4575    4.2452873    4.2452873    4.2452873   -6665.4575   -4454.0629   -31392.325    15850.015    1722.1488   -5548.2915    866.28678    76.510536 
   75600    862.33657   -119.53736   0.78026025    -118.7571   -12623.013    4.2477657    4.2477657    4.2477657   -12623.013   -6256.5141   -18700.453   -12912.073   -13173.414   -1499.2005     2760.356     76.64462 
   75700    600.04719   -119.29835   0.54293531   -118.75542   -5627.8628    4.2463088    4.2463088    4.2463088   -5627.8628   -8080.8832    4935.6633   -13738.368    6320.3179     3586.352    2376.9729    76.565781 
   75800    328.23249   -119.05599   0.29699166   -118.75899    6964.7783    4.2461511    4.2461511    4.2461511    6964.7783   -5918.0753    22303.139    4509.2708    24402.422    1059.7893   -3956.7691    76.557249 
   75900    519.19296   -119.22902    0.4697767   -118.75924     9137.865    4.2497992    4.2497992    4.2497992     9137.865    11297.937    16437.719   -322.06145    6298.3266    2492.1462   -7474.9228    76.754746 
   76000    732.88393   -119.41863   0.66312878    -118.7555     4339.576    4.2444462    4.2444462    4.2444462     4339.576    2704.0143    25276.389   -14961.675   -8767.7468    3267.3607   -2828.8922    76.465073 
   76100    509.85356   -119.21702   0.46132622    -118.7557    3734.9039    4.2390138    4.2390138    4.2390138    3734.9039   -7957.4437    15656.119    3506.0366    9074.6366    407.16979    2147.5504     76.17185 
   76200    433.86473   -119.15175   0.39256993   -118.75918    -7148.402     4.251806     4.251806     4.251806    -7148.402   -10600.411    -10353.44   -491.35462    24886.264     -768.618    3701.0251    76.863527 
   76300    799.30306   -119.48019   0.72322621   -118.75696   -388.47733    4.2448046    4.2448046    4.2448046   -388.47733   -4361.1681    357.01531    2838.7208    1329.7586   -429.48574    5319.2562    76.484442 
   76400    768.16024   -119.44968   0.69504753   -118.75463    129.48005    4.2433073    4.2433073    4.2433073    129.48005    62.630892   -3967.3282    4293.1375    -15923.04    6015.3315    1888.6686    76.403537 
   76500    450.29143   -119.16498   0.40743315   -118.75755   -9242.7292    4.2540205    4.2540205    4.2540205   -9242.7292   -15970.957   -5652.1081   -6105.1221    8086.1255    7233.0717   -170.25489    76.983691 
   76600    565.17074   -119.26918   0.51137836    -118.7578    4702.0513    4.2404626    4.2404626    4.2404626    4702.0513    5755.9867    7174.4697    1175.6976    26465.424    322.08695   -2236.0463    76.249976 
   76700     782.1848   -119.46554   0.70773724    -118.7578    5695.9571    4.2385613    4.2385613    4.2385613    5695.9571    27634.521   -8345.0468   -2201.6024    3213.9663   -3043.3172   -24.506136    76.147459 
   76800    567.15366   -119.27231   0.51317255   -118.75913    1958.1792    4.2497633    4.2497633    4.2497633    1958.1792    15980.002   -896.64079   -9208.8233   -8973.7959   -4086.9763    2269.8762    76.752801 
   76900    282.25913   -119.01956   0.25539399   -118.76417    2645.2395    4.2454415    4.2454415    4.2454415    2645.2395    6996.1801    1019.5657   -80.027338    13649.718    1785.8384    1652.2866    76.518874 
   77000    459.07773   -119.17974   0.41538318   -118.76436    6405.1962    4.2409903    4.2409903    4.2409903    6405.1962    18146.453    5646.7398   -4577.6045    28579.812    3320.2415    1613.8034    76.278448 
   77100    792.88806   -119.47792   0.71742178    -118.7605    -7336.072    4.2476166    4.2476166    4.2476166    -7336.072    5327.4836    -10905.72   -16429.979    6811.5981   -556.52611   -2302.9509    76.636546 
   77200    631.39087   -119.32774   0.57129573   -118.75644   -7062.0619    4.2478924    4.2478924    4.2478924   -7062.0619   -5246.7119   -11554.182   -4385.2922   -8146.8498    799.05064   -1443.1624    76.651477 
   77300    484.28801   -119.19841   0.43819397   -118.76022   -254.07905    4.2407525    4.2407525    4.2407525   -254.07905   -18413.928    5823.6365    11828.055    8767.5417    9511.3538   -1417.0821    76.265613 
   77400    601.62286    -119.3076     0.544361   -118.76323   -530.00781    4.2441433    4.2441433    4.2441433   -530.00781   -18099.285    3957.9477    12551.313    13692.044    5539.2955    192.22324    76.448701 
   77500    801.92865   -119.48384    0.7256019   -118.75824   -13970.115    4.2516323    4.2516323    4.2516323   -13970.115   -24015.975   -13138.874   -4755.4956   -3385.8535   -5675.1395    3489.0323    76.854112 
   77600    736.48618   -119.42321   0.66638817   -118.75682   -4725.8317    4.2403449    4.2403449    4.2403449   -4725.8317   -19511.451    11207.353   -5873.3966   -4275.3719   -8997.0892    541.04301    76.243625 
   77700    586.69716   -119.29581   0.53085592   -118.76495    1536.4948    4.2428226    4.2428226    4.2428226    1536.4948    -10111.98    16531.866   -1810.4008    10336.464    1334.9064    3390.2705    76.377354 
   77800    460.04134   -119.18095   0.41625507    -118.7647    1409.4167    4.2491017    4.2491017    4.2491017    1409.4167   -7128.3756    11645.931   -289.30505    14133.696    9367.6085    817.30411    76.716961 
   77900    465.83888   -119.18229   0.42150081   -118.76079    11507.421    4.2418236    4.2418236    4.2418236    11507.421    9568.9215    30249.014    -5295.672    4345.6677   -1189.1882   -1570.7596    76.323416 
   78000    635.86016   -119.33505   0.57533964   -118.75971    5846.9115    4.2418839    4.2418839    4.2418839    5846.9115    14350.305    20368.149    -17177.72    3094.8208   -7451.6058   -1551.7202    76.326671 
   78100    633.00125   -119.33476   0.57275283   -118.76201   -774.30852    4.2455067    4.2455067    4.2455067   -774.30852    7017.2708    9341.1033     -18681.3    10593.732    3640.3263    351.47218    76.522402 
   78200    557.28199   -119.26581   0.50424046   -118.76156   -9524.4069    4.2470107    4.2470107    4.2470107   -9524.4069   -18717.978    2355.9148   -12211.158    10549.021    13485.161    5271.5252    76.603757 
   78300    589.21864   -119.29406   0.53313741   -118.76093   -6386.2875    4.2388264    4.2388264    4.2388264   -6386.2875   -24605.051    5441.0526    5.1356296   -2820.4703   -954.78668    2994.4963    76.161745 
   78400    815.33931   -119.49893   0.73773614   -118.76119   -8784.1911    4.2454805    4.2454805    4.2454805   -8784.1911   -12255.619   -7481.1693   -6615.7846   -8581.2508   -11330.469    2917.4382    76.520986 
   78500    666.29101    -119.3628   0.60287411   -118.75993   -3152.1489    4.2506241    4.2506241    4.2506241   -3152.1489    73.746922    -5381.285   -4148.9087    4133.3104    4487.4264   -4764.2862    76.799449 
   78600    373.34093   -119.09878   0.33780672   -118.76097    15633.688    4.2402938    4.2402938    4.2402938    15633.688    2376.7444    21495.328     23028.99      11776.9     18076.56   -4025.7709    76.240868 
   78700    467.95059   -119.18329   0.42341152   -118.75988    3673.9857    4.2472238    4.2472238    4.2472238    3673.9857   -6015.2069    7138.9421     9898.222    6245.2908    7451.3416    -2474.133    76.615288 
   78800    741.88495   -119.42812   0.67127309   -118.75685   -5362.0308      4.24756      4.24756      4.24756   -5362.0308     1205.332    -1437.449   -15853.976   -7686.7542   -13632.402   -884.70803    76.633483 
   78900    758.63053   -119.44216   0.68642485   -118.75574   -1788.2108     4.237815     4.237815     4.237815   -1788.2108     6464.706   -4236.4055    -7592.933   -2879.5032   -8531.4451    6856.2948    76.107239 
   79000    464.89225    -119.1815   0.42064428   -118.76085       -12448    4.2478561    4.2478561    4.2478561       -12448   -8559.4718   -23326.778   -5457.7496     11025.56    10829.552    1108.8987    76.649511 
   79100    551.93445   -119.26244   0.49940188   -118.76304   -2612.9805    4.2413444    4.2413444    4.2413444   -2612.9805   -11863.065   -1284.0168    5308.1403    3675.5492    9085.7876   -1742.8668    76.297555 
   79200    784.79291   -119.47213   0.71009712   -118.76204    5020.1192    4.2406055    4.2406055    4.2406055    5020.1192   -2955.3357    9860.8495    8154.8438   -5728.7579   -5936.0916   -556.60238    76.257686 
   79300    603.66132   -119.30829   0.54620545   -118.76209    409.48272    4.2505734    4.2505734    4.2505734    409.48272   -11680.726   -3685.8338    16595.008    1961.1537   -5299.7381   -9294.1645    76.796701 
   79400    281.68624   -119.01711   0.25487563   -118.76224    12365.558    4.2431522    4.2431522    4.2431522    12365.558   -7932.9536    10647.876    34381.751    8232.2529    11191.505   -5037.5432    76.395159 
   79500    518.26039   -119.22873   0.46893289    -118.7598   -5468.2926    4.2485747    4.2485747    4.2485747   -5468.2926   -10343.706   -6865.2021    804.03004    7341.4432    17299.772    1692.1264    76.688417 
   79600    938.88999   -119.60223   0.84952739    -118.7527    -10652.12     4.245939     4.245939     4.245939    -10652.12   -5309.2331    -11273.55   -15373.576   -2683.6147    331.57902    4020.0507     76.54578 
   79700    810.51127   -119.48826   0.73336763    -118.7549   -7251.5185    4.2465994    4.2465994    4.2465994   -7251.5185   -6195.2888   -7762.8392   -7796.4274   -742.46134   -5184.8478    4925.8292      76.5815 
   79800    380.79599   -119.10372   0.34455221   -118.75917   -723.57825    4.2470169    4.2470169    4.2470169   -723.57825   -15683.047     14709.93   -1197.6174    11489.166    11589.972   -2245.8071     76.60409 
   79900    365.68858   -119.09229   0.33088271   -118.76141    12629.436    4.2392729    4.2392729    4.2392729    12629.436    4812.6676    28949.879    4125.7627    5008.7398    10863.368   -5365.6351    76.185818 
   80000    670.40078   -119.36675   0.60659271   -118.76015   -441.22396    4.2484672    4.2484672    4.2484672   -441.22396   -2737.1082    9381.6774   -7968.2411   -512.13024   -47.846315    -11921.01    76.682595 
   80100    730.36409    -119.4209   0.66084877   -118.76005    7268.7075     4.239446     4.239446     4.239446    7268.7075   -1994.6136    18485.956    5314.7804    1672.7214   -2155.3843   -10939.717    76.195151 
   80200    554.60583   -119.26597   0.50181901   -118.76415   -3182.3345    4.2421742    4.2421742    4.2421742   -3182.3345   -4700.9592    7216.6298   -12062.674    2040.3825    4128.8713    915.19528    76.342346 
   80300    478.67961   -119.19804   0.43311937   -118.76492   -4268.0679     4.245029     4.245029     4.245029   -4268.0679    886.28968    1443.7862   -15134.279    4272.1308    11798.472    4263.6888    76.496573 
   80400    723.91274   -119.41803   0.65501146   -118.76302   -6123.4365    4.2416344    4.2416344    4.2416344   -6123.4365    2317.8317    -18909.89   -1778.2514   -3400.5681    1100.0838    2059.0421    76.313207 
   80500    741.65442    -119.4307   0.67106451   -118.75964   -8805.5266    4.2483087    4.2483087    4.2483087   -8805.5266   -2739.9057   -20784.041   -2892.6336   -3535.8629   -5603.6639   -6258.9197    76.674015 
   80600    520.69387   -119.23161   0.47113475   -118.76047    2031.1224    4.2436114    4.2436114    4.2436114    2031.1224   -3698.1303    7701.0339    2090.4637    5795.1135    10773.628   -5248.0125    76.419964 
   80700    377.87236   -119.10389   0.34190685   -118.76198    4999.1497    4.2462161    4.2462161    4.2462161    4999.1497   -4661.8725    5462.4779    14196.844    7070.5006     12948.23   -4178.9042    76.560767 
   80800    604.82478   -119.30493   0.54725817   -118.75768   -5593.5047    4.2509442    4.2509442    4.2509442   -5593.5047   -16031.728   -13331.519    12582.733   -692.48792   -3640.3185   -7595.8608    76.816799 
   80900    827.00265    -119.4985   0.74828938   -118.75021   -9840.5623    4.2453586    4.2453586    4.2453586   -9840.5623   -16699.487    -11602.05   -1220.1496   -7561.9062   -7818.4884    2168.9165    76.514395 
   81000    692.94159   -119.38037   0.62698811   -118.75338   -12085.175    4.2478068    4.2478068    4.2478068   -12085.175   -11086.271   -14418.575   -10750.677    4184.2434    4097.3422    4763.9545    76.646844 
   81100    492.81019   -119.20405   0.44590502   -118.75814     8362.612    4.2435593    4.2435593    4.2435593     8362.612    18749.507   -1794.8021    8133.1311    13402.487    13195.725   -28.072662    76.417149 
   81200    488.33956   -119.19983   0.44185989   -118.75797    3053.6029    4.2480319    4.2480319    4.2480319    3053.6029    11716.416   -2187.4718   -368.13555    4895.8237    5903.7338   -3433.7007    76.659027 
   81300    546.50092   -119.25102   0.49448552   -118.75654    9838.9353    4.2410656    4.2410656    4.2410656    9838.9353    13480.454    10293.965    5742.3865   -445.85058    -3187.494   -6085.6509     76.28251 
   81400    602.88875   -119.30535   0.54550641   -118.75984    3569.5852    4.2454908    4.2454908    4.2454908    3569.5852    10842.821   -2287.3165    2153.2513     6530.406    5605.6889   -1372.5932    76.521544 
   81500    596.72859    -119.3002   0.53993257   -118.76027   -11463.235    4.2519333    4.2519333    4.2519333   -11463.235   -10338.674   -11641.188   -12409.842    8109.1447     13375.43    3000.1888    76.870435 
   81600    696.39367   -119.38546   0.63011163   -118.75535    2652.1184    4.2357564    4.2357564    4.2357564    2652.1184    -1781.547    3074.9232    6662.9789    626.57731    534.48639    1932.9269    75.996386 
   81700    702.55653   -119.39367   0.63568791   -118.75798   -15031.735    4.2513509    4.2513509    4.2513509   -15031.735   -26559.817    4061.2255   -22596.613    -8904.896   -8289.9878    1913.2947     76.83885 
   81800    618.43403   -119.31974   0.55957211   -118.76017    -3346.341    4.2458395    4.2458395    4.2458395    -3346.341   -20353.745     23840.96   -13526.239   -4778.2316    948.83116    1601.3408    76.540398 
   81900    436.22004   -119.15631   0.39470106   -118.76161    10682.091    4.2381919    4.2381919    4.2381919    10682.091   -10060.443    28804.522    13302.195    13210.303    9189.4216   -3922.6783    76.127549 
   82000    428.72952   -119.14812   0.38792348   -118.76019   -1951.8412    4.2499908    4.2499908    4.2499908   -1951.8412   -24463.088     18942.78   -335.21611    13531.127    1598.4657   -5862.7864    76.765128 
   82100    588.33111   -119.28933   0.53233435     -118.757    11968.298    4.2413539    4.2413539    4.2413539    11968.298   -8555.6695    47754.189   -3293.6247   -2372.5897   -8547.7574   -5018.2207    76.298069 
   82200    697.01531    -119.3905    0.6306741   -118.75983   -939.46326    4.2461597    4.2461597    4.2461597   -939.46326   -24414.286    28537.388   -6941.4912     1602.161   -3357.3146   -1599.9664    76.557715 
   82300    507.90737    -119.2209   0.45956526   -118.76134    3788.9641    4.2429406    4.2429406    4.2429406    3788.9641   -21359.506    21734.503    10991.895    14269.593    5228.3878    5159.3208     76.38373 
   82400    499.47759   -119.21267   0.45193782   -118.76073   -1942.1495    4.2423171    4.2423171    4.2423171   -1942.1495   -15839.292    6108.7866    3904.0571    10328.158    2869.0262    3596.6738    76.350061 
   82500     677.8918   -119.37447   0.61337074    -118.7611   -6556.5127    4.2424811    4.2424811    4.2424811   -6556.5127   -8480.2519   -4585.1827   -6604.1035    -7940.626   -3338.5389    5811.8622    76.358914 
   82600    710.91245   -119.40794   0.64324852   -118.76469    5447.3656    4.2385411    4.2385411    4.2385411    5447.3656    438.08198    10748.955    5155.0601    -10341.34    399.27219    315.79445    76.146368 
   82700    531.44307   -119.24652   0.48086086   -118.76566   -8056.5359     4.245643     4.245643     4.245643   -8056.5359   -22848.655    1836.0578   -3157.0104    8601.1652    6928.3082   -131.62136    76.529771 
   82800    587.52869   -119.29458   0.53160831   -118.76297    1725.6309    4.2391977    4.2391977    4.2391977    1725.6309   -15161.397    19917.326    420.96366    12874.276    3421.0162    1015.4377     76.18176 
   82900    796.57522   -119.48352     0.720758   -118.76276   -15135.574    4.2474915    4.2474915    4.2474915   -15135.574   -22057.775   -13226.149   -10122.798   -1406.8268   -3980.9702    1708.1465    76.629774 
   83000    641.01528   -119.34291   0.58000409   -118.76291    -5323.162    4.2403389    4.2403389    4.2403389    -5323.162   -19270.374    2189.0949    1111.7929   -7527.0557   -688.05954   -1008.3461    76.243304 
   83100    538.56444   -119.25008   0.48730442   -118.76277   -5214.0506    4.2433421    4.2433421    4.2433421   -5214.0506   -18846.089    5127.7575   -1923.8204    5711.1478    4127.0367    -9200.434    76.405413 
   83200    760.68279   -119.44888   0.68828177    -118.7606   -3483.5545    4.2440218    4.2440218    4.2440218   -3483.5545   -2304.9723   -3502.8807   -4642.8104      4412.25    1399.6308    2298.1916    76.442139 
   83300    771.16856   -119.46181   0.69776952   -118.76404    11144.458    4.2365627    4.2365627    4.2365627    11144.458    13208.959    17285.879     2938.536   -8062.3012   -4673.5796    6866.5434    76.039789 
   83400      306.905   -119.04486   0.27769409   -118.76717    1791.9533    4.2496496    4.2496496    4.2496496    1791.9533   -14328.763     26681.94   -6977.3168    -13632.09    3224.6908   -564.18245    76.746637 
   83500    331.51099   -119.06521   0.29995811   -118.76525    2464.2688    4.2421621    4.2421621    4.2421621    2464.2688   -15390.502    30210.802    -7427.494     -8918.44    9140.5642   -3141.2293    76.341693 
   83600    865.40796   -119.54339   0.78303931   -118.76035   -2261.7566    4.2430275    4.2430275    4.2430275   -2261.7566   -5224.8181    10908.225   -12468.676    3768.8483     2062.676   -3957.8031    76.388424 
   83700    889.53804    -119.5635   0.80487271   -118.75863   -14987.691    4.2514428    4.2514428    4.2514428   -14987.691   -22071.021   -8863.9608   -14028.092    2271.5859   -7190.6659    786.64112    76.843831 
   83800     428.5886   -119.14807   0.38779598   -118.76028   -3409.2846    4.2404928    4.2404928    4.2404928   -3409.2846   -21634.913   -114.21662    11521.276   -6906.5554   -2165.6408   -2568.7992    76.251607 
   83900     458.2143   -119.17621   0.41460193   -118.76161    -2927.757    4.2427824    4.2427824    4.2427824    -2927.757   -9450.2972   -3928.6915    4595.7176   -1848.4461    8811.7513   -7371.4685    76.375183 
   84000    910.98008   -119.58286   0.82427392   -118.75859   -7314.1012    4.2470104    4.2470104    4.2470104   -7314.1012     3257.286   -9922.9168   -15276.673    5432.1193    4143.1037    -461.5953    76.603743 
   84100    693.05679   -119.38771   0.62709235   -118.76062    9345.8062    4.2413131    4.2413131    4.2413131    9345.8062    15426.756   -182.33304    12792.996   -783.06188   -3228.4963    3030.6494    76.295863 
   84200    272.19815   -119.01096    0.2462906   -118.76467    7215.3702    4.2439458    4.2439458    4.2439458    7215.3702    4748.6477    9430.7605    7466.7023   -13489.834    102.63671    1063.4291    76.438031 
   84300    376.29649   -119.10492   0.34048097   -118.76444     8606.739    4.2471126    4.2471126    4.2471126     8606.739    25609.247    7761.5743   -7550.6043   -11158.277    1833.2508   -1097.5902    76.609272 
   84400    775.69715   -119.46152   0.70186709   -118.75965    5230.9696    4.2443034    4.2443034    4.2443034    5230.9696    30052.583    -11818.26   -2541.4138     3752.358    3679.2494   -1368.0492    76.457356 
   84500    642.20257   -119.33937   0.58107838   -118.75829    834.99865    4.2428263    4.2428263    4.2428263    834.99865    16525.991   -9661.2935   -4359.7013    6705.9897   -2305.2215     4979.172    76.377554 
   84600    434.36131   -119.15539   0.39301924   -118.76237    894.20676    4.2431207    4.2431207    4.2431207    894.20676    6183.9881    3532.7288   -7034.0966   -3894.7447   -7006.0033     3045.732    76.393455 
   84700    603.59762   -119.31013   0.54614781   -118.76398   -1187.7281    4.2416865    4.2416865    4.2416865   -1187.7281    26.813483   -5847.0763    2257.0785   -10588.002   -4382.6058   -7771.6623     76.31602 
   84800    733.96649   -119.42554    0.6641083   -118.76143   -4508.5131    4.2450604    4.2450604    4.2450604   -4508.5131   -3302.0115    -8856.963   -1366.5649    4392.8496   -3407.7531    1984.6508    76.498269 
   84900    601.24115    -119.3036   0.54401563   -118.75958   -4834.0876    4.2454601    4.2454601    4.2454601   -4834.0876   -17309.988     12684.55   -9876.8245    13955.159   -3404.3801     7635.227    76.519883 
   85000    473.40032    -119.1881   0.42834256   -118.75976   -6125.8807    4.2479751    4.2479751    4.2479751   -6125.8807   -20394.367    13803.724       -11787   -6994.4413   -1609.4098   -1776.6836    76.655955 
   85100    678.83217   -119.37054   0.61422161   -118.75632   -3745.8052    4.2479526    4.2479526    4.2479526   -3745.8052   -6166.3238     3810.326   -8881.4179   -14437.536    1967.3996   -3003.4877    76.654734 
   85200    698.55651    -119.3873   0.63206861   -118.75523    -2111.781    4.2416783    4.2416783    4.2416783    -2111.781    -16791.48    8993.2039    1462.9329   -517.62262     1445.424   -2097.1808    76.315574 
   85300    560.96269   -119.26578   0.50757083   -118.75821    4705.3732    4.2385394    4.2385394    4.2385394    4705.3732    -3005.729    8979.5461    8142.3025    11226.115   -1951.1566    3741.6524    76.146277 
   85400     637.3551   -119.33983   0.57669229   -118.76314   -1553.1303    4.2445992    4.2445992    4.2445992   -1553.1303    7173.6824   -9348.5443   -2484.5292   -4922.2626   -1669.3351   -1509.6436    76.473339 
   85500    637.45897   -119.34003   0.57678627   -118.76325    652.25123     4.243447     4.243447     4.243447    652.25123    14764.177   -13035.335    227.91189   -16698.695    141.28111   -6455.6822    76.411082 
   85600    578.04081   -119.28491   0.52302347   -118.76188    -276.1202    4.2437906    4.2437906    4.2437906    -276.1202     9188.876   -12043.645    2026.4083     -1508.51   -1213.5488    4257.6227    76.429642 
   85700     535.7939   -119.24541   0.48479758   -118.76061   -5254.1978    4.2483695    4.2483695    4.2483695   -5254.1978      3509.08   -8854.5346   -10417.139    14876.977   -4469.7731    6235.2412    76.677303 
   85800    621.02459    -119.3218    0.5619161   -118.75988    112.41511    4.2424377    4.2424377    4.2424377    112.41511    12192.121   -2293.5566   -9561.3189    4171.5054   -5547.1794   -918.41729    76.356574 
   85900    590.95398    -119.2949   0.53470758   -118.76019    2067.2244    4.2400492    4.2400492    4.2400492    2067.2244    3220.9731    3926.9744    -946.2743   -9417.3288   -968.67196   -3755.4867    76.227677 
   86000    575.80707   -119.28078   0.52100234   -118.75978   -1991.2055    4.2452932    4.2452932    4.2452932   -1991.2055   -14590.347    18238.538   -9621.8081    -1720.998    100.73164    774.70122     76.51086 
   86100    540.25889   -119.25024    0.4888376    -118.7614   -185.60232    4.2462228    4.2462228    4.2462228   -185.60232   -12489.219    30725.867   -18793.455    13036.747   -2423.0542    3737.2858     76.56113 
   86200     593.4846   -119.29848   0.53699734   -118.76148    621.26112     4.243955     4.243955     4.243955    621.26112    -4639.899    19174.519   -12670.837    5849.1273   -2351.7293    -6853.554    76.438529 
   86300    624.33487   -119.32369   0.56491131   -118.75878   -4719.6979    4.2479296    4.2479296    4.2479296   -4719.6979   -10912.585    2823.6908   -6070.1993   -9605.0223   -1578.9542   -10228.233    76.653488 
   86400     643.8161   -119.33815   0.58253834   -118.75561   -6306.6789    4.2456367    4.2456367    4.2456367   -6306.6789   -16067.499   -1127.3077   -1725.2303   -8779.3918   -3855.9148    3948.5335    76.529429 
   86500    623.10278   -119.32254   0.56379649   -118.75874   -2475.6097    4.2419908    4.2419908    4.2419908   -2475.6097   -800.50857   -6561.4881   -64.832397    484.13558   -9490.5082    5624.1406    76.332443 
   86600    587.33433   -119.29336   0.53143245   -118.76193   -205.66518     4.243602     4.243602     4.243602   -205.66518    3911.2638   -14278.104    9749.8443    7565.6578   -5785.9065   -2207.5272    76.419454 
   86700    543.58202   -119.25353   0.49184444   -118.76169   -1222.4609    4.2444436    4.2444436    4.2444436   -1222.4609    423.41356   -11299.946    7209.1494    779.07617    5473.5143   -6793.3436    76.464931 
   86800     631.6481   -119.33251   0.57152848   -118.76098    8086.4082    4.2392561    4.2392561    4.2392561    8086.4082    23451.983   -8150.2075    8957.4492   -4024.1988    2181.2143    2771.7375    76.184912 
   86900    583.04288    -119.2931   0.52754945   -118.76555    4625.2135    4.2451905    4.2451905    4.2451905    4625.2135    14198.632    2383.0521   -2706.0435    5255.4535    -2913.893    8928.1069    76.505306 
   87000    478.25998   -119.19814   0.43273968    -118.7654    131.38805    4.2454095    4.2454095    4.2454095    131.38805   -5035.5611    7213.1676   -1783.4423     8133.056    -2139.297   -7810.3836    76.517147 
   87100    569.97885   -119.27635   0.51572885   -118.76062    2827.5531    4.2412655    4.2412655    4.2412655    2827.5531   -2663.3857    5080.2882    6065.7567    4831.0649   -2258.6981   -8606.7351    76.293296 
   87200    789.08019   -119.47101   0.71397634   -118.75703   -20720.964    4.2515811    4.2515811    4.2515811   -20720.964   -19258.942   -18599.161   -24304.789   -6292.4929    1556.5558    4746.1288    76.851334 
   87300    739.35533   -119.42692   0.66898424   -118.75794   -2205.1785    4.2399235    4.2399235    4.2399235   -2205.1785    -4959.133    1532.8098   -3189.2124   -7103.4124   -3192.7854    5445.2715    76.220898 
   87400    441.91436   -119.16228    0.3998534   -118.76243   -8668.4399    4.2472771    4.2472771    4.2472771   -8668.4399   -30868.844    2711.4831    2152.0408    5412.1849   -8933.4878   -605.11094    76.618174 
   87500    535.82838   -119.24567   0.48482878   -118.76084    537.57708    4.2435077    4.2435077    4.2435077    537.57708   -3533.0763    4473.3851    672.42243    7173.9687     -5953.66   -5548.6802     76.41436 
   87600    754.08598   -119.44264   0.68231284   -118.76033    13520.127    4.2397108    4.2397108    4.2397108    13520.127    31284.185    5027.2434    4248.9534    2735.9542   -219.14923    3546.7279    76.209428 
   87700    651.22016   -119.35074   0.58923768    -118.7615   -682.59174    4.2499577    4.2499577    4.2499577   -682.59174    11687.991   -3141.7382   -10594.028    1299.2524    1100.2986    5534.8868    76.763333 
   87800    365.44836   -119.09192   0.33066536   -118.76126    11437.467    4.2400914    4.2400914    4.2400914    11437.467    12614.663    9035.8916    12661.847     4500.735   -3077.5659   -7202.4877    76.229953 
   87900    503.38466   -119.21772   0.45547302   -118.76225   -10558.431    4.2469367    4.2469367    4.2469367   -10558.431   -5710.7502   -13921.083   -12043.459    5447.1781   -203.96983   -6644.3205    76.599752 
   88000    843.30244   -119.52233   0.76303777   -118.75929   -11042.055    4.2466201    4.2466201    4.2466201   -11042.055   -5676.1894   -15704.322   -11745.655   -3541.4562    6624.4872    2335.4135    76.582623 
   88100    745.27225   -119.43213   0.67433799   -118.75779   -6039.5413    4.2426454    4.2426454    4.2426454   -6039.5413   -21632.497   -285.59975    3799.4728   -4674.2728    557.90906    5966.8871    76.367785 
   88200    495.83832    -119.2095   0.44864493   -118.76085   -2582.9412    4.2431036    4.2431036    4.2431036   -2582.9412   -32879.082     12040.93    13089.329    4238.8172   -2909.4285   -475.57066     76.39253 
   88300    400.26032   -119.12724   0.36216395   -118.76508    9936.5373      4.24461      4.24461      4.24461    9936.5373   -10579.181    13799.583     26589.21    7671.3103   -3230.7496   -112.72372    76.473924 
   88400    456.09924   -119.17899   0.41268817   -118.76631    6326.3349    4.2426431    4.2426431    4.2426431    6326.3349   -1085.8549   -4196.2784    24261.138    4063.6547   -2988.0875    10344.122     76.36766 
   88500    570.88503   -119.28085   0.51654877    -118.7643    8607.4612    4.2373106    4.2373106    4.2373106    8607.4612   -1161.6628    4417.7534    22566.293   -2312.0981    2087.9032    13144.496    76.080068 
   88600     816.6389   -119.49992   0.73891204     -118.761   -7628.8301    4.2478132    4.2478132    4.2478132   -7628.8301   -19643.462   -1607.6575   -1635.3702    766.29487    2684.7352   -1074.4557    76.647189 
   88700    813.59142   -119.49808   0.73615462   -118.76193   -7559.3241    4.2422776    4.2422776    4.2422776   -7559.3241   -15243.893   -13186.895    5752.8159    3387.6406    1214.0676   -6873.8229    76.347927 
   88800     447.3042   -119.16836   0.40473024   -118.76363   -1960.1804    4.2421059    4.2421059    4.2421059   -1960.1804   -327.32823    -9311.114    3757.9012   -500.39615    4745.0136    3153.4612    76.338657 
   88900    448.09247   -119.16639   0.40544349   -118.76095   -7313.4668    4.2490208    4.2490208    4.2490208   -7313.4668   -9525.9119   -7358.1346    -5056.354    349.10871    2277.5011    7305.7462    76.712575 
   89000     752.8584    -119.4389    0.6812021    -118.7577    3652.0349    4.2418457    4.2418457    4.2418457    3652.0349   -5309.3697     4873.585     11391.89    4295.8018   -504.85188    2163.0844    76.324609 
   89100    768.41915   -119.45436    0.6952818   -118.75908    5423.7882      4.24118      4.24118      4.24118    5423.7882   -12729.505    12306.261    16694.608    4126.6818   -333.96223    -109.7032    76.288683 
   89200    355.37034   -119.08465   0.32154655    -118.7631   -4497.3806    4.2480505    4.2480505    4.2480505   -4497.3806   -33943.054    7414.3178    13036.595   -840.61152   -3163.9251     13202.37    76.660037 
   89300    399.21378   -119.12545   0.36121702   -118.76424    4316.2217    4.2395861    4.2395861    4.2395861    4316.2217   -15164.798    16472.298    11641.165   -7100.4982    6428.1541    15585.336    76.202706 
   89400    795.97252   -119.48236   0.72021266   -118.76214    4075.5198    4.2418625    4.2418625    4.2418625    4075.5198   -5295.1619    20683.441     -3161.72   -4847.9715    9252.4758   -811.28991     76.32552 
   89500    723.43314   -119.41301   0.65457751   -118.75843   -13709.745    4.2524584    4.2524584    4.2524584   -13709.745   -25146.447   -10233.814   -5748.9739    934.74261    749.09386    539.40529    76.898917 
   89600    454.15771   -119.16862   0.41093144   -118.75768     3677.449    4.2355341    4.2355341    4.2355341     3677.449   -11942.972    4471.6798    18503.639   -2406.4868    575.03911    4505.4789    75.984421 
   89700    579.77964   -119.28519    0.5245968   -118.76059   -11080.934    4.2473902    4.2473902    4.2473902   -11080.934    -28502.74   -708.65859   -4031.4042   -2876.9404    3429.1884    4905.3713    76.624293 
   89800    854.24833   -119.53296   0.77294184   -118.76002   -3749.5593       4.2419       4.2419       4.2419   -3749.5593   -16481.568    1243.7428    3989.1473     2078.474     3157.526    325.86296    76.327541 
   89900    728.08547   -119.41996   0.65878703   -118.76118    5026.7587    4.2359694    4.2359694    4.2359694    5026.7587   -9821.1293    7019.9455     17881.46    168.06552    130.65676   -7896.1991    76.007846 
   90000     499.0225   -119.21614   0.45152604   -118.76461   -8051.0412    4.2472471    4.2472471    4.2472471   -8051.0412   -32434.551   -5488.1628     13769.59   -4960.7738    239.19002    4634.4614    76.616546 
   90100     531.9615   -119.24742   0.48132995   -118.76609    3752.4268     4.238434     4.238434     4.238434    3752.4268   -11071.902    10127.483      12201.7   -3959.6464    7913.3622     9842.468    76.140596 
   90200    506.79334   -119.22493   0.45855726   -118.76637   -3680.6443    4.2431834    4.2431834    4.2431834   -3680.6443    -20773.13    10603.996   -872.79933   -2752.8085    8953.3799    3965.6791    76.396841 
   90300    541.41363    -119.2537   0.48988243   -118.76382     1483.302    4.2398478    4.2398478    4.2398478     1483.302   -33856.962    22073.793    16233.076    1172.1978   -2334.0243   -2215.2395    76.216816 
   90400     625.8506   -119.33047   0.56628277   -118.76419    2180.1971    4.2445707    4.2445707    4.2445707    2180.1971    -22596.86    8851.4155    20286.036    3212.2067   -7446.2261    1525.5717    76.471802 
   90500    639.92816   -119.34304   0.57902045   -118.76402    5842.4578    4.2420718    4.2420718    4.2420718    5842.4578    2280.2045   -7041.1529    22288.322    498.61784   -1618.6856     11760.92    76.336815 
   90600    520.50249     -119.235   0.47096159   -118.76404    4570.7663    4.2419382    4.2419382    4.2419382    4570.7663    -7634.799   -650.28856    21997.386   -500.61198    449.71951     5827.006    76.329602 
   90700    608.32466   -119.31053   0.55042494   -118.76011   -8782.7564    4.2473503    4.2473503    4.2473503   -8782.7564    -31742.86    2036.7068    3357.8836   -3133.9935    518.28789   -7640.6717    76.622132 
   90800    802.49995   -119.48336   0.72611882   -118.75724   -5280.7852    4.2391495    4.2391495    4.2391495   -5280.7852   -23023.931    8865.2325   -1683.6569   -923.86006    -1000.623   -2929.4766    76.179162 
   90900    658.04679   -119.35688   0.59541457   -118.76147   -9083.3443    4.2439589    4.2439589    4.2439589   -9083.3443   -10167.905   -14249.155   -2832.9729   -277.45531   -865.72833    12005.781    76.438735 
   91000    482.05999   -119.19929   0.43617801   -118.76311    3044.9256    4.2410962    4.2410962    4.2410962    3044.9256   -12696.107    14979.847    6851.0361   -281.22699    3585.3532    10958.172    76.284162 
   91100    494.74727   -119.21072   0.44765773   -118.76306     2970.565    4.2441544    4.2441544    4.2441544     2970.565   -34674.614    44131.895   -545.58688     3401.975   -832.23006   -2211.6542    76.449304 
   91200    558.29703   -119.26776   0.50515888    -118.7626    6103.3326    4.2432986    4.2432986    4.2432986    6103.3326    -17721.18    31151.824    4879.3536    6559.3318   -4834.2522   -431.88056    76.403063 
   91300     492.4331   -119.20891   0.44556382   -118.76335    4810.3855    4.2434661    4.2434661    4.2434661    4810.3855   -2316.8832    9887.0682    6860.9715    2407.7136    1083.3486    19264.179    76.412116 
   91400    572.10265   -119.27894    0.5176505   -118.76129   -5998.7264    4.2454834    4.2454834    4.2454834   -5998.7264   -19341.863    2362.5323   -1016.8484   -3616.1779     718.9447    18626.044    76.521142 
   91500    700.76858   -119.39307   0.63407014     -118.759    3800.2662    4.2393395    4.2393395    4.2393395    3800.2662   -10863.015    11877.347    10386.466    -3496.825   -394.45799    -4613.882    76.189408 
   91600    660.21163   -119.35908   0.59737336   -118.76171   -6905.5801    4.2467197    4.2467197    4.2467197   -6905.5801   -3301.7918   -14330.194   -3084.7546   -3750.5563    2384.9259   -2730.4112    76.588013 
   91700    511.63376   -119.22657   0.46293698   -118.76363    675.11163    4.2408086    4.2408086    4.2408086    675.11163     12973.05   -18712.323    7764.6072    1398.8396   -3056.3076    9907.5806     76.26864 
   91800    619.06699    -119.3214   0.56014482   -118.76125   -6363.6105    4.2454538    4.2454538    4.2454538   -6363.6105   -11315.667   -14272.512    6497.3468    700.88299   -3244.7071    7734.0961    76.519539 
   91900    779.69019   -119.46204   0.70548007   -118.75656   -7808.4991    4.2467768    4.2467768    4.2467768   -7808.4991   -27892.593   -1203.9128    5671.0085   -4397.0382    1891.6025   -2050.8732    76.591101 
   92000    675.15383   -119.37093   0.61089337   -118.76004    6336.7859    4.2426841    4.2426841    4.2426841    6336.7859    2654.9891    4219.9652    12135.404   -4286.9933   -1020.8341    3151.7443    76.369877 
   92100    371.64745   -119.09788   0.33627442   -118.76161     3329.825    4.2484074    4.2484074    4.2484074     3329.825   -1876.3741    6429.4282    5436.4209   -1745.7431    613.64991    18543.257    76.679361 
   92200    411.92502   -119.13275   0.37271842   -118.76004    1825.1189     4.243214     4.243214     4.243214    1825.1189   -11497.444    11194.447    5778.3533    -4522.556    -1336.713    11387.636    76.398494 
   92300    710.38787   -119.39982   0.64277388   -118.75704   -7286.0376    4.2458606    4.2458606    4.2458606   -7286.0376   -11971.091   -9661.0586   -225.96331   -9187.2518   -7208.6191   -4911.0664    76.541542 
   92400      837.825   -119.51433   0.75808167   -118.75625   -9733.8559    4.2431614    4.2431614    4.2431614   -9733.8559   -3802.7583   -19511.929   -5886.8808   -3340.4355   -2827.6474    2488.6631    76.395654 
   92500    640.24174   -119.33849   0.57930418   -118.75918   -686.41708    4.2439085    4.2439085    4.2439085   -686.41708    11670.456   -7745.2812   -5984.4257    5541.8775   -4477.7862    11129.062    76.436014 
   92600    493.97195   -119.20688    0.4469562   -118.75992   -4179.1502    4.2462791    4.2462791    4.2462791   -4179.1502   -2002.2243   -23917.672    13382.446   -5001.6106   -214.39965    3461.8553    76.564173 
   92700    425.38671   -119.14664   0.38489883   -118.76174    15536.501    4.2366501    4.2366501    4.2366501    15536.501    21759.748   -8530.8198    33380.573   -13402.058    2402.1138   -5792.8015    76.044497 
   92800    491.51711   -119.20658   0.44473501   -118.76184    3553.1767    4.2503897    4.2503897    4.2503897    3553.1767    18443.108   -16947.469    9163.8907   -8045.7936    4539.1733      1937.95    76.786746 
   92900    673.95879   -119.36718   0.60981207   -118.75737    3881.7591    4.2444851    4.2444851    4.2444851    3881.7591    18352.936   -10579.101    3871.4422    4575.3074    4662.2218    8133.5417    76.467173 
   93000    689.37583   -119.37911   0.62376174   -118.75535    969.09547    4.2423651    4.2423651    4.2423651    969.09547    22516.205   -12147.762   -7461.1568    500.17751   -2877.8096   -3250.5087    76.352651 
   93100    551.84073   -119.25468   0.49931709   -118.75537    -14987.78    4.2541845    4.2541845    4.2541845    -14987.78    2993.9348   -30648.506   -17308.768   -8055.8728   -4950.2767   -10432.495    76.992597 
   93200    608.77416   -119.30214   0.55083165    -118.7513    2318.6405    4.2431874    4.2431874    4.2431874    2318.6405   -1920.7483    1581.9414    7294.7285    3422.7395   -5189.2896    1158.2698    76.397059 
   93300    654.38386   -119.34359   0.59210027   -118.75149    6024.8826    4.2437595    4.2437595    4.2437595    6024.8826    -14567.02    25913.332    6728.3363    4799.0208    830.32793    14515.773    76.427963 
   93400    511.35526   -119.21825   0.46268498   -118.75556    5619.6271    4.2488687    4.2488687    4.2488687    5619.6271    -12257.96    18360.778    10756.063   -10756.187    4106.8357     7247.997    76.704341 
   93500     386.2312   -119.10775    0.3494701   -118.75828    4444.1688    4.2467959    4.2467959    4.2467959    4444.1688   -2238.6677    4754.1238     10817.05   -16761.939    1199.9503   -2132.9261    76.592132 
   93600    631.59082   -119.32742   0.57147665   -118.75595   -1825.1728    4.2401416    4.2401416    4.2401416   -1825.1728    -8217.674    12526.183   -9784.0274   -357.28001   -686.01639   -1228.4749    76.232661 
   93700    780.76923   -119.46239    0.7064564   -118.75593   -9151.8873    4.2458954    4.2458954    4.2458954   -9151.8873   -17778.535    5518.3478   -15195.475    4023.6568   -163.97004    2209.0402    76.543424 
   93800    641.91016   -119.33926    0.5808138   -118.75845   -11213.744    4.2475505    4.2475505    4.2475505   -11213.744   -16276.603    -20188.59    2823.9603   -12712.333    1482.4331     1515.381     76.63297 
   93900    584.32936   -119.28795   0.52871348   -118.75923    7682.0354    4.2341884    4.2341884    4.2341884    7682.0354    5762.5606   -4285.0702    21568.616    -11883.94    -140.6105   -9356.9919    75.912018 
   94000    574.99567   -119.28068   0.52026816   -118.76042   -5459.8848    4.2514865    4.2514865    4.2514865   -5459.8848   -9457.8779   -8509.3637    1587.5871    2696.6882    4391.2295   -7778.2882    76.846202 
   94100    620.71482   -119.31943   0.56163581    -118.7578     1953.068    4.2458529    4.2458529    4.2458529     1953.068   -2914.0808   -4566.3809    13339.666    94.103545    7050.7465     3625.987    76.541125 
   94200    546.85426   -119.25258   0.49480523   -118.75777    4552.3871    4.2404644    4.2404644    4.2404644    4552.3871   -429.41443     -7888.58    21975.156   -13156.905    5346.3519     5996.368    76.250076 
   94300    549.86979   -119.25512   0.49753374   -118.75758   -8609.7275    4.2481132    4.2481132    4.2481132   -8609.7275   -17657.812   -11451.765     3280.394   -9865.5941    1715.0297   -75.576028    76.663427 
   94400    650.12051   -119.34545    0.5882427   -118.75721    -798.4095    4.2420593    4.2420593    4.2420593    -798.4095   -10219.064    11679.986     -3856.15    5143.1686   -5280.0317   -10885.503    76.336143 
   94500    727.01948   -119.41594    0.6578225   -118.75812   -4133.3464    4.2414793    4.2414793    4.2414793   -4133.3464   -1588.6598   -1291.0787   -9520.3007    2320.2464   -3391.3731    -6006.308    76.304834 
   94600    658.87597   -119.35748   0.59616483   -118.76132    3023.0842    4.2392795    4.2392795    4.2392795    3023.0842    10890.014   -2750.6816    929.92062   -9380.6658    3081.6427    4563.3892     76.18617 
   94700    445.60432   -119.16804   0.40319215   -118.76484   -3430.5179    4.2480325    4.2480325    4.2480325   -3430.5179   -5349.9154   -2256.5453   -2685.0929   -7204.8818    1877.3815   -6113.1226    76.659061 
   94800    464.45636   -119.18258   0.42024987   -118.76233    7958.1655    4.2419155    4.2419155    4.2419155    7958.1655    13716.159   -478.00746    10636.345    4269.6127    4456.2636   -16366.074    76.328378 
   94900    683.31357   -119.37696   0.61827648   -118.75868    3792.2988    4.2454999    4.2454999    4.2454999    3792.2988    27203.714   -11439.554   -4387.2641    5169.5908    4699.9787   -7361.8008    76.522031 
   95000    689.13302   -119.37924   0.62354204    -118.7557   -3434.5304    4.2466729    4.2466729    4.2466729   -3434.5304     4096.567   -14565.624    165.46617   -12072.482    2565.5799    6533.3641    76.585478 
   95100    516.16933   -119.22363   0.46704086   -118.75659   -431.10526    4.2413536    4.2413536    4.2413536   -431.10526   -5881.6427   -4486.0584    9074.3854   -15614.627    2658.0763   -716.31684     76.29805 
   95200    604.23536   -119.30438   0.54672485   -118.75765   -9784.4589    4.2462789    4.2462789    4.2462789   -9784.4589   -2912.6526   -5292.1119   -21148.612   -1229.2386    -81.06911   -13746.784    76.564164 
   95300    816.65856   -119.49649   0.73892982   -118.75756   -354.27332    4.2409542    4.2409542    4.2409542   -354.27332    1782.6038    2676.8317   -5522.2555    2297.4118   -69.714115   -4365.5875    76.276499 
   95400    690.18786   -119.38349   0.62449648   -118.75899   -7147.3741     4.246692     4.246692     4.246692   -7147.3741   -17074.871   -7621.0846     3253.833   -8401.1358    3135.5549    4391.9008     76.58651 
   95500    383.80517   -119.10887   0.34727499    -118.7616    2696.9529    4.2439481    4.2439481    4.2439481    2696.9529   -2979.9027    3105.1661    7965.5953   -11658.404     5316.789   -11329.239    76.438156 
   95600    464.50725   -119.18197   0.42029592   -118.76168    4367.8891    4.2438814    4.2438814    4.2438814    4367.8891    15351.471     455.3614   -2703.1654    2146.3999    7856.1151   -16623.152    76.434552 
   95700    758.61556   -119.44306    0.6864113   -118.75665   -4702.9349    4.2480593    4.2480593    4.2480593   -4702.9349    15033.666   -14068.968   -15073.503    7636.2977    1518.9505    275.48145    76.660513 
   95800    784.59841   -119.46614   0.70992113   -118.75622   -396.29608    4.2406177    4.2406177    4.2406177   -396.29608    7326.4569   -9077.2503    561.90518   -2340.6307   -1855.9907     6087.023    76.258345 
   95900     458.2496   -119.17801   0.41463387   -118.76338    412.57726    4.2399995    4.2399995    4.2399995    412.57726    5119.1762   -14008.851    10127.406   -11366.329    1048.0206   -8627.5105    76.224997 
   96000    352.89894   -119.08562   0.31931038   -118.76631    782.91409     4.243959     4.243959     4.243959    782.91409    20646.737   -17080.593   -1217.4018   -5846.7208   -1055.4185    -15802.78    76.438741 
   96100    617.06583   -119.32112   0.55833413   -118.76278   -1168.7209    4.2451568    4.2451568    4.2451568   -1168.7209    12531.361   -15796.301   -241.22227    2607.9845   -6903.9641   -1467.5291    76.503484 
   96200    791.44273   -119.47729   0.71611402   -118.76118    7238.3818    4.2377505    4.2377505    4.2377505    7238.3818    4644.9678    2219.6908    14850.487   -998.02933   -5727.3977    5197.2452    76.103767 
   96300     557.1474   -119.26792   0.50411868   -118.76381   -4462.3567    4.2479027    4.2479027    4.2479027   -4462.3567     7446.784   -14251.272   -6582.5825   -6388.5947   -1684.0387   -10967.296    76.652032 
   96400    498.72797   -119.21307   0.45125955   -118.76181    -10235.57    4.2459584    4.2459584    4.2459584    -10235.57   -2244.7228   -19837.804   -8624.1818   -3270.5013    6491.6582   -14404.242    76.546829 
   96500    757.94995   -119.44251   0.68580905    -118.7567   -5116.4537     4.238784     4.238784     4.238784   -5116.4537   -8775.2755   -5005.9319   -1568.1536    2282.6932    10544.762    6072.6349    76.159462 
   96600    836.44931   -119.51557   0.75683691   -118.75873   -8179.9031    4.2487143    4.2487143    4.2487143   -8179.9031   -4238.6349   -2870.0701   -17431.004    1400.8308     598.3002    8777.4081    76.695979 
   96700    524.41191   -119.23547   0.47449892   -118.76097    5878.3394    4.2408927    4.2408927    4.2408927    5878.3394    21165.965    10847.772   -14378.719    -8659.495   -4699.7028   -9214.1146     76.27318 
   96800    307.29842   -119.04095   0.27805007    -118.7629    7203.0962    4.2403915    4.2403915    4.2403915    7203.0962     29695.47   -2804.2395    -5281.942   -14579.738   -685.58579   -13592.748    76.246143 
   96900    607.32692   -119.31174   0.54952216   -118.76221    -517.5107     4.244416     4.244416     4.244416    -517.5107    7023.1362    2996.1083   -11571.777   -4941.0479     6192.888    -2230.178     76.46344 
   97000    803.53796   -119.48805   0.72705803   -118.76099   -455.27647    4.2411745    4.2411745    4.2411745   -455.27647    9080.1886    10058.323   -20504.341   -952.27944    922.17136    5203.9361    76.288385 
   97100    538.22639   -119.24845   0.48699855   -118.76145   -6367.4627    4.2442411    4.2442411    4.2442411   -6367.4627    10578.611   -5593.1718   -24087.827   -1916.3166   -4667.0589   -8043.4292    76.453989 
   97200    403.52585   -119.12752   0.36511867   -118.76241   -2017.2021    4.2416941    4.2416941    4.2416941   -2017.2021   -194.01866    3497.7527   -9355.3402   -6523.0396    139.65495   -12069.364    76.316431 
   97300    776.02778   -119.46431   0.70216624   -118.76215   -5582.4554    4.2431709    4.2431709    4.2431709   -5582.4554   -14606.761    3696.5279   -5837.1329   -2721.1059    5635.4187    649.73805    76.396167 
   97400    920.16326   -119.59164   0.83258305   -118.75906   -2173.2866    4.2424204    4.2424204    4.2424204   -2173.2866   -6615.5212    7178.0844   -7082.4229    5637.6512    2863.6276    2501.8351    76.355636 
   97500    568.16172   -119.27556   0.51408467   -118.76148   -2849.1248    4.2427733    4.2427733    4.2427733   -2849.1248    16965.771   -5585.5493   -19927.596   -1082.8439   -4182.3444   -12605.164    76.374696 
   97600    331.32692   -119.06715   0.29979156   -118.76736    3889.0072    4.2406901    4.2406901    4.2406901    3889.0072     17507.47    4363.9537   -10204.402   -16678.003    34.338392   -12098.818    76.262251 
   97700    517.02641   -119.23525   0.46781636   -118.76743    5773.4768    4.2435276    4.2435276    4.2435276    5773.4768    4142.2518    18476.901   -5298.7227   -18270.861    2779.7489    6.5105529    76.415435 
   97800    654.35029   -119.35435   0.59206989   -118.76228   -3366.8555    4.2455119    4.2455119    4.2455119   -3366.8555    2328.7428    9800.6573   -22229.967   -2306.9776    1389.5055    1680.0609    76.522685 
   97900    596.87689   -119.29965   0.54006676   -118.75959    263.31928    4.2391391    4.2391391    4.2391391    263.31928    11778.941    8386.8636   -19375.847    4470.6411    258.57432   -3604.8251    76.178602 
   98000    616.47258   -119.32098   0.55779734   -118.76319   -8927.1258    4.2466297    4.2466297    4.2466297   -8927.1258    -8824.073   -432.72154   -17524.583   -11576.317   -958.94064   -3983.2435     76.58314 
   98100    592.47816    -119.3014   0.53608669   -118.76532   -3633.0848    4.2417302    4.2417302    4.2417302   -3633.0848   -7494.7283    5500.4709   -8904.9969   -14728.013    3721.0467    273.58385    76.318378 
   98200    626.24233   -119.32879   0.56663722   -118.76215   -612.48352    4.2370649    4.2370649    4.2370649   -612.48352   -2558.8494    5021.0758    -4299.677    4206.3582    4909.2863    4678.1667    76.066838 
   98300    707.84362    -119.4017   0.64047178   -118.76123   -5093.2024     4.245991     4.245991     4.245991   -5093.2024     3537.158   -10393.625   -8423.1405    14299.539   -2239.1876   -2373.8269    76.548593 
   98400    812.59908   -119.49814   0.73525672   -118.76288   -5848.3604    4.2425856    4.2425856    4.2425856   -5848.3604    1338.0373   -10652.719   -8230.3992   -4483.1795   -3081.5092   -5899.4428    76.364558 
   98500    579.55608    -119.2881   0.52439452   -118.76371    343.44029    4.2392421    4.2392421    4.2392421    343.44029   -713.41889   -1339.9584    3083.6981   -18951.971    2468.2209    2780.1816    76.184157 
   98600    544.18544   -119.25515   0.49239042   -118.76276   -10550.082    4.2461576    4.2461576    4.2461576   -10550.082   -4914.3503   -10903.237   -15832.659    -2034.622   -649.95036    2770.0474    76.557606 
   98700    804.83595   -119.48982   0.72823248   -118.76159   -2242.8896    4.2388509    4.2388509    4.2388509   -2242.8896    4458.9953   -4621.6704   -6565.9938    14180.694   -1802.5241   -340.82023    76.163067 
   98800    661.51367   -119.36472   0.59855147   -118.76617    4148.3504    4.2392561    4.2392561    4.2392561    4148.3504    14097.384   -7340.1234    5687.7903   -9187.6041    125.54149    1785.0528    76.184912 
   98900    313.98546   -119.04927   0.28410064   -118.76517   -4850.7936    4.2494381    4.2494381    4.2494381   -4850.7936    13656.111   -17082.858   -11125.634   -27665.896    844.91536   -772.34769    76.735182 
   99000    628.17453   -119.32595   0.56838552   -118.75756   -2105.7707    4.2435152    4.2435152    4.2435152   -2105.7707    16760.944   -4066.6054    -19011.65   -8732.5594    5288.7716   -1378.1359    76.414765 
   99100    962.60957   -119.62779   0.87098937    -118.7568   -1120.8778    4.2408441    4.2408441    4.2408441   -1120.8778    15271.513   -10683.892   -7950.2538    8996.2381   -222.15503   -235.77785    76.270556 
   99200    521.53599   -119.23607   0.47189672   -118.76417    1604.5374    4.2412344    4.2412344    4.2412344    1604.5374    2098.5898   -9572.8144    12287.837   -10635.936   -7548.5375   -1443.1874    76.291617 
   99300    219.17882   -118.96412    0.1983176    -118.7658    87.570628    4.2446532    4.2446532    4.2446532    87.570628     10557.73   -25274.957    14979.938   -23733.495   -2742.6796    5017.3802     76.47626 
   99400    680.02778    -119.3732   0.61530343   -118.75789   -2525.5068    4.2462583    4.2462583    4.2462583   -2525.5068    16203.744   -14318.633   -9461.6319    -265.8782     255.7356     5790.024    76.563053 
   99500    896.89821   -119.56731   0.81153235   -118.75577    1845.9453    4.2461729    4.2461729    4.2461729    1845.9453    12190.796    7095.7859   -13748.746    14021.254    1464.5654    1589.7906    76.558428 
   99600    353.32909   -119.07851   0.31969958   -118.75881    1901.9455     4.247663     4.247663     4.247663    1901.9455    1883.7788   -543.92425    4365.9818   -11269.044    2522.0303   -479.98307    76.639057 
   99700    179.10966   -118.92243   0.16206218   -118.76036    11938.458    4.2368178    4.2368178    4.2368178    11938.458    8354.7614    6574.5715    20886.042   -23690.503    2418.1935   -2845.1146    76.053529 
   99800    723.79164    -119.4151   0.65490189   -118.76019     3472.279    4.2443033    4.2443033    4.2443033     3472.279   -308.64905    11350.602   -625.11634   -1148.1182    6504.1512   -1711.9257    76.457346 
   99900    886.53168   -119.56114   0.80215249   -118.75898   -5240.0878    4.2481381    4.2481381    4.2481381   -5240.0878    854.07396    3516.1473   -20090.485    8640.5921     1115.707   -1013.1067     76.66478 
  100000    433.00376   -119.15009    0.3917909    -118.7583    39.834885    4.2399706    4.2399706    4.2399706    39.834885    4373.0136   -1399.2202   -2854.2888   -13674.574    -6861.729    480.09658    76.223437 
Loop time of 222.591 on 1 procs for 100000 steps with 8 atoms

Pair  time (%) = 76.7501 (34.4803)
Kspce time (%) = 54.3565 (24.4199)
Neigh time (%) = 0 (0)
Comm  time (%) = 11.3436 (5.09615)
Outpt time (%) = 0.285359 (0.128199)
Other time (%) = 79.8554 (35.8754)

Nlocal:    8 ave 8 max 8 min
Histogram: 1 0 0 0 0 0 0 0 0 0
Nghost:    2189 ave 2189 max 2189 min
Histogram: 1 0 0 0 0 0 0 0 0 0
Neighs:    2472 ave 2472 max 2472 min
Histogram: 1 0 0 0 0 0 0 0 0 0

Total # of neighbors = 2472
Ave neighs/atom = 309
Neighbor list builds = 0
Dangerous builds = 0
unfix 20
unfix 21
print "seeds:1185466"
seeds:1185466
