LAMMPS (10 Feb 2015)
# ---- initialize simulations
clear
units metal
dimension 3
boundary p p p
atom_style charge
atom_modify map array
# ---- create atoms
read_data /Users/eugeneragasa/pyflamestk_git/pypospack/tests/tests_integration/workflow/WorkflowLammpsThermalExpansion/param_2632/MgO_NaCl_unit.npt.T700/lammps.structure
  triclinic box = (0 0 0) to (4.2565 4.2565 4.2565) with tilt (0 0 0)
  1 by 1 by 1 MPI processor grid
  reading atoms ...
  8 atoms
# ---- define interatomic potential
include potential.mod
mass 1 24.305
mass 2 15.999

group Mg type 1
4 atoms in group Mg
group O type 2
4 atoms in group O

set group Mg charge 1.63285961235
  4 settings made for charge
set group O charge -1.63285961235
  4 settings made for charge

variable R_cut equal 10.0

pair_style buck/coul/long ${R_cut}
pair_style buck/coul/long 10
pair_coeff 1 1 0.0 0.5 0.0 ${R_cut}
pair_coeff 1 1 0.0 0.5 0.0 10
pair_coeff 1 2 1437.07173936 0.281984725072 0.0 ${R_cut}
pair_coeff 1 2 1437.07173936 0.281984725072 0.0 10
pair_coeff 2 2 17907.6681412 0.158842179647 12.0518239093 ${R_cut}
pair_coeff 2 2 17907.6681412 0.158842179647 12.0518239093 10

kspace_style pppm 1.0e-5

neighbor 1.0 bin
neigh_modify every 1 delay 0 check yes
# ---- define settings
compute eng all pe/atom
compute eatoms all reduce sum c_eng
# ---- run minimization
reset_timestep 0
fix 1 all box/relax iso 0.0 vmax 0.001
thermo 10
thermo_style custom step pe lx ly lz xy xz yz press pxx pyy pzz pxy pxz pyz c_eatoms
min_style cg
minimize 1e-25 1e-25 5000 10000
PPPM initialization ...
  G vector (1/distance) = 0.352629
  grid = 8 8 8
  stencil order = 5
  estimated absolute RMS force accuracy = 3.86465e-05
  estimated relative force accuracy = 2.68385e-06
  using double precision FFTs
  3d grid and FFT values/proc = 3375 512
Neighbor list info ...
  1 neighbor list requests
  update every 1 steps, delay 0 steps, check yes
  master list distance cutoff = 11
Memory usage per processor = 4.06549 Mbytes
Step PotEng Lx Ly Lz Xy Xz Yz Press Pxx Pyy Pzz Pxy Pxz Pyz eatoms 
       0   -108.26668       4.2565       4.2565       4.2565            0            0            0     68174.25     68174.25     68174.25     68174.25 -1.8708973e-11 1.9918278e-11 -1.4539535e-10   -108.26668 
      10   -108.32672     4.299065     4.299065     4.299065            0            0            0    15974.818    15974.818    15974.818    15974.818 2.7247293e-10 7.4247233e-11 1.7340321e-10   -108.32672 
      14   -108.33064    4.3118345    4.3118345    4.3118345            0            0            0    1605.1095    1605.1095    1605.1095    1605.1095 -5.9694499e-11 -6.7982128e-11 4.9253128e-12   -108.33064 
Loop time of 0.0152402 on 1 procs for 14 steps with 8 atoms

Minimization stats:
  Stopping criterion = linesearch alpha is zero
  Energy initial, next-to-last, final = 
        -108.266678614      -108.33063925      -108.33063925
  Force two-norm initial, final = 9.8444 0.23785
  Force max component initial, final = 9.8444 0.237844
  Final line search alpha, max atom move = 1.28309e-07 3.05176e-08
  Iterations, force evaluations = 14 44

Pair  time (%) = 0.00410867 (26.9594)
Kspce time (%) = 0.00239611 (15.7223)
Neigh time (%) = 0 (0)
Comm  time (%) = 0.000458956 (3.01148)
Outpt time (%) = 1.19209e-05 (0.0782203)
Other time (%) = 0.00826454 (54.2286)

Nlocal:    8 ave 8 max 8 min
Histogram: 1 0 0 0 0 0 0 0 0 0
Nghost:    2189 ave 2189 max 2189 min
Histogram: 1 0 0 0 0 0 0 0 0 0
Neighs:    2344 ave 2344 max 2344 min
Histogram: 1 0 0 0 0 0 0 0 0 0

Total # of neighbors = 2344
Ave neighs/atom = 293
Neighbor list builds = 0
Dangerous builds = 0
unfix 1
# ---- define output variables ----
variable natoms equal "count(all)"
variable tot_energy equal "c_eatoms"
variable length_x equal "lx"
variable length_y equal "ly"
variable length_z equal "lz"
variable tilt_xy equal "xy"
variable tilt_xz equal "xz"
variable tilt_yz equal "yz"
variable tot_press equal "press"
variable press_xx equal "pxx"
variable press_yy equal "pyy"
variable press_zz equal "pzz"
variable press_xy equal "pxy"
variable press_xz equal "pxz"
variable press_yz equal "pyz"

# ---- output ----
print "pypospack:output_section:begin"
pypospack:output_section:begin
print "tot_energy = ${tot_energy}"
tot_energy = -108.330639250266
print "num_atoms = ${natoms}"
num_atoms = 8
print "xx = ${length_x}"
xx = 4.3118345
print "yy = ${length_y}"
yy = 4.3118345
print "zz = ${length_z}"
zz = 4.3118345
print "xy = ${tilt_xy}"
xy = 0
print "xz = ${tilt_xz}"
xz = 0
print "yz = ${tilt_yz}"
yz = 0
print "tot_press = ${tot_press}"
tot_press = 1605.10951764203
print "pxx = ${press_xx}"
pxx = 1605.10951764176
print "pyy = ${press_yy}"
pyy = 1605.10951764198
print "pzz = ${press_zz}"
pzz = 1605.10951764233
print "pxy = ${press_xy}"
pxy = -5.96944985898881e-11
print "pxz = ${press_xz}"
pxz = -6.79821282837662e-11
print "pyz = ${press_yz}"
pyz = 4.92531279854496e-12
print "pypospack:output_section:done"
pypospack:output_section:done
print "pypospack:lammps_sim:done"
pypospack:lammps_sim:done
#------------------------------------------------------------------------------
# RUN THERMOSTAT
# running using an NPT Nose-Hoover style thermostat
#------------------------------------------------------------------------------
variable tempdamp equal 0.1
variable pressdamp equal 1.0
# set initial velocities
velocity all create 700 5525261 mom yes dist gaussian loop all
# fix for Nose-Hoover style thermostat
fix 20 all npt temp 700 700 0.1 aniso 0.0 0.0 1.0 drag 1.0 couple xyz
variable boxx equal lx
variable boxy equal ly
variable boxz equal lz
variable boxp equal press
variable boxt equal temp
# calculate averages every 10000 steps
reset_timestep 0
fix 21 all ave/time 10 10 100 v_boxx v_boxy v_boxz v_boxp v_boxt file lattice.out
thermo_style custom step temp pe ke etotal press lx ly lz press pxx pyy pzz pxy pxz pyz vol
thermo_modify flush yes
thermo 100
run 100000
PPPM initialization ...
  G vector (1/distance) = 0.352078
  grid = 8 8 8
  stencil order = 5
  estimated absolute RMS force accuracy = 3.96373e-05
  estimated relative force accuracy = 2.75266e-06
  using double precision FFTs
  3d grid and FFT values/proc = 3375 512
Memory usage per processor = 3.06549 Mbytes
Step Temp PotEng KinEng TotEng Press Lx Ly Lz Press Pxx Pyy Pzz Pxy Pxz Pyz Volume 
       0          700   -108.33065   0.63337471   -107.69727    10042.606    4.3118345    4.3118345    4.3118345    10042.606     8551.829    16565.134    5010.8543   -8322.7064    -2071.089    482.39051    80.165268 
     100    322.26426   -107.89982   0.29159148   -107.60823   -7296.9999     4.337389     4.337389     4.337389   -7296.9999   -3432.0247   -1710.1283   -16748.847     287.7858      3122.42    2296.9368    81.599055 
     200    403.28406   -107.80019   0.36489989   -107.43529   -7857.1467    4.3419585    4.3419585    4.3419585   -7857.1467   -7186.2499    12635.941   -29021.131    1068.4785    1719.5752   -273.31027    81.857223 
     300    466.96437   -107.70997   0.42251918   -107.28745    32779.136    4.3233745    4.3233745    4.3233745    32779.136    42566.444    50272.562    5498.4023    11007.617    424.82582   -4255.5869    80.810642 
     400    428.04461    -107.5694   0.38730376    -107.1821   -11422.094    4.3477475    4.3477475    4.3477475   -11422.094    10374.096   -10912.361   -33728.017    7907.2722    9807.7711     2260.517    82.185071 
     500    809.77965   -107.82589   0.73270564   -107.09318   -9140.5245     4.345468     4.345468     4.345468   -9140.5245   -3793.3221   -8875.8471   -14752.404    3524.3077     813.5186   -3637.8662    82.055873 
     600    1014.7761   -107.97145    0.9181907   -107.05326    13285.951    4.3257635    4.3257635    4.3257635    13285.951    26056.129    8150.1706    5651.5543   -3842.3839    3959.3861    2418.7918    80.944682 
     700    460.62767    -107.4704   0.41678559   -107.05361   -31860.253     4.358569     4.358569     4.358569   -31860.253   -25253.525   -40024.715   -30302.519   -5552.6186    3489.4629    8807.7109    82.800276 
     800    661.79581   -107.64819   0.59880675   -107.04938    7580.1841    4.3351119    4.3351119    4.3351119    7580.1841    6971.7781    23246.338    -7477.564    2573.3195   -11324.077    2944.1282    81.470603 
     900    780.04911   -107.75699   0.70580482   -107.05118    16355.221    4.3318734    4.3318734    4.3318734    16355.221    22946.963    37681.203   -11562.502    2685.2093    2335.0646    3351.6643    81.288155 
    1000    509.27096   -107.51907   0.46079906   -107.05827   -11430.142    4.3557937    4.3557937    4.3557937   -11430.142    8262.3896   -6257.9621   -36294.855    6680.6681    1293.7891    1160.5037    82.642209 
    1100    750.92148   -107.73186   0.67944954   -107.05241    2935.4274    4.3347931    4.3347931    4.3347931    2935.4274    21196.835    7278.4264   -19668.979    -2507.891   -10024.155    -738.3439    81.452631 
    1200     903.3658   -107.87002   0.81738436   -107.05263   -5775.8575     4.338503     4.338503     4.338503   -5775.8575    3235.6507   -9803.6628    -10759.56   -209.78146    7586.5757    1128.7681    81.661945 
    1300    627.26918   -107.62512   0.56756633   -107.05755   -15709.655     4.348911     4.348911     4.348911   -15709.655   -19671.919    3989.1282   -31446.173   -9788.5254   -1139.1702   -4589.4299    82.251068 
    1400    756.12286   -107.73987   0.68415585   -107.05571    1860.3504    4.3372535    4.3372535    4.3372535    1860.3504   -2843.9735    14026.798    -5601.773    2888.4071   -10374.201    1895.0855    81.591404 
    1500    788.91806   -107.76981   0.71382964   -107.05599    10770.721    4.3391647    4.3391647    4.3391647    10770.721    34686.325    19485.953   -21860.114    3758.4038    2695.7118   -2857.4195    81.699315 
    1600    361.93473   -107.38827   0.32748615   -107.06079    4481.2211    4.3470541    4.3470541    4.3470541    4481.2211    30349.838    1745.5814   -18651.756    8051.7408   -12067.514    241.85244    82.145759 
    1700    706.51403   -107.69558   0.63926874   -107.05631    3636.3591    4.3379801    4.3379801    4.3379801    3636.3591    14320.189    7182.0134   -10593.125     2382.773   -6719.8088    1439.6649    81.632419 
    1800     799.4063    -107.7794   0.72331962   -107.05608    3421.0208    4.3419022    4.3419022    4.3419022    3421.0208   -3228.5913    24865.566   -11373.912   -1343.3809    4535.7231   -3964.9477    81.854038 
    1900    656.88715   -107.64915    0.5943653   -107.05478   -26724.718    4.3537475    4.3537475    4.3537475   -26724.718   -42762.378   -7199.0206   -30212.755    -11988.37    -11885.83    1098.9002    82.525797 
    2000    1110.2074   -108.04985     1.004539   -107.04531   -3601.8232    4.3366579    4.3366579    4.3366579   -3601.8232    5086.4616    -587.4726   -15304.459   -9326.8606    4892.1394   -6211.5414    81.557799 
    2100    815.08646   -107.78676   0.73750736   -107.04925   -5092.7963    4.3479926    4.3479926    4.3479926   -5092.7963    6752.3094    5845.3482   -27876.047    4041.1576    1163.2875   -4446.9128    82.198973 
    2200     506.7822   -107.50975   0.45854718    -107.0512   -9157.7043    4.3532202    4.3532202    4.3532202   -9157.7043   -15789.475    27465.209   -39148.847     3963.205   -7240.3958   -2782.6775    82.495811 
    2300    502.85355   -107.49879   0.45499246    -107.0438    26741.963    4.3342771    4.3342771    4.3342771    26741.963    14145.652    76786.676   -10706.438     12717.53     5584.792   -931.74563     81.42355 
    2400    555.51986   -107.55681   0.50264604   -107.05417   -4461.6293    4.3504323    4.3504323    4.3504323   -4461.6293    6297.5336    21780.151   -41462.572     8206.405   -11426.732    5605.6341    82.337421 
    2500    752.02057   -107.73003   0.68044402   -107.04958   -8899.9671    4.3490487    4.3490487    4.3490487   -8899.9671    16444.444   -16605.288   -26539.058    617.63053   -5624.2733    8293.3161    82.258886 
    2600    925.06248   -107.88147   0.83701598   -107.04445    10965.559     4.328702     4.328702     4.328702    10965.559    17337.499    7897.0627    7662.1168   -4833.7238   -8807.4968    3650.3292    81.109749 
    2700    545.79886    -107.5486   0.49385028   -107.05475   -23446.237    4.3548983    4.3548983    4.3548983   -23446.237   -36749.687    -8938.641   -24650.384   -7341.5774   -14582.078    226.67158    82.591255 
    2800    669.48738   -107.65728   0.60576625   -107.05151    -1075.727    4.3391042    4.3391042    4.3391042    -1075.727   -24372.873    8217.4307    12928.261   -8672.4819    2842.2583   -5447.5358    81.695898 
    2900    700.41326   -107.68778   0.63374864   -107.05403    8418.2669    4.3393827    4.3393827    4.3393827    8418.2669   -8445.5656    46015.411   -12315.044    4333.7629   -4676.0552   -2524.2395    81.711627 
    3000    709.92457   -107.69648   0.64235467   -107.05413    -3744.825    4.3487901    4.3487901    4.3487901    -3744.825    2872.8701    3911.4201   -18018.765    4126.0565    130.24572   -5975.6368    82.244213 
    3100    543.61059   -107.54519   0.49187028   -107.05332    12120.103    4.3385674    4.3385674    4.3385674    12120.103    36950.091    11497.109   -12086.891    2394.6088    5084.0427    3119.2731     81.66558 
    3200    653.15593   -107.64312   0.59098921   -107.05213   -7030.3731     4.345803     4.345803     4.345803   -7030.3731    7760.6645   -6321.2792   -22530.505    26.019486   -10750.575   -613.44126    82.074849 
    3300    845.26818   -107.81499   0.76481641   -107.05018   -12852.561    4.3441518    4.3441518    4.3441518   -12852.561   -1370.9453   -13461.578   -23725.159   -8920.7017   -3831.2086    3158.9293    81.981332 
    3400      895.091   -107.86095   0.80989714   -107.05105   -10995.714    4.3462518    4.3462518    4.3462518   -10995.714   -14431.154   -3895.1442   -14660.843   -5584.1368   -8713.5245    4784.3264    82.100282 
    3500    990.49941   -107.94639   0.89622468   -107.05016   -5111.0622    4.3406785    4.3406785    4.3406785   -5111.0622    13019.708   -3910.5261   -24442.369    1586.2004   -11166.318   -4510.4037    81.784849 
    3600    466.11559   -107.47772   0.42175119   -107.05597    14650.035    4.3401101    4.3401101    4.3401101    14650.035    41414.724    4312.1015   -1776.7219    3630.7289    6947.2886    5799.2258    81.752728 
    3700    513.19348    -107.5198   0.46434824   -107.05545   -4645.1943    4.3498681    4.3498681    4.3498681   -4645.1943    8855.4742   -7047.6993   -15743.358   -38.050385   -74.436079   -4999.7823    82.305388 
    3800    747.05494   -107.72706   0.67595101   -107.05111    10403.908    4.3348453    4.3348453    4.3348453    10403.908    4362.3025    15112.778    11736.644    10660.919     2022.318   -4289.6816    81.455572 
    3900    751.56451    -107.7375   0.68003136   -107.05747    798.58409    4.3421616    4.3421616    4.3421616    798.58409   -5462.1124   -3547.8954     11405.76   -7867.0808    4774.4086   -221.38161     81.86871 
    4000    753.73191   -107.73426   0.68199247   -107.05227    -12644.54    4.3535289    4.3535289    4.3535289    -12644.54   -22616.026   -14135.481    -1182.113   -5484.3018   -11294.095   -5362.2834    82.513362 
    4100    629.68225   -107.61682   0.56974974   -107.04707    19542.151    4.3300667    4.3300667    4.3300667    19542.151    44436.941    4811.3418    9378.1695   -2675.3585   -11235.073    3394.7697    81.186487 
    4200    498.35348   -107.50955    0.4509207   -107.05863   -7564.2014    4.3434117    4.3434117    4.3434117   -7564.2014    20400.601   -32288.693   -10804.513   -7329.5286   -1035.9373    954.89369    81.939438 
    4300    852.32753    -107.8254   0.77120386   -107.05419   -14994.878    4.3500309    4.3500309    4.3500309   -14994.878   -12976.126   -14375.476    -17633.03    6568.8228   -3935.0773    6118.2466    82.314632 
    4400    1033.0692   -107.98336   0.93474275   -107.04862    460.00323    4.3333902    4.3333902    4.3333902    460.00323    6813.6441    45.899518    -5479.534    1311.9868     3439.232    1847.3847    81.373571 
    4500    695.63526   -107.68482   0.62942541   -107.05539    -19728.67    4.3488956    4.3488956    4.3488956    -19728.67   -19731.896   -20881.171   -18572.943   -4432.5434   -1058.7724     2699.712    82.250195 
    4600     644.0409   -107.63343   0.58274174   -107.05069    4947.9487    4.3446123    4.3446123    4.3446123    4947.9487    19538.898    3818.5653   -8513.6171     2302.081   -5780.1071    3730.7832    82.007407 
    4700    600.92012    -107.5926   0.54372515   -107.04888    8232.9358    4.3384473    4.3384473    4.3384473    8232.9358    29644.399    1681.9863   -6627.5784    -14867.53   -4490.6578   -3077.6518    81.658796 
    4800    579.98156   -107.57921   0.52477951   -107.05443   -257.54132    4.3492504    4.3492504    4.3492504   -257.54132   -1597.7232   -1231.7069    2056.8061   -6653.4752    -17012.42   -2985.8744     82.27033 
    4900    780.72794   -107.75306   0.70641905   -107.04664    4735.4642    4.3470996    4.3470996    4.3470996    4735.4642   -4326.6389    20184.734    -1651.703   -8765.7192    -8338.556   -11219.502    82.148338 
    5000    462.29005   -107.46763   0.41828975   -107.04934    3908.9416    4.3396493    4.3396493    4.3396493    3908.9416   -24934.653     11935.45    24726.028   -5890.5886   -975.88773   -7043.0645     81.72669 
    5100    502.67811   -107.50578   0.45483372   -107.05095     3351.909    4.3435878    4.3435878    4.3435878     3351.909   -22576.613    13877.189    18755.151    12678.859   -7619.6813   -10553.049    81.949407 
    5200    907.17377    -107.8702   0.82082989   -107.04937    374.99921    4.3449925    4.3449925    4.3449925    374.99921   -1806.1721   -931.22735     3862.397   -1036.1404    10326.891   -3053.8213    82.028936 
    5300    704.32916   -107.69342   0.63729183   -107.05613   -252.76628    4.3338701    4.3338701    4.3338701   -252.76628    8982.7588   -22889.663    13148.606    549.27787    3591.0431    2451.6159     81.40061 
    5400    633.24324   -107.63366   0.57297179   -107.06069   -2197.8004     4.342096     4.342096     4.342096   -2197.8004    9975.6848    4266.8107   -20835.897    -546.1499   -4090.0944    689.31303       81.865 
    5500    751.57477   -107.73239   0.68004065   -107.05235   -14058.045    4.3541978    4.3541978    4.3541978   -14058.045   -11647.308   -5179.2843   -25347.543   -10251.043    1817.8403    4823.9148    82.551401 
    5600    690.09988   -107.67409   0.62441687   -107.04967   -875.11255    4.3305624    4.3305624    4.3305624   -875.11255   -12608.133    6139.8938    3842.9013     296.8295   -13104.294   -2736.7093    81.214373 
    5700     860.3912    -107.8328   0.77850004    -107.0543   -3469.1202    4.3469278    4.3469278    4.3469278   -3469.1202   -6079.0233     13093.98   -17422.318     6565.433   -5839.0381   -2638.0571    82.138594 
    5800    913.86965   -107.87405   0.82688847   -107.04716    -14643.97    4.3542912    4.3542912    4.3542912    -14643.97   -18972.378   -19390.025    -5569.508    1624.8023    1315.5065   -5794.1014    82.556715 
    5900    443.15961    -107.4483   0.40098013   -107.04732    12936.844    4.3256667    4.3256667    4.3256667    12936.844    16248.278    423.77883    22138.476    14047.514   -3440.5839   -5193.6475    80.939249 
    6000    646.73421    -107.6403    0.5851787   -107.05512   -245.31437    4.3490452    4.3490452    4.3490452   -245.31437   -4526.6443   -2755.6028     6546.304    1479.5757     8973.985    210.27325    82.258683 
    6100    808.20333   -107.78391   0.73127935   -107.05263   -182.57181    4.3435617    4.3435617    4.3435617   -182.57181    5910.4765    -9573.164    3114.9721   -7323.0359    7989.5273    370.62797    81.947928 
    6200     418.1066   -107.43475   0.37831164   -107.05643    11988.628     4.329164     4.329164     4.329164    11988.628    11174.023     22083.17    2708.6906   -366.51953   -5584.9964    3749.6333    81.135723 
    6300    879.92315   -107.84953   0.79617296   -107.05336   -10687.334    4.3488613    4.3488613    4.3488613   -10687.334   -26224.963    12408.669   -18245.709   -1811.4461     815.9692   -69.947508    82.248248 
    6400    799.88024   -107.77703   0.72374845   -107.05328   -1198.4708    4.3377626    4.3377626    4.3377626   -1198.4708   -11724.228    10513.727   -2384.9114    6088.5366   -6319.3474    2209.7128    81.620141 
    6500    551.67092   -107.55777   0.49916345   -107.05861   -13617.038    4.3402076    4.3402076    4.3402076   -13617.038   -23525.032     655.4405   -17981.523    11746.108   -9053.8137   -8440.7972    81.758236 
    6600    1045.0385   -107.99949   0.94557279   -107.05392    1261.0225    4.3400445    4.3400445    4.3400445    1261.0225    -1774.803    13985.826    -8427.955   -552.30066    5892.7641    1937.1217    81.749017 
    6700    646.42642   -107.64334   0.58490021   -107.05844   -3259.7295    4.3414007    4.3414007    4.3414007   -3259.7295   -347.21241    5105.0413   -14537.017   -110.25475   -4064.8889   -889.29044     81.82568 
    6800    378.46002   -107.40285   0.34243858   -107.06041    1122.9426    4.3398303    4.3398303    4.3398303    1122.9426   -9537.2016    26049.241   -13143.211    -1635.753    1023.1488    3987.0991    81.736915 
    6900    840.04634   -107.81307   0.76009158   -107.05298    13707.361    4.3347376    4.3347376    4.3347376    13707.361    -6854.942    41604.607    6372.4178   -6989.1873    4130.0705    5687.2564    81.449501 
    7000    592.61394   -107.59497   0.53620955   -107.05877   -12626.222    4.3464095    4.3464095    4.3464095   -12626.222   -6287.9779   -20541.022   -11049.667    7725.9463   -786.81394    2403.9128    82.109217 
    7100    657.88087   -107.65113   0.59526444   -107.05586    5895.9311    4.3358327    4.3358327    4.3358327    5895.9311   -8128.9235    18758.805    7057.9119    7264.4452    4716.6444   -2794.3194    81.511248 
    7200    881.90547   -107.85191    0.7979666   -107.05394    4548.1694    4.3402078    4.3402078    4.3402078    4548.1694     -9426.29    19689.758    3381.0401    1559.2253   -5849.3596   -2587.4192    81.758244 
    7300    445.88417   -107.46244   0.40344537   -107.05899   -3270.8424    4.3430295    4.3430295    4.3430295   -3270.8424   -22235.155    30043.016   -17620.387    4473.4192   -8847.0351   -9660.0694    81.917813 
    7400    789.38384   -107.77029   0.71425109   -107.05604   -235.24924    4.3334593    4.3334593    4.3334593   -235.24924   -20574.086    15599.742    4268.5961   -10029.271     827.4681    2961.8053    81.377467 
    7500     893.4031   -107.86211    0.8083699   -107.05374    -5556.075    4.3437397    4.3437397    4.3437397    -5556.075   -2611.1057   -2364.2339   -11692.886   -3710.7641   -8568.2132    4132.0031    81.958003 
    7600    698.65058   -107.68566   0.63215373    -107.0535   -11539.269    4.3429123    4.3429123    4.3429123   -11539.269    -7694.117   -3864.8871   -23058.802     6325.411   -247.33001    -310.5617     81.91118 
    7700    695.92025   -107.68274   0.62968326   -107.05306    4395.1594    4.3346569    4.3346569    4.3346569    4395.1594   -23170.995    29271.541    7084.9324   -10310.094    4351.0887    3305.7669    81.444953 
    7800    728.66787   -107.71316   0.65931401   -107.05385    6111.6339    4.3401659    4.3401659    4.3401659    6111.6339   -6567.4568    33405.515   -8503.1563    8176.5447   -4015.9745   -9175.3375     81.75588 
    7900    560.93716   -107.56313   0.50754773   -107.05559   -4152.1296    4.3460751    4.3460751    4.3460751   -4152.1296   -19302.526    4372.2817    2473.8559   -3874.8657    7072.7113   -5822.4307    82.090272 
    8000    760.42228    -107.7398   0.68804606   -107.05176   -1068.2726    4.3354601    4.3354601    4.3354601   -1068.2726   -20399.734   -11218.253    28413.169   -11772.227   -1337.0235   -5160.1332    81.490239 
    8100    719.77467   -107.70404   0.65126725   -107.05277     11145.64    4.3352164    4.3352164    4.3352164     11145.64   -2436.8029     16315.38    19558.344    4775.4542   -1247.0608     10214.37    81.476495 
    8200    454.34303   -107.46848   0.41109912   -107.05738   -19481.014    4.3522881    4.3522881    4.3522881   -19481.014    -57184.58   -9376.6536    8118.1913   -16275.721     1980.961    3109.6822    82.442834 
    8300    719.43635     -107.702   0.65096113   -107.05104    7110.0189     4.329128     4.329128     4.329128    7110.0189   -12616.664    30158.007    3788.7137    1054.6919   -11062.282     7912.356    81.133699 
    8400    791.44311   -107.77283   0.71611436   -107.05671    10.169736    4.3373229    4.3373229    4.3373229    10.169736   -3183.6169    17732.355   -14518.229     -398.362   -1725.3313      1125.29    81.595325 
    8500    571.17794   -107.57257   0.51681381   -107.05576   -31131.377    4.3520135    4.3520135    4.3520135   -31131.377   -37623.223   -39088.129   -16682.779   -20000.159    1755.6016   -7314.6178    82.427229 
    8600    910.48117   -107.87066    0.8238225   -107.04684    4504.3977    4.3241982    4.3241982    4.3241982    4504.3977    1.1771125    16054.438   -2542.4216    1952.6112   -5675.5362     534.0003    80.856839 
    8700    633.39195   -107.62822   0.57310635   -107.05512   -3296.2929    4.3409347    4.3409347    4.3409347   -3296.2929   -19130.657    12032.313   -2790.5344   -12914.874    3087.3722   -653.11662    81.799331 
    8800    611.64512   -107.61219   0.55342936   -107.05877   -10680.965    4.3436483    4.3436483    4.3436483   -10680.965   -32302.462    3931.4864   -3671.9196    -12617.71    3188.5561    5247.3411    81.952833 
    8900    756.91794    -107.7387   0.68487526   -107.05382    12669.179    4.3368878    4.3368878    4.3368878    12669.179    3739.0298    28576.159    5692.3498    6316.4954   -7462.6565    4678.5741    81.570769 
    9000    701.74121   -107.68985   0.63495019    -107.0549   -5827.7929    4.3408339    4.3408339    4.3408339   -5827.7929   -33517.823   -10233.539    26267.984   -14009.449    2541.9313    3966.1193    81.793633 
    9100    587.90479   -107.58644   0.53194861   -107.05449   -7886.1295    4.3431636    4.3431636    4.3431636   -7886.1295   -34544.827     4398.389      6488.05    2461.7655   -7710.2759   -6307.0945    81.925399 
    9200    750.90915   -107.72906   0.67943838   -107.04962   -3195.9095    4.3445199    4.3445199    4.3445199   -3195.9095   -9935.4142    5156.8043   -4809.1187   -6996.3945   -2100.4801   -6531.2933    82.002175 
    9300    768.94422    -107.7449   0.69575689   -107.04914    10117.876    4.3321584    4.3321584    4.3321584    10117.876    1464.6635    33617.787    -4728.822   -13345.978   -2889.0274   -6355.1719    81.304198 
    9400    626.39605   -107.62301   0.56677631   -107.05624   -4939.8107    4.3459699    4.3459699    4.3459699   -4939.8107   -3971.8581    16681.085   -27528.659     1556.778   -5236.9799    2875.5411    82.084308 
    9500    719.75313   -107.70174   0.65124776   -107.05049    -3875.926    4.3427212    4.3427212    4.3427212    -3875.926    4761.7538    3302.7338   -19692.266   -7710.1476    6347.0718    7191.3902    81.900367 
    9600    849.03722   -107.81691   0.76822672   -107.04868   -3154.3391    4.3342555    4.3342555    4.3342555   -3154.3391   -16981.859    7421.0309    97.810205   -1218.9516    -3867.092    3033.8726    81.422332 
    9700    691.60784   -107.67915    0.6257813   -107.05337    -12959.85    4.3461282    4.3461282    4.3461282    -12959.85     7613.448   -16946.121   -29546.878    9318.8473   -2604.3747    5997.6295     82.09328 
    9800    824.16715   -107.79548   0.74572376   -107.04976    4297.5424      4.33857      4.33857      4.33857    4297.5424   -4748.5469    33068.883   -15427.709   -5611.8235    4205.8468    846.81717    81.665727 
    9900    585.30383     -107.584    0.5295952   -107.05441   -5010.0893    4.3415583    4.3415583    4.3415583   -5010.0893   -12910.312    16108.898   -18228.854   -4964.2129   -6478.2087      -6044.2    81.834588 
   10000    480.92102   -107.49405   0.43514744    -107.0589    5699.5653    4.3343191    4.3343191    4.3343191    5699.5653    13876.223     12754.74   -9532.2673    2826.5389   -2540.3233    3700.5896    81.425914 
   10100    882.02897   -107.85346   0.79807835   -107.05538    -4788.597    4.3442753    4.3442753    4.3442753    -4788.597   -2708.1102   -2445.7851   -9211.8958   -10802.548   -295.38167   -4032.5043    81.988326 
   10200    691.86739   -107.68362   0.62601615    -107.0576    -8307.118    4.3388216    4.3388216    4.3388216    -8307.118    8052.6729   -16480.514   -16493.512    7088.5265   -4432.3146   -1026.9986    81.679937 
   10300    728.43125   -107.71738    0.6590999   -107.05828    8306.3766    4.3285273    4.3285273    4.3285273    8306.3766      13755.8    14315.047   -3151.7166    5604.5406     5198.044    9314.0969    81.099932 
   10400    753.29799   -107.73687   0.68159985   -107.05527   -16433.978    4.3559701    4.3559701    4.3559701   -16433.978   -34414.051    13235.886   -28123.769   -6136.4176    386.35872   -172.18155    82.652251 
   10500    462.50598   -107.47471   0.41848513   -107.05622    1463.4158    4.3307207    4.3307207    4.3307207    1463.4158    2487.5891    20076.381   -18173.723    1581.4607   -5374.0625    454.00508    81.223282 
   10600    770.67293   -107.75531   0.69732106   -107.05799    5106.5783    4.3325997    4.3325997    4.3325997    5106.5783    17198.808    10627.472   -12506.546   -2162.6936    3440.0011    -871.7939    81.329052 
   10700    971.38345   -107.92805   0.87892816   -107.04912   -20305.601    4.3561184    4.3561184    4.3561184   -20305.601   -11981.114   -15589.343   -33346.345    1462.1334   -11811.854   -4140.0179    82.660691 
   10800    583.36308   -107.57777   0.52783917   -107.04993    8871.1552     4.326115     4.326115     4.326115    8871.1552    15456.413    5296.6322    5860.4203    9328.9471    -5190.537    4458.3538    80.964416 
   10900    559.99577   -107.56204   0.50669594   -107.05534     1441.443    4.3443152    4.3443152    4.3443152     1441.443   -14315.535    23185.614   -4545.7503    4107.7113   -5806.6204    9486.4166    81.990583 
   11000    630.03441   -107.61902   0.57006838   -107.04895   -3324.4036    4.3492112    4.3492112    4.3492112   -3324.4036   -24542.065    33057.774    -18488.92    7422.3303   -10031.703    7205.2808    82.268107 
   11100    559.82292   -107.55385   0.50653954   -107.04731    21776.326     4.322988     4.322988     4.322988    21776.326     22543.73    27735.846    15049.402    7099.6984     1616.977    15003.852    80.788973 
   11200    843.60671   -107.81386   0.76331308   -107.05055   -14443.764    4.3479856    4.3479856    4.3479856   -14443.764   -22499.353   -2481.4859   -18350.452   -4286.0787   -10379.236    167.74035    82.198573 
   11300    730.76048    -107.7131   0.66120744    -107.0519   -14066.371    4.3384453    4.3384453    4.3384453   -14066.371   -27533.892   -11095.346   -3569.8759    5253.7462   -311.53782   -1166.2191    81.658683 
   11400    602.72724   -107.59774   0.54536028   -107.05238    -247.2042    4.3254761    4.3254761    4.3254761    -247.2042   -3245.1501    2187.5073    316.03025    3506.2254   -2474.1482    1387.5549    80.928549 
   11500    847.28747   -107.81868   0.76664351   -107.05204    -18170.55    4.3540199    4.3540199    4.3540199    -18170.55   -28640.058     7114.808   -32986.398   -2520.1625   -10499.587   -4750.0806    82.541284 
   11600    737.31002   -107.71925    0.6671336   -107.05211     4636.456    4.3335008    4.3335008    4.3335008     4636.456   -8192.7103    15295.878    6806.2006    6327.9224    2005.1998    7991.1069    81.379807 
   11700    436.35368   -107.44997   0.39482198   -107.05515    10684.489    4.3290692    4.3290692    4.3290692    10684.489   -1772.3901    16407.924    17417.934    204.93597   -5118.7543    10905.704    81.130396 
   11800    638.39142   -107.62892   0.57762997   -107.05129   -14170.184    4.3507125    4.3507125    4.3507125   -14170.184   -42356.611   -11376.013    11222.071   -11800.274   -7069.2956   -1325.9537    82.353327 
   11900    807.36671    -107.7796   0.73052237   -107.04907    869.78831    4.3295116    4.3295116    4.3295116    869.78831   -5892.4239   -7854.9855    16356.774    8723.0146    7511.6834    11505.025    81.155267 
   12000    798.91997   -107.77768   0.72287958    -107.0548   -11635.212    4.3378822    4.3378822    4.3378822   -11635.212   -12620.392   -11736.544     -10548.7   -8645.7183    -10399.17   -6862.5322     81.62689 
   12100    889.02318   -107.85551   0.80440685    -107.0511   -19258.463    4.3449118    4.3449118    4.3449118   -19258.463   -34915.626   -17629.544   -5230.2176   -6402.5591   -3275.3682    735.95515    82.024369 
   12200    524.52035   -107.52768   0.47459704   -107.05308    5470.2054    4.3295883    4.3295883    4.3295883    5470.2054   -16615.547   -4840.2816    37866.445    5563.9993   -4071.6609    11136.302    81.159585 
   12300    481.57615    -107.4953   0.43574022   -107.05956   -4395.1667    4.3431803    4.3431803    4.3431803   -4395.1667   -38100.267   -6626.9846    31541.752   -14482.884   -13168.333    2685.5496    81.926343 
   12400    823.66978   -107.79686   0.74527373   -107.05158    1344.6315     4.341766     4.341766     4.341766    1344.6315   -6450.7232    1848.7471    8635.8705      5036.57   -2859.8116    14326.106    81.846334 
   12500     656.1233   -107.64543   0.59367415   -107.05175    747.37156    4.3317418    4.3317418    4.3317418    747.37156   -4015.3713    15869.779   -9612.2925    1665.5616   -3388.2802    9695.7629    81.280746 
   12600     587.4044   -107.58653   0.53149585   -107.05503    -4989.797    4.3410304    4.3410304    4.3410304    -4989.797   -11153.547     2492.795   -6308.6394   -6999.6648    -5148.044   -11939.613    81.804742 
   12700    826.49282   -107.80029   0.74782807   -107.05246   -8910.6036    4.3412101    4.3412101    4.3412101   -8910.6036   -13570.625    -6885.099   -6276.0869    8143.7631     6937.759    6853.8245    81.814904 
   12800    660.47402   -107.65368   0.59761078   -107.05607   -5758.3405    4.3344173    4.3344173    4.3344173   -5758.3405   -11447.536   -14211.709    8384.2234   -12798.067   -4522.4101    2351.7781    81.431451 
   12900    755.09208   -107.74173   0.68322319   -107.05851    6882.2523    4.3373287    4.3373287    4.3373287    6882.2523   -17590.183    20967.832    17269.107   -8767.6462    -3830.477    974.46099    81.595649 
   13000    664.67309   -107.65727   0.60141018   -107.05586    3177.5871    4.3401551    4.3401551    4.3401551    3177.5871   -17793.216    22653.911    4672.0663    1340.8638    1329.9274    19008.787    81.755267 
   13100    338.34508   -107.36369   0.30614174   -107.05755    1329.9803    4.3398215    4.3398215    4.3398215    1329.9803   -39144.411    31625.647    11508.704   -9538.6601   -8060.9063    5670.6568    81.736416 
   13200     892.5699   -107.85634     0.807616   -107.04873   -5434.9858    4.3399952    4.3399952    4.3399952   -5434.9858   -14414.256   -1858.4724   -32.228473   -3493.3948    881.16432   -490.47315     81.74623 
   13300    949.25596   -107.90809   0.85890674   -107.04919    2280.6143    4.3335241    4.3335241    4.3335241    2280.6143   -5027.9373    14090.013   -2220.2327    4586.0428   -9836.8583    4839.4919    81.381117 
   13400    716.51302   -107.70098   0.64831603   -107.05266   -25449.334    4.3514625    4.3514625    4.3514625   -25449.334   -38531.794   -21018.221   -16797.987   -12766.118   -6694.1666    -11238.88    82.395926 
   13500     716.9026   -107.69767   0.64866854     -107.049    11542.289    4.3289459    4.3289459    4.3289459    11542.289   -2776.5678    32544.702    4858.7339    2340.0426   -19.952668    335.00279    81.123461 
   13600    558.99749   -107.56383   0.50579268   -107.05804   -4956.4436    4.3373439    4.3373439    4.3373439   -4956.4436   -37898.288    11834.916     11194.04   -8813.2359    -11277.68    13394.331    81.596508 
   13700    675.45081   -107.66751   0.61116209   -107.05634     -14111.7    4.3472095    4.3472095    4.3472095     -14111.7   -39025.597   -14042.414     10732.91   -18373.411   -540.12025   -1080.5674    82.154568 
   13800    902.84767   -107.86339   0.81691555   -107.04647    25373.988    4.3183124    4.3183124    4.3183124    25373.988    13416.468    4915.3513    57790.144    1109.0321    2322.2593    5718.5693    80.527119 
   13900    498.44161   -107.50996   0.45100044   -107.05896   -28107.842     4.351504     4.351504     4.351504   -28107.842   -53833.993   -31352.836    863.30164    -19165.37   -4434.3145    1743.8211    82.398283 
   14000    723.66446   -107.70599   0.65478681    -107.0512    -607.1698    4.3340446    4.3340446    4.3340446    -607.1698   -24272.932   -1364.7298    23816.152   -4320.4845    6655.2731   -10589.283    81.410445 
   14100    804.23308   -107.77789   0.72768699    -107.0502    11416.273    4.3269499    4.3269499    4.3269499    11416.273     10600.03    19119.564    4529.2259   -171.18397   -4507.4113     12739.43    81.011301 
   14200    579.73529   -107.58064   0.52455667   -107.05608   -14898.488     4.350362     4.350362     4.350362   -14898.488    -37610.82   -15149.915    8065.2708   -19272.374    -6519.067    6818.0813    82.333425 
   14300     808.3397   -107.77906   0.73140275   -107.04766    19922.179    4.3283301    4.3283301    4.3283301    19922.179    11401.439     3686.782    44678.318    6475.7467    3317.6402     2819.496    81.088845 
   14400    413.60395    -107.4318   0.37423755   -107.05756   -6669.8344    4.3380325    4.3380325    4.3380325   -6669.8344   -28767.724   -22153.091    30911.311   -14765.558   -3371.3402    8228.8464    81.635375 
   14500    722.38887   -107.70799   0.65363263   -107.05435   -12872.472    4.3392734    4.3392734    4.3392734   -12872.472   -33051.599   -19793.128     14227.31   -14696.765    2848.4473   -2657.6894    81.705455 
   14600    1118.8312   -108.06399     1.012342   -107.05165   -2608.6529    4.3328452    4.3328452    4.3328452   -2608.6529   -68.022332   -3288.8809   -4469.0554    6610.0952    402.78346    -11139.99    81.342878 
   14700    482.30989   -107.49606   0.43640412   -107.05965    -15951.29     4.340922     4.340922     4.340922    -15951.29   -27661.993   -27504.255     7312.377   -24892.606   -5263.5443    8953.7261    81.798613 
   14800    713.93926   -107.69916   0.64598724   -107.05317    4404.2458    4.3349494    4.3349494    4.3349494    4404.2458    -15177.96   -4924.7645    33315.462    4740.4122   -9041.8784    551.81461    81.461441 
   14900    549.44933   -107.55169    0.4971533   -107.05454    3854.6817    4.3401764    4.3401764    4.3401764    3854.6817   -18148.705   -9860.3593    39573.109   -4607.9193   -6007.2429    8055.7295    81.756471 
   15000    431.77818   -107.44747   0.39068197   -107.05679    4843.7957    4.3369511    4.3369511    4.3369511    4843.7957   -8055.3666   -12572.877    35159.631   -16355.552   -16287.087    13204.254    81.574339 
   15100    1048.0739     -107.995   0.94831926   -107.04669    2295.8722    4.3347975    4.3347975    4.3347975    2295.8722    4225.9202    3056.1216   -394.42509    9008.3553    2206.2473    2685.7956    81.452877 
   15200    442.81515   -107.45419   0.40066846   -107.05352    -8091.688    4.3432772    4.3432772    4.3432772    -8091.688   -10318.497   -22869.243    8912.6757   -18632.533    346.93847    468.59607    81.931828 
   15300    723.81675   -107.70563   0.65492461    -107.0507   -3787.0456    4.3339569    4.3339569    4.3339569   -3787.0456   -16611.286   -5006.0709     10256.22   -903.53061   -5795.0761    3187.6869    81.405502 
   15400    890.20107   -107.85628   0.80547263   -107.05081    5929.3886    4.3321668    4.3321668    4.3321668    5929.3886   -8664.1064   -8218.7515    34671.024   -7230.8822    8042.2377   -3706.8333    81.304675 
   15500     574.2907   -107.57677   0.51963029   -107.05714    -14183.04    4.3423608    4.3423608    4.3423608    -14183.04    -28121.67   -34862.054    20434.604   -21971.482   -4567.2288    7347.0972     81.87998 
   15600    773.16141   -107.75074   0.69957269   -107.05116   -763.82602    4.3321168    4.3321168    4.3321168   -763.82602    2101.9821    563.68731   -4957.1474    5948.2257    -13630.98    5331.0525    81.301858 
   15700    646.04367   -107.63967   0.58455389   -107.05511   -1800.0704    4.3338307    4.3338307    4.3338307   -1800.0704   -12192.299   -6063.8265    12855.915   -15128.564    7005.9074    1915.0057    81.398392 
   15800    572.77937   -107.57589   0.51826281   -107.05762   -4824.1444    4.3418752    4.3418752    4.3418752   -4824.1444   -1609.8337   -11997.165   -865.43418   -3931.4476   -8829.1759    3410.9415    81.852509 
   15900    924.07424    -107.8881   0.83612179   -107.05197    2904.0621    4.3344233    4.3344233    4.3344233    2904.0621   -6637.8602    6657.0461    8693.0003    3763.7568   -469.31517   -8115.3394    81.431789 
   16000    506.91556   -107.51486   0.45866785   -107.05619    4914.9425    4.3329501    4.3329501    4.3329501    4914.9425   -11980.139   -9353.5821    36078.548   -21065.349    7366.6328    -413.4221    81.348785 
   16100    641.63616   -107.63404   0.58056588   -107.05347   -13991.774    4.3390884    4.3390884    4.3390884   -13991.774   -22001.045   -16363.202   -3611.0732    51.842336    -13151.91    5266.1802    81.695003 
   16200    704.36481   -107.68993   0.63732408   -107.05261   -8548.6889    4.3383581    4.3383581    4.3383581   -8548.6889   -27091.288   -10971.232    12416.453   -11456.408    1613.9368    4669.3539    81.653762 
   16300    784.75218   -107.76406   0.71006026     -107.054   -8451.1438    4.3327597    4.3327597    4.3327597   -8451.1438    -20356.32   -9868.2703    4871.1586   -16666.479   -3824.7891    6504.5257    81.338057 
   16400    827.16407   -107.80257   0.74843543   -107.05414   -2283.3276    4.3367359    4.3367359    4.3367359   -2283.3276    3436.7121    4641.5769   -14928.272    7397.2383   -6510.6474    11343.457      81.5622 
   16500    551.39127   -107.55397    0.4989104   -107.05506    -4898.883    4.3412766    4.3412766    4.3412766    -4898.883   -24498.037   -9615.0313    19416.419    -12040.41    6243.9097   -7613.8479    81.818661 
   16600    443.18415    -107.4561   0.40100233    -107.0551    6928.6476    4.3308523    4.3308523    4.3308523    6928.6476    6500.0357   -6872.5982    21158.505   -2351.5117     2375.895     4185.195    81.230686 
   16700      770.062   -107.75106   0.69676828   -107.05429   -3291.9344    4.3366493    4.3366493    4.3366493   -3291.9344   -16845.486   -10054.807     17024.49   -59.072775   -8447.5082    1778.0449    81.557313 
   16800    759.47401   -107.74144   0.68718804   -107.05425   -13550.074    4.3428186    4.3428186    4.3428186   -13550.074   -27685.698   -25712.099    12747.575   -20886.492    5801.3512    200.89748    81.905876 
   16900    963.79526   -107.92254    0.8720622   -107.05048    931.78546    4.3247328    4.3247328    4.3247328    931.78546    1211.6822    7057.3275   -5473.6533    4393.6218    -9337.172    8693.0238    80.886832 
   17000    502.80165   -107.51323    0.4549455   -107.05829   -7287.6927    4.3398324    4.3398324    4.3398324   -7287.6927   -31260.585   -16238.849    25636.356   -16006.005   -2615.1274   -1651.1343    81.737035 
   17100    560.50528   -107.56367   0.50715695   -107.05651    -9372.521    4.3401193    4.3401193    4.3401193    -9372.521    -28803.62   -16174.455    16860.512   -7968.2962     13280.17   -2368.4257    81.753243 
   17200    748.55806   -107.72785   0.67731106   -107.05054    17850.518    4.3257807    4.3257807    4.3257807    17850.518    15996.768    9035.7339    28519.053     4084.446   -4069.7823    -380.5153    80.945646 
   17300    632.84986    -107.6291   0.57261586   -107.05649   -16160.189    4.3450209    4.3450209    4.3450209   -16160.189    -35100.19   -21915.436    8535.0588   -21305.043    8774.9272   -4727.1747    82.030545 
   17400    870.94513   -107.84026   0.78804946   -107.05221    889.03433    4.3300919    4.3300919    4.3300919    889.03433    61.434196    4071.4353   -1465.7665    765.92215    10406.796     8552.605    81.187905 
   17500    668.01816   -107.65951   0.60443687   -107.05507   -3915.8587    4.3367132    4.3367132    4.3367132   -3915.8587   -14138.301   -7989.4107    10380.136   -9455.3133   -9402.5183    4271.5674    81.560916 
   17600    584.02727   -107.58601   0.52844014   -107.05757   -20413.066    4.3383418    4.3383418    4.3383418   -20413.066   -36221.754   -22650.914   -2366.5319   -19819.212    9241.5636     1781.677    81.652841 
   17700    813.40708   -107.79002   0.73598782   -107.05403    13606.642    4.3275318    4.3275318    4.3275318    13606.642    20.740247    15494.701    25304.484    5534.6622    5811.4184    1638.5283    81.043989 
   17800    675.98517   -107.66765   0.61164559     -107.056    -13911.48    4.3480183    4.3480183    4.3480183    -13911.48   -30767.869   -27589.091    16622.518   -15353.063    2933.0685   -3231.1025     82.20043 
   17900     583.4951   -107.58266   0.52795863    -107.0547    3982.4629    4.3258334    4.3258334    4.3258334    3982.4629   -17721.415    10097.319    19571.485   -2855.3521    18257.049   -5744.2825    80.948605 
   18000    705.08897    -107.6928   0.63797932   -107.05482    8830.5579    4.3375556    4.3375556    4.3375556    8830.5579    10882.939    14354.507    1254.2272    7286.4262    425.55687   -6066.9546    81.608455 
   18100    542.00434   -107.54435   0.49041691   -107.05393   -9825.0625    4.3449047    4.3449047    4.3449047   -9825.0625   -16922.333   -7721.1059   -4831.7483   -13453.528    4381.0992     2419.359    82.023966 
   18200    734.21187   -107.71191   0.66433033   -107.04758    6529.5376     4.327888     4.327888     4.327888    6529.5376    1926.2999    23611.906   -5949.5927    4827.6354     11199.07   -1801.4473       81.064 
   18300     982.1235    -107.9348   0.88864598   -107.04616   -8971.5765    4.3429607    4.3429607    4.3429607   -8971.5765   -15502.306   -10453.462   -958.96208   -8085.7734   -7295.4319    6213.2346    81.913919 
   18400    685.95663   -107.67196   0.62066797   -107.05129   -14581.322    4.3370423    4.3370423    4.3370423   -14581.322   -34667.151   -6516.1383   -2560.6773   -17563.021    11191.088     6673.833    81.579488 
   18500     755.8809   -107.73551   0.68393693   -107.05158   -2593.1016    4.3332499    4.3332499    4.3332499   -2593.1016   -5070.2393    9961.9266   -12670.992    4208.4871    11168.506   -578.20552    81.365672 
   18600    726.42271   -107.71102   0.65728253   -107.05374    9929.5538    4.3323864    4.3323864    4.3323864    9929.5538    15897.712   -969.03028    14859.979   -6608.3981   -1235.4721    7567.8281    81.317036 
   18700    503.63878   -107.51543   0.45570295   -107.05973    2680.7243    4.3382214    4.3382214    4.3382214    2680.7243   -9373.2015    23285.227   -5869.8522   -8436.1085    23816.896   -2016.0019    81.646041 
   18800    835.64577   -107.80874   0.75610985   -107.05263    3367.2012    4.3400168    4.3400168    4.3400168    3367.2012    5107.9365   -3910.1704    8903.8376    8559.2963    1193.1591   -3648.4982    81.747451 
   18900    764.93278    -107.7446   0.69212725   -107.05247    19278.268    4.3194841    4.3194841    4.3194841    19278.268   -4279.6659    22673.297    39441.173   -6941.3412    5075.3832   -2840.0548     80.59269 
   19000    540.36431   -107.55077   0.48893299   -107.06184   -17080.112    4.3463153    4.3463153    4.3463153   -17080.112   -27325.205    1099.0106   -25014.142   -6845.1942     16703.39    1798.5316    82.103883 
   19100    812.39867   -107.78964   0.73507539   -107.05456    -3256.066    4.3354958    4.3354958    4.3354958    -3256.066   -4755.2363   -11677.486    6664.5241    7430.3683   -13713.614   -4860.7628    81.492248 
   19200    580.39821   -107.57964   0.52515649   -107.05448    19459.597    4.3149648    4.3149648    4.3149648    19459.597    19465.755    18908.942    20004.095   -11540.588    16051.062    2858.7286    80.339992 
   19300    674.62158   -107.67117   0.61041178   -107.06076   -21927.629    4.3516105    4.3516105    4.3516105   -21927.629   -29304.526   -17564.958   -18913.405    1893.1878    14021.858   -629.14672    82.404334 
   19400    875.71618   -107.84501   0.79236641   -107.05264    15982.902    4.3288696    4.3288696    4.3288696    15982.902    23021.757   -4740.2733    29667.222    6788.1273   -6461.5362   -1409.6393    81.119173 
   19500    616.49366   -107.61467   0.55781642   -107.05686   -2373.5219     4.327383     4.327383     4.327383   -2373.5219   -10970.924    5808.6468   -1958.2882   -7129.5709     17952.64    2299.0704    81.035627 
   19600    761.39788   -107.74177    0.6889288   -107.05284   -17544.209    4.3469829    4.3469829    4.3469829   -17544.209   -12770.447   -19582.921   -20279.258    5718.8458    2730.3317   -4380.0587    82.141721 
   19700    724.57841   -107.71117   0.65561377   -107.05556    8232.0008    4.3278668    4.3278668    4.3278668    8232.0008    9520.5612   -9369.2896    24544.731     41.12455   -6988.2086    2789.7725    81.062809 
   19800    561.75917   -107.57237    0.5082915   -107.06408   -2292.8997    4.3295174    4.3295174    4.3295174   -2292.8997   -11314.136    1048.1317    3387.3055   -10730.651    30400.836    3611.0551    81.155594 
   19900    891.25165    -107.8637   0.80642322   -107.05728    4685.8122    4.3452695    4.3452695    4.3452695    4685.8122    4679.3672    -7984.127    17362.196    218.99143   -5605.8108    780.89697    82.044627 
   20000    640.02552   -107.63994   0.57910854   -107.06083   -6837.6552    4.3341156    4.3341156    4.3341156   -6837.6552   -10389.937   -7861.7649   -2261.2633   -9805.0325     5639.777    3023.2507    81.414447 
   20100    479.09755   -107.49294   0.43349753   -107.05944    13780.703    4.3200986    4.3200986    4.3200986    13780.703    2803.0877    25184.256    13354.766   -8598.4565    19472.315    10.283041    80.627086 
   20200    914.99888   -107.88065   0.82791021   -107.05274   -14742.819    4.3511447    4.3511447    4.3511447   -14742.819   -10698.158    -23602.55   -9927.7494    2279.2363   -11680.978    591.25845    82.377877 
   20300    513.13069   -107.53097   0.46429144   -107.06668    540.17532    4.3245939    4.3245939    4.3245939    540.17532   -11941.948    10122.426     3440.048   -5555.1954    11563.472     216.4597     80.87904 
   20400     711.1393   -107.71295   0.64345378    -107.0695    19244.427    4.3204529    4.3204529    4.3204529    19244.427    15897.056    14332.429    27503.796   -4879.5037    15996.477   -332.37353    80.646928 
   20500    995.97747   -107.95159   0.90118134   -107.05041   -24274.504    4.3583202    4.3583202    4.3583202   -24274.504   -17393.166   -28669.654    -26760.69    4475.8093   -8534.9719    5662.1632    82.786096 
   20600    361.77528   -107.38573   0.32734187   -107.05838    15921.691    4.3083791    4.3083791    4.3083791    15921.691     8016.423    22459.748      17288.9   -10032.636    17132.582     251.0712    79.972697 
   20700    740.06717   -107.74157   0.66962832   -107.07194   -3288.2468    4.3338676    4.3338676    4.3338676   -3288.2468    11891.295   -19838.695   -1917.3409   -6615.0634    8749.4982    4896.1542    81.400471 
   20800    971.76775   -107.93215   0.87927588   -107.05287    -19306.99    4.3528871    4.3528871    4.3528871    -19306.99   -17269.099   -22118.024   -18533.847    3774.5481   -1353.8702    4989.5505    82.476877 
   20900    475.22661    -107.4768   0.42999502   -107.04681    28317.307    4.3067241    4.3067241    4.3067241    28317.307    29967.979     25008.91    29975.032   -12144.111    25193.274    -1456.897    79.880572 
   21000    914.77595   -107.88218    0.8277085   -107.05447   -13504.842    4.3429119    4.3429119    4.3429119   -13504.842   -16681.611   -25988.695    2155.7786     2910.925    16.064171   -3515.6807    81.911158 
   21100    649.70813   -107.64108   0.58786957   -107.05321    3386.1452     4.335796     4.335796     4.335796    3386.1452       8539.9   -15105.007    16723.543    2556.0621    4582.3746   -1499.3443    81.509182 
   21200    531.83685    -107.5371   0.48121716   -107.05588   -9918.5104    4.3247771    4.3247771    4.3247771   -9918.5104    -11598.87   -12418.683   -5737.9787   -9215.1125    16592.121     -1841.08    80.889318 
   21300    844.19655   -107.81948   0.76384677   -107.05563   -2861.9244    4.3373781    4.3373781    4.3373781   -2861.9244   -5540.7558   -28434.026    25389.009     13682.52   -4961.1722   -4417.9461    81.598436 
   21400     891.9763   -107.86277    0.8070789   -107.05569    2288.9328    4.3315515    4.3315515    4.3315515    2288.9328    7253.3043   -169.64447   -216.86156   -7817.1072    17395.257    5905.0587    81.270036 
   21500    455.36561    -107.4736   0.41202437   -107.06157   -13041.718    4.3374318    4.3374318    4.3374318   -13041.718   -28339.377   -23903.069    13117.292   -3290.6422    14651.606    1851.3022    81.601469 
   21600    706.84574   -107.69506   0.63956888   -107.05549    16772.441    4.3208814    4.3208814    4.3208814    16772.441    15110.195   -3694.4907    38901.619    13463.624   -4434.9265   -1123.5525    80.670924 
   21700    699.76865   -107.69391   0.63316538   -107.06075   -22003.622    4.3431832    4.3431832    4.3431832   -22003.622   -22005.697   -19058.836   -24946.332   -12722.634    18720.856    2312.5808    81.926507 
   21800     541.3627    -107.5526   0.48983635   -107.06276   -10594.184    4.3316672    4.3316672    4.3316672   -10594.184   -31638.056   -21236.728    21092.232     6833.346    5297.0153   -2117.2852    81.276549 
   21900    1028.6261   -107.98551   0.93072254   -107.05479    15150.973    4.3145376    4.3145376    4.3145376    15150.973    9339.4246    8804.7109    27308.783    9014.0227   -6912.5397   -6443.4865    80.316132 
   22000    609.91616   -107.60937   0.55186496    -107.0575   -26998.573    4.3521778    4.3521778    4.3521778   -26998.573   -29617.584   -37865.068   -13513.066   -8037.3728    14408.196   -111.47092    82.436567 
   22100    490.39996   -107.50146   0.44372419   -107.05773    5952.2822    4.3197324    4.3197324    4.3197324    5952.2822     799.2085   -27761.434    44819.072    13622.711    2969.0911    1052.2093    80.606587 
   22200    717.90352   -107.70806   0.64957419   -107.05849   -1173.6777    4.3275982    4.3275982    4.3275982   -1173.6777    6634.7262   -5801.1463    -4354.613   -1466.9478   -11363.105   -1790.4708    81.047718 
   22300    711.67932   -107.69907    0.6439424   -107.05513   -25019.833    4.3429411    4.3429411    4.3429411   -25019.833   -36172.051   -26493.017    -12394.43     -5779.47    13705.654    5157.3581    81.912809 
   22400    820.13485   -107.79419   0.74207525   -107.05211    7221.4966    4.3195757    4.3195757    4.3195757    7221.4966   -6944.5895    1392.0977    27216.982    8644.5021   -9882.5662    5197.0406    80.597814 
   22500    742.11883   -107.72675   0.67148471   -107.05526   -10478.314    4.3371687    4.3371687    4.3371687   -10478.314   -17085.849   -4993.7134   -9355.3807   -4307.7896   -6999.5933   -5867.7432     81.58662 
   22600    577.84407   -107.58024   0.52284546   -107.05739   -3055.7117    4.3301943    4.3301943    4.3301943   -3055.7117   -4137.9399   -23946.482    18917.286    2778.5963    14710.333   -1177.8454    81.193667 
   22700    536.10129   -107.54196   0.48507571   -107.05688    428.53443    4.3338873    4.3338873    4.3338873    428.53443   -725.24778   -7546.1527    9557.0038    4256.8736    -10997.68   -1892.7123    81.401583 
   22800     747.4739    -107.7317   0.67633009   -107.05537    -3541.607    4.3303533    4.3303533    4.3303533    -3541.607    1980.1436    1553.2385   -14158.203    414.48401    -5121.638   -6157.9609    81.202612 
   22900     778.6604   -107.76149   0.70454829   -107.05695    7690.9411    4.3275212    4.3275212    4.3275212    7690.9411   -3415.7587   -1074.2637    27562.846    1181.8516    8318.7037   -1048.3952    81.043392 
   23000    708.83491   -107.69857   0.64136872    -107.0572   -14537.369    4.3402571    4.3402571    4.3402571   -14537.369    -18824.45   -5981.2914   -18806.365    3160.5403   -25358.637    3085.8127    81.761036 
   23100    726.83416   -107.71169   0.65765482   -107.05403    12566.394    4.3178865    4.3178865    4.3178865    12566.394      8180.03    5888.3371    23630.814   -5502.7714   -1364.6033    3855.3311    80.503297 
   23200    539.60882   -107.54782    0.4882494   -107.05958   -5292.2914    4.3392664    4.3392664    4.3392664   -5292.2914   -9587.6857    -17696.24    11407.052   -5760.1555    6035.8089   -1871.5322    81.705057 
   23300    710.94302   -107.70243   0.64327618   -107.05916   -8149.2246    4.3329429    4.3329429    4.3329429   -8149.2246   -3432.4145     1187.472   -22202.731    3752.4709   -29801.098    3509.5783     81.34838 
   23400    927.46787   -107.89267   0.83919242   -107.05347    25501.731    4.3177315    4.3177315    4.3177315    25501.731    20397.164    7630.7838    48477.245   -10625.072    9306.7982   -1382.8271    80.494629 
   23500    676.88589   -107.66864   0.61246058   -107.05618   -23467.529    4.3455522    4.3455522    4.3455522   -23467.529   -25896.265   -22372.905   -22133.417    1581.9614   -13930.706   -3370.7329    82.060641 
   23600    578.26773   -107.57761   0.52322879   -107.05438    13689.687    4.3192079    4.3192079    4.3192079    13689.687    4924.5714   -212.62516    36357.114    1615.9274   -25661.735   -944.77694    80.577229 
   23700    845.75376   -107.82121   0.76525578   -107.05596    788.15229    4.3294617    4.3294617    4.3294617    788.15229    3020.2399   -11124.539    10468.756   -9534.0832    16237.338   -1140.7898    81.152464 
   23800    531.72873   -107.54306   0.48111933   -107.06194   -11042.368    4.3366103    4.3366103    4.3366103   -11042.368   -19505.824    1718.1715   -15339.452    3854.4813   -19873.333    1347.1876    81.555113 
   23900    865.75739   -107.84001   0.78335548   -107.05665    15902.303    4.3259345    4.3259345    4.3259345    15902.303    11097.283    5654.6329    30954.992   -3520.5123   -12117.562    200.05881    80.954279 
   24000     890.2258    -107.8617   0.80549501   -107.05621   -1221.5868    4.3322986    4.3322986    4.3322986   -1221.5868   -1299.2253   -8292.1887    5926.6536   -3205.1943    3468.6807    2780.4577    81.312092 
   24100    227.33628   -107.26931   0.20569864   -107.06361    7048.6897    4.3257578    4.3257578    4.3257578    7048.6897   -309.07106    1427.8148    20027.325    2578.0899   -29847.166   -1320.2849    80.944363 
   24200    947.88457    -107.9135   0.85766588   -107.05583   -12521.982    4.3396915    4.3396915    4.3396915   -12521.982    6119.9454   -26074.088   -17611.804    2608.9393     2858.127   -361.45274    81.729075 
   24300    714.16639   -107.70824   0.64619276   -107.06204     14461.05     4.320281     4.320281     4.320281     14461.05    6695.7578    19398.423    17288.971    402.83092   -5362.4748    2147.3289      80.6373 
   24400    584.66019   -107.59791   0.52901283    -107.0689   -2708.1844    4.3323825    4.3323825    4.3323825   -2708.1844   -293.89838    4222.8349    -12053.49    8167.3813    -22905.24   -1934.1747     81.31682 
   24500    945.86909   -107.91168   0.85584223   -107.05584   -643.89606    4.3402281    4.3402281    4.3402281   -643.89606    7628.0361   -22092.153    12532.429    6004.1949    7727.2593     108.4024    81.759395 
   24600     469.0723   -107.48133   0.42442647   -107.05691    24593.513    4.3103292    4.3103292    4.3103292    24593.513    28996.892    25877.315    18906.331   -2830.2222   -29674.559      3417.36    80.081337 
   24700     468.0799   -107.48711   0.42352853   -107.06358    -16999.59    4.3433765    4.3433765    4.3433765    -16999.59    -1379.141   -25346.948    -24272.68    12580.194   -4601.6623     483.3571    81.937446 
   24800    1012.7508   -107.97201   0.91635822   -107.05565    5923.4032    4.3272529    4.3272529    4.3272529    5923.4032    9870.3521   -4059.4845    11959.342    269.62909    4472.3617    -2156.038    81.028322 
   24900    691.33696   -107.68525   0.62553621   -107.05971     11332.22    4.3177498    4.3177498    4.3177498     11332.22    24647.324     22216.71   -12867.373   -712.98095   -26767.833    4324.3398    80.495653 
   25000    709.34554   -107.69683   0.64183075     -107.055   -23620.455    4.3470792    4.3470792    4.3470792   -23620.455   -28858.244   -36643.139   -5359.9835    16268.149    7774.5346    -1451.609    82.147182 
   25100    763.72417   -107.74055   0.69103368   -107.04951    20877.089    4.3142881    4.3142881    4.3142881    20877.089    36339.433     2513.299    23778.535   -6606.0413   -10576.576   -4259.6216      80.3022 
   25200    462.03324   -107.47888   0.41805738   -107.06082   -5993.2856    4.3319981    4.3319981    4.3319981   -5993.2856   -7421.0204    -3332.049   -7226.7873    9577.2395   -19948.685    4308.6739    81.295177 
   25300    708.57545   -107.69631   0.64113396   -107.05518   -12276.697    4.3378633    4.3378633    4.3378633   -12276.697   -17886.398   -22122.236    3178.5421    11370.585    9548.3156   -1080.0365    81.625824 
   25400    885.92313   -107.85296   0.80160186   -107.05136    19624.076    4.3151241    4.3151241    4.3151241    19624.076    30016.147    21437.971    7418.1087   -9921.2981   -9832.4419   -382.47673    80.348887 
   25500    726.27536   -107.71343   0.65714921   -107.05628   -16866.371    4.3388589    4.3388589    4.3388589   -16866.371   -22838.456   -12913.671   -14846.987    10823.269   -8451.4768    2586.8974    81.682039 
   25600    628.18231   -107.62392   0.56839256   -107.05553   -168.89172    4.3280105    4.3280105    4.3280105   -168.89172    13409.911   -18653.869    4737.2831    -2083.967    7795.5807   -2714.9624    81.070883 
   25700    733.34953   -107.71764   0.66355007   -107.05409    468.83524    4.3269123    4.3269123    4.3269123    468.83524    3719.2243    1447.6698   -3760.3884   -8850.4409   -16080.763   -3083.6668     81.00919 
   25800     517.4607   -107.52622   0.46820932   -107.05801   -3091.6727    4.3332726    4.3332726    4.3332726   -3091.6727   -10513.125   -4813.7924     6051.899    15008.837   -3152.6283   -3597.1667     81.36695 
   25900    681.09478   -107.67405   0.61626887   -107.05778    7403.3596    4.3287212    4.3287212    4.3287212    7403.3596    1208.6173   -5774.8993    26776.361   -9961.1936    10261.995   -5158.0598    81.110829 
   26000    865.99997   -107.83779   0.78357497   -107.05421     3568.776    4.3320381    4.3320381    4.3320381     3568.776    1355.6384   -3874.7739    13225.463    4076.6572   -8740.4057   -1855.6702    81.297428 
   26100    547.31461   -107.55388   0.49522176   -107.05866    8747.0934      4.32304      4.32304      4.32304    8747.0934     18177.26   -9595.5134    17659.534    9588.7061    8772.6007   -820.19525    80.791887 
   26200    656.27031   -107.65209   0.59380717   -107.05828   -12556.125    4.3381987    4.3381987    4.3381987   -12556.125   -1131.0946   -22695.075   -13842.204   -18068.565    3127.3309    1238.0977    81.644762 
   26300     940.7102   -107.90447   0.85117436   -107.05329     2902.528    4.3250507    4.3250507    4.3250507     2902.528    13432.354   -1438.5069   -3286.2626    13285.447   -7443.5195    1990.6118    80.904676 
   26400    535.99331   -107.54659   0.48497801   -107.06162   -534.38485    4.3255626    4.3255626    4.3255626   -534.38485    3506.0405   -18052.515     12943.32   -6070.9747    5930.4751    2876.1056    80.933406 
   26500    858.24806    -107.8341   0.77656088   -107.05753   -12743.137    4.3398627    4.3398627    4.3398627   -12743.137   -18610.191    -25630.66    6011.4411   -16048.716    1038.4043     964.2669    81.738747 
   26600    843.07968   -107.81545   0.76283621   -107.05261    25487.317    4.3167566    4.3167566    4.3167566    25487.317    40235.872   -2073.5937    38299.672    12556.252    227.11221    1437.9113    80.440118 
   26700    336.35626   -107.36872   0.30434221   -107.06438   -9923.5151    4.3356071    4.3356071    4.3356071   -9923.5151   -21969.392   -20771.906    12970.753   -17356.732    12402.499   -4788.9972    81.498524 
   26800    727.21945    -107.7147   0.65800345    -107.0567    6062.7154    4.3300436    4.3300436    4.3300436    6062.7154    11867.348    4348.8349    1971.9634   -5793.9796    8007.2865    155.26995    81.185189 
   26900    813.44908   -107.79177   0.73602582   -107.05575    7513.4502    4.3233676    4.3233676    4.3233676    7513.4502     14506.72    1093.2045    6940.4266    4637.2757    539.72727   -1053.6204    80.810259 
   27000     540.6939   -107.55155   0.48923121   -107.06232   -19912.483    4.3351528    4.3351528    4.3351528   -19912.483   -31676.448   -25601.993   -2459.0083   -21683.617    14464.943    -364.1379    81.472913 
   27100    974.38419   -107.93654   0.88164329   -107.05489    10264.279    4.3216485    4.3216485    4.3216485    10264.279    18510.754    10746.437    1535.6441    4592.2893   -3320.2595    98.919313    80.713901 
   27200    718.14587   -107.70799   0.64979347    -107.0582    -16866.81    4.3380502    4.3380502    4.3380502    -16866.81   -18558.749   -32726.707    685.02567   -10077.682   -1566.6105     1542.164    81.636375 
   27300    380.22093   -107.40575   0.34403189   -107.06172    4679.3463     4.323223     4.323223     4.323223    4679.3463   -5430.3012    6473.7874    12994.553   -15985.334    14012.582    -69.79426    80.802151 
   27400    841.15086   -107.81784   0.76109097   -107.05675    6359.7894    4.3278229    4.3278229    4.3278229    6359.7894    13366.491     10748.61   -5035.7331    9944.9812   -5451.5118   -7616.6521    81.060345 
   27500    689.30192   -107.68164   0.62369486   -107.05795   -10151.751    4.3374466    4.3374466    4.3374466   -10151.751   -15236.123   -23460.732     8241.602   -19419.362    3666.9689    1221.5641    81.602303 
   27600    643.90001   -107.63904   0.58261426   -107.05643    15134.911    4.3153281    4.3153281    4.3153281    15134.911    4900.0148    29403.491    11101.226   -2254.8166    9344.5633   -3184.5709    80.360283 
   27700    783.92966   -107.76506   0.70931603   -107.05574   -15550.223    4.3405532    4.3405532    4.3405532   -15550.223    -14596.15   -5830.4414   -26224.078   -1185.3596   -8751.4745   -1114.3142    81.777766 
   27800    633.38485   -107.62969   0.57309993   -107.05659   -2164.7115    4.3272916    4.3272916    4.3272916   -2164.7115   -8024.6982    1329.0624    201.50122   -21582.912    6730.4073    2885.8373    81.030492 
   27900    607.47579   -107.60542   0.54965686   -107.05576    11977.744    4.3195541    4.3195541    4.3195541    11977.744    11111.894    29908.194    -5086.855     3378.326    5277.8167    4677.1412    80.596608 
   28000    881.03312   -107.85044   0.79717728   -107.05326   -14342.019    4.3401801    4.3401801    4.3401801   -14342.019   -12986.717   -23291.091    -6748.249   -9711.4585   -9938.1146   -3498.4736    81.756684 
   28100    691.21671   -107.67941    0.6254274   -107.05398    16670.266    4.3206868    4.3206868    4.3206868    16670.266    8683.5653    15894.936    25432.298   -11356.581    14853.855     1065.004    80.660024 
   28200    602.34331   -107.60024   0.54501289   -107.05523   -6448.3039    4.3333255    4.3333255    4.3333255   -6448.3039   -12221.953    11773.764   -18896.723    4733.3665   -7513.5844   -852.87178    81.369932 
   28300    761.37225   -107.74256   0.68890561   -107.05365   -1362.4495    4.3269262    4.3269262    4.3269262   -1362.4495    2978.3297    3535.6481   -10601.326   -8163.1149   -8431.7965   -3826.0371    81.009971 
   28400    611.68885   -107.61197   0.55346893    -107.0585    9628.1932    4.3226335    4.3226335    4.3226335    9628.1932   -1464.8891    25431.268    4918.2008   -6680.2838    8894.5366    4448.6905      80.7691 
   28500    799.97086   -107.78157   0.72383045   -107.05774   -14282.779    4.3384967    4.3384967    4.3384967   -14282.779   -22633.867    4663.7218   -24878.191    1196.9853   -14729.461    202.29428    81.661586 
   28600    837.37834   -107.81207   0.75767752   -107.05439    19568.129    4.3189611    4.3189611    4.3189611    19568.129    5977.7747    12412.128    40314.484   -7251.5679     3697.751    7115.6407    80.563418 
   28700    495.43135   -107.50971    0.4482767   -107.06144   -5822.4129    4.3308471    4.3308471    4.3308471   -5822.4129   -8619.1063    13326.906   -22175.038   -6008.4024    12163.597    513.16332    81.230391 
   28800    674.32911   -107.66828   0.61014715   -107.05814   -5178.3948    4.3297485    4.3297485    4.3297485   -5178.3948   -1442.7906    6849.5713   -20941.965    5285.8045   -12154.512    166.84741    81.168594 
   28900    770.96004   -107.75349   0.69758085   -107.05591    14898.763    4.3229484    4.3229484    4.3229484    14898.763    11772.095    12310.467    20613.726   -8073.6596    7856.6002     878.3194    80.786756 
   29000    689.07117   -107.68217   0.62348608   -107.05868   -16708.507     4.337283     4.337283     4.337283   -16708.507       -25674    677.65643   -25129.178    2096.8656    1935.5307    1977.7137    81.593073 
   29100    866.71967   -107.83949   0.78422617   -107.05527    12470.291    4.3215491    4.3215491    4.3215491    12470.291   -582.39673    7401.8232    30591.447    1703.6689   -15206.531   -2122.9918    80.708331 
   29200    755.48468   -107.74079   0.68357841   -107.05721   -2132.2719    4.3286626    4.3286626    4.3286626   -2132.2719   -3253.1095    5242.7755   -8386.4815   -6978.4483    16245.806    5087.9597    81.107534 
   29300    381.72943   -107.40535   0.34539681   -107.05995   -7949.7795    4.3321093    4.3321093    4.3321093   -7949.7795    -6896.175    12614.647    -29567.81    3177.3487   -944.60404    3529.4533    81.301437 
   29400    848.69345    -107.8221   0.76791567   -107.05419    1578.3822    4.3247435    4.3247435    4.3247435    1578.3822    8835.7246    1055.9121   -5156.4902   -2457.4017   -8169.1226   -1496.1283    80.887432 
   29500    690.98076   -107.68253   0.62521392   -107.05731    5104.7889    4.3277103    4.3277103    4.3277103    5104.7889    2027.1565    9419.3444    3867.8657   -4403.1763    13508.694   -751.31946    81.054018 
   29600    646.05057   -107.64528   0.58456013   -107.06072   -7231.5032    4.3333852    4.3333852    4.3333852   -7231.5032   -21392.664    3361.7374    -3663.583    2277.4922   -10233.783   -3720.4744     81.37329 
   29700    803.36412   -107.78187   0.72690073   -107.05497    6324.2717    4.3265716    4.3265716    4.3265716    6324.2717    2884.8416   -1132.1024    17220.076    1252.2162    800.80858   -8272.0271    80.990055 
   29800    534.92919   -107.54268   0.48401517   -107.05866   -3434.1013    4.3246682    4.3246682    4.3246682   -3434.1013   -7081.3706    24658.603   -27879.537    63.052751    14347.283   -296.07818    80.883213 
   29900    561.77795   -107.56856   0.50830849   -107.06025   -15760.446    4.3373545    4.3373545    4.3373545   -15760.446   -15848.742    -337.1813   -31095.414    6914.5523   -14168.752   -340.70296    81.597107 
   30000    888.63331   -107.85892   0.80405409   -107.05486     11057.01    4.3225547    4.3225547    4.3225547     11057.01    15480.435    6474.1227    11216.473    6614.2505    7481.9168   -1382.9408    80.764686 
   30100    593.50962   -107.59747   0.53701997   -107.06045    1554.6206    4.3273926    4.3273926    4.3273926    1554.6206   -14488.608    16200.814    2951.6551   -584.89598   -1445.3591    9740.4708     81.03617 
   30200    643.49307   -107.63946   0.58224605   -107.05722   -6197.7794    4.3356874    4.3356874    4.3356874   -6197.7794     -9822.12   -12970.164    4198.9461    11096.911   -15923.341    -3320.785    81.503054 
   30300    737.41839   -107.71939   0.66723166   -107.05216    10680.208    4.3188215    4.3188215    4.3188215    10680.208    12326.286    13152.689    6561.6499    633.44069    11824.909   -440.14109    80.555606 
   30400    502.16244   -107.51352   0.45436713   -107.05915   -24481.628    4.3373002    4.3373002    4.3373002   -24481.628   -37451.277    792.92899   -36786.536    2103.1231   -3342.5295    352.86897    81.594044 
   30500    921.56286   -107.88726   0.83384944   -107.05341   -770.72009    4.3255334    4.3255334    4.3255334   -770.72009   -522.06525   -11460.919    9670.8243    10820.216   -5263.8611   -8242.5114    80.931766 
   30600      794.818   -107.77402   0.71916803   -107.05485    4050.2333    4.3258579    4.3258579    4.3258579    4050.2333   -5184.0605    4935.3528    12399.407   -6846.4304    12013.583   -8509.5099     80.94998 
   30700    583.79788   -107.58645   0.52823259   -107.05822   -13105.695    4.3333555    4.3333555    4.3333555   -13105.695   -27805.863    -4520.005    -6991.217    9919.6581   -9833.0296    432.92503    81.371618 
   30800    766.62244   -107.74791   0.69365609   -107.05425     12828.23    4.3197455    4.3197455    4.3197455     12828.23        20185   -3148.2031    21447.894    5232.9801    -2828.602    -7869.574    80.607318 
   30900    579.20208   -107.58461   0.52407421   -107.06053   -20993.595    4.3349683    4.3349683    4.3349683   -20993.595   -20386.053   -7273.6232   -35321.107   -3879.7137    14009.318   -2159.0205    81.462506 
   31000    733.07606   -107.72327   0.66330262   -107.05997   -3291.0426    4.3233408    4.3233408    4.3233408   -3291.0426   -9398.3139   -4999.8065    4524.9927    10309.209   -10338.091    1433.7517    80.808755 
   31100    870.63292   -107.84539   0.78776696   -107.05762     -666.885    4.3306465    4.3306465    4.3306465     -666.885    2888.7982   -16501.716    11612.263   -2932.8221    6386.6872   -10486.991    81.219103 
   31200    575.59908   -107.58111   0.52081414   -107.06029   -6267.5802    4.3295033    4.3295033    4.3295033   -6267.5802   -21757.564    6751.1418   -3796.3188   -1057.7771    3270.8345   -512.89108      81.1548 
   31300    679.82358    -107.6721   0.61511866   -107.05698    7793.3608    4.3212225    4.3212225    4.3212225    7793.3608    11827.449    8812.6566    2739.9765    1773.1185   -15295.172   -4044.9885     80.69003 
   31400     622.1472   -107.62105   0.56293186   -107.05812   -12970.468    4.3355542    4.3355542    4.3355542   -12970.468    835.95515   -10996.695   -28750.663   -5780.1178    10978.231    -9235.038    81.495545 
   31500     649.0427   -107.64585   0.58726747   -107.05858    491.70993    4.3241264    4.3241264    4.3241264    491.70993   -828.74212    10795.231   -8491.3587     -1128.53    1062.9498    8404.6691    80.852813 
   31600     834.9156    -107.8104   0.75544918   -107.05495    1063.9961    4.3307872    4.3307872    4.3307872    1063.9961    7327.4449   -13117.878    8982.4214    168.09612   -4746.2374   -4246.9453    81.227021 
   31700    633.01937   -107.63038   0.57276923   -107.05761   -4731.3943    4.3286726    4.3286726    4.3286726   -4731.3943   -1291.7832   -5556.7627   -7345.6371   -5351.8034    16836.847   -6661.7226    81.108101 
   31800    616.56185   -107.61403   0.55787812   -107.05615    2086.6817    4.3262382    4.3262382    4.3262382    2086.6817   -9580.7404    10175.381    5665.4044    3193.3393   -10088.353    3971.8198    80.971329 
   31900    811.52175   -107.78824   0.73428193   -107.05396     -12233.9    4.3328442    4.3328442    4.3328442     -12233.9   -34.519645   -18522.992    -18144.19    -1220.541    -2176.921   -15131.965    81.342817 
   32000    547.64154   -107.55555   0.49551757   -107.06003    2329.2155    4.3255595    4.3255595    4.3255595    2329.2155    1252.3535   -3760.8628    9496.1558   -3929.9414    10895.483   -5935.1268    80.933227 
   32100    938.91145   -107.90776   0.84954681   -107.05822    4256.9298    4.3257294    4.3257294    4.3257294    4256.9298    2322.8591    1600.7084    8847.2221    4598.9485   -12531.886   -1560.4795    80.942764 
   32200    718.65802   -107.70995   0.65025688   -107.05969     6151.241    4.3283086    4.3283086    4.3283086     6151.241    17458.697   -17242.666    18237.691   -4845.7162    4524.2052   -9772.9026    81.087638 
   32300    534.74825   -107.54428   0.48385146   -107.06043   -7432.5469    4.3317546    4.3317546    4.3317546   -7432.5469   -7154.4839   -1071.4119   -14071.745   -4192.8466    10343.123    935.89293    81.281467 
   32400    826.38379   -107.80316   0.74772942   -107.05544    8250.5501    4.3206149    4.3206149    4.3206149    8250.5501    4825.7063    4317.6154    15608.329    3971.6891   -8667.6581    659.55876    80.656001 
   32500    627.06933   -107.62943   0.56738551   -107.06205    -5928.098    4.3323072    4.3323072    4.3323072    -5928.098    2022.5552   -19938.328     131.4786   -7221.9223    8879.5469   -13878.134    81.312579 
   32600    736.10203    -107.7277   0.66604059   -107.06166   -3237.2468    4.3297378    4.3297378    4.3297378   -3237.2468   -13381.039    1231.9062    2437.3924    453.65463    15852.779    4297.8801     81.16799 
   32700    824.81265   -107.80201   0.74630782    -107.0557    13999.062    4.3185292    4.3185292    4.3185292    13999.062    16899.918    6490.9863    18606.281    4515.2158   -10002.772   -10410.391    80.539247 
   32800    520.07948   -107.53112   0.47057884   -107.06054   -13732.523    4.3356386    4.3356386    4.3356386   -13732.523   -1898.9864   -8565.8996   -30732.682   -2638.6867    13435.333   -8325.6903      81.5003 
   32900    610.34943   -107.61014   0.55225699   -107.05788     6212.842    4.3236205    4.3236205    4.3236205     6212.842   -4112.7776    15293.079    7458.2246     3339.688    3778.9399    5797.8559    80.824437 
   33000    749.57509   -107.73611   0.67823129   -107.05788    305.20144    4.3263151    4.3263151    4.3263151    305.20144    3165.2454   -13646.769    11397.128    6255.1766   -10354.436    -7220.495    80.975653 
   33100    717.16972   -107.70838   0.64891024   -107.05947   -5842.0679     4.331393     4.331393     4.331393   -5842.0679   -8500.1189   -9001.3239   -24.760819   -4769.4658    18702.395    -4296.761    81.261115 
   33200    775.89368   -107.75787   0.70204491   -107.05583   -3304.4722    4.3272201    4.3272201    4.3272201   -3304.4722   -10628.608   -4917.8639    5633.0552    5923.3399   -1115.6338    2574.9109    81.026476 
   33300    656.14905   -107.64914   0.59369745   -107.05544   -12885.905    4.3279526    4.3279526    4.3279526   -12885.905   -1395.2837   -18733.514   -18528.917    4917.2675     4321.954   -17107.094    81.067631 
   33400    637.63105   -107.63336   0.57694197   -107.05642    650.67191    4.3254635    4.3254635    4.3254635    650.67191    1163.6463    113.51109     674.8583   -4245.5504    16224.493   -1201.6867    80.927842 
   33500    815.44321   -107.79331   0.73783016   -107.05548   -6765.4875    4.3353433    4.3353433    4.3353433   -6765.4875   -8468.3468   -22927.099    11098.984     14827.23   -4387.5014   -2359.1546    81.483651 
   33600    779.62649   -107.76185   0.70542244   -107.05642    8921.0078    4.3196593    4.3196593    4.3196593    8921.0078    14545.273   -1356.4618    13574.213    2302.3541     4457.901   -9101.0634    80.602493 
   33700    621.36426   -107.62234   0.56222344   -107.06011    2904.1251    4.3270158    4.3270158    4.3270158    2904.1251   -8992.5022     9405.225    8299.6525    3811.8267    15179.315    8868.2076    81.015002 
   33800    607.61032   -107.60626   0.54977859   -107.05648   -14496.976    4.3369973    4.3369973    4.3369973   -14496.976   -22226.742   -14490.131   -6774.0552    16166.904   -3055.1014   -3151.1182     81.57695 
   33900    676.10137   -107.66522   0.61175073   -107.05347    10391.514    4.3169024    4.3169024    4.3169024    10391.514    5922.4906     16299.17     8952.882   -3479.9127    9638.2306   -5925.3209    80.448264 
   34000    735.72731    -107.7225   0.66570153    -107.0568   -7486.2817    4.3333025    4.3333025    4.3333025   -7486.2817   -19695.432   -11646.079    8882.6658    10216.558    14944.475    2003.6375    81.368634 
   34100    869.52092   -107.84198    0.7867608   -107.05522    2244.1531    4.3284474    4.3284474    4.3284474    2244.1531    -4465.142   -15569.257    26766.858    8642.9602   -10163.181   -9267.6598     81.09544 
   34200    698.42827    -107.6882   0.63195257   -107.05625    2838.8482    4.3227773    4.3227773    4.3227773    2838.8482    4645.7105    1123.2611    2747.5731   -2737.6897    18693.476   -5310.1094    80.777159 
   34300    440.87923    -107.4602   0.39891679   -107.06128   -12269.853    4.3301611    4.3301611    4.3301611   -12269.853   -14318.951   -22132.945   -357.66314    17782.213    3318.9856    10996.909    81.191798 
   34400     879.2477   -107.85144   0.79556179   -107.05588   -1487.1042    4.3269275    4.3269275    4.3269275   -1487.1042    1714.4419   -10959.519    4783.7646    3501.4879   -1344.0224   -6262.2125    81.010044 
   34500    752.69945   -107.73985   0.68105828   -107.05879   -13571.288    4.3328227    4.3328227    4.3328227   -13571.288   -14092.807   -11595.744   -15025.312    3814.7589    18644.684    2545.8207    81.341606 
   34600    653.64551   -107.65142   0.59143219   -107.05999     5063.397    4.3178845    4.3178845    4.3178845     5063.397   -26.649715   -8630.0531    23846.894    19850.316   -973.33634    6571.3507    80.503186 
   34700     857.1269   -107.83462   0.77554643   -107.05907    6813.1588    4.3332604    4.3332604    4.3332604    6813.1588   -6627.0972    2371.2348    24695.339   -8975.2528    3055.7888   -8883.6343    81.366264 
   34800    416.02236   -107.44133   0.37642578   -107.06491   -3392.1576     4.330581     4.330581     4.330581   -3392.1576   -10758.941   -2411.6525     2994.121    10738.422    5136.9703    811.54847    81.215418 
   34900     482.6756   -107.49796   0.43673503   -107.06122    9149.1013    4.3223888    4.3223888    4.3223888    9149.1013    16506.749   -9117.4846    20058.039    10564.819   -2195.0105    6503.4983    80.755383 
   35000    1067.9037   -108.01767   0.96626168    -107.0514   -9864.2227    4.3371507    4.3371507    4.3371507   -9864.2227   -11636.503   -9062.6049   -8893.5604    -9000.104    1155.3383   -770.90247    81.585603 
   35100    581.46681   -107.58503   0.52612339   -107.05891    3336.1222    4.3211194    4.3211194    4.3211194    3336.1222    6230.0549   -12448.837    16227.148    21882.441    9071.1808    9446.3307    80.684255 
   35200    883.06906   -107.85803   0.79901945   -107.05901   -8734.5484    4.3332383    4.3332383    4.3332383   -8734.5484   -12152.811   -24843.751    10792.917    383.91809   -758.20704     11376.04    81.365019 
   35300    801.84353   -107.78319   0.72552488   -107.05767    2788.6683     4.326545     4.326545     4.326545    2788.6683   -6344.5365    1469.7798    13240.762    2480.5885    6685.6536   -4776.8434     80.98856 
   35400    311.59641   -107.34582   0.28193898   -107.06389    4966.7926    4.3220384    4.3220384    4.3220384    4966.7926   -2092.0428   -5871.2769    22863.697    20579.749    2799.0257    6909.2128    80.735749 
   35500    811.95334   -107.79001   0.73467244   -107.05534   -8125.2453    4.3399008    4.3399008    4.3399008   -8125.2453   -6641.9254   -14551.719   -3182.0916   -9031.6346    530.82266   -1068.0043    81.740898 
   35600    745.87586   -107.73157   0.67488415   -107.05669     18031.93    4.3149951    4.3149951    4.3149951     18031.93     2229.812    24970.722    26895.257    13611.987    5301.6617    -9435.884     80.34168 
   35700    655.59736   -107.65624   0.59319827   -107.06304   -11635.025    4.3332827    4.3332827    4.3332827   -11635.025   -15134.968   -17647.977   -2122.1292    15658.678    1410.3277    13139.705    81.367516 
   35800    958.46115   -107.92083   0.86723579   -107.05359   -899.52762    4.3305437    4.3305437    4.3305437   -899.52762    -2773.233   -1201.7146    1276.3647   -5614.5747    2247.3822    2552.7157    81.213325 
   35900    475.29725     -107.488   0.43005894   -107.05794     1467.633    4.3203355    4.3203355    4.3203355     1467.633    -7979.178   -3473.0617    15855.139    19771.693    5158.7705     -1854.78    80.640351 
   36000    662.04525   -107.65747   0.59903246   -107.05844   -15214.039    4.3351512    4.3351512    4.3351512   -15214.039   -9906.5337   -28073.611   -7661.9727    8678.8066    1671.4528    13190.761    81.472821 
   36100      867.029   -107.83867   0.78450606   -107.05416    17696.784     4.320425     4.320425     4.320425    17696.784    14997.979     18563.32    19529.052   -5113.4805   -2127.5822   -5553.7414    80.645364 
   36200    516.33598   -107.52999   0.46719164   -107.06279   -11309.836    4.3339063    4.3339063    4.3339063   -11309.836   -30440.535   -8690.4171    5201.4436    20526.514    9638.5135   -3851.7888    81.402649 
   36300    808.63865   -107.78747   0.73167324    -107.0558    5678.6723    4.3261087    4.3261087    4.3261087    5678.6723    6930.1626    10172.665    -66.81045    2073.4438   -5286.7271    10975.671    80.964059 
   36400    754.32875   -107.73993    0.6825325    -107.0574    5958.8582     4.319666     4.319666     4.319666    5958.8582       4443.8    4527.3534    8905.4211    5379.0905    5298.2141   -9209.2646    80.602868 
   36500    473.67731   -107.49038   0.42859318   -107.06178   -25383.758    4.3383033    4.3383033    4.3383033   -25383.758   -28169.353   -33991.843   -13990.079    24473.962    4941.1411    6174.5566    81.650668 
   36600    957.89765   -107.92046   0.86672592   -107.05374    11191.029     4.320464     4.320464     4.320464    11191.029    16069.255    3330.1778    14173.652   -5004.5958   -3448.8195     5168.893    80.647548 
   36700    619.17697   -107.61893   0.56024434   -107.05869    -5536.589    4.3313905    4.3313905    4.3313905    -5536.589   -19429.562    381.10898    2438.6857    13594.349    4232.1819   -11118.936    81.260973 
   36800    588.29703   -107.59157   0.53230352   -107.05927   -2206.3457    4.3286745    4.3286745    4.3286745   -2206.3457   -19199.801     3685.599    8895.1653    14531.765   -3253.6054    1251.2679    81.108203 
   36900    824.57587   -107.80144   0.74609357   -107.05535    16627.304     4.321139     4.321139     4.321139    16627.304    17788.287    18523.447    13570.178   -13784.783    991.98708   -3248.4343    80.685355 
   37000     478.6547   -107.49388   0.43309684   -107.06079   -17898.498    4.3374436    4.3374436    4.3374436   -17898.498   -26038.724   -29607.216    1950.4459    23018.272     2641.603   -7609.8728    81.602134 
   37100    814.00279    -107.7907   0.73652683   -107.05417    5786.6292    4.3222242    4.3222242    4.3222242    5786.6292      7073.39   -6317.8262    16604.324    5329.9653    2072.8193    7507.7467    80.746157 
   37200    848.55458   -107.82308   0.76779001   -107.05529   -5299.3476    4.3278686    4.3278686    4.3278686   -5299.3476   -6287.7263   -10586.006    975.68952   -5286.1457    1390.6204   -339.03356    81.062913 
   37300    500.11823   -107.51447   0.45251748   -107.06196   -10710.239    4.3306974    4.3306974    4.3306974   -10710.239   -23439.407   -6674.8695   -2016.4397    26578.748    6418.9997   -1812.7668    81.221972 
   37400    996.47192   -107.95622   0.90162874   -107.05459    8733.8196    4.3254768    4.3254768    4.3254768    8733.8196    6743.5432    15261.298    4196.6181    -7308.991   -465.93061    2457.0608    80.928585 
   37500    493.87772   -107.50889   0.44687094   -107.06202   -7901.6115    4.3317679    4.3317679    4.3317679   -7901.6115   -7095.0976   -17845.243    1235.5062    5286.3507    -3029.761   -5983.3235    81.282214 
   37600    491.41878   -107.50816   0.44464604   -107.06352    2177.3261    4.3198078    4.3198078    4.3198078    2177.3261    -4878.541   -12469.455    23879.974    24289.405    10045.109   -7438.8331     80.61081 
   37700     1003.386   -107.96474   0.90788474   -107.05686   -1536.4645    4.3333943    4.3333943    4.3333943   -1536.4645    -3613.851   -11706.033     10710.49   -9509.4931   -6364.4556    2689.4204    81.373803 
   37800    457.50595   -107.47973     0.413961   -107.06577   -4845.5044    4.3274673    4.3274673    4.3274673   -4845.5044   -14376.725   -19014.773    18854.985    18475.926    5596.6177   -4460.9254    81.040366 
   37900    785.83893   -107.77239   0.71104357   -107.06135    4784.5299    4.3233058    4.3233058    4.3233058    4784.5299    5722.3108   -5164.7397    13796.019    6445.8598    6637.0724   -1403.1467    80.806791 
   38000    896.98806   -107.86617   0.81161365   -107.05455     -229.328     4.335647     4.335647     4.335647     -229.328   -2265.9338   -4726.4022    6304.3521   -7005.6799   -3318.6384    4350.3995    81.500776 
   38100    394.40313   -107.41975   0.35686424   -107.06288   -1787.6145    4.3196698    4.3196698    4.3196698   -1787.6145   -13799.208   -9904.3311    18340.696    24385.922    3713.9796   -5103.3777     80.60308 
   38200    761.83429   -107.75145   0.68932367   -107.06213    773.79969    4.3290511    4.3290511    4.3290511    773.79969   -1154.2002   -1185.7823    4661.3816   -2662.5479    5093.6365   -6523.2616    81.129377 
   38300    942.85054   -107.90929   0.85311098   -107.05618   -8542.8375    4.3347533    4.3347533    4.3347533   -8542.8375   -9448.2219   -17039.008    858.71763    9287.2491   -2281.1211    2579.9939    81.450388 
   38400    590.04503   -107.59256   0.53388515   -107.05868    2025.9683    4.3204195    4.3204195    4.3204195    2025.9683    1337.1864   -18660.003    23400.721    21988.434    6269.9487   -7682.5832    80.645055 
   38500    799.74204   -107.77938    0.7236234   -107.05575    1736.5822    4.3309495    4.3309495    4.3309495    1736.5822    11122.999   -4186.7881    -1726.464   -9149.8197    8670.4823    -344.1376    81.236156 
   38600     576.3966   -107.57916   0.52153575   -107.05763    2458.9305    4.3299053    4.3299053    4.3299053    2458.9305   -12585.396   -5921.9767    25884.165     16923.64    1000.3998    7826.8681     81.17741 
   38700    496.85216    -107.5088   0.44956228   -107.05924    3188.6789    4.3258205    4.3258205    4.3258205    3188.6789   -11074.333    2031.2261    18609.144     6658.087    11068.759   -5156.6489     80.94788 
   38800    843.10225   -107.81802   0.76285663   -107.05517    2455.4089    4.3289599    4.3289599    4.3289599    2455.4089    6830.0242   -2058.7815    2594.9839   -2290.4392    3363.8043    38.992412    81.124248 
   38900    810.54808   -107.78972   0.73340094   -107.05632   -5718.2677    4.3289407    4.3289407    4.3289407   -5718.2677   -14099.793   -25529.777    22474.767    20859.765   -1716.8752   -153.31352    81.123171 
   39000    689.19598   -107.67965     0.623599   -107.05605   -11333.332      4.32806      4.32806      4.32806   -11333.332   -8074.1569   -13997.749   -11928.089   -1726.5336    5781.5922   -9006.7715    81.073669 
   39100    681.06402   -107.67302   0.61624103   -107.05678   -3236.6364    4.3258177    4.3258177    4.3258177   -3236.6364   -3858.0645   -7534.9154    1683.0708    11621.043   -161.29524   -867.21687    80.947724 
   39200    652.93757   -107.64832   0.59079163   -107.05753   -4042.4499    4.3324971    4.3324971    4.3324971   -4042.4499     -25742.7    2622.5204     10992.83    9967.2803   -519.95859    3870.4088    81.323274 
   39300    745.62586   -107.73179   0.67465794   -107.05713   -5786.1582    4.3293529    4.3293529    4.3293529   -5786.1582   -3019.7479    -1985.346   -12353.381   -5376.5219    7359.3838    1246.5351    81.146343 
   39400    741.87435   -107.72721   0.67126351   -107.05595    11996.015    4.3213438    4.3213438    4.3213438    11996.015    8511.3656    -1914.588    29391.266    11944.126    93.538478     7563.948    80.696828 
   39500    623.57448   -107.62193   0.56422329    -107.0577       -11170    4.3331315    4.3331315    4.3331315       -11170   -24678.989   -17925.647    9094.6344   -2881.1621    8387.9139      592.239       81.359 
   39600    509.05449   -107.51812    0.4606032   -107.05751   -12156.961    4.3318519    4.3318519    4.3318519   -12156.961   -10884.041   -19394.683   -6192.1587   -4857.6269    9806.8391   -4291.2439    81.286944 
   39700    944.25499   -107.90607   0.85438176   -107.05169    11386.072    4.3180607    4.3180607    4.3180607    11386.072     14984.92    5480.1039    13693.191    10042.173   -2448.8116    448.62716    80.513038 
   39800    703.27721    -107.6971      0.63634   -107.06076   -13279.451    4.3333379    4.3333379    4.3333379   -13279.451   -15987.766    -7573.615   -16276.971   -9692.5349    9114.0678   -4798.2101    81.370626 
   39900    638.77049   -107.63905   0.57797296   -107.06108   -1066.7405    4.3311145    4.3311145    4.3311145   -1066.7405    2511.0232   -5096.7664   -614.47819   -3964.8224    2190.0692    144.52249    81.245438 
   40000    882.00728   -107.85173   0.79805872   -107.05367    14625.127    4.3176376    4.3176376    4.3176376    14625.127    3194.2566    14163.478    26517.646    8498.8598    238.57772    2894.7033    80.489379 
   40100    231.57501   -107.27527   0.20953393   -107.06574   -14332.898    4.3337623    4.3337623    4.3337623   -14332.898   -30540.922   -12618.794    161.02325    -15538.18    11118.746    -1349.295    81.394537 
   40200    941.42793   -107.91048   0.85182377   -107.05866   -3648.3774    4.3298013    4.3298013    4.3298013   -3648.3774    9030.2907   -9946.6114   -10028.812    2335.3258    532.12056   -5018.7864    81.171562 
   40300    969.04217   -107.93411   0.87680972    -107.0573    8650.7448    4.3209104    4.3209104    4.3209104    8650.7448    12317.138    10006.244    3628.8525    433.20195    3898.0486    1714.5191    80.672549 
   40400    403.23286   -107.43127   0.36485357   -107.06641   -13478.011    4.3316826    4.3316826    4.3316826   -13478.011   -16202.967   -10713.469   -13517.596   -10906.873    4582.8035   -7739.1457    81.277414 
   40500    825.95775   -107.80466   0.74734393   -107.05731    8351.0073    4.3297591    4.3297591    4.3297591    8351.0073    5257.9471    -546.6003    20341.675    6894.6782   -3575.5366   -2275.2822    81.169189 
   40600      630.262   -107.62978    0.5702743   -107.05951    4898.9681    4.3234372    4.3234372    4.3234372    4898.9681   -6219.2853    6064.6105    14851.579    -3835.571    6783.2024    6565.3761    80.814158 
   40700    494.07293   -107.51062   0.44704757   -107.06357   -6348.5247    4.3317277    4.3317277    4.3317277   -6348.5247   -6101.6716   -4599.6939   -8344.2085   -7244.1841    2883.1863   -6228.4381    81.279954 
   40800    1044.1059    -107.9991     0.944729   -107.05437   -1945.0871    4.3295135    4.3295135    4.3295135   -1945.0871    3086.0598   -8165.5253   -755.79591    4659.0074    526.88571   -795.19357    81.155379 
   40900    671.91609   -107.66653    0.6079638   -107.05857    4133.2719    4.3193386    4.3193386    4.3193386    4133.2719    4433.4386     12210.26   -4243.8824   -8014.6365    6251.0986    2944.5508    80.584542 
   41000    538.91397   -107.55008   0.48762068   -107.06246    -4897.852    4.3329887    4.3329887    4.3329887    -4897.852   -1898.6366   -22302.288    9507.3681   -1562.3025   -3973.9321   -11194.018    81.350958 
   41100    753.77051   -107.73769    0.6820274   -107.05566    1125.7026    4.3319371    4.3319371    4.3319371    1125.7026     9231.488   -20468.983    14614.603    13275.181   -3151.2743   -1168.5867    81.291741 
   41200    656.77756   -107.64928   0.59426614   -107.05501    9985.4365    4.3190563    4.3190563    4.3190563    9985.4365    8674.2318    10574.713    10707.364   -7412.1566    3649.6499    2827.6773    80.568744 
   41300    653.49289   -107.65091    0.5912941   -107.05962   -7280.0891    4.3312362    4.3312362    4.3312362   -7280.0891   -4671.2346   -18881.662    1712.6293    15023.369   -1152.9727   -9301.7827    81.252291 
   41400    900.50881   -107.86905   0.81479929   -107.05425   -4274.1282    4.3315957    4.3315957    4.3315957   -4274.1282     -622.255   -11738.234   -461.89521    13376.753    3541.4923     2303.188    81.272521 
   41500    690.85891   -107.68018   0.62510366   -107.05508   -1087.1294    4.3236491    4.3236491    4.3236491   -1087.1294   -2115.5328   -2543.0856    1397.2301   -9808.4048    5742.5336    -4513.615    80.826043 
   41600    516.13773   -107.52625   0.46701226   -107.05924    -8206.829     4.329081     4.329081     4.329081    -8206.829    4038.2862   -33813.734    5154.9604    27026.703   -2625.3124   -8209.9765    81.131059 
   41700    944.24984   -107.90852    0.8543771   -107.05414    5963.4079     4.329888     4.329888     4.329888    5963.4079    14391.632    504.96613    2993.6255   -3522.8991     2039.915   -2072.9878    81.176436 
   41800    551.27813   -107.56056   0.49880804   -107.06176    6573.5187     4.322763     4.322763     4.322763    6573.5187    3885.5042   -7770.8773    23605.929    6201.6978   -465.51071   -7691.7007    80.776359 
   41900    521.47563   -107.53872   0.47184211   -107.06688   -3118.9972    4.3292443    4.3292443    4.3292443   -3118.9972     1191.443   -32503.927    21955.492    24155.889    1119.6034   -4752.5301    81.140239 
   42000    1055.6478   -108.01022    0.9551723   -107.05505    7663.7283    4.3293714    4.3293714    4.3293714    7663.7283    10270.651   -8934.8017    21655.336   -9446.7516   -461.94971    2073.2773    81.147387 
   42100    446.83294   -107.47018   0.40430384   -107.06588   -5712.6929    4.3223676    4.3223676    4.3223676   -5712.6929    4741.5336   -32289.737    10410.124    24583.124   -1351.1887   -5098.6346    80.754195 
   42200     671.0528   -107.67256   0.60718267   -107.06538   -8508.1075    4.3311438    4.3311438    4.3311438   -8508.1075    3485.3083   -23674.089   -5335.5421    6376.7112    846.04161   -2300.7536    81.247091 
   42300    1065.1678   -108.01793   0.96378618   -107.05414    453.25146    4.3294042    4.3294042    4.3294042    453.25146    6691.6622   -2708.7349   -2623.1729    2521.4112   -3912.6698    413.71832    81.149232 
   42400    336.42357   -107.36736   0.30440311   -107.06296   -3962.7965    4.3250047    4.3250047    4.3250047   -3962.7965    3502.8075   -34588.275    19197.078    27255.597   -92.567539   -11650.374    80.902093 
   42500    806.08413   -107.78793   0.72936186   -107.05856    3092.8441    4.3280091    4.3280091    4.3280091    3092.8441   -1632.7214   -14139.257    25050.511   -10789.673   -2286.7521    870.37155    81.070805 
   42600    801.55853   -107.78299     0.725267   -107.05772    8453.7772    4.3267709    4.3267709    4.3267709    8453.7772    11175.334   -18823.871    33009.868    16756.099    4029.6308   -504.19366    81.001247 
   42700    472.64088   -107.48948    0.4276554   -107.06183   -3905.9428    4.3286137    4.3286137    4.3286137   -3905.9428   -1745.3272   -23347.083    13374.582    13281.138    1584.1282   -8752.5437    81.104788 
   42800     859.9248   -107.83284   0.77807803   -107.05476   -2041.9864    4.3270389    4.3270389    4.3270389   -2041.9864     4457.469   -524.29727   -10059.131   -14018.721   -196.27521    3936.8257      81.0163 
   42900    684.37665   -107.67694   0.61923838   -107.05771     812.5282    4.3256148    4.3256148    4.3256148     812.5282    13475.874   -25511.659    14473.369    21116.558   -882.63006   -862.52759    80.936333 
   43000    631.76777   -107.63137   0.57163675   -107.05973   -7046.9867    4.3288384    4.3288384    4.3288384   -7046.9867    884.48305   -24404.321    2378.8773   -3663.7495   -1551.7241   -12200.071    81.117421 
   43100    871.74049   -107.84433   0.78876911   -107.05557    3625.9916    4.3272644    4.3272644    4.3272644    3625.9916   -3312.8304    -3410.201    17601.006   -7572.3564   -7437.8132    6129.1546    81.028965 
   43200    648.57991   -107.64299   0.58684873   -107.05614    5658.0745    4.3280831    4.3280831    4.3280831    5658.0745    21615.605   -17905.014    13263.633    15215.228    2256.0873   -9994.5824    81.074967 
   43300    629.61867   -107.62602   0.56969221   -107.05633   -2123.9242    4.3261564    4.3261564    4.3261564   -2123.9242   -1681.0248   -3563.1722   -1127.5757   -13539.137   -584.91463   -8609.5473    80.966739 
   43400    614.00465    -107.6127   0.55556431   -107.05714    4251.3124    4.3280936    4.3280936    4.3280936    4251.3124    19795.332   -8960.6312    1919.2362    4427.5671    -213.1816    4231.7487    81.075554 
   43500    762.48963    -107.7482   0.68991664   -107.05828   -8007.4583      4.32774      4.32774      4.32774   -8007.4583    8063.4914   -29101.475   -2984.3914    4707.2593    3870.7659   -14542.455    81.055685 
   43600    792.89484   -107.77534   0.71742791   -107.05791    2671.6409    4.3242893    4.3242893    4.3242893    2671.6409    326.37549    689.64777    6998.8995   -10067.341   -4290.4696     147.8462     80.86195 
   43700    768.22456   -107.75195   0.69510572   -107.05684   -4310.5271    4.3315328    4.3315328    4.3315328   -4310.5271    5817.8554   -10902.504   -7846.9323    6054.9144   -808.75536    3800.3574    81.268983 
   43800    597.21307   -107.59796   0.54037094   -107.05759    1490.0722    4.3244257    4.3244257    4.3244257    1490.0722    18800.298    -19003.52    4673.4388   -1539.0575   -68.861407   -16329.077    80.869602 
   43900    667.92736   -107.66128   0.60435471   -107.05693    8046.0124    4.3261856    4.3261856    4.3261856    8046.0124    15604.226    1063.6864    7470.1245   -3286.4408    3351.3101    4771.8199    80.968376 
   44000    623.89155   -107.62285   0.56451018   -107.05834    -4095.245    4.3315084    4.3315084    4.3315084    -4095.245    15828.921   -17223.037   -10891.619     7153.426   -2104.1478   -7118.5299    81.267612 
   44100    758.16158   -107.74239   0.68600053   -107.05639    1465.6483    4.3241077    4.3241077    4.3241077    1465.6483    7491.2908   -4184.8989    1090.5531   -4329.6271   -152.11469    -15367.54    80.851764 
   44200    853.28309   -107.82712   0.77206848   -107.05505    3610.2057    4.3266544    4.3266544    4.3266544    3610.2057     11216.43    6840.0947   -7225.9069   -4193.3188   -3653.9026    8631.3141    80.994703 
   44300     487.0258   -107.50123   0.44067117   -107.06055   -19330.109    4.3322691    4.3322691    4.3322691   -19330.109    4463.8005   -30094.827     -32359.3    7350.8516   -3785.5139   -16496.648    81.310435 
   44400    820.58475   -107.79963   0.74248233   -107.05715    4359.3761    4.3229272    4.3229272    4.3229272    4359.3761    8037.6974   -4431.1248    9471.5558   -15180.018    -83.54592   -5757.5929    80.785566 
   44500    796.41084    -107.7781   0.72060927   -107.05749   -1062.5977    4.3283088    4.3283088    4.3283088   -1062.5977    11950.186   -9181.6785   -5956.3012    3431.0125    911.01328    1307.3718    81.087649 
   44600    404.05305   -107.42974   0.36559569   -107.06414   -12397.418    4.3299991    4.3299991    4.3299991   -12397.418    2537.5106   -18662.421   -21067.345    634.92258    5689.3497   -23036.098    81.182684 
   44700    910.61601   -107.87823    0.8239445   -107.05428    12481.065    4.3253001    4.3253001    4.3253001    12481.065    13022.567    18043.283    6377.3466   -8358.6749    1856.7367    4554.4144     80.91867 
   44800    623.34663   -107.62619   0.56401713   -107.06217   -7450.4819    4.3280228    4.3280228    4.3280228   -7450.4819    28171.796   -20189.769   -30333.473    13987.282    3194.9357   -12618.358    81.071577 
   44900    507.68357   -107.52309   0.45936276   -107.06373   -2072.2142    4.3293291    4.3293291    4.3293291   -2072.2142    17869.654    712.41662   -24798.713     1588.369    105.22035   -12657.689    81.145006 
   45000    1092.7274   -108.04231   0.98872274   -107.05359    4426.1185    4.3266262    4.3266262    4.3266262    4426.1185    4949.8036    11560.517   -3231.9651     3109.084   -1195.9559    4395.5181    80.993122 
   45100    403.88626   -107.42998   0.36544477   -107.06454   -884.61417     4.322564     4.322564     4.322564   -884.61417    24403.313   -6759.1531   -20298.003    2301.7693   -1079.5657   -19908.342    80.765202 
   45200     660.9115   -107.66071   0.59800662    -107.0627   -4299.8691    4.3311306    4.3311306    4.3311306   -4299.8691   -4430.6788    7268.5869   -15737.516    3540.3121    4023.7858    1042.1813    81.246347 
   45300    913.62379   -107.88403     0.826666   -107.05736    1668.1527    4.3274812    4.3274812    4.3274812    1668.1527    16774.178      2065.58     -13835.3   -6295.3909   -503.45471   -7861.1142    81.041144 
   45400    513.10194   -107.52688   0.46426542   -107.06262    4892.7454    4.3216154    4.3216154    4.3216154    4892.7454    37777.327   -4410.4309    -18688.66    7353.2529    2281.6857   -16013.774    80.712043 
   45500    854.86513   -107.83054   0.77349993   -107.05704   -4078.3084    4.3319169    4.3319169    4.3319169   -4078.3084   -8237.1469    8759.6827   -12757.461   -410.99094    1248.8008    8847.4798    81.290605 
   45600    578.57744   -107.58157   0.52350902   -107.05806    -145.6266    4.3261453    4.3261453    4.3261453    -145.6266    11828.237    6927.9896   -19193.106   -3272.1695    1503.0916   -19003.644    80.966117 
   45700    603.60965   -107.60473    0.5461587   -107.05857   -2401.3858    4.3234029    4.3234029    4.3234029   -2401.3858    13277.304   -5616.6041   -14864.858    6584.7025   -4028.2694   -806.01025    80.812235 
   45800    892.40648    -107.8631   0.80746814   -107.05563   -2962.2209    4.3317126    4.3317126    4.3317126   -2962.2209    5381.5276    5975.9383   -20244.129   -3061.7802    3865.5901    5599.4026    81.279101 
   45900     721.1583   -107.71141   0.65251918   -107.05889   -377.19614    4.3246654    4.3246654    4.3246654   -377.19614    26394.979   -7721.5865   -19804.981    4177.0107    996.50904   -19977.013    80.883051 
   46000    644.84073   -107.64113   0.58346544   -107.05766    -2584.227    4.3275953    4.3275953    4.3275953    -2584.227    10717.714   -5934.8924   -12535.503     8704.174    48.229161    12725.586    81.047553 
   46100    662.96793    -107.6546   0.59986732   -107.05473    15.975538    4.3294047    4.3294047    4.3294047    15.975538   -2043.4255    16801.503   -14710.151    2664.8528    1388.1055   -7333.7083     81.14926 
   46200    475.25562   -107.48765   0.43002127   -107.05763   -1578.6826    4.3275303    4.3275303    4.3275303   -1578.6826    21571.348   -4495.2939   -21812.102    6347.5211    2005.2639   -7997.3163    81.043902 
   46300    836.24038   -107.81227   0.75664787   -107.05562   -3193.4255    4.3262247    4.3262247    4.3262247   -3193.4255    7914.8968   -1844.2462   -15650.927    5599.5574    66.757082    18398.088    80.970571 
   46400    896.61812   -107.86787   0.81127891   -107.05659    2899.7816    4.3241913    4.3241913    4.3241913    2899.7816    12187.646    8140.7091    -11629.01   -9123.6027   -404.73684   -13620.692    80.856457 
   46500    590.66244   -107.59453   0.53444379   -107.06009   -18891.216    4.3329996    4.3329996    4.3329996   -18891.216    -2182.948   -26528.667   -27962.032    7869.3325    2454.9435    12278.881    81.351572 
   46600      678.254   -107.66876   0.61369847   -107.05506   -2229.9097    4.3247308    4.3247308    4.3247308   -2229.9097   -1273.2398    1437.2911   -6853.7805   -3681.5831    2904.0219    11381.116    80.886723 
   46700     618.0292   -107.61542   0.55920581   -107.05622    1605.9883    4.3234021    4.3234021    4.3234021    1605.9883    2301.6885    11378.157   -8861.8806   -6357.7375     2853.042   -14007.663    80.812189 
   46800    562.31693   -107.56945   0.50879618   -107.06065   -6842.7299    4.3319204    4.3319204    4.3319204   -6842.7299    24137.431   -18502.087   -26163.534    10314.241    1009.7346    20003.534    81.290801 
   46900    993.14774    -107.9537   0.89862095   -107.05507    7539.6573    4.3242972    4.3242972    4.3242972    7539.6573    9455.6135    11446.798    1716.5601   -9422.1145    5481.8346   -3123.0987    80.862396 
   47000     681.5956   -107.67571   0.61672202   -107.05898   -3481.4811    4.3280515    4.3280515    4.3280515   -3481.4811    4190.3187   -815.93865   -13818.823   -1343.3183   -1150.7612   -363.05573     81.07319 
   47100    592.45138   -107.59469   0.53606246   -107.05862   -13570.874    4.3304683    4.3304683    4.3304683   -13570.874    -5424.704   -12139.578   -23148.341    4185.7175   -1756.5547    24163.079    81.209082 
   47200    746.44955   -107.72898   0.67540324   -107.05358    7733.0391     4.323254     4.323254     4.323254    7733.0391   -15359.706    31911.144    6647.6784   -10968.995   -542.78562   -5603.9212    80.803885 
   47300     622.9228   -107.62272   0.56363364   -107.05909    -3378.538    4.3287055    4.3287055    4.3287055    -3378.538    12638.324    3176.3735   -25950.312    2715.6714   -1298.8478    14424.309    81.109948 
   47400    796.54039   -107.77875   0.72072649   -107.05802    3197.4158    4.3299557    4.3299557    4.3299557    3197.4158     15746.03    12745.548    -18899.33    5021.6894   -2412.6334    13429.376    81.180244 
   47500    903.15803   -107.87169   0.81719636    -107.0545    7727.2103    4.3233777    4.3233777    4.3233777    7727.2103    3620.0276    14858.102    4703.5012   -16129.125   -2576.7993   -7054.9107    80.810821 
   47600    469.51113   -107.48539   0.42482354   -107.06057   -2625.2211    4.3286991    4.3286991    4.3286991   -2625.2211    24859.411   -3192.9219   -29542.153    2937.3415    2717.8458    24835.069    81.109588 
   47700    644.25336   -107.63916   0.58293398   -107.05623   -2725.4062    4.3309218    4.3309218    4.3309218   -2725.4062   -15849.504    18738.713   -11065.428   -4979.0382   -3513.0954    3578.8812    81.234595 
   47800     703.5496   -107.69295   0.63658646   -107.05636    2829.7861    4.3216525    4.3216525    4.3216525    2829.7861   -3664.5508    10818.619    1335.2907   -20213.835    1129.7195    4201.6583    80.714125 
   47900    738.51468   -107.72766    0.6682236   -107.05944   -6769.2138     4.328843     4.328843     4.328843   -6769.2138    11900.108   -4230.8423   -27976.907     13015.25   -533.83447    26692.221    81.117679 
   48000    909.95118   -107.87893   0.82334295   -107.05559   -9614.6234    4.3311875    4.3311875    4.3311875   -9614.6234   -23974.121   -3964.8058   -904.94369   -16596.742   -1279.1162   -4602.8688    81.249547 
   48100    586.36846   -107.58967   0.53055851   -107.05911    4714.2012    4.3203638    4.3203638    4.3203638    4714.2012    7297.5364    8322.5597   -1477.4925   -13813.732   -552.93463    12831.721     80.64194 
   48200    575.37629   -107.58074   0.52061256   -107.06012   -7378.8838    4.3315966    4.3315966    4.3315966   -7378.8838    5520.8188   -737.43664   -26920.034    1597.8104   -236.17928    14100.998    81.272572 
   48300    596.46301   -107.59771   0.53969226   -107.05802   -6136.8648    4.3312731    4.3312731    4.3312731   -6136.8648   -17685.816    -651.9703   -72.807658   -26642.048   -1928.7834   -6696.9041    81.254364 
   48400    838.66933    -107.8144   0.75884564   -107.05555    5182.3294    4.3151949    4.3151949    4.3151949    5182.3294    28636.517   -3865.9277   -9223.6013   -2251.3369    4464.8564    23074.798    80.352841 
   48500    777.85375   -107.76198   0.70381842   -107.05816   -12773.768    4.3355347    4.3355347    4.3355347   -12773.768   -14681.225   -7111.6585    -16528.42    1023.9016    1234.1878    2411.6357    81.494441 
   48600    661.70652   -107.65757   0.59872596   -107.05884   -6431.0769    4.3266365    4.3266365    4.3266365   -6431.0769   -18902.752   -7443.9637     7053.485   -18391.618   -3122.0084   -180.54082    80.993696 
   48700    692.41017   -107.68112   0.62650727   -107.05461     3509.894    4.3208545    4.3208545    4.3208545     3509.894    12778.868    2103.8376   -4353.0231    5758.2464     5272.123    21765.149     80.66942 
   48800    509.00816   -107.51705   0.46056128   -107.05649   -13547.213    4.3350635    4.3350635    4.3350635   -13547.213   -25688.486    -13107.74   -1845.4127    -9604.686   -4878.8631   -8369.7853    81.467876 
   48900    762.24676   -107.74544   0.68969688   -107.05574    2459.3968    4.3212765    4.3212765    4.3212765    2459.3968    2602.6805   -461.26253    5236.7724   -14238.863   -5022.7044     6108.152    80.693056 
   49000    941.49313   -107.90687   0.85188277   -107.05499    2652.5883    4.3274494    4.3274494    4.3274494    2652.5883    12557.961    5926.6908   -10526.887    5490.9514   -122.98411    13971.405    81.039357 
   49100    496.08813   -107.51019   0.44887097   -107.06132   -2644.2671    4.3293265    4.3293265    4.3293265   -2644.2671   -8912.4403   -4232.6395    5212.2786   -11780.301   -3828.6186    -10753.66    81.144859 
   49200    726.25239   -107.71241   0.65712843   -107.05528    1920.8837    4.3255108    4.3255108    4.3255108    1920.8837    7416.6226    4319.5952   -5973.5666   -5232.5406   -406.83873    1622.6049    80.930493 
   49300    636.63413   -107.63234   0.57603994    -107.0563   -2327.7615    4.3288331    4.3288331    4.3288331   -2327.7615   -4151.4957     3823.706   -6655.4949    5233.6197    6568.2037     4734.216    81.117122 
   49400    564.53663   -107.57147   0.51080461   -107.06066    883.43288    4.3219468    4.3219468    4.3219468    883.43288   -14536.286    7951.3518    9235.2325   -17913.593   -712.33163   -13932.283    80.730615 
   49500    1076.5085   -108.02925   0.97404754   -107.05521   -5518.4249    4.3353842    4.3353842    4.3353842   -5518.4249   -7283.0106    4683.3514   -13955.616   -1961.7239    3324.1555   -1706.0136    81.485958 
   49600    714.34169   -107.70668   0.64635138   -107.06033    2750.3394    4.3232499    4.3232499    4.3232499    2750.3394   -9672.4505    17077.999    845.46991    1766.9489    8763.6713    2068.9881    80.803657 
   49700    451.02073   -107.47026   0.40809303   -107.06217    5353.4793    4.3200694    4.3200694    4.3200694    5353.4793    5756.2172    2818.7559    7485.4647   -16479.205   -7618.4865   -10468.815    80.625456 
   49800    770.24463   -107.75196   0.69693353   -107.05503   -8950.7771    4.3379823    4.3379823    4.3379823   -8950.7771   -4240.6123    1837.9744   -24449.693    7309.1497    8755.6938    2574.9374    81.632544 
   49900    532.29859   -107.54061   0.48163495   -107.05898    11475.094    4.3178673    4.3178673    4.3178673    11475.094     4892.713    20995.585    8536.9842   -6645.8369    1743.6385   -2016.2461    80.502225 
   50000    812.97595   -107.79599   0.73559772   -107.06039   -9313.0508     4.329524     4.329524     4.329524   -9313.0508   -6396.6468   -13508.738   -8033.7679   -15194.511   -2390.9266   -11181.291    81.155965 
   50100    949.73899   -107.91429    0.8593438   -107.05494   -840.13158    4.3291704    4.3291704    4.3291704   -840.13158   -5880.5494     15934.04   -12573.885    6537.9715    12259.146    3359.9377    81.136086 
   50200    541.08123   -107.54806   0.48958167   -107.05848    2201.4888    4.3197612    4.3197612    4.3197612    2201.4888   -3623.1226    2045.3259    8182.2631   -9383.5926   -3569.9219   -8602.3727    80.608199 
   50300    525.66144   -107.53455   0.47562952   -107.05892   -13845.419    4.3344026    4.3344026    4.3344026   -13845.419    369.66108   -16745.799    -25160.12   -4649.6242    1722.1603   -6207.6626     81.43062 
   50400    768.68495   -107.75037    0.6955223   -107.05485     5747.566    4.3225819    4.3225819    4.3225819     5747.566    7832.5338    18592.324   -9182.1599     4548.129    8968.5701    6194.7968    80.766208 
   50500     717.4476   -107.70757   0.64916166   -107.05841   -4253.0806     4.326786     4.326786     4.326786   -4253.0806    62.160634   -11223.256   -1598.1462   -9208.0659   -10130.047   -12475.839    81.002092 
   50600    787.68759    -107.7698   0.71271628   -107.05708   -6564.8766    4.3280687    4.3280687    4.3280687   -6564.8766    3614.2941   -10236.731   -13072.192   -7645.2001    8513.8725   -2617.0319    81.074156 
   50700    721.05857     -107.709   0.65242895   -107.05657    3340.8543    4.3232714    4.3232714    4.3232714    3340.8543   -7300.8669    16013.961    1309.4692    1493.9188    7743.9074    3818.9394    80.804866 
   50800    524.35759   -107.53212   0.47444976   -107.05767   -9172.7835    4.3317213    4.3317213    4.3317213   -9172.7835   -8784.9751   -7838.8719   -10894.503   -12221.594   -7359.5535   -10858.111    81.279595 
   50900    692.62369   -107.68377   0.62670047   -107.05707    3125.8815    4.3217082    4.3217082    4.3217082    3125.8815    8606.5027    15905.911   -15134.769    2738.6367    18997.035    4101.7478    80.717242 
   51000    818.62028   -107.79705   0.74070484   -107.05634         4093     4.329529     4.329529     4.329529         4093    10354.402    14194.125   -12269.528   -1958.1375   -2796.5371     4672.136    81.156249 
   51100     736.9813   -107.72496   0.66683617   -107.05812   -2955.3231    4.3277901    4.3277901    4.3277901   -2955.3231    12657.123   -12593.355   -8929.7377   -11364.328   -3895.7876   -3562.4139      81.0585 
   51200    638.42756   -107.63382   0.57766267   -107.05615    8963.3605    4.3217198    4.3217198    4.3217198    8963.3605     15417.18    21609.677   -10136.776    2375.5129    13334.389    9795.4601    80.717895 
   51300    686.80943   -107.67675    0.6214396   -107.05531   -11589.021    4.3337019    4.3337019    4.3337019   -11589.021    -16947.64    1238.2723   -19057.695   -8023.5218   -13762.456   -4268.9753    81.391137 
   51400    610.99338   -107.61091   0.55283965   -107.05807    8587.2244    4.3186631    4.3186631    4.3186631    8587.2244    9398.1923    18860.868   -2497.3873   -6206.1967    4002.4607    1015.8758    80.546742 
   51500    860.46164    -107.8371   0.77856378   -107.05853    2957.9938    4.3282321    4.3282321    4.3282321    2957.9938    8029.0731      17721.3   -16876.392    2847.1327    7995.2525    5822.0034    81.083339 
   51600    728.86974   -107.71835   0.65949666   -107.05885    493.91129    4.3305346    4.3305346    4.3305346    493.91129    3240.8368    3893.6829   -5652.7858   -2177.5423   -16204.824   -8444.6066    81.212811 
   51700    600.83553   -107.59951   0.54364861   -107.05586    12961.098    4.3180599    4.3180599    4.3180599    12961.098    23793.752    17023.924   -1934.3819    -9084.607    10387.233     9420.955    80.512993 
   51800    715.21314   -107.70117   0.64713988   -107.05403   -8236.7655    4.3338343    4.3338343    4.3338343   -8236.7655    782.36998    2905.9008   -28398.567     4296.295   -7015.2472    3813.6769    81.398595 
   51900    579.89969    -107.5827   0.52470542     -107.058    6073.4599    4.3230609    4.3230609    4.3230609    6073.4599   -7477.2133      26709.5   -1011.9067   -6282.7019   -14004.899   -4318.3873    80.793061 
   52000    918.46676   -107.88946   0.83104803   -107.05841    634.23299    4.3234911    4.3234911    4.3234911    634.23299    10161.423   -664.13056    -7594.593   -7614.7502    10107.677    10641.483     80.81718 
   52100    773.69952     -107.758   0.70005958   -107.05794    771.48761    4.3304752    4.3304752    4.3304752    771.48761   -2985.6951    11941.556    -6641.398     11182.35   -15297.113    1347.4787    81.209466 
   52200     542.2112   -107.54873   0.49060409   -107.05812    4214.2554     4.323994     4.323994     4.323994    4214.2554     9616.309   -2212.7173    5239.1745   -14733.538   -1454.6833   -2098.4838     80.84539 
   52300    716.04456    -107.7028   0.64789216   -107.05491    -4389.554    4.3282038    4.3282038    4.3282038    -4389.554     17532.82   -11533.155   -19168.327   -4761.1301    2116.6832    9012.5254    81.081747 
   52400    614.47718   -107.61347   0.55599187   -107.05748    7554.0545    4.3227703    4.3227703    4.3227703    7554.0545   -1801.0334     31067.26    -6604.063    875.64823   -15943.154    186.79866    80.776768 
   52500    732.97058   -107.72347   0.66320719   -107.06026   -8587.5633    4.3324441    4.3324441    4.3324441   -8587.5633   -2915.6672   -18065.358   -4781.6646   -16167.837    1725.6951    2743.9717    81.320289 
   52600    902.74308   -107.87223   0.81682091   -107.05541    5008.7987    4.3230845    4.3230845    4.3230845    5008.7987    7964.3292    12143.635   -5081.5679    2309.2543   -8165.7312    3393.2151    80.794386 
   52700    558.43635   -107.56385   0.50528494   -107.05856    4479.8372    4.3215655    4.3215655    4.3215655    4479.8372    4695.0753    3785.7158    4958.7204    1790.3083    -12117.37    581.70086    80.709245 
   52800     558.2298   -107.56273   0.50509805   -107.05764   -21357.621    4.3379688    4.3379688    4.3379688   -21357.621   -1329.5083   -42320.547   -20422.806   -18169.799    3419.3108    5988.9706    81.631783 
   52900    859.42441   -107.83114   0.77762527   -107.05352    18573.523    4.3128924    4.3128924    4.3128924    18573.523    31684.226    26186.667   -2150.3251    3222.2507   -11836.721    746.10337    80.224287 
   53000    646.63634   -107.64851   0.58509015   -107.06342   -5529.4088    4.3284724    4.3284724    4.3284724   -5529.4088   -14754.877   -2182.7512    349.40132   -7953.4924   -4892.2274    1872.0303    81.096846 
   53100    714.65066   -107.70557   0.64663094   -107.05893   -9599.5678    4.3345078    4.3345078    4.3345078   -9599.5678   -4013.8885    -15396.22   -9388.5953   -15855.056    5075.7878    4154.3178    81.436548 
   53200    840.02345   -107.81136   0.76007087   -107.05129    17582.181    4.3139177    4.3139177    4.3139177    17582.181    19335.338    30178.388     3232.816    11732.509   -10481.881    239.62157    80.281514 
   53300     375.3584   -107.40112   0.33963217   -107.06149   -17901.817    4.3325902    4.3325902    4.3325902   -17901.817   -8290.4356   -40753.485   -4661.5302   -20943.436    1289.7261   -1767.9728    81.328515 
   53400    817.79336   -107.79847   0.73995662   -107.05852    440.58846    4.3265134    4.3265134    4.3265134    440.58846    7764.1243    1744.9764   -8187.3353   -7639.8766     3396.551    3398.8355    80.986783 
   53500    921.46391   -107.88981   0.83375991   -107.05605    10115.331    4.3207885    4.3207885    4.3207885    10115.331    6015.6032    15933.281    8397.1094   -509.21825   -7167.5734   -5470.6521    80.665721 
   53600    449.64009   -107.47173    0.4068438   -107.06488   -7703.6085    4.3285349    4.3285349    4.3285349   -7703.6085   -16529.075   -15178.356    8596.6055   -17409.823    4953.9578   -271.67998    81.100357 
   53700    849.09908   -107.82518   0.76828269   -107.05689    6338.4189    4.3266561    4.3266561    4.3266561    6338.4189    11517.095    17103.698   -9605.5366    4033.5319     5995.681    1238.2314    80.994798 
   53800    634.75842   -107.63372   0.57434276   -107.05938   -3185.5417    4.3255087    4.3255087    4.3255087   -3185.5417    7660.7607    -16020.74   -1196.6463   -9859.1397   -1698.7321   -2901.3552    80.930376 
   53900    441.36121   -107.46428    0.3993529   -107.06493   -4059.0764    4.3260787    4.3260787    4.3260787   -4059.0764   -11138.723    1202.4926   -2240.9984   -17190.597    6774.3672    1538.4889    80.962378 
   54000    1107.9698   -108.05801    1.0025144    -107.0555    8231.1934    4.3265235    4.3265235    4.3265235    8231.1934    8142.4065    21471.689   -4920.5153    2196.2616    6635.8122    1237.1283    80.987355 
   54100    606.31516   -107.61186    0.5486067   -107.06325   -624.02386    4.3243894    4.3243894    4.3243894   -624.02386   -13017.261    3323.2293    7821.9602   -18315.693   -1420.2855   -4662.2308    80.867568 
   54200    550.80313   -107.56192   0.49837825   -107.06354    -10602.11    4.3280485    4.3280485    4.3280485    -10602.11   -11768.561   -11624.464   -8413.3059   -2291.0419    10434.479     563.0207     81.07302 
   54300    888.15716   -107.85934   0.80362327   -107.05572    6310.7275    4.3241966    4.3241966    4.3241966    6310.7275    15013.545    18867.001   -14948.363    1535.9252    -57.32019    -2349.949    80.856751 
   54400    466.12366    -107.4851   0.42175848   -107.06334   -11451.812     4.329743     4.329743     4.329743   -11451.812   -14892.763   -10091.934   -9370.7387   -19067.921    412.24819   -3781.8614    81.168284 
   54500    872.60884   -107.84872   0.78955482   -107.05916    7755.7028    4.3207392    4.3207392    4.3207392    7755.7028    981.18152    27857.377   -5571.4504    4175.1477    10314.085    2725.0399     80.66296 
   54600    818.37333   -107.79964   0.74048138   -107.05916     408.7401    4.3274423    4.3274423    4.3274423     408.7401   -1105.1759    12693.978   -10362.581   -6792.5468   -9860.6826   -971.15729     81.03896 
   54700    513.54295   -107.52719   0.46466445   -107.06252   -16626.359    4.3291178    4.3291178    4.3291178   -16626.359   -9873.4506    -28420.02   -11585.607   -14153.753    7267.9554    629.14724    81.133125 
   54800    759.48864   -107.74284   0.68720128   -107.05564    14750.842    4.3163102    4.3163102    4.3163102    14750.842    23342.661    30055.068   -9145.2028    8048.9886    975.40706    401.77379    80.415161 
   54900    662.79382   -107.65927   0.59970978   -107.05957   -17891.962    4.3362695    4.3362695    4.3362695   -17891.962   -16382.138   -12493.078   -24800.672   -16291.963   -12636.918   -1175.2568    81.535887 
   55000     719.9737   -107.70926   0.65144733   -107.05781    12198.948    4.3207994    4.3207994    4.3207994    12198.948    17080.606    12391.555    7124.6834   -10011.662    8497.4122    346.43128    80.666332 
   55100    828.38202   -107.80465   0.74953746   -107.05511    1673.2849    4.3237039    4.3237039    4.3237039    1673.2849   -3669.5694    24782.494   -16093.069    1395.1242     -15431.2   -750.08248    80.829118 
   55200    410.58762   -107.43054   0.37150831   -107.05903   -14950.925      4.33225      4.33225      4.33225   -14950.925    702.07883   -19439.464    -26115.39   -15996.626   -7117.2505   -174.48635    81.309359 
   55300    775.54228   -107.75588   0.70172696   -107.05415    6214.2507    4.3171989    4.3171989    4.3171989    6214.2507    15211.383    8448.0106    -5016.641   -3439.6578    1804.5412   -880.77314    80.464842 
   55400     758.7735   -107.74471   0.68655421   -107.05815   -12960.123    4.3321754    4.3321754    4.3321754   -12960.123   -16089.591    7394.8572   -30185.635    6998.5107   -20903.107    1584.7789     81.30516 
   55500    754.76831    -107.7423   0.68293023   -107.05937    2094.2698    4.3210751    4.3210751    4.3210751    2094.2698    12783.677    -4667.739   -1833.1285   -15172.437    3766.6427   -1575.4359    80.681775 
   55600     758.5398   -107.74513   0.68634276   -107.05879    5818.0865     4.325347     4.325347     4.325347    5818.0865   -112.21381    30675.018   -13108.544    1200.4299   -7495.0846   -1323.2361    80.921304 
   55700    602.60524   -107.60469   0.54524988   -107.05944   -2914.5593     4.327138     4.327138     4.327138   -2914.5593    7095.3658    11199.154   -27038.197    -3138.994    -13865.97    2390.3813    81.021865 
   55800    526.16913   -107.53555   0.47608889   -107.05946    7759.9004    4.3221878    4.3221878    4.3221878    7759.9004    25991.964    6895.4134   -9607.6763   -15248.645    5081.5694   -4109.5438    80.744116 
   55900    930.53269   -107.89691   0.84196553   -107.05495   -8438.7758    4.3322012    4.3322012    4.3322012   -8438.7758   -11168.923    8499.9008   -22647.305    5753.5255   -16646.584    1761.8971    81.306609 
   56000    809.93165   -107.78916   0.73284318   -107.05632    14151.388     4.315755     4.315755     4.315755    14151.388    16867.836    23767.562    1818.7671   -7446.8812   -5025.8167    1278.3986    80.384135 
   56100     549.9753   -107.55998   0.49762921   -107.06235   -4164.3745    4.3321332    4.3321332    4.3321332   -4164.3745    4070.0087   -1587.2861   -14975.846   -7995.7835    1271.5291   -3039.9954    81.302779 
   56200    850.41335   -107.82439   0.76947187   -107.05492     3184.757    4.3261246    4.3261246    4.3261246     3184.757    9105.5642    20157.741   -19709.034    1612.6037   -13046.431    2302.8981    80.964953 
   56300    423.82179   -107.44323   0.38348287   -107.05975    13623.672    4.3146487    4.3146487    4.3146487    13623.672    35141.949    10192.233   -4463.1671   -10312.111    6330.3433    -15.53072    80.322336 
   56400    715.93901   -107.70828   0.64779667   -107.06049   -15278.027    4.3360702    4.3360702    4.3360702   -15278.027   -472.42962   -22705.856   -22655.794    -11943.02     130.8908   -3067.2644    81.524645 
   56500    1054.1259   -108.00714   0.95379526   -107.05334    16698.055    4.3175941    4.3175941    4.3175941    16698.055     22758.81    23330.321    4005.0341     4845.701   -6522.0167    1371.2981    80.486945 
   56600     418.4135   -107.44338   0.37858933   -107.06479   -19491.915    4.3266953    4.3266953    4.3266953   -19491.915   -8661.0753   -29226.225   -20588.446   -11147.751    8220.4843   -13.179406    80.996999 
   56700    749.75342   -107.73766   0.67839265   -107.05927   -2117.5333    4.3258325    4.3258325    4.3258325   -2117.5333    14786.532   -1705.5808   -19433.552   -5912.3864    1176.6863   -2415.1349    80.948555 
   56800    837.53557   -107.81617   0.75781979   -107.05835   -2737.5483    4.3237828    4.3237828    4.3237828   -2737.5483    6701.2836    986.58809   -15900.517    10758.497   -2774.2012    2619.6448    80.833544 
   56900    321.78056   -107.35807   0.29115381   -107.06692   -14914.212    4.3291358    4.3291358    4.3291358   -14914.212   -117.95302   -23281.237   -21343.446   -18579.066    10432.192    509.97091    81.134141 
   57000     1088.586   -108.04078   0.98497552    -107.0558    13372.842    4.3172416    4.3172416    4.3172416    13372.842    16777.847    15570.397    7770.2804    2777.5557    2155.9056    137.74521    80.467232 
   57100    627.19625   -107.63067   0.56750035   -107.06317   -15501.184    4.3326209    4.3326209    4.3326209   -15501.184    289.35082   -28912.071   -17880.833    4354.4603    339.98704    522.53942     81.33024 
   57200    437.32013   -107.46079   0.39569644   -107.06509   -4834.8626    4.3201781    4.3201781    4.3201781   -4834.8626    11348.565   -12615.452   -13237.701   -14211.236    11222.569   -2538.1963    80.631542 
   57300    930.82078   -107.89902    0.8422262    -107.0568    5930.8324     4.323695     4.323695     4.323695    5930.8324    14158.438    14874.229   -11240.169    4315.4786   -3399.6867   -1811.3286    80.828617 
   57400    587.76025   -107.59317   0.53181782   -107.06136   -11768.807    4.3319065    4.3319065    4.3319065   -11768.807    3539.4463   -24157.201   -14688.666   -664.91728    1730.4362   -1995.0125    81.290016 
   57500    697.44671   -107.68873   0.63106444   -107.05766    15427.879     4.315155     4.315155     4.315155    15427.879    22413.814    19566.313    4303.5112   -17950.665    3986.0656   -3101.9396    80.350616 
   57600    824.19378   -107.80167   0.74574785   -107.05592   -5415.6828     4.330675     4.330675     4.330675   -5415.6828    7480.2242   -2668.9459   -21058.327    12262.266   -9384.2625    3107.1807    81.220708 
   57700    561.58871   -107.56683   0.50813727    -107.0587   -4123.4109    4.3237222    4.3237222    4.3237222   -4123.4109    23225.652   -17082.069   -18513.815   -8257.7541    5523.4382   -1024.5695    80.830144 
   57800    719.47288   -107.70784   0.65099418   -107.05685    2837.4723    4.3222872    4.3222872    4.3222872    2837.4723    5870.9731    17867.432   -15225.988   -6070.4315    -251.3974    -1519.665    80.749689 
   57900    814.38916   -107.79357   0.73687642    -107.0567    -8772.858    4.3288038    4.3288038    4.3288038    -8772.858   -1234.2704   -8029.6378   -17054.666    10722.496   -7778.1482    4363.1988    81.115476 
   58000    686.56612   -107.67923   0.62121945   -107.05801    9431.8731    4.3204316    4.3204316    4.3204316    9431.8731    24707.721   -775.12628    4363.0243   -19391.576    6002.7561   -3866.4965    80.645732 
   58100    758.47009   -107.74238   0.68627967    -107.0561   -828.74403    4.3286975    4.3286975    4.3286975   -828.74403    4050.1059     13404.89   -19941.228    1360.1084   -7263.7447   -105.61967    81.109498 
   58200    575.42709   -107.57806   0.52065852    -107.0574   -1839.1021     4.322168     4.322168     4.322168   -1839.1021    18982.932   -4786.7078   -19713.531   -3159.3714   -7941.1454   -2096.7125    80.743007 
   58300    604.97953   -107.60671   0.54739819   -107.05932   -1970.2899    4.3242322    4.3242322    4.3242322   -1970.2899   -540.93166    2074.4402   -7444.3781   -16891.604    2775.9299   -4684.0464    80.858746 
   58400    891.12119   -107.86261   0.80630518    -107.0563   -3296.9522    4.3264516    4.3264516    4.3264516   -3296.9522   -8992.5887    7037.6212   -7935.8892    7066.4601   -13034.253    419.32028    80.983317 
   58500    622.86793   -107.62405   0.56358399   -107.06046     4393.208    4.3212296    4.3212296    4.3212296     4393.208    12480.702   -4546.4176    5245.3398   -5895.9667   -1053.9602   -5176.8383    80.690432 
   58600    743.97091   -107.73135   0.67316051   -107.05819   -2075.3147    4.3290414    4.3290414    4.3290414   -2075.3147    1773.1904    -4154.631   -3844.5033   -18521.617    564.87598   -1192.2785    81.128833 
   58700    697.29212   -107.68799   0.63092456   -107.05707    7695.4285    4.3202236    4.3202236    4.3202236    7695.4285    23360.149      13875.1   -14148.963    10366.331    -9644.993    2229.0921    80.634085 
   58800     397.0055    -107.4227   0.35921892   -107.06348   -10274.665    4.3264075    4.3264075    4.3264075   -10274.665   -8557.6242    -9000.618   -13265.752   -19003.443    2592.8233   -4014.6934     80.98084 
   58900    1016.7123   -107.97644   0.91994268   -107.05649   -59.264668    4.3255129    4.3255129    4.3255129   -59.264668   -1977.4131    1751.5777    48.041359   -9157.5406   -3314.7962   -345.84134    80.930614 
   59000    804.88726   -107.78808   0.72827891    -107.0598    4338.1314    4.3210576    4.3210576    4.3210576    4338.1314    7037.0131    8791.5641   -2814.1829    9873.3406   -4893.5605    917.45824    80.680796 
   59100      422.422   -107.44647    0.3822163   -107.06425   -15642.736    4.3305712    4.3305712    4.3305712   -15642.736   -5418.3367   -28454.997   -13054.875   -25679.152    3697.9585   -6072.5999    81.214871 
   59200    947.17436   -107.91212   0.85702327    -107.0551    11710.828    4.3185574    4.3185574    4.3185574    11710.828    26084.996    12357.468   -3309.9786    3967.3764    52.012139    821.12403    80.540828 
   59300    479.99175   -107.49807   0.43430663   -107.06376   -3862.0339    4.3265441    4.3265441    4.3265441   -3862.0339    1387.6427   -1899.1563   -11074.588   -6598.2749   -976.14753    781.11618    80.988507 
   59400    659.84024   -107.66217   0.59703732   -107.06514   -9530.4691    4.3280983    4.3280983    4.3280983   -9530.4691   -14891.981   -11989.752   -1709.6744   -18884.664    3811.0163   -2334.7653     81.07582 
   59500    1084.2727   -108.03515   0.98107273   -107.05408    18167.962    4.3183082    4.3183082    4.3183082    18167.962    22158.535    19477.812    12867.539    7305.4332    644.51064    3247.3337    80.526888 
   59600    441.40453   -107.46348   0.39939209   -107.06409   -13288.372    4.3294773    4.3294773    4.3294773   -13288.372   -1938.8281   -29260.963   -8665.3239   -12735.936   -4.1032508   -2622.5214    81.153341 
   59700    539.47896   -107.54945    0.4881319   -107.06131   -355.62532    4.3219073    4.3219073    4.3219073   -355.62532    13700.948    -2765.817   -12002.007   -14138.042    7918.0387   -1005.2464    80.728399 
   59800    852.75337   -107.82863   0.77158917   -107.05704    7031.5557    4.3237106    4.3237106    4.3237106    7031.5557    19506.834    11630.745   -10042.912    3349.0376    263.46013    764.71651    80.829491 
   59900    600.11874   -107.60573   0.54300004   -107.06273   -8732.6375    4.3288059    4.3288059    4.3288059   -8732.6375   -4130.3267   -20028.287   -2039.2988   -22884.644    4812.4641   -5320.6466    81.115593 
   60000    865.12122   -107.84009   0.78277986   -107.05731    10333.551    4.3204488    4.3204488    4.3204488    10333.551    10038.014    20546.032    416.60706   -3618.7498    9662.5013    2876.2028    80.646699 
   60100    744.06968   -107.73007   0.67324988   -107.05682   -4864.5223    4.3281252    4.3281252    4.3281252   -4864.5223    6869.9987   -5547.6304   -15915.935   -721.69472   -4261.9839     2096.567    81.077332 
   60200    414.66688    -107.4356   0.37519931    -107.0604    -4634.852    4.3233271    4.3233271    4.3233271    -4634.852    16540.383   -15290.293   -15154.647   -21327.917    6384.8983   -4726.1556    80.807986 
   60300    885.44615   -107.85694   0.80117028   -107.05577    -1391.025    4.3251067    4.3251067    4.3251067    -1391.025    -2174.322    21231.095   -23229.848    6953.2293    999.13259    5329.5962    80.907815 
   60400    721.69472   -107.71295   0.65300455   -107.05995    -2637.039     4.324931     4.324931     4.324931    -2637.039     12988.04   -13167.307   -7731.8499   -10438.415   -7298.8241   -2933.0222    80.897956 
   60500    711.17778   -107.70465    0.6434886   -107.06117    5515.2086    4.3214746    4.3214746    4.3214746    5515.2086    2202.4181    7203.4755     7139.732   -14202.669    7341.0579    -9141.073    80.704154 
   60600    761.41534   -107.74505    0.6889446   -107.05611    827.19133    4.3308476    4.3308476    4.3308476    827.19133   -142.82297    20556.969   -17932.572    8735.3004   -2310.7557    1341.9137    81.230419 
   60700    425.71993   -107.44624   0.38520034   -107.06104    5321.4056    4.3180131    4.3180131    4.3180131    5321.4056    21091.181    -4800.007   -326.95679   -15810.861   -2006.8403   -5198.0875    80.510381 
   60800    734.00757   -107.72309   0.66414547   -107.05895    1635.9548    4.3280986    4.3280986    4.3280986    1635.9548    380.95994    15277.884   -10750.979   -7902.4951    4507.3103   -4482.9046    81.075836 
   60900    952.96571   -107.91885    0.8622634   -107.05659   -2139.2446    4.3272382    4.3272382    4.3272382   -2139.2446    2336.2029     1948.716   -10702.653    1991.4317    -5593.576    5925.2935    81.027494 
   61000    541.21722   -107.55094   0.48970471   -107.06124    8497.6312     4.316431     4.316431     4.316431    8497.6312    14984.254   -749.75415    11258.394   -27057.134   -2163.0372   -2432.7913    80.421914 
   61100    876.63855   -107.84773   0.79320098   -107.05453   -4612.9311    4.3333996    4.3333996    4.3333996   -4612.9311   -7706.2498    13842.841   -19975.384    411.12799   -1445.6112   -1668.2802    81.374101 
   61200    557.59421   -107.56428   0.50452296   -107.05975     5742.294    4.3202646    4.3202646    4.3202646     5742.294    18330.636    11930.634   -13034.387   -1812.4038   -5784.3754    772.47035    80.636383 
   61300    562.42063   -107.57284   0.50889001   -107.06395   -1199.5687    4.3221682    4.3221682    4.3221682   -1199.5687   -2939.0043    1286.1079   -1945.8098   -24921.108   -2.0869192   -9540.4792    80.743023 
   61400    1092.8093   -108.04326   0.98879682   -107.05446    1704.6592    4.3294925    4.3294925    4.3294925    1704.6592    9919.3119    1841.2973   -6646.6314    13375.837    482.90878    -408.8353    81.154192 
   61500    528.40544   -107.54009   0.47811234   -107.06197      778.091    4.3217749    4.3217749    4.3217749      778.091   -3751.8663   -5035.9589    11122.098   -15263.414   -2057.6464   -3054.3215    80.720978 
   61600    624.76019   -107.62638   0.56529615   -107.06108   -4052.6277    4.3265256    4.3265256    4.3265256   -4052.6277   -2236.9224    -7308.002   -2612.9586   -18364.765    4327.3883   -1581.5896    80.987472 
   61700    833.55041   -107.81034   0.75421393   -107.05612     7820.607    4.3211018    4.3211018    4.3211018     7820.607    10672.847    15058.751   -2269.7773    16133.093    -2455.341    4587.3711    80.683268 
   61800     368.9685   -107.39907   0.33385045   -107.06522    -13865.87    4.3296689    4.3296689    4.3296689    -13865.87   -19298.684   -18509.335   -3789.5929   -24810.935   -3021.9592   -3700.0315    81.164117 
   61900    952.17134   -107.92012   0.86154464   -107.05858    1932.1681    4.3225877    4.3225877    4.3225877    1932.1681    5380.6921   -5707.7266    6123.5389   -1707.9649    4104.6844   -2594.9632    80.766532 
   62000    794.45249   -107.77838   0.71883731   -107.05954    9313.5926    4.3197759    4.3197759    4.3197759    9313.5926    1735.1571    6017.2476    20188.373    4978.9133   -5107.3883   -3266.2233    80.609021 
   62100    392.42552   -107.41895   0.35507486   -107.06387    -18574.37    4.3351708    4.3351708    4.3351708    -18574.37   -23697.607   -26557.874   -5467.6286   -27568.534   -1314.7618   -10249.474    81.473926 
   62200    825.40538   -107.80032   0.74684414   -107.05347    12097.419    4.3174208    4.3174208    4.3174208    12097.419    18146.204    23534.286   -5388.2341    5860.3346    6295.2404   -3623.2316    80.477252 
   62300    617.82838   -107.61855   0.55902411   -107.05953   -6160.4106    4.3250684    4.3250684    4.3250684   -6160.4106   -3343.7265   -10263.526   -4873.9792   -9461.5869   -4168.3781   -1376.5698    80.905668 
   62400     670.9416   -107.66797   0.60708206   -107.06088   -10836.999     4.329076     4.329076     4.329076   -10836.999   -4882.4009   -18489.406   -9139.1915    -20660.96    3304.0518   -6002.5255    81.130776 
   62500    990.53818   -107.95099   0.89625976   -107.05473    12860.642    4.3183858    4.3183858    4.3183858    12860.642    18095.671    18609.329    1876.9258    10609.664    9897.7147     3225.259    80.531229 
   62600    574.07084   -107.57998   0.51943136   -107.06055   -12627.447    4.3291249    4.3291249    4.3291249   -12627.447   -11947.675   -28174.747    2240.0803   -19327.668   -2717.2039     611.0819    81.133524 
   62700    527.77905   -107.53745   0.47754558    -107.0599    3912.4941    4.3218712    4.3218712    4.3218712    3912.4941    9992.8619    14775.711   -13031.091   -10796.165    9709.1937   -5530.2211    80.726379 
   62800    834.98971   -107.81233   0.75551624   -107.05681    1074.8162    4.3242565    4.3242565    4.3242565    1074.8162    9293.6295    8790.3301   -14859.511    3749.4367    11002.983     1254.048    80.860113 
   62900    662.33715   -107.66062   0.59929657   -107.06132   -1757.3129    4.3245187    4.3245187    4.3245187   -1757.3129    4186.7787   -19846.651    10387.933   -22128.502   -5011.8518    -621.1612    80.874821 
   63000    806.69176   -107.78958   0.72991166   -107.05967    1712.7774    4.3241897    4.3241897    4.3241897    1712.7774    484.98016    12683.805   -8030.4534    2271.6966    20050.993   -5561.6479    80.856365 
   63100    767.46174   -107.75161   0.69441551    -107.0572   -2748.3756     4.326244     4.326244     4.326244   -2748.3756    3294.5246   -11245.198   -294.45325   -9010.2541    1517.0619    1981.0516    80.971657 
   63200     444.9414   -107.46265   0.40259233   -107.06006    842.64569    4.3201037    4.3201037    4.3201037    842.64569    2951.4994   -2177.5624         1754   -17598.276    2721.8027   -27.026032    80.627373 
   63300    668.88236   -107.66412   0.60521881    -107.0589   -5295.1252     4.328556     4.328556     4.328556   -5295.1252    1523.0254    10967.626   -28376.028    3187.7473    20189.434   -1809.9448    81.101542 
   63400    835.16227   -107.81281   0.75567237   -107.05714    1453.3504    4.3234441    4.3234441    4.3234441    1453.3504      1601.68    -4896.525    7654.8962   -18241.805   -10168.131    877.56667    80.814549 
   63500    674.77185   -107.67018   0.61054775   -107.05963   -4088.0749    4.3221512    4.3221512    4.3221512   -4088.0749   -14570.813   -4702.4721    7009.0608   -3912.6116    12197.294   -26.831352    80.742068 
   63600    763.61013   -107.74784   0.69093049   -107.05691   -9616.9673    4.3275393    4.3275393    4.3275393   -9616.9673   -6879.0723   -814.53926    -21157.29    4292.8759    7688.4348   -2584.4537     81.04441 
   63700    670.86069    -107.6638   0.60700885    -107.0568   -5138.7055    4.3232974    4.3232974    4.3232974   -5138.7055    2077.0212   -12332.015   -5161.1234   -15682.796   -10587.127   -396.39835    80.806319 
   63800    599.42358   -107.60147   0.54237105    -107.0591   -8731.3267    4.3233231    4.3233231    4.3233231   -8731.3267    -307.1816   -6630.1399   -19256.659    4294.9541    17197.161    -4745.389    80.807762 
   63900    805.40882     -107.787   0.72875082   -107.05825   -1928.1484     4.326434     4.326434     4.326434   -1928.1484     5016.305    3342.2925   -14143.043   -2353.5901   -4035.4668   -726.50741    80.982325 
   64000     816.3859   -107.79556   0.73868311   -107.05688   -1813.4753    4.3256938    4.3256938    4.3256938   -1813.4753   -9015.3118   -4692.0986    8266.9847   -15762.049    -4014.169    -236.7193    80.940768 
   64100    568.09266   -107.57346   0.51402217   -107.05944     1328.922    4.3196791    4.3196791    4.3196791     1328.922   -312.25498     5875.312   -1576.2911    10823.599    11515.802   -5337.8683    80.603605 
   64200    580.93579   -107.58532   0.52564291   -107.05967    289.40011    4.3284225    4.3284225    4.3284225    289.40011    11118.705    7266.8992   -17517.404   -5072.6394   -15978.969    3674.4584    81.094041 
   64300    840.57394   -107.81708   0.76056897   -107.05651    2767.1021     4.322472     4.322472     4.322472    2767.1021    12706.821   -2390.5906   -2014.9246   -4987.2341     935.2066   -1632.3462    80.760046 
   64400    516.20394   -107.53018   0.46707218   -107.06311    620.04403    4.3212628    4.3212628    4.3212628    620.04403    15655.899   -314.76173   -13481.006    8688.4464     5021.079    -3933.012    80.692292 
   64500    854.13935   -107.83241   0.77284324   -107.05957   -4824.6146    4.3287306    4.3287306    4.3287306   -4824.6146    -10186.61    7350.0198   -11637.254   -3583.6574   -18355.736    291.43675    81.111356 
   64600    880.40559   -107.85375   0.79660948   -107.05714    6375.3524    4.3202113    4.3202113    4.3202113    6375.3524    24157.103    -4973.107   -57.938752    3323.8752    12173.144    556.13304    80.633397 
   64700     359.3922   -107.39014   0.32518562   -107.06496   -12239.706     4.327483     4.327483     4.327483   -12239.706   -6303.1774    1326.4731   -31742.415    3234.5206   -9749.0825   -3859.2998    81.041244 
   64800    892.08603    -107.8646   0.80717819   -107.05742    8294.0948    4.3218443    4.3218443    4.3218443    8294.0948    11921.798    9347.7607    3612.7259    4427.1888   -11818.006     1621.602     80.72487 
   64900    737.51184   -107.72718   0.66731622   -107.05987    202.23087    4.3257919    4.3257919    4.3257919    202.23087    16028.591   -5509.2705   -9912.6275    4322.5714     7475.184    811.35162    80.946275 
   65000    436.11711   -107.45914   0.39460793   -107.06453   -10942.726    4.3267928    4.3267928    4.3267928   -10942.726   -23957.154    11067.326    -19938.35    7099.4559   -17780.388   -2932.5031    81.002475 
   65100    906.43435   -107.87585   0.82016085   -107.05569    9150.3276    4.3183336    4.3183336    4.3183336    9150.3276    14543.925    8221.8889     4685.169   -2194.6065   -1120.7203    2917.3131    80.528305 
   65200    646.48923   -107.64501   0.58495704   -107.06005   -17723.108    4.3324311    4.3324311    4.3324311   -17723.108   -665.28093   -12658.415   -39845.627   -643.49803    2733.9478   -4606.2279    81.319555 
   65300     597.0816   -107.59929   0.54025198   -107.05903   -1520.5504    4.3204616    4.3204616    4.3204616   -1520.5504   -11195.765      14530.7   -7896.5858    2523.8111   -14616.594   -1728.0803    80.647415 
   65400    863.14695   -107.83687    0.7809935   -107.05587   -1380.0227    4.3229648    4.3229648    4.3229648   -1380.0227    6320.6021   -15346.184    4885.5142   -16058.002    2978.1653   -2017.5106    80.787671 
   65500    637.82438   -107.63567    0.5771169   -107.05856   -9461.6265    4.3303301    4.3303301    4.3303301   -9461.6265    575.89463   -7005.0107   -21955.763    5162.5339   -6329.0979   -4824.5567    81.201305 
   65600    776.62236   -107.75788   0.70270423   -107.05517    6804.7396    4.3184884    4.3184884    4.3184884    6804.7396    7385.7845    3059.9435    9968.4909   -4635.5422   -16470.447    1410.9389    80.536969 
   65700    576.89258   -107.57964   0.52198453   -107.05766   -8064.1219    4.3295053    4.3295053    4.3295053   -8064.1219    14659.236   -24461.885   -14389.717    -11385.66     5271.178     1586.982    81.154917 
   65800     648.1047   -107.64463   0.58641876   -107.05821   -1108.1873    4.3221504    4.3221504    4.3221504   -1108.1873    5700.0366     1201.091   -10225.689      7441.23   -16007.765   -2621.2504    80.742021 
   65900    851.51374   -107.82609   0.77046753   -107.05562    8365.0338    4.3225801    4.3225801    4.3225801    8365.0338     1461.288    8859.4079    14774.405   -8498.2933   -3972.5987    3745.3704    80.766109 
   66000    640.52694   -107.64009   0.57956223   -107.06052   -10000.479     4.328277     4.328277     4.328277   -10000.479    6339.4339   -19458.589   -16882.283   -5410.0487   -577.99912    1081.6634    81.085864 
   66100    659.99487   -107.65604   0.59717723   -107.05887    12172.293    4.3179224    4.3179224    4.3179224    12172.293    21580.338      17638.2   -2701.6598    1515.9036   -15529.851   -6659.1158    80.505302 
   66200     841.0048   -107.81601   0.76095882   -107.05505   -5663.3711    4.3301624    4.3301624    4.3301624   -5663.3711    8747.8651   -18538.584   -7199.3949   -4750.5033    4799.2364    5695.8227    81.191872 
   66300    413.04749   -107.43656   0.37373405   -107.06283   -2763.9751    4.3221133    4.3221133    4.3221133   -2763.9751    18969.796   -20959.685   -6302.0361   -3595.7229   -9223.7535   -416.73254    80.739943 
   66400    892.78994   -107.86869    0.8078151   -107.06088    8300.6619    4.3193132    4.3193132    4.3193132    8300.6619    3076.5203    10669.228    11156.237    5399.1725   -9581.0139   -2704.0629    80.583125 
   66500    878.06329   -107.85187   0.79449011   -107.05738      77.3046    4.3315451    4.3315451    4.3315451      77.3046    5968.5448   -3690.0374   -2046.5937   -4986.7066    5827.5695    6755.6784    81.269675 
   66600    341.69838   -107.37195   0.30917588   -107.06278    3.3982826    4.3216051    4.3216051    4.3216051    3.3982826    16930.684    4238.7934   -21159.282    141.03768   -14517.177    -4636.629    80.711464 
   66700     801.4014   -107.78178   0.72512483   -107.05665    4091.2586    4.3236849    4.3236849    4.3236849    4091.2586    1088.8274    11423.309   -238.36017    5758.8717   -6344.6449   -4316.9507    80.828049 
   66800    802.29399   -107.78409   0.72593246   -107.05816    1438.2656     4.325568     4.325568     4.325568    1438.2656    16054.129    -14142.59    2403.2572   -5266.3038    3939.5436    2454.0263    80.933708 
   66900    596.33995   -107.60257   0.53958092   -107.06299   -7141.8961    4.3246834    4.3246834    4.3246834   -7141.8961   -3281.5291    -12214.05   -5930.1096    2774.1882   -24699.472   -5232.4259    80.884063 
   67000      881.194   -107.85368   0.79732285   -107.05635   -96.086228    4.3253835    4.3253835    4.3253835   -96.086228   -3789.9368   -6365.9083    9867.5864     10047.71    463.96854    1392.9463    80.923352 
   67100    636.93456    -107.6348   0.57631177   -107.05849   -2631.3104    4.3227094    4.3227094    4.3227094   -2631.3104      15643.7   -2968.3456   -20569.286   -1600.8739   -935.85119     4187.622    80.773357 
   67200      452.701   -107.47227   0.40961337   -107.06265   -11650.246    4.3264645    4.3264645    4.3264645   -11650.246   -13381.549   -8478.5695   -13090.621    7117.2828   -20241.894   -2749.5107     80.98404 
   67300    929.02625   -107.89794   0.84060248   -107.05734    4733.2646    4.3229738    4.3229738    4.3229738    4733.2646   -4570.5565     1741.288    17029.062    15228.003    11579.841    4076.1193    80.788178 
   67400    800.89858     -107.784   0.72466986   -107.05933   -2815.5442    4.3236546    4.3236546    4.3236546   -2815.5442    302.90031    3206.8012   -11956.334    -5719.814   -11301.652    74.063652    80.826354 
   67500    462.23371    -107.4809   0.41823878   -107.06266   -12025.811    4.3265012    4.3265012    4.3265012   -12025.811   -21002.658   -5999.1844   -9075.5913    16043.222   -8901.1849   -7362.9831    80.986101 
   67600    818.27043   -107.79608   0.74038828   -107.05569   -1181.3374    4.3234034    4.3234034    4.3234034   -1181.3374    3120.0892   -4182.6244   -2481.4771    8466.6097     4609.039    4371.5289    80.812264 
   67700     629.8946    -107.6299   0.56994187   -107.05996   -6514.5025    4.3242402    4.3242402    4.3242402   -6514.5025   -4513.1088   -2987.2225   -12043.176    -1900.711   -18211.838     -3303.99    80.859198 
   67800    615.47641   -107.61967   0.55689599   -107.06278   -4363.5092    4.3250139    4.3250139    4.3250139   -4363.5092   -17022.458   -14701.807    18633.738     23771.87    -678.3771   -3000.4617     80.90261 
   67900    1028.5085   -107.98578   0.93061613   -107.05516    3674.2762    4.3258623    4.3258623    4.3258623    3674.2762   -3628.4836    8607.9502    6043.3619   -4183.0608   -4597.0496    1885.9063    80.950228 
   68000    508.42572   -107.52191   0.46003428   -107.06187   -4333.3499    4.3228039    4.3228039    4.3228039   -4333.3499   -8610.6935    13030.464    -17419.82    9477.8164   -16450.856   -1893.4852    80.778655 
   68100    534.41852   -107.54545   0.48355311    -107.0619   -4658.7895    4.3242978    4.3242978    4.3242978   -4658.7895   -6794.0974   -10085.171    2902.9002    15188.337    5174.6308   -8042.3334    80.862428 
   68200    863.96844   -107.83694    0.7817368    -107.0552   -3908.5936    4.3288267    4.3288267    4.3288267   -3908.5936   -8757.6533    8802.9383   -11771.066   -6785.4815   -11271.174    223.40174     81.11676 
   68300    648.08198   -107.64676    0.5863982   -107.06036   -3009.5001    4.3188391    4.3188391    4.3188391   -3009.5001   -11191.486   -11317.032    13480.017    15873.331   -11593.854   -3727.3129    80.556593 
   68400    748.22145   -107.73761   0.67700649    -107.0606    1140.8114    4.3259117    4.3259117    4.3259117    1140.8114   -4068.4439   -12414.125    19905.003    10112.951    7040.8186   -5664.5042    80.953001 
   68500    840.36931   -107.81722   0.76038381   -107.05683   -3699.6853     4.328184     4.328184     4.328184   -3699.6853   -8306.0698     9650.447   -12443.433   -4645.7729   -19003.294    3714.8032    81.080638 
   68600    488.92877   -107.50211   0.44239303   -107.05972    6690.6675    4.3178169    4.3178169    4.3178169    6690.6675    3576.8605    8116.0838    8379.0581     21977.97   -5633.0293   -4704.1278    80.499404 
   68700    657.31502   -107.65283   0.59475245   -107.05808   -8039.6564    4.3287612    4.3287612    4.3287612   -8039.6564   -16881.382    -3441.083   -3796.5046    2830.8367   -512.03441   -1860.6638    81.113076 
   68800    751.66453   -107.73666   0.68012187   -107.05654   -5342.8329    4.3255411    4.3255411    4.3255411   -5342.8329   -20066.467     9012.751   -4974.7821   -1718.6526   -23034.728    517.57964    80.932198 
   68900    770.96613   -107.75404   0.69758636   -107.05645    3575.0902    4.3191336    4.3191336    4.3191336    3575.0902    4976.5202   -13416.778    19165.528        24122    5672.6301   -5084.3238    80.573073 
   69000    718.98977    -107.7088   0.65055705   -107.05824    -9381.012    4.3277275    4.3277275    4.3277275    -9381.012   -9815.4381   -1900.4426   -16427.155   -9492.7608   -14066.394   -1562.0119    81.054981 
   69100    694.07984   -107.68622   0.62801802    -107.0582    1906.5396    4.3230589    4.3230589    4.3230589    1906.5396     355.1288     8452.847   -3088.3569    4384.8203   -13290.706     5268.056    80.792947 
   69200    651.83328   -107.64716   0.58979245   -107.05737   -807.51549    4.3236764    4.3236764    4.3236764   -807.51549   -8590.0594    -1786.929     7954.442    13013.523    7206.9121    -7381.876    80.827572 
   69300     507.5264   -107.51999   0.45922055   -107.06077   -8140.9352    4.3244057    4.3244057    4.3244057   -8140.9352   -28370.594    16236.168    -12288.38   -9151.1814   -23562.431    1486.1554    80.868483 
   69400    899.86751   -107.87126   0.81421903   -107.05704    2253.7537    4.3234348    4.3234348    4.3234348    2253.7537    225.19643    3013.3697     3522.695    5105.9578   -1298.0998    1658.3387    80.814024 
   69500    772.76675    -107.7583   0.69921559   -107.05908   -6559.7412    4.3270881    4.3270881    4.3270881   -6559.7412    -2435.032   -4573.7855   -12670.406    7423.1732   -3955.7891   -14440.223     81.01906 
   69600    577.82455   -107.58375   0.52282779   -107.06093   -4685.9155    4.3212682    4.3212682    4.3212682   -4685.9155   -7180.8817    9531.2334   -16408.098   -9492.0268   -23109.391     1264.387    80.692594 
   69700    815.55988   -107.79298   0.73793572   -107.05504    4275.8012    4.3253313    4.3253313    4.3253313    4275.8012    3395.6265    -194.6706    9626.4477    1792.3678    4919.8717   -1477.5955    80.920423 
   69800    500.67781   -107.51433    0.4530238    -107.0613   -7106.7672     4.325906     4.325906     4.325906   -7106.7672   -22322.875     11668.19   -10665.616     6654.047   -15493.106   -11146.529    80.952682 
   69900    735.24164   -107.72638   0.66526209   -107.06112    6873.4743    4.3206798    4.3206798    4.3206798    6873.4743    3486.9172    18856.801   -1723.2948   -11479.853   -15554.235    5840.3355    80.659634 
   70000    997.60327   -107.95829    0.9026524   -107.05563    4458.4112    4.3276135    4.3276135    4.3276135    4458.4112    8760.2461    5634.0596   -1019.0722    5073.2779    1095.5392    152.48196    81.048576 
   70100    372.17226   -107.40053   0.33674928   -107.06378   -2484.3623    4.3225909    4.3225909    4.3225909   -2484.3623   -7257.9967    19981.935   -20177.026    3522.7906   -21909.525   -11492.702    80.766713 
   70200    712.74008   -107.70379    0.6449022   -107.05889   -1351.9641    4.3238032    4.3238032    4.3238032   -1351.9641    -7733.982    683.29133    2994.7982   -11145.156   -3046.3723    5277.2979    80.834685 
   70300    766.04576   -107.75058   0.69313431   -107.05745    3223.4683    4.3254715    4.3254715    4.3254715    3223.4683   -803.37309    9607.6715    866.10665    944.31464   -4435.3546   -5422.2931    80.928288 
   70400    641.57515   -107.64257   0.58051068   -107.06206   -6387.5722    4.3235135    4.3235135    4.3235135   -6387.5722   -3186.2467    3333.9955   -19310.465   -793.46919    -20007.78   -7900.7539    80.818437 
   70500    928.21335   -107.89748   0.83986694   -107.05761    6049.2119    4.3242209    4.3242209    4.3242209    6049.2119    865.12817    6906.4509    10376.057    -16652.57     8216.941    2825.3053    80.858113 
   70600    632.54154   -107.63217   0.57233688   -107.05984     919.1322    4.3227935    4.3227935    4.3227935     919.1322   -3804.5384    19751.999   -13190.064    698.95225   -15667.478   -6023.5834     80.77807 
   70700     406.5464   -107.43044   0.36785172   -107.06259   -9200.9674    4.3254874    4.3254874    4.3254874   -9200.9674   -24094.985    10591.568   -14099.485   -4616.7681   -13687.632   -6831.5444     80.92918 
   70800    834.76579   -107.81296   0.75531363   -107.05765     1115.218    4.3240804    4.3240804    4.3240804     1115.218   -7667.1093    886.59156    10126.172   -16626.533     9089.858    1489.3804    80.850236 
   70900    875.71816   -107.85077   0.79236819   -107.05841   -3183.9073    4.3228659    4.3228659    4.3228659   -3183.9073    7849.2064    449.18062   -17850.109    5438.4796    -23956.22   -8448.0261    80.782129 
   71000    660.67366   -107.65841   0.59779141   -107.06061   -6438.3468    4.3243956    4.3243956    4.3243956   -6438.3468   -13040.105   -7620.4902    1345.5549   -13739.523   -533.08969   -6608.4097    80.867913 
   71100    647.31975   -107.64339   0.58570851   -107.05768   -2744.8851    4.3271654    4.3271654    4.3271654   -2744.8851   -14172.862     6211.894   -273.68713   -6064.5136    2445.9553    4258.9271    81.023403 
   71200    669.54303   -107.66238    0.6058166   -107.05657   -1017.5023    4.3219298    4.3219298    4.3219298   -1017.5023    -3391.742    15959.942   -15620.707    3959.5292    -18537.59   -8720.3377    80.729663 
   71300    549.03869   -107.55764   0.49678175   -107.06086   -3386.3193    4.3223182    4.3223182    4.3223182   -3386.3193   -16927.175    220.65697    6547.5598   -15249.886    6838.9969    836.12393    80.751428 
   71400    851.69267   -107.82791   0.77062943   -107.05728   -7125.4285    4.3305646    4.3305646    4.3305646   -7125.4285   -1457.5451   -9289.6975   -10629.043    2093.2577   -1612.7831    1579.7066    81.214496 
   71500    858.27228   -107.83218   0.77658279    -107.0556   -198.01087    4.3193608    4.3193608    4.3193608   -198.01087    3536.1298   -5843.8344    1713.6719    -6210.106   -4942.0563   -4306.3035    80.585785 
   71600    373.31912   -107.40045   0.33778699   -107.06267   -7299.0613    4.3241998    4.3241998    4.3241998   -7299.0613   -27699.519   -5419.5514    11221.887   -19603.012    7763.0093     -271.871    80.856934 
   71700     856.8655   -107.83191   0.77530991    -107.0566   -5769.2242    4.3298067    4.3298067    4.3298067   -5769.2242   -1008.1198    1976.2936   -18275.847    5242.7141     1239.393    3683.1904    81.171862 
   71800    747.56829   -107.73432    0.6764155    -107.0579    10044.232    4.3168074    4.3168074    4.3168074    10044.232    7177.3147    17830.433    5124.9481   -15645.113      677.167   -2115.6126    80.442956 
   71900    508.61264   -107.52547   0.46020341   -107.06527   -10921.409    4.3273762    4.3273762    4.3273762   -10921.409   -10450.182   -15715.839    -6598.206   -11740.615     9645.677    3060.5339    81.035246 
   72000    937.58044   -107.90463   0.84834248   -107.05629    2019.0987     4.325695     4.325695     4.325695    2019.0987    8430.2055    942.42908   -3315.3385    9933.3623   -43.151053    4754.9305    80.940835 
   72100    609.34477     -107.612   0.55134795   -107.06065   -934.74865    4.3197396    4.3197396    4.3197396   -934.74865   -11365.942   -8122.1763    16683.872   -24477.884    1303.2251   -2806.0347     80.60699 
   72200    545.14129   -107.55547    0.4932553   -107.06221   -8275.5173    4.3288917    4.3288917    4.3288917   -8275.5173    -10862.42   -2951.5961   -11012.535   -1062.8366    12813.141    3341.3687    81.120417 
   72300    947.45769   -107.91261   0.85727963   -107.05533    9482.4119    4.3219166    4.3219166    4.3219166    9482.4119    15393.588    16405.215   -3351.5668    2571.1854   -5493.2917    1088.4941    80.728922 
   72400    518.54016   -107.53145   0.46918603   -107.06227   -519.10198    4.3228697    4.3228697    4.3228697   -519.10198   -6334.6116   -1359.5862    6136.8919   -26779.485    5496.7273   -4381.9801    80.782342 
   72500    690.33559   -107.68374   0.62463015   -107.05911   -3926.0764    4.3268562    4.3268562    4.3268562   -3926.0764   -10842.915     4376.964   -5312.2778    10007.257    12194.489    614.08321    81.006037 
   72600    803.82535    -107.7838   0.72731807   -107.05648    362.58835    4.3220317    4.3220317    4.3220317    362.58835    -1731.616   -6069.9662    8889.3472   -10946.257   -8344.7091    9804.8259    80.735373 
   72700    567.15768   -107.57385   0.51317618   -107.06067    -8152.514    4.3253343    4.3253343    4.3253343    -8152.514   -14890.936   -6247.4001   -3319.2061    -21251.21    10566.719   -5195.2793    80.920589 
   72800    856.75051   -107.83151   0.77520586   -107.05631   -1561.5466    4.3241702    4.3241702    4.3241702   -1561.5466    1477.7074     9925.735   -16088.082    10338.565    6473.8608    9207.4948     80.85527 
   72900    616.82085   -107.61655   0.55811246   -107.05844    1279.1614    4.3234761    4.3234761    4.3234761    1279.1614   -5094.0552    8732.6722    198.86731   -16661.641   -7425.3003    6086.1942    80.816342 
   73000    652.34742   -107.64902   0.59025765   -107.05876   -6198.0862       4.3266       4.3266       4.3266   -6198.0862   -24083.894    6072.2208   -582.58509   -8276.4579    13787.062   -5094.2755    80.991646 
   73100    801.99973   -107.78139   0.72566621   -107.05572   -387.46146    4.3229026    4.3229026    4.3229026   -387.46146   -5005.1061    10171.349   -6328.6271    8305.1273   -4701.6806    6998.2833    80.784185 
   73200    595.03701   -107.59763   0.53840199   -107.05923   -6618.9415    4.3222135    4.3222135    4.3222135   -6618.9415    -10543.81   -5186.1592    -4126.855   -17344.264   -1672.6584    1206.8114    80.745561 
   73300    706.36273   -107.69706   0.63913185   -107.05792   -9787.8365    4.3286754    4.3286754    4.3286754   -9787.8365   -13479.417    6232.7283    -22116.82   -6819.1588    15066.947   -3004.7488    81.108253 
   73400    793.50055   -107.77558   0.71797597   -107.05761    1472.4642    4.3207138    4.3207138    4.3207138    1472.4642     -3095.98    13144.521   -5631.1488    4977.2419   -15103.091    8033.4033    80.661537 
   73500    557.45324   -107.56711   0.50439541   -107.06271     924.0868    4.3206694    4.3206694    4.3206694     924.0868   -23753.497    16768.676    9757.0818   -20464.691    8493.0067    1252.5506    80.659051 
   73600    783.33254   -107.76825   0.70877574   -107.05948   -7027.5545    4.3303331    4.3303331    4.3303331   -7027.5545   -23361.071    15814.133   -13535.726   -90.487345    9963.0696   -3221.5239    81.201474 
   73700    759.25906   -107.74432   0.68699355   -107.05733     6061.777    4.3188263    4.3188263    4.3188263     6061.777    3719.1774    14750.227   -284.07402   -3114.6593   -13098.393    10907.184    80.555873 
   73800    472.49441   -107.48965   0.42752287   -107.06212   -6682.1594    4.3244381    4.3244381    4.3244381   -6682.1594   -19207.576    9770.8061   -10609.709   -18826.846    18889.728   -6563.4887    80.870298 
   73900    901.03721   -107.87165    0.8152774   -107.05637   -6336.9412    4.3284339    4.3284339    4.3284339   -6336.9412   -15555.861    7897.4806   -11352.443    1350.7845    3207.5764     4716.431     81.09468 
   74000    767.89229   -107.75169   0.69480508   -107.05688    10517.237    4.3180368    4.3180368    4.3180368    10517.237   -9297.4237    20223.981    20625.155    -8559.751   -4101.4268     4197.911    80.511705 
   74100    484.58122   -107.50133   0.43845927   -107.06287   -12913.527    4.3283221    4.3283221    4.3283221   -12913.527   -36217.067    8043.6185   -10567.132   -14847.588    18801.744   -2662.8972    81.088399 
   74200    862.49526   -107.83727   0.78040384   -107.05686    8071.8015    4.3211616    4.3211616    4.3211616    8071.8015    3274.1894    28594.817   -7653.6024    7489.7444   -6617.0175    1120.5451     80.68662 
   74300    666.14501   -107.66405   0.60274201   -107.06131     466.1891    4.3226551    4.3226551    4.3226551     466.1891   -13372.185    12731.395    2039.3566   -8916.3047    8793.0928    1437.3558    80.770313 
   74400    520.19768   -107.53501    0.4706858   -107.06433   -18642.818    4.3295281    4.3295281    4.3295281   -18642.818    -35912.21   -7694.7988   -12321.444   -9815.6444    13049.023   -7620.4063    81.156195 
   74500    1037.7015   -107.99336    0.9389341   -107.05442    12336.377    4.3167558    4.3167558    4.3167558    12336.377    516.50517    11464.466    25028.159    10434.983   -7614.9787   -2174.1827     80.44007 
   74600    528.87834   -107.54149   0.47854024   -107.06295    -13425.45    4.3294462    4.3294462    4.3294462    -13425.45   -35896.761    6349.7559   -10729.346   -18434.579    18823.327    1458.3505    81.151592 
   74700    541.70319   -107.55395   0.49014443    -107.0638   -1805.6733    4.3218961    4.3218961    4.3218961   -1805.6733   -13570.531    17271.109   -9117.5981    420.91308    4771.6174   -8882.9505    80.727769 
   74800    995.78435   -107.95599    0.9010066   -107.05498    9230.0591    4.3227802    4.3227802    4.3227802    9230.0591    280.31093    23951.128    3458.7382    1075.3267   -358.17413    6467.5049    80.777324 
   74900     464.5591   -107.48348   0.42034284   -107.06314    -14182.16    4.3292789    4.3292789    4.3292789    -14182.16   -36707.544   -72.427791   -5766.5081   -17430.149    23382.318   -1629.7052    81.142182 
   75000    751.72541   -107.73822   0.68017695   -107.05804    4678.0923     4.315741     4.315741     4.315741    4678.0923   -1846.3033   -3589.5351    19470.115    4154.7412     155.7681   -4357.5252    80.383352 
   75100    796.08104   -107.77682   0.72031085   -107.05651   -5690.8253    4.3309651    4.3309651    4.3309651   -5690.8253   -18016.123    1525.2027   -581.55589   -1531.5134    7551.3654    0.5658139    81.237035 
   75200    553.90701   -107.56412    0.5011867   -107.06293   -4643.0125    4.3214164    4.3214164    4.3214164   -4643.0125   -17148.151    12995.857    -9776.743   -15160.269    16327.162   -3971.8902    80.700896 
   75300    824.00262   -107.80381   0.74557489   -107.05824    12756.989    4.3189469    4.3189469    4.3189469    12756.989    9742.5237     29166.39   -637.94576    8788.2861   -3674.8521   -9937.6518    80.562622 
   75400    717.46784   -107.70727   0.64917998   -107.05809    -8060.227    4.3313705    4.3313705    4.3313705    -8060.227   -21859.724     14840.54   -17161.498   -6368.8807    11373.494     1852.461     81.25985 
   75500    516.04578   -107.52687   0.46692907   -107.05994    5323.5862    4.3172191    4.3172191    4.3172191    5323.5862    1031.8238    4641.6164    10297.318   -11606.153    5698.9826    -5753.931    80.465971 
   75600     867.0706   -107.84066    0.7845437   -107.05612   -3947.8164    4.3258445    4.3258445    4.3258445   -3947.8164    3744.3474   -8645.1339   -6942.6626    8183.7582   -2466.4397   -7563.0056     80.94923 
   75700    644.25758   -107.64375    0.5829378   -107.06081    915.99814    4.3233982    4.3233982    4.3233982    915.99814   -1705.7876    19307.973   -14854.191   -10529.311    13751.254     10058.37    80.811972 
   75800    724.69904   -107.71504   0.65572292   -107.05932    7219.9504    4.3228682    4.3228682    4.3228682    7219.9504    6834.9162    18052.291   -3227.3557   -7644.3448   -1971.6311   -10217.893    80.782258 
   75900    799.09119   -107.77868    0.7230345   -107.05564   -42.829599    4.3265613    4.3265613    4.3265613   -42.829599    2804.1845    10245.988   -13178.662    4713.1091    3161.5317    245.36511    80.989473 
   76000    391.24537   -107.41586   0.35400703   -107.06185    7057.9555    4.3181849    4.3181849    4.3181849    7057.9555    8303.9473    16550.034    -3680.115   -15190.287    13197.248    9395.5409    80.519989 
   76100    917.64625   -107.88707   0.83030561   -107.05676   -4875.5808    4.3284212    4.3284212    4.3284212   -4875.5808    5825.5533   -15039.986   -5412.3096   -9295.3953   -5135.1113   -8014.8816    81.093967 
   76200    801.19206   -107.78331   0.72493541   -107.05837    1893.0577    4.3228248    4.3228248    4.3228248    1893.0577    18308.354    11862.928   -24492.109    6973.7273    8861.0768    9152.1402    80.779825 
   76300    491.47092   -107.50846   0.44469322   -107.06377    1452.0717    4.3212621    4.3212621    4.3212621    1452.0717   -433.73807    11729.134   -6939.1811   -22420.563    6312.7312    7799.0301    80.692251 
   76400    912.39566   -107.88185   0.82555477   -107.05629    1605.2648    4.3275475    4.3275475    4.3275475    1605.2648    512.36714    7328.9177   -3025.4905   -1249.6221   -3699.1705   -3972.6808     81.04487 
   76500    507.42735   -107.52146   0.45913093   -107.06233    8256.2497    4.3198712    4.3198712    4.3198712    8256.2497    19544.023    16825.879   -11601.153      1173.12    12336.924    11191.453    80.614359 
   76600    616.13186   -107.62041   0.55748906   -107.06292   -9608.6181    4.3271435    4.3271435    4.3271435   -9608.6181   -10992.076   -9606.3904   -8227.3874    -23101.19   -1559.3191    1127.5667    81.022176 
   76700    1032.0261   -107.98859   0.93379888   -107.05479     4153.839    4.3224295    4.3224295    4.3224295     4153.839    14642.175    9763.6347   -11944.293    3743.4212    2354.4802    955.51125    80.757665 
   76800    497.92838   -107.51419   0.45053606   -107.06365   -5856.0468     4.322012     4.322012     4.322012   -5856.0468   -1050.6089    3860.8673   -20378.399   -5737.9672    8856.9464    12233.729    80.734264 
   76900    631.24278   -107.63342   0.57116173   -107.06225    -5261.104    4.3267873    4.3267873    4.3267873    -5261.104    -14856.57   -2177.1988    1250.4573   -19203.352   -6124.8416    212.85504    81.002165 
   77000    918.37831   -107.88671   0.83096799   -107.05574    9631.4578    4.3211289    4.3211289    4.3211289    9631.4578    19080.746    15972.147   -6158.5193      6819.33    5066.5327    1082.5599    80.684786 
   77100    470.75388    -107.4896     0.425948   -107.06365   -8934.2557    4.3262577    4.3262577    4.3262577   -8934.2557   -12434.823    129.76945   -14497.714    -15406.99    4651.1544     12400.25    80.972427 
   77200    789.72389   -107.77334   0.71455877   -107.05878    1289.6929    4.3213988    4.3213988    4.3213988    1289.6929   -6266.4607    7026.3291    3109.2105   -15382.742   -6985.2397   -3679.5459    80.699909 
   77300    784.42932   -107.76714   0.70976814   -107.05737    -870.2056    4.3251199    4.3251199    4.3251199    -870.2056    1564.3858    9069.3649   -13244.367    11185.203    7068.7414     2167.468    80.908555 
   77400    490.20983   -107.50471   0.44355215   -107.06115   -12907.094    4.3285667    4.3285667    4.3285667   -12907.094   -19827.155   -10981.281   -7912.8473   -22686.501     1620.234    9337.9535    81.102146 
   77500    902.61814    -107.8727   0.81670786   -107.05599    13898.676    4.3146733    4.3146733    4.3146733    13898.676    16886.204    15490.434    9319.3909     1845.153   -5795.7722   -10475.387    80.323711 
   77600    709.97051   -107.70282   0.64239623   -107.06042   -1044.0906    4.3274423    4.3274423    4.3274423   -1044.0906   -2674.6267    17050.152   -17507.797    1379.2864    9128.0836     7245.654    81.038958 
   77700    518.01302   -107.53006   0.46870906   -107.06135   -11507.625    4.3286622    4.3286622    4.3286622   -11507.625   -23766.055   -1956.9731   -8799.8475   -24575.867    -4142.968    3747.3645    81.107512 
   77800    816.70392   -107.79307   0.73897087    -107.0541    14755.231    4.3139903    4.3139903    4.3139903    14755.231    8884.2351    22760.958    12620.501    9808.4727    670.85158   -7982.7064    80.285567 
   77900    694.08422   -107.68665   0.62802199   -107.05863   -9588.6157    4.3293157    4.3293157    4.3293157   -9588.6157   -12234.915   -3833.1964   -12697.736   -8610.4796    6059.2874    10770.184    81.144255 
   78000    653.41966   -107.65116   0.59122784   -107.05993    743.57339    4.3245322    4.3245322    4.3245322    743.57339    4838.7843   -5453.2214    2845.1572   -14312.135   -4424.1453     792.5811     80.87558 
   78100    862.26738   -107.83538   0.78019765   -107.05519    8474.1347    4.3176774    4.3176774    4.3176774    8474.1347    16562.683    16219.705   -7359.9839    10914.106    6926.0622   -11952.064    80.491604 
   78200    524.17275   -107.53345   0.47428252   -107.05916    -13055.76    4.3286912    4.3286912    4.3286912    -13055.76   -18582.316   -6412.4695   -14172.495   -16161.812    1367.7427    15598.804    81.109145 
   78300    644.45055   -107.64011    0.5831124     -107.057   -556.85315     4.320956     4.320956     4.320956   -556.85315   -555.49106   -1393.0033    277.93488   -9444.2674   -1367.5886   -7236.9072    80.675104 
   78400    844.47504    -107.8192   0.76409876    -107.0551   -2106.2803    4.3251316    4.3251316    4.3251316   -2106.2803    1640.9304    616.16764    -8575.939    7254.2511    3552.5018   -9493.5718    80.909214 
   78500    684.87539   -107.67892   0.61968964   -107.05923   -2451.9313    4.3225913    4.3225913    4.3225913   -2451.9313   -528.54718   -4525.2469   -2301.9999   -18063.834    147.02247    18845.632    80.766734 
   78600    709.58379    -107.7012   0.64204632   -107.05916    4316.0193    4.3219876    4.3219876    4.3219876    4316.0193    14484.007    3104.0275   -4639.9762    2867.4432   -3991.8499   -21989.473    80.732902 
   78700    710.18058   -107.69812   0.64258632   -107.05553   -10865.927    4.3294026    4.3294026    4.3294026   -10865.927   -13756.976   -1185.6654   -17655.139   -295.26344    1302.3751    310.99545    81.149137 
   78800    499.43255   -107.51011   0.45189707   -107.05822    833.61815    4.3165127    4.3165127    4.3165127    833.61815    3529.8917   -5408.8903    4379.8531   -16507.282    419.54772    9591.9674    80.426483 
   78900    777.70289   -107.76241   0.70368192   -107.05872   -176.67944    4.3255655    4.3255655    4.3255655   -176.67944    9607.5149    4138.5869    -14276.14    5095.0323   -4262.4653   -27143.394    80.933565 
   79000    861.33229   -107.83671   0.77935155   -107.05736   -1978.9853    4.3272817    4.3272817    4.3272817   -1978.9853   -1202.0521    2598.7518   -7333.6555   -10237.867    2909.3624    13730.357     81.02994 
   79100     583.3431   -107.58732    0.5278211    -107.0595    4434.1846    4.3166313    4.3166313    4.3166313    4434.1846    14091.703    1893.2297   -2682.3794   -10874.085   -2380.2654   -5332.9109    80.433109 
   79200    718.84688   -107.70616   0.65042776   -107.05574   -8418.3117    4.3285792    4.3285792    4.3285792   -8418.3117   -7424.8324   -3086.5939   -14743.509    4066.6712     240.4422   -22336.714     81.10285 
   79300    673.92312   -107.66761    0.6097798   -107.05783   -3227.0138    4.3208126    4.3208126    4.3208126   -3227.0138   -14148.983    460.52553    4007.4166   -11522.139    1799.5617     19212.88     80.66707 
   79400    544.28286   -107.55467   0.49247857   -107.06219    6228.1708     4.319714     4.319714     4.319714    6228.1708    19250.031    7272.1759   -7837.6944   -4833.6226   -1432.1947   -18218.646    80.605557 
   79500    1015.9484   -107.97379    0.9192515   -107.05454   -4336.6786    4.3310007    4.3310007    4.3310007   -4336.6786    2624.7103    3511.2944    -19146.04   -67.749938    1488.5976   -8186.2042    81.239034 
   79600     627.4144    -107.6263   0.56769774    -107.0586    4086.2452    4.3175094    4.3175094    4.3175094    4086.2452    3205.1358    5846.4963    3207.1037   -13237.363    574.86559    15462.332    80.482207 
   79700    563.32085   -107.56987   0.50970454   -107.06017   -5970.5017    4.3211533    4.3211533    4.3211533   -5970.5017    9429.4475   -7956.5593   -19384.393   -1278.9526    2038.1917   -26816.134    80.686156 
   79800    766.82032   -107.74912   0.69383514   -107.05529   -5789.6861    4.3297001    4.3297001    4.3297001   -5789.6861   -19682.761    2511.3097   -197.60695    247.52884   -1358.0758     1901.326    81.165868 
   79900    601.86328   -107.60422   0.54457854   -107.05964    2434.5454    4.3184676    4.3184676    4.3184676    2434.5454    5613.8708    526.26167    1163.5037   -8785.3942     3190.201     1692.991    80.535805 
   80000    829.23589   -107.80899   0.75031006   -107.05868    4618.0375    4.3223383    4.3223383    4.3223383    4618.0375    21219.986    9038.8242   -16404.698    3949.4918   -994.69636   -23783.077    80.752553 
   80100    823.62623   -107.80152   0.74523432   -107.05629   -3311.7856    4.3268073    4.3268073    4.3268073   -3311.7856   -11605.196    1789.0491   -119.20993    1564.8041   -840.03121    7459.4679    81.003288 
   80200    445.67624   -107.46299   0.40325723   -107.05974    -4750.412    4.3211779    4.3211779    4.3211779    -4750.412    7241.7679   -9481.9419   -12011.062   -10900.282    1975.7127   -5522.5596    80.687536 
   80300    724.33928   -107.71288    0.6553974   -107.05748   -601.99383     4.321763     4.321763     4.321763   -601.99383   -460.72706    8265.9349   -9611.1894     7893.106    -6432.561   -15585.621    80.720312 
   80400    779.38371   -107.76397   0.70520276   -107.05877    1321.8124    4.3244672    4.3244672    4.3244672    1321.8124   -8838.8205    1679.5037    11124.754    2923.2638    506.90273    9677.7578     80.87193 
   80500    752.08374   -107.73978   0.68050117   -107.05928   -678.14805    4.3241559    4.3241559    4.3241559   -678.14805    21409.722   -1784.2071   -21659.959   -8313.8099   -4757.4818   -9279.3932     80.85447 
   80600    735.27563   -107.72225   0.66529284   -107.05696    1658.1134     4.320164     4.320164     4.320164    1658.1134    -3011.189    3516.3861     4469.143    16490.319   -4141.2291   -7973.6887     80.63075 
   80700    540.63614    -107.5475   0.48917894   -107.05832   -4409.7031    4.3248335    4.3248335    4.3248335   -4409.7031   -14542.708   -4309.0813    5622.6803   -2673.2444   -550.44646    7873.7856    80.892484 
   80800    692.61982   -107.68401   0.62669697   -107.05732   -3059.1458    4.3252319    4.3252319    4.3252319   -3059.1458    12403.002   -3780.2761   -17800.164   -5777.7211   -3635.2923   -13286.267     80.91484 
   80900    770.71522   -107.75516   0.69735933    -107.0578    9115.6431    4.3178182    4.3178182    4.3178182    9115.6431   -711.50403    12911.599    15146.835    18347.616   -2776.7343   -1132.9493    80.499477 
   81000    800.55534   -107.78228   0.72435929   -107.05792   -415.01494    4.3262419    4.3262419    4.3262419   -415.01494    6495.3523   -1140.7315   -6599.6656     -7110.95    1907.4787    1680.6745     80.97154 
   81100     668.8884   -107.66242   0.60522428   -107.05719   -3917.5007     4.324161     4.324161     4.324161   -3917.5007    3598.1429    2318.9157   -17669.561    3197.1986    1260.7194   -10911.801    80.854756 
   81200    496.99289   -107.50848   0.44968961   -107.05879      513.838    4.3195493    4.3195493    4.3195493      513.838   -25640.074    3646.1319    23535.456    23199.343   -4456.0932    2075.9503    80.596339 
   81300    859.74396   -107.83395    0.7779144   -107.05603   -2346.6304    4.3266771    4.3266771    4.3266771   -2346.6304    429.26706    2240.2241   -9709.3823   -10642.866    5875.3422   -679.96305    80.995977 
   81400    712.74356   -107.70457   0.64490535   -107.05967    6319.4413    4.3213517    4.3213517    4.3213517    6319.4413    7311.9193    9790.2655     1856.139    12773.204   -143.99402   -7915.1444    80.697267 
   81500    717.33679   -107.70976    0.6490614    -107.0607    3825.6877    4.3205339    4.3205339    4.3205339    3825.6877   -7149.0918    5061.6485    13564.506    22309.238   -2428.3267    2973.4113    80.651464 
   81600    775.31435   -107.75817   0.70152072   -107.05665   -2102.2887    4.3261991    4.3261991    4.3261991   -2102.2887    6811.4973    6774.3137   -19892.677   -11324.064     2501.564   -3600.1537    80.969139 
   81700    367.02294   -107.39525   0.33209007   -107.06316   -9507.7044    4.3216168    4.3216168    4.3216168   -9507.7044   -24558.613   -8529.3617    4564.8614    33101.282   -2850.4698    -6572.951    80.712122 
   81800    892.36421    -107.8671   0.80742989   -107.05967     5914.839    4.3221093    4.3221093    4.3221093     5914.839   -10513.965    15643.886    12614.596    11187.921   -1237.9674   -146.87819    80.739722 
   81900    918.79916   -107.89048   0.83134879   -107.05913   -385.60796    4.3262084    4.3262084    4.3262084   -385.60796    1273.9765    9591.3366   -12022.137   -1491.3067   -3046.9867   -4196.4314     80.96966 
   82000     358.8984    -107.3902   0.32473881   -107.06546    -5289.586    4.3213849    4.3213849    4.3213849    -5289.586   -20882.747   -10988.318    16002.307    37395.638   -2526.6481   -3901.0142    80.699132 
   82100    968.93881   -107.93225    0.8767162   -107.05553    4513.6242    4.3225208    4.3225208    4.3225208    4513.6242   -5161.8146    16428.254    2274.4331   -8870.2275     -905.103    2177.2607    80.762785 
   82200    487.06935   -107.50543   0.44071059   -107.06472   -7599.8828    4.3237908    4.3237908    4.3237908   -7599.8828   -15094.808   -2835.2634   -4869.5766    22926.042   -356.29413   -2534.1765    80.833991 
   82300    549.97274    -107.5661   0.49762689   -107.06848    -1597.332    4.3222179    4.3222179    4.3222179    -1597.332   -18244.482   -955.15729    14407.643    24443.836   -5577.7248   -2716.7801    80.745808 
   82400    1186.7973   -108.12827    1.0738391   -107.05443    6682.2754    4.3262768    4.3262768    4.3262768    6682.2754    3967.7531    18921.546   -2842.4723   -10538.074    1370.5357    4042.2802    80.973501 
   82500    392.31046   -107.42028   0.35497075   -107.06531   -6486.5171    4.3204828    4.3204828    4.3204828   -6486.5171   -18465.565   -6376.7825    5382.7959    39821.849    2668.6405   -8183.3891    80.648601 
   82600     631.0058    -107.6323   0.57094731   -107.06135   -4087.2878     4.323234     4.323234     4.323234   -4087.2878   -18969.566    1543.6492    5164.0537    286.19737   -6243.8214    1195.8831    80.802768 
   82700    828.94852   -107.80658   0.75005004   -107.05653    3492.4895    4.3251425    4.3251425    4.3251425    3492.4895   -7139.4235    10378.692    7238.1999    1168.1077    4190.4717    645.89472    80.909823 
   82800    575.66843   -107.58378   0.52087689    -107.0629    2131.8272    4.3193326    4.3193326    4.3193326    2131.8272    -3193.774    1017.7015    8571.5541    35474.642   -1301.1835    -6509.148    80.584206 
   82900    907.75063   -107.87885   0.82135184    -107.0575     1940.817    4.3265064    4.3265064    4.3265064     1940.817    4540.7096    2365.3015   -1083.5601   -14433.708    1015.7436   -536.45958    80.986394 
   83000    597.99785   -107.60067   0.54108102   -107.05959    1014.0576     4.322154     4.322154     4.322154    1014.0576   -2368.0566   -1444.9633    6855.1927    14171.923    322.86553    1004.5203    80.742224 
   83100    573.77125   -107.57872   0.51916028   -107.05956   -6290.1889     4.321214     4.321214     4.321214   -6290.1889   -11949.684   -5207.5331   -1713.3492    22017.729   -336.84191   -8667.7337    80.689555 
   83200    822.05471   -107.80078   0.74381238   -107.05697    -820.8124    4.3261274    4.3261274    4.3261274    -820.8124    554.66919    4980.2728   -7997.3792   -18728.936    2133.8124   -1180.7801    80.965112 
   83300    695.69533   -107.68948   0.62947976      -107.06    3573.3307    4.3212274    4.3212274    4.3212274    3573.3307    135.79309   -1365.2906    11949.489    20714.409   -1523.4515    3652.6264    80.690307 
   83400     780.3321   -107.76309   0.70606088   -107.05703   -2668.3185    4.3241477    4.3241477    4.3241477   -2668.3185    4407.5826   -7809.0594   -4603.4786    8957.1193    331.64487   -11573.385    80.854009 
   83500    613.65332   -107.61252   0.55524642   -107.05727   -1179.3098    4.3237732    4.3237732    4.3237732   -1179.3098    2132.6899   -9753.0402    4082.4209   -11648.704   -912.36658    6747.1285    80.833006 
   83600    603.71698   -107.60488   0.54625581   -107.05862   -1167.4729    4.3219026    4.3219026    4.3219026   -1167.4729   -3336.6399   -4895.8791    4730.1003    24247.186    1873.0481    621.31491    80.728135 
   83700    850.25641   -107.82629   0.76932987   -107.05696    1207.2538    4.3235262    4.3235262    4.3235262    1207.2538    13993.795    1033.3189   -11405.353   -5305.1092   -2563.3872   -11658.753    80.819153 
   83800    700.37184   -107.69306   0.63371116   -107.05935    5966.1378    4.3223961    4.3223961    4.3223961    5966.1378    12532.611    501.92947    4863.8729   -4436.0453    168.82514    7958.7649    80.755794 
   83900    676.91701   -107.67024   0.61248873   -107.05775   -6833.9267    4.3261709    4.3261709    4.3261709   -6833.9267   -5341.1216   -12067.645   -3093.0139    17962.112    3864.1541   -8418.2251    80.967555 
   84000    650.26899   -107.64482   0.58837705   -107.05644   -902.72064    4.3190498    4.3190498    4.3190498   -902.72064    7981.8006   -6218.4773   -4471.4851   -8500.0484   -2643.3371   -12445.664    80.568383 
   84100    633.63611   -107.63229   0.57332727   -107.05896    743.57581    4.3250256    4.3250256    4.3250256    743.57581     -2944.96   -3622.0048    8797.6922    3753.2128    2410.8199    9106.5599    80.903264 
   84200    851.60883   -107.82842   0.77055357   -107.05787   -2562.9851    4.3267062    4.3267062    4.3267062   -2562.9851    8344.5219   -4438.0686   -11595.409    9778.6548    821.51579   -16136.577    80.997612 
   84300    709.51477    -107.6998   0.64198387   -107.05782    16377.668    4.3150679    4.3150679    4.3150679    16377.668    27539.703    15949.276    5644.0243   -12154.623    396.37028   -6051.6667    80.345751 
   84400    650.78274   -107.64696    0.5888419   -107.05812   -6283.2458    4.3291265    4.3291265    4.3291265   -6283.2458   -7321.6586   -13768.359    2240.2804    831.50838    -945.0025    6758.9181    81.133614 
   84500    627.12402   -107.62515   0.56743499   -107.05772   -5223.1652    4.3227151    4.3227151    4.3227151   -5223.1652    2517.7208   -7597.5635   -10589.653    4359.8112    -615.9627   -24343.079    80.773673 
   84600    682.13406   -107.67567   0.61720923   -107.05846    3564.8856    4.3181951    4.3181951    4.3181951    3564.8856      1467.08    5482.0646    3745.5123   -12924.821   -149.22878    1028.8469    80.520559 
   84700    847.55057   -107.82411   0.76688157   -107.05723   -2776.2764    4.3287329    4.3287329    4.3287329   -2776.2764   -1978.8251   -2697.7793   -3652.2247    3351.4976   -3148.3914    1181.8962    81.111488 
   84800      714.677   -107.70447   0.64665477   -107.05782    8614.1318    4.3200796    4.3200796    4.3200796    8614.1318    20818.767    7672.3515    -2648.723    506.45474    145.83451   -24485.534    80.626024 
   84900    679.95592   -107.67202   0.61523841   -107.05678    -153.2861    4.3227626    4.3227626    4.3227626    -153.2861   -4595.1436   -7163.1925    11298.478   -14845.564   -1082.2806    8785.1957    80.776339 
   85000    581.34483   -107.58389   0.52601301   -107.05787   -2047.6454    4.3240735    4.3240735    4.3240735   -2047.6454     1518.414   -9034.1896    1372.8393    6831.3178    1906.2355   -11401.062    80.849845 
   85100    674.81714   -107.66908   0.61058873   -107.05849     1240.949    4.3223567    4.3223567    4.3223567     1240.949    5046.2359    415.56093   -1738.9499   -4469.8284   -313.99933   -23828.727    80.753585 
   85200    884.94046   -107.85694   0.80071273   -107.05623    3780.3404    4.3245102    4.3245102    4.3245102    3780.3404   -3.1537371    3692.3525    7651.8225    -8114.743     718.0469     10112.93    80.874348 
   85300     660.9658   -107.65728   0.59805574   -107.05922    2125.8996    4.3213175    4.3213175    4.3213175    2125.8996      18847.1   -5621.1175   -6848.2833    8937.7472    3568.7391   -27340.314    80.695355 
   85400    653.59147    -107.6486    0.5913833   -107.05721   -2636.4823    4.3246802    4.3246802    4.3246802   -2636.4823   -5051.1801   -5442.8073    2584.5406   -9285.4697   -1011.2227   -9736.8364    80.883881 
   85500    678.70913   -107.67122   0.61411028   -107.05711   -515.12713    4.3223355    4.3223355    4.3223355   -515.12713   -8231.0066   -5020.2998    11705.925   -6071.0729    2572.1501    5160.3947    80.752398 
   85600     535.4488   -107.54659   0.48448533   -107.06211    2921.2402    4.3225583    4.3225583    4.3225583    2921.2402    16652.607   -3765.5256   -4123.3614    5693.5104   -1034.8561   -32443.998    80.764883 
   85700    1020.7082   -107.97985   0.92355819   -107.05629    5193.6752    4.3246508    4.3246508    4.3246508    5193.6752   -1317.8613    8536.9082    8361.9788   -11989.311    2271.2831    5602.3763    80.882232 
   85800    653.48741   -107.65189   0.59128914    -107.0606     4743.007    4.3211852    4.3211852    4.3211852     4743.007    16541.714   -10651.909    8339.2154   -2042.8901   -994.74211   -14220.335     80.68794 
   85900    480.88318   -107.49716   0.43511321   -107.06205   -5173.8603     4.324775     4.324775     4.324775   -5173.8603    3412.1375   -13230.563   -5703.1551    6240.5625    302.79143   -27161.472    80.889203 
   86000    904.83391   -107.87339   0.81871273   -107.05468    2166.6895    4.3233329    4.3233329    4.3233329    2166.6895   -19762.163    6630.3873    19631.845   -11350.094      1986.09    9960.2869    80.808312 
   86100    529.41632   -107.54181   0.47902701   -107.06278    1363.0464    4.3206186    4.3206186    4.3206186    1363.0464    7608.6464   -6374.0549    2854.5478    2886.6368   -2008.1477   -27993.155    80.656209 
   86200    780.92417   -107.76838    0.7065966   -107.06179   -1933.1508    4.3261157    4.3261157    4.3261157   -1933.1508    6814.6551   -3108.2483   -9505.8592    2761.5586    2295.5668   -9560.1251    80.964456 
   86300    914.79514   -107.88405   0.82772586   -107.05633    4953.3045    4.3213817    4.3213817    4.3213817    4953.3045    2873.2307    517.21431    11469.468   -10888.719   -2176.4432    448.01871    80.698948 
   86400    361.77798   -107.39205   0.32734432   -107.06471   -5189.1083    4.3220531    4.3220531    4.3220531   -5189.1083    17144.803   -23887.199   -8824.9292    6804.8861    321.24572   -32945.297    80.736571 
   86500    805.26385   -107.78779   0.72861966   -107.05917   -1950.2473    4.3265397    4.3265397    4.3265397   -1950.2473   -10735.914    32.475098    4852.6974   -713.91039   -1367.0945    8371.6506    80.988262 
   86600    831.54898   -107.80979   0.75240299   -107.05739    5422.8425    4.3206773    4.3206773    4.3206773    5422.8425    353.94584    5880.5796    10034.002   -3219.5879   -2623.7209   -10118.148    80.659493 
   86700    503.98415   -107.51903   0.45601545   -107.06301   -8630.0678    4.3239778    4.3239778    4.3239778   -8630.0678    13104.562   -14306.779   -24687.987    7123.2743    1031.7988   -23822.488     80.84448 
   86800    815.80791   -107.79485   0.73816014   -107.05668   -1439.7708    4.3226575    4.3226575    4.3226575   -1439.7708    -1364.804    1833.0768    -4787.585    -1364.196    1330.4026    16894.842    80.770448 
   86900    676.26984   -107.67106   0.61190317   -107.05915   -7930.1262    4.3232046    4.3232046    4.3232046   -7930.1262    1545.6619   -17226.366    -8109.675    220.95157    2856.4181    -29889.29     80.80112 
   87000    638.75196   -107.63824   0.57795619   -107.06028   -5619.5666    4.3251243    4.3251243    4.3251243   -5619.5666    1562.8079   -14193.387   -4228.1211    4067.9615   -486.83886   -6300.2209    80.908801 
   87100    868.86229   -107.84201   0.78616486   -107.05585    6009.8303    4.3204767    4.3204767    4.3204767    6009.8303    640.21373    12046.069    5343.2078   -819.45839    6066.3384    14626.484    80.648259 
   87200    553.92847   -107.56029   0.50120612   -107.05908   -2839.0814    4.3251505    4.3251505    4.3251505   -2839.0814    9173.3427    1503.5648   -19194.152    -1155.466    356.88826   -31569.786    80.910277 
   87300    606.12711   -107.60685   0.54843655   -107.05841   -2300.7135    4.3229763    4.3229763    4.3229763   -2300.7135    9021.1893   -4116.2968   -11807.033    6254.6033   -307.28909    14743.241    80.788316 
   87400    817.89032   -107.79703   0.74004435   -107.05698   -2962.4698    4.3227171    4.3227171    4.3227171   -2962.4698   -3344.0196   -7216.0314    1672.6418     -999.128    6021.9157   -1782.1128    80.773785 
   87500    815.99221   -107.79668    0.7383269   -107.05835   -2469.1269    4.3228875    4.3228875    4.3228875   -2469.1269     2845.623   -12708.041     2455.037         1860   -1783.7458   -22492.844    80.783341 
   87600    631.39821   -107.63087   0.57130237   -107.05957    2390.4168     4.321152     4.321152     4.321152    2390.4168    1048.7539    4840.2061    1282.2904    7855.3478     4031.135    25244.775    80.686084 
   87700    591.97684   -107.59336   0.53563308   -107.05773   -1641.9619    4.3275394    4.3275394    4.3275394   -1641.9619    2775.6941    8362.7394   -16064.319   -2852.2593     1158.218   -8825.2802    81.044414 
   87800    693.34432   -107.68412   0.62735251   -107.05676    6951.5285    4.3187832    4.3187832    4.3187832    6951.5285    15585.767    7314.6869   -2045.8688    5803.6351    194.17359   -8993.2319     80.55346 
   87900    635.37011   -107.63631   0.57489622   -107.06141   -866.12022    4.3237201    4.3237201    4.3237201   -866.12022    4224.8223   -12220.384     5397.201    2955.3537    2562.4917    23247.081    80.830027 
   88000    1039.2857   -107.99586   0.94036751   -107.05549   -3179.3975    4.3273168    4.3273168    4.3273168   -3179.3975   -6153.8856   -5976.8256    2592.5187    -406.2711   -5004.9699   -18273.867    81.031908 
   88100    620.08751    -107.6194   0.56106821   -107.05833    8685.5926    4.3159969    4.3159969    4.3159969    8685.5926    18202.268   -1330.9869    9185.4965    5809.7892     1837.198    10344.913    80.397656 
   88200    350.35502   -107.38132   0.31700859   -107.06432    -11611.21    4.3277251    4.3277251    4.3277251    -11611.21   -9471.4766   -3496.3198   -21865.834    3418.3354    1006.8579    20469.113    81.054847 
   88300    927.23192   -107.89469   0.83897893   -107.05571    14845.179    4.3216076    4.3216076    4.3216076    14845.179    7901.2198     22910.62    13723.697   -69.778997   -1397.7336   -10926.079    80.711608 
   88400    645.44971   -107.64803   0.58401646   -107.06401    -232.1414    4.3214435    4.3214435    4.3214435    -232.1414     1420.014    -6693.837    4577.3988    5422.0969    3039.9919    25990.642    80.702413 
   88500    680.24241   -107.67891   0.61549763   -107.06341   -9666.0641    4.3283006    4.3283006    4.3283006   -9666.0641   -16296.234   -2254.9278   -10447.031    1978.8555    4356.6804    6856.7195    81.087186 
   88600    1063.6045   -108.01645   0.96237173   -107.05407    9415.0352    4.3173032    4.3173032    4.3173032    9415.0352    12134.782    10754.554    5355.7702   -2927.7466   -750.27311    -1562.725    80.470674 
   88700    252.96142   -107.29589   0.22888481   -107.06701   -17985.256    4.3271137    4.3271137    4.3271137   -17985.256   -9433.2756    -16636.46   -27886.031    6022.8125    1645.6382    24507.995      81.0205 
   88800    742.06932   -107.73499   0.67143991   -107.06355    1096.6871    4.3229892    4.3229892    4.3229892    1096.6871   -13253.461    13000.013    3543.5089   -750.82399    4626.6988    1863.9572    80.789043 
   88900    989.47576   -107.95337   0.89529846   -107.05808    12154.489    4.3202929    4.3202929    4.3202929    12154.489    3003.4434    18602.527    14857.497    1154.9486   -2926.5242    1511.3804    80.637968 
   89000    387.38632   -107.41702   0.35051528    -107.0665    -13006.82    4.3277823    4.3277823    4.3277823    -13006.82    -15062.97   -6251.7486   -17705.741    8464.3258    3451.6861     24643.17    81.058062 
   89100    887.21802   -107.86019   0.80277351   -107.05742    7685.2522    4.3178107    4.3178107    4.3178107    7685.2522     7773.878    18993.597   -3711.7187   -907.20983    3670.1329    -9422.776    80.499058 
   89200    689.08729   -107.68341   0.62350066   -107.05991   -9018.5583    4.3260034    4.3260034    4.3260034   -9018.5583    2421.8587   -11550.162   -17927.372    3525.4945   -1694.3961    2529.2512    80.958147 
   89300    529.97673   -107.54241   0.47953408   -107.06288   -9031.1237    4.3244007    4.3244007    4.3244007   -9031.1237   -16736.129   -4508.3735   -5848.8688     5036.768     6335.496    19366.092      80.8682 
   89400     900.9353    -107.8706    0.8151852   -107.05542    11621.092    4.3194181    4.3194181    4.3194181    11621.092   -1473.9457    22631.752    13705.468    -2830.749    1232.9703    -19291.85    80.588992 
   89500    612.80805   -107.61456    0.5544816   -107.06008   -6658.4462    4.3266527    4.3266527    4.3266527   -6658.4462   -8342.3788   -491.37652   -11141.583    3350.8373    469.27789    8237.7754    80.994605 
   89600    619.22551   -107.61909   0.56028825    -107.0588    8084.3689    4.3197266    4.3197266    4.3197266    8084.3689    3622.0191    18665.083    1966.0044    5059.8563    7301.1639     11006.12    80.606261 
   89700    818.59783   -107.79743   0.74068452   -107.05675   -6723.2932    4.3256947    4.3256947    4.3256947   -6723.2932    4604.9856   -10550.523   -14224.342   -2080.9181   -1158.8885   -22995.879    80.940816 
   89800    671.42625   -107.66728   0.60752058   -107.05976   -2080.8643      4.32098      4.32098      4.32098   -2080.8643   -7789.4732   -5422.7194    6969.5998    8147.1797    3029.7101    12643.225    80.676451 
   89900    739.15158   -107.72734   0.66879988   -107.05854     4181.855    4.3214302    4.3214302    4.3214302     4181.855   -8363.6545    16518.917    4390.3023    1740.3838    5889.7797    50.718304    80.701668 
   90000    622.76595   -107.62208   0.56349172   -107.05859   -9407.7102    4.3287861    4.3287861    4.3287861   -9407.7102   -4778.5442   -1693.3724   -21751.214   -1238.7582   -3131.9379   -24273.416    81.114479 
   90100    686.02205   -107.67769   0.62072716   -107.05696    10603.704    4.3148076    4.3148076    4.3148076    10603.704    8826.7521    16970.897     6013.464    7727.9666    6644.2855    19412.274    80.331209 
   90200    736.58059   -107.72506    0.6664736   -107.05858   -7886.3707    4.3277841    4.3277841    4.3277841   -7886.3707    2732.3485   -8248.3395   -18143.121   -2365.6025    2934.4804    -17338.29    81.058163 
   90300    769.70337   -107.75497   0.69644379   -107.05853   -5072.2167    4.3245662    4.3245662    4.3245662   -5072.2167   -4897.0654   -11718.089    1398.5044    1521.5436   -930.87336   -16239.795    80.877487 
   90400    750.82844   -107.73625   0.67936535   -107.05688    10617.053    4.3164268    4.3164268    4.3164268    10617.053    102.89418     17733.69    14014.576    8265.0083     6524.195    16061.502    80.421682 
   90500    509.15642   -107.51977   0.46069543   -107.05907   -11598.628    4.3294796    4.3294796    4.3294796   -11598.628    1269.8477    135.63471   -36201.367   -4899.8745    2469.4485   -25396.364     81.15347 
   90600    696.39908   -107.68689   0.63011653   -107.05677    2194.1149    4.3194126    4.3194126    4.3194126    2194.1149    6360.3277    6806.5721   -6584.5551    2109.2868   -1372.1132   -583.71309    80.588684 
   90700    781.44327   -107.76481    0.7070663   -107.05775   -3548.7382    4.3230407    4.3230407    4.3230407   -3548.7382    2052.4593   -2182.4319   -10516.242    3581.6337    7942.1139    6136.7339    80.791926 
   90800    758.83515    -107.7455   0.68660999   -107.05889   -8769.5128    4.3253348    4.3253348    4.3253348   -8769.5128  -0.72368828   -15598.635    -10709.18   -6832.0175    626.76506   -27223.054    80.920618 
   90900    797.71972   -107.77751   0.72179357   -107.05572    2594.6969    4.3220952    4.3220952    4.3220952    2594.6969   -12219.663    4559.0174    15444.737    5324.0778   -3723.5797    5499.3982    80.738929 
   91000    487.63158   -107.50059    0.4412193   -107.05937   -3584.4919    4.3239235    4.3239235    4.3239235   -3584.4919    3421.2316    10341.722   -24516.429    1630.3548    12491.728   -9285.6037    80.841431 
   91100    648.29292   -107.64466   0.58658906   -107.05807    1682.0195    4.3205518    4.3205518    4.3205518    1682.0195    14046.101    10366.071   -19366.114    133.46477   -6756.2262   -21333.974    80.652465 
   91200     826.9266   -107.80512   0.74822057    -107.0569   -5051.4664    4.3280711    4.3280711    4.3280711   -5051.4664   -10106.391   -1106.6858   -3941.3226    9242.5988    110.42438    8899.8781    81.074294 
   91300    718.04032   -107.71015   0.64969798   -107.06045   -2591.8396    4.3185445    4.3185445    4.3185445   -2591.8396    8920.6584   -9051.7162   -7644.4611    4014.1496    14447.526   -19723.957    80.540108 
   91400    809.75851   -107.79016   0.73268651   -107.05748   -223.18801    4.3221048    4.3221048    4.3221048   -223.18801   -1137.1881   -4294.2486    4761.8726    368.28447   -10889.481   -6840.7844    80.739466 
   91500    546.22814    -107.5526    0.4942387   -107.05837   -10865.961    4.3295067    4.3295067    4.3295067   -10865.961   -13014.815   -3582.6331   -16000.434     8717.038    6567.6091    5044.9555    81.154995 
   91600    561.24412   -107.56747   0.50782547   -107.05964    8097.8656    4.3150963    4.3150963    4.3150963    8097.8656    28504.388    7948.0001   -12158.791   -2225.7011    9361.5453   -22510.189    80.347334 
   91700    958.43583   -107.92359   0.86721288   -107.05637     2121.639    4.3261887    4.3261887    4.3261887     2121.639    -2054.574    8455.6464   -36.155391     612.1442   -10294.615    3223.0536    80.968555 
   91800    593.01525   -107.59787   0.53657266    -107.0613   -627.49394    4.3245972    4.3245972    4.3245972   -627.49394   -2491.8697    5590.1005   -4980.7126     8086.354    7462.2958   -6919.3335    80.879228 
   91900    613.97177   -107.61421   0.55553456   -107.05867    506.54958    4.3183763    4.3183763    4.3183763    506.54958    8865.1121    119.78386   -7465.2473   -4586.2174    4212.7566    -19537.37    80.530698 
   92000    797.25442   -107.77666   0.72137256   -107.05529   -5600.0851    4.3262242    4.3262242    4.3262242   -5600.0851   -7851.2415    4469.1654   -13418.179    6071.1575   -12009.012    5400.0293    80.970549 
   92100    610.13556   -107.61335   0.55206348   -107.06129   -2124.9438    4.3206921    4.3206921    4.3206921   -2124.9438    9198.6607   -9815.8036   -5757.6884    6088.3332    10292.934   -15895.849    80.660322 
   92200    834.18364   -107.81458   0.75478689   -107.05979   -922.82776    4.3242292    4.3242292    4.3242292   -922.82776    2059.0141   -1587.9095   -3239.5879   -6448.9768   -2561.8143   -12862.955    80.858578 
   92300    798.36199   -107.77976    0.7223747   -107.05739    4874.7296    4.3211891    4.3211891    4.3211891    4874.7296   -9388.0823    18826.332     5185.939    1634.5759   -9970.8997    4671.4423    80.688159 
   92400    337.52656   -107.36862   0.30540112   -107.06322   -1110.2318    4.3223248    4.3223248    4.3223248   -1110.2318    5820.1253    4983.7592    -14134.58    5408.4362    13757.959   -18649.803    80.751795 
   92500    775.80841   -107.76077   0.70196775    -107.0588   -5247.0541    4.3265449    4.3265449    4.3265449   -5247.0541   -138.43121    2370.2167   -17972.948   -10331.585   -10865.771    -6503.947    80.988557 
   92600    938.02817   -107.90549    0.8487476   -107.05674    8095.7881    4.3179932    4.3179932    4.3179932    8095.7881    14783.954    9221.4793    281.93054    6718.2403    -1299.081    1235.1083    80.509265 
   92700    580.98732   -107.58746   0.52568954   -107.06177   -14543.554    4.3273103    4.3273103    4.3273103   -14543.554   -9601.0448   -21556.958    -12472.66    2846.8087    13094.623   -21319.094    81.031541 
   92800    749.14511   -107.73503   0.67784224   -107.05719   -2502.1883    4.3217557    4.3217557    4.3217557   -2502.1883   -15376.956    6479.8883    1390.5034   -11154.998   -11192.794    3064.7305    80.719905 
   92900    628.80441   -107.62801   0.56895544   -107.05906    3252.5229     4.318904     4.318904     4.318904    3252.5229    1504.9078    15009.981   -6757.3197     10325.46     7153.014   -5076.6712    80.560219 
   93000     528.4112   -107.54171   0.47811756    -107.0636   -9849.4037    4.3291776    4.3291776    4.3291776   -9849.4037     2592.832   -7763.9154   -24377.128   -6354.4324      7019.35   -19399.747    81.136488 
   93100    1070.1256   -108.02302   0.96827211   -107.05475    11471.727    4.3183473    4.3183473    4.3183473    11471.727    10673.408    18673.184    5068.5882   -4310.4236   -5704.7906    6625.1416    80.529074 
   93200    560.68285   -107.56922   0.50731763    -107.0619   -4107.8682    4.3232515    4.3232515    4.3232515   -4107.8682    4139.4998    -5368.269   -11094.835    6575.9632    6461.7791   -14082.194    80.803747 
   93300    494.91165   -107.51003   0.44780646   -107.06222    -12997.96     4.325509     4.325509     4.325509    -12997.96   -20658.048   -7158.6147   -11177.217   -4213.7426    3439.6605   -15441.904    80.930392 
   93400    941.15876    -107.9063   0.85158023   -107.05472    5240.6803    4.3206592    4.3206592    4.3206592    5240.6803     263.3574     10826.34     4632.344   -1825.7877   -2769.5942    9240.8009    80.658479 
   93500     566.8211   -107.57612   0.51287165   -107.06325   -7700.4584    4.3245909    4.3245909    4.3245909   -7700.4584    4009.9506    -7230.034   -19881.292    4698.8599    6423.1969   -16254.994    80.878872 
   93600    794.99971   -107.77983   0.71933244    -107.0605    4544.7124    4.3219431    4.3219431    4.3219431    4544.7124    4619.3053    6331.5078    2683.3242   -8250.5375    808.14904   -7162.3663    80.730405 
   93700    801.64592     -107.783   0.72534607   -107.05765    6039.3467    4.3225677    4.3225677    4.3225677    6039.3467    2122.6931    16521.029   -525.68196   -1193.2032   -1503.1071    8249.2486    80.765414 
   93800    294.69591   -107.33229   0.26664705   -107.06564   -7408.2692    4.3244584    4.3244584    4.3244584   -7408.2692    3862.3113   -3893.6833   -22193.436    5201.9763     9491.211   -23290.293    80.871438 
   93900    977.47482   -107.94316   0.88443976   -107.05872    6456.4355    4.3204269    4.3204269    4.3204269    6456.4355    3327.7712    9386.1209    6655.4143   -8760.9692   -3447.0456    925.04943    80.645471 
   94000    805.50746   -107.79005   0.72884008   -107.06121    1706.2009    4.3242461    4.3242461    4.3242461    1706.2009    18229.856   -2313.6448   -10797.608    7382.2021    3536.7177    528.84676     80.85953 
   94100    474.44086   -107.49479   0.42928406   -107.06551   -5715.2071    4.3234818    4.3234818    4.3234818   -5715.2071    2015.1826   -3358.2456   -15802.558    50.876875    10674.049    -21924.86    80.816664 
   94200    876.56646   -107.84872   0.79313576   -107.05558    10056.225      4.32099      4.32099      4.32099    10056.225   -5490.2886    27606.049    8052.9144   -2522.1796   -3190.2777    10765.698    80.677008 
   94300    561.41166   -107.57041   0.50797707   -107.06243   -7100.0384    4.3248496    4.3248496    4.3248496   -7100.0384    4419.9216    -3438.676   -22281.361    4598.4319    6021.6542    -10330.29    80.893388 
   94400    629.43472   -107.63232   0.56952577   -107.06279    2778.0715    4.3205644    4.3205644    4.3205644    2778.0715    16728.467   -1900.3546   -6493.8982    2756.1836    7026.6496   -17214.889    80.653174 
   94500    1013.0771   -107.97271   0.91665346   -107.05606    1885.9205    4.3252639    4.3252639    4.3252639    1885.9205    8364.9868    3723.7824   -6431.0076    2783.2419   -8214.9119    9116.2971    80.916641 
   94600    482.69609   -107.49946   0.43675357    -107.0627   -3149.0261    4.3235187    4.3235187    4.3235187   -3149.0261    23302.164   -10034.909   -22714.334    4803.4732    3170.9245   -20315.352    80.818731 
   94700    633.59398   -107.63323   0.57328915   -107.05995    5124.6357    4.3197739    4.3197739    4.3197739    5124.6357   -8503.9274    26760.183   -2882.3488    8276.6072   -1270.8844   -4373.6217    80.608913 
   94800    795.45355   -107.77647   0.71974309   -107.05673   -3496.9374     4.327616     4.327616     4.327616   -3496.9374   -12459.807    20796.545   -18827.551   -4052.9411    -11949.25    3577.4684    81.048721 
   94900    610.90431   -107.61321   0.55275906   -107.06045   -3807.0243    4.3207547    4.3207547    4.3207547   -3807.0243    15255.107   -12015.806   -14660.374    6826.3116    6462.7848   -22829.829    80.663831 
   95000    817.87069   -107.79746   0.74002659   -107.05743    786.04523    4.3225046    4.3225046    4.3225046    786.04523   -2200.3504    10143.142   -5584.6562   -298.60195   -11093.498    3196.4723    80.761876 
   95100    769.00788   -107.75329   0.69581449   -107.05748   -7673.7475     4.326286     4.326286     4.326286   -7673.7475    6579.3039   -6111.3775   -23489.169   -4523.7938   -5665.8868   -10576.131    80.974014 
   95200     503.7489   -107.51636   0.45580259   -107.06056    7464.1992    4.3185911    4.3185911    4.3185911    7464.1992    17985.545     15383.32   -10976.268    7874.1559    3944.3871   -17362.122    80.542713 
   95300    787.58324   -107.77088   0.71262187   -107.05826   -2677.7633    4.3270309    4.3270309    4.3270309   -2677.7633    -24637.32    33017.478   -16413.448    340.34339   -17823.257    7484.1539    81.015848 
   95400    779.16762   -107.76293   0.70500723   -107.05792    3724.0388    4.3211127    4.3211127    4.3211127    3724.0388    19208.192    3795.9198   -11831.996    1405.9114    1830.3039   -17739.758    80.683882 
   95500    593.10934    -107.5973    0.5366578   -107.06064   0.16529983    4.3213322    4.3213322    4.3213322   0.16529983    8268.2595    -3074.587   -5193.1766    3122.3082   -6639.5966   -6075.4511    80.696179 
   95600    722.79531   -107.71171   0.65400039   -107.05771   -9419.5749    4.3271795    4.3271795    4.3271795   -9419.5749   -10509.063    3402.1903   -21151.852    2976.4225    -14095.94     1812.085    81.024198 
   95700    793.56856   -107.77386   0.71803751   -107.05582    6095.7273    4.3202039    4.3202039    4.3202039    6095.7273    21433.845    7777.7154   -10924.378   -1226.5437    3023.0467    -20703.29    80.632987 
   95800    596.23338   -107.59911   0.53948449   -107.05962   -4867.6863    4.3265724    4.3265724    4.3265724   -4867.6863    -11532.05    16519.875   -19590.883    5872.2039   -10153.585    3027.2125    80.990096 
   95900    785.66374   -107.76843   0.71088506   -107.05755     3203.615    4.3210364    4.3210364    4.3210364     3203.615     3253.354    19142.118   -12784.627    1396.4794   -6853.4337   -3018.3075    80.679605 
   96000    734.51937   -107.72233   0.66460856   -107.05772    9116.9178    4.3214896    4.3214896    4.3214896    9116.9178    26397.355    3373.6061   -2420.2078    2014.8472    2543.2106    -11420.08    80.704994 
   96100    388.43561   -107.41394    0.3514647   -107.06247   -13249.679    4.3290487    4.3290487    4.3290487   -13249.679   -10503.894    -3262.051   -25983.092    7987.2856   -15331.389    10336.349    81.129243 
   96200    937.60569   -107.90393   0.84836534   -107.05557    7043.2016    4.3196269    4.3196269    4.3196269    7043.2016     16333.06    13226.842   -8430.2967   -3974.3988    332.11521   -3226.9442    80.600678 
   96300    905.29363   -107.87718    0.8191287   -107.05805    403.67909     4.323299     4.323299     4.323299    403.67909    4744.9278    4193.9708   -7727.8613    3206.7339   -4270.9572   -3565.3173     80.80641 
   96400    414.89593   -107.44152   0.37540656   -107.06611   -10373.067    4.3241078    4.3241078    4.3241078   -10373.067   -5650.1413   -2452.7324   -23016.328    2808.7655   -15718.347    12313.765    80.851773 
   96500    877.25247   -107.85084   0.79375647   -107.05708    8614.5817    4.3231095    4.3231095    4.3231095    8614.5817    20385.339      5217.29    241.11614   -89.415796    8037.2466   -2995.1705    80.795785 
   96600    496.47632   -107.51177   0.44922221   -107.06254   -1500.5363    4.3258295    4.3258295    4.3258295   -1500.5363    171.55992      7929.38   -12602.549    4175.5609   -13291.339     458.8558    80.948386 
   96700    568.67528   -107.58016   0.51454934   -107.06561   -1798.8614    4.3211619    4.3211619    4.3211619   -1798.8614    1915.8917    15287.078   -22599.554    5481.9687   -7476.9049    15558.798    80.686639 
   96800    1221.2963   -108.16077    1.1050546   -107.05571    10224.078    4.3220928    4.3220928    4.3220928    10224.078    11346.729    21122.717   -1797.2132   -1942.3478    4181.0854   -3500.7935    80.738792 
   96900      438.236    -107.4623   0.39652515   -107.06578   -10174.394    4.3266843    4.3266843    4.3266843   -10174.394   -2486.5463    -11684.67   -16351.966    2455.9299   -17839.008    6597.5297    80.996383 
   97000    511.64804   -107.52548    0.4629499   -107.06253    -10591.46    4.3230233    4.3230233    4.3230233    -10591.46    2760.4678   -20310.716    -14224.13    1963.2236   -879.49744    10139.806    80.790951 
   97100     898.6249   -107.86969   0.81309469   -107.05659    9464.9222    4.3189314    4.3189314    4.3189314    9464.9222    14544.245    8404.3554    5446.1665   -5327.8737    1273.4458   -7663.5413    80.561756 
   97200    609.57526   -107.61629    0.5515565   -107.06474   -10390.316    4.3284332    4.3284332    4.3284332   -10390.316   -21193.647    12796.027    -22773.33    6108.8393   -14084.211    7168.3867    81.094641 
   97300    834.21318   -107.81428   0.75481362   -107.05947    5266.6698    4.3227897    4.3227897    4.3227897    5266.6698    10957.497    16489.021   -11646.508    1574.3206    5766.7238    2409.5413    80.777855 
   97400    711.08296   -107.70086    0.6434028   -107.05746    5587.8105     4.318954     4.318954     4.318954    5587.8105    7609.9298    8657.1279    496.37385   -3865.2644   -3660.8968   -6935.1652    80.563018 
   97500     391.3765   -107.41588   0.35412568   -107.06175   -17201.635    4.3285081    4.3285081    4.3285081   -17201.635   -9790.2762   -26566.961   -15247.668    7043.3458   -13182.334    13652.318    81.098852 
   97600    858.75393   -107.83424    0.7770186   -107.05723   -574.84107    4.3208703    4.3208703    4.3208703   -574.84107    10957.355   -2615.0155   -10066.863   -3239.6131    5607.6877   -3247.6378    80.670304 
   97700    867.85217   -107.84365   0.78525088   -107.05839   -1621.2382    4.3221373    4.3221373    4.3221373   -1621.2382   -14294.397    15407.569   -5976.8865   -1258.3941   -8543.0494   -4815.5121    80.741286 
   97800    642.05844   -107.64101   0.58094797   -107.06006   -6824.3894    4.3258978    4.3258978    4.3258978   -6824.3894    -14302.24    3784.8939   -9955.8226    9414.0802   -7850.5245    14065.354    80.952223 
   97900     625.3618   -107.62299    0.5658405   -107.05715    7361.4578    4.3209621    4.3209621    4.3209621    7361.4578    18834.226    10951.634   -7701.4862   -1357.5245    4718.5804   -17082.608    80.675445 
   98000    624.76486   -107.62412   0.56530038   -107.05882   -1243.3084    4.3231465    4.3231465    4.3231465   -1243.3084   -2761.5354    181.14537    -1149.535    4592.4968   -7342.3427    -108.1888    80.797861 
   98100    708.52882   -107.70104   0.64109177   -107.05994   -688.71157    4.3251862    4.3251862    4.3251862   -688.71157    7197.8079   -146.00473   -9117.9379    6858.2875   -5256.0141    5836.1748    80.912277 
   98200     895.8299   -107.86757   0.81056572   -107.05701    1215.4774    4.3227802    4.3227802    4.3227802    1215.4774    11781.023    6839.0163   -14973.607   -4164.4166    3560.9895   -23272.413    80.777322 
   98300     612.4044   -107.61221   0.55411637   -107.05809   -1353.7388    4.3223401    4.3223401    4.3223401   -1353.7388   -16585.667    7501.0972    5023.3532    3043.2798   -11195.564    7055.5491    80.752654 
   98400    501.75598   -107.51317   0.45399935   -107.05917   -7660.5093    4.3262403    4.3262403    4.3262403   -7660.5093    5008.6596   -12453.731   -15536.457    2040.7274   -4542.6876   -9664.2116     80.97145 
   98500     813.2894   -107.79296   0.73588134   -107.05708    1996.8429     4.322259     4.322259     4.322259    1996.8429    9281.1472       4959.2   -8249.8184    203.43448    711.37148   -17952.287    80.748111 
   98600    858.08532   -107.83431   0.77641363    -107.0579    1593.4568    4.3201946    4.3201946    4.3201946    1593.4568   -17564.841    14810.001    7535.2109    5761.1184   -13093.465    6248.1391    80.632465 
   98700    599.81858   -107.60354   0.54272846   -107.06081   -7482.1191    4.3273015    4.3273015    4.3273015   -7482.1191    8604.2059    -8006.599   -23043.964    2879.0944    981.71996   -11587.406    81.031049 
   98800    728.40767   -107.71554   0.65907857   -107.05646    880.10166    4.3222716    4.3222716    4.3222716    880.10166    325.21891    2404.3239   -89.237783   -2587.2747   -1668.4539   -3716.0826    80.748818 
   98900    565.84746   -107.57096   0.51199067   -107.05897   -1481.5322    4.3214545    4.3214545    4.3214545   -1481.5322   -1938.9517   -1327.7618   -1177.8831     6859.059   -10323.056    1876.4811     80.70303 
   99000    646.39641   -107.64697   0.58487305    -107.0621   -4176.7817    4.3258226    4.3258226    4.3258226   -4176.7817    21098.945   -9983.9646   -23645.326   -2866.9613    1372.0643   -16137.749    80.947999 
   99100    1009.1619   -107.96839    0.9131109   -107.05528    6024.8511    4.3232577    4.3232577    4.3232577    6024.8511    -4388.267    23421.911   -959.09058    1152.4178   -8689.8687   -642.82523    80.804097 
   99200    580.72668   -107.58531    0.5254537   -107.05986   -2385.5209    4.3222731    4.3222731    4.3222731   -2385.5209    941.91194    4797.5211   -12895.996    9319.7931   -9976.2222    -10523.52    80.748898 
   99300    422.84035   -107.44407   0.38259484   -107.06148   -4781.6024     4.323488     4.323488     4.323488   -4781.6024    15052.999   -15051.697   -14346.109   -3425.2711    3485.4965   -14304.902    80.817009 
   99400     867.6403   -107.84113   0.78505918   -107.05607    373.40682    4.3249549    4.3249549    4.3249549    373.40682   -13640.059    10142.079    4618.2007    5074.9578   -9823.9894     6819.594    80.899296 
   99500    775.55585   -107.76145   0.70173923   -107.05972   -4159.6522    4.3232038    4.3232038    4.3232038   -4159.6522    9495.1921   -2102.7396   -19871.409    2002.6326   -1244.3723   -21788.571    80.801071 
   99600    764.49739   -107.75171    0.6917333   -107.05998    15.319906    4.3218316    4.3218316    4.3218316    15.319906    4888.5482    3990.4252   -8833.0136   -3021.6617     4005.193   -2748.9621    80.724157 
   99700    797.07689   -107.77707   0.72121192   -107.05586   -4208.9618    4.3256121    4.3256121    4.3256121   -4208.9618   -14376.713    10313.897   -8564.0696   -4282.9288   -10818.662    2573.0287    80.936185 
   99800    408.45217   -107.42947   0.36957611    -107.0599   -2495.8656    4.3225297    4.3225297    4.3225297   -2495.8656    16287.994   -10142.322   -13633.269    408.22804    1478.2859   -23378.745     80.76328 
   99900     671.3856   -107.66655    0.6074838   -107.05907   -528.02299    4.3235771    4.3235771    4.3235771   -528.02299    4464.0705   -4360.6172   -1687.5223   -3359.6507   -4170.8445    11656.839    80.822006 
  100000    883.69784   -107.85693   0.79958838   -107.05734    2838.1824    4.3237663    4.3237663    4.3237663    2838.1824    2212.0937      11562.7   -5260.2468    -6679.563   -11217.199   -6775.0962    80.832618 
Loop time of 21.8061 on 1 procs for 100000 steps with 8 atoms

Pair  time (%) = 6.88466 (31.5722)
Kspce time (%) = 5.26844 (24.1604)
Neigh time (%) = 0 (0)
Comm  time (%) = 1.05863 (4.85475)
Outpt time (%) = 0.0194387 (0.0891438)
Other time (%) = 8.57489 (39.3234)

Nlocal:    8 ave 8 max 8 min
Histogram: 1 0 0 0 0 0 0 0 0 0
Nghost:    2189 ave 2189 max 2189 min
Histogram: 1 0 0 0 0 0 0 0 0 0
Neighs:    2344 ave 2344 max 2344 min
Histogram: 1 0 0 0 0 0 0 0 0 0

Total # of neighbors = 2344
Ave neighs/atom = 293
Neighbor list builds = 0
Dangerous builds = 0
unfix 20
unfix 21
print "seeds:5525261"
seeds:5525261
