LAMMPS (10 Feb 2015)
# ---- initialize simulations
clear
units metal
dimension 3
boundary p p p
atom_style charge
atom_modify map array
# ---- create atoms
read_data /Users/eugeneragasa/pyflamestk_git/pypospack/tests/tests_integration/workflow/WorkflowLammpsThermalExpansion/param_2856/MgO_NaCl_unit.npt.T1800/lammps.structure
  triclinic box = (0 0 0) to (4.2565 4.2565 4.2565) with tilt (0 0 0)
  1 by 1 by 1 MPI processor grid
  reading atoms ...
  8 atoms
# ---- define interatomic potential
include potential.mod
mass 1 24.305
mass 2 15.999

group Mg type 1
4 atoms in group Mg
group O type 2
4 atoms in group O

set group Mg charge 1.71287520642
  4 settings made for charge
set group O charge -1.71287520642
  4 settings made for charge

variable R_cut equal 10.0

pair_style buck/coul/long ${R_cut}
pair_style buck/coul/long 10
pair_coeff 1 1 0.0 0.5 0.0 ${R_cut}
pair_coeff 1 1 0.0 0.5 0.0 10
pair_coeff 1 2 1268.25800143 0.292150986054 0.0 ${R_cut}
pair_coeff 1 2 1268.25800143 0.292150986054 0.0 10
pair_coeff 2 2 34972.2762623 0.190168709461 15.9037418312 ${R_cut}
pair_coeff 2 2 34972.2762623 0.190168709461 15.9037418312 10

kspace_style pppm 1.0e-5

neighbor 1.0 bin
neigh_modify every 1 delay 0 check yes
# ---- define settings
compute eng all pe/atom
compute eatoms all reduce sum c_eng
# ---- run minimization
reset_timestep 0
fix 1 all box/relax iso 0.0 vmax 0.001
thermo 10
thermo_style custom step pe lx ly lz xy xz yz press pxx pyy pzz pxy pxz pyz c_eatoms
min_style cg
minimize 1e-25 1e-25 5000 10000
PPPM initialization ...
  G vector (1/distance) = 0.353245
  grid = 8 8 8
  stencil order = 5
  estimated absolute RMS force accuracy = 4.15075e-05
  estimated relative force accuracy = 2.88254e-06
  using double precision FFTs
  3d grid and FFT values/proc = 3375 512
Neighbor list info ...
  1 neighbor list requests
  update every 1 steps, delay 0 steps, check yes
  master list distance cutoff = 11
Memory usage per processor = 4.06549 Mbytes
Step PotEng Lx Ly Lz Xy Xz Yz Press Pxx Pyy Pzz Pxy Pxz Pyz eatoms 
       0    -118.2398       4.2565       4.2565       4.2565            0            0            0    92099.563    92099.563    92099.563    92099.563 -2.6648665e-10 1.3518399e-10 2.2028947e-10    -118.2398 
      10   -118.33067     4.299065     4.299065     4.299065            0            0            0    34673.493    34673.493    34673.493    34673.493 -1.1760899e-11 -1.3745134e-10 -5.0678772e-11   -118.33067 
      18   -118.34767    4.3277342    4.3277342    4.3277342            0            0            0    -4.391814    -4.391814    -4.391814    -4.391814 -1.1240186e-10 -1.6034703e-10 -8.891662e-11   -118.34767 
Loop time of 0.0119269 on 1 procs for 18 steps with 8 atoms

Minimization stats:
  Stopping criterion = linesearch alpha is zero
  Energy initial, next-to-last, final = 
        -118.239795936     -118.347671294     -118.347671294
  Force two-norm initial, final = 13.2992 0.00175014
  Force max component initial, final = 13.2992 0.000655584
  Final line search alpha, max atom move = 0.00390625 2.56088e-06
  Iterations, force evaluations = 18 35

Pair  time (%) = 0.00325203 (27.2664)
Kspce time (%) = 0.00186825 (15.6642)
Neigh time (%) = 0 (0)
Comm  time (%) = 0.000365019 (3.06047)
Outpt time (%) = 1.19209e-05 (0.09995)
Other time (%) = 0.00642967 (53.909)

Nlocal:    8 ave 8 max 8 min
Histogram: 1 0 0 0 0 0 0 0 0 0
Nghost:    2189 ave 2189 max 2189 min
Histogram: 1 0 0 0 0 0 0 0 0 0
Neighs:    2344 ave 2344 max 2344 min
Histogram: 1 0 0 0 0 0 0 0 0 0

Total # of neighbors = 2344
Ave neighs/atom = 293
Neighbor list builds = 0
Dangerous builds = 0
unfix 1
# ---- define output variables ----
variable natoms equal "count(all)"
variable tot_energy equal "c_eatoms"
variable length_x equal "lx"
variable length_y equal "ly"
variable length_z equal "lz"
variable tilt_xy equal "xy"
variable tilt_xz equal "xz"
variable tilt_yz equal "yz"
variable tot_press equal "press"
variable press_xx equal "pxx"
variable press_yy equal "pyy"
variable press_zz equal "pzz"
variable press_xy equal "pxy"
variable press_xz equal "pxz"
variable press_yz equal "pyz"

# ---- output ----
print "pypospack:output_section:begin"
pypospack:output_section:begin
print "tot_energy = ${tot_energy}"
tot_energy = -118.347671293792
print "num_atoms = ${natoms}"
num_atoms = 8
print "xx = ${length_x}"
xx = 4.32773421076983
print "yy = ${length_y}"
yy = 4.32773421076983
print "zz = ${length_z}"
zz = 4.32773421076983
print "xy = ${tilt_xy}"
xy = 0
print "xz = ${tilt_xz}"
xz = 0
print "yz = ${tilt_yz}"
yz = 0
print "tot_press = ${tot_press}"
tot_press = -4.39181402043263
print "pxx = ${press_xx}"
pxx = -4.39181402021402
print "pyy = ${press_yy}"
pyy = -4.39181402042068
print "pzz = ${press_zz}"
pzz = -4.39181402066319
print "pxy = ${press_xy}"
pxy = -1.12401857084108e-10
print "pxz = ${press_xz}"
pxz = -1.60347032595802e-10
print "pyz = ${press_yz}"
pyz = -8.89166196817966e-11
print "pypospack:output_section:done"
pypospack:output_section:done
print "pypospack:lammps_sim:done"
pypospack:lammps_sim:done
#------------------------------------------------------------------------------
# RUN THERMOSTAT
# running using an NPT Nose-Hoover style thermostat
#------------------------------------------------------------------------------
variable tempdamp equal 0.1
variable pressdamp equal 1.0
# set initial velocities
velocity all create 1800 3565014 mom yes dist gaussian loop all
# fix for Nose-Hoover style thermostat
fix 20 all npt temp 1800 1800 0.1 aniso 0.0 0.0 1.0 drag 1.0 couple xyz
variable boxx equal lx
variable boxy equal ly
variable boxz equal lz
variable boxp equal press
variable boxt equal temp
# calculate averages every 10000 steps
reset_timestep 0
fix 21 all ave/time 10 10 100 v_boxx v_boxy v_boxz v_boxp v_boxt file lattice.out
thermo_style custom step temp pe ke etotal press lx ly lz press pxx pyy pzz pxy pxz pyz vol
thermo_modify flush yes
thermo 100
run 100000
PPPM initialization ...
  G vector (1/distance) = 0.352508
  grid = 8 8 8
  stencil order = 5
  estimated absolute RMS force accuracy = 4.29555e-05
  estimated relative force accuracy = 2.9831e-06
  using double precision FFTs
  3d grid and FFT values/proc = 3375 512
Memory usage per processor = 3.06549 Mbytes
Step Temp PotEng KinEng TotEng Press Lx Ly Lz Press Pxx Pyy Pzz Pxy Pxz Pyz Volume 
       0         1800   -118.34768    1.6286778     -116.719    21455.726    4.3277342    4.3277342    4.3277342    21455.726    17281.756     28169.78    18915.642   -7749.9853    -479.4806    9.1545502    81.055361 
     100    1096.3943   -117.49727   0.99204056   -116.50523    28992.436    4.3471023    4.3471023    4.3471023    28992.436   -6771.4912    36449.297    57299.501   -5849.0435   -893.84653    3988.0188    82.148489 
     200    1335.3591   -117.27296     1.208261    -116.0647   -26372.215    4.3830694    4.3830694    4.3830694   -26372.215   -50032.764   -11763.847   -17320.035   -8740.3895   -32817.964   -9247.9084     84.20445 
     300    2028.7488   -117.49562    1.8356546   -115.65996   -8676.7049    4.3871891    4.3871891    4.3871891   -8676.7049    -25633.19   -2654.2556    2257.3312    16707.437    -4181.709    -4468.737    84.442109 
     400    2408.1484   -117.54182    2.1789433   -115.36288   -282.08135     4.368824     4.368824     4.368824   -282.08135   -23388.008    -1141.379    23683.142    4217.5719    9617.8148    21926.127    83.386099 
     500    1430.1162   -116.46993    1.2939992   -115.17593   -7780.7228     4.368139     4.368139     4.368139   -7780.7228   -43056.509    17588.582    2125.7587   -36967.798   -43034.105    5705.8933    83.346882 
     600    2037.2903   -116.92569    1.8433831    -115.0823   -8329.5575    4.3733902    4.3733902    4.3733902   -8329.5575   -12159.088    18351.412   -31180.997    5793.4802   -34083.672   -2592.9719    83.647828 
     700    2164.1043   -117.00937    1.9581271   -115.05125   -16266.374    4.3946427    4.3946427    4.3946427   -16266.374   -37542.509   -18954.929    7698.3171     4635.852     10000.05   -15280.636    84.873225 
     800    1668.6821   -116.55347    1.5098587   -115.04361   -37459.949    4.3932488    4.3932488    4.3932488   -37459.949   -52014.797   -26885.362   -33479.687   -20302.684   -23549.767    5496.8763    84.792493 
     900    1365.3247   -116.27002    1.2353745   -115.03465     41502.94    4.3650974    4.3650974    4.3650974     41502.94    15266.359    55231.249    54011.213    4016.2077   -13843.408    17066.291    83.172897 
    1000    2018.2317   -116.88073    1.8261384   -115.05459    240.02484    4.3725828    4.3725828    4.3725828    240.02484   -17486.824    6677.9231    11528.976     7229.449    11304.897    -830.9321    83.601512 
    1100    1968.0535   -116.83764    1.7807361   -115.05691   -16620.888    4.3811572    4.3811572    4.3811572   -16620.888   -46010.083    11800.477    -15653.06    3033.6619   -17074.964   -26115.135    84.094288 
    1200     1815.039   -116.69744    1.6422854   -115.05516   -6546.2758    4.3798912    4.3798912    4.3798912   -6546.2758   -18553.231    8785.4479   -9871.0448    3883.9557   -15031.316    14622.514    84.021409 
    1300    1562.1871   -116.46681    1.4134997   -115.05331   -22694.363    4.3886396    4.3886396    4.3886396   -22694.363   -27965.048   -61260.743    21142.701    11932.015    2102.3562     31158.51    84.525891 
    1400    1844.0065   -116.71527    1.6684959   -115.04677   -22125.454    4.3775454    4.3775454    4.3775454   -22125.454   -61515.928   -14953.027    10092.595    11421.434   -20690.601   -30437.421    83.886483 
    1500      1529.37   -116.43638    1.3838061   -115.05257    30169.604    4.3650908    4.3650908    4.3650908    30169.604   -20342.314    67602.309    43248.816   -13185.653   -27090.627     6123.656    83.172519 
    1600    1904.8812   -116.78658    1.7235766   -115.06301   -184.33033    4.3726014    4.3726014    4.3726014   -184.33033    1638.9005    -13570.35    11378.459    2532.2187    13834.272    39836.956    83.602576 
    1700    1591.6482   -116.50726    1.4401568    -115.0671    7632.2964    4.3823097    4.3823097    4.3823097    7632.2964   -29062.963    45230.576    6729.2763    14751.471   -1307.0159    8575.9193    84.160673 
    1800    1873.5436   -116.75173    1.6952216   -115.05651   -7817.7231    4.3870605    4.3870605    4.3870605   -7817.7231   -47214.725    7016.3883    16745.167   -2908.0749   -15677.278   -12525.754     84.43468 
    1900    1728.0963   -116.61116    1.5636179   -115.04754    11593.272    4.3776991    4.3776991    4.3776991    11593.272    12185.899    6174.2357    16419.682   -5186.3619    17462.403   -4145.3732    83.895318 
    2000    1778.2153   -116.65335    1.6089666   -115.04438    26961.966    4.3719837    4.3719837    4.3719837    26961.966    34131.156    72435.612    -25680.87    20161.411   -1038.3388    2762.1331    83.567149 
    2100    2067.2264   -116.93234    1.8704699   -115.06187   -15966.195    4.3867067    4.3867067    4.3867067   -15966.195   -27468.077   -13621.165   -6809.3428     -9135.62   -16712.761    1613.3556    84.414257 
    2200    1854.2135   -116.73982    1.6777314   -115.06209   -15338.972    4.3855299    4.3855299    4.3855299   -15338.972   -23432.413    15984.156   -38568.657   -16030.156    7760.1179   -17586.705     84.34634 
    2300    1944.6812   -116.81583    1.7595884   -115.05624     16706.78    4.3764991    4.3764991    4.3764991     16706.78    41395.856     15781.89   -7057.4053   -7115.4035    13090.857    10575.789    83.826344 
    2400    2461.0561   -117.28469    2.2268152   -115.05787    8469.5847    4.3833554    4.3833554    4.3833554    8469.5847    6634.5089    33128.156   -14353.911    3206.9413    3165.4477    4560.5887    84.220934 
    2500    2168.4919   -117.02566    1.9620971   -115.06357    19536.992    4.3831419    4.3831419    4.3831419    19536.992    56.391561     64237.63   -5683.0451    1064.9581    5171.7847    1091.1275    84.208627 
    2600    2056.8944   -116.92339    1.8611213   -115.06227   -5227.8408    4.3846046    4.3846046    4.3846046   -5227.8408   -13088.991     16899.45   -19493.982   -11413.418    4440.5162    -4593.133    84.292959 
    2700    1839.9863   -116.71463    1.6648583   -115.04977   -5807.8831    4.3918105    4.3918105    4.3918105   -5807.8831    9879.5419    -20701.32   -6601.8711    7512.1327   -5224.2274   -8493.2552    84.709237 
    2800    2218.3647   -117.04106     2.007223   -115.03383    17120.155    4.3886624    4.3886624    4.3886624    17120.155   -7927.3533    35370.087    23917.731    16226.813   -4980.1467    15488.488    84.527206 
    2900    1568.8936   -116.45985    1.4195679   -115.04028    24653.462    4.3905375    4.3905375    4.3905375    24653.462    30544.908    29087.576    14327.901   -12691.706    14251.942   -917.26449      84.6356 
    3000    1288.3723   -116.20377    1.1657463   -115.03802   -13973.311    4.3938898    4.3938898    4.3938898   -13973.311    16644.301    -80234.04    21669.804   -8482.9499   -2386.1057   -10991.374    84.829615 
    3100    1364.2861   -116.26519    1.2344348   -115.03075    6064.6385    4.3962315    4.3962315    4.3962315    6064.6385    35025.983   -32645.081    15813.013    19026.452    1486.7051   -333.29169    84.965314 
    3200    1572.3784   -116.44773     1.422721   -115.02501    69.089667    4.3976574    4.3976574    4.3976574    69.089667    34602.483   -15715.935   -18679.279     -8212.52    15213.373   -4220.9014    85.048017 
    3300    1466.2122   -116.36158    1.3266596   -115.03492    10342.955    4.3769494    4.3769494    4.3769494    10342.955    46884.048   -30603.412    14748.229   -22449.906   -6983.6461    3298.3111    83.852221 
    3400    1317.7052   -116.24537    1.1922874   -115.05308    50903.619    4.3718113    4.3718113    4.3718113    50903.619    50284.046    33202.632    69224.178    12426.189    11501.924   -2875.4375    83.557265 
    3500    2271.3014   -117.11497    2.0551212   -115.05985    -8438.096    4.4033578    4.4033578    4.4033578    -8438.096    30847.486   -45158.473   -11003.301    12557.578     13103.65   -10495.656    85.379171 
    3600    2318.8022   -117.12932     2.098101   -115.03122    4777.4179    4.4066824    4.4066824    4.4066824    4777.4179    14035.496    18990.261   -18693.503    17316.655   -13248.572   -7771.9436    85.572705 
    3700    1729.9484   -116.57788    1.5652936   -115.01259    23165.001    4.4011654    4.4011654    4.4011654    23165.001    7293.5973    64653.803   -2452.3981    26440.095   -3612.0067    329.58642    85.251705 
    3800    2545.2825   -117.29796    2.3030251   -114.99493   -27118.456     4.406583     4.406583     4.406583   -27118.456   -50272.874    -10383.21   -20699.285   -12448.085   -3354.4637    8277.6852    85.566911 
    3900     1598.214   -116.44782    1.4460976   -115.00172   -995.49709    4.3901661    4.3901661    4.3901661   -995.49709   -8101.9907    48441.779    -43326.28   -5136.9989    5212.7775   -8745.5111    84.614125 
    4000    1461.2776   -116.34278    1.3221947   -115.02059   -6756.9238    4.3656783    4.3656783    4.3656783   -6756.9238    27632.479   -12105.361    -35797.89      20332.2   -4807.5925   -3819.9575    83.206103 
    4100    1583.6485   -116.48813    1.4329184   -115.05521    15447.105    4.3714661    4.3714661    4.3714661    15447.105    18023.882    5508.6159    22808.816    6733.6488   -24543.523    15826.697    83.537475 
    4200     2078.577   -116.94834    1.8807401    -115.0676   -29046.951     4.400023     4.400023     4.400023   -29046.951   -36198.946   -47709.431   -3232.4758   -19946.426    9099.0353   -4986.9297    85.185336 
    4300    1718.2868   -116.59665     1.554742   -115.04191   -27821.531    4.4032445    4.4032445    4.4032445   -27821.531   -11608.366   -33821.801   -38034.428    16971.085   -7872.4263   -4098.0328    85.372577 
    4400    1934.9675   -116.76663    1.7507992   -115.01583   -10468.087    4.3831798    4.3831798    4.3831798   -10468.087   -22358.552   -479.62942   -8566.0804    7670.1162   -11774.088    529.35816    84.210812 
    4500    2479.6665   -117.25794    2.2436543   -115.01428   -7798.1603    4.3849037    4.3849037    4.3849037   -7798.1603   -28078.113   -22945.228     27628.86   -34732.239   -1658.7171   -204.19223    84.310211 
    4600    1895.7073   -116.74339    1.7152758   -115.02812     -14059.3    4.4087803    4.4087803    4.4087803     -14059.3   -10621.367    5452.8004   -37009.332   -1183.8584   -5092.8872   -7328.5002     85.69498 
    4700    2007.1958   -116.82222     1.816153   -115.00607    -41371.86    4.4140875    4.4140875    4.4140875    -41371.86   -57500.051    14137.032   -80752.562    797.97793   -12944.434   -8157.1012    86.004824 
    4800    2277.6825    -117.0527     2.060895   -114.99181     902.7605    4.3883569    4.3883569    4.3883569     902.7605   -11196.085     52703.65   -38799.284   -12748.404    2580.3279     264.6673    84.509559 
    4900    1969.8169   -116.80335    1.7823317   -115.02102   -23825.277    4.3823539    4.3823539    4.3823539   -23825.277   -1190.1321    -10561.95    -59723.75   -24527.584    4431.4714   -2982.0874    84.163219 
    5000    1060.8053   -116.01325   0.95983893   -115.05341   -29350.322    4.3797262    4.3797262    4.3797262   -29350.322   -35318.995     30837.59   -83569.561    10154.455   -39832.301    28729.735    84.011916 
    5100    2130.8581   -116.98934    1.9280451    -115.0613    13312.708     4.372132     4.372132     4.372132    13312.708    13506.634    24949.405    1482.0856   -10344.191    -12056.05   -21802.208    83.575658 
    5200    1906.0966   -116.79637    1.7246762    -115.0717   -26536.702    4.4007664    4.4007664    4.4007664   -26536.702   -34209.588   -13058.538   -32341.981   -11940.157   -12744.011    7737.9054    85.228518 
    5300    1370.4312   -116.28499     1.239995     -115.045    -32511.96     4.399681     4.399681     4.399681    -32511.96   -54603.087   -11506.311   -31426.481    85.672584   -40417.151    16775.224    85.165472 
    5400    2003.4188   -116.82672    1.8127355   -115.01399    28882.735    4.3732566    4.3732566    4.3732566    28882.735   -34289.356    50914.689    70022.871    1537.9692    8587.1496   -7173.2257    83.640164 
    5500    2516.8774   -117.30116    2.2773235   -115.02384    3751.3781    4.3800233    4.3800233    4.3800233    3751.3781   -49874.232    36116.418    25011.949    8729.7038    -6074.294   -31531.195    84.029013 
    5600    1730.4654    -116.6093    1.5657615   -115.04354    7646.9369    4.3915971    4.3915971    4.3915971    7646.9369   -76144.498    75588.516    23496.792    4501.7817   -41191.189     3020.035    84.696892 
    5700    1816.7972   -116.68977    1.6438762   -115.04589    -11746.61    4.4038658    4.4038658    4.4038658    -11746.61   -40945.681    13670.835   -7964.9836    18085.532    222.89269    19964.837    85.408726 
    5800    1943.2385    -116.7937    1.7582831   -115.03542   -28702.371    4.4020105    4.4020105    4.4020105   -28702.371   -65163.042    6638.8375    -27582.91    24763.981    7529.0503   -10066.611    85.300822 
    5900    1898.0834   -116.74071    1.7174257   -115.02329   -2093.3674     4.380367     4.380367     4.380367   -2093.3674   -17444.325     47163.45   -35999.228   -2160.4279   -26134.127   -14639.377    84.048795 
    6000    1589.0298   -116.49012    1.4377876   -115.05234   -7396.0053    4.3898051    4.3898051    4.3898051   -7396.0053   -9942.8125    48528.749   -60773.953    7329.7719    608.16623       2475.4     84.59325 
    6100    1641.5218   -116.53262    1.4852834   -115.04734   -17876.963    4.4134455    4.4134455    4.4134455   -17876.963   -35455.922    22151.425   -40326.392    15966.051   -1621.7612    1213.6683    85.967306 
    6200    1837.8492   -116.68422    1.6629246   -115.02129    5013.5234    4.4120807    4.4120807    4.4120807    5013.5234   -28091.386    79325.035   -36193.079    2127.6358   -15469.021   -21979.814    85.887572 
    6300    1569.3161   -116.43392    1.4199502   -115.01397    10360.689    4.4009687    4.4009687    4.4009687    10360.689   -6820.7478    76548.965   -38646.151   -1494.2704      18677.1   -13903.334    85.240276 
    6400    2242.6762   -117.03547    2.0292205   -115.00625   -6560.6383    4.3890692    4.3890692    4.3890692   -6560.6383   -40480.079    33351.031   -12552.866    16124.585   -4931.0837    8825.9912    84.550716 
    6500    2405.7743   -117.19957    2.1767952   -115.02278    -16100.27    4.3974284    4.3974284    4.3974284    -16100.27   -39368.844    -1902.962   -7029.0025    1827.7841   -6888.6485   -1088.2449    85.034728 
    6600    1428.6505   -116.32327     1.292673    -115.0306    -19928.03    4.4175515    4.4175515    4.4175515    -19928.03   -15998.647    2370.8189   -46156.262    -8726.394    13096.795   -3924.7481    86.207464 
    6700    1903.5696   -116.72251    1.7223898   -115.00012    -17120.48    4.4083062    4.4083062    4.4083062    -17120.48   -8432.2065   -12809.414    -30119.82     16009.52   -20769.651   -13306.478    85.667337 
    6800    1703.9311   -116.54011    1.5417527   -114.99836    16641.341    4.3752071    4.3752071    4.3752071    16641.341    5704.8326    34141.004    10078.187    1998.7408    16106.034     12755.58    83.752127 
    6900    1166.5132   -116.09138    1.0554856    -115.0359    10643.595     4.368369     4.368369     4.368369    10643.595   -527.53804     61596.98   -29138.656   -19474.803    21360.178     3047.287    83.360049 
    7000    1845.7864   -116.72363    1.6701063   -115.05352   -20063.564    4.3900255    4.3900255    4.3900255   -20063.564   -11975.899   -13989.573    -34225.22   -12841.095   -4798.9785   -1633.2701    84.605996 
    7100    2067.9057   -116.90786    1.8710846   -115.03678    2697.1336    4.3965487    4.3965487    4.3965487    2697.1336    7111.9385    31445.096   -30465.634    2802.1712    16932.664   -803.14042    84.983708 
    7200     1956.649   -116.80275    1.7704172   -115.03233    8784.9869    4.3898116    4.3898116    4.3898116    8784.9869    49318.984    -4964.158   -17999.865    2337.1014    20597.706    17563.901    84.593629 
    7300     2167.988   -116.99954    1.9616411    -115.0379    3881.6104    4.3863031    4.3863031    4.3863031    3881.6104    27407.964    -15908.65    145.51671    7667.7051    799.72907   -4230.0784     84.39096 
    7400    2418.0935   -117.22457    2.1879418   -115.03663    13453.584    4.3889472    4.3889472    4.3889472    13453.584      14060.1    36693.245   -10392.593     6038.065    2287.1002   -5775.1031    84.543663 
    7500     2277.396    -117.1001    2.0606358   -115.03946   -4290.9218    4.3928912    4.3928912    4.3928912   -4290.9218   -9573.6857    24884.127   -28183.207   -12670.451    4881.1627    19504.858    84.771787 
    7600    1568.9462   -116.45032    1.4196155   -115.03071    11663.858    4.3951426    4.3951426    4.3951426    11663.858   -24375.328    36391.517    22975.386    2405.0386   -8128.1784   -3685.5666    84.902196 
    7700    1496.6026   -116.37468    1.3541575   -115.02052    2662.5147    4.4009504    4.4009504    4.4009504    2662.5147   -79943.184    70417.173    17513.556    3865.8839    7604.9643   -15705.585    85.239212 
    7800    1371.3465   -116.25687    1.2408231   -115.01605    4182.0435    4.4021052    4.4021052    4.4021052    4182.0435   -62454.181    80295.791   -5295.4791   -13048.042    1287.6025    12914.253    85.306328 
    7900    1220.5529   -116.12601    1.1043819   -115.02163    2456.3008    4.3941473    4.3941473    4.3941473    2456.3008   -20213.006    20010.583    7571.3257    -6504.299   -2712.6269   -391.20069    84.844529 
    8000    1156.1046   -116.07062    1.0460677   -115.02456     5327.776    4.3880117    4.3880117    4.3880117     5327.776   -24357.094    40496.706     -156.284      14346.4    4770.3942   -20911.977    84.489614 
    8100    1810.1131   -116.66398    1.6378284   -115.02615   -15242.047    4.3826878    4.3826878    4.3826878   -15242.047   -43581.187   -954.96778   -1189.9851   -12182.694    576.33802    20866.885    84.182461 
    8200    1644.4294   -116.53695    1.4879143   -115.04903    8597.8529    4.3940633    4.3940633    4.3940633    8597.8529   -27147.465    29897.612    23043.412   -12463.809   -2844.4058    27785.981     84.83966 
    8300     2225.948   -117.04909    2.0140846   -115.03501   -46157.127     4.411617     4.411617     4.411617   -46157.127   -48030.865       -46848   -43592.516     7208.512    8991.6298   -25791.441      85.8605 
    8400    2324.5492    -117.1387     2.103301    -115.0354   -19574.465    4.3810215    4.3810215    4.3810215   -19574.465    2129.3755   -35396.112   -25456.658    18440.316   -1536.2105    13622.438    84.086479 
    8500    2037.8323   -116.87645    1.8438735   -115.03258    51599.266    4.3661458    4.3661458    4.3661458    51599.266    45067.222     58218.49    51512.087    17728.563    2820.2549    41836.573    83.232837 
    8600    2072.0891   -116.92095    1.8748697   -115.04608   -18249.448    4.4041069    4.4041069    4.4041069   -18249.448   -26214.809   -45055.572    16522.039     3862.388    8496.6828   -32684.128    85.422753 
    8700     1856.577   -116.71627    1.6798699    -115.0364   -18820.771    4.3972343    4.3972343    4.3972343   -18820.771   -10830.509   -69416.843     23785.04    -18142.83    12989.418    -15604.12    85.023471 
    8800    1986.7932   -116.81478    1.7976922   -115.01709    38007.287    4.3655163    4.3655163    4.3655163    38007.287    77105.691    21431.791    15484.379   -10332.713    -10150.97    45062.655    83.196841 
    8900     2047.545   -116.89353    1.8526618   -115.04087    2931.4322    4.3827739    4.3827739    4.3827739    2931.4322    22888.514   -5006.5201   -9087.6972    6295.3808   -17015.422   -30737.019    84.187418 
    9000     2351.915   -117.16148    2.1280621   -115.03342   -19670.455    4.3899635    4.3899635    4.3899635   -19670.455   -7310.0598   -28238.915   -23462.391    10792.502     9771.321    -8451.666    84.602407 
    9100    2136.3421   -116.96576    1.9330073   -115.03276    12924.465    4.3809556    4.3809556    4.3809556    12924.465    62487.442    12506.694   -36220.741    8834.7789    16518.392    45856.347    84.082682 
    9200    2221.7444   -117.04448     2.010281   -115.03419   -9608.3738    4.3896484    4.3896484    4.3896484   -9608.3738   -15960.782    2729.2486   -15593.588   -17569.711    -11965.27   -20767.711    84.584193 
    9300    2147.5373   -116.97374    1.9431369   -115.03061   -5848.4797    4.3805712    4.3805712    4.3805712   -5848.4797    737.14829    16708.352   -34990.939   -5901.3933   -31656.304   -16106.478    84.060551 
    9400    2066.6331   -116.89878    1.8699331   -115.02884    1924.0547    4.3721805    4.3721805    4.3721805    1924.0547    2191.3464    15852.882   -12272.064    17307.868     1795.426    30645.389    83.578435 
    9500    1906.7288   -116.76828    1.7252483   -115.04303   -7406.7327    4.3910045    4.3910045    4.3910045   -7406.7327   -3855.0657   -1139.3926    -17225.74    2136.0784    2295.1796   -9925.1374    84.662611 
    9600     1756.339   -116.60857    1.5891724    -115.0194   -13273.124     4.397415     4.397415     4.397415   -13273.124    8388.1022   -30079.035   -18128.438   -6852.5394   -19676.004    4422.8295     85.03395 
    9700    1344.0737   -116.22755    1.2161461    -115.0114   -23529.855    4.3818136    4.3818136    4.3818136   -23529.855    16502.037   -64935.526   -22156.075     10715.68   -632.52349    23979.637    84.132095 
    9800    1497.1647   -116.37044    1.3546661   -115.01577   -7318.4504    4.3809971    4.3809971    4.3809971   -7318.4504    43509.903   -47522.786   -17942.468    1932.6861   -8785.2749   -11258.821    84.085073 
    9900    1634.4657   -116.49536    1.4788989   -115.01646   -23200.383    4.3979913    4.3979913    4.3979913   -23200.383   -8918.1356   -56296.038   -4386.9771   -7040.6961   -14470.479    19307.547    85.067387 
   10000    1078.5939   -115.98674   0.97593443    -115.0108   -24961.169    4.4026474    4.4026474    4.4026474   -24961.169   -24921.856   -39882.974   -10078.676    12282.255     -5307.09    13566.321    85.337854 
   10100    2045.4871   -116.84191    1.8507997   -114.99111    7306.3329    4.3892512    4.3892512    4.3892512    7306.3329   -16707.455    39323.766   -697.31233   -9942.7922   -1806.1166   -22650.653    84.561233 
   10200    2393.8071   -117.16157    2.1659669    -114.9956     186.1259    4.3808615    4.3808615    4.3808615     186.1259   -29025.877     30191.06   -606.80572    12398.183   -15383.163    5166.4345    84.077263 
   10300    1863.8227   -116.70922    1.6864259   -115.02279    2816.1201    4.3763917    4.3763917    4.3763917    2816.1201    4863.2462    1868.5764    1716.5379    14179.351    115.68132   -1057.2067    83.820175 
   10400    2259.2478    -117.0842    2.0442149   -115.03999    10647.852     4.378682     4.378682     4.378682    10647.852   -3246.3765    44673.962   -9484.0298   -9344.2563    12733.254   -11738.009    83.951843 
   10500    2419.2016   -117.23413    2.1889445   -115.04518   -4811.7582     4.388187     4.388187     4.388187   -4811.7582   -32351.163    25234.785   -7318.8965    11209.952   -6092.4474    -5046.933    84.499743 
   10600    2598.2246   -117.38782    2.3509282   -115.03689   -10389.897     4.380407     4.380407     4.380407   -10389.897   -16651.704   -19283.942    4765.9545    17402.489   -6177.9321    2617.8392      84.0511 
   10700    2299.2486   -117.11822    2.0804085   -115.03781    23655.235    4.3672479    4.3672479    4.3672479    23655.235    23200.013   -4279.0465    52044.739   -13720.077    16834.923   -145.74047    83.295884 
   10800    1742.0768   -116.63117    1.5762677    -115.0549   -5593.0773    4.3732472    4.3732472    4.3732472   -5593.0773   -10523.225   -12434.193    6178.1858    10845.917    7222.1877   -18370.497    83.639624 
   10900    1297.4446   -116.23455    1.1739551    -115.0606   -12800.821    4.3796425    4.3796425    4.3796425   -12800.821   -11390.814   -46107.498    19095.848    28481.272   -5242.4033    -554.5002    84.007098 
   11000    1680.0449   -116.57449    1.5201399   -115.05435   -4531.6601    4.3804151    4.3804151    4.3804151   -4531.6601   -22019.238    -60815.01    69239.267   -15471.341    2439.3301    -5237.155    84.051566 
   11100    1728.3835   -116.61581    1.5638777   -115.05193   -3871.5206    4.3731454    4.3731454    4.3731454   -3871.5206   -19009.102   -28093.045    35487.585    2615.5603   -3343.2385    1150.3958    83.633783 
   11200      960.414   -115.92572   0.86900277   -115.05672    26393.284    4.3648091    4.3648091    4.3648091    26393.284    17512.809   -17972.736    79639.779    32940.946   -21689.626   -5536.9886    83.156415 
   11300    1473.9104   -116.39082    1.3336251   -115.05719   -11463.134    4.3782018    4.3782018    4.3782018   -11463.134   -59605.574   -45695.972    70912.145    -12865.02   -1790.5408   -7270.3028    83.924221 
   11400    1587.0964   -116.48599    1.4360381   -115.04995   -31184.014    4.3912609    4.3912609    4.3912609   -31184.014   -63119.137   -73829.097    43396.194   -1060.0096    14134.465    9695.6209    84.677438 
   11500    1248.8632   -116.17369    1.1299977   -115.04369    6731.2264    4.3817173    4.3817173    4.3817173    6731.2264   -10642.692   -54495.871    85332.242    34058.942     -22029.4   -6230.9551    84.126545 
   11600    1822.8391    -116.6986    1.6493432   -115.04926   -23882.703    4.3748331    4.3748331    4.3748331   -23882.703   -34414.367   -20525.465   -16708.278   -4399.3977    2548.5354   -34604.543    83.730649 
   11700    2087.1119   -116.94048    1.8884627   -115.05202   -7578.1137    4.3613484    4.3613484    4.3613484   -7578.1137   -47895.311    20569.141     4591.829   -11719.827    27105.702   -7450.9406    82.958777 
   11800    2340.7294     -117.189    2.1179411   -115.07106    2812.8153    4.3693585    4.3693585    4.3693585    2812.8153    9165.9793     -26297.1    25569.567    14866.639    9269.6466    7775.7785    83.416706 
   11900    1973.5696   -116.84988    1.7857273   -115.06415   -41058.114    4.3985314    4.3985314    4.3985314   -41058.114   -30633.547   -50765.661   -41775.134    15414.786   -10825.893   -22726.033    85.098734 
   12000    1933.3527   -116.80439    1.7493382   -115.05505   -21919.018    4.3768518    4.3768518    4.3768518   -21919.018   -49489.777    25353.091   -41620.369   -9191.6045    3706.1822   -1575.5324    83.846614 
   12100    2334.4499   -117.14361    2.1122593   -115.03135    39457.886    4.3583097    4.3583097    4.3583097    39457.886    11656.643    25002.048    81714.966    -5610.439    17952.068    3331.1711    82.785497 
   12200    2622.3443   -117.41615    2.3727522    -115.0434    -4332.244    4.3731405    4.3731405    4.3731405    -4332.244    7836.3346   -24745.881    3912.8149    12248.097   -1222.9571   -3070.7371    83.633507 
   12300     1740.687   -116.63828    1.5750101   -115.06327     14063.22    4.3750381    4.3750381    4.3750381     14063.22   -17737.562    10768.455    49158.765   -3447.1052    7417.4395   -14673.324     83.74242 
   12400    1746.4466   -116.65003    1.5802216   -115.06981   -30409.346     4.386033     4.386033     4.386033   -30409.346   -47399.986    -11179.15   -32648.902   -3471.7187    8642.6836   -5379.7391     84.37537 
   12500    1786.7897   -116.67757    1.6167249   -115.06084   -11912.477     4.379048     4.379048     4.379048   -11912.477    10394.245   -36991.408   -9140.2673    5855.7033   -3637.8148    45634.185    83.972895 
   12600     1889.606    -116.7599    1.7097552   -115.05014    6108.1995    4.3625526    4.3625526    4.3625526    6108.1995    10969.032   -8110.1867    15465.753   -3608.4935    7077.5105    7146.1777    83.027514 
   12700    1861.4053   -116.74334    1.6842386    -115.0591   -5290.3223    4.3685757    4.3685757    4.3685757   -5290.3223   -40743.199    22851.443    2020.7891   -6199.9204     30451.48   -9473.0127    83.371878 
   12800    1389.5966   -116.31936    1.2573362   -115.06202    -2136.839    4.3849121    4.3849121    4.3849121    -2136.839   -26212.542   -24749.082    44551.107    5307.9058   -5168.3344    23492.633    84.310695 
   12900    1821.1504   -116.69539    1.6478151   -115.04757   -19679.773    4.3962396    4.3962396    4.3962396   -19679.773   -30872.389   -66047.513    37880.583    11394.919   -3833.7949     11092.46    84.965783 
   13000     2462.309   -117.26034    2.2279489   -115.03239   -639.54265    4.3751265    4.3751265    4.3751265   -639.54265   -24774.802   -25414.281    48270.455   -275.66391    15251.675    7635.2332    83.747499 
   13100    1767.1585   -116.62799    1.5989621   -115.02903    46572.286     4.347911     4.347911     4.347911    46572.286    45535.905      8790.19    85390.762   -4380.4367    -7569.716    28516.208    82.194346 
   13200    1381.5724   -116.33715    1.2500758   -115.08707   -26451.355    4.3790477    4.3790477    4.3790477   -26451.355    10659.771   -43476.481   -46537.354    3052.3419   -5158.1722    16356.169    83.972877 
   13300    1844.0902   -116.71528    1.6685716   -115.04671   -16252.231    4.3960635    4.3960635    4.3960635   -16252.231    -31068.65   -25035.456    7347.4142    930.56598    20524.115   -19981.395     84.95557 
   13400    1992.4266    -116.8272    1.8027895   -115.02441    7967.3566    4.3828481    4.3828481    4.3828481    7967.3566    24095.091   -13789.526    13596.505    4953.0774    4724.4034    12680.959    84.191695 
   13500    1484.0452   -116.38782    1.3427953   -115.04503   -6219.9206    4.3831119    4.3831119    4.3831119   -6219.9206    33460.211   -43685.518    -8434.455    2186.1856    -13257.54    10564.762    84.206901 
   13600    1098.5208   -116.04803   0.99396469   -115.05407    34652.008    4.3830721    4.3830721    4.3830721    34652.008    2519.4843   -5633.7101    107070.25   -2775.7567    1574.7712   -14697.768    84.204604 
   13700    1855.2706   -116.72622    1.6786878   -115.04754   -14060.147    4.3946539    4.3946539    4.3946539   -14060.147    -27547.97    8830.9729   -23463.444     -8992.73    40629.881   -7526.4193    84.873877 
   13800    2194.3053   -117.01625    1.9854535    -115.0308   -13309.579     4.384471     4.384471     4.384471   -13309.579    -13444.49   -13630.403   -12853.844   -10938.846    5458.1215   -6886.5517    84.285253 
   13900     1744.725   -116.61947    1.5786638    -115.0408    12094.751    4.3735142    4.3735142    4.3735142    12094.751    43348.313   -32532.046    25467.986    1546.1529   -7135.4881   -15227.993    83.654948 
   14000    1326.1531   -116.27513    1.1999312   -115.07519   -192.49813    4.3927243    4.3927243    4.3927243   -192.49813   -42252.707   -1149.3845    42824.597    7003.9958    13742.005   -4740.5368    84.762125 
   14100    1503.1736   -116.42959    1.3601031   -115.06948    3577.4104    4.4071045    4.4071045    4.4071045    3577.4104   -39738.217   -18144.224    68614.672    7578.6139    2066.0233   -5028.1058    85.597294 
   14200    1749.1228   -116.62363     1.582643   -115.04099    -4466.713     4.411487     4.411487     4.411487    -4466.713    5537.2608   -58201.602    39264.202     613.4393   -24665.362   -12719.765    85.852909 
   14300    1737.3995   -116.59213    1.5720356   -115.02009   -9076.4225    4.4030099    4.4030099    4.4030099   -9076.4225   -4403.1607   -11775.406   -11050.701   -1804.1149    5083.5768    11884.348    85.358936 
   14400    1775.2546   -116.62133    1.6062877   -115.01504   -17137.963    4.3913758    4.3913758    4.3913758   -17137.963   -53940.064   -20951.673    23477.849    3636.3364   -8279.2382    7398.8657     84.68409 
   14500    2108.1666   -116.91974    1.9075134   -115.01222     2393.906     4.386691     4.386691     4.386691     2393.906    19896.871     -36389.4    23674.248    15947.168   -33349.226   -15362.143    84.413346 
   14600    2234.6817   -117.04276     2.021987   -115.02077   -11078.945    4.3950728    4.3950728    4.3950728   -11078.945   -3045.6837   -52221.577    22030.426    11584.559    19986.287    12401.207    84.898151 
   14700    2026.7885   -116.85716    1.8338808   -115.02328    4913.9988    4.3990354    4.3990354    4.3990354    4913.9988   -30683.996    21607.063    23818.929    8549.9638    518.63442      820.332     85.12799 
   14800    1908.5793   -116.75086    1.7269227   -115.02394    8777.1972    4.3970139    4.3970139    4.3970139    8777.1972   -13482.812    10558.537    29255.867    2919.0017   -28492.728   -15386.895    85.010685 
   14900    1692.8637   -116.54784    1.5317387    -115.0161    15358.106    4.3908295    4.3908295    4.3908295    15358.106    22387.076    -13970.64     37657.88    138.12479   -3676.2285   -3899.9964    84.652484 
   15000    1671.8737   -116.52983    1.5127465   -115.01708    4485.2633      4.38503      4.38503      4.38503    4485.2633   -6648.8194    30627.038   -10522.428   -7734.3933   -22828.054    4432.0163    84.317497 
   15100     1435.808   -116.33831    1.2991492   -115.03916    6484.8266    4.3951192    4.3951192    4.3951192    6484.8266   -38151.712    20989.354    36616.838   -15906.741   -31227.674   -3979.9189    84.900835 
   15200    1696.4931   -116.56044    1.5350226   -115.02541    8140.1536    4.4078162    4.4078162    4.4078162    8140.1536   -42005.681    59773.934    6652.2076    227.08832    13492.246   -20448.018    85.638771 
   15300    1597.8206   -116.45759    1.4457417   -115.01185    8710.3954    4.4032342    4.4032342    4.4032342    8710.3954   -31281.506     85768.17   -28355.478    9642.3887   -7370.2855   -788.21551    85.371979 
   15400    1545.5273   -116.40676    1.3984256   -115.00834    17969.501    4.4052227    4.4052227    4.4052227    17969.501   -24036.088    111550.47   -33605.875    6150.1223   -5231.2024   -5954.0274    85.487696 
   15500    2012.4354    -116.8279    1.8208939   -115.00701    22896.501    4.3980778    4.3980778    4.3980778    22896.501    -16941.94    91364.207   -5732.7654    16530.831   -6042.1111    5863.8396    85.072409 
   15600    1327.1437   -116.22511    1.2008275   -115.02428    10799.396    4.3947808    4.3947808    4.3947808    10799.396    19271.162    56060.284   -42933.258    21952.495    -43046.18   -4227.3694    84.881229 
   15700    2318.1375   -117.11963    2.0974995   -115.02213   -17298.875    4.4040937    4.4040937    4.4040937   -17298.875    21246.905   -30169.255   -42974.276   -2217.1519    10771.839    1338.7322    85.421984 
   15800    1747.0564    -116.5951    1.5807733   -115.01433   -17457.073    4.4159153    4.4159153    4.4159153   -17457.073    37778.849   -24914.654   -65235.414   -5881.9844   -24989.589    7255.9759    86.111705 
   15900    1321.6215   -116.18924    1.1958309   -114.99341   -335.26583    4.4207332    4.4207332    4.4207332   -335.26583    67829.816    2552.9982   -71388.612    23654.182   -17024.015    5992.8621    86.393866 
   16000    1740.2026   -116.55611    1.5745719   -114.98154    26151.602    4.4141127    4.4141127    4.4141127    26151.602    25022.599    69889.081   -16456.875    4633.8426    23158.228   -13566.065    86.006298 
   16100    1576.4671   -116.42591    1.4264205   -114.99949    12444.769    4.4084671    4.4084671    4.4084671    12444.769    19625.032    30065.391   -12356.115    3535.2108    -16439.97   -14471.851    85.676714 
   16200    1658.2417   -116.50437    1.5004119   -115.00396    27155.908    4.4142646    4.4142646    4.4142646    27155.908    18267.012    77653.933   -14453.221    19893.628    4012.0833   -27133.092    86.015175 
   16300    2184.4762   -116.97341      1.97656   -114.99685   -7237.1749    4.4220068    4.4220068    4.4220068   -7237.1749   -6303.1036    10098.314   -25506.735     32721.07    3649.4773   -15997.269    86.468558 
   16400     1411.387   -116.25686    1.2770526   -114.97981    17802.839    4.4180366    4.4180366    4.4180366    17802.839    3475.6988    67149.019   -17216.202     15283.53   -30067.063   -1986.6603    86.235863 
   16500    2061.2295   -116.81971    1.8650438   -114.95467      2481.72    4.4117318    4.4117318    4.4117318      2481.72    29443.318     26668.56   -48666.718    21250.151    9063.6875    15685.681    85.867204 
   16600     1184.901   -116.04897    1.0721233   -114.97685    246.34413     4.405119     4.405119     4.405119    246.34413    78413.755    622.90771    -78297.63    20628.529   -40672.192   -8832.4837    85.481655 
   16700    1190.9086   -116.07637    1.0775592   -114.99881    6333.7734    4.4014562    4.4014562    4.4014562    6333.7734    84557.314   -8512.7015   -57043.292    2438.8353     -40017.5   -932.33172    85.268605 
   16800    1710.0162   -116.55566    1.5472586    -115.0084   -5321.6584    4.4078838    4.4078838    4.4078838   -5321.6584    49018.891   -65201.852    217.98565    5469.8583   -6498.8542    8143.4256    85.642712 
   16900    1645.0913   -116.50955    1.4885132   -115.02104   -34515.959    4.4156389    4.4156389    4.4156389   -34515.959   -53622.919    9636.4878   -59561.446    12986.302   -37369.782   -10899.342    86.095541 
   17000    1975.5198   -116.79366    1.7874919   -115.00617   -57145.451    4.4072731    4.4072731    4.4072731   -57145.451   -40176.788   -77433.441   -53826.125   -81.097616   -20954.608    1181.9671    85.607119 
   17100    1968.7065   -116.79128     1.781327   -115.00995   -5702.0801     4.390568     4.390568     4.390568   -5702.0801    29551.333   -39798.876    -6858.697   -940.00155     5890.623    5373.5005    84.637362 
   17200    1971.4941   -116.82235    1.7838493   -115.03851   -10171.669    4.3987392    4.3987392    4.3987392   -10171.669    11892.027   -3517.5659   -38889.469    2031.2373   -34227.105   -1983.7717    85.110794 
   17300    1852.5825   -116.71224    1.6762556   -115.03599   -14857.285    4.4119395    4.4119395    4.4119395   -14857.285      15017.2   -13259.574   -46329.482    12626.386   -30601.521    2138.0793    85.879327 
   17400    2154.5304   -116.97095    1.9494643   -115.02148   -6990.6629    4.4090807    4.4090807    4.4090807   -6990.6629    8528.2156     16804.48   -46304.684    23501.492    18934.294    2825.9808    85.712496 
   17500    1477.4996   -116.36426    1.3368727   -115.02739    57500.724    4.4034155    4.4034155    4.4034155    57500.724      77957.6    55519.654     39024.92    2115.7771    21921.253   -11150.875    85.382523 
   17600    2188.9595   -117.00614    1.9806165   -115.02552   -12115.993    4.4161117    4.4161117    4.4161117   -12115.993    6645.8052   -14401.782   -28592.001   -11614.616   -19953.222    3062.8941    86.123197 
   17700     1688.417   -116.54752    1.5277152   -115.01981   -12499.919    4.4258939    4.4258939    4.4258939   -12499.919     40138.61   -24953.623   -52684.743   -20100.031    6711.4668    21051.154    86.696783 
   17800    2013.2341   -116.82416    1.8216165   -115.00254   -12753.755     4.416985     4.416985     4.416985   -12753.755   -6333.4661   -38392.077    6464.2773   -8424.9627    5160.9312    4895.1318    86.174299 
   17900    1759.4733   -116.60103    1.5920084   -115.00902   -130.07818    4.3987901    4.3987901    4.3987901   -130.07818    36635.232   -35472.387   -1553.0789    8518.7454   -24240.929   -7235.2544    85.113748 
   18000    1756.6617   -116.62568    1.5894644   -115.03621    25527.756     4.391616     4.391616     4.391616    25527.756    91524.894   -16564.931    1623.3042   -15890.214    -2512.272    14780.195    84.697987 
   18100    1880.9322   -116.76141     1.701907    -115.0595    7089.6774    4.4051718    4.4051718    4.4051718    7089.6774    42760.352   -35582.378    14091.059    3874.5781    19143.974   -10065.973    85.484729 
   18200    2045.0154   -116.91345    1.8503729   -115.06308   -6237.9433    4.4119072    4.4119072    4.4119072   -6237.9433    1994.5116   -42919.384    22211.043    6705.3509   -7967.9232    6952.2405    85.877443 
   18300    2077.6954   -116.93079    1.8799424   -115.05085   -7777.3835    4.4093124    4.4093124    4.4093124   -7777.3835    20381.769   -10713.984   -32999.935    -1108.687   -31150.724    5981.9084    85.726012 
   18400    1738.3433   -116.61086    1.5728895   -115.03797    10446.116    4.4076433    4.4076433    4.4076433    10446.116    22068.055    12864.438   -3594.1448    8976.9211    9520.8936    602.10305    85.628693 
   18500    1616.0916   -116.50644    1.4622737   -115.04416   -20373.379    4.4183753    4.4183753    4.4183753   -20373.379   -32460.137   -6393.7126   -22266.288    2372.4161   -430.26024   -18689.835      86.2557 
   18600    985.89251   -115.91758   0.89205626   -115.02553    30085.101    4.4133864    4.4133864    4.4133864    30085.101    70707.272    4892.7905    14655.242   -9198.5279    -34239.69   -4656.3089    85.963852 
   18700    2294.3158   -117.07777    2.0759451   -115.00182   -17329.586    4.3927949    4.3927949    4.3927949   -17329.586   -31746.375   -18088.962   -2153.4206    10496.081    13059.599    15567.248    84.766212 
   18800    1133.4193   -116.06811    1.0255416   -115.04257   -13618.567    4.4020337    4.4020337    4.4020337   -13618.567   -4413.6006   -18613.621   -17828.479     7154.636   -12341.084     -12320.5    85.302175 
   18900    1967.9943   -116.81031    1.7806826   -115.02963    -54608.13    4.4172584    4.4172584    4.4172584    -54608.13   -64079.445   -57844.359   -41900.584   -5502.0358   -27706.754   -6555.5693    86.190302 
   19000    1445.0497   -116.31348    1.3075114   -115.00597    46112.394    4.4158123    4.4158123    4.4158123    46112.394    48036.258   -8328.1178    98629.042   -14892.072    18961.726   -10731.338    86.105681 
   19100    1936.0506   -116.76084    1.7517793   -115.00906   -21636.462    4.4227158    4.4227158    4.4227158   -21636.462   -6772.3373   -13342.946   -44794.102    22347.934    1007.1556   -1381.9522    86.510159 
   19200    2129.5711   -116.92335    1.9268807   -114.99647   -9671.9105    4.4078984    4.4078984    4.4078984   -9671.9105   -25198.715   -22530.581    18713.564   -9620.6402   -22802.912    6795.9015    85.643565 
   19300    2140.9327   -116.93885    1.9371609   -115.00169    20338.119    4.3971001    4.3971001    4.3971001    20338.119    78192.544   -21872.832    4694.6441   -12514.903    21909.282   -455.53093    85.015684 
   19400    2064.8997   -116.91494    1.8683646   -115.04658   -13305.567    4.4176335    4.4176335    4.4176335   -13305.567   -8871.4437    8026.1041   -39071.362    28630.433    3698.4895    11341.332    86.212263 
   19500    2296.0812   -117.09829    2.0775425   -115.02074   -52725.746    4.4238164    4.4238164    4.4238164   -52725.746   -41584.439   -53025.128   -63567.669    4902.8233    16445.676    12389.801    86.574756 
   19600    1750.8405   -116.57589    1.5841973    -114.9917   -2150.5493    4.4231013    4.4231013    4.4231013   -2150.5493     989.7543   -33313.699    25872.297   -10376.899    2347.4181    3568.9293    86.532783 
   19700    1734.1306   -116.55056    1.5690778   -114.98148   -25255.256    4.4274761    4.4274761    4.4274761   -25255.256   -27909.404    -19552.22   -28304.143    239.59867   -23753.719    12413.936      86.7898 
   19800    1063.6006   -115.95767   0.96236819    -114.9953   -25770.657     4.416624     4.416624     4.416624   -25770.657    -31729.02     -40443.9   -5139.0516   -31537.629    13796.432   -7262.6689    86.153175 
   19900    2070.7257   -116.87227    1.8736361   -114.99863   -18214.163    4.4065808    4.4065808    4.4065808   -18214.163   -22486.348   -23608.667    -8547.475   -1647.7913   -19886.175   -4441.8698    85.566784 
   20000    1507.5894   -116.38957    1.3640986   -115.02547    10034.532    4.4005926    4.4005926    4.4005926    10034.532    1995.3431   -18687.613    46795.866    3115.6063   -25305.962    1883.4235     85.21842 
   20100    1507.5203   -116.41011    1.3640361   -115.04607   -2381.7357    4.4023737    4.4023737    4.4023737   -2381.7357   -7573.3531   -41094.308    41522.453    7554.6121    10881.744   -11918.105    85.321942 
   20200     1994.808   -116.85282    1.8049442   -115.04787   -9075.5934    4.4073378    4.4073378    4.4073378   -9075.5934    92.441066   -61253.776    33934.554     591.9907     8477.672   -25841.816     85.61089 
   20300    2270.1659   -117.08537    2.0540939   -115.03128    6411.7862    4.4048606    4.4048606    4.4048606    6411.7862   -22600.763   -35229.702    77065.824    3490.3508    6139.9116    8887.4424    85.466618 
   20400    1756.2285   -116.64087    1.5890725    -115.0518    13643.694    4.4073413    4.4073413    4.4073413    13643.694   -34637.896     -58726.8    134295.78   -18061.575   -5236.2086     9782.259    85.611094 
   20500    2153.9638   -117.00579    1.9489518   -115.05684   -25802.103    4.4173878    4.4173878    4.4173878   -25802.103   -14439.207   -82657.176    19690.075   -4923.1947    2565.5378   -17620.078    86.197881 
   20600    2161.2456   -116.98803    1.9555405   -115.03249    5879.7665    4.4043242    4.4043242    4.4043242    5879.7665    7766.6014   -32464.606    42337.304    9942.2267    7500.9092    9530.7652    85.435396 
   20700    1391.9611   -116.28407    1.2594756   -115.02459    16060.794    4.3875065    4.3875065    4.3875065    16060.794    50902.776    2545.8892   -5266.2817    9157.7383   -7936.2116   -8369.7043    84.460437 
   20800    1525.7735    -116.4284    1.3805519   -115.04785   -973.08557     4.397215     4.397215     4.397215   -973.08557    42946.808   -51313.247     5447.183   -664.41507    21312.368   -27211.406     85.02235 
   20900    1301.3936    -116.2084    1.1775283   -115.03087     16272.67    4.4193679    4.4193679    4.4193679     16272.67    22735.189   -26359.601     52442.42    5927.1711   -8804.7825    6164.3673    86.313844 
   21000    1624.8362    -116.4716    1.4701859   -115.00141   -12551.455    4.4140792    4.4140792    4.4140792   -12551.455    12431.528   -17893.421   -32192.473    3892.6292   -11175.466   -19651.176    86.004337 
   21100    1089.7046   -115.99328    0.9859876   -115.00729    16033.569     4.409808     4.409808     4.409808    16033.569    59906.303    -2312.342   -9493.2547   -8194.5008     7844.214   -10849.034    85.754918 
   21200    2452.7971   -117.21693    2.2193424   -114.99759   -12244.416    4.4020298    4.4020298    4.4020298   -12244.416    11889.032    -30695.88   -17926.402    4691.6534    5756.8758    8471.4485    85.301943 
   21300    2009.4659   -116.82227     1.818207   -115.00406    55954.779    4.3800741    4.3800741    4.3800741    55954.779    90324.727    10403.419     67136.19    3908.2664    -20334.51   -43915.605    84.031934 
   21400    1795.5796   -116.68984    1.6246782   -115.06516   -4036.3507    4.4154818    4.4154818    4.4154818   -4036.3507    21625.677   -5926.3403   -27808.389   -16025.388    16891.279   -4194.5104     86.08635 
   21500    1615.1423   -116.47273    1.4614147   -115.01132   -27380.478    4.4375744    4.4375744    4.4375744   -27380.478   -21545.858   -17988.303   -42607.275    -5990.423    37887.423   -991.24625    87.385011 
   21600    1663.3337   -116.47073    1.5050193   -114.96571    31481.813    4.3963649    4.3963649    4.3963649    31481.813    82692.288    15375.613   -3622.4608   -16254.332   -2332.5683   -17076.913     84.97305 
   21700    1345.3481   -116.20269    1.2172992   -114.98539    38226.344    4.3874421    4.3874421    4.3874421    38226.344    52985.626    94772.723   -33079.316   -23818.695    3919.0841   -13578.496    84.456718 
   21800    1739.9886   -116.58583    1.5743783   -115.01145   -35315.934    4.4248735    4.4248735    4.4248735   -35315.934   -32010.598   -16215.483   -57721.721   -2134.6221     32419.72    14777.499    86.636837 
   21900    1281.2849   -116.15287    1.1593335   -114.99353    30629.852    4.4102043    4.4102043    4.4102043    30629.852    12079.501    68638.107    11171.947    425.86801   -721.05297    -6552.146     85.77804 
   22000    2140.4548   -116.92917    1.9367285   -114.99244    10276.148    4.3930901    4.3930901    4.3930901    10276.148    14411.499    7784.6924    8632.2535   -7618.7306    5312.4836   -14681.911    84.783301 
   22100    1990.5342   -116.82305    1.8010772   -115.02197   -20810.012    4.4150608    4.4150608    4.4150608   -20810.012   -68733.555    14461.526    -8158.006   -30320.042     13978.84    1402.9227    86.061728 
   22200    2012.3543   -116.83797    1.8208204   -115.01715   -11626.205    4.4035985    4.4035985    4.4035985   -11626.205     12177.09   -4414.3579   -42641.347   -5311.0781   -8367.3918    3950.9694    85.393171 
   22300    1422.4476   -116.31919    1.2870605   -115.03213    28972.014    4.3979401    4.3979401    4.3979401    28972.014    54878.025    40628.559   -8590.5427   -11340.326    9628.5408   -8267.7797    85.064415 
   22400    1673.7021   -116.54881    1.5144008   -115.03441   -5309.3794    4.4200733    4.4200733    4.4200733   -5309.3794   -33232.821    1183.6299    16121.053    -19280.97     10962.62    6039.2292    86.355183 
   22500    1710.5793   -116.56964    1.5477681   -115.02187    -35714.49    4.4053321    4.4053321    4.4053321    -35714.49   -18095.216   -6901.3231   -82146.929   -4022.1281   -17812.739    12013.951    85.494067 
   22600    1180.3273     -116.078     1.067985   -115.01001    57816.808    4.3703891    4.3703891    4.3703891    57816.808    99761.273    27405.243    46283.908    1455.3072   -4099.0951    20753.791    83.475747 
   22700    1856.4069   -116.75689     1.679716   -115.07718   -1684.3314    4.3993849    4.3993849    4.3993849   -1684.3314   -27292.453    10635.335    11604.124   -23200.989    11564.364   -1476.8703    85.148279 
   22800    1403.8602   -116.30872    1.2702422   -115.03848   -33840.192    4.4278106    4.4278106    4.4278106   -33840.192   -82591.331   -4570.6518   -14358.594    2206.5184    1178.1386    13004.371     86.80947 
   22900    1592.0076   -116.44186     1.440482   -115.00138    30085.395    4.3967136    4.3967136    4.3967136    30085.395   -6254.3107    31807.298    64703.198    911.77264   -4748.8622    32111.349     84.99327 
   23000    2313.8302   -117.10722    2.0936022   -115.01362    7641.3231    4.3859956    4.3859956    4.3859956    7641.3231    16817.326    17835.161   -11728.518   -7190.1273    4014.3922    6401.4237    84.373213 
   23100    1572.7878   -116.46335    1.4230915   -115.04025    9987.2409     4.393579     4.393579     4.393579    9987.2409   -56459.308    53051.315    33369.716    8349.7725    19764.592    8136.7518    84.811614 
   23200    1588.6113   -116.47959    1.4374089   -115.04218    30166.437    4.3960773    4.3960773    4.3960773    30166.437   -21498.006      72212.9    39784.416   -15522.178   -3126.3894    24500.814    84.956372 
   23300    2220.7988    -117.0478    2.0094254   -115.03838   -7901.8221    4.4183227    4.4183227    4.4183227   -7901.8221   -12013.214   -6073.8876   -5618.3646    1913.1183   -7356.2678    2804.3676    86.252621 
   23400    2186.3006   -116.97602    1.9782107   -114.99781   -18367.719     4.418813     4.418813     4.418813   -18367.719    33732.683   -27409.502   -61426.338    4503.0617   -13338.773   -13602.452     86.28134 
   23500    1732.0877   -116.54599    1.5672294   -114.97876    6468.0515    4.4041202    4.4041202    4.4041202    6468.0515    14332.344   -19548.094    24619.905    14342.116   -14712.533    8298.5328    85.423526 
   23600    1550.6112   -116.40129    1.4030256   -114.99826   -4426.6761    4.4117013    4.4117013    4.4117013   -4426.6761    14726.521    12429.239   -40435.788    23346.459   -22133.779    5464.2314    85.865418 
   23700     1538.192   -116.39217    1.3917885   -115.00038   -17166.404    4.4315499    4.4315499    4.4315499   -17166.404   -672.50125    5266.1287   -56092.841    15280.056    13533.551    18163.024    87.029591 
   23800    1951.8659   -116.72927    1.7660893   -114.96318   -37506.994    4.4347943    4.4347943    4.4347943   -37506.994   -51157.182    12636.598   -74000.396   -8081.6412   -1346.7873    22042.473    87.220878 
   23900    2189.6953   -116.92852    1.9812823   -114.94724   -4414.9164    4.4038161    4.4038161    4.4038161   -4414.9164   -52609.095    67300.047   -27935.701    8080.6832    2213.7416   -18709.171    85.405829 
   24000    1516.6499   -116.35114    1.3722967   -114.97884    34205.996    4.3886611    4.3886611    4.3886611    34205.996    21955.713    27266.375    53395.901    6530.0008     -22960.6   -6657.2352    84.527135 
   24100    1766.7688   -116.64524    1.5986095   -115.04663    6255.6411    4.4133004    4.4133004    4.4133004    6255.6411    28623.385   -378.25208   -9478.2096   -8229.9344   -25425.487    19042.715    85.958827 
   24200    1817.4722   -116.67539    1.6444871    -115.0309   -14121.505    4.4372712    4.4372712    4.4372712   -14121.505    -776.1056   -24623.072   -16965.339   -13349.252   -4631.8656   -4437.5385      87.3671 
   24300    2069.5449   -116.88428    1.8725677   -115.01171   -7473.2068    4.4013698    4.4013698    4.4013698   -7473.2068    39199.824   -15149.421   -46470.023    13965.422   -1927.2444   -12262.618    85.263585 
   24400    1340.0492   -116.19291    1.2125047   -114.98041    51084.738    4.3574107    4.3574107    4.3574107    51084.738    43440.775    60002.445    49810.994   -24561.414   -21235.696    9839.2661    82.734277 
   24500    1826.5398   -116.71461    1.6526916   -115.06192     11611.29    4.3931177    4.3931177    4.3931177     11611.29    10233.351   -2542.1161    27142.637   -27255.541   -16617.392    -13033.39    84.784901 
   24600    2288.0323   -117.09649    2.0702597   -115.02623   -34373.851    4.4376083    4.4376083    4.4376083   -34373.851   -7728.7211   -53460.268   -41932.565    20622.685   -14020.181   -12874.645    87.387015 
   24700     1147.093   -116.03175    1.0379138   -114.99384    255.94508     4.428816     4.428816     4.428816    255.94508   -33304.824   -13832.031     47904.69   -12658.504   -9497.0697   -115.75734    86.868616 
   24800    1779.4304   -116.58366     1.610066    -114.9736    17778.793    4.3907667    4.3907667    4.3907667    17778.793    16199.457    20007.462    17129.461   -17235.067   -1636.8442   -12734.536    84.648856 
   24900    2293.5517   -117.06393    2.0752537   -114.98868    19612.699    4.3754595    4.3754595    4.3754595    19612.699    6657.6436    20729.587    31450.868     10155.56   -14621.564   -10718.409    83.766623 
   25000    670.33748   -115.65865   0.60653544   -115.05212    13121.318    4.4058734    4.4058734    4.4058734    13121.318   -90983.885    29692.188    100655.65   -28564.987    4000.0197   -261.35131    85.525584 
   25100    2055.6498   -116.87303    1.8599952   -115.01303   -30247.543    4.4280053    4.4280053    4.4280053   -30247.543   -80808.233    11315.124    -21249.52    -9937.525    1555.0514    18794.982    86.820922 
   25200    2158.0559   -116.93706    1.9526543   -114.98441   -23333.791    4.4164895    4.4164895    4.4164895   -23333.791   -22824.227   -24807.923   -22369.223    7810.4262   -2555.9549   -12412.619    86.145306 
   25300    1614.2149   -116.45181    1.4605755   -114.99124    4446.7443    4.3873908    4.3873908    4.3873908    4446.7443   -789.82943   -30259.026    44389.088   -14965.296   -11014.462   -2656.4825    84.453752 
   25400    2681.7964   -117.42612    2.4265457   -114.99957    23767.884    4.3732046    4.3732046    4.3732046    23767.884    25945.634    38831.061    6526.9573   -12885.965   -850.37151   -6406.9318    83.637183 
   25500    1823.6932   -116.71347    1.6501159   -115.06336   -127.41506    4.4003574    4.4003574    4.4003574   -127.41506    21814.289   -36301.898    14105.364   -1203.4336    -3872.041    470.38345    85.204758 
   25600    1594.3731   -116.48301    1.4426223   -115.04039   -32939.775    4.4158823    4.4158823    4.4158823   -32939.775   -66224.073   -59919.282    27324.032   -40396.106   -11927.761     1579.933    86.109777 
   25700     2564.268   -117.32135    2.3202036   -115.00114   -13254.733    4.3939679    4.3939679    4.3939679   -13254.733   -36625.151   -14409.145    11270.099     7285.877   -7710.8679   -13903.058    84.834138 
   25800    1415.7047   -116.29839    1.2809593   -115.01743    627.87403    4.3838985    4.3838985    4.3838985    627.87403   -48906.246    10200.994    40588.874    7958.4204     27809.36     7966.984    84.252241 
   25900    1286.8896   -116.20442    1.1644047   -115.04002   -12128.309    4.3944324    4.3944324    4.3944324   -12128.309    -66557.09   -21259.128    51431.292   -60566.277   -13235.386   -8930.4343     84.86104 
   26000    1842.9959   -116.70374    1.6675815   -115.03616   -21952.157    4.4044224    4.4044224    4.4044224   -21952.157   -65942.785    14506.321   -14420.005    31378.527   -3280.2824    4339.0648    85.441109 
   26100    1354.3182   -116.27649    1.2254156   -115.05108   -17065.536    4.3954662    4.3954662    4.3954662   -17065.536   -61075.696   -25516.853     35395.94   -3566.9501    4106.3522     793.1739    84.920947 
   26200    1283.5442   -116.21798    1.1613777    -115.0566    18485.547    4.3830584    4.3830584    4.3830584    18485.547   -67816.178    50792.864    72479.954   -54946.188    3730.5742   -834.18697    84.203816 
   26300    2470.6593   -117.28339    2.2355044   -115.04788   -12352.843    4.3954523    4.3954523    4.3954523   -12352.843   -27033.445    4056.7825   -14081.867    34086.611   -5195.9956    -24210.71    84.920142 
   26400    1476.5818   -116.37999    1.3360422   -115.04395    10588.956     4.394708     4.394708     4.394708    10588.956   -933.85131    16242.977    16457.744   -14839.799    13752.045    4744.0534    84.877013 
   26500     2095.529   -116.93987    1.8960787   -115.04379   -8720.6949    4.3932371    4.3932371    4.3932371   -8720.6949   -52449.534    3383.0412    22904.408   -45613.875   -382.24842   -8286.4535    84.791816 
   26600    2435.0579   -117.23712    2.2032915   -115.03383    9949.6092    4.3996328    4.3996328    4.3996328    9949.6092   -4693.9402    3012.0554    31530.712    5868.6584     1346.891   -1267.2663    85.162672 
   26700    2083.0301    -116.9158    1.8847694   -115.03103   -18732.044    4.3958129    4.3958129    4.3958129   -18732.044   -9353.7083    -25515.92   -21326.506   -32038.084    7186.2019   -3683.9904    84.941043 
   26800    1915.0449   -116.75863    1.7327729   -115.02586   -7840.7264     4.392498     4.392498     4.392498   -7840.7264     -61432.6   -8115.8198    46026.241   -25210.859    16286.802   -5526.4958    84.749029 
   26900    1611.7836   -116.48433    1.4583757   -115.02596    2218.2209      4.40377      4.40377      4.40377    2218.2209    -5389.023    2103.4584    9940.2273    6630.5475   -2462.1487    7716.7512    85.403148 
   27000    1824.4224    -116.6692    1.6507758   -115.01842   -35424.572    4.4135421    4.4135421    4.4135421   -35424.572    -66849.11   -33984.868   -5439.7368   -26376.567   -6947.7325    -17125.26    85.972947 
   27100    1617.3112   -116.47291    1.4633771   -115.00953   -8135.9571    4.4070255    4.4070255    4.4070255   -8135.9571   -41025.288   -7669.8358    24287.252   -21777.096    6865.3742    1741.4686    85.592693 
   27200    1274.8149     -116.157    1.1534793   -115.00353    25955.401    4.4021174    4.4021174    4.4021174    25955.401   -26913.891    38839.072    65941.021    19908.485   -5484.3435    13944.716    85.307038 
   27300    1800.7527   -116.63333    1.6293589   -115.00397   -6951.1743    4.4099899    4.4099899    4.4099899   -6951.1743   -70465.293    10386.315    39225.455   -5744.2485     1098.088    14796.993    85.765533 
   27400    1811.6374   -116.64025    1.6392076   -115.00104    10632.539    4.4078258    4.4078258    4.4078258    10632.539   -54631.382    51289.864    35239.136    -24968.37   -7354.0841    21564.971    85.639334 
   27500    2007.1176   -116.81896    1.8160822   -115.00288    8213.1833    4.3991085    4.3991085    4.3991085    8213.1833   -32149.497    31476.809    25312.238    -7741.603   -4418.5588    7606.1312    85.132233 
   27600    1926.0737    -116.7559    1.7427519   -115.01315    -10605.62    4.4012422    4.4012422    4.4012422    -10605.62   -27065.619    11881.637   -16632.879   -24876.978    39370.956    12509.398     85.25617 
   27700    1933.1267   -116.75471    1.7491336   -115.00558    15565.341    4.3873211    4.3873211    4.3873211    15565.341   -40411.309    516.04242    86591.288    154.80481   -3854.7916    14215.699    84.449732 
   27800    1405.7978   -116.31034    1.2719954   -115.03835   -26516.206    4.3922958    4.3922958    4.3922958   -26516.206   -76121.536    29614.085   -33041.167    32748.456   -24594.902   -9407.3827    84.737325 
   27900    1366.0342   -116.26992    1.2360165    -115.0339    -30405.76    4.4003068    4.4003068    4.4003068    -30405.76   -105410.81    23861.244   -9667.7118    5917.8291    25094.997   -6279.3731    85.201823 
   28000    2406.8454   -117.18834    2.1777643   -115.01057   -20792.497    4.3882821    4.3882821    4.3882821   -20792.497    -61852.69   -20141.507    19616.707    1423.0193    17893.346    17389.576    84.505235 
   28100    990.28294   -115.94163   0.89602882    -115.0456     13503.55    4.3912649    4.3912649    4.3912649     13503.55   -51873.371    31373.643    61010.377    6834.0122   -16720.551    2021.2809    84.677674 
   28200    1599.8384   -116.48181    1.4475674   -115.03424    1749.1441    4.3998761    4.3998761    4.3998761    1749.1441   -41414.963    10039.854    36622.541   -12337.938    26984.997    -10096.51    85.176804 
   28300    2117.8289   -116.93641    1.9162561   -115.02015    2570.3305    4.4143845    4.4143845    4.4143845    2570.3305   -22178.256   -64009.771    93899.018    2844.9189    8954.7014    7630.6669    86.022185 
   28400     2230.774   -117.03523    2.0184512   -115.01678   -31113.062    4.4079017    4.4079017    4.4079017   -31113.062    -50460.41   -56469.248    13590.472    7764.0108    7184.2945    5404.8778    85.643754 
   28500    1642.0123   -116.50045    1.4857272   -115.01472    27924.778    4.3754937    4.3754937    4.3754937    27924.778   -27804.271    24763.262    86815.343   -186.48204    26330.587    10694.093    83.768589 
   28600    1952.7638   -116.81924    1.7669018   -115.05234   -3810.7856    4.3892209    4.3892209    4.3892209   -3810.7856   -10317.758   -49601.819     48487.22    12156.606     4108.373   -10012.131    84.559483 
   28700     1424.037    -116.3173    1.2884986    -115.0288    7789.3696    4.4037788    4.4037788    4.4037788    7789.3696    -48746.71   -51698.445    123813.26    5844.4939   -19302.226   -2548.4948    85.403664 
   28800    1283.4683   -116.19404    1.1613091   -115.03273   -36044.201    4.3957455    4.3957455    4.3957455   -36044.201   -78514.883   -11331.723   -18285.997   -2611.4402     30928.39   -3409.8196    84.937139 
   28900    1671.7992   -116.54812    1.5126791   -115.03544   -13460.203    4.3874305    4.3874305    4.3874305   -13460.203    -65842.47    5805.2363    19656.626    11064.631    12147.784    91.576136    84.456047 
   29000    2248.7519   -117.07847    2.0347179   -115.04375   -10194.953    4.4000144    4.4000144    4.4000144   -10194.953   -36925.386   -44058.865    50399.392   -4741.1221   -9383.3513    3885.0095    85.184834 
   29100     1119.297   -116.06294    1.0127635   -115.05018   -48123.679     4.414134     4.414134     4.414134   -48123.679   -98597.965   -4168.0898    -41604.98    -6047.217    36436.104    16399.177    86.007541 
   29200    1934.5501   -116.76981    1.7504216   -115.01939     22863.72    4.3733657    4.3733657    4.3733657     22863.72    17305.604    69169.443   -17883.887    3219.6005    7466.6006   -15632.241    83.646425 
   29300     2878.131   -117.63365    2.6041934   -115.02946    1049.4481    4.3730278    4.3730278    4.3730278    1049.4481     13856.17   -9899.8703   -807.95497   -16345.312    -1791.798   -6647.7179    83.627038 
   29400    1261.1287    -116.1858    1.1410958    -115.0447   -53576.386    4.4200778    4.4200778    4.4200778   -53576.386   -43312.485    -19161.16   -98255.514    973.58591    68274.377   -11429.837    86.355449 
   29500    2014.3052   -116.83219    1.8225856   -115.00961   -20129.262    4.3949485    4.3949485    4.3949485   -20129.262   -28671.557    9812.6916   -41528.921   -1712.6695    22304.466    4819.7893    84.890946 
   29600    2219.0833   -116.98855    2.0078732   -114.98068    30645.498    4.3520118    4.3520118    4.3520118    30645.498    14075.797    31919.119    45941.577   -4527.4726   -8172.5785    8339.0905    82.427135 
   29700    783.80497   -115.77853   0.70920321   -115.06933   -3306.9089    4.3827358    4.3827358    4.3827358   -3306.9089    28628.261   -3894.9544   -34654.033   -6258.8202    67120.528   -10592.665    84.185223 
   29800    1637.8277   -116.50084    1.4819409    -115.0189   -24117.983    4.4185668    4.4185668    4.4185668   -24117.983   -52016.863   -18838.214    -1498.871     2553.111    3764.3001   -7357.4949    86.266914 
   29900    1417.5741    -116.2708    1.2826509   -114.98815   -2114.0938    4.4087102    4.4087102    4.4087102   -2114.0938   -67455.655    44670.453    16442.921   -24538.243   -834.63288    2054.6815    85.690891 
   30000    1175.1903   -116.05232    1.0633369   -114.98898     -17378.6    4.4027893    4.4027893    4.4027893     -17378.6    -46295.39    31599.214   -37439.622   -8852.9586    51242.844    11484.155    85.346105 
   30100    2637.0359   -117.36268    2.3860455   -114.97663   -5931.4839    4.3877737    4.3877737    4.3877737   -5931.4839   -24867.904   -21199.721    28273.173    18969.259   -6480.0479   -8774.2795     84.47587 
   30200    1797.4911   -116.62809    1.6264077   -115.00168    37342.994    4.3707383    4.3707383    4.3707383    37342.994    49975.418    8900.4245     53153.14   -22025.143   -2316.9584    5439.0425     83.49576 
   30300    1543.2781   -116.44871    1.3963905   -115.05232    13524.926    4.3969106    4.3969106    4.3969106    13524.926   -21161.693    43475.014    18261.458   -4915.7611    38339.553    14101.701    85.004692 
   30400    2564.0088   -117.32856     2.319969   -115.00859   -15937.721     4.418916     4.418916     4.418916   -15937.721    23900.508   -26179.364   -45534.307    3335.9289   -4997.8289   -5703.9948     86.28737 
   30500     1922.876   -116.73829    1.7398586   -114.99843   -21810.377    4.4025448    4.4025448    4.4025448   -21810.377   -6587.8502   -43894.814   -14948.468   -26488.486    14609.083    5846.8397    85.331887 
   30600      1432.96   -116.30029    1.2965723   -115.00372    10152.604    4.3744365    4.3744365    4.3744365    10152.604   -5182.8041    16140.022    19500.594   -6192.9235    36782.752   -5142.4257     83.70788 
   30700    2103.7929   -116.91479     1.903556   -115.01123    27980.893      4.37039      4.37039      4.37039    27980.893    61819.162    5964.2851    16159.231   -3308.3204   -9793.2992    12951.206    83.475796 
   30800     1183.792   -116.13174    1.0711198   -115.06062    4206.6437    4.3970231    4.3970231    4.3970231    4206.6437   -8702.6293   -18435.792    39758.353   -3265.4689    -1299.231   -2544.2778    85.011221 
   30900    1108.8923   -116.05053     1.003349   -115.04718   -11802.365    4.4174679    4.4174679    4.4174679   -11802.365   -12823.502   -26324.126    3740.5342   -6204.6865    51056.472    7173.5112     86.20257 
   31000    2358.5052   -117.14503    2.1340251   -115.01101   -3447.3994     4.410527     4.410527     4.410527   -3447.3994   -6255.4389    16322.976   -20409.736   -978.27455   -13991.978   -5682.3322    85.796875 
   31100    1493.3671   -116.37522    1.3512299   -115.02399   -3648.1765    4.3835426    4.3835426    4.3835426   -3648.1765   -12580.657    4198.6551   -2562.5273   -25740.807    21577.765    10135.068    84.231723 
   31200    1909.5931   -116.74402      1.72784   -115.01618    36544.084    4.3614721    4.3614721    4.3614721    36544.084    23820.803    46185.307    39626.143   -6395.7868    27634.176    10298.357    82.965837 
   31300    2584.9308   -117.39749    2.3388997   -115.05859   -2164.8451    4.3951465    4.3951465    4.3951465   -2164.8451   -19313.072    29406.765   -16588.228    6705.0144   -13875.433   -1615.5318    84.902418 
   31400    1637.1208   -116.52064    1.4813013   -115.03934    -50044.59    4.4221496    4.4221496    4.4221496    -50044.59   -84958.372   -23694.983   -41480.413   -22746.814    27361.008   -20109.756    86.476938 
   31500    2070.3441   -116.86618    1.8732908   -114.99289    14756.333    4.3895455    4.3895455    4.3895455    14756.333   -11436.218     50544.91    5160.3066   -10454.028    10805.992     401.1341    84.578243 
   31600    2049.8203   -116.85172    1.8547205     -114.997    9132.0157    4.3825125    4.3825125    4.3825125    9132.0157    18331.553    5070.4466    3994.0476   -775.70588   -5767.2954   -4708.2509    84.172356 
   31700    1188.6659   -116.10904    1.0755299   -115.03351   -31388.327    4.4044464    4.4044464    4.4044464   -31388.327   -55860.676   -17437.301   -20867.004   -42230.519    24597.207   -1091.8147    85.442507 
   31800    1904.1835   -116.73189    1.7229453   -115.00894   -4970.5524    4.3969844    4.3969844    4.3969844   -4970.5524   -226.37718   -10355.728   -4329.5522   -20735.632    -15027.72    5693.6926    85.008975 
   31900    1325.1865   -116.21529    1.1990566   -115.01624   -11951.843    4.3976923    4.3976923    4.3976923   -11951.843    2488.1538   -54860.606    16516.923    16816.208   -11917.347    7146.2508    85.050038 
   32000    1334.8193   -116.23315    1.2077726   -115.02538   -32864.308    4.4116328    4.4116328    4.4116328   -32864.308    -48808.03   -30424.662   -19360.232   -18405.707     16924.02   -8705.6289     85.86142 
   32100    2308.3977   -117.08848    2.0886867    -114.9998   -1924.9391    4.3992806    4.3992806    4.3992806   -1924.9391    24754.221   -38201.854    7672.8162    -10207.96   -25214.031   -6674.5706    85.142226 
   32200    1775.3217   -116.61735    1.6063484   -115.01101    13976.175    4.3902605    4.3902605    4.3902605    13976.175   -8855.8735   -23969.219    74753.617    11808.816   -23041.972   -11669.503    84.619581 
   32300    1782.2476   -116.63355    1.6126151   -115.02093   -11546.765    4.4039557    4.4039557    4.4039557   -11546.765   -44075.711   -26911.425    36346.843    -533.4499    1551.0583   -24218.909    85.413956 
   32400    2278.8014   -117.06559    2.0619074   -115.00369    11832.664    4.4112694    4.4112694    4.4112694    11832.664    17230.875    811.72235    17455.395   -277.90483   -4884.1505    17.577633    85.840204 
   32500    1771.2324   -116.60904    1.6026483   -115.00639   -16720.076    4.4172078    4.4172078    4.4172078   -16720.076   -39083.344     -68442.5    57365.616   -13207.106   -18955.934    8790.9402    86.187342 
   32600     1260.993    -116.1422     1.140973   -115.00122   -19205.147    4.4167896    4.4167896    4.4167896   -19205.147   -41647.272   -48662.125    32693.956   -3829.6696    3263.8075   -20046.919    86.162868 
   32700     2057.686   -116.84674    1.8618375   -114.98491   -17685.686    4.3965254    4.3965254    4.3965254   -17685.686   -28278.531   -38856.222    14077.695   -1361.8908    25016.357    1381.4599    84.982357 
   32800    1460.6548   -116.33367    1.3216312   -115.01204    20712.902    4.3829342    4.3829342    4.3829342    20712.902    38359.031   -32635.171    56414.847   -10599.875    -13549.16    19564.939    84.196658 
   32900    1379.8614   -116.29419    1.2485276   -115.04566    2061.9163    4.3957733    4.3957733    4.3957733    2061.9163   -15257.946      10067.8    11375.895     23512.58     9278.175   -13951.966     84.93875 
   33000     2019.771   -116.87467    1.8275312   -115.04714    -8735.366    4.3976936    4.3976936    4.3976936    -8735.366    40636.877   -37296.829   -29546.146   -3919.8069    4843.0943    17055.233    85.050116 
   33100    1435.8548   -116.36322    1.2991916   -115.06403    19710.668    4.3955138    4.3955138    4.3955138    19710.668    47774.857   -13919.123    25276.271    -25266.25   -13745.907    14347.479    84.923709 
   33200    2086.0583   -116.92939    1.8875094   -115.04188    1007.4236     4.416123     4.416123     4.416123    1007.4236    8938.5288    10404.427   -16320.685    2954.0192    2560.4433    2612.8417    86.123859 
   33300    2581.8119   -117.32939    2.3360776   -114.99331   -16589.452    4.4238468    4.4238468    4.4238468   -16589.452    27677.972   -36720.728     -40725.6   -20327.618    12018.569    -1973.014    86.576541 
   33400    1241.5601   -116.11695    1.1233896   -114.99356    9939.2038    4.4060813    4.4060813    4.4060813    9939.2038    33148.642      13198.5   -16529.531   -35701.114   -22275.982    28722.658    85.537692 
   33500    1993.3299   -116.80273    1.8036068   -114.99912    21285.589    4.3970624    4.3970624    4.3970624    21285.589    56797.923    19188.716   -12129.872   -23898.333   -13409.452    460.65741      85.0135 
   33600    2329.4672   -117.12009    2.1077508   -115.01234   -23962.854    4.4167959    4.4167959    4.4167959   -23962.854   -6418.8477   -31632.637   -33837.077   -4669.9074     8237.701    12556.683    86.163231 
   33700    1137.3188   -116.04609    1.0290699   -115.01702   -44937.727    4.4208807    4.4208807    4.4208807   -44937.727   -80494.549    5269.0055   -59587.639   -28165.992   -27420.537     14416.87    86.402517 
   33800     1486.537   -116.34962    1.3450499   -115.00457    10835.308    4.3967986    4.3967986    4.3967986    10835.308    61918.753     15758.41   -45171.238   -8101.0768   -12791.922    7437.2007    84.998196 
   33900    1900.4965   -116.73036    1.7196092   -115.01075    37597.308     4.382867     4.382867     4.382867    37597.308   -12246.976     72431.56    52607.338   -3846.9902    12911.566    854.67123    84.192785 
   34000    1399.6183   -116.32443     1.266404   -115.05802   -10748.903    4.3905559    4.3905559    4.3905559   -10748.903   -36341.497   -24105.061    28199.848   -38383.359   -5479.0558    8793.3804    84.636661 
   34100    1673.3583   -116.57269    1.5140897    -115.0586   -10782.856    4.4132337    4.4132337    4.4132337   -10782.856   -48129.124   -5767.9424      21548.5    -2252.608   -4541.2296    954.76363    85.954927 
   34200     1542.833   -116.41741    1.3959877   -115.02143    11647.948    4.4266048    4.4266048    4.4266048    11647.948   -43633.098    40660.297    37916.644   -7140.6612    6264.7295    13149.768     86.73857 
   34300    1903.0236    -116.7178    1.7218957    -114.9959    6048.2921    4.4155644    4.4155644    4.4155644    6048.2921   -542.70398   -20963.668    39651.248    -14624.47    12413.944    23585.233     86.09118 
   34400    2274.2906   -117.03367    2.0578259   -114.97584    30037.787    4.3969283    4.3969283    4.3969283    30037.787    34352.962    20884.022    34876.377    13674.163   -87.261196    12177.824     85.00572 
   34500    1703.1999   -116.54946    1.5410911   -115.00837    24329.906    4.3935181    4.3935181    4.3935181    24329.906    47683.881   -1276.4292    26582.266   -50153.383    8114.1522   -8306.5763    84.808084 
   34600     2437.556   -117.21718    2.2055519   -115.01162   -20013.931    4.4049125    4.4049125    4.4049125   -20013.931    16557.282   -46673.494   -29925.581   -25204.187    24232.751   -3200.0272    85.469637 
   34700    1997.9656    -116.8158    1.8078013     -115.008    22239.466    4.4026266    4.4026266    4.4026266    22239.466    94648.197   -16024.558   -11905.243   -5078.1071   -7212.0965   -13787.239    85.336646 
   34800    913.06428    -115.8808   0.82615975   -115.05464    37368.084    4.4067904    4.4067904    4.4067904    37368.084    72025.928   -8045.8951    48124.218   -30106.586    22966.499    7836.3299    85.578994 
   34900    2173.1284   -117.01634    1.9662922   -115.05005   -18879.014    4.4264635    4.4264635    4.4264635   -18879.014    4517.3714   -52519.906   -8634.5087   -2638.6587   -2637.9541   -2169.8883    86.730265 
   35000    2172.6529   -117.00377     1.965862   -115.03791   -39782.931    4.4182934    4.4182934    4.4182934   -39782.931   -26738.127   -52786.293   -39824.374   -3552.5781   -12187.974   -7881.7713    86.250904 
   35100    1785.4689   -116.65461    1.6155298   -115.03908    10136.282    4.3793565    4.3793565    4.3793565    10136.282    27492.307   -231.68968    3148.2298   -44332.186    16377.948     6058.469    83.990641 
   35200    1656.1424   -116.59676    1.4985124   -115.09825    20356.408    4.3895062    4.3895062    4.3895062    20356.408    70649.697    15078.492   -24658.965   -1122.7998    3054.7538    16047.253     84.57597 
   35300    1432.3153   -116.38731    1.2959889   -115.09132    24596.374    4.4213926    4.4213926    4.4213926    24596.374    110844.79   -580.25234   -36475.413   -3167.1186    5458.1597    -1028.739    86.432534 
   35400    1923.3974   -116.78177    1.7403304   -115.04144   -23993.412    4.4404761    4.4404761    4.4404761   -23993.412   -12120.552   -9417.4956   -50442.189    -21517.48   -11902.082   -4612.1479    87.556545 
   35500     1955.214   -116.75553    1.7691187   -114.98642    -9837.322    4.4433515    4.4433515    4.4433515    -9837.322    43906.804    -30084.67     -43334.1    2874.2136   -13044.046    2633.5145    87.726741 
   35600    1660.0663   -116.46893    1.5020629   -114.96686    9768.9761    4.4152549    4.4152549    4.4152549    9768.9761    47133.794   -60683.349    42856.483   -10103.997   -20839.384   -9549.1643     86.07308 
   35700    1890.9102   -116.68782    1.7109353   -114.97688   -4992.3661    4.3943768    4.3943768    4.3943768   -4992.3661   -55276.373   -32379.951    72679.226   -34808.025    20714.813    6888.3971    84.857822 
   35800    1755.0411   -116.61914    1.5879981   -115.03115    17720.816    4.4042978    4.4042978    4.4042978    17720.816    63019.592   -21029.038    11171.894    4276.8322    10938.153    3773.7178    85.433861 
   35900    1763.3625   -116.64199    1.5955275   -115.04646   -53655.462    4.4392126    4.4392126    4.4392126   -53655.462   -46034.203   -110322.37     -4609.81   -24832.968   -20212.984   -18606.934    87.481822 
   36000    1774.9616   -116.62135    1.6060226   -115.01533   -35436.016    4.4296394    4.4296394    4.4296394   -35436.016   -41936.211   -68021.874    3650.0378    863.70437    3912.4919    6396.8242     86.91708 
   36100    1954.2555   -116.76156    1.7682514   -114.99331    23180.208    4.3716989    4.3716989    4.3716989    23180.208    54656.715     11663.54    3220.3705    -5459.644    31935.668    27821.694    83.550824 
   36200    1516.0905    -116.3957    1.3717905   -115.02391    33665.234     4.360126     4.360126     4.360126    33665.234    31531.371    18349.772    51114.558   -23124.381    3977.6546   -37012.048    82.889043 
   36300    1655.8356   -116.58602    1.4982349   -115.08778   -4985.5893    4.4150075    4.4150075    4.4150075   -4985.5893   -7941.7396   -35243.216    28228.188    6632.1166   -26450.321    13397.121    86.058614 
   36400    2266.3131   -117.08091    2.0506077    -115.0303   -48268.203    4.4350963    4.4350963    4.4350963   -48268.203   -76226.187   -17908.196   -50670.225   -2127.2401   -762.08477    14793.563    87.238698 
   36500    1665.2331   -116.52158    1.5067379   -115.01484    23578.118    4.3886442    4.3886442    4.3886442    23578.118   -22573.001    11257.541    82049.814   -32592.051    4797.6444   -2522.3532    84.526155 
   36600    1731.6306   -116.57904    1.5668157   -115.01222    24458.666    4.3620707    4.3620707    4.3620707    24458.666    45573.698    12402.012    15400.288   -1827.3335   -42683.067   -30742.879    83.000002 
   36700    2101.1258   -116.97559    1.9011428   -115.07445    1437.9916    4.3945433    4.3945433    4.3945433    1437.9916   -17021.932    20338.805    997.10183   -762.77377   -666.49912   -18437.332     84.86747 
   36800    2119.9709   -116.97793    1.9181943   -115.05973   -48296.008    4.4457065    4.4457065    4.4457065   -48296.008   -51147.059   -82947.161   -10793.805   -17487.272   -7355.3419    3878.0245    87.866304 
   36900    1572.3172    -116.3999    1.4226657   -114.97723   -33750.573    4.4539906    4.4539906    4.4539906   -33750.573   -22108.145   -49010.979   -30132.597   -752.41978   -5900.4053   -30138.165    88.358408 
   37000    2135.4215   -116.87725    1.9321743   -114.94508   -10956.766    4.4010464    4.4010464    4.4010464   -10956.766    26181.354   -45935.198   -13116.455   -2174.9208    14290.056   -16838.604     85.24479 
   37100     1533.952   -116.34391     1.387952   -114.95596    19187.997    4.3641949    4.3641949    4.3641949    19187.997   -2797.3881    51277.419    9083.9594   -20305.911   -36588.703   -2592.3801    83.121317 
   37200    1960.2273   -116.83047    1.7736548   -115.05681    11774.218    4.3891946    4.3891946    4.3891946    11774.218    21662.857    15556.201   -1896.4052   -449.26242   -3468.5706   -7138.8025     84.55796 
   37300    1571.6362    -116.4764    1.4220495   -115.05435   -21919.609    4.4377436    4.4377436    4.4377436   -21919.609   -21531.601   -7611.4127   -36615.815    19199.453    1418.3616    -21433.36    87.395006 
   37400    1142.6588   -116.04435    1.0339017   -115.01045   -36298.855    4.4325593    4.4325593    4.4325593   -36298.855   -74319.397     40130.64   -74707.809   -23023.349   -42445.601   -9397.0155    87.089071 
   37500    2274.0835   -117.04232    2.0576385   -114.98468   -519.98719    4.3729027    4.3729027    4.3729027   -519.98719    3381.3845    14050.959   -18992.305   -7942.3971    -16297.41    1496.7537    83.619858 
   37600    2220.8845   -117.00609    2.0095029   -114.99659    49260.881    4.3495424    4.3495424    4.3495424    49260.881    51162.444    68597.844    28022.357    33348.457    19200.582    8163.2595    82.286899 
   37700    1446.4905   -116.41281     1.308815     -115.104   -18913.528    4.4017158    4.4017158    4.4017158   -18913.528   -12760.263   -41395.949   -2584.3709   -16811.083   -34817.187   -13643.459    85.283691 
   37800    2193.6666    -117.0195    1.9848756   -115.03463   -59728.517    4.4389707    4.4389707    4.4389707   -59728.517   -58689.711   -81723.677   -38772.162   -39493.435    18219.128   -4333.2142    87.467524 
   37900    2123.5476   -116.91012    1.9214305   -114.98869   -10456.966    4.4067753    4.4067753    4.4067753   -10456.966    30475.269   -41874.155   -19972.013    29118.181   -15211.833   -2924.7383    85.578117 
   38000    1364.7755   -116.21541    1.2348775   -114.98054    15561.531    4.3616014    4.3616014    4.3616014    15561.531    12305.528   -4331.9717    38711.037   -9652.8642   -13533.233   -13184.181    82.973217 
   38100    1632.8723    -116.5211    1.4774572   -115.04364   -5005.5731    4.3634172    4.3634172    4.3634172   -5005.5731   -12721.651   -38405.376    36110.308   -56635.315    -7728.402    10055.797    83.076888 
   38200    2010.0128   -116.90895    1.8187018   -115.09025    14012.199    4.3957021    4.3957021    4.3957021    14012.199    43375.377   -9930.1475    8591.3675   -413.69434    2004.5628    18739.201    84.934622 
   38300    2149.2208    -117.0162    1.9446601   -115.07154    -22237.68    4.4145714    4.4145714    4.4145714    -22237.68   -30553.404   -10797.736     -25361.9   -11965.487    12013.023   -12841.576    86.033112 
   38400    1112.0416   -116.05424    1.0061986   -115.04805   -4981.4782    4.3959721    4.3959721    4.3959721   -4981.4782   -26208.036   -61778.792    73042.394   -30797.989   -9598.1849    10027.674    84.950276 
   38500    1607.8997   -116.48879    1.4548615   -115.03393    8544.8358     4.377973     4.377973     4.377973    8544.8358   -299.79301    32666.253   -6731.9526    20305.615     5158.671    41019.384    83.911068 
   38600    2600.9279   -117.39511    2.3533742   -115.04174    8769.9034    4.3911465    4.3911465    4.3911465    8769.9034    7626.8801   -1827.2257    20510.056    958.03352    17535.521   -22381.713    84.670824 
   38700     1774.333   -116.66247    1.6054538   -115.05701   -23267.722    4.4206031    4.4206031    4.4206031   -23267.722   -24102.336   -10862.595   -34838.235   -18129.462    -17157.42    25015.189    86.386239 
   38800    1458.0169   -116.33955    1.3192443    -115.0203   -29801.661    4.4287569    4.4287569    4.4287569   -29801.661    15963.736   -82263.333   -23105.387    11600.627    15433.887     48353.27    86.865139 
   38900    2261.4099    -117.0428    2.0461712   -114.99663    19565.741    4.3918792    4.3918792    4.3918792    19565.741    50812.534    7731.2869    153.40381    16484.633    -2582.909   -23481.899    84.713215 
   39000    2322.2564   -117.09317    2.1012264   -114.99195    30159.086    4.3598622    4.3598622    4.3598622    30159.086    59868.284    12904.007    17704.965     -8945.85   -3576.2053    21294.799    82.873995 
   39100    1261.5679   -116.20874    1.1414931   -115.06725    22107.483    4.3794679    4.3794679    4.3794679    22107.483    37564.869    12211.793    16545.787   -3545.6608    4951.2921    40532.815    83.997052 
   39200    1675.2054   -116.57118     1.515761   -115.05542   -35249.318    4.4119735    4.4119735    4.4119735   -35249.318    -65425.91    -60672.92    20350.877    1623.9691    9109.6316   -24342.287    85.881317 
   39300    1982.9276    -116.8064    1.7941945    -115.0122   -29951.899    4.4133788    4.4133788    4.4133788   -29951.899    4537.6502   -50993.556   -43399.792   -127.01849    16258.513    18259.597    85.963406 
   39400    1852.0304   -116.66817    1.6757561   -114.99241   -13881.767    4.3957554    4.3957554    4.3957554   -13881.767    16779.217   -35214.836   -23209.681   -11003.337   -25112.509    21003.717    84.937709 
   39500    1022.6899   -115.93813    0.9253513   -115.01278   -2419.5093    4.3803607    4.3803607    4.3803607   -2419.5093   -24465.952    -57013.75    74221.174    12415.291    5357.5363   -31974.286    84.048436 
   39600    1439.7713    -116.3446    1.3027353   -115.04187    9311.8843    4.3845549    4.3845549    4.3845549    9311.8843    59706.416   -36400.437    4629.6733    14947.251    9576.0183    -27943.99    84.290094 
   39700    2692.9974   -117.47436    2.4366806   -115.03768    4350.0247    4.3975176    4.3975176    4.3975176    4350.0247    52342.784   -32414.345   -6878.3646   -2464.4705    -12826.09    8114.6944    85.039903 
   39800    1471.5313   -116.38174    1.3314725   -115.05026   -6779.4757    4.4073929    4.4073929    4.4073929   -6779.4757   -40854.907   -34672.902    55189.382    6209.0765    13745.929    -10236.51    85.614104 
   39900    1440.2705   -116.33181     1.303187   -115.02862     11045.94    4.3999973    4.3999973    4.3999973     11045.94    60694.771   -40204.845    12647.894    2299.2957    11479.911   -30639.014    85.183844 
   40000    2343.4318   -117.11853    2.1203863   -114.99815    32158.669     4.396042     4.396042     4.396042    32158.669    66337.256    15223.917    14914.832    2260.0452    3542.5808    21613.017    84.954327 
   40100    1913.0776   -116.74643    1.7309929   -115.01543     10632.63    4.4005893    4.4005893    4.4005893     10632.63    7986.7106    38460.821   -14549.641    1365.5924   -2462.3329    -19611.38    85.218229 
   40200    1712.4244   -116.56673    1.5494375   -115.01729    398.30716      4.39562      4.39562      4.39562    398.30716    48154.185   -24452.404    -22506.86    15218.034    7794.5582   -32639.865    84.929862 
   40300    1947.2181   -116.77812    1.7618838   -115.01624    20069.637     4.386781     4.386781     4.386781    20069.637    34126.267    33503.085   -7420.4409   -16930.501   -10620.267    45986.537    84.418543 
   40400    2182.9397   -116.99815    1.9751697   -115.02298    14785.159    4.3853988    4.3853988    4.3853988    14785.159   -2649.2862    11849.499    35155.265   -16509.803   -9985.2426   -6162.4257    84.338776 
   40500    1221.5559    -116.1537    1.1052895   -115.04841    29093.006    4.3928078    4.3928078    4.3928078    29093.006    84622.762   -14726.937    17383.193    15364.937    20818.065   -18308.428    84.766961 
   40600    1613.4896   -116.50924    1.4599193   -115.04932   -16903.029    4.3982275    4.3982275    4.3982275   -16903.029     13750.56   -62669.982    -1789.664    4171.2484   -16263.813    43095.855    85.081098 
   40700    1552.0517    -116.4345     1.404329   -115.03017    38618.293    4.3937245    4.3937245    4.3937245    38618.293    5157.5632    86595.195    24102.121   -19992.075   -3317.5193   -17733.082    84.820038 
   40800    1754.4211   -116.61295    1.5874371   -115.02551   -7919.1157    4.3992107    4.3992107    4.3992107   -7919.1157    10283.789   -56342.217    22301.081    3452.8642     6474.583    8966.8362    85.138167 
   40900    1548.5616   -116.42581    1.4011711   -115.02464   -17251.555    4.4021833    4.4021833    4.4021833   -17251.555    1912.5484   -19530.219   -34136.993    10807.683     4287.521    23158.898    85.310867 
   41000    2156.8895   -116.96847    1.9515989   -115.01687    -19396.96    4.3990482    4.3990482    4.3990482    -19396.96   -56227.495   -7851.0676    5887.6837   -39852.694    12077.358   -5840.2543     85.12873 
   41100    2273.9129   -117.06267    2.0574842   -115.00518    7425.4701    4.3960596    4.3960596    4.3960596    7425.4701   -9783.9681    30992.407    1067.9715   -1761.7934   -4897.2558   -1622.0104    84.955348 
   41200    1797.1484   -116.63434    1.6260976   -115.00825   -13209.462    4.4013723    4.4013723    4.4013723   -13209.462    23576.448   -29499.429   -33705.405   -3183.8312    9952.0302    26677.588    85.263726 
   41300    1937.3777   -116.75555      1.75298   -115.00257    10732.504    4.4152694    4.4152694    4.4152694    10732.504     11998.82    31771.935   -11573.244    -40445.71   -7653.0158   -15092.013    86.073928 
   41400    1866.2562   -116.67521    1.6886278   -114.98658   -41133.081    4.4268188    4.4268188    4.4268188   -41133.081    28310.726   -85416.121   -66293.849    13961.799   -19120.728    2706.3329    86.751146 
   41500    1370.0812   -116.22867    1.2396782   -114.98899   -30396.372    4.3980864    4.3980864    4.3980864   -30396.372    194.19215   -62807.788   -28575.521    12771.112    5379.7941    51668.213    85.072908 
   41600    1877.6684   -116.67786    1.6989538    -114.9789   -3258.0784    4.3684627    4.3684627    4.3684627   -3258.0784    11689.771   -22445.287    981.28035   -15509.383   -729.94335    -18564.55    83.365409 
   41700    1325.6065   -116.24014    1.1994367    -115.0407   -4397.2621    4.3822973    4.3822973    4.3822973   -4397.2621    52178.577   -16684.247   -48686.117    1481.9222    -23824.13   -33271.417    84.159958 
   41800      1868.18   -116.74064    1.6903686   -115.05027   -36138.867    4.4042282    4.4042282    4.4042282   -36138.867    23847.288   -71826.073   -60437.815    12450.254    7644.2638    51465.658    85.429809 
   41900    2190.7312   -117.00999    1.9822196   -115.02777   -30367.878    4.4060413    4.4060413    4.4060413   -30367.878   -28205.248   -19545.581   -43352.805   -1241.5604   -3031.5462   -13405.269    85.535359 
   42000    1783.2324   -116.63169    1.6135061   -115.01818    4425.9229    4.3906452    4.3906452    4.3906452    4425.9229    58429.111   -5268.2076   -39883.135    6266.2946    -21568.47   -31722.482    84.641827 
   42100    1896.3617   -116.73998     1.715868   -115.02411   -2539.5977     4.395567     4.395567     4.395567   -2539.5977    6108.7341    32841.378   -46568.905   -6913.8445    1639.7478    24578.451     84.92679 
   42200     2196.507   -116.99618    1.9874457   -115.00873    -12135.02    4.4119001    4.4119001    4.4119001    -12135.02   -35414.365   -8197.2343    7206.5378    10767.571    11658.023    -3307.156     85.87703 
   42300    1848.8111   -116.67221    1.6728431   -114.99937   -13343.955    4.4108114    4.4108114    4.4108114   -13343.955    1941.3589   -19003.636   -22969.587   -11636.387   -14631.756    1522.2123    85.813469 
   42400    1405.1748   -116.28438    1.2714317   -115.01295    1923.1992    4.4074412    4.4074412    4.4074412    1923.1992   -459.99912   -6649.1209    12878.718    4672.8617    4369.5441    14533.945    85.616917 
   42500    1666.2583   -116.52318    1.5076655   -115.01552   -29028.891    4.3952288    4.3952288    4.3952288   -29028.891   -40413.777    -25100.77   -21572.127    30754.517    28308.372   -4368.1156    84.907188 
   42600    1467.3697   -116.35034     1.327707   -115.02263    28254.854    4.3823743    4.3823743    4.3823743    28254.854    91197.311   -19181.737    12748.987   -16647.323     3832.054   -9617.2025    84.164393 
   42700    2091.4714   -116.92089    1.8924073   -115.02848    21523.219    4.3997603    4.3997603    4.3997603    21523.219    75096.215   -35819.684    25293.125    9311.9853   -25078.838    11183.619    85.170078 
   42800     1538.972   -116.42069    1.3924942    -115.0282   -128.96572    4.4069571    4.4069571    4.4069571   -128.96572    96148.283   -60126.017   -36409.164    40360.652   -3621.5899   -12651.041    85.588706 
   42900    1674.9184   -116.54196    1.5155013   -115.02646    -20203.34    4.4005907    4.4005907    4.4005907    -20203.34   -13168.285   -39064.965   -8376.7711   -23216.181    26236.808   -21749.954    85.218313 
   43000    2452.8977   -117.23547    2.2194334   -115.01603   -831.96348    4.3922604    4.3922604    4.3922604   -831.96348    15435.072    -14792.62   -3138.3421   -12963.556   -13771.074    7351.5109    84.735273 
   43100    1670.7716   -116.55399    1.5117493   -115.04224   -21037.738    4.4052914    4.4052914    4.4052914   -21037.738    31141.936   -69173.058   -25082.091    34242.534    6703.1518   -24063.339    85.491693 
   43200    1459.0548   -116.37057    1.3201835   -115.05039     -9938.87    4.4098693    4.4098693    4.4098693     -9938.87    84115.066   -88908.888   -25022.788   -24884.964    29094.452   -4144.1204    85.758493 
   43300    1709.5935   -116.58556    1.5468762   -115.03868    5583.1051    4.3956876    4.3956876    4.3956876    5583.1051     99265.24   -78720.912   -3795.0126   -36075.886    401.79192    22682.894    84.933782 
   43400    2028.0912   -116.87468    1.8350595   -115.03962   -18538.824    4.3942494    4.3942494    4.3942494   -18538.824   -4998.6855    -51825.91     1208.124    13784.562   -2397.3135   -20260.364     84.85044 
   43500    1902.0329   -116.76467    1.7209993   -115.04367   -43199.201    4.4051343    4.4051343    4.4051343   -43199.201   -40129.316    -73522.96   -15945.328    10808.418    9447.5725     5639.197     85.48255 
   43600    1524.8641   -116.41951    1.3797291   -115.03978    11916.523    4.3996942    4.3996942    4.3996942    11916.523    95151.252    -66662.04    7260.3586   -17718.496   -4189.4845    27012.985    85.166238 
   43700    2721.4018   -117.49261    2.4623816   -115.03023     233.2356    4.3989937    4.3989937    4.3989937     233.2356    37727.425   -26587.023   -10440.695   -861.58347   -4517.1636   -7540.7899    85.125568 
   43800    1752.5313   -116.62515    1.5857271   -115.03942    20537.004    4.3890178    4.3890178    4.3890178    20537.004    107840.56   -51715.949    5486.4012    364.49796    -3265.025    37469.599    84.547745 
   43900    1769.1231   -116.64988    1.6007397   -115.04914   -5000.4382    4.3915767    4.3915767    4.3915767   -5000.4382    53011.541   -60988.404   -7024.4517   -17861.162    7414.2801    13250.223    84.695711 
   44000    1700.5587   -116.58955    1.5387012   -115.05085    20149.636    4.3889562    4.3889562    4.3889562    20149.636    113770.01   -51557.626   -1763.4731    22094.466   -20207.917   -3712.7656    84.544182 
   44100      1380.16   -116.32456    1.2487978   -115.07576   -4403.6577    4.4041349    4.4041349    4.4041349   -4403.6577    44280.013   -74275.764    16784.777   -13153.187    -18306.38    22922.922    85.424382 
   44200      1512.49   -116.42551    1.3685328   -115.05698   -50906.374    4.4105852    4.4105852    4.4105852   -50906.374   -35360.516   -117438.54    79.935558    -48162.53    14221.688    3899.5801    85.800267 
   44300    1730.9198   -116.58761    1.5661726   -115.02144    26848.347     4.382189     4.382189     4.382189    26848.347    31349.574   -23145.173    72340.641    16821.372   -6090.1289    2498.9093    84.153721 
   44400    2195.5049   -117.01148     1.986539   -115.02494    -9999.473    4.3904266    4.3904266    4.3904266    -9999.473   -11371.994   -38186.696    19560.271   -19835.983   -25844.344    12776.265    84.629189 
   44500    1861.9236   -116.72166    1.6847076   -115.03696   -47639.758     4.401572     4.401572     4.401572   -47639.758   -62779.325    -89113.34    8973.3897    -56879.22   -4891.6086   -17365.979    85.275336 
   44600    1523.8634   -116.41143    1.3788236   -115.03261    53861.683    4.3866685    4.3866685    4.3866685    53861.683    50831.781    23376.247    87377.021    39616.792    9938.6852    -28240.81    84.412048 
   44700    1992.3647   -116.84569    1.8027334   -115.04295   -27822.969    4.4034104    4.4034104    4.4034104   -27822.969   -54982.374   -51826.283     23339.75   -47812.898    12446.349    7549.4092    85.382231 
   44800    1805.6332   -116.64917    1.6337749   -115.01539   -31952.882    4.4105575    4.4105575    4.4105575   -31952.882   -34695.454   -68136.631    6973.4396   -46501.056   -4242.3465    14532.232    85.798654 
   44900    1900.5693    -116.7193    1.7196751   -114.99963   -2474.4016    4.3935659    4.3935659    4.3935659   -2474.4016    36329.684   -21743.143   -22009.746    42830.891     24944.31   -3167.2006    84.810853 
   45000    1609.8932    -116.4716    1.4566652   -115.01494    3743.0681    4.3786482    4.3786482    4.3786482    3743.0681   -14859.311   -45136.131    71224.646   -38757.581   -1866.7837   -11568.644    83.949894 
   45100    2051.9567   -116.89669    1.8566536   -115.04004     12143.42    4.3854936    4.3854936    4.3854936     12143.42    592.98669    24299.099    11538.173   -33917.768   -2583.2849    19202.465    84.344244 
   45200    2094.4839   -116.93858    1.8951331   -115.04345   -43213.097    4.4180507    4.4180507    4.4180507   -43213.097   -22048.227   -36704.084   -70886.982    40336.793    14105.278   -303.02088    86.236694 
   45300    1396.3288   -116.27964    1.2634276   -115.01621   -976.35547    4.4108449    4.4108449    4.4108449   -976.35547    15051.065   -39757.889    21777.758   -13401.307     11284.78   -18470.776    85.815423 
   45400    2141.2534   -116.93384    1.9374511   -114.99639    14625.031    4.3760887    4.3760887    4.3760887    14625.031    5163.5978    32619.599    6091.8967    -18296.53   -2205.5217    26630.119    83.802764 
   45500    1865.2354   -116.71257    1.6877042   -115.02487    19635.938    4.3634425    4.3634425    4.3634425    19635.938   -15087.656    80047.921   -6052.4511    6033.2952    28700.499    22266.537    83.078331 
   45600    1855.7785   -116.74877    1.6791474   -115.06962    12064.283    4.3877132    4.3877132    4.3877132    12064.283    17894.135    12833.765    5464.9499    17143.004    6835.0915   -14296.407    84.472376 
   45700    1856.7595   -116.73384     1.680035   -115.05381   -8853.0419    4.4192591    4.4192591    4.4192591   -8853.0419   -22689.852    16665.094   -20534.367   -6952.0943    4267.9128    23913.974    86.307473 
   45800    1903.9384   -116.73594    1.7227235   -115.01322   -24688.116    4.4170758    4.4170758    4.4170758   -24688.116   -23068.822    -17218.69   -33776.837    3244.1671    40282.545    10504.751    86.179614 
   45900    1569.7638   -116.41245    1.4203553    -114.9921   -4504.6566    4.3976405    4.3976405    4.3976405   -4504.6566   -35223.315   -49717.372    71426.717     17450.82    230.50577    8652.8748    85.047036 
   46000    1826.1942   -116.64376    1.6523789   -114.99138   -8527.5532    4.3847548    4.3847548    4.3847548   -8527.5532   -23045.302   -13568.533    11031.175   -9226.1191    27322.581   -14344.017    84.301623 
   46100    1759.1887   -116.61796    1.5917509   -115.02621    908.52074    4.3905226    4.3905226    4.3905226    908.52074   -41381.579    40697.474    3409.6673    8782.1391      25217.7    12937.496    84.634735 
   46200    1684.5645   -116.56078    1.5242294   -115.03655   -28105.737    4.3941041    4.3941041    4.3941041   -28105.737   -61389.566   -72961.305     50033.66    7753.1808   -7115.0001     12522.77    84.842025 
   46300     1502.168   -116.39052    1.3591932   -115.03133   -22375.401    4.3920709    4.3920709    4.3920709   -22375.401   -41759.276   -10887.168   -14479.758   -1671.6228    24470.909   -20878.876    84.724309 
   46400    1991.2215   -116.82772    1.8016991   -115.02603   -13189.612    4.3987375    4.3987375    4.3987375   -13189.612    -37149.83    43947.782   -46366.787    4052.1904    41288.068     18067.24    85.110692 
   46500    2096.5637   -116.92536    1.8970149   -115.02835    -14168.14    4.3870095    4.3870095    4.3870095    -14168.14   -57996.378    -25739.53    41231.489    20357.813   -13512.003   -2248.5205    84.431739 
   46600    1708.1151   -116.58066    1.5455385   -115.03512    22257.967    4.3715441    4.3715441    4.3715441    22257.967   -22351.718    69366.298    19759.321   -8512.4923    -2862.674   -5708.1887    83.541949 
   46700    2101.4434   -116.96817    1.9014302   -115.06674    5551.3377     4.397369     4.397369     4.397369    5551.3377   -32394.456    9253.5346    39794.934   -7779.3979    27142.879   -10858.307    85.031281 
   46800    2018.3274    -116.8621     1.826225   -115.03587   -47402.842    4.4279786    4.4279786    4.4279786   -47402.842   -91410.009   -13685.433   -37113.084    4842.7622   -7259.9326    2881.2096    86.819354 
   46900    1266.1952     -116.143      1.14568   -114.99732    2686.3279    4.4179039    4.4179039    4.4179039    2686.3279   -63595.807    27319.373    44335.419   -24208.906   -153.53022   -953.05283    86.228095 
   47000    1998.8279   -116.78139    1.8085815    -114.9728    18315.259    4.3839472    4.3839472    4.3839472    18315.259     3717.627    37724.671    13503.479   -13448.025    11919.151   -17725.718    84.255049 
   47100    1563.3025   -116.42196     1.414509   -115.00745   -6270.8952    4.3784518    4.3784518    4.3784518   -6270.8952   -29257.215   -1620.0666    12064.596    13711.791   -26828.408    7595.9282    83.938601 
   47200    1155.1584   -116.09516    1.0452116   -115.04995   -15773.231    4.3922339    4.3922339    4.3922339   -15773.231     -81288.3    36485.501   -2516.8935   -42407.691   -35329.229   -8773.8133    84.733738 
   47300    2218.7489    -117.0427    2.0075706   -115.03513   -24642.525    4.4011315    4.4011315    4.4011315   -24642.525   -57623.539    -2098.365   -14205.672   -3932.0201    18057.197   -13165.612    85.249732 
   47400    1331.0516   -116.23903    1.2043634   -115.03467   -868.14367    4.4052425    4.4052425    4.4052425   -868.14367   -25648.913    56821.829   -33777.347    3679.4381    -8542.225   -18215.116    85.488849 
   47500    1395.4252   -116.28641    1.2626101    -115.0238   -10576.998    4.4051393    4.4051393    4.4051393   -10576.998   -41695.006    19654.722   -9690.7091   -13943.776   -21088.588    5411.4254    85.482841 
   47600    2047.9795   -116.85704    1.8530549   -115.00399    14603.574    4.3946086    4.3946086    4.3946086    14603.574    17166.728    45679.788   -19035.793     4411.671    5720.2237   -7949.1859    84.871249 
   47700    1749.5634   -116.58946    1.5830418   -115.00642    38473.391    4.3804753    4.3804753    4.3804753    38473.391    38510.135    38735.326    38174.712   -645.64162   -3893.9617   -2292.9659    84.055032 
   47800    1701.0476   -116.57445    1.5391436   -115.03531   -3872.2844    4.3934736    4.3934736    4.3934736   -3872.2844   -30936.134    13171.352    6147.9287   -17763.983   -13338.344    -1712.218    84.805508 
   47900    2047.3161   -116.87161    1.8524547   -115.01915    -4801.523    4.4076139    4.4076139    4.4076139    -4801.523    13610.735   -20366.336    -7648.968    5139.3752    19255.145    10283.711    85.626981 
   48000    1689.5836    -116.5352    1.5287707   -115.00643    9073.6882    4.4051889    4.4051889    4.4051889    9073.6882    32283.409   -15512.234    10449.889   -2774.2341   -5345.9137    5826.1335    85.485727 
   48100    2091.4705   -116.89936    1.8924064   -115.00695   -16326.504    4.3927695    4.3927695    4.3927695   -16326.504   -1585.4531   -27146.839   -20247.219   -19772.558   -28311.361    10437.045    84.764745 
   48200    1838.2799   -116.68086    1.6633143   -115.01754    37234.112    4.3864402    4.3864402    4.3864402    37234.112    38516.541    8746.6121    64439.184    7722.0267    16749.403   -2042.0105    84.398873 
   48300    1382.3453   -116.29365    1.2507751   -115.04288    9679.4965    4.4029824    4.4029824    4.4029824    9679.4965   -23787.104    68958.125   -16132.531    -21881.56   -18431.073   -6404.0735    85.357336 
   48400    1294.3765   -116.18726     1.171179   -115.01608   -11516.435    4.4140377    4.4140377    4.4140377   -11516.435    15397.464    6972.9479   -56919.717   -39847.165   -22947.283    7977.6222    86.001913 
   48500    2098.2732   -116.87405    1.8985617   -114.97548     12626.51    4.4025041    4.4025041    4.4025041     12626.51    611.12014    17201.448    20066.961    10717.251    7696.9356   -19586.317     85.32952 
   48600    1257.8461    -116.1422    1.1381256   -115.00408   -4298.3008    4.4071212    4.4071212    4.4071212   -4298.3008   -59128.057    52264.702   -6031.5475   -33280.597    -41276.05   -12511.575     85.59827 
   48700    1823.7145   -116.64196    1.6501352   -114.99182   -18110.631    4.4108734    4.4108734    4.4108734   -18110.631   -53790.801    6419.0191   -6960.1121   -11861.937    9079.4034    12157.047    85.817086 
   48800    2476.8481   -117.20856    2.2411042   -114.96746    -23289.55    4.4037069    4.4037069    4.4037069    -23289.55   -40748.518    8735.2476    -37855.38    42567.783     12189.48   -12673.619     85.39948 
   48900    1651.1294   -116.49177    1.4939766   -114.99779   -22421.405    4.4085801    4.4085801    4.4085801   -22421.405   -47610.728   -22495.691    2842.2053   -1513.4598   -15554.326    11032.031    85.683302 
   49000    1737.6311   -116.57498    1.5722451   -115.00274   -12571.171    4.4057324    4.4057324    4.4057324   -12571.171   -37001.391    25692.736   -26404.859   -470.35635    -5407.086    22421.332    85.517372 
   49100     2154.364   -116.95246    1.9493139   -115.00315    6204.6802    4.3896762    4.3896762    4.3896762    6204.6802    1016.5967    27402.727   -9805.2834    21202.218   -1176.3798     8254.892    84.585797 
   49200    1419.3432   -116.32281    1.2842516   -115.03856   -1354.9731    4.3944976    4.3944976    4.3944976   -1354.9731   -67570.214    47147.757    16357.538   -1103.4935   -11429.509   -5022.7831    84.864821 
   49300    1021.2993   -115.97022   0.92409306   -115.04613   -25320.472    4.4082011    4.4082011    4.4082011   -25320.472   -53767.477   -17703.464   -4490.4764   -8942.4235   -26379.518    43321.105    85.661209 
   49400    2558.8447   -117.32973    2.3152965   -115.01443   -24639.575    4.4086465    4.4086465    4.4086465   -24639.575   -26203.734    13136.237   -60851.229    2969.7639    12490.031    22464.847    85.687177 
   49500    2144.2208   -116.95031    1.9401361   -115.01017   -512.72887    4.4006935    4.4006935    4.4006935   -512.72887    853.00737    -7910.705     5519.511   -20096.507    13086.082    -18678.17    85.224282 
   49600    1594.3313   -116.45713    1.4425844   -115.01454   -233.02622    4.3760683    4.3760683    4.3760683   -233.02622   -10933.846    8849.4182    1385.3495   -12702.329   -8262.6689    34739.995    83.801594 
   49700    1780.5573    -116.6536    1.6110857   -115.04252    28014.961    4.3860882    4.3860882    4.3860882    28014.961    24711.895     97736.72   -38403.733    9418.6276    8020.3199     6934.606    84.378556 
   49800    2264.2029   -117.08197    2.0486983   -115.03327   -32005.061    4.4284534    4.4284534    4.4284534   -32005.061    2826.2118   -26511.395   -72330.001    12401.718    25778.174   -5906.8554    86.847284 
   49900    1354.4997   -116.22026    1.2255798   -114.99468   -610.70959    4.4243024    4.4243024    4.4243024   -610.70959    1007.8271    78019.244     -80859.2   -22334.127   -30313.031    20595.014    86.603292 
   50000    1441.5297   -116.26776    1.3043264   -114.96343    50710.638     4.400438     4.400438     4.400438    50710.638    89960.401    105329.55   -43158.036   -16215.618   -9101.5983   -12578.714     85.20944 
   50100    1762.9116   -116.57591    1.5951195   -114.98079     16814.78    4.3957263    4.3957263    4.3957263     16814.78      38613.1    25348.927   -13517.686   -3548.2055   -2828.5549   -2637.0524    84.936024 
   50200    1139.6458   -116.04119    1.0311755   -115.01001    8437.9457    4.4051077    4.4051077    4.4051077    8437.9457    8515.9869    63485.885   -46688.035   -15642.019   -35704.072    23243.639    85.480999 
   50300    2715.9363   -117.45662    2.4574362   -114.99918    -12588.57    4.4172713    4.4172713    4.4172713    -12588.57   -34660.037    18783.503   -21889.175   -22129.111    16017.559   -7168.4036    86.191063 
   50400    1568.0894   -116.43257    1.4188403   -115.01373   -3290.4409    4.4106203    4.4106203    4.4106203   -3290.4409    32691.794   -4276.4046   -38286.713   -4401.8427    -29619.82    5973.2434    85.802317 
   50500     1135.211    -116.0381    1.0271628   -115.01093    4184.2038    4.3866817    4.3866817    4.3866817    4184.2038   -14075.248    21351.407    5276.4521     7098.556   -26854.366    29707.134    84.412812 
   50600    2599.6644   -117.36242     2.352231   -115.01019     19756.82    4.3894515    4.3894515    4.3894515     19756.82    18690.112    9551.9225    31028.426     831.2839    22850.358   -17061.742     84.57281 
   50700    1583.1896   -116.46017    1.4325033   -115.02767   -20421.785    4.4068629    4.4068629    4.4068629   -20421.785   -18999.026     9544.538   -51810.866    5718.2286   -36483.047    16606.306    85.583218 
   50800    975.10167   -115.89356   0.88229248   -115.01126   -1421.9987    4.4123293    4.4123293    4.4123293   -1421.9987   -14056.724     79826.95   -70036.222    -10537.48   -8960.5763    24575.682    85.902093 
   50900    2270.3213   -117.04747    2.0542344   -114.99324   -7521.9035    4.4099087    4.4099087    4.4099087   -7521.9035   -33374.047    -13300.55    24108.887   -2173.7159    9869.6207   -18225.125    85.760793 
   51000    1371.5755   -116.25676    1.2410304   -115.01573    13370.436    4.4071609    4.4071609    4.4071609    13370.436    -59689.21    71806.186    27994.332    22819.321   -27879.657    16392.091    85.600583 
   51100    1476.1421   -116.35371    1.3356444   -115.01806    5549.4927    4.4011537    4.4011537    4.4011537    5549.4927   -21820.677    5228.6388    33240.516    243.64958    -9600.465    32028.381    85.251023 
   51200    2103.4985   -116.92277    1.9032896   -115.01948     31154.82    4.3837906    4.3837906    4.3837906     31154.82    20682.911   -16222.356    89003.905   -6711.8732    14375.161   -25627.059    84.246024 
   51300     2059.241   -116.91235    1.8632446    -115.0491    10801.736     4.384458     4.384458     4.384458    10801.736    2562.0857    2491.0685    27352.055    5744.7029    10663.453   -6089.4458    84.284506 
   51400    1357.1405   -116.29486    1.2279693   -115.06689   -31221.095     4.415431     4.415431     4.415431   -31221.095    4159.4138   -57653.661   -40169.039    35866.624   -12352.262    48352.404    86.083382 
   51500    2337.5746   -117.12668    2.1150866   -115.01159   -31454.321    4.4258106    4.4258106    4.4258106   -31454.321   -13506.957   -60035.676   -20820.331    5525.6874    3408.9254    -6493.473    86.691889 
   51600    2173.3946   -116.96786    1.9665331   -115.00132   -4877.5818    4.4021166    4.4021166    4.4021166   -4877.5818    38572.629   -53592.565    387.18982   -19127.021    2552.4455   -6731.4429    85.306992 
   51700    1087.6163   -116.00353   0.98409807   -115.01943    -341.1559     4.375427     4.375427     4.375427    -341.1559    1898.6307   -33540.839     30618.74    11905.165   -27236.892    40642.069    83.764754 
   51800    1662.4719   -116.56989    1.5042395   -115.06565    17099.377     4.378158     4.378158     4.378158    17099.377    68279.307   -15798.261   -1182.9143   -15594.371   -5330.2031    12145.892    83.921702 
   51900    2179.7957   -117.04474     1.972325   -115.07241    12213.039    4.4004177    4.4004177    4.4004177    12213.039    55114.342   -35046.165     16570.94    2398.0994    23032.402   -7803.7091    85.208261 
   52000    1371.5906   -116.30778     1.241044   -115.06674    -32299.97    4.4155734    4.4155734    4.4155734    -32299.97    21317.266    -63025.84   -55191.336     19323.09    -15086.85    31592.212    86.091705 
   52100    1580.8039   -116.46081    1.4303446   -115.03047   -5185.7916    4.4035733    4.4035733    4.4035733   -5185.7916    26712.561    -6752.153   -35517.783   -10871.397   -8030.5656   -3836.3057    85.391709 
   52200    2207.7652   -117.00297    1.9976324   -115.00534    7953.4086    4.3801862    4.3801862    4.3801862    7953.4086    20949.425    2684.6531    226.14729    18409.908    20261.616     14177.82    84.038386 
   52300    1979.9041   -116.81965    1.7914588   -115.02819    4725.3139    4.3843964    4.3843964    4.3843964    4725.3139    59061.532   -2801.1619   -42084.429   -2306.6891   -21590.539    22528.674    84.280951 
   52400    1913.0315   -116.77727    1.7309511   -115.04632   -28019.149    4.4014801    4.4014801    4.4014801   -28019.149   -23353.066    10726.706   -71431.086    4486.7706   -34028.618   -2913.2999    85.269991 
   52500    1697.9471   -116.57086    1.5363382   -115.03452   -24632.301    4.4028062    4.4028062    4.4028062   -24632.301   -49090.421    3676.7063    -28483.19     4942.316    49313.073   -2838.9714    85.347086 
   52600    1842.2814    -116.6777     1.666935   -115.01076    -342.7228    4.3852902    4.3852902    4.3852902    -342.7228   -2205.9452    9570.4488    -8392.672   -7726.7565       -13270    19790.706    84.332509 
   52700    1860.3451   -116.70188    1.6832794    -115.0186    4679.4611    4.3826356    4.3826356    4.3826356    4679.4611   -28439.359    9795.1218    32682.621     4359.728   -22657.692    18096.777    84.179451 
   52800    1782.4315   -116.65082    1.6127815   -115.03803     5077.435    4.3925693    4.3925693    4.3925693     5077.435   -27246.955   -8107.3416    50586.602    3352.8306     35069.07    9272.8002    84.753151 
   52900    2095.1077   -116.93533    1.8956974   -115.03963    7613.9682    4.4039861    4.4039861    4.4039861    7613.9682    12791.338   -37545.708    47596.275   -3754.1118    6657.9644    27128.859    85.415723 
   53000     1251.708   -116.16481    1.1325717   -115.03224   -9434.4329    4.4180916    4.4180916    4.4180916   -9434.4329   -5631.4905   -8989.4745   -13682.334    297.15803    31012.716    794.87252    86.239085 
   53100    1632.8905   -116.48117    1.4774736    -115.0037   -16110.639    4.3971852    4.3971852    4.3971852   -16110.639   -25787.957    21361.508   -43905.469   -7718.3805    30192.567   -9553.3554    85.020623 
   53200     1559.609   -116.40988     1.411167   -114.99871    40555.223    4.3659774    4.3659774    4.3659774    40555.223    135597.86   -21792.972     7860.782    10973.182    -2048.591    31625.696    83.223207 
   53300    1765.7907   -116.62703    1.5977245   -115.02931    22958.613    4.3713224    4.3713224    4.3713224    22958.613    99429.221   -9693.4256   -20859.955    607.00388    28654.655    8358.2235    83.529237 
   53400    1607.9335   -116.51298     1.454892   -115.05809   -39555.427    4.4086968    4.4086968    4.4086968   -39555.427   -45463.902    14415.595   -87617.973   -2087.5092    24046.278    1559.1089    85.690108 
   53500    987.06107   -115.92076    0.8931136   -115.02765   -22338.501    4.4174079    4.4174079    4.4174079   -22338.501   -3035.5836    24177.833   -88157.753   -15734.622   -23037.077    42233.788    86.199054 
   53600    2017.0211   -116.82068    1.8250431   -114.99563    14855.416    4.3868142    4.3868142    4.3868142    14855.416    44003.854    12531.782   -11969.388   -3044.0712    18301.973   -4043.5029    84.420463 
   53700    2305.4799   -117.09089    2.0860467   -115.00484    12523.409    4.3699097    4.3699097    4.3699097    12523.409     20080.16    25308.684   -7818.6164   -1241.4844    15421.743     4543.895     83.44828 
   53800    1371.4489   -116.28277    1.2409158   -115.04186    12884.627    4.3735913    4.3735913    4.3735913    12884.627    7558.7087    61196.371   -30101.199    3726.2439   -23340.325    30974.394     83.65937 
   53900    1466.8301   -116.39934    1.3272187   -115.07213   -738.37489     4.401041     4.401041     4.401041   -738.37489    21570.985   -4786.6072   -18999.503    9074.7525   -13035.718    4127.9643    85.244476 
   54000    2486.1393   -117.26889    2.2495111   -115.01938   -42624.593    4.4209607    4.4209607    4.4209607   -42624.593   -41178.706   -58260.402   -28434.671    -10990.52    11109.928    7621.5373    86.407204 
   54100    1999.3018   -116.82837    1.8090103   -115.01936   -5256.8063    4.3840707    4.3840707    4.3840707   -5256.8063   -5173.7707     16892.69   -27489.338   -3337.9689   -16855.039    10710.458     84.26217 
   54200    1707.4793   -116.55324    1.5449631   -115.00828    45741.165    4.3513396    4.3513396    4.3513396    45741.165    39362.827     76889.58    20971.087    12364.981   -18652.779   -3271.2013    82.388942 
   54300    2300.9542   -117.14522    2.0819518   -115.06327   -16483.031    4.3873657    4.3873657    4.3873657   -16483.031   -8078.6253   -25800.057    -15570.41    -16241.38    9929.9269   -3824.3103    84.452307 
   54400    1890.5658   -116.73463    1.7106237     -115.024   -15155.268     4.420655     4.420655     4.420655   -15155.268   -43911.807    18478.583    -20032.58    11316.216    2937.6164    10582.641    86.389283 
   54500    1360.3925   -116.21765    1.2309117   -114.98674   -3207.5722     4.418426     4.418426     4.418426   -3207.5722   -24830.278    39699.625   -24492.063    4257.7484   -25480.014   -1563.0213    86.258672 
   54600    1728.5246   -116.53235    1.5640054   -114.96835    13859.498    4.3911455    4.3911455    4.3911455    13859.498    3190.1199    67859.363    -29470.99   -14348.003    39985.341    4522.9085    84.670763 
   54700    2354.7403   -117.09827    2.1306185   -114.96765    26597.123    4.3638258    4.3638258    4.3638258    26597.123    917.06651     83972.22   -5097.9174    -2516.003    12441.896   -4587.4663    83.100229 
   54800    1741.2834   -116.61574    1.5755498   -115.04019    975.41254    4.3904373    4.3904373    4.3904373    975.41254    13583.746    46570.847   -57228.355    3533.9496   -29775.193   -1867.6441    84.629806 
   54900    759.25501   -115.73943   0.68698989   -115.05244   -33870.041     4.407829     4.407829     4.407829   -33870.041   -41462.429    45665.816   -105813.51   -7084.4424    66333.949    5610.7929    85.639517 
   55000    1659.4841   -116.52415    1.5015361   -115.02262    20386.495    4.3808014    4.3808014    4.3808014    20386.495    32307.033    66453.279   -37600.828    1622.3623    21951.303    13931.094    84.073804 
   55100    2517.7321   -117.28713    2.2780969   -115.00903    15481.925    4.3768135    4.3768135    4.3768135    15481.925     42710.56    19050.424   -15315.208    651.60281   -7154.2818    16813.432     83.84441 
   55200    1501.5323   -116.39982     1.358618    -115.0412   -2863.9045    4.3896269    4.3896269    4.3896269   -2863.9045   -15476.164     65085.28   -58200.829   -565.83663    61245.119   -5906.5963    84.582947 
   55300    1997.6523   -116.85518    1.8075177   -115.04766   -17144.682    4.3960724    4.3960724    4.3960724   -17144.682   -3138.0749   -6016.5903    -42279.38    3350.5654    12181.332    15937.851    84.956088 
   55400    2016.2203    -116.8609    1.8243185   -115.03659   -27864.807    4.4067991    4.4067991    4.4067991   -27864.807   -29863.831   -26361.447   -27369.144   -4416.6903   -13710.684    10258.034    85.579501 
   55500    2241.5798   -117.04596    2.0282285   -115.01773   -24889.352     4.397931     4.397931     4.397931   -24889.352   -57161.963   -3304.0996   -14201.994    31974.957    36014.948    6784.6753     85.06389 
   55600    1971.2196   -116.79305    1.7836009   -115.00944   -24578.245    4.3873485    4.3873485    4.3873485   -24578.245   -4559.1058   -13541.894   -55633.734    16479.894    14084.076    21969.606    84.451314 
   55700    1352.0228   -116.25129    1.2233387   -115.02796   -7245.2263    4.3888988    4.3888988    4.3888988   -7245.2263    32510.664    28713.576   -82959.919    1361.4002   -9847.1201    19790.272    84.540869 
   55800    2573.2265   -117.35501    2.3283094    -115.0267   -8876.8338    4.3965223    4.3965223    4.3965223   -8876.8338   -1045.9155    30734.072   -56318.658    9772.5242   -3604.2877    3150.6806    84.982172 
   55900    1609.6847    -116.4936    1.4564766   -115.03713     41822.78    4.3997253    4.3997253    4.3997253     41822.78    41537.753    107244.45   -23313.866    28818.288   -3158.8879    18249.778    85.168047 
   56000    969.84858   -115.90221   0.87753938   -115.02467    2816.9155    4.4223847    4.4223847    4.4223847    2816.9155    103141.66   -39782.128    -54908.79    6593.3608   -34178.709    7157.8398    86.490729 
   56100    2327.3857   -117.04833    2.1058675   -114.94246   -19383.912    4.4302036    4.4302036    4.4302036   -19383.912    20953.116   -42781.089   -36323.765   -16940.364    9550.4699   -19344.259    86.950294 
   56200    1801.1533   -116.56021    1.6297214   -114.93049    173.50881    4.4009033    4.4009033    4.4009033    173.50881   -17797.256    31914.687   -13596.904   -15580.374    1567.8472    23662.149    85.236474 
   56300    1897.8278   -116.67655    1.7171945   -114.95936   -3716.4543    4.3793812    4.3793812    4.3793812   -3716.4543     21641.84   -6599.9458   -26191.257    1189.8083   -15485.536   -4494.8942    83.992062 
   56400    1428.3446   -116.31175    1.2923963   -115.01936    13697.233    4.3750773    4.3750773    4.3750773    13697.233   -26208.382    43248.344    24051.739   -40015.583    35543.983    6686.9451    83.744671 
   56500    2210.9895   -117.04934    2.0005498   -115.04879   -3560.9944    4.3834674    4.3834674    4.3834674   -3560.9944   -29720.043    21942.557   -2905.4972    18558.019    24629.304    5646.5734    84.227389 
   56600    1983.5732   -116.84232    1.7947788   -115.04754   -33556.219    4.4060805    4.4060805    4.4060805   -33556.219   -41122.476   -27184.042    -32362.14   -1890.8338   -17859.928    2203.0357    85.537641 
   56700    1064.1506   -116.00254   0.96286586   -115.03968   -12500.357    4.3961315    4.3961315    4.3961315   -12500.357   -34299.831    611.60537   -3812.8446   -40311.792     28636.99    -12592.62    84.959516 
   56800    2168.3684   -116.98385    1.9619853   -115.02187    5192.6666    4.3849452    4.3849452    4.3849452    5192.6666   -16108.389    37653.101   -5966.7119   -1781.6106    3801.1755   -16779.168    84.312607 
   56900    2530.2024   -117.31045    2.2893803   -115.02107    8357.4658    4.3805556    4.3805556    4.3805556    8357.4658   -12323.656    29480.496    7915.5575   -18224.009   -19772.475    9222.5977    84.059651 
   57000    1571.9683   -116.46858      1.42235   -115.04623   -14449.705    4.3800867    4.3800867    4.3800867   -14449.705   -35264.272    11104.546   -19189.391   -52249.905    15302.058   -1620.0456    84.032663 
   57100    1636.1123   -116.54096    1.4803888   -115.06057   -24517.237    4.3930793    4.3930793    4.3930793   -24517.237    11582.566     635.1966   -85769.473     -1355.74    23845.587   -35462.849    84.782675 
   57200    2379.0078   -117.19059    2.1525762   -115.03801    1476.3141    4.3938579    4.3938579    4.3938579    1476.3141    5831.3398    6282.7192   -7685.1167    11954.442   -1841.1262   -16.981097    84.827765 
   57300    1824.8705   -116.68752    1.6511811   -115.03634    15905.422    4.3897019    4.3897019    4.3897019    15905.422    26230.339    15640.141    5845.7854    -41627.61    7017.5423   -6367.0115    84.587287 
   57400    1435.9553   -116.33842    1.2992825   -115.03913   -27762.993    4.3918832    4.3918832    4.3918832   -27762.993    41851.136    -77122.73   -48017.383     12113.62    15501.154   -37842.746    84.713444 
   57500    1937.8732    -116.7838    1.7534284   -115.03037   -11206.858    4.3742411    4.3742411    4.3742411   -11206.858    10787.413   -30866.012   -13541.974    24431.717    2831.4577    5796.9916    83.696667 
   57600    1985.4805   -116.82872    1.7965045   -115.03221     28912.73    4.3641718    4.3641718    4.3641718     28912.73    -9919.656    47162.508    49495.337    1910.7869   -6539.2426    25074.966    83.119994 
   57700    1487.5335   -116.40423    1.3459516   -115.05828   -12320.667     4.388726     4.388726     4.388726   -12320.667    9239.3773   -26160.346   -20041.032   -18626.157    3724.9904   -57548.048    84.530881 
   57800    1999.9942   -116.83711    1.8096368   -115.02748   -39501.876    4.4064932    4.4064932    4.4064932   -39501.876   -46308.999   -22823.131   -49373.496    25981.497    14359.119   -9507.5183    85.561682 
   57900    1950.3582   -116.77176     1.764725   -115.00703   -484.22653    4.3999225    4.3999225    4.3999225   -484.22653   -51200.649    47229.782    2518.1876    25073.625   -8833.8994     24538.02      85.1795 
   58000     1710.139   -116.56939    1.5473697   -115.02202    18154.992    4.3709984    4.3709984    4.3709984    18154.992    27580.927    6160.3103     20723.74   -14650.065   -265.41453   -36110.345    83.510664 
   58100    1695.6495   -116.58114    1.5342593   -115.04688    25317.042    4.3652784    4.3652784    4.3652784    25317.042    -3575.067    38160.554    41365.639     22092.57    22069.455    -34320.34     83.18324 
   58200    2295.0679   -117.12734    2.0766257   -115.05072   -29378.814    4.4012942    4.4012942    4.4012942   -29378.814   -72134.671   -15630.174    -371.5968    36285.252   -4142.1864    9193.9421    85.259192 
   58300    1535.8406   -116.42932    1.3896608   -115.03966     -34471.7    4.4047533    4.4047533    4.4047533     -34471.7   -21000.307   -31376.114    -51038.68   -11107.841   -14685.376   -30449.804    85.460371 
   58400    1437.7795   -116.33086    1.3009331   -115.02993   -1550.3518     4.370079     4.370079     4.370079   -1550.3518   -8142.2876    19613.107   -16121.875    6750.9039    12452.436   -21143.193     83.45798 
   58500    1934.4721    -116.7912     1.750351   -115.04085    29935.427    4.3592596    4.3592596    4.3592596    29935.427   -3542.5801    28409.276    64939.585    43205.451    7038.7309    11117.696    82.839642 
   58600    2244.0622   -117.09166    2.0304746   -115.06119    16107.573    4.3764932    4.3764932    4.3764932    16107.573   -43.986766    44807.782    3558.9224    11418.187   -10947.216   -14965.488    83.826008 
   58700    1726.3003   -116.62825    1.5619928   -115.06625    15757.932     4.393195     4.393195     4.393195    15757.932    19965.857    1036.5992     26271.34    7358.1996    26758.813   -26302.053    84.789379 
   58800    1277.6721   -116.20694    1.1560646   -115.05088    2508.9198    4.4147092    4.4147092    4.4147092    2508.9198   -15717.782    19172.589    4071.9527    20492.964   -37.710011     25766.43    86.041171 
   58900    2585.7522   -117.33742    2.3396429   -114.99777   -13358.294    4.4102302    4.4102302    4.4102302   -13358.294   -26977.888    12790.486   -25887.479    145.33211    -17569.84   -12711.044    85.779555 
   59000    2130.6022   -116.91808    1.9278136   -114.99027    29989.826    4.3784082    4.3784082    4.3784082    29989.826    45479.007   -2980.1752    47470.646   -10453.284    29105.705   -12680.182    83.936089 
   59100    1269.6574   -116.17426    1.1488127   -115.02544   -17298.272    4.3684455    4.3684455    4.3684455   -17298.272   -14344.745   -15107.977   -22442.095    26660.742   -3792.9811    21866.766    83.364424 
   59200    1713.8825   -116.60728    1.5507569   -115.05652    12922.786    4.3631763    4.3631763    4.3631763    12922.786    47470.432    21840.774   -30542.846    -453.5764   -18265.479    2202.1031    83.063128 
   59300    2255.2037   -117.11927    2.0405557   -115.07872    5939.2733    4.3844143    4.3844143    4.3844143    5939.2733   -10123.292   -9187.3699    37128.482   -13774.399    1924.4091   -22466.138    84.281987 
   59400     1954.726   -116.83192    1.7686771   -115.06325   -25082.065     4.403842     4.403842     4.403842   -25082.065   -53671.551   -53902.333    32327.688    19336.585   -647.68575    20901.783    85.407336 
   59500    1444.3809   -116.35321    1.3069062    -115.0463    5342.4731    4.3787802    4.3787802    4.3787802    5342.4731   -3478.9677    11772.701    7733.6863    4494.2634   -12202.718    25036.313    83.957487 
   59600    1321.8914   -116.23241    1.1960751   -115.03633    37459.623    4.3648985    4.3648985    4.3648985    37459.623    58328.787    517.06391    53533.018    -17448.51    12244.258   -42897.702    83.161526 
   59700    2141.0539   -116.97985    1.9372705   -115.04258   -18486.767    4.3844539    4.3844539    4.3844539   -18486.767   -48587.985   -56928.924    50056.607    23837.216    2014.9191     1891.246    84.284269 
   59800     1952.858   -116.80948     1.766987   -115.04249    6265.5507    4.3803848    4.3803848    4.3803848    6265.5507   -35523.481   -8745.5284    63065.661     25476.41   -8634.2224    10438.141    84.049821 
   59900    1708.1931   -116.60285     1.545609   -115.05724   -10839.762    4.3705409    4.3705409    4.3705409   -10839.762    25657.911   -8937.5099   -49239.687    -9817.231   -10192.525   -49163.678    83.484443 
   60000    1422.9225   -116.35255    1.2874901   -115.06506   -4947.1506    4.3730611    4.3730611    4.3730611   -4947.1506    -4472.133   -21617.916    11248.597    13975.421    5017.2521   -4556.2743    83.628949 
   60100    1790.7482   -116.67754    1.6203066   -115.05723    30413.005    4.3734225    4.3734225    4.3734225    30413.005    17791.003    10495.415    62952.597    19124.682    23658.311    29443.116    83.649683 
   60200    1831.9772   -116.71988    1.6576115   -115.06227     6425.928    4.3871073    4.3871073    4.3871073     6425.928    26109.638    13432.075    -20263.93   -8599.6193   -41064.968   -19343.584    84.437386 
   60300    1847.6511   -116.72054    1.6717935   -115.04875   -5815.9355    4.3919944    4.3919944    4.3919944   -5815.9355   -9099.4538   -20564.836    12216.484    15995.655   -34318.423   -17835.242    84.719882 
   60400    2412.6227   -117.21324    2.1829917   -115.03025    29248.568    4.3705552    4.3705552    4.3705552    29248.568    30028.762    20677.144    37039.798    14856.095    32392.196    18918.134    83.485264 
   60500    1665.8272   -116.55578    1.5072755   -115.04851    5785.3733    4.3607842    4.3607842    4.3607842    5785.3733    6345.2396    41193.862   -30182.981   -17829.256   -49429.476    11747.984    82.926584 
   60600    1258.4537   -116.21681    1.1386754   -115.07814   -22712.269    4.3734866    4.3734866    4.3734866   -22712.269   -16049.291   -17955.444   -34132.073    325.10078    -41104.94   -19316.188    83.653361 
   60700    2078.0514    -116.9463    1.8802646   -115.06604   -12037.525    4.3824117    4.3824117    4.3824117   -12037.525    13225.531   -38580.725    -10757.38    6749.1058    25207.787   -27151.913    84.166547 
   60800    2311.4234   -117.14304    2.0914245   -115.05162   -12905.151    4.3808473    4.3808473    4.3808473   -12905.151   -47982.176    13913.689   -4646.9671    4305.3818   -42329.646    602.15545    84.076447 
   60900    1471.8899   -116.38589    1.3317969   -115.05409    -9041.098    4.3826913    4.3826913    4.3826913    -9041.098   -38416.863     34695.82   -23402.251    31.512505   -28213.532   -30309.263    84.182661 
   61000    1334.2524    -116.2551    1.2072596   -115.04784   -3464.1912     4.375473     4.375473     4.375473   -3464.1912    14525.066    20810.811   -45728.451    319.99605    34238.255   -31413.662    83.767399 
   61100    2176.4326   -117.01052    1.9692819   -115.04124    27283.698     4.364242     4.364242     4.364242    27283.698   -5746.5357    45325.355    42272.275    13899.229    11913.288    25059.811    83.124007 
   61200    2656.7414   -117.45505    2.4038754   -115.05118    5829.4391    4.3779039    4.3779039    4.3779039    5829.4391    13018.882    2891.8795    1577.5561   -6739.7541   -22653.471    -20743.54    83.907094 
   61300     1296.204   -116.23902    1.1728326   -115.06619   -13645.044    4.3816192    4.3816192    4.3816192   -13645.044    21337.478    2594.6236   -64867.234   -7883.6546    16007.658   -61943.012    84.120897 
   61400    1235.6197   -116.17822    1.1180147    -115.0602    6380.6285    4.3726449    4.3726449    4.3726449    6380.6285   -19243.709     70061.41   -31675.815    17795.632    34314.761    22335.454    83.605076 
   61500    2372.1428   -117.20179    2.1463646   -115.05542   -15449.368    4.3791781    4.3791781    4.3791781   -15449.368   -30574.982    379.79476   -16152.917   -6637.3695   -9285.2336    23840.831    83.980378 
   61600    2360.5152   -117.18877    2.1358438   -115.05292    -4246.172    4.3782281    4.3782281    4.3782281    -4246.172    1236.7989   -17273.134    3297.8192    -13433.68   -6876.6578   -28026.101    83.925733 
   61700     1607.438   -116.52422    1.4544437   -115.06977   -32510.183    4.3801457    4.3801457    4.3801457   -32510.183   -13487.302   -26089.677   -57953.571    21418.837    30604.391    17450.011    84.036058 
   61800    1360.2926    -116.2979    1.2308213   -115.06708   -21479.508    4.3772621    4.3772621    4.3772621   -21479.508   -24025.459    5736.6629   -46149.728   -18231.399   -7044.1318    36320.321    83.870193 
   61900    2452.4107   -117.26749    2.2189927   -115.04849    23346.039    4.3794567    4.3794567    4.3794567    23346.039    60752.483    -1375.915    10661.548   -11144.547     -35884.2   -15995.647    83.996408 
   62000    2066.6726   -116.91239    1.8699688   -115.04242   -41243.587    4.3994309    4.3994309    4.3994309   -41243.587   -37654.297   -47170.531   -38905.933    23160.504    33984.338    23532.042    85.150949 
   62100    1305.0976   -116.21796    1.1808797   -115.03708   -17333.484    4.3824439    4.3824439    4.3824439   -17333.484    22704.653    -33066.48   -41638.626   -12100.752    14430.021    37293.812    84.168402 
   62200    1856.4903   -116.71025    1.6797915   -115.03046    22580.025      4.35913      4.35913      4.35913    22580.025     71970.03   -11813.555    7583.6009   -14072.559   -16002.389   -31996.859    82.832249 
   62300    2016.4754    -116.8832    1.8245493   -115.05865   -6016.0378    4.3642267    4.3642267    4.3642267   -6016.0378    32027.302   -22403.311   -27672.104    625.73567    3732.3757   -46224.357    83.123131 
   62400    1960.9819   -116.85166    1.7743377   -115.07733   -440.87781    4.3833912    4.3833912    4.3833912   -440.87781     9562.311   -10093.035   -791.90947    11269.589    20565.811    48996.076    84.222999 
   62500    1091.3046   -116.05423   0.98743534    -115.0668   -43589.186     4.411222     4.411222     4.411222   -43589.186    2309.4466   -62288.834   -70788.172   -7851.1914    19039.289   -31374.071    85.837438 
   62600    1408.4474   -116.31783    1.2743928   -115.04344   -34014.019    4.3895137    4.3895137    4.3895137   -34014.019   -23346.272   -29262.654    -49433.13    6534.2354   -18078.575   -49441.883    84.576408 
   62700    2505.3897   -117.27555    2.2669293   -115.00862    43378.264    4.3440753    4.3440753    4.3440753    43378.264    1949.3132    79406.958    48778.521    7925.1567   -13497.387    27307.422       81.977 
   62800    1982.6727   -116.84423     1.793964   -115.05027    32001.551    4.3527986    4.3527986    4.3527986    32001.551    46940.059    20974.987    28089.608   -4215.4803    14209.786    -20799.15    82.471846 
   62900    916.79721   -115.91996   0.82953738   -115.09042    7341.4987    4.3889928    4.3889928    4.3889928    7341.4987    40418.346    11724.985   -30118.835   -11067.758   -16754.624   -37482.471    84.546297 
   63000    1316.2994   -116.25348    1.1910154   -115.06247    5580.1522    4.4030813    4.4030813    4.4030813    5580.1522   -2371.0388    49070.237   -29958.741   -13566.667    -21312.52     27167.73    85.363089 
   63100    2174.2784   -116.99502    1.9673328   -115.02769    9717.3715     4.387055     4.387055     4.387055    9717.3715    16676.311   -5512.6268    17988.431    13663.461    23773.415    14197.335    84.434365 
   63200    2214.6461   -117.02663    2.0038583   -115.02277    16925.448    4.3634214    4.3634214    4.3634214    16925.448    32475.862    13718.201    4582.2789    9573.7036   -25440.759   -31413.362    83.077128 
   63300    1577.0436   -116.47848    1.4269422   -115.05154     2111.005    4.3591234    4.3591234    4.3591234     2111.005    1346.6599    45316.819   -40330.464   -7852.2393   -29956.276   -9225.0116    82.831872 
   63400    1306.2703    -116.2688    1.1819408   -115.08686   -4815.9514    4.3803207    4.3803207    4.3803207   -4815.9514   -15154.104    27679.147   -26972.896    12812.037    25159.535     36567.91    84.046129 
   63500    2357.6969   -117.18231    2.1332937   -115.04901   -45713.184    4.4102354    4.4102354    4.4102354   -45713.184   -59199.373     -10196.9    -67743.28    12342.299   -8352.8402   -4881.0653    85.779854 
   63600    2209.9197   -117.00703    1.9995818   -115.00745   -18462.336    4.4007403    4.4007403    4.4007403   -18462.336   -15799.885   -9858.3809   -29728.741   -1276.9699   -22756.139    7662.8241    85.227005 
   63700    1022.1512   -115.91469   0.92486387   -114.98982     24541.19    4.3771057    4.3771057    4.3771057     24541.19    37263.488    63653.766   -27293.683    3140.4649    20309.086    53640.447    83.861206 
   63800     1504.978   -116.36339    1.3617358   -115.00166    2133.2916    4.3775851    4.3775851    4.3775851    2133.2916    10697.115    10559.171    -14856.41    5900.4037    29031.591   -32506.142    83.888761 
   63900     1867.186   -116.71094    1.6894692   -115.02148    7345.5097    4.3747499    4.3747499    4.3747499    7345.5097    42255.104   -6906.8586   -13311.716   -20962.587    2049.0891   -23470.826    83.725874 
   64000    2284.7624   -117.10624    2.0673011   -115.03894    14134.502    4.3723859    4.3723859    4.3723859    14134.502    13963.766     9114.365    19325.376   -3933.1048    3270.0819    30339.426     83.59022 
   64100    705.40701   -115.70466   0.63826708   -115.06639   -488.72265    4.3876535    4.3876535    4.3876535   -488.72265    11804.375    15720.722   -28991.265    20927.636    33523.168   -38333.416    84.468927 
   64200    1872.7516   -116.72068     1.694505   -115.02618    -2228.633    4.4035226    4.4035226    4.4035226    -2228.633    30531.599   -24130.071   -13087.428   -8435.8838   -303.16567   -7965.4897    85.388758 
   64300    2158.2639   -116.93156    1.9528425   -114.97872    -33650.15     4.413189     4.413189     4.413189    -33650.15   -24367.533   -42328.936   -34253.981    8062.8288    7564.9768   -6575.6906    85.952318 
   64400    1300.3897   -116.14553    1.1766199   -114.96891   -49823.903     4.403801     4.403801     4.403801   -49823.903    -40658.23   -40064.374   -68749.104    21042.058     9622.782   -54594.743    85.404952 
   64500    2081.7896   -116.85997     1.883647   -114.97632   -4517.1716    4.3696873    4.3696873    4.3696873   -4517.1716    5488.9878   -4323.5386   -14716.964    8233.0771   -22052.987    23661.679    83.435542 
   64600    2104.1562   -116.90781    1.9038848   -115.00392    23330.982    4.3487441    4.3487441    4.3487441    23330.982    57500.438     32984.87   -20492.363   -1546.4985   -10724.365    23517.872    82.241602 
   64700    1617.5763   -116.52122     1.463617    -115.0576   -22383.627    4.3691086    4.3691086    4.3691086   -22383.627    6859.2806   -31516.217   -42493.945    17990.021    17041.195   -70257.264    83.402395 
   64800     1659.366   -116.55933    1.5014292    -115.0579   -43369.169    4.3893623    4.3893623    4.3893623   -43369.169   -15403.148   -54278.216   -60426.142    13668.454     -3952.18    9501.1094    84.567658 
   64900    1757.8441   -116.62677    1.5905343   -115.03623   -24302.669    4.3925898    4.3925898    4.3925898   -24302.669    13818.068   -25623.252   -61102.824   -10763.663   -15179.875    52213.536     84.75434 
   65000     1895.181   -116.73429    1.7147996   -115.01949   -4006.0652    4.3845427    4.3845427    4.3845427   -4006.0652    24002.201   -14588.073   -21432.323    12002.913   -4861.3668   -52185.387     84.28939 
   65100    1557.4255   -116.42858    1.4091913   -115.01939    14394.989    4.3664281    4.3664281    4.3664281    14394.989    49061.874    4015.6192   -9892.5264    17365.259    9012.8116    3811.1204    83.248983 
   65200    1659.1211   -116.53157    1.5012077   -115.03037    4469.3347    4.3691917    4.3691917    4.3691917    4469.3347    27314.818    43876.118   -57782.933    4910.0278   -26267.558    43543.474    83.407156 
   65300    1788.0447    -116.6505    1.6178604   -115.03264   -2832.0556    4.3862182    4.3862182    4.3862182   -2832.0556   -12270.126    19218.623   -15444.664   -1366.3543   -18935.546   -27570.384    84.386059 
   65400    1601.3217   -116.48026    1.4489095   -115.03135    18720.641    4.3798248    4.3798248    4.3798248    18720.641    22029.501    13252.128    20880.293    34416.754     21284.45    -17559.32     84.01759 
   65500    1866.1431   -116.72335    1.6885255   -115.03482    -767.5177    4.3722832    4.3722832    4.3722832    -767.5177    37251.457    2592.1644   -42146.175   -2604.5205   -22111.745        20190    83.584325 
   65600    1698.7641   -116.58347    1.5370774   -115.04639   -18387.285    4.3681407    4.3681407    4.3681407   -18387.285   -27427.226   -398.94535   -27335.684   -21000.314   -24755.584    16340.971    83.346975 
   65700    1267.3669   -116.20676    1.1467402   -115.06002    9893.7907    4.3625091    4.3625091    4.3625091    9893.7907   -14797.566    978.50431    43500.433    46456.504    19065.164   -8541.2861    83.025029 
   65800     2242.806    -117.0952     2.029338   -115.06586   -9580.0745    4.3872743    4.3872743    4.3872743   -9580.0745    79111.664    -49824.54   -58027.347    3692.7163   -2537.5719    1710.6958     84.44703 
   65900    2179.4112   -117.01902     1.971977   -115.04704   -17859.474     4.385115     4.385115     4.385115   -17859.474   -3384.1712   -36131.722   -14062.527     10983.71    4083.3008    5401.0739    84.322402 
   66000    1425.3119     -116.316    1.2896521   -115.02634    33374.314    4.3485155    4.3485155    4.3485155    33374.314    48958.569   -29378.903    80543.277    42617.848    701.01494    11169.775    82.228634 
   66100    1513.4236   -116.41651    1.3693775   -115.04713    9546.6393    4.3675105    4.3675105    4.3675105    9546.6393    27930.568   -6809.0668    7518.4173   -19499.814    29635.174   -12681.895     83.31091 
   66200    1658.6355   -116.53275    1.5007683   -115.03198   -15256.656     4.384675     4.384675     4.384675   -15256.656   -15808.775   -12197.788   -17763.406     12488.82    22297.206   -5881.1051    84.297023 
   66300    1461.0298   -116.35308    1.3219704   -115.03111     30129.96    4.3735299    4.3735299    4.3735299     30129.96    39237.705    -8808.854    59961.029    23785.819    -12740.39    13377.222    83.655849 
   66400     1950.397    -116.7915    1.7647602   -115.02674   -5619.4383    4.3855204    4.3855204    4.3855204   -5619.4383    9656.4342   -21804.975    -4709.774   -47451.366    15517.304   -7325.1088    84.345792 
   66500    2107.7799   -116.93475    1.9071636   -115.02759   -7605.5153     4.371091     4.371091     4.371091   -7605.5153    18623.364   -14905.852   -26534.058    10049.497    1245.6321   -33634.509    83.515973 
   66600    1228.1771   -116.14835    1.1112805   -115.03707    42411.076    4.3473643    4.3473643    4.3473643    42411.076    56962.993    37966.572    32303.665    37828.016    -11973.15   -5038.7809    82.163342 
   66700    2416.3744   -117.23969    2.1863864   -115.05331    13989.718    4.3682744    4.3682744    4.3682744    13989.718    31356.379    2870.9222    7741.8522    -18938.93    7763.7514     28575.94    83.354629 
   66800     2100.455   -116.93935    1.9005358   -115.03882    6764.5699    4.3879177    4.3879177    4.3879177    6764.5699    11108.541    36304.169       -27119    6061.4923   -4166.6458   -35497.552    84.484184 
   66900    1237.7189   -116.15552    1.1199141    -115.0356    5583.8514    4.3876655    4.3876655    4.3876655    5583.8514    37494.651   -33950.256     13207.16    39414.213   -19245.792   -24605.178    84.469621 
   67000    2592.5218   -117.34942    2.3457682   -115.00365    5157.1447    4.3765295    4.3765295    4.3765295    5157.1447    6783.3197    7550.8677    1137.2468   -6160.3859    2237.8314    16171.352     83.82809 
   67100    2078.5844    -116.8966    1.8807468   -115.01585   -3037.1894    4.3602998    4.3602998    4.3602998   -3037.1894    13721.332    13298.994   -36131.895   -13113.109    31246.442   -27568.103    82.898956 
   67200    1327.3631   -116.24865     1.201026   -115.04763    5870.1553    4.3545505    4.3545505    4.3545505    5870.1553    35273.927    -36777.23    19113.769    45711.508   -7710.1327   -21272.424    82.571467 
   67300    2380.0925    -117.2025    2.1535577   -115.04894   -11219.689    4.3703001    4.3703001    4.3703001   -11219.689   -36952.499   -2659.2095    5952.6429    24582.353   -116.71436    4465.8989    83.470647 
   67400    1680.3941   -116.56376    1.5204559    -115.0433   -13093.255     4.389381     4.389381     4.389381   -13093.255    -33839.15    22345.738   -27786.352   -35812.769    44140.282    2105.3414    84.568738 
   67500    1893.3779   -116.74166    1.7131681   -115.02849   -7832.4357    4.3805653    4.3805653    4.3805653   -7832.4357   -2976.3264   -21160.409    639.42836    28916.151   -4423.6403   -25923.651     84.06021 
   67600    1894.8986   -116.73284    1.7145441   -115.01829    689.44156    4.3633516    4.3633516    4.3633516    689.44156   -30921.254    45858.766   -12869.187    13344.362     10490.43   -12584.014    83.073142 
   67700    1530.3858   -116.42129    1.3847252   -115.03657    1431.5358    4.3558885    4.3558885    4.3558885    1431.5358   -28136.702    24548.232    7883.0768   -30103.436    55826.284    16443.908    82.647601 
   67800    1712.1979    -116.5969    1.5492326   -115.04767    23131.165    4.3559159    4.3559159    4.3559159    23131.165    15771.508    54047.663   -425.67567   -1553.8347   -24975.244   -20758.642    82.649164 
   67900    1643.5446   -116.54952    1.4871137    -115.0624   -16900.502    4.3739659    4.3739659    4.3739659   -16900.502   -11625.437   -6924.3149   -32151.754    15959.892   -7438.2103    -12706.35    83.680868 
   68000    1741.6898   -116.62151    1.5759176   -115.04559   -27374.218    4.3885241    4.3885241    4.3885241   -27374.218   -48686.492   -12971.877   -20464.286   -6640.0533    51348.104   -1654.5974    84.519219 
   68100    1596.5654   -116.47543    1.4446059   -115.03082    -31678.24    4.3737519    4.3737519    4.3737519    -31678.24   -23392.524   -13919.228   -57722.969   -17221.086   -42446.878    22908.932    83.668585 
   68200     1214.664   -116.13443    1.0990535   -115.03538      8703.11    4.3555384    4.3555384    4.3555384      8703.11    8355.8539     5517.241    12236.235    13970.382   -27445.173   -19926.723    82.627679 
   68300    2407.5906   -117.21465    2.1784386   -115.03621   -6634.1901    4.3613314    4.3613314    4.3613314   -6634.1901   -13004.712   -27556.312    20658.454    11855.789    19605.238   -32837.074    82.957806 
   68400    1741.1552   -116.62955    1.5754338   -115.05412   -2615.7184    4.3680328    4.3680328    4.3680328   -2615.7184   -6600.4254    15989.198   -17235.928    715.08897   -24869.742    39632.394      83.3408 
   68500    1549.0626   -116.46347    1.4016244   -115.06184   -4955.0715    4.3781347    4.3781347    4.3781347   -4955.0715    19209.925    7357.9872   -41433.127   -16615.162   -13828.276    20803.515    83.920362 
   68600    2438.5394   -117.23571    2.2064417   -115.02926   -5310.3289    4.3815432    4.3815432    4.3815432   -5310.3289   -18653.867   -696.82818    3419.7085    20322.571    16205.609   -24849.372    84.116517 
   68700    1406.9698   -116.31576    1.2730558    -115.0427   -16465.382    4.3662944    4.3662944    4.3662944   -16465.382   -29479.961    31513.236   -51429.421    13571.508   -6544.5219     29939.43    83.241338 
   68800    1636.1312   -116.52023    1.4804059   -115.03982    4936.7456    4.3600611    4.3600611    4.3600611    4936.7456    9401.2676     33081.43   -27672.461   -20183.959   -15850.178    38479.749    82.885342 
   68900    2544.2689   -117.32316     2.302108   -115.02105   -22249.836     4.389521     4.389521     4.389521   -22249.836   -6639.0926   -47444.503   -12665.913    22569.789    10684.206    -19736.13    84.576827 
   69000    1329.7106   -116.19674    1.2031501   -114.99359   -41649.579    4.4055676    4.4055676    4.4055676   -41649.579   -65880.223   -6093.0726   -52975.442    7883.3342   -5703.2979    27360.891    85.507778 
   69100    2326.5362   -117.06768    2.1050988   -114.96258    6835.6796    4.3722445    4.3722445    4.3722445    6835.6796   -18682.767     46283.68   -7093.8739   -17320.301   -4165.0276    18555.539    83.582106 
   69200    1152.4996   -116.03563    1.0428058   -114.99283   -13804.645    4.3500858    4.3500858    4.3500858   -13804.645   -23669.207    -45764.79    28020.062    116.53535   -950.22702   -33457.732    82.317747 
   69300    1715.5184   -116.58451    1.5522371   -115.03227    -7499.145     4.349785     4.349785     4.349785    -7499.145   -31460.169    10170.344   -1207.6102    29286.023   -14037.442   -2265.6134    82.300669 
   69400    2416.6794    -117.2327    2.1866623   -115.04604    19013.697    4.3638088    4.3638088    4.3638088    19013.697   -687.76506    43531.237     14197.62   -17798.432    5082.7426    21101.618    83.099258 
   69500    1302.2874   -116.23588     1.178337   -115.05754   -17921.421    4.3902421    4.3902421    4.3902421   -17921.421   -43192.455   -21840.385    11268.578   -27498.715   -2262.9472   -15548.968    84.618518 
   69600    1990.0456   -116.82242     1.800635   -115.02179   -1629.8317    4.3815559    4.3815559    4.3815559   -1629.8317    -27034.16    57636.524   -35491.859    26600.784   -9522.8108   -5596.2267    84.117249 
   69700    1574.0063   -116.43877     1.424194   -115.01458    28589.542    4.3511558    4.3511558    4.3511558    28589.542    44549.043    48218.247   -6998.6624   -4059.8753    1560.4416     72243.49    82.378503 
   69800    1807.0161   -116.65681    1.6350261   -115.02179     14561.28    4.3507296    4.3507296    4.3507296     14561.28    7211.4228   -1301.7424    37774.158   -30182.154   -4684.1739   -6771.0028    82.354298 
   69900    2181.1835    -116.9961    1.9735806   -115.02252    -3085.534    4.3713243    4.3713243    4.3713243    -3085.534   -20211.316    16865.517   -5910.8034    7751.0096     2594.951    4984.1078    83.529347 
   70000    1040.4207   -115.98637   0.94139448   -115.04498   -760.90818    4.3797504    4.3797504    4.3797504   -760.90818     14060.52   -24761.041    8417.7962    6903.1752   -2322.4212    80484.378    84.013305 
   70100    2524.6403   -117.30347    2.2843476   -115.01912    4966.0654    4.3716693    4.3716693    4.3716693    4966.0654    -35496.66    44010.555     6384.301   -22296.705    5141.8773   -24155.628    83.549124 
   70200    1649.4691   -116.51941    1.4924743   -115.02693    9631.3201    4.3588542    4.3588542    4.3588542    9631.3201    23419.348    8613.3181    -3138.706   -197.68198    1352.6178    48821.606     82.81653 
   70300    936.20427   -115.89728    0.8470973   -115.05018   -5733.4111    4.3614854    4.3614854    4.3614854   -5733.4111    32369.273   -39188.248   -10381.258    10896.796   -2447.4192    53380.657    82.966595 
   70400     2519.217   -117.30028    2.2794405   -115.02084    -3018.361    4.3754347    4.3754347    4.3754347    -3018.361    -31369.82    16691.901    5622.8351    517.21663   -736.95694   -49961.422    83.765201 
   70500    1514.1267   -116.39869    1.3700136   -115.02867   -25126.828    4.3762734    4.3762734    4.3762734   -25126.828    47008.189   -66686.815   -55701.858   -2494.5419    -3160.844    98163.007    83.813379 
   70600    1644.4591   -116.49946    1.4879412   -115.01152   -404.61537     4.367617     4.367617     4.367617   -404.61537    24371.727   -32331.016    6745.4432    23197.196   -1327.8932    20999.722    83.317003 
   70700    2272.7833   -117.05753    2.0564621   -115.00107   -13910.246    4.3680428    4.3680428    4.3680428   -13910.246   -18578.572   -27533.426    4381.2606    6321.9749    1365.8313   -18437.739    83.341376 
   70800    1091.9468   -116.01239   0.98801642   -115.02437   -5071.5907    4.3631426    4.3631426    4.3631426   -5071.5907    59426.078   -69992.621     -4648.23     -7298.21    8959.5376    97025.082    83.061207 
   70900    1918.3242   -116.75618      1.73574   -115.02044    19696.828    4.3633719    4.3633719    4.3633719    19696.828    1792.9542    4871.0588    52426.472    27886.089   -516.07542    2715.1937    83.074302 
   71000    1728.7529    -116.5851    1.5642119   -115.02089   -6558.6165    4.3768867    4.3768867    4.3768867   -6558.6165   -30160.765   -30871.966    41356.882    3779.8352    172.83103    13258.759    83.848617 
   71100    1092.6621   -116.01618   0.98866363   -115.02752   -18627.014    4.3769143    4.3769143    4.3769143   -18627.014    25958.618   -63808.301    -18031.36   -1546.1515    8477.5911    85462.296    83.850205 
   71200     2441.388   -117.21349    2.2090192   -115.00447    33652.618    4.3532384    4.3532384    4.3532384    33652.618    3663.0386    46867.892    50426.924    18905.613    3113.6132   -27842.172    82.496849 
   71300    1263.7624   -116.17669    1.1434788   -115.03321    8221.3668    4.3516184    4.3516184    4.3516184    8221.3668      13453.1   -11735.753    22946.753    14059.139   -11775.208    68200.246    82.404783 
   71400     1641.023   -116.52266    1.4848321   -115.03783   -23487.158     4.377057     4.377057     4.377057   -23487.158   -7154.1264   -13878.877   -49428.471   -11381.044    2258.2494    63508.876    83.858409 
   71500     2560.408   -117.31524     2.316711   -114.99853    20416.307    4.3826146    4.3826146    4.3826146    20416.307   -16689.658    53322.347    24616.232     8722.303    2145.5521   -29978.366    84.178239 
   71600    1091.1641   -116.00084   0.98730818   -115.01353   -13958.425     4.381617     4.381617     4.381617   -13958.425    52446.728   -34133.464   -60188.539    9579.0097   -14552.996    89502.576    84.120771 
   71700    2543.3129   -117.28751     2.301243   -114.98627   -11586.408    4.3726817    4.3726817    4.3726817   -11586.408    10640.845    -13634.57   -31765.499   -18561.756   -9893.2321    8030.9947    83.607183 
   71800    1766.9859   -116.58941     1.598806    -114.9906    36686.738    4.3558638    4.3558638    4.3558638    36686.738    34040.598    27899.053    48120.561   -4170.9851    -1559.945    26355.378      82.6462 
   71900    1249.4749   -116.14969    1.1305511   -115.01914   -5469.5077    4.3766747    4.3766747    4.3766747   -5469.5077    47947.964   -38287.925   -26068.562    13434.387   -16292.999     73184.59    83.836436 
   72000    2182.5188   -116.95956    1.9747889   -114.98477   -4370.8461    4.3864347    4.3864347    4.3864347   -4370.8461    35372.195   -30985.677   -17499.056   -4256.7624    -13647.99   -45753.124    84.398554 
   72100    952.49326   -115.85862   0.86183592   -114.99679     21791.74    4.3645556    4.3645556    4.3645556     21791.74    97621.303   -34222.367    1976.2849   -9501.5823   -2379.4104    52598.438    83.141929 
   72200    2264.6116   -117.03683    2.0490682   -114.98776    26089.122    4.3678053    4.3678053    4.3678053    26089.122    54970.578   -27386.196    50682.983   -4422.9622    6991.6659     15061.58    83.327779 
   72300    1822.9326    -116.6598    1.6494277   -115.01038    24405.772    4.3652217    4.3652217    4.3652217    24405.772    86782.475   -13634.225    69.066068    869.17474   -17441.778   -6261.4297    83.180002 
   72400    992.31611    -115.9342   0.89786847   -115.03633    40962.499    4.3634611    4.3634611    4.3634611    40962.499     95051.41   -28922.543     56758.63   -2790.3225   -11950.093    54097.747    83.079398 
   72500    2989.6558    -117.7024    2.7051034    -114.9973    9469.5331    4.3811316    4.3811316    4.3811316    9469.5331    36995.705   -13804.946    5217.8406   -258.78037     11241.21   -23055.355    84.092819 
   72600    1125.5581    -116.0329    1.0184286   -115.01448    23286.648    4.3751047    4.3751047    4.3751047    23286.648    84933.282   -20631.159    5557.8224    798.66926    7969.2118    57196.181    83.746244 
   72700    2436.6483   -117.19756    2.2047306   -114.99283    15172.801    4.3761605    4.3761605    4.3761605    15172.801    21706.957    7342.2286    16469.218   -8219.0239   -2363.6451    11801.637    83.806892 
   72800    2352.5529   -117.13114    2.1286393    -115.0025    15981.807     4.361628     4.361628     4.361628    15981.807    38563.647    10590.408   -1208.6348   -9107.5332    12828.329   -3025.4588    82.974735 
   72900    776.37605   -115.73593   0.70248137   -115.03345    16013.678    4.3481231    4.3481231    4.3481231    16013.678    74071.367   -18028.265   -8002.0697    16311.284    24186.497    78564.355    82.206376 
   73000     2649.044    -117.4187    2.3969107   -115.02179    38.981398    4.3760637    4.3760637    4.3760637    38.981398   -10386.758    1814.2076    8689.4944   -4386.5478   -11266.281    202.41868     83.80133 
   73100    1302.7022   -116.19645    1.1787123   -115.01774   -286.03616    4.3870738    4.3870738    4.3870738   -286.03616    35299.647   -27301.832   -8855.9229   -15791.208    14862.938    18538.721    84.435449 
   73200    1528.3454   -116.37697     1.382879   -114.99409    12258.707    4.3872423    4.3872423    4.3872423    12258.707     32530.41    4094.3516    151.35944    171.11642    16250.383     44611.73    84.445177 
   73300    2223.9593   -116.97538    2.0122851   -114.96309   -20040.061    4.3905418    4.3905418    4.3905418   -20040.061   -43560.467   -22435.603    5875.8856   -29794.484    -12591.63   -22728.849    84.635845 
   73400     859.6254   -115.77669   0.77780712   -114.99888   -18230.008     4.362795     4.362795     4.362795   -18230.008    18920.688    -55718.31   -17892.402   -33771.465    16546.068    36028.705    83.041354 
   73500    2366.9496   -117.14154    2.1416658   -114.99988    19664.466    4.3546024    4.3546024    4.3546024    19664.466    34789.394    10978.838    13225.166    13621.706    5732.7587    20920.221    82.574418 
   73600    1759.1306   -116.61744    1.5916984   -115.02574   -7189.9943    4.3690357    4.3690357    4.3690357   -7189.9943   -40914.287    13304.932    6039.3719    24094.421   -31681.024   -6241.4625    83.398222 
   73700    1563.6403   -116.44795    1.4148146   -115.03314    6865.2711    4.3732859    4.3732859    4.3732859    6865.2711    31205.195    5751.3896   -16360.772   -41957.387      640.795    29087.883    83.641847 
   73800    2249.9528   -117.04505    2.0358045   -115.00925    10022.311    4.3878222    4.3878222    4.3878222    10022.311     27256.48    8352.8755   -5542.4222    24094.166    520.73805   -7447.6326    84.478667 
   73900    1054.1501    -115.9663   0.95381716   -115.01248   -25659.074    4.3868645    4.3868645    4.3868645   -25659.074   -49531.044   -371.36424   -27074.815    36277.538   -12546.487    2137.9174    84.423366 
   74000    1910.9594   -116.71841    1.7290762   -114.98933    36165.685    4.3617934    4.3617934    4.3617934    36165.685    57706.429    67280.421   -16489.796   -34980.592   -7136.3967    21066.402    82.984174 
   74100    1592.1358    -116.4404     1.440598    -114.9998    17701.783    4.3648325    4.3648325    4.3648325    17701.783    8314.0624    26238.019    18553.268    27356.566   -1475.1182   -15267.259    83.157752 
   74200    669.11671   -115.63364   0.60543086   -115.02821   -26494.875    4.3859829    4.3859829    4.3859829   -26494.875   -31239.532   -26356.953   -21888.142    34372.896   -24215.097   -4954.5602    84.372475 
   74300    2502.8784   -117.25306    2.2646569    -114.9884    14112.994    4.3763223    4.3763223    4.3763223    14112.994    40555.577    26046.379   -24262.974   -22840.353   -12605.264   -1159.2351    83.816184 
   74400    967.16625   -115.89309   0.87511235   -115.01798   -17269.087    4.3737515    4.3737515    4.3737515   -17269.087    -77041.82   -9086.8995     34321.46    59680.084    18920.619   -3055.0732    83.668561 
   74500    1774.6614   -116.61162    1.6057509   -115.00587   -23918.313    4.3847765    4.3847765    4.3847765   -23918.313   -65404.319    11069.132   -17419.751    24094.042   -5119.8574    55.885065    84.302877 
   74600    2730.5845   -117.46073    2.4706902   -114.99004    3512.1098    4.3736057    4.3736057    4.3736057    3512.1098   -22685.853    50610.826   -17388.644   -1971.7007    6636.6405    3626.2199    83.660194 
   74700    650.13311   -115.61948    0.5882541   -115.03123    -12030.82    4.3652384    4.3652384    4.3652384    -12030.82   -90295.278    19829.397    34373.423    67470.733    31973.591   -3030.3234    83.180956 
   74800    2449.6638   -117.23414    2.2165073   -115.01763     10881.67    4.3610319    4.3610319    4.3610319     10881.67   -10647.858    30663.215    12629.651   -19517.003    12362.645    320.53651     82.94072 
   74900     2071.266    -116.9022     1.874125   -115.02807   -5813.0089    4.3672358    4.3672358    4.3672358   -5813.0089    14140.709    648.71226   -32228.448    11039.583   -16831.796    7348.4888     83.29519 
   75000    1098.2359    -116.0421    0.9937069   -115.04839   -35272.345    4.3796396    4.3796396    4.3796396   -35272.345   -34932.264   -52613.105   -18271.666    60188.432    19929.636    3829.3071     84.00693 
   75100    2831.4153   -117.56853     2.561924    -115.0066   -28628.018    4.3901351    4.3901351    4.3901351   -28628.018   -33833.713   -12478.388   -39571.954   -7949.3832    8530.2955   -14054.095    84.612332 
   75200    1070.7421   -115.97972   0.96882997   -115.01089   -28175.475    4.3919368    4.3919368    4.3919368   -28175.475    -38718.26   -52543.758    6735.5942    30269.307   -26247.077   -1784.2866    84.716546 
   75300    1854.6527   -116.66288    1.6781287   -114.98475    15199.736    4.3724895    4.3724895    4.3724895    15199.736    236.70504   -7324.3388    52686.843    24708.639   -111.98286    8727.1345    83.596157 
   75400    2359.2006   -117.12186    2.1346543   -114.98721    35976.726    4.3656476    4.3656476    4.3656476    35976.726   -3622.7298     67354.52    44198.389   -20120.065    16927.247    -24167.68    83.204349 
   75500    780.32531   -115.74549   0.70605474   -115.03944    8044.5169    4.3773434    4.3773434    4.3773434    8044.5169   -41923.647    42719.642    23337.556    55201.044   -25986.241    4838.0635     83.87487 
   75600    2296.4563   -117.09522    2.0778819   -115.01733   -2593.6807    4.3826598    4.3826598    4.3826598   -2593.6807   -42638.351    31968.668    2888.6405    26357.822    883.76115   -11598.088    84.180845 
   75700    1878.6348   -116.71206    1.6998282   -115.01224    20881.305    4.3729997    4.3729997    4.3729997    20881.305    66.008614    54506.421    8071.4835   -24417.665    17050.068   -8586.1137    83.625424 
   75800    1577.6921   -116.45109    1.4275289   -115.02356   -4696.2057    4.3803436    4.3803436    4.3803436   -4696.2057   -4253.0212   -34260.206     24424.61    32868.751   -33744.455    6289.6195    84.047446 
   75900    2268.0872   -117.05712    2.0522129   -115.00491   -4943.4342     4.376187     4.376187     4.376187   -4943.4342   -29421.948    26247.793   -11656.148    3784.6094    39452.767   -9790.5158    83.808412 
   76000    1238.7192   -116.14204    1.1208192   -115.02122    21618.964    4.3689769    4.3689769    4.3689769    21618.964    18494.616    29624.856    16737.419    -10570.62    56259.764   -7198.3979    83.394852 
   76100    2191.5329   -116.99756    1.9829451   -115.01462   -5865.2552    4.3853015    4.3853015    4.3853015   -5865.2552   -25261.754    -32082.73    39748.718    10328.199   -34886.982   -12995.362    84.333157 
   76200    1788.3869   -116.62684      1.61817   -115.00867    31124.137     4.373503     4.373503     4.373503    31124.137    14094.544    58714.805    20563.063     2772.019    49577.573    615.36533    83.654302 
   76300    952.77421   -115.87877   0.86209013   -115.01668    56705.384    4.3717329    4.3717329    4.3717329    56705.384    29666.167     50642.39    89807.595   -39482.955    28917.826   -1567.7067    83.552771 
   76400    2225.0137   -117.01074    2.0132392    -114.9975   -21458.065    4.3910895    4.3910895    4.3910895   -21458.065    -41961.27   -18493.053   -3919.8709   -15291.211   -4442.4307    4633.1004    84.667528 
   76500    1580.4513   -116.44803    1.4300255     -115.018    13967.251    4.3641468    4.3641468    4.3641468    13967.251    29324.295    49254.504   -36677.047    17507.985    68924.009    2606.6261    83.118567 
   76600    1479.9368   -116.35343    1.3390779   -115.01435    34840.166     4.346765     4.346765     4.346765    34840.166   -3756.2521    67439.038    40837.711   -62532.297    8428.9047     2170.011    82.129366 
   76700    1852.6674   -116.70726    1.6763324   -115.03092    11029.814    4.3674116    4.3674116    4.3674116    11029.814   -15123.285    15797.182    32415.547    -17654.66    2188.8446   -4788.3052    83.305252 
   76800    1753.1689   -116.61203    1.5863041   -115.02573    15781.897    4.3779353    4.3779353    4.3779353    15781.897    7996.0528     46484.04   -7134.4008    8255.7283    46270.249   -5823.8282    83.908901 
   76900    1166.6481   -116.07862    1.0556078   -115.02301   -1729.3019    4.3869959    4.3869959    4.3869959   -1729.3019   -68121.996    34335.392    28598.699   -66232.477   -698.06273    1398.5938    84.430952 
   77000    2058.5936   -116.86792    1.8626587   -115.00526   -9074.1467    4.3801087    4.3801087    4.3801087   -9074.1467   -13283.617    5727.9901   -19666.813   -3291.1178    895.12996    -4748.037    84.033926 
   77100    1751.4575   -116.59191    1.5847556   -115.00716    25460.789    4.3509631    4.3509631    4.3509631    25460.789   -3576.3211     86275.34   -6316.6531    657.88594    40669.241   -8257.4351    82.367562 
   77200    806.69374   -115.78136   0.72991345   -115.05144    5709.9012    4.3540965    4.3540965    4.3540965    5709.9012   -36617.394    3030.1003    50716.997   -92235.643    8297.3404     355.4779     82.54564 
   77300    2513.1569   -117.30808    2.2739571   -115.03412    -10995.68    4.3794943    4.3794943    4.3794943    -10995.68   -3368.0349   -13930.199   -15688.806    6317.0571   -14777.344    7882.3793    83.998569 
   77400    1191.5012   -116.11383    1.0780953   -115.03574   -1332.4233    4.3924853    4.3924853    4.3924853   -1332.4233   -39163.209    27653.306    7512.6334   -39420.378    14794.884   -11747.449    84.748289 
   77500    1350.8973   -116.23885    1.2223203   -115.01653   -21865.827    4.3848952    4.3848952    4.3848952   -21865.827   -58070.927   -22927.087    15400.533   -68433.024    15220.417    10881.045     84.30972 
   77600    2673.3543   -117.40484    2.4189072   -114.98593    22012.207    4.3578791    4.3578791    4.3578791    22012.207    22981.175    58918.882   -15863.438    20694.928   -25183.767    -6755.598    82.760962 
   77700    1049.9127   -115.97436   0.94998305   -115.02438    11161.617    4.3557346    4.3557346    4.3557346    11161.617   -40272.683    21128.837    52628.697   -91314.251     14551.71    1357.6206    82.638846 
   77800    1910.1903   -116.76367    1.7283803   -115.03529   -5038.1942    4.3878835    4.3878835    4.3878835   -5038.1942   -37803.074    33872.917   -11184.426   -18983.545    6509.3524   -4208.8749    84.482209 
   77900    1828.8537   -116.66908    1.6547853   -115.01429   -25075.216     4.405473     4.405473     4.405473   -25075.216   -33164.866   -38469.044   -3591.7366   -2246.5339    -10701.47   -12205.354     85.50227 
   78000    1071.8868   -115.98133   0.96986567   -115.01147   -19058.446    4.3846273    4.3846273    4.3846273   -19058.446   -37720.387   -44808.125    25353.174   -87514.673   -1585.4029    3612.3062    84.294271 
   78100    2583.8294   -117.31015    2.3379032   -114.97224    50198.818    4.3540974    4.3540974    4.3540974    50198.818    62052.049    70097.261    18447.143    23912.657    8914.0733   -11633.694    82.545691 
   78200    1357.3009   -116.24971    1.2281144    -115.0216   -21315.049    4.3565753    4.3565753    4.3565753   -21315.049   -16798.945   -72607.021    25460.818   -55431.414   -42.067063   -11837.898    82.686702 
   78300    1266.3298   -116.20168    1.1458018   -115.05588   -12992.193     4.374906     4.374906     4.374906   -12992.193   -37548.818   -23214.209    21786.448   -34187.539   -14204.076    4331.1547    83.734835 
   78400    2842.2915   -117.59585     2.571765   -115.02408    -16269.75    4.3873872    4.3873872    4.3873872    -16269.75    11383.624   -6839.0446   -53353.829    19467.457    7832.2333    2611.5945    84.453547 
   78500     831.0594    -115.7926   0.75196001   -115.04064   -15500.566    4.3845409    4.3845409    4.3845409   -15500.566   -40646.839   -22943.438     17088.58   -84212.537   -1728.6071   -22866.897    84.289287 
   78600    2287.0771   -117.09802    2.0693954   -115.02862    3352.6274    4.3584928    4.3584928    4.3584928    3352.6274   -10276.045    11215.487    9118.4401   -28305.071   -2588.1995    4495.8299     82.79593 
   78700     2599.788   -117.38051    2.3523428   -115.02817     15411.43    4.3512386    4.3512386    4.3512386     15411.43    36728.523    12768.505   -3262.7382    2939.2296    8002.7984    9475.1335    82.383206 
   78800    661.61526   -115.67041   0.59864339   -115.07177   -35651.581    4.3807414    4.3807414    4.3807414   -35651.581   -63084.363   -61750.901    17880.522   -105796.78    2933.1488   -12270.375    84.070348 
   78900    2477.2296   -117.27561    2.2414494   -115.03416    2536.7866    4.3900285    4.3900285    4.3900285    2536.7866   -5234.1225    38138.559   -25294.076    19370.013   -7675.1706   -28104.842    84.606166 
   79000    1777.8259   -116.62843    1.6086142   -115.01982   -7910.3735    4.3901457    4.3901457    4.3901457   -7910.3735   -26015.267   -51873.312    54157.458   -28580.209   -4293.3111    18825.854    84.612944 
   79100    1693.4825   -116.53042    1.5322986   -114.99813    9569.9395    4.3741291    4.3741291    4.3741291    9569.9395   -30813.562   -7527.8779    67051.259   -50269.885    7629.3981    10501.218    83.690234 
   79200    2996.2228   -117.69154    2.7110454    -114.9805    12994.776    4.3758388    4.3758388    4.3758388    12994.776    37072.657    29442.481   -27530.809    23265.251    6874.8745    9198.0625    83.788408 
   79300    1249.6136   -116.14963    1.1306767   -115.01895    -25235.58    4.3899513    4.3899513    4.3899513    -25235.58   -44578.876   -50171.823    19043.961   -45333.211   -6445.2253   -3575.1554    84.601701 
   79400    1875.2049   -116.71011    1.6967248   -115.01338    8341.0039    4.3845452    4.3845452    4.3845452    8341.0039    25731.308    6739.4785   -7447.7749     6627.587   -5563.9804    18364.117    84.289532 
   79500    2394.7569   -117.17446    2.1668264   -115.00763    582.70417    4.3795662    4.3795662    4.3795662    582.70417   -7181.4689   -18810.069    27739.651   -16482.139    5425.8382    3868.3872    84.002706 
   79600    1418.8002    -116.3056    1.2837602   -115.02184    5842.6492    4.3786939    4.3786939    4.3786939    5842.6492   -36199.599    2329.3418    51398.205   -70053.109    7192.7323   -20749.963    83.952526 
   79700    2498.1669   -117.26917    2.2603939   -115.00878    5184.5303    4.3893236    4.3893236    4.3893236    5184.5303    27782.959   -6075.8412    -6153.527    36123.701   -7883.1647    3279.9967    84.565418 
   79800    1439.3039   -116.32118    1.3023124   -115.01887   -27302.898    4.3897299    4.3897299    4.3897299   -27302.898   -78392.304   -52136.866    48620.476   -67786.524    4541.2594    16960.771    84.588905 
   79900    1593.2651   -116.45603    1.4416197   -115.01441    2152.7584    4.3677204    4.3677204    4.3677204    2152.7584   -44620.727    24295.865    26783.138   -54351.254   -5033.8028   -17804.156    83.322922 
   80000    2609.0074   -117.37045    2.3606847   -115.00976    11288.075    4.3701623    4.3701623    4.3701623    11288.075   -14027.535    36353.452    11538.307     23313.02   -15357.486   -16371.342    83.462749 
   80100    1072.5298   -116.00881   0.97044753   -115.03836   -9812.1596    4.3859732    4.3859732    4.3859732   -9812.1596   -80677.071   -16737.208      67977.8   -86253.344    12362.557    4893.3928     84.37192 
   80200    2040.4519   -116.85855    1.8462438   -115.01231    1924.5435    4.3848758    4.3848758    4.3848758    1924.5435   -37602.244    25568.752    17807.123    4137.7786    17614.415   -247.20356    84.308601 
   80300     1507.431   -116.37703    1.3639553   -115.01308   -28026.468    4.3887757    4.3887757    4.3887757   -28026.468   -33376.124   -24691.184   -26012.095   -34879.798   -16457.131   -22624.819    84.533752 
   80400    1326.6695   -116.20767    1.2003984   -115.00727   -18256.425    4.3703068    4.3703068    4.3703068   -18256.425   -52212.223   -43771.785    41214.734   -75874.027    3907.4102   -15447.714    83.471031 
   80500    2277.4093   -117.05482    2.0606478   -114.99417    28016.834    4.3543128    4.3543128    4.3543128    28016.834    22517.725    58667.046    2865.7311    28121.754    16238.107    -8846.881    82.557944 
   80600    862.66205   -115.82062   0.78055475   -115.04007   -16798.173    4.3797157    4.3797157    4.3797157   -16798.173   -72256.277   -30652.492    52514.249   -65935.916   -7353.0143    4578.2466     84.01131 
   80700    1729.9594   -116.57727    1.5653036   -115.01197   -20067.087    4.3907715    4.3907715    4.3907715   -20067.087   -54711.309   -26461.066    20971.114   -25260.892     -15415.3   -19527.089    84.649132 
   80800    2263.1579   -117.04287    2.0477529   -114.99511   -11989.671    4.3852999    4.3852999    4.3852999   -11989.671   -8877.1716   -20668.454    -6423.387    18823.616    17053.747    11059.334    84.333065 
   80900    1127.8832   -116.03187    1.0205325   -115.01133   -42232.877    4.3831715    4.3831715    4.3831715   -42232.877   -87148.559   -64555.867    25005.796   -99117.164   -16372.092   -6393.7526    84.210336 
   81000    2758.7073   -117.48576    2.4961363   -114.98963     26025.86    4.3581771    4.3581771    4.3581771     26025.86    41521.399     18470.45    18085.732    13087.043    19819.457    8070.6226    82.777941 
   81100    1168.8121   -116.08743    1.0575657   -115.02986   -5661.0435    4.3671525    4.3671525    4.3671525   -5661.0435   -20539.546   -55183.994     58740.41   -21768.596   -4577.3389   -2631.6261    83.290426 
   81200    1328.0543    -116.2347    1.2016514   -115.03305   -50985.974    4.3882927    4.3882927    4.3882927   -50985.974   -46248.803   -121181.21    14472.095   -80447.243    7274.5751    4410.1944    84.505846 
   81300     2824.703   -117.55555    2.5558506    -114.9997    28166.378    4.3781285    4.3781285    4.3781285    28166.378    55902.423    285.22445    28311.486    23250.717    17687.772   -2587.2134    83.920005 
   81400    649.45264   -115.61837    0.5876384   -115.03073    33742.374    4.3813786    4.3813786    4.3813786    33742.374    6882.0094    -33077.85    127422.96   -49177.399   -7340.8236   -21816.399    84.107039 
   81500    1752.4624   -116.58123    1.5856648   -114.99556   -9918.3754    4.4021291    4.4021291    4.4021291   -9918.3754   -7906.0867   -64252.744    42403.705    4958.4382    8786.2595   -10875.554    85.307719 
   81600     2367.945   -117.10561    2.1425664   -114.96305    424.56225    4.3855595    4.3855595    4.3855595    424.56225    39335.065   -24035.775   -14025.604   -13869.928    -15657.73     -1211.78    84.348043 
   81700    1041.9204   -115.92602   0.94275152   -114.98327    11842.674     4.368485     4.368485     4.368485    11842.674   -18920.275   -44083.133    98531.429   -69480.094   -609.02031   -2091.7479    83.366688 
   81800    2915.6706   -117.61468      2.63816   -114.97652     5829.475    4.3813473    4.3813473    4.3813473     5829.475   -4531.1485    23984.717   -1965.1436    34593.135   -718.03383   -2337.1641    84.105237 
   81900    1174.9139   -116.07306    1.0630868   -115.00998    36029.744     4.378974     4.378974     4.378974    36029.744    16983.871    2579.2524    88526.108   -65613.123   -4798.6941    22239.437    83.968639 
   82000    1696.3607   -116.54563    1.5349029   -115.01073    12215.847    4.3943364    4.3943364    4.3943364    12215.847   -31795.034    21368.276    47074.299   -16398.462   -488.96892    6050.1868    84.855482 
   82100    2388.7122   -117.13532     2.161357   -114.97396    1292.2284    4.4025885    4.4025885    4.4025885    1292.2284   -37622.675   -237.44313    41736.803   -6819.6459     5652.622    6191.5368    85.334431 
   82200     927.6506   -115.82394   0.83935776   -114.98458    16760.306      4.38263      4.38263      4.38263    16760.306   -24991.389    16548.343    58723.963   -61768.187   -36942.539    10668.729    84.179128 
   82300    2208.2111   -116.97516    1.9980358   -114.97712    38204.982      4.36872      4.36872      4.36872    38204.982    42690.427    47930.656    23993.863    32109.517   -33968.479    4993.9765     83.38014 
   82400    1690.1341   -116.53558    1.5292688   -115.00631    26975.192    4.3714954    4.3714954    4.3714954    26975.192    9701.0877   -3366.4684    74590.955   -46492.602    10863.334    7152.6211    83.539157 
   82500    1280.3226   -116.17974    1.1584628   -115.02128   -856.19271    4.3938899    4.3938899    4.3938899   -856.19271   -32079.871   -24869.191    54380.484   -30667.497   -34038.779    13613.941    84.829617 
   82600      2295.98   -117.06338     2.077451   -114.98593   -16662.261    4.3970568    4.3970568    4.3970568   -16662.261   -37158.868     24016.76   -36844.677    16397.134    -25041.02    8286.9874     85.01317 
   82700    1414.8119   -116.26281    1.2801515   -114.98266    10818.396    4.3765459    4.3765459    4.3765459    10818.396   -46249.322   -14807.857    93512.366   -78495.133    1605.3892    200.38897    83.829037 
   82800     2364.008   -117.11322    2.1390041   -114.97422    6242.4441    4.3725871    4.3725871    4.3725871    6242.4441    -28112.35    20151.724    26687.958      20601.1   -24058.232    8716.7143     83.60176 
   82900    1454.2377   -116.31309    1.3158248   -114.99727   -18752.778    4.3896739    4.3896739    4.3896739   -18752.778   -73493.517    7807.0742    9428.1092   -53140.595   -38418.599   -10138.819    84.585666 
   83000    1991.4108   -116.79492    1.8018703   -114.99305   -11061.365    4.3990073    4.3990073    4.3990073   -11061.365   -50289.596   -45156.315    62261.816   -33674.725    4140.4873    9334.2133    85.126359 
   83100    2339.9191   -117.09256    2.1172079   -114.97535   -20657.614    4.3901715    4.3901715    4.3901715   -20657.614   -44156.017   -4734.1795   -13082.645   -5251.0264   -10031.747   -5442.4812    84.614433 
   83200    1007.9586   -115.90778   0.91202215   -114.99575    2655.8071    4.3712952    4.3712952    4.3712952    2655.8071    -70807.84    17572.548    61202.714   -86469.102   -22400.253    2790.1296    83.527677 
   83300    2909.4779   -117.61233    2.6325568   -114.97977    20485.395    4.3785985    4.3785985    4.3785985    20485.395   -12352.992    15232.925    58576.251    27489.035    4494.8504    11825.238    83.947038 
   83400    1134.6103   -116.03471    1.0266193   -115.00809   -52470.386    4.3973582    4.3973582    4.3973582   -52470.386   -117074.87   -48030.081    7693.7921   -107734.95    95.565032     8120.988    85.030658 
   83500    2131.9448   -116.91074    1.9290284   -114.98171    16358.828    4.3897567    4.3897567    4.3897567    16358.828   -20639.039    61998.676     7716.847    19349.131   -8657.4257   -5422.8532    84.590451 
   83600    2045.0839   -116.82899    1.8504349   -114.97855   -32958.802     4.386261     4.386261     4.386261   -32958.802    -42634.54   -53542.497   -2699.3703   -62940.968    18088.729    20495.592    84.388528 
   83700    1123.7722    -116.0105    1.0168127   -114.99369    9814.6105     4.370787     4.370787     4.370787    9814.6105   -65278.133    29556.781    65165.183   -72583.052   -16502.044   -14077.226    83.498547 
   83800    2618.6589   -117.34894    2.3694176   -114.97952    8303.5805    4.3700318    4.3700318    4.3700318    8303.5805     23112.51    1829.3948   -31.163496    11210.642   -1794.3456    15761.933    83.455273 
   83900    811.56408   -115.75233   0.73432024     -115.018   -18715.387    4.3898413    4.3898413    4.3898413   -18715.387   -54146.073   -46426.876    44426.787   -113728.08   -16926.722   -9950.8332    84.595345 
   84000    2835.2252   -117.53364    2.5653713   -114.96826   -11729.199    4.3991261    4.3991261    4.3991261   -11729.199    890.26724    1331.6788   -37409.543    22967.184     7647.747    4176.1091    85.133251 
   84100    935.01573   -115.82921   0.84602189   -114.98318     -19690.8    4.4049532    4.4049532    4.4049532     -19690.8   -31033.483   -53343.382    25304.465   -93043.111   -11471.526   -7327.8539    85.472006 
   84200    2262.6718   -117.00732     2.047313   -114.96001   -19222.904    4.3994325    4.3994325    4.3994325   -19222.904   -27784.901   -29039.718   -844.09364    6057.0072   -5746.7596   -3740.9731    85.151042 
   84300    1964.4802   -116.73913     1.777503   -114.96163   -12687.582    4.3797521    4.3797521    4.3797521   -12687.582   -35246.577   -37407.713    34591.544   -53616.832   -17537.131     891.8952    84.013403 
   84400    1949.1613   -116.73692    1.7636421   -114.97327    10792.151    4.3760559    4.3760559    4.3760559    10792.151    -40300.54    13302.388    59374.605   -44823.175    354.78913   -7581.6326    83.800882 
   84500    2124.2663   -116.90479    1.9220808   -114.98271   -8639.5812    4.3883099    4.3883099    4.3883099   -8639.5812    7058.5906   -3468.5722   -29508.762   -7368.5412    7565.8532    3375.0681    84.506843 
   84600    1389.0021   -116.25792    1.2567983   -115.00112    -2980.637    4.3970943    4.3970943    4.3970943    -2980.637   -43652.571    1694.5521    33016.108   -73918.963   -10896.207    -664.1265    85.015349 
   84700    2396.2561   -117.14062    2.1681829   -114.97244     12662.57    4.4036278    4.4036278    4.4036278     12662.57    30849.071    38193.201   -31054.561    3478.6913    13982.339    4142.8369    85.394875 
   84800    800.66917   -115.70963   0.72446229   -114.98517   -7267.4253    4.4070551    4.4070551    4.4070551   -7267.4253   -9220.2428   -25438.707    12856.674   -76752.674      9500.85   -2029.6623    85.594419 
   84900    2231.9257   -116.96024    2.0194933   -114.94074    9685.5134    4.3929772    4.3929772    4.3929772    9685.5134    22471.495   -1232.0779    7817.1234    2247.0912   -6826.2253   -7740.2879    84.776768 
   85000    2158.0199   -116.89957    1.9526218   -114.94695   -12412.857    4.3751892    4.3751892    4.3751892   -12412.857    -26280.52   -4965.5429   -5992.5076   -22330.273    21557.141    17152.828    83.751099 
   85100    1047.0769   -115.95946   0.94741714   -115.01204   -27776.241    4.3800363    4.3800363    4.3800363   -27776.241   -83233.172   -27770.196    27674.644   -68512.703    3655.5565   -9164.5169    84.029758 
   85200    2795.2157   -117.52935    2.5291699   -115.00018   -9834.8814    4.3882991    4.3882991    4.3882991   -9834.8814    1549.6634   -24560.591   -6493.7165    22963.236    -10273.67   -27142.456    84.506217 
   85300    1829.8284    -116.6691    1.6556672   -115.01343    -20992.28    4.3879153    4.3879153    4.3879153    -20992.28   -68748.711    8057.9156   -2286.0436   -46545.689    4002.1552    -8651.439    84.484046 
   85400    2066.8136    -116.8812    1.8700964    -115.0111   -12438.761    4.3803332    4.3803332    4.3803332   -12438.761   -59069.585    26931.872   -5178.5707   -6040.8994    21813.618   -7440.9656    84.046849 
   85500    2152.2957   -116.94823    1.9474424   -115.00079    9275.6994     4.388865     4.388865     4.388865    9275.6994    16274.746    21964.616   -10412.264   -2254.1799   -9597.4483   -19955.884    84.538914 
   85600    1093.2949   -115.98901   0.98923619   -114.99977    -19982.55    4.4068063    4.4068063    4.4068063    -19982.55   -44874.735   -28275.982    13203.067   -65457.506     16021.42   -12206.121     85.57992 
   85700    1602.9133   -116.41175    1.4503497    -114.9614   -15873.878    4.4036178    4.4036178    4.4036178   -15873.878   -30559.866    17400.839   -34462.606    23607.044    52897.972    8192.6991    85.394296 
   85800    1882.7841   -116.63855    1.7035826   -114.93497   -22637.453    4.3929939    4.3929939    4.3929939   -22637.453   -25705.222   -40171.814   -2035.3234   -51540.601    -20326.56   -2517.4386    84.777734 
   85900    2049.9028   -116.80647    1.8547952   -114.95168   -39228.999    4.3929932    4.3929932    4.3929932   -39228.999   -30763.221   -52536.803   -34386.974   -19838.695    7113.4867   -16669.066    84.777692 
   86000     1762.046    -116.5632    1.5943362   -114.96886   -16062.604    4.3818997    4.3818997    4.3818997   -16062.604   -31525.607    23044.292   -39706.498        23297    37191.558   -10144.747    84.137053 
   86100    2209.6959   -116.97456    1.9993793   -114.97518   -3979.8591    4.3829573    4.3829573    4.3829573   -3979.8591    14112.848   -51465.528    25413.103   -43710.247   -20916.384    12269.202     84.19799 
   86200    1781.5837   -116.60204    1.6120143   -114.99003   -33120.931     4.404749     4.404749     4.404749   -33120.931   -49371.805   -27475.956   -22515.031    4848.5731    36607.224   -15562.693    85.460121 
   86300    1495.2064   -116.35608    1.3528941   -115.00319   -24788.354    4.3923295    4.3923295    4.3923295   -24788.354   -44150.545   -9747.0096   -20467.506    3736.2297    34744.938   -13789.756    84.739274 
   86400     2448.603   -117.19516    2.2155475   -114.97961    46764.608    4.3484842    4.3484842    4.3484842    46764.608    26212.147    16327.123    97754.554   -24626.199   -16099.993    16658.205    82.226854 
   86500    1628.1895   -116.50556    1.4732201   -115.03234    1598.3065    4.3580891    4.3580891    4.3580891    1598.3065   -807.43356    42761.539   -37159.186    471.46847     51693.19   -17110.483    82.772925 
   86600    1503.5874   -116.39798    1.3604775   -115.03751   -27566.036    4.3851399    4.3851399    4.3851399   -27566.036   -15724.254   -12665.139   -54308.717    18009.961    23546.566    -23080.42    84.323839 
   86700    2372.7312   -117.15833     2.146897   -115.01143     5038.844    4.3842809    4.3842809    4.3842809     5038.844     10410.96   -40738.432    45444.004    5232.5091   -13901.963    19687.594    84.274295 
   86800    1186.8158    -116.1031    1.0738558   -115.02925   -23001.893    4.3893288    4.3893288    4.3893288   -23001.893   -29465.004    40873.145   -80413.821   -10348.599    73135.443    1394.1512     84.56572 
   86900    2462.4559   -117.23323    2.2280819   -115.00514   -11011.081    4.3733437    4.3733437    4.3733437   -11011.081   -18504.978    9767.2927   -24295.558    1797.0029    11049.184   -11176.363    83.645161 
   87000    1854.4742   -116.68731    1.6779672   -115.00935    30055.544    4.3630656    4.3630656    4.3630656    30055.544    48366.775    46281.588   -4481.7325    22127.414    15257.537   -9280.0277    83.056806 
   87100    1528.5968   -116.41684    1.3831065   -115.03374   -42806.753     4.388665     4.388665     4.388665   -42806.753   -66051.674    7375.5236   -69744.109   -20766.272    62596.427    32209.694    84.527358 
   87200    2631.9417   -117.37558    2.3814362   -114.99415    16562.553    4.3844339    4.3844339    4.3844339    16562.553    27063.652    27112.952   -4488.9448   -278.51189   -18327.175    15949.973    84.283115 
   87300      1369.53   -116.24966    1.2391795   -115.01048    39527.791    4.3793715    4.3793715    4.3793715    39527.791    7216.1431    96961.426    14405.804    24473.431    68921.553   -14438.501    83.991503 
   87400    2118.0138   -116.91127    1.9164234   -114.99485   -15601.457    4.3956305    4.3956305    4.3956305   -15601.457   -7418.8679   -10708.455   -28677.047    4990.5845     13528.71     10295.51    84.930472 
   87500    2175.7077   -116.96333    1.9686261    -114.9947      5134.07    4.3760038    4.3760038    4.3760038      5134.07    21339.905    16320.614   -22258.309    2285.2506    5429.1143    12447.407    83.797885 
   87600    1356.7474    -116.2409    1.2276136   -115.01329     21092.34    4.3599791    4.3599791    4.3599791     21092.34    15047.197    42257.541    5972.2836    19219.545    52874.142   -11598.803    82.880662 
   87700    2011.5878   -116.84829    1.8201269   -115.02817   -20337.793    4.3772909    4.3772909    4.3772909   -20337.793   -14156.318    -45248.86   -1608.2011    33969.168   -13627.695    1559.4873    83.871849 
   87800    1851.8432   -116.70148    1.6755867   -115.02589   -10684.025    4.3740185    4.3740185    4.3740185   -10684.025     5946.083     -12627.9   -25370.258   -13543.034    30417.915    39638.396    83.683889 
   87900     1380.086   -116.28294    1.2487308   -115.03421    15681.761    4.3762362    4.3762362    4.3762362    15681.761    30994.421    21258.378   -5207.5155    4301.3774    59141.836   -12286.781     83.81124 
   88000      2471.93   -117.24459    2.2366542   -115.00794   -17046.266    4.3930626    4.3930626    4.3930626   -17046.266   -11911.153   -43107.362    3879.7176    21180.189   -20862.413   -13789.711    84.781709 
   88100    1302.2657   -116.20488    1.1783173   -115.02656   -12602.258    4.3672597    4.3672597    4.3672597   -12602.258   -33078.598    34094.878   -38823.054    5781.3061    62523.098    28572.229    83.296561 
   88200    1763.1458   -116.61151    1.5953314   -115.01618    43223.496    4.3522509    4.3522509    4.3522509    43223.496    29015.215    38348.534    62306.739    8000.8813    28643.319    2656.2502    82.440719 
   88300      2625.92   -117.38907    2.3759876   -115.01308   -16312.995    4.3870554    4.3870554    4.3870554   -16312.995   -41377.092    3883.2359   -11445.128    9132.0651   -4250.4563   -3174.7438     84.43439 
   88400    1031.1893   -115.95248   0.93304173   -115.01944   -27424.813    4.3884485    4.3884485    4.3884485   -27424.813   -90523.045     58640.65   -50392.045    951.58356    85699.221    23368.139    84.514848 
   88500    2346.0962   -117.12076    2.1227971   -114.99796    7438.9292    4.3789104    4.3789104    4.3789104    7438.9292    32745.306   -9572.6919   -855.82643   -13955.227   -12501.083    28164.067    83.964976 
   88600    2183.4074   -116.97761    1.9755929   -115.00202   -12903.156    4.3714012    4.3714012    4.3714012   -12903.156   -47634.596    65738.586   -56813.457    -9030.724    54218.377   -2891.3026    83.533753 
   88700    1583.4981   -116.44495    1.4327824   -115.01217    22123.316    4.3543582    4.3543582    4.3543582    22123.316    12943.732    82944.871   -29518.656    7119.2031    72807.684    8213.0506    82.560526 
   88800    2379.4986   -117.17206    2.1530203   -115.01904    1433.7214    4.3776895    4.3776895    4.3776895    1433.7214    51061.839   -38280.073   -8480.6025    5695.8058   -23702.056    15299.531    83.894767 
   88900    1227.3852    -116.1215     1.110564   -115.01094   -43006.054    4.3966828    4.3966828    4.3966828   -43006.054   -105429.03    27758.874   -51348.007   -1036.3564    90492.413   -3620.3554    84.991482 
   89000    2545.5205   -117.28417    2.3032405   -114.98093    10411.053    4.3703255    4.3703255    4.3703255    10411.053     659.5677    5548.5904    25025.001   -8253.5721   -1813.0647   -12.883393    83.472102 
   89100    1528.6728   -116.38496    1.3831753   -115.00178    6103.3703    4.3646597    4.3646597    4.3646597    6103.3703    28845.716    27857.768   -38393.373   -6397.5021    55494.667    23596.874    83.147879 
   89200    1427.7008   -116.30934    1.2918137   -115.01753   -29700.357    4.3768974    4.3768974    4.3768974   -29700.357   -61590.066    36574.054   -64085.058    13002.506    79652.857   -1106.9768    83.849232 
   89300     2637.737   -117.37928    2.3866798    -114.9926    4316.9838    4.3804074    4.3804074    4.3804074    4316.9838    7597.7368   -37693.535     43046.75    14161.397   -32011.954   -3977.2312     84.05112 
   89400     987.4782   -115.91676   0.89349103   -115.02327   -44002.965    4.3844523    4.3844523    4.3844523   -44002.965   -76277.159    22315.573    -78047.31   -2656.5736    106870.84    18756.627    84.284177 
   89500    1916.6607   -116.74751    1.7342349   -115.01327   -16829.864    4.3666844    4.3666844    4.3666844   -16829.864    -9702.363   -9081.3759   -31705.854   -10538.867    30255.776    21432.061    83.263646 
   89600    2328.5562   -117.11711    2.1069266   -115.01018    5261.1092     4.358803     4.358803     4.358803    5261.1092   -12744.458    12049.389    16478.396    9380.1418    6446.5861   -3980.7531    82.813612 
   89700    973.11309   -115.91401   0.88049317   -115.03351    -48671.62    4.3813046    4.3813046    4.3813046    -48671.62   -101633.39    51454.677   -95836.149    2716.7632    110827.68   -165.33333    84.102779 
   89800      2105.85   -116.89836    1.9054173   -114.99294   -254.97554    4.3776853    4.3776853    4.3776853   -254.97554    24416.734   -21717.353    -3464.307   -5287.7433   -19432.832    28910.273    83.894522 
   89900     1342.841    -116.2153    1.2150307   -115.00027   -13866.846     4.383027     4.383027     4.383027   -13866.846   -32829.677    17215.474   -25986.334    7730.6298    53300.297   -2063.6348    84.202004 
   90000    1281.8558   -116.15414    1.1598501   -114.99429   -14572.749    4.3887207    4.3887207    4.3887207   -14572.749   -21120.748   -1440.7369   -21156.762   -8168.2103    50614.311    2627.7961    84.530575 
   90100    2088.4933   -116.87886    1.8897127   -114.98915    8555.2473    4.3678266    4.3678266    4.3678266    8555.2473    42290.857   -42953.844     26328.73   -5463.9613   -27272.721    31182.835    83.329001 
   90200    829.31097   -115.77519     0.750378   -115.02481     6051.607    4.3580957    4.3580957    4.3580957     6051.607   -5363.7098    56002.028   -32483.497    3104.0907    97961.465   -10812.926    82.773306 
   90300    2254.0651   -117.06385    2.0395255   -115.02433    2582.8062    4.3727038    4.3727038    4.3727038    2582.8062   -9383.7863    7486.6911    9645.5136   -14275.725    18168.278   -9426.5075    83.608449 
   90400    1935.2279   -116.77368    1.7510348   -115.02264   -33776.065    4.3966584    4.3966584    4.3966584   -33776.065   -24019.253   -11685.748   -65623.194    6330.2204    28795.549    21517.536     84.99007 
   90500    1277.7705   -116.17175    1.1561536    -115.0156   -51113.808    4.3920868    4.3920868    4.3920868   -51113.808   -69105.533    11724.239   -95960.131    3764.8637    113445.32    13904.172    84.725229 
   90600    3051.9051    -117.7468    2.7614279   -114.98537    38252.812    4.3504156    4.3504156    4.3504156    38252.812    36403.655    19657.962     58696.82   -1801.4247   -40044.132   -7353.0914    82.336471 
   90700      1320.97   -116.21701    1.1952414   -115.02177    19417.657    4.3414888    4.3414888    4.3414888    19417.657   -35892.713    99765.195   -5619.5128    6909.9431    78588.322    9650.4493    81.830659 
   90800     1316.666   -116.24391    1.1913471   -115.05256   -9753.9266    4.3773572    4.3773572    4.3773572   -9753.9266   -44700.782     25562.94   -10123.937   -7442.1566    58447.496    33634.706    83.875663 
   90900     2591.114   -117.34272    2.3444944   -114.99823   -7262.5242    4.3930335    4.3930335    4.3930335   -7262.5242   -13803.918   -30530.915    22547.261    11958.486   -16905.207   -11825.095    84.780026 
   91000    1041.2928   -115.94037   0.94218358   -114.99818     13826.13    4.3821828    4.3821828    4.3821828     13826.13   -7231.6701    56880.701   -8170.6422    3342.6687    85670.321   -750.53606    84.153364 
   91100    2319.2679   -117.08081    2.0985223   -114.98228    753.24527    4.3694364    4.3694364    4.3694364    753.24527    4159.4358    15930.046   -17829.746    -1903.435   -13215.342    35397.687    83.421171 
   91200    1661.0777   -116.50709     1.502978   -115.00412    26921.211    4.3499964    4.3499964    4.3499964    26921.211     48514.54    27756.789    4492.3039   -1412.4179    36020.669   -4776.7125    82.312668 
   91300    1298.4273   -116.22562    1.1748443   -115.05077      17779.5    4.3677464    4.3677464    4.3677464      17779.5   -20510.471    30311.543    43537.428   -4916.8027    71682.916   -21280.242    83.324412 
   91400    2693.5191   -117.44144    2.4371527   -115.00429   -6882.8096    4.3997964    4.3997964    4.3997964   -6882.8096   -749.68822   -27299.616    7400.8751   -6049.9738   -38506.042    22870.499    85.172174 
   91500    1242.4972   -116.11655    1.1242376   -114.99231     551.0801    4.3945636    4.3945636    4.3945636     551.0801   -50485.584    76048.639   -23909.815    2523.9746    63554.372    271.91569    84.868641 
   91600    2451.9264   -117.16686    2.2185546   -114.94831   -3274.9762    4.3869257    4.3869257    4.3869257   -3274.9762    27752.034   -14367.553   -23209.409   -3218.6046   -17774.602   -20679.745    84.426896 
   91700    1822.3499   -116.61218    1.6489005   -114.96328   -36738.624    4.3771174    4.3771174    4.3771174   -36738.624    -41802.77    5791.2401   -74204.341     7528.339    49247.073   -7682.7718    83.861877 
   91800    1286.9711   -116.16335    1.1644785   -114.99888    10760.968    4.3599463    4.3599463    4.3599463    10760.968    43845.302    44747.796   -56310.193   -5019.1946    66099.936    5259.0046    82.878794 
   91900    2835.6464   -117.57182    2.5657525   -115.00606    15207.565    4.3611777    4.3611777    4.3611777    15207.565    60366.276   -11009.198   -3734.3835    5662.7844   -33820.846   -8258.6077    82.949036 
   92000    1253.1605   -116.18308    1.1338859   -115.04919   -22799.081    4.3689385    4.3689385    4.3689385   -22799.081   -29593.241    28425.203   -67229.206   -5092.3837    115286.23   -1884.3178    83.392651 
   92100    1577.3807   -116.47195    1.4272472    -115.0447   -24940.016    4.3781293    4.3781293    4.3781293   -24940.016   -39049.109   -5558.5144   -30212.423   -12039.805    4350.8677    12141.771    83.920051 
   92200    1828.8563   -116.68185    1.6547876   -115.02706   -12192.615    4.3809038    4.3809038    4.3809038   -12192.615   -26078.956    18584.049   -29082.938     9116.954    941.64802    8197.1987    84.079701 
   92300    1263.0064   -116.16846    1.1427947   -115.02567   -24540.952    4.3891671    4.3891671    4.3891671   -24540.952   -65320.362    25679.603   -33982.096    8989.6534    88155.769   -1244.0235    84.556375 
   92400    2586.2815   -117.33561    2.3401218   -114.99549   -691.39267    4.3775535    4.3775535    4.3775535   -691.39267   -350.37076   -35490.508    33766.701   -19125.391   -29455.165    3831.2127    83.886949 
   92500    1353.2485   -116.23949    1.2244477   -115.01505   -4205.7213    4.3656485    4.3656485    4.3656485   -4205.7213     -33623.7    25368.462   -4361.9252    12805.167    48598.655    2229.3529    83.204401 
   92600    1846.8867   -116.69226    1.6711019   -115.02116    23809.551    4.3667784    4.3667784    4.3667784    23809.551    28866.163    45447.889   -2885.4008    6148.9658    37534.154   -2625.1269    83.269023 
   92700    2395.2873   -117.19008    2.1673063   -115.02277   -11147.435    4.3797768    4.3797768    4.3797768   -11147.435    14414.867   -54282.261    6425.0875   -30536.507   -10009.088   -12963.364    84.014827 
   92800    1251.0105   -116.16064    1.1319406    -115.0287   -10733.562    4.3879723    4.3879723    4.3879723   -10733.562   -28500.631   -1775.8515   -1924.2034   -17810.765    56265.762    10924.996    84.487337 
   92900    2803.6152   -117.52932    2.5367699   -114.99255    19448.213    4.3689229    4.3689229    4.3689229    19448.213    39568.474    25094.188   -6318.0229   -6052.2734    2505.6494   -14561.943    83.391763 
   93000    1434.9622    -116.3144     1.298384   -115.01601    12606.568    4.3622642    4.3622642    4.3622642    12606.568    47442.825    -2047.207   -7575.9121   -18224.219   -134.05714   -18012.058    83.011047 
   93100    1811.8457   -116.66938    1.6393961   -115.02999   -38619.562    4.3715051    4.3715051    4.3715051   -38619.562   -70886.247   -5616.0398   -39356.398   -45488.861    58265.859     -511.367    83.539712 
   93200    2083.4131    -116.9046    1.8851159   -115.01949    38774.588    4.3666038    4.3666038    4.3666038    38774.588    95998.518     35190.38   -14865.133     17330.01   -7200.1217    5953.3533    83.259032 
   93300    1176.8363     -116.105    1.0648262   -115.04017   -37989.199    4.3780794    4.3780794    4.3780794   -37989.199   -31989.307   -20536.639   -61441.652   -15063.281   -19130.388   -8570.0295    83.917185 
   93400    2275.1931   -117.06998    2.0586425   -115.01134   -6783.0723    4.3767904    4.3767904    4.3767904   -6783.0723   -21822.871    20318.102   -18844.448   -30049.219    2944.2417    -4321.538    83.843086 
   93500    1656.4712   -116.52369    1.4988099   -115.02488    6436.9614    4.3618751    4.3618751    4.3618751    6436.9614   -9647.1936     41713.17   -12755.092    38866.734    289.26073    7579.8723    82.988839 
   93600    841.55406   -115.80493    0.7614558   -115.04347    1617.7063    4.3717782    4.3717782    4.3717782    1617.7063    26405.929    25914.399   -47467.209   -5698.3827   -28266.262   -19988.411    83.555368 
   93700    2569.1814   -117.32581    2.3246494   -115.00116   -7801.4255    4.3804624    4.3804624    4.3804624   -7801.4255   -24305.974    29867.814   -28966.116     5856.562    23791.264   -5005.5841     84.05429 
   93800    1150.7712   -116.06048     1.041242   -115.01924   -11244.828    4.3797858    4.3797858    4.3797858   -11244.828   -43413.697    11934.372   -2255.1585    18537.567    26451.796     14279.72    84.015344 
   93900    2159.4471    -116.9562    1.9539131   -115.00229   -1381.7091     4.384418     4.384418     4.384418   -1381.7091   -2472.4911   -8178.3277    6505.6914   -7047.9615    -17716.52    15203.271    84.282196 
   94000    1928.2815   -116.74793    1.7447496   -115.00318   -6351.5219    4.3814363    4.3814363    4.3814363   -6351.5219   -52231.846    24778.013    8399.2671    7652.6083    51697.131   -12212.986    84.110363 
   94100    1329.6313   -116.22212    1.2030783   -115.01905    12333.563    4.3712536    4.3712536    4.3712536    12333.563    -14710.54    8255.6606    43455.568    25489.329    29648.405     19722.97    83.525295 
   94200    2669.8744   -117.42425    2.4157585   -115.00849    16037.876    4.3730411    4.3730411    4.3730411    16037.876    22691.945     344.4668    25077.216    21268.093   -11191.115    11322.738    83.627803 
   94300    1327.2665   -116.23354    1.2009386    -115.0326    6599.4396    4.3878996    4.3878996    4.3878996    6599.4396   -63877.966    75856.882    7819.4034   -25293.291    34850.356    3835.3151    84.483137 
   94400    1964.7703   -116.78095    1.7777654   -115.00319   -20549.427    4.3904955    4.3904955    4.3904955   -20549.427   -26049.818   -20071.882   -15526.581    4782.7258     7687.324    12419.802    84.633171 
   94500    1895.3225   -116.70296    1.7149277   -114.98803   -5883.6382    4.3755934    4.3755934    4.3755934   -5883.6382   -9264.9603    3293.3202   -11679.274    8742.5076   -1830.2493    34547.391    83.774311 
   94600    1159.4209   -116.06858    1.0490684   -115.01952   -23041.229    4.3617327    4.3617327    4.3617327   -23041.229   -100776.44    27389.439    4263.3129   -51401.177    12951.387   -330.88003    82.980712 
   94700    1836.9167   -116.68748    1.6620808    -115.0254    16313.368    4.3501234    4.3501234    4.3501234    16313.368   -30341.466    56700.015    22581.555   -18631.791    9093.8374    8482.1747     82.31988 
   94800    1549.9208   -116.46647    1.4024009   -115.06407   -17654.005    4.3726975    4.3726975    4.3726975   -17654.005   -7915.9788    -25766.75   -19279.286    26905.713   -9469.5945    35570.426    83.608092 
   94900     1888.947   -116.74109     1.709159   -115.03193    -56318.75    4.3963659    4.3963659    4.3963659    -56318.75   -95132.373   -10705.189   -63118.689   -23778.813   -2994.8266    1836.7012    84.973106 
   95000    1775.9774   -116.62208    1.6069417   -115.01514    8456.0125    4.3685721    4.3685721    4.3685721    8456.0125   -7483.9596    39192.371   -6340.3737    3193.7716   -1970.1538     1323.487    83.371672 
   95100    940.98684    -115.8758   0.85142467   -115.02437   -11094.931    4.3538834    4.3538834    4.3538834   -11094.931    12563.377   -30452.069     -15396.1    47678.724    2759.2582    26455.534    82.533521 
   95200    1855.2777   -116.72489    1.6786943   -115.04619   -8624.6755    4.3659989    4.3659989    4.3659989   -8624.6755    -14951.72    9693.9054   -20616.212   -22350.768    2450.1437    360.70445     83.22444 
   95300    1956.5977   -116.81832    1.7703707   -115.04795    14426.788    4.3751585    4.3751585    4.3751585    14426.788    13649.528    33574.309   -3943.4734   -34582.951   -10495.768    6151.0217    83.749337 
   95400    2088.8737   -116.93737    1.8900568   -115.04731    -9023.742    4.3823948    4.3823948    4.3823948    -9023.742   -15689.733    29521.955   -40903.448    31673.774     4240.394    16162.208    84.165573 
   95500    1427.1398   -116.34217    1.2913061   -115.05087    5939.4789    4.3692879    4.3692879    4.3692879    5939.4789   -8840.7405    31190.905   -4531.7274   -11348.493   -7994.6609    9809.1084    83.412661 
   95600    1892.9337   -116.75977    1.7127662     -115.047    11134.152    4.3553587    4.3553587    4.3553587    11134.152    -16931.99    29358.165     20976.28   -63112.012   -8208.8033   -13327.544    82.617451 
   95700    2453.7487   -117.26965    2.2202034   -115.04944   -5501.0748    4.3746966    4.3746966    4.3746966   -5501.0748    11669.698   -5632.6978   -22540.225    21170.136    2397.7679     37730.91    83.722816 
   95800    1697.8046    -116.5765    1.5362093    -115.0403   -33034.212     4.392618     4.392618     4.392618   -33034.212    16424.691    -62426.86   -53100.468    -31919.28   -14345.588    31660.396    84.755975 
   95900     1597.009   -116.46516    1.4450073   -115.02016   -4954.7947    4.3899134    4.3899134    4.3899134   -4954.7947   -9983.0737   -821.16318   -4060.1473   -33057.012   -21957.939   -16925.941    84.599513 
   96000    2342.0728   -117.13252    2.1191567   -115.01336    4977.9546    4.3750696    4.3750696    4.3750696    4977.9546    28204.487    2916.1203   -16186.744    64554.731   -4578.8083    18158.354    83.744229 
   96100    2020.0381   -116.84996    1.8277729   -115.02218    21169.526    4.3559773    4.3559773    4.3559773    21169.526    23004.828     27960.49    12543.261   -21760.129   -5575.8049    18045.135    82.652658 
   96200    1119.6336   -116.07866     1.013068    -115.0656   -1180.4453    4.3654114    4.3654114    4.3654114   -1180.4453   -43373.952    9137.4038    30695.213    -54811.11   -4574.6541   -2846.0671    83.190847 
   96300    2019.0746   -116.88183    1.8269012   -115.05493   -2646.1133    4.3833101    4.3833101    4.3833101   -2646.1133   -18253.008    -4606.486    14921.154    38681.005   -8902.7855    3159.8302     84.21832 
   96400     1989.272   -116.84096    1.7999351   -115.04102   -18764.403    4.3902774    4.3902774    4.3902774   -18764.403   -46568.812    18779.485   -28503.882   -9926.6905    11828.755    3676.2041    84.620561 
   96500    1076.3931   -116.01172   0.97394307   -115.03777    -25860.15    4.3765431    4.3765431    4.3765431    -25860.15   -73151.705    30262.343   -34691.087   -46097.414   -17489.062   -3730.0511    83.828876 
   96600    2088.0557   -116.90764    1.8893166   -115.01832    10264.192    4.3616295    4.3616295    4.3616295    10264.192    40104.824    13505.993    -22818.24    31361.008   -35759.109   -11782.405    82.974821 
   96700    1996.6219   -116.83537    1.8065855   -115.02878    17004.884      4.36074      4.36074      4.36074    17004.884    53214.178   -4817.6142    2618.0867    -24924.06    9162.4568    23182.721    82.924063 
   96800    1267.4934    -116.1997    1.1468547   -115.05284    26958.691    4.3720047    4.3720047    4.3720047    26958.691    57087.377    25640.213   -1851.5162   -41846.238   -21094.684    8655.7918    83.568354 
   96900    2218.2538   -117.03969    2.0071227   -115.03257   -17536.624    4.3917125    4.3917125    4.3917125   -17536.624   -29115.944    30714.937   -54208.864    16539.257    -38236.15   -14333.388    84.703571 
   97000    1567.9398   -116.44117    1.4187049   -115.02247   -10529.488    4.3839015    4.3839015    4.3839015   -10529.488    181.34162   -55490.794     23720.99   -42442.988    10420.069    20425.389    84.252418 
   97100    1703.1166   -116.55554    1.5410156   -115.01453    8528.5604    4.3608242    4.3608242    4.3608242    8528.5604      14046.4    -17862.33    29401.611   -30989.888   -13706.476    3446.0266     82.92887 
   97200    2196.9328   -117.00779     1.987831   -115.01996    29187.688    4.3690823    4.3690823    4.3690823    29187.688   -27847.434    90818.749    24591.749    30532.738     -18761.4   -6278.2861     83.40089 
   97300    1552.4315   -116.43724    1.4046726   -115.03257   -1200.1578    4.3859051    4.3859051    4.3859051   -1200.1578   -43078.498   -16220.461    55698.485    -62119.36    1141.1754    18164.883    84.367989 
   97400    1826.0429   -116.67864     1.652242    -115.0264   -343.55761    4.3832954    4.3832954    4.3832954   -343.55761   -8635.9239   -14306.797    21912.048   -36668.854   -15968.643   -4477.4961    84.217475 
   97500    2500.4742   -117.27539    2.2624816   -115.01291    3888.5816    4.3734052    4.3734052    4.3734052    3888.5816     -3759.77    29867.885   -14442.371    24038.077   -3911.3257   -13850.301    83.648693 
   97600    849.45754   -115.81488   0.76860703   -115.04627    12635.688    4.3629223    4.3629223    4.3629223    12635.688    5800.7401   -30672.719    62779.042     -63984.8    7944.1494    4601.4376    83.048623 
   97700    1306.7122   -116.25134    1.1823406     -115.069   -8686.2846     4.374487     4.374487     4.374487   -8686.2846    121.24132   -26103.116     -76.9788   -9505.3421    24826.004    34548.743    83.710779 
   97800    2450.3138   -117.25805    2.2170954   -115.04096   -9610.9917    4.3817926    4.3817926    4.3817926   -9610.9917    10594.804   -16268.661   -23159.118    12761.252    11163.475    6940.7117    84.130885 
   97900    1668.8076     -116.544    1.5099721   -115.03403     26635.32    4.3701359    4.3701359    4.3701359     26635.32    11109.928    13045.646    55750.386   -61953.437   -16385.725    1301.2585    83.461239 
   98000    1562.5364   -116.45064    1.4138157   -115.03683   -7479.5287    4.3781715    4.3781715    4.3781715   -7479.5287   -11081.994   -1140.2718    -10216.32    9565.1212    23072.198    42316.449    83.922478 
   98100    1920.9895      -116.76    1.7381517   -115.02185   -24640.713    4.3956808    4.3956808    4.3956808   -24640.713    21649.142   -50672.804   -44898.476    14851.597    7259.5186   -12017.819    84.933384 
   98200    2255.3345   -117.04685    2.0406741   -115.00618   -14012.547    4.3795258    4.3795258    4.3795258   -14012.547   -14672.754   -30397.109    3032.2228   -54062.717   -15289.782   -811.03913    84.000385 
   98300    1449.5633   -116.32577    1.3115954   -115.01417     10717.66    4.3542503    4.3542503    4.3542503     10717.66    37322.557    8752.0046   -13921.581     7463.026   -9360.4123    25321.558    82.554389 
   98400    1346.4152   -116.27845    1.2182648   -115.06019   -30034.373    4.3687171    4.3687171    4.3687171   -30034.373   -10267.509   -40029.926   -39805.685    31667.158    12464.882     9249.417    83.379975 
   98500    2606.4035   -117.39829    2.3583287   -115.03996   -7578.1013     4.382596     4.382596     4.382596   -7578.1013   -6116.2815   -23575.967    6957.9447    8311.3339   -12117.506    1932.2986    84.177169 
   98600    1825.7856    -116.6938    1.6520092   -115.04179    1467.3824    4.3802169    4.3802169    4.3802169    1467.3824      22837.6    33243.688   -51679.141   -6552.3346   -2709.3159    11182.597    84.040155 
   98700    1269.9188   -116.18612    1.1490492   -115.03707   -36257.144     4.382277     4.382277     4.382277   -36257.144   -39028.286   -13558.939   -56184.208    33599.316    31341.413    21217.417    84.158789 
   98800    2455.5817    -117.2379    2.2218619   -115.01604   -2445.6729    4.3715083    4.3715083    4.3715083   -2445.6729   -17723.852    4419.7751    5967.0577   -3182.3475   -5742.4879   -21220.725    83.539895 
   98900    1620.6776   -116.49911    1.4664232   -115.03268   -12536.008    4.3665965    4.3665965    4.3665965   -12536.008    3647.0204    -19786.28   -21468.764   -32026.507    7165.1888    13105.804    83.258614 
   99000      1827.17   -116.69904    1.6532618   -115.04578   -25099.892    4.3746657    4.3746657    4.3746657   -25099.892    -20076.36   -20614.014   -34609.303    4402.8665    13252.777    52545.421     83.72104 
   99100    2362.9873   -117.17368    2.1380806    -115.0356   -3460.6014    4.3745381    4.3745381    4.3745381   -3460.6014   -9400.3275    1899.5696   -2881.0464   -7872.6738    681.00297   -29438.234    83.713717 
   99200    1530.4953   -116.43169    1.3848243   -115.04687   -21036.731    4.3715459    4.3715459    4.3715459   -21036.731   -3564.2882   -59093.652    -452.2522   -51164.251   -148.55819   -3264.0268    83.542048 
   99300    1555.4269   -116.45509    1.4073829    -115.0477    843.76239    4.3751323    4.3751323    4.3751323    843.76239    34230.636   -24505.284   -7194.0646    7162.8813    17604.175    52335.008     83.74783 
   99400    2204.4291   -117.03305    1.9946138   -115.03844   -13059.056    4.3748455    4.3748455    4.3748455   -13059.056    -18042.55   -17825.142    -3309.477     17518.11     11431.59   -7059.1496    83.731364 
   99500    1189.1184   -116.12771    1.0759394   -115.05177   -13174.942     4.373108     4.373108     4.373108   -13174.942   -27878.505   -45731.244    34084.923   -32938.493   -19347.487   -12842.696    83.631639 
   99600    2004.6095   -116.84949    1.8138128   -115.03567    22687.833    4.3686568    4.3686568    4.3686568    22687.833    43723.301    5701.4458    18638.753   -19586.482   -12620.198    20991.104    83.376526 
   99700    2295.7452   -117.11437    2.0772385   -115.03713   -2077.9982     4.375532     4.375532     4.375532   -2077.9982   -20898.623    13876.952    787.67694    42868.405    10381.699   -20700.407    83.770785 
   99800    985.82347   -115.94373   0.89199379   -115.05173   -30038.823    4.3893942    4.3893942    4.3893942   -30038.823    -38562.69   -51339.933   -213.84661   -13561.618    -6615.394   -14567.185      84.5695 
   99900    2163.7167   -116.97871    1.9577763   -115.02093   -4744.3812    4.3811795    4.3811795    4.3811795   -4744.3812   -2302.2791    5740.7202   -17671.585   -21186.663   -10145.023    24010.312    84.095577 
  100000    2245.5366   -117.04968    2.0318087   -115.01787   -23505.034    4.3729037    4.3729037    4.3729037   -23505.034   -24368.529   -4118.7815   -42027.791      7843.78    17000.404   -12863.468    83.619918 
Loop time of 21.9019 on 1 procs for 100000 steps with 8 atoms

Pair  time (%) = 6.64634 (30.3459)
Kspce time (%) = 5.36869 (24.5124)
Neigh time (%) = 0.211358 (0.965022)
Comm  time (%) = 0.967486 (4.41736)
Outpt time (%) = 0.0245659 (0.112163)
Other time (%) = 8.68347 (39.6471)

Nlocal:    8 ave 8 max 8 min
Histogram: 1 0 0 0 0 0 0 0 0 0
Nghost:    1906 ave 1906 max 1906 min
Histogram: 1 0 0 0 0 0 0 0 0 0
Neighs:    2093 ave 2093 max 2093 min
Histogram: 1 0 0 0 0 0 0 0 0 0

Total # of neighbors = 2093
Ave neighs/atom = 261.625
Neighbor list builds = 2555
Dangerous builds = 0
unfix 20
unfix 21
print "seeds:3565014"
seeds:3565014
