LAMMPS (10 Feb 2015)
include init.mod
# ---- init.mod file
variable up equal 1.0e-6
units metal
dimension 3
boundary p p p
atom_style charge
atom_modify map array
variable cfac equal 1.0e-4
variable cunits string GPa
# ---- define minimization parameters
variable etol equal 0.0
variable ftol equal 1.0e-10
variable maxiter equal 100
variable maxeval equal 1000
variable dmax equal 1.0e-2
# --- read data structure
read_data structure.dat
  triclinic box = (0 0 0) to (4.2565 4.2565 4.2565) with tilt (0 0 0)
  1 by 1 by 1 MPI processor grid
  reading atoms ...
  8 atoms
include potential.mod
mass 1 24.305
mass 2 15.999

group Mg type 1
4 atoms in group Mg
group O type 2
4 atoms in group O

set group Mg charge 2.0
  4 settings made for charge
set group O charge -2.0
  4 settings made for charge

variable R_cut equal 10

pair_style buck/coul/long ${R_cut}
pair_style buck/coul/long 10
pair_coeff 1 1 0.0 0.5 0.0 ${R_cut}
pair_coeff 1 1 0.0 0.5 0.0 10
pair_coeff 1 2 821.6 0.3242 0.0 ${R_cut}
pair_coeff 1 2 821.6 0.3242 0.0 10
pair_coeff 2 2 2274.0 0.149 27.88 ${R_cut}
pair_coeff 2 2 2274.0 0.149 27.88 10

kspace_style pppm 1.0e-5

neighbor 1.0 bin
neigh_modify every 1 delay 0 check yes
# setup minimization style
min_style cg
min_modify dmax ${dmax} line quadratic
min_modify dmax 0.01 line quadratic
# setup output
thermo 1
thermo_style custom step temp pe press pxx pyy pzz pxy pxz pyz lx ly lz vol
thermo_modify norm no
# ---- Compute initial state
fix 3 all box/relax aniso 0.0
minimize ${etol} ${ftol} ${maxiter} ${maxeval}
minimize 0 ${ftol} ${maxiter} ${maxeval}
minimize 0 1e-10 ${maxiter} ${maxeval}
minimize 0 1e-10 100 ${maxeval}
minimize 0 1e-10 100 1000
PPPM initialization ...
  G vector (1/distance) = 0.354854
  grid = 8 8 8
  stencil order = 5
  estimated absolute RMS force accuracy = 5.34408e-05
  estimated relative force accuracy = 3.71126e-06
  using double precision FFTs
  3d grid and FFT values/proc = 3375 512
Neighbor list info ...
  1 neighbor list requests
  update every 1 steps, delay 0 steps, check yes
  master list distance cutoff = 11
Memory usage per processor = 3.78599 Mbytes
Step Temp PotEng Press Pxx Pyy Pzz Pxy Pxz Pyz Lx Ly Lz Volume 
       0            0   -162.12848    -64012.53    -64012.53    -64012.53    -64012.53 -3.5430243e-10 -8.9359362e-10 -3.5183975e-10       4.2565       4.2565       4.2565    77.118383 
       1            0   -162.12938   -63455.768   -63455.768   -63455.768   -63455.768 1.3584849e-10 -1.5198772e-10 -3.3877407e-10    4.2560743    4.2560743    4.2560743     77.09525 
       2            0   -162.13027   -62898.868   -62898.868   -62898.868   -62898.868 -7.956445e-11 -8.2328402e-11 -3.8084545e-10    4.2556487    4.2556487    4.2556487    77.072121 
       3            0   -162.13118    -62342.13    -62342.13    -62342.13    -62342.13 2.7485041e-10 9.2770771e-11 7.2100414e-11     4.255223     4.255223     4.255223    77.048997 
       4            0   -162.13204    -61783.89    -61783.89    -61783.89    -61783.89 1.3916617e-10 4.2620166e-10 -6.1831414e-11    4.2547974    4.2547974    4.2547974    77.025878 
       5            0   -162.13295   -61225.274   -61225.274   -61225.274   -61225.274 3.6342185e-11 3.0384651e-10 9.3404732e-11    4.2543717    4.2543717    4.2543717    77.002763 
       6            0   -162.13389   -60667.634   -60667.634   -60667.634   -60667.634 3.0360414e-10 7.8355444e-11 6.0661097e-11    4.2539461    4.2539461    4.2539461    76.979653 
       7            0   -162.13477   -60107.908   -60107.908   -60107.908   -60107.908 -5.4144515e-10 -6.537128e-10 -2.7239678e-10    4.2535204    4.2535204    4.2535204    76.956547 
       8            0   -162.13562   -59546.383   -59546.383   -59546.383   -59546.383 4.6636424e-10 2.0573301e-10 6.1679683e-10    4.2530948    4.2530948    4.2530948    76.933447 
       9            0   -162.13644   -58984.105   -58984.105   -58984.105   -58984.105 1.098066e-11 5.2362793e-10 4.3196847e-10    4.2526691    4.2526691    4.2526691     76.91035 
      10            0   -162.13727   -58421.165   -58421.165   -58421.165   -58421.165 -1.3438645e-11 2.8183537e-10 1.4430912e-10    4.2522435    4.2522435    4.2522435    76.887259 
      11            0   -162.13808   -57857.531   -57857.531   -57857.531   -57857.531 -3.0847874e-10 -4.9193209e-10 -1.8345902e-10    4.2518178    4.2518178    4.2518178    76.864172 
      12            0   -162.13891   -57293.702   -57293.702   -57293.702   -57293.702 1.2186578e-10 -6.1947318e-10 -6.6287789e-10    4.2513922    4.2513922    4.2513922     76.84109 
      13            0   -162.13977   -56730.889   -56730.889   -56730.889   -56730.889 -4.5880367e-10 -7.1390965e-10 -3.2799137e-10    4.2509665    4.2509665    4.2509665    76.818012 
      14            0   -162.14063   -56167.218   -56167.218   -56167.218   -56167.218 2.6388804e-10 3.7565988e-10 3.5030266e-10    4.2505409    4.2505409    4.2505409    76.794939 
      15            0   -162.14148   -55602.997   -55602.997   -55602.997   -55602.997 2.069548e-10 4.4770905e-10 5.6325013e-11    4.2501152    4.2501152    4.2501152     76.77187 
      16            0   -162.14225   -55035.453   -55035.453   -55035.453   -55035.453 -1.6671083e-10 -1.8815292e-12 2.9294332e-10    4.2496896    4.2496896    4.2496896    76.748806 
      17            0   -162.14299    -54466.28    -54466.28    -54466.28    -54466.28 7.0951886e-12 -1.8436509e-11 -6.3803488e-10    4.2492639    4.2492639    4.2492639    76.725747 
      18            0   -162.14374   -53897.482   -53897.482   -53897.482   -53897.482 2.2282802e-10 4.5340159e-10 3.7905585e-10    4.2488383    4.2488383    4.2488383    76.702693 
      19            0   -162.14448   -53328.209   -53328.209   -53328.209   -53328.209 -1.189539e-10 -3.2076136e-10 -1.5131039e-10    4.2484126    4.2484126    4.2484126    76.679643 
      20            0   -162.14526   -52759.805   -52759.805   -52759.805   -52759.805 -3.5911459e-10 -1.8531032e-10 2.8015375e-10     4.247987     4.247987     4.247987    76.656597 
      21            0   -162.14605    -52191.16    -52191.16    -52191.16    -52191.16 1.3965625e-10 1.2338078e-09 3.8808127e-10    4.2475613    4.2475613    4.2475613    76.633556 
      22            0   -162.14682   -51620.991   -51620.991   -51620.991   -51620.991 1.4516113e-11 1.5749685e-10 4.5636406e-10    4.2471357    4.2471357    4.2471357     76.61052 
      23            0   -162.14759   -51050.017   -51050.017   -51050.017   -51050.017 -9.8591194e-11 -3.5700412e-10 1.3496418e-10      4.24671      4.24671      4.24671    76.587489 
      24            0   -162.14835   -50478.054   -50478.054   -50478.054   -50478.054 2.6401202e-10 9.7172527e-10 1.9893503e-10    4.2462844    4.2462844    4.2462844    76.564462 
      25            0   -162.14898   -49902.773   -49902.773   -49902.773   -49902.773 -1.4625704e-10 -2.0873407e-10 -1.2400891e-11    4.2458587    4.2458587    4.2458587     76.54144 
      26            0   -162.14966    -49328.34    -49328.34    -49328.34    -49328.34 -5.3064581e-11 -8.9678134e-11 -9.628949e-11    4.2454331    4.2454331    4.2454331    76.518422 
      27            0   -162.15039   -48754.729   -48754.729   -48754.729   -48754.729 9.7019427e-11 -2.4415682e-10 7.9405536e-11    4.2450074    4.2450074    4.2450074    76.495409 
      28            0    -162.1511   -48179.741   -48179.741   -48179.741   -48179.741 -1.4046716e-11 -4.8726811e-11 -1.1975873e-10    4.2445818    4.2445818    4.2445818      76.4724 
      29            0   -162.15181   -47604.332   -47604.332   -47604.332   -47604.332 1.228219e-10 4.1144385e-10 3.5481381e-10    4.2441561    4.2441561    4.2441561    76.449397 
      30            0    -162.1525   -47027.907   -47027.907   -47027.907   -47027.907 6.3798253e-10 -4.3758184e-11 -2.5726145e-11    4.2437305    4.2437305    4.2437305    76.426397 
      31            0   -162.15318   -46450.784   -46450.784   -46450.784   -46450.784 2.2293876e-11 -2.2867501e-10 -1.3686323e-10    4.2433048    4.2433048    4.2433048    76.403403 
      32            0   -162.15384   -45872.927   -45872.927   -45872.927   -45872.927 4.9898673e-11 -1.0385776e-10 -2.7207385e-11    4.2428792    4.2428792    4.2428792    76.380413 
      33            0    -162.1545   -45294.166   -45294.166   -45294.166   -45294.166 9.7038966e-12 -3.5555323e-11 8.3022142e-12    4.2424535    4.2424535    4.2424535    76.357427 
      34            0   -162.15514   -44714.551   -44714.551   -44714.551   -44714.551 3.7083859e-10 7.867424e-10 3.6825573e-10    4.2420279    4.2420279    4.2420279    76.334447 
      35            0   -162.15577   -44134.242   -44134.242   -44134.242   -44134.242 -4.9450158e-11 8.8415813e-10 6.4282481e-10    4.2416022    4.2416022    4.2416022     76.31147 
      36            0   -162.15641    -43553.43    -43553.43    -43553.43    -43553.43 -1.6885179e-10 4.5694852e-10 1.0668636e-10    4.2411766    4.2411766    4.2411766    76.288499 
      37            0     -162.157   -42971.202   -42971.202   -42971.202   -42971.202 4.1110824e-10 2.2343699e-10 6.7340029e-11    4.2407509    4.2407509    4.2407509    76.265532 
      38            0   -162.15759   -42388.558   -42388.558   -42388.558   -42388.558 -3.1617549e-10 4.547547e-10 2.7323346e-10    4.2403253    4.2403253    4.2403253     76.24257 
      39            0   -162.15819   -41804.961   -41804.961   -41804.961   -41804.961 -5.8397116e-11 -2.595603e-10 -9.2378864e-11    4.2398996    4.2398996    4.2398996    76.219612 
      40            0    -162.1588   -41221.378   -41221.378   -41221.378   -41221.378 -6.0444533e-11 -3.7851227e-10 -3.17312e-10     4.239474     4.239474     4.239474    76.196659 
      41            0   -162.15944   -40638.574   -40638.574   -40638.574   -40638.574 -2.7173733e-11 -1.9439107e-11 1.1315755e-10    4.2390483    4.2390483    4.2390483     76.17371 
      42            0   -162.16003   -40053.857   -40053.857   -40053.857   -40053.857 2.1118693e-11 2.2772366e-11 2.6342738e-10    4.2386227    4.2386227    4.2386227    76.150766 
      43            0   -162.16056   -39467.099   -39467.099   -39467.099   -39467.099 1.3053992e-10 1.8733358e-10 1.233307e-10     4.238197     4.238197     4.238197    76.127827 
      44            0   -162.16109   -38879.586   -38879.586   -38879.586   -38879.586 2.8571514e-11 -3.4047874e-10 1.6155826e-10    4.2377714    4.2377714    4.2377714    76.104893 
      45            0   -162.16163   -38290.972   -38290.972   -38290.972   -38290.972 -8.2495644e-11 -2.8750959e-10 -2.4738509e-10    4.2373457    4.2373457    4.2373457    76.081962 
      46            0   -162.16214    -37701.53    -37701.53    -37701.53    -37701.53 -3.1073347e-10 -1.3163405e-10 -4.1799304e-10    4.2369201    4.2369201    4.2369201    76.059037 
      47            0    -162.1627    -37112.97    -37112.97    -37112.97    -37112.97 1.7583231e-10 3.0974125e-11 -3.6160625e-10    4.2364944    4.2364944    4.2364944    76.036116 
      48            0   -162.16326   -36524.017   -36524.017   -36524.017   -36524.017 2.2206767e-10 1.8247801e-10 1.2771483e-10    4.2360688    4.2360688    4.2360688      76.0132 
      49            0   -162.16384   -35935.808   -35935.808   -35935.808   -35935.808 7.429123e-11 2.4299271e-10 3.7614944e-12    4.2356431    4.2356431    4.2356431    75.990288 
      50            0   -162.16438   -35346.009   -35346.009   -35346.009   -35346.009 4.2448477e-11 -5.442835e-11 -1.1646885e-11    4.2352175    4.2352175    4.2352175    75.967381 
      51            0   -162.16484   -34752.642   -34752.642   -34752.642   -34752.642 -1.3470625e-10 -4.1024085e-10 -8.4219414e-11    4.2347918    4.2347918    4.2347918    75.944479 
      52            0   -162.16529   -34158.412   -34158.412   -34158.412   -34158.412 1.2797652e-10 -1.6431191e-10 -1.3688512e-10    4.2343662    4.2343662    4.2343662    75.921581 
      53            0   -162.16573   -33563.802   -33563.802   -33563.802   -33563.802 -1.4825565e-10 1.219246e-10 2.6383233e-10    4.2339405    4.2339405    4.2339405    75.898688 
      54            0   -162.16618   -32969.123   -32969.123   -32969.123   -32969.123 -3.3191149e-10 -8.2955173e-12 -1.206736e-10    4.2335149    4.2335149    4.2335149    75.875799 
      55            0   -162.16668    -32375.13    -32375.13    -32375.13    -32375.13 -2.1815549e-10 -1.6221272e-10 -1.2948807e-10    4.2330892    4.2330892    4.2330892    75.852915 
      56            0   -162.16717   -31780.284   -31780.284   -31780.284   -31780.284 -2.8520452e-10 -1.711025e-10 6.534718e-11    4.2326636    4.2326636    4.2326636    75.830036 
      57            0   -162.16764   -31184.653   -31184.653   -31184.653   -31184.653 6.8383728e-11 -6.5586187e-11 -1.669976e-10    4.2322379    4.2322379    4.2322379    75.807161 
      58            0    -162.1681   -30588.283   -30588.283   -30588.283   -30588.283 1.5245634e-10 -2.9788973e-11 -2.3814105e-10    4.2318123    4.2318123    4.2318123    75.784291 
      59            0   -162.16851   -29990.052   -29990.052   -29990.052   -29990.052 7.8947139e-11 4.0022583e-10 -4.0751224e-11    4.2313866    4.2313866    4.2313866    75.761425 
      60            0   -162.16888   -29389.855   -29389.855   -29389.855   -29389.855 7.0518144e-11 -9.5859927e-11 -2.7347254e-10     4.230961     4.230961     4.230961    75.738564 
      61            0   -162.16927   -28790.041   -28790.041   -28790.041   -28790.041 2.3591657e-11 6.3207619e-10 4.4182975e-10    4.2305353    4.2305353    4.2305353    75.715708 
      62            0   -162.16969   -28189.848   -28189.848   -28189.848   -28189.848 4.5369174e-10 1.3271036e-10 -3.8394295e-11    4.2301097    4.2301097    4.2301097    75.692856 
      63            0   -162.17008   -27588.141   -27588.141   -27588.141   -27588.141 1.6048765e-10 6.6767825e-10 2.3088619e-10     4.229684     4.229684     4.229684    75.670008 
      64            0   -162.17049   -26986.762   -26986.762   -26986.762   -26986.762 -1.3792131e-10 2.310192e-10 5.0813713e-10    4.2292584    4.2292584    4.2292584    75.647166 
      65            0   -162.17088   -26384.902   -26384.902   -26384.902   -26384.902 -8.1597446e-11 -6.3245351e-10 -2.4600993e-10    4.2288327    4.2288327    4.2288327    75.624328 
      66            0   -162.17126   -25782.545   -25782.545   -25782.545   -25782.545 2.7059258e-11 -1.0244423e-10 -1.2592225e-10    4.2284071    4.2284071    4.2284071    75.601494 
      67            0   -162.17164   -25179.654   -25179.654   -25179.654   -25179.654 6.1929358e-10 2.6873638e-10 -3.7516765e-10    4.2279814    4.2279814    4.2279814    75.578666 
      68            0   -162.17199   -24574.611   -24574.611   -24574.611   -24574.611 2.1975307e-10 2.5742423e-10 1.7947246e-10    4.2275558    4.2275558    4.2275558    75.555841 
      69            0   -162.17232   -23968.246   -23968.246   -23968.246   -23968.246 -2.9142615e-10 -4.9259909e-10 -1.5722556e-10    4.2271301    4.2271301    4.2271301    75.533022 
      70            0   -162.17264   -23361.093   -23361.093   -23361.093   -23361.093 -1.8825366e-10 -3.8452357e-10 -3.1518809e-10    4.2267045    4.2267045    4.2267045    75.510207 
      71            0   -162.17297   -22753.865   -22753.865   -22753.865   -22753.865 -2.009698e-10  3.27482e-12 2.8738669e-10    4.2262788    4.2262788    4.2262788    75.487396 
      72            0   -162.17329   -22146.757   -22146.757   -22146.757   -22146.757 -2.9508246e-10 -3.0989948e-10 -1.722447e-10    4.2258532    4.2258532    4.2258532     75.46459 
      73            0   -162.17361    -21538.91    -21538.91    -21538.91    -21538.91 -5.0809743e-10 -8.8798906e-10 -2.3946309e-10    4.2254275    4.2254275    4.2254275    75.441789 
      74            0    -162.1739   -20929.349   -20929.349   -20929.349   -20929.349 2.3860969e-10 5.1992443e-10 4.3680564e-11    4.2250019    4.2250019    4.2250019    75.418992 
      75            0   -162.17424   -20320.605   -20320.605   -20320.605   -20320.605 1.5180692e-11 -7.7757835e-10 -5.4227753e-10    4.2245762    4.2245762    4.2245762      75.3962 
      76            0    -162.1746   -19711.643   -19711.643   -19711.643   -19711.643 1.9316056e-10 4.7344585e-10 3.9641178e-10    4.2241506    4.2241506    4.2241506    75.373413 
      77            0   -162.17484   -19099.225   -19099.225   -19099.225   -19099.225 3.2926299e-10 3.8537826e-10 -1.7172083e-10    4.2237249    4.2237249    4.2237249     75.35063 
      78            0   -162.17507   -18485.714   -18485.714   -18485.714   -18485.714 -3.7326836e-11 3.1718023e-11 6.7778439e-11    4.2232993    4.2232993    4.2232993    75.327852 
      79            0    -162.1753   -17872.007   -17872.007   -17872.007   -17872.007 -1.1954281e-10 2.0546919e-10 -1.3121835e-10    4.2228736    4.2228736    4.2228736    75.305078 
      80            0   -162.17552   -17257.306   -17257.306   -17257.306   -17257.306 6.6125048e-11 5.865395e-10 3.3315072e-10     4.222448     4.222448     4.222448    75.282309 
      81            0   -162.17572   -16641.562   -16641.562   -16641.562   -16641.562 -2.7536698e-10 3.8726102e-10 4.7381927e-10    4.2220223    4.2220223    4.2220223    75.259544 
      82            0   -162.17599   -16027.623   -16027.623   -16027.623   -16027.623 -1.443141e-10 1.3246292e-10 2.9129081e-10    4.2215967    4.2215967    4.2215967    75.236784 
      83            0   -162.17627   -15413.088   -15413.088   -15413.088   -15413.088 1.0182335e-10 3.1022349e-10 -2.9914727e-11     4.221171     4.221171     4.221171    75.214029 
      84            0   -162.17653   -14798.061   -14798.061   -14798.061   -14798.061 3.9611183e-11 5.4013502e-10 2.9388032e-11    4.2207454    4.2207454    4.2207454    75.191278 
      85            0   -162.17674   -14180.469   -14180.469   -14180.469   -14180.469 -2.3775943e-11 -1.0439836e-11 -2.5768626e-10    4.2203197    4.2203197    4.2203197    75.168532 
      86            0   -162.17689   -13560.431   -13560.431   -13560.431   -13560.431 -5.8581063e-10 -4.1589548e-10 -1.0608537e-11    4.2198941    4.2198941    4.2198941     75.14579 
      87            0   -162.17704   -12939.736   -12939.736   -12939.736   -12939.736 -1.0244443e-10 -4.8955454e-10 8.3786812e-12    4.2194684    4.2194684    4.2194684    75.123053 
      88            0   -162.17719   -12319.001   -12319.001   -12319.001   -12319.001 -7.9637637e-11 -2.5603489e-10 7.0727187e-11    4.2190428    4.2190428    4.2190428    75.100321 
      89            0   -162.17738   -11699.148   -11699.148   -11699.148   -11699.148 2.5519723e-10 -4.3470872e-10 -4.3159966e-10    4.2186171    4.2186171    4.2186171    75.077593 
      90            0   -162.17757   -11079.168   -11079.168   -11079.168   -11079.168 -9.123377e-11 1.7235093e-10 1.8710448e-10    4.2181915    4.2181915    4.2181915     75.05487 
      91            0   -162.17775   -10457.728   -10457.728   -10457.728   -10457.728 1.0400139e-10 2.6135131e-10 1.2212803e-10    4.2177658    4.2177658    4.2177658    75.032151 
      92            0   -162.17793   -9835.5202   -9835.5202   -9835.5202   -9835.5202 -1.5266577e-10 -5.0862896e-10 2.7933416e-10    4.2173402    4.2173402    4.2173402    75.009437 
      93            0   -162.17807   -9211.9616   -9211.9616   -9211.9616   -9211.9616 -1.2295293e-10 -2.9094688e-10 1.4402236e-10    4.2169145    4.2169145    4.2169145    74.986728 
      94            0   -162.17817   -8585.9916   -8585.9916   -8585.9916   -8585.9916 1.6182034e-11 -3.1487926e-10 -5.5970194e-11    4.2164889    4.2164889    4.2164889    74.964023 
      95            0   -162.17819   -8429.3111   -8429.3111   -8429.3111   -8429.3111 -2.1309046e-10 -1.1782455e-10 -1.5187929e-10    4.2163825    4.2163825    4.2163825    74.958347 
      96            0   -162.17824   -7802.5461   -7802.5461   -7802.5461   -7802.5461 6.0317772e-12 2.7542745e-10 6.0070744e-11    4.2159568    4.2159568    4.2159568    74.935648 
      97            0   -162.17836   -7176.9129   -7176.9129   -7176.9129   -7176.9129 7.3138665e-11 -3.22056e-10 -2.8953914e-10    4.2155312    4.2155312    4.2155312    74.912954 
      98            0   -162.17848   -6550.1951   -6550.1951   -6550.1951   -6550.1951 3.5745018e-11 2.5149086e-10 3.5118346e-10    4.2151055    4.2151055    4.2151055    74.890264 
      99            0   -162.17858   -5922.5081   -5922.5081   -5922.5081   -5922.5081 3.3657148e-10 7.6022472e-10 5.3385761e-10    4.2146799    4.2146799    4.2146799    74.867578 
     100            0   -162.17867   -5293.9276   -5293.9276   -5293.9276   -5293.9276 -8.6343727e-11 -3.0570219e-10 2.1056206e-10    4.2142542    4.2142542    4.2142542    74.844897 
Loop time of 0.0381248 on 1 procs for 100 steps with 8 atoms

Minimization stats:
  Stopping criterion = max iterations
  Energy initial, next-to-last, final = 
        -162.128476026     -162.178582588     -162.178667389
  Force two-norm initial, final = 5.3367 0.432638
  Force max component initial, final = 3.08115 0.249782
  Final line search alpha, max atom move = 0.000357786 8.93685e-05
  Iterations, force evaluations = 100 102

Pair  time (%) = 0.00957131 (25.1052)
Kspce time (%) = 0.0053668 (14.0769)
Neigh time (%) = 0 (0)
Comm  time (%) = 0.00105023 (2.75473)
Outpt time (%) = 0.000817299 (2.14375)
Other time (%) = 0.0213192 (55.9194)

Nlocal:    8 ave 8 max 8 min
Histogram: 1 0 0 0 0 0 0 0 0 0
Nghost:    2189 ave 2189 max 2189 min
Histogram: 1 0 0 0 0 0 0 0 0 0
Neighs:    2344 ave 2344 max 2344 min
Histogram: 1 0 0 0 0 0 0 0 0 0

Total # of neighbors = 2344
Ave neighs/atom = 293
Neighbor list builds = 0
Dangerous builds = 0

variable tmp equal pxx
variable pxx0 equal ${tmp}
variable pxx0 equal -5293.92763384921
variable tmp equal pyy
variable pyy0 equal ${tmp}
variable pyy0 equal -5293.92763385027
variable tmp equal pzz
variable pzz0 equal ${tmp}
variable pzz0 equal -5293.92763385013
variable tmp equal pyz
variable pyz0 equal ${tmp}
variable pyz0 equal 2.10562060345749e-10
variable tmp equal pxz
variable pxz0 equal ${tmp}
variable pxz0 equal -3.05702190035747e-10
variable tmp equal pxy
variable pxy0 equal ${tmp}
variable pxy0 equal -8.63437274834618e-11

variable tmp equal lx
variable lx0 equal ${tmp}
variable lx0 equal 4.21425423749998
variable tmp equal ly
variable ly0 equal ${tmp}
variable ly0 equal 4.21425423749998
variable tmp equal lz
variable lz0 equal ${tmp}
variable lz0 equal 4.21425423749998

 # ---- define the derivatives w.r.t. strain components
variable d1 equal -(v_pxx1-${pxx0})/(v_delta/v_len0)*${cfac}
variable d1 equal -(v_pxx1--5293.92763384921)/(v_delta/v_len0)*${cfac}
variable d1 equal -(v_pxx1--5293.92763384921)/(v_delta/v_len0)*0.0001
variable d2 equal -(v_pyy1-${pyy0})/(v_delta/v_len0)*${cfac}
variable d2 equal -(v_pyy1--5293.92763385027)/(v_delta/v_len0)*${cfac}
variable d2 equal -(v_pyy1--5293.92763385027)/(v_delta/v_len0)*0.0001
variable d3 equal -(v_pzz1-${pzz0})/(v_delta/v_len0)*${cfac}
variable d3 equal -(v_pzz1--5293.92763385013)/(v_delta/v_len0)*${cfac}
variable d3 equal -(v_pzz1--5293.92763385013)/(v_delta/v_len0)*0.0001
variable d4 equal -(v_pyz1-${pyz0})/(v_delta/v_len0)*${cfac}
variable d4 equal -(v_pyz1-2.10562060345749e-10)/(v_delta/v_len0)*${cfac}
variable d4 equal -(v_pyz1-2.10562060345749e-10)/(v_delta/v_len0)*0.0001
variable d5 equal -(v_pxz1-${pxz0})/(v_delta/v_len0)*${cfac}
variable d5 equal -(v_pxz1--3.05702190035747e-10)/(v_delta/v_len0)*${cfac}
variable d5 equal -(v_pxz1--3.05702190035747e-10)/(v_delta/v_len0)*0.0001
variable d6 equal -(v_pxy1-${pxy0})/(v_delta/v_len0)*${cfac}
variable d6 equal -(v_pxy1--8.63437274834618e-11)/(v_delta/v_len0)*${cfac}
variable d6 equal -(v_pxy1--8.63437274834618e-11)/(v_delta/v_len0)*0.0001

# ---- write restart files
unfix 3
write_restart restart.equil
PPPM initialization ...
  G vector (1/distance) = 0.355343
  grid = 8 8 8
  stencil order = 5
  estimated absolute RMS force accuracy = 5.22361e-05
  estimated relative force accuracy = 3.62759e-06
  using double precision FFTs
  3d grid and FFT values/proc = 3375 512
# ---- uxx Perturbation
variable dir equal 1
include displace.mod
# NOTE: This script should not need to be
# modified. See in.elastic for more info.
# Find which reference length to use

if "${dir} == 1" then    "variable len0 equal ${lx0}"
variable len0 equal ${lx0}
variable len0 equal 4.21425423749998
if "${dir} == 2" then    "variable len0 equal ${ly0}"
if "${dir} == 3" then    "variable len0 equal ${lz0}"
if "${dir} == 4" then    "variable len0 equal ${lz0}"
if "${dir} == 5" then    "variable len0 equal ${lz0}"
if "${dir} == 6" then    "variable len0 equal ${ly0}"

# Reset box and simulation parameters

clear
read_restart restart.equil remap
  triclinic box = (0.0211229 0.0211229 0.0211229) to (4.23538 4.23538 4.23538) with tilt (0 0 0)
  1 by 1 by 1 MPI processor grid
  8 atoms
include potential.mod
mass 1 24.305
mass 2 15.999

group Mg type 1
4 atoms in group Mg
group O type 2
4 atoms in group O

set group Mg charge 2.0
  4 settings made for charge
set group O charge -2.0
  4 settings made for charge

variable R_cut equal 10

pair_style buck/coul/long ${R_cut}
pair_style buck/coul/long 10
pair_coeff 1 1 0.0 0.5 0.0 ${R_cut}
pair_coeff 1 1 0.0 0.5 0.0 10
pair_coeff 1 2 821.6 0.3242 0.0 ${R_cut}
pair_coeff 1 2 821.6 0.3242 0.0 10
pair_coeff 2 2 2274.0 0.149 27.88 ${R_cut}
pair_coeff 2 2 2274.0 0.149 27.88 10

kspace_style pppm 1.0e-5

neighbor 1.0 bin
neigh_modify every 1 delay 0 check yes
# setup minimization style
min_style cg
min_modify dmax ${dmax} line quadratic
min_modify dmax 0.01 line quadratic
# setup output
thermo 1
thermo_style custom step temp pe press pxx pyy pzz pxy pxz pyz lx ly lz vol
thermo_modify norm no

# Negative deformation

variable delta equal -${up}*${len0}
variable delta equal -1e-06*${len0}
variable delta equal -1e-06*4.21425423749998
if "${dir} == 1" then    "change_box all x delta 0 ${delta} remap units box"
change_box all x delta 0 ${delta} remap units box
change_box all x delta 0 -4.21425423749998e-06 remap units box
  triclinic box = (0.0211229 0.0211229 0.0211229) to (4.23537 4.23538 4.23538) with tilt (0 0 0)
if "${dir} == 2" then    "change_box all y delta 0 ${delta} remap units box"
if "${dir} == 3" then    "change_box all z delta 0 ${delta} remap units box"
if "${dir} == 4" then    "change_box all yz delta ${delta} remap units box"
if "${dir} == 5" then    "change_box all xz delta ${delta} remap units box"
if "${dir} == 6" then    "change_box all xy delta ${delta} remap units box"

# Relax atoms positions

minimize ${etol} ${ftol} ${maxiter} ${maxeval}
minimize 0 ${ftol} ${maxiter} ${maxeval}
minimize 0 1e-10 ${maxiter} ${maxeval}
minimize 0 1e-10 100 ${maxeval}
minimize 0 1e-10 100 1000
PPPM initialization ...
  G vector (1/distance) = 0.355343
  grid = 8 8 8
  stencil order = 5
  estimated absolute RMS force accuracy = 5.2236e-05
  estimated relative force accuracy = 3.62759e-06
  using double precision FFTs
  3d grid and FFT values/proc = 3375 512
Neighbor list info ...
  1 neighbor list requests
  update every 1 steps, delay 0 steps, check yes
  master list distance cutoff = 11
Memory usage per processor = 3.77377 Mbytes
Step Temp PotEng Press Pxx Pyy Pzz Pxy Pxz Pyz Lx Ly Lz Volume 
     100            0   -162.17866   -5291.0554   -5290.1549   -5291.5057   -5291.5057 6.7200389e-10 3.7817579e-10 3.1446945e-10      4.21425    4.2142542    4.2142542    74.844822 
     101            0   -162.17866   -5291.0575    -5290.224   -5291.4742   -5291.4742 -1.7759457e-10 -4.7796155e-10 -1.5387106e-10      4.21425    4.2142542    4.2142542    74.844822 
     102            0   -162.17866   -5291.0575    -5290.224   -5291.4742   -5291.4742 -1.7759457e-10 -4.7796155e-10 -1.5387106e-10      4.21425    4.2142542    4.2142542    74.844822 
Loop time of 0.00154805 on 1 procs for 2 steps with 8 atoms

Minimization stats:
  Stopping criterion = linesearch alpha is zero
  Energy initial, next-to-last, final = 
        -162.178663058      -162.17866377      -162.17866377
  Force two-norm initial, final = 0.00150418 0.000178391
  Force max component initial, final = 0.00031711 3.88005e-05
  Final line search alpha, max atom move = 0.25 9.70013e-06
  Iterations, force evaluations = 2 7

Pair  time (%) = 0.000851631 (55.0131)
Kspce time (%) = 0.000519991 (33.59)
Neigh time (%) = 0 (0)
Comm  time (%) = 0.000124454 (8.03943)
Outpt time (%) = 5.96046e-06 (0.38503)
Other time (%) = 4.60148e-05 (2.97243)

Nlocal:    8 ave 8 max 8 min
Histogram: 1 0 0 0 0 0 0 0 0 0
Nghost:    2189 ave 2189 max 2189 min
Histogram: 1 0 0 0 0 0 0 0 0 0
Neighs:    2472 ave 2472 max 2472 min
Histogram: 1 0 0 0 0 0 0 0 0 0

Total # of neighbors = 2472
Ave neighs/atom = 309
Neighbor list builds = 0
Dangerous builds = 0

# Obtain new stress tensor

variable tmp equal pxx
variable pxx1 equal ${tmp}
variable pxx1 equal -5290.22398891099
variable tmp equal pyy
variable pyy1 equal ${tmp}
variable pyy1 equal -5291.47421964334
variable tmp equal pzz
variable pzz1 equal ${tmp}
variable pzz1 equal -5291.47421964226
variable tmp equal pxy
variable pxy1 equal ${tmp}
variable pxy1 equal -1.77594566027158e-10
variable tmp equal pxz
variable pxz1 equal ${tmp}
variable pxz1 equal -4.77961546784426e-10
variable tmp equal pyz
variable pyz1 equal ${tmp}
variable pyz1 equal -1.53871063289084e-10

# Compute elastic constant from pressure tensor

variable C1neg equal ${d1}
variable C1neg equal 370.364493822035
variable C2neg equal ${d2}
variable C2neg equal 245.341420692967
variable C3neg equal ${d3}
variable C3neg equal 245.341420787008
variable C4neg equal ${d4}
variable C4neg equal -3.64433123634833e-08
variable C5neg equal ${d5}
variable C5neg equal -1.72259356748679e-08
variable C6neg equal ${d6}
variable C6neg equal -9.12508385436962e-09

# Reset box and simulation parameters

clear
read_restart restart.equil remap
  triclinic box = (0.0211229 0.0211229 0.0211229) to (4.23538 4.23538 4.23538) with tilt (0 0 0)
  1 by 1 by 1 MPI processor grid
  8 atoms
include potential.mod
mass 1 24.305
mass 2 15.999

group Mg type 1
4 atoms in group Mg
group O type 2
4 atoms in group O

set group Mg charge 2.0
  4 settings made for charge
set group O charge -2.0
  4 settings made for charge

variable R_cut equal 10

pair_style buck/coul/long ${R_cut}
pair_style buck/coul/long 10
pair_coeff 1 1 0.0 0.5 0.0 ${R_cut}
pair_coeff 1 1 0.0 0.5 0.0 10
pair_coeff 1 2 821.6 0.3242 0.0 ${R_cut}
pair_coeff 1 2 821.6 0.3242 0.0 10
pair_coeff 2 2 2274.0 0.149 27.88 ${R_cut}
pair_coeff 2 2 2274.0 0.149 27.88 10

kspace_style pppm 1.0e-5

neighbor 1.0 bin
neigh_modify every 1 delay 0 check yes
# setup minimization style
min_style cg
min_modify dmax ${dmax} line quadratic
min_modify dmax 0.01 line quadratic
# setup output
thermo 1
thermo_style custom step temp pe press pxx pyy pzz pxy pxz pyz lx ly lz vol
thermo_modify norm no

# Positive deformation

variable delta equal ${up}*${len0}
variable delta equal 1e-06*${len0}
variable delta equal 1e-06*4.21425423749998
if "${dir} == 1" then    "change_box all x delta 0 ${delta} remap units box"
change_box all x delta 0 ${delta} remap units box
change_box all x delta 0 4.21425423749998e-06 remap units box
  triclinic box = (0.0211229 0.0211229 0.0211229) to (4.23538 4.23538 4.23538) with tilt (0 0 0)
if "${dir} == 2" then    "change_box all y delta 0 ${delta} remap units box"
if "${dir} == 3" then    "change_box all z delta 0 ${delta} remap units box"
if "${dir} == 4" then    "change_box all yz delta ${delta} remap units box"
if "${dir} == 5" then    "change_box all xz delta ${delta} remap units box"
if "${dir} == 6" then    "change_box all xy delta ${delta} remap units box"

# Relax atoms positions

minimize ${etol} ${ftol} ${maxiter} ${maxeval}
minimize 0 ${ftol} ${maxiter} ${maxeval}
minimize 0 1e-10 ${maxiter} ${maxeval}
minimize 0 1e-10 100 ${maxeval}
minimize 0 1e-10 100 1000
PPPM initialization ...
  G vector (1/distance) = 0.355343
  grid = 8 8 8
  stencil order = 5
  estimated absolute RMS force accuracy = 5.22361e-05
  estimated relative force accuracy = 3.6276e-06
  using double precision FFTs
  3d grid and FFT values/proc = 3375 512
Neighbor list info ...
  1 neighbor list requests
  update every 1 steps, delay 0 steps, check yes
  master list distance cutoff = 11
Memory usage per processor = 3.77377 Mbytes
Step Temp PotEng Press Pxx Pyy Pzz Pxy Pxz Pyz Lx Ly Lz Volume 
     100            0   -162.17866    -5295.208   -5296.1035   -5294.7602   -5294.7602 5.270759e-10 -4.334907e-10 -5.9538222e-10    4.2142585    4.2142542    4.2142542    74.844972 
     101            0   -162.17866   -5295.2207   -5296.1049   -5294.7786   -5294.7786 5.4757195e-10 -2.3509526e-10 -3.5188721e-10    4.2142585    4.2142542    4.2142542    74.844972 
     102            0   -162.17866   -5295.2207   -5296.1049   -5294.7786   -5294.7786 5.4757195e-10 -2.3509526e-10 -3.5188721e-10    4.2142585    4.2142542    4.2142542    74.844972 
Loop time of 0.00185204 on 1 procs for 2 steps with 8 atoms

Minimization stats:
  Stopping criterion = linesearch alpha is zero
  Energy initial, next-to-last, final = 
        -162.178664434     -162.178664751     -162.178664751
  Force two-norm initial, final = 0.00150401 0.000171834
  Force max component initial, final = 0.000316412 3.66763e-05
  Final line search alpha, max atom move = 0.25 9.16907e-06
  Iterations, force evaluations = 2 9

Pair  time (%) = 0.000971556 (52.4588)
Kspce time (%) = 0.000591755 (31.9516)
Neigh time (%) = 0 (0)
Comm  time (%) = 0.000136375 (7.36354)
Outpt time (%) = 1.00136e-05 (0.54068)
Other time (%) = 0.000142336 (7.68538)

Nlocal:    8 ave 8 max 8 min
Histogram: 1 0 0 0 0 0 0 0 0 0
Nghost:    2189 ave 2189 max 2189 min
Histogram: 1 0 0 0 0 0 0 0 0 0
Neighs:    2472 ave 2472 max 2472 min
Histogram: 1 0 0 0 0 0 0 0 0 0

Total # of neighbors = 2472
Ave neighs/atom = 309
Neighbor list builds = 0
Dangerous builds = 0

# Obtain new stress tensor

variable tmp equal pe
variable e1 equal ${tmp}
variable e1 equal -162.178664750758
variable tmp equal press
variable p1 equal ${tmp}
variable p1 equal -5295.22071204948
variable tmp equal pxx
variable pxx1 equal ${tmp}
variable pxx1 equal -5296.10490428185
variable tmp equal pyy
variable pyy1 equal ${tmp}
variable pyy1 equal -5294.77861593342
variable tmp equal pzz
variable pzz1 equal ${tmp}
variable pzz1 equal -5294.77861593316
variable tmp equal pxy
variable pxy1 equal ${tmp}
variable pxy1 equal 5.47571954313709e-10
variable tmp equal pxz
variable pxz1 equal ${tmp}
variable pxz1 equal -2.35095255596434e-10
variable tmp equal pyz
variable pyz1 equal ${tmp}
variable pyz1 equal -3.5188721012634e-10

# Compute elastic constant from pressure tensor

variable C1pos equal ${d1}
variable C1pos equal 217.72704326404
variable C2pos equal ${d2}
variable C2pos equal 85.0982083150484
variable C3pos equal ${d3}
variable C3pos equal 85.0982083029521
variable C4pos equal ${d4}
variable C4pos equal 5.62449270472089e-08
variable C5pos equal ${d5}
variable C5pos equal -7.0606934439313e-09
variable C6pos equal ${d6}
variable C6pos equal -6.33915681797171e-08

# Combine positive and negative

variable C1${dir} equal 0.5*(${C1neg}+${C1pos})
variable C11 equal 0.5*(${C1neg}+${C1pos})
variable C11 equal 0.5*(370.364493822035+${C1pos})
variable C11 equal 0.5*(370.364493822035+217.72704326404)
variable C2${dir} equal 0.5*(${C2neg}+${C2pos})
variable C21 equal 0.5*(${C2neg}+${C2pos})
variable C21 equal 0.5*(245.341420692967+${C2pos})
variable C21 equal 0.5*(245.341420692967+85.0982083150484)
variable C3${dir} equal 0.5*(${C3neg}+${C3pos})
variable C31 equal 0.5*(${C3neg}+${C3pos})
variable C31 equal 0.5*(245.341420787008+${C3pos})
variable C31 equal 0.5*(245.341420787008+85.0982083029521)
variable C4${dir} equal 0.5*(${C4neg}+${C4pos})
variable C41 equal 0.5*(${C4neg}+${C4pos})
variable C41 equal 0.5*(-3.64433123634833e-08+${C4pos})
variable C41 equal 0.5*(-3.64433123634833e-08+5.62449270472089e-08)
variable C5${dir} equal 0.5*(${C5neg}+${C5pos})
variable C51 equal 0.5*(${C5neg}+${C5pos})
variable C51 equal 0.5*(-1.72259356748679e-08+${C5pos})
variable C51 equal 0.5*(-1.72259356748679e-08+-7.0606934439313e-09)
variable C6${dir} equal 0.5*(${C6neg}+${C6pos})
variable C61 equal 0.5*(${C6neg}+${C6pos})
variable C61 equal 0.5*(-9.12508385436962e-09+${C6pos})
variable C61 equal 0.5*(-9.12508385436962e-09+-6.33915681797171e-08)

# Delete dir to make sure it is not reused

variable dir delete
# ---- uyy Perturbation
variable dir equal 2
include displace.mod
# NOTE: This script should not need to be
# modified. See in.elastic for more info.
# Find which reference length to use

if "${dir} == 1" then    "variable len0 equal ${lx0}"
if "${dir} == 2" then    "variable len0 equal ${ly0}"
variable len0 equal ${ly0}
variable len0 equal 4.21425423749998
if "${dir} == 3" then    "variable len0 equal ${lz0}"
if "${dir} == 4" then    "variable len0 equal ${lz0}"
if "${dir} == 5" then    "variable len0 equal ${lz0}"
if "${dir} == 6" then    "variable len0 equal ${ly0}"

# Reset box and simulation parameters

clear
read_restart restart.equil remap
  triclinic box = (0.0211229 0.0211229 0.0211229) to (4.23538 4.23538 4.23538) with tilt (0 0 0)
  1 by 1 by 1 MPI processor grid
  8 atoms
include potential.mod
mass 1 24.305
mass 2 15.999

group Mg type 1
4 atoms in group Mg
group O type 2
4 atoms in group O

set group Mg charge 2.0
  4 settings made for charge
set group O charge -2.0
  4 settings made for charge

variable R_cut equal 10

pair_style buck/coul/long ${R_cut}
pair_style buck/coul/long 10
pair_coeff 1 1 0.0 0.5 0.0 ${R_cut}
pair_coeff 1 1 0.0 0.5 0.0 10
pair_coeff 1 2 821.6 0.3242 0.0 ${R_cut}
pair_coeff 1 2 821.6 0.3242 0.0 10
pair_coeff 2 2 2274.0 0.149 27.88 ${R_cut}
pair_coeff 2 2 2274.0 0.149 27.88 10

kspace_style pppm 1.0e-5

neighbor 1.0 bin
neigh_modify every 1 delay 0 check yes
# setup minimization style
min_style cg
min_modify dmax ${dmax} line quadratic
min_modify dmax 0.01 line quadratic
# setup output
thermo 1
thermo_style custom step temp pe press pxx pyy pzz pxy pxz pyz lx ly lz vol
thermo_modify norm no

# Negative deformation

variable delta equal -${up}*${len0}
variable delta equal -1e-06*${len0}
variable delta equal -1e-06*4.21425423749998
if "${dir} == 1" then    "change_box all x delta 0 ${delta} remap units box"
if "${dir} == 2" then    "change_box all y delta 0 ${delta} remap units box"
change_box all y delta 0 ${delta} remap units box
change_box all y delta 0 -4.21425423749998e-06 remap units box
  triclinic box = (0.0211229 0.0211229 0.0211229) to (4.23538 4.23537 4.23538) with tilt (0 0 0)
if "${dir} == 3" then    "change_box all z delta 0 ${delta} remap units box"
if "${dir} == 4" then    "change_box all yz delta ${delta} remap units box"
if "${dir} == 5" then    "change_box all xz delta ${delta} remap units box"
if "${dir} == 6" then    "change_box all xy delta ${delta} remap units box"

# Relax atoms positions

minimize ${etol} ${ftol} ${maxiter} ${maxeval}
minimize 0 ${ftol} ${maxiter} ${maxeval}
minimize 0 1e-10 ${maxiter} ${maxeval}
minimize 0 1e-10 100 ${maxeval}
minimize 0 1e-10 100 1000
PPPM initialization ...
  G vector (1/distance) = 0.355343
  grid = 8 8 8
  stencil order = 5
  estimated absolute RMS force accuracy = 5.2236e-05
  estimated relative force accuracy = 3.62759e-06
  using double precision FFTs
  3d grid and FFT values/proc = 3375 512
Neighbor list info ...
  1 neighbor list requests
  update every 1 steps, delay 0 steps, check yes
  master list distance cutoff = 11
Memory usage per processor = 3.77377 Mbytes
Step Temp PotEng Press Pxx Pyy Pzz Pxy Pxz Pyz Lx Ly Lz Volume 
     100            0   -162.17866   -5291.0554   -5291.5057   -5290.1549   -5291.5057 6.4341225e-10 1.605131e-11 3.0423806e-10    4.2142542      4.21425    4.2142542    74.844822 
     101            0   -162.17866   -5291.0575   -5291.4742    -5290.224   -5291.4742 -1.3704665e-09 6.9161427e-11 1.737364e-10    4.2142542      4.21425    4.2142542    74.844822 
     102            0   -162.17866   -5291.0575   -5291.4742    -5290.224   -5291.4742 -1.3704665e-09 6.9161427e-11 1.737364e-10    4.2142542      4.21425    4.2142542    74.844822 
Loop time of 0.00254703 on 1 procs for 2 steps with 8 atoms

Minimization stats:
  Stopping criterion = linesearch alpha is zero
  Energy initial, next-to-last, final = 
        -162.178663058      -162.17866377      -162.17866377
  Force two-norm initial, final = 0.00150418 0.000178391
  Force max component initial, final = 0.00031711 3.88005e-05
  Final line search alpha, max atom move = 0.25 9.70013e-06
  Iterations, force evaluations = 2 7

Pair  time (%) = 0.00139499 (54.7693)
Kspce time (%) = 0.000830889 (32.6219)
Neigh time (%) = 0 (0)
Comm  time (%) = 0.000213146 (8.36844)
Outpt time (%) = 3.09944e-05 (1.21689)
Other time (%) = 7.70092e-05 (3.0235)

Nlocal:    8 ave 8 max 8 min
Histogram: 1 0 0 0 0 0 0 0 0 0
Nghost:    2189 ave 2189 max 2189 min
Histogram: 1 0 0 0 0 0 0 0 0 0
Neighs:    2472 ave 2472 max 2472 min
Histogram: 1 0 0 0 0 0 0 0 0 0

Total # of neighbors = 2472
Ave neighs/atom = 309
Neighbor list builds = 0
Dangerous builds = 0

# Obtain new stress tensor

variable tmp equal pxx
variable pxx1 equal ${tmp}
variable pxx1 equal -5291.47421964159
variable tmp equal pyy
variable pyy1 equal ${tmp}
variable pyy1 equal -5290.22398891059
variable tmp equal pzz
variable pzz1 equal ${tmp}
variable pzz1 equal -5291.47421964187
variable tmp equal pxy
variable pxy1 equal ${tmp}
variable pxy1 equal -1.37046651618235e-09
variable tmp equal pxz
variable pxz1 equal ${tmp}
variable pxz1 equal 6.91614268661317e-11
variable tmp equal pyz
variable pyz1 equal ${tmp}
variable pyz1 equal 1.73736401273578e-10

# Compute elastic constant from pressure tensor

variable C1neg equal ${d1}
variable C1neg equal 245.341420761997
variable C2neg equal ${d2}
variable C2neg equal 370.364493967918
variable C3neg equal ${d3}
variable C3neg equal 245.341420826026
variable C4neg equal ${d4}
variable C4neg equal -3.6825659072171e-09
variable C5neg equal ${d5}
variable C5neg equal 3.74863616901879e-08
variable C6neg equal ${d6}
variable C6neg equal -1.28412278869889e-07

# Reset box and simulation parameters

clear
read_restart restart.equil remap
  triclinic box = (0.0211229 0.0211229 0.0211229) to (4.23538 4.23538 4.23538) with tilt (0 0 0)
  1 by 1 by 1 MPI processor grid
  8 atoms
include potential.mod
mass 1 24.305
mass 2 15.999

group Mg type 1
4 atoms in group Mg
group O type 2
4 atoms in group O

set group Mg charge 2.0
  4 settings made for charge
set group O charge -2.0
  4 settings made for charge

variable R_cut equal 10

pair_style buck/coul/long ${R_cut}
pair_style buck/coul/long 10
pair_coeff 1 1 0.0 0.5 0.0 ${R_cut}
pair_coeff 1 1 0.0 0.5 0.0 10
pair_coeff 1 2 821.6 0.3242 0.0 ${R_cut}
pair_coeff 1 2 821.6 0.3242 0.0 10
pair_coeff 2 2 2274.0 0.149 27.88 ${R_cut}
pair_coeff 2 2 2274.0 0.149 27.88 10

kspace_style pppm 1.0e-5

neighbor 1.0 bin
neigh_modify every 1 delay 0 check yes
# setup minimization style
min_style cg
min_modify dmax ${dmax} line quadratic
min_modify dmax 0.01 line quadratic
# setup output
thermo 1
thermo_style custom step temp pe press pxx pyy pzz pxy pxz pyz lx ly lz vol
thermo_modify norm no

# Positive deformation

variable delta equal ${up}*${len0}
variable delta equal 1e-06*${len0}
variable delta equal 1e-06*4.21425423749998
if "${dir} == 1" then    "change_box all x delta 0 ${delta} remap units box"
if "${dir} == 2" then    "change_box all y delta 0 ${delta} remap units box"
change_box all y delta 0 ${delta} remap units box
change_box all y delta 0 4.21425423749998e-06 remap units box
  triclinic box = (0.0211229 0.0211229 0.0211229) to (4.23538 4.23538 4.23538) with tilt (0 0 0)
if "${dir} == 3" then    "change_box all z delta 0 ${delta} remap units box"
if "${dir} == 4" then    "change_box all yz delta ${delta} remap units box"
if "${dir} == 5" then    "change_box all xz delta ${delta} remap units box"
if "${dir} == 6" then    "change_box all xy delta ${delta} remap units box"

# Relax atoms positions

minimize ${etol} ${ftol} ${maxiter} ${maxeval}
minimize 0 ${ftol} ${maxiter} ${maxeval}
minimize 0 1e-10 ${maxiter} ${maxeval}
minimize 0 1e-10 100 ${maxeval}
minimize 0 1e-10 100 1000
PPPM initialization ...
  G vector (1/distance) = 0.355343
  grid = 8 8 8
  stencil order = 5
  estimated absolute RMS force accuracy = 5.22361e-05
  estimated relative force accuracy = 3.6276e-06
  using double precision FFTs
  3d grid and FFT values/proc = 3375 512
Neighbor list info ...
  1 neighbor list requests
  update every 1 steps, delay 0 steps, check yes
  master list distance cutoff = 11
Memory usage per processor = 3.77377 Mbytes
Step Temp PotEng Press Pxx Pyy Pzz Pxy Pxz Pyz Lx Ly Lz Volume 
     100            0   -162.17866    -5295.208   -5294.7602   -5296.1035   -5294.7602 -2.3544356e-09 -6.9856462e-10 -3.5871426e-10    4.2142542    4.2142585    4.2142542    74.844972 
     101            0   -162.17866   -5295.2207   -5294.7786   -5296.1049   -5294.7786 -3.6502666e-10 -7.7151544e-11 2.3425598e-10    4.2142542    4.2142585    4.2142542    74.844972 
     102            0   -162.17866   -5295.2207   -5294.7786   -5296.1049   -5294.7786 -3.6502666e-10 -7.7151544e-11 2.3425598e-10    4.2142542    4.2142585    4.2142542    74.844972 
Loop time of 0.00181389 on 1 procs for 2 steps with 8 atoms

Minimization stats:
  Stopping criterion = linesearch alpha is zero
  Energy initial, next-to-last, final = 
        -162.178664434     -162.178664751     -162.178664751
  Force two-norm initial, final = 0.00150401 0.000171834
  Force max component initial, final = 0.000316412 3.66763e-05
  Final line search alpha, max atom move = 0.25 9.16907e-06
  Iterations, force evaluations = 2 9

Pair  time (%) = 0.00103092 (56.8349)
Kspce time (%) = 0.000565052 (31.1514)
Neigh time (%) = 0 (0)
Comm  time (%) = 0.000132561 (7.3081)
Outpt time (%) = 1.21593e-05 (0.670347)
Other time (%) = 7.31945e-05 (4.03523)

Nlocal:    8 ave 8 max 8 min
Histogram: 1 0 0 0 0 0 0 0 0 0
Nghost:    2189 ave 2189 max 2189 min
Histogram: 1 0 0 0 0 0 0 0 0 0
Neighs:    2472 ave 2472 max 2472 min
Histogram: 1 0 0 0 0 0 0 0 0 0

Total # of neighbors = 2472
Ave neighs/atom = 309
Neighbor list builds = 0
Dangerous builds = 0

# Obtain new stress tensor

variable tmp equal pe
variable e1 equal ${tmp}
variable e1 equal -162.178664750758
variable tmp equal press
variable p1 equal ${tmp}
variable p1 equal -5295.22071204922
variable tmp equal pxx
variable pxx1 equal ${tmp}
variable pxx1 equal -5294.77861593274
variable tmp equal pyy
variable pyy1 equal ${tmp}
variable pyy1 equal -5296.10490428214
variable tmp equal pzz
variable pzz1 equal ${tmp}
variable pzz1 equal -5294.77861593279
variable tmp equal pxy
variable pxy1 equal ${tmp}
variable pxy1 equal -3.65026660132733e-10
variable tmp equal pxz
variable pxz1 equal ${tmp}
variable pxz1 equal -7.71515439170331e-11
variable tmp equal pyz
variable pyz1 equal ${tmp}
variable pyz1 equal 2.34255980349536e-10

# Compute elastic constant from pressure tensor

variable C1pos equal ${d1}
variable C1pos equal 85.0982083529743
variable C2pos equal ${d2}
variable C2pos equal 217.727043187006
variable C3pos equal ${d3}
variable C3pos equal 85.0982082659357
variable C4pos equal ${d4}
variable C4pos equal -2.3693920003787e-09
variable C5pos equal ${d5}
variable C5pos equal -2.28550646118714e-08
variable C6pos equal ${d6}
variable C6pos equal 2.78682932649271e-08

# Combine positive and negative

variable C1${dir} equal 0.5*(${C1neg}+${C1pos})
variable C12 equal 0.5*(${C1neg}+${C1pos})
variable C12 equal 0.5*(245.341420761997+${C1pos})
variable C12 equal 0.5*(245.341420761997+85.0982083529743)
variable C2${dir} equal 0.5*(${C2neg}+${C2pos})
variable C22 equal 0.5*(${C2neg}+${C2pos})
variable C22 equal 0.5*(370.364493967918+${C2pos})
variable C22 equal 0.5*(370.364493967918+217.727043187006)
variable C3${dir} equal 0.5*(${C3neg}+${C3pos})
variable C32 equal 0.5*(${C3neg}+${C3pos})
variable C32 equal 0.5*(245.341420826026+${C3pos})
variable C32 equal 0.5*(245.341420826026+85.0982082659357)
variable C4${dir} equal 0.5*(${C4neg}+${C4pos})
variable C42 equal 0.5*(${C4neg}+${C4pos})
variable C42 equal 0.5*(-3.6825659072171e-09+${C4pos})
variable C42 equal 0.5*(-3.6825659072171e-09+-2.3693920003787e-09)
variable C5${dir} equal 0.5*(${C5neg}+${C5pos})
variable C52 equal 0.5*(${C5neg}+${C5pos})
variable C52 equal 0.5*(3.74863616901879e-08+${C5pos})
variable C52 equal 0.5*(3.74863616901879e-08+-2.28550646118714e-08)
variable C6${dir} equal 0.5*(${C6neg}+${C6pos})
variable C62 equal 0.5*(${C6neg}+${C6pos})
variable C62 equal 0.5*(-1.28412278869889e-07+${C6pos})
variable C62 equal 0.5*(-1.28412278869889e-07+2.78682932649271e-08)

# Delete dir to make sure it is not reused

variable dir delete
# ---- uzz Perturbation
variable dir equal 3
include displace.mod
# NOTE: This script should not need to be
# modified. See in.elastic for more info.
# Find which reference length to use

if "${dir} == 1" then    "variable len0 equal ${lx0}"
if "${dir} == 2" then    "variable len0 equal ${ly0}"
if "${dir} == 3" then    "variable len0 equal ${lz0}"
variable len0 equal ${lz0}
variable len0 equal 4.21425423749998
if "${dir} == 4" then    "variable len0 equal ${lz0}"
if "${dir} == 5" then    "variable len0 equal ${lz0}"
if "${dir} == 6" then    "variable len0 equal ${ly0}"

# Reset box and simulation parameters

clear
read_restart restart.equil remap
  triclinic box = (0.0211229 0.0211229 0.0211229) to (4.23538 4.23538 4.23538) with tilt (0 0 0)
  1 by 1 by 1 MPI processor grid
  8 atoms
include potential.mod
mass 1 24.305
mass 2 15.999

group Mg type 1
4 atoms in group Mg
group O type 2
4 atoms in group O

set group Mg charge 2.0
  4 settings made for charge
set group O charge -2.0
  4 settings made for charge

variable R_cut equal 10

pair_style buck/coul/long ${R_cut}
pair_style buck/coul/long 10
pair_coeff 1 1 0.0 0.5 0.0 ${R_cut}
pair_coeff 1 1 0.0 0.5 0.0 10
pair_coeff 1 2 821.6 0.3242 0.0 ${R_cut}
pair_coeff 1 2 821.6 0.3242 0.0 10
pair_coeff 2 2 2274.0 0.149 27.88 ${R_cut}
pair_coeff 2 2 2274.0 0.149 27.88 10

kspace_style pppm 1.0e-5

neighbor 1.0 bin
neigh_modify every 1 delay 0 check yes
# setup minimization style
min_style cg
min_modify dmax ${dmax} line quadratic
min_modify dmax 0.01 line quadratic
# setup output
thermo 1
thermo_style custom step temp pe press pxx pyy pzz pxy pxz pyz lx ly lz vol
thermo_modify norm no

# Negative deformation

variable delta equal -${up}*${len0}
variable delta equal -1e-06*${len0}
variable delta equal -1e-06*4.21425423749998
if "${dir} == 1" then    "change_box all x delta 0 ${delta} remap units box"
if "${dir} == 2" then    "change_box all y delta 0 ${delta} remap units box"
if "${dir} == 3" then    "change_box all z delta 0 ${delta} remap units box"
change_box all z delta 0 ${delta} remap units box
change_box all z delta 0 -4.21425423749998e-06 remap units box
  triclinic box = (0.0211229 0.0211229 0.0211229) to (4.23538 4.23538 4.23537) with tilt (0 0 0)
if "${dir} == 4" then    "change_box all yz delta ${delta} remap units box"
if "${dir} == 5" then    "change_box all xz delta ${delta} remap units box"
if "${dir} == 6" then    "change_box all xy delta ${delta} remap units box"

# Relax atoms positions

minimize ${etol} ${ftol} ${maxiter} ${maxeval}
minimize 0 ${ftol} ${maxiter} ${maxeval}
minimize 0 1e-10 ${maxiter} ${maxeval}
minimize 0 1e-10 100 ${maxeval}
minimize 0 1e-10 100 1000
PPPM initialization ...
  G vector (1/distance) = 0.355343
  grid = 8 8 8
  stencil order = 5
  estimated absolute RMS force accuracy = 5.2236e-05
  estimated relative force accuracy = 3.62759e-06
  using double precision FFTs
  3d grid and FFT values/proc = 3375 512
Neighbor list info ...
  1 neighbor list requests
  update every 1 steps, delay 0 steps, check yes
  master list distance cutoff = 11
Memory usage per processor = 3.77377 Mbytes
Step Temp PotEng Press Pxx Pyy Pzz Pxy Pxz Pyz Lx Ly Lz Volume 
     100            0   -162.17866   -5291.0554   -5291.5057   -5291.5057   -5290.1549 2.6864587e-10 2.1478124e-10 3.1105996e-11    4.2142542    4.2142542      4.21425    74.844822 
     101            0   -162.17866   -5291.0575   -5291.4742   -5291.4742    -5290.224 2.3937625e-09 -3.2248901e-10 2.243164e-10    4.2142542    4.2142542      4.21425    74.844822 
     102            0   -162.17866   -5291.0575   -5291.4742   -5291.4742    -5290.224 2.3937625e-09 -3.2248901e-10 2.243164e-10    4.2142542    4.2142542      4.21425    74.844822 
Loop time of 0.00134802 on 1 procs for 2 steps with 8 atoms

Minimization stats:
  Stopping criterion = linesearch alpha is zero
  Energy initial, next-to-last, final = 
        -162.178663058      -162.17866377      -162.17866377
  Force two-norm initial, final = 0.00150418 0.000178391
  Force max component initial, final = 0.00031711 3.88005e-05
  Final line search alpha, max atom move = 0.25 9.70013e-06
  Iterations, force evaluations = 2 7

Pair  time (%) = 0.000788927 (58.5249)
Kspce time (%) = 0.00043726 (32.4372)
Neigh time (%) = 0 (0)
Comm  time (%) = 8.70228e-05 (6.45561)
Outpt time (%) = 6.91414e-06 (0.512911)
Other time (%) = 2.7895e-05 (2.06933)

Nlocal:    8 ave 8 max 8 min
Histogram: 1 0 0 0 0 0 0 0 0 0
Nghost:    2189 ave 2189 max 2189 min
Histogram: 1 0 0 0 0 0 0 0 0 0
Neighs:    2472 ave 2472 max 2472 min
Histogram: 1 0 0 0 0 0 0 0 0 0

Total # of neighbors = 2472
Ave neighs/atom = 309
Neighbor list builds = 0
Dangerous builds = 0

# Obtain new stress tensor

variable tmp equal pxx
variable pxx1 equal ${tmp}
variable pxx1 equal -5291.47421964154
variable tmp equal pyy
variable pyy1 equal ${tmp}
variable pyy1 equal -5291.4742196417
variable tmp equal pzz
variable pzz1 equal ${tmp}
variable pzz1 equal -5290.22398891003
variable tmp equal pxy
variable pxy1 equal ${tmp}
variable pxy1 equal 2.39376246802241e-09
variable tmp equal pxz
variable pxz1 equal ${tmp}
variable pxz1 equal -3.22489011719477e-10
variable tmp equal pyz
variable pyz1 equal ${tmp}
variable pyz1 equal 2.24316395751722e-10

# Compute elastic constant from pressure tensor

variable C1neg equal ${d1}
variable C1neg equal 245.341420766999
variable C2neg equal ${d2}
variable C2neg equal 245.341420856948
variable C3neg equal ${d3}
variable C3neg equal 370.364494010028
variable C4neg equal ${d4}
variable C4neg equal 1.3754335405973e-09
variable C5neg equal ${d5}
variable C5neg equal -1.678682168373e-09
variable C6neg equal ${d6}
variable C6neg equal 2.48010619550587e-07

# Reset box and simulation parameters

clear
read_restart restart.equil remap
  triclinic box = (0.0211229 0.0211229 0.0211229) to (4.23538 4.23538 4.23538) with tilt (0 0 0)
  1 by 1 by 1 MPI processor grid
  8 atoms
include potential.mod
mass 1 24.305
mass 2 15.999

group Mg type 1
4 atoms in group Mg
group O type 2
4 atoms in group O

set group Mg charge 2.0
  4 settings made for charge
set group O charge -2.0
  4 settings made for charge

variable R_cut equal 10

pair_style buck/coul/long ${R_cut}
pair_style buck/coul/long 10
pair_coeff 1 1 0.0 0.5 0.0 ${R_cut}
pair_coeff 1 1 0.0 0.5 0.0 10
pair_coeff 1 2 821.6 0.3242 0.0 ${R_cut}
pair_coeff 1 2 821.6 0.3242 0.0 10
pair_coeff 2 2 2274.0 0.149 27.88 ${R_cut}
pair_coeff 2 2 2274.0 0.149 27.88 10

kspace_style pppm 1.0e-5

neighbor 1.0 bin
neigh_modify every 1 delay 0 check yes
# setup minimization style
min_style cg
min_modify dmax ${dmax} line quadratic
min_modify dmax 0.01 line quadratic
# setup output
thermo 1
thermo_style custom step temp pe press pxx pyy pzz pxy pxz pyz lx ly lz vol
thermo_modify norm no

# Positive deformation

variable delta equal ${up}*${len0}
variable delta equal 1e-06*${len0}
variable delta equal 1e-06*4.21425423749998
if "${dir} == 1" then    "change_box all x delta 0 ${delta} remap units box"
if "${dir} == 2" then    "change_box all y delta 0 ${delta} remap units box"
if "${dir} == 3" then    "change_box all z delta 0 ${delta} remap units box"
change_box all z delta 0 ${delta} remap units box
change_box all z delta 0 4.21425423749998e-06 remap units box
  triclinic box = (0.0211229 0.0211229 0.0211229) to (4.23538 4.23538 4.23538) with tilt (0 0 0)
if "${dir} == 4" then    "change_box all yz delta ${delta} remap units box"
if "${dir} == 5" then    "change_box all xz delta ${delta} remap units box"
if "${dir} == 6" then    "change_box all xy delta ${delta} remap units box"

# Relax atoms positions

minimize ${etol} ${ftol} ${maxiter} ${maxeval}
minimize 0 ${ftol} ${maxiter} ${maxeval}
minimize 0 1e-10 ${maxiter} ${maxeval}
minimize 0 1e-10 100 ${maxeval}
minimize 0 1e-10 100 1000
PPPM initialization ...
  G vector (1/distance) = 0.355343
  grid = 8 8 8
  stencil order = 5
  estimated absolute RMS force accuracy = 5.22361e-05
  estimated relative force accuracy = 3.6276e-06
  using double precision FFTs
  3d grid and FFT values/proc = 3375 512
Neighbor list info ...
  1 neighbor list requests
  update every 1 steps, delay 0 steps, check yes
  master list distance cutoff = 11
Memory usage per processor = 3.77377 Mbytes
Step Temp PotEng Press Pxx Pyy Pzz Pxy Pxz Pyz Lx Ly Lz Volume 
     100            0   -162.17866    -5295.208   -5294.7602   -5294.7602   -5296.1035 1.9171218e-09 6.7816281e-10 9.7025312e-10    4.2142542    4.2142542    4.2142585    74.844972 
     101            0   -162.17866   -5295.2207   -5294.7786   -5294.7786   -5296.1049 -1.8915382e-10 -1.3194469e-10 -3.4503864e-10    4.2142542    4.2142542    4.2142585    74.844972 
     102            0   -162.17866   -5295.2207   -5294.7786   -5294.7786   -5296.1049 -1.8915382e-10 -1.3194469e-10 -3.4503864e-10    4.2142542    4.2142542    4.2142585    74.844972 
Loop time of 0.00168085 on 1 procs for 2 steps with 8 atoms

Minimization stats:
  Stopping criterion = linesearch alpha is zero
  Energy initial, next-to-last, final = 
        -162.178664434     -162.178664751     -162.178664751
  Force two-norm initial, final = 0.00150401 0.000171834
  Force max component initial, final = 0.000316412 3.66763e-05
  Final line search alpha, max atom move = 0.25 9.16907e-06
  Iterations, force evaluations = 2 9

Pair  time (%) = 0.000971079 (57.773)
Kspce time (%) = 0.000524282 (31.1915)
Neigh time (%) = 0 (0)
Comm  time (%) = 0.000103712 (6.17021)
Outpt time (%) = 9.05991e-06 (0.539007)
Other time (%) = 7.27177e-05 (4.32624)

Nlocal:    8 ave 8 max 8 min
Histogram: 1 0 0 0 0 0 0 0 0 0
Nghost:    2189 ave 2189 max 2189 min
Histogram: 1 0 0 0 0 0 0 0 0 0
Neighs:    2472 ave 2472 max 2472 min
Histogram: 1 0 0 0 0 0 0 0 0 0

Total # of neighbors = 2472
Ave neighs/atom = 309
Neighbor list builds = 0
Dangerous builds = 0

# Obtain new stress tensor

variable tmp equal pe
variable e1 equal ${tmp}
variable e1 equal -162.178664750758
variable tmp equal press
variable p1 equal ${tmp}
variable p1 equal -5295.22071204773
variable tmp equal pxx
variable pxx1 equal ${tmp}
variable pxx1 equal -5294.77861593158
variable tmp equal pyy
variable pyy1 equal ${tmp}
variable pyy1 equal -5294.77861593149
variable tmp equal pzz
variable pzz1 equal ${tmp}
variable pzz1 equal -5296.10490428012
variable tmp equal pxy
variable pxy1 equal ${tmp}
variable pxy1 equal -1.89153816751444e-10
variable tmp equal pxz
variable pxz1 equal ${tmp}
variable pxz1 equal -1.31944694017888e-10
variable tmp equal pyz
variable pyz1 equal ${tmp}
variable pyz1 equal -3.45038644617802e-10

# Compute elastic constant from pressure tensor

variable C1pos equal ${d1}
variable C1pos equal 85.0982082370138
variable C2pos equal ${d2}
variable C2pos equal 85.0982081220536
variable C3pos equal ${d3}
variable C3pos equal 217.727042998922
variable C4pos equal ${d4}
variable C4pos equal 5.55600704963551e-08
variable C5pos equal ${d5}
variable C5pos equal -1.73757496017859e-08
variable C6pos equal ${d6}
variable C6pos equal 1.02810089267982e-08

# Combine positive and negative

variable C1${dir} equal 0.5*(${C1neg}+${C1pos})
variable C13 equal 0.5*(${C1neg}+${C1pos})
variable C13 equal 0.5*(245.341420766999+${C1pos})
variable C13 equal 0.5*(245.341420766999+85.0982082370138)
variable C2${dir} equal 0.5*(${C2neg}+${C2pos})
variable C23 equal 0.5*(${C2neg}+${C2pos})
variable C23 equal 0.5*(245.341420856948+${C2pos})
variable C23 equal 0.5*(245.341420856948+85.0982081220536)
variable C3${dir} equal 0.5*(${C3neg}+${C3pos})
variable C33 equal 0.5*(${C3neg}+${C3pos})
variable C33 equal 0.5*(370.364494010028+${C3pos})
variable C33 equal 0.5*(370.364494010028+217.727042998922)
variable C4${dir} equal 0.5*(${C4neg}+${C4pos})
variable C43 equal 0.5*(${C4neg}+${C4pos})
variable C43 equal 0.5*(1.3754335405973e-09+${C4pos})
variable C43 equal 0.5*(1.3754335405973e-09+5.55600704963551e-08)
variable C5${dir} equal 0.5*(${C5neg}+${C5pos})
variable C53 equal 0.5*(${C5neg}+${C5pos})
variable C53 equal 0.5*(-1.678682168373e-09+${C5pos})
variable C53 equal 0.5*(-1.678682168373e-09+-1.73757496017859e-08)
variable C6${dir} equal 0.5*(${C6neg}+${C6pos})
variable C63 equal 0.5*(${C6neg}+${C6pos})
variable C63 equal 0.5*(2.48010619550587e-07+${C6pos})
variable C63 equal 0.5*(2.48010619550587e-07+1.02810089267982e-08)

# Delete dir to make sure it is not reused

variable dir delete
# ---- uyz Perturbation
variable dir equal 4
include displace.mod
# NOTE: This script should not need to be
# modified. See in.elastic for more info.
# Find which reference length to use

if "${dir} == 1" then    "variable len0 equal ${lx0}"
if "${dir} == 2" then    "variable len0 equal ${ly0}"
if "${dir} == 3" then    "variable len0 equal ${lz0}"
if "${dir} == 4" then    "variable len0 equal ${lz0}"
variable len0 equal ${lz0}
variable len0 equal 4.21425423749998
if "${dir} == 5" then    "variable len0 equal ${lz0}"
if "${dir} == 6" then    "variable len0 equal ${ly0}"

# Reset box and simulation parameters

clear
read_restart restart.equil remap
  triclinic box = (0.0211229 0.0211229 0.0211229) to (4.23538 4.23538 4.23538) with tilt (0 0 0)
  1 by 1 by 1 MPI processor grid
  8 atoms
include potential.mod
mass 1 24.305
mass 2 15.999

group Mg type 1
4 atoms in group Mg
group O type 2
4 atoms in group O

set group Mg charge 2.0
  4 settings made for charge
set group O charge -2.0
  4 settings made for charge

variable R_cut equal 10

pair_style buck/coul/long ${R_cut}
pair_style buck/coul/long 10
pair_coeff 1 1 0.0 0.5 0.0 ${R_cut}
pair_coeff 1 1 0.0 0.5 0.0 10
pair_coeff 1 2 821.6 0.3242 0.0 ${R_cut}
pair_coeff 1 2 821.6 0.3242 0.0 10
pair_coeff 2 2 2274.0 0.149 27.88 ${R_cut}
pair_coeff 2 2 2274.0 0.149 27.88 10

kspace_style pppm 1.0e-5

neighbor 1.0 bin
neigh_modify every 1 delay 0 check yes
# setup minimization style
min_style cg
min_modify dmax ${dmax} line quadratic
min_modify dmax 0.01 line quadratic
# setup output
thermo 1
thermo_style custom step temp pe press pxx pyy pzz pxy pxz pyz lx ly lz vol
thermo_modify norm no

# Negative deformation

variable delta equal -${up}*${len0}
variable delta equal -1e-06*${len0}
variable delta equal -1e-06*4.21425423749998
if "${dir} == 1" then    "change_box all x delta 0 ${delta} remap units box"
if "${dir} == 2" then    "change_box all y delta 0 ${delta} remap units box"
if "${dir} == 3" then    "change_box all z delta 0 ${delta} remap units box"
if "${dir} == 4" then    "change_box all yz delta ${delta} remap units box"
change_box all yz delta ${delta} remap units box
change_box all yz delta -4.21425423749998e-06 remap units box
  triclinic box = (0.0211229 0.0211229 0.0211229) to (4.23538 4.23538 4.23538) with tilt (0 0 -4.21425e-06)
if "${dir} == 5" then    "change_box all xz delta ${delta} remap units box"
if "${dir} == 6" then    "change_box all xy delta ${delta} remap units box"

# Relax atoms positions

minimize ${etol} ${ftol} ${maxiter} ${maxeval}
minimize 0 ${ftol} ${maxiter} ${maxeval}
minimize 0 1e-10 ${maxiter} ${maxeval}
minimize 0 1e-10 100 ${maxeval}
minimize 0 1e-10 100 1000
PPPM initialization ...
  G vector (1/distance) = 0.355343
  grid = 8 8 8
  stencil order = 5
  estimated absolute RMS force accuracy = 5.2236e-05
  estimated relative force accuracy = 3.62759e-06
  using double precision FFTs
  3d grid and FFT values/proc = 3375 512
Neighbor list info ...
  1 neighbor list requests
  update every 1 steps, delay 0 steps, check yes
  master list distance cutoff = 11
Memory usage per processor = 3.77377 Mbytes
Step Temp PotEng Press Pxx Pyy Pzz Pxy Pxz Pyz Lx Ly Lz Volume 
     100            0   -162.17866    -5293.142   -5293.2102   -5293.1078   -5293.1078 -5.5393098e-11 -7.2205452e-10    1.6348527    4.2142542    4.2142542    4.2142542    74.844897 
     101            0   -162.17867   -5293.1953   -5293.2121   -5293.1869   -5293.1869 1.9430536e-10 1.8824347e-10     1.727693    4.2142542    4.2142542    4.2142542    74.844897 
     102            0   -162.17867   -5293.1953   -5293.2121   -5293.1869   -5293.1869 1.754468e-10 4.2636427e-10     1.727693    4.2142542    4.2142542    4.2142542    74.844897 
Loop time of 0.00208592 on 1 procs for 2 steps with 8 atoms

Minimization stats:
  Stopping criterion = linesearch alpha is zero
  Energy initial, next-to-last, final = 
        -162.178662696     -162.178666724     -162.178666724
  Force two-norm initial, final = 0.00150435 0.000173375
  Force max component initial, final = 0.000316743 3.64062e-05
  Final line search alpha, max atom move = 0.25 9.10155e-06
  Iterations, force evaluations = 2 9

Pair  time (%) = 0.00104833 (50.2572)
Kspce time (%) = 0.000785351 (37.65)
Neigh time (%) = 0 (0)
Comm  time (%) = 0.000169039 (8.10378)
Outpt time (%) = 2.31266e-05 (1.1087)
Other time (%) = 6.00815e-05 (2.88033)

Nlocal:    8 ave 8 max 8 min
Histogram: 1 0 0 0 0 0 0 0 0 0
Nghost:    2189 ave 2189 max 2189 min
Histogram: 1 0 0 0 0 0 0 0 0 0
Neighs:    2472 ave 2472 max 2472 min
Histogram: 1 0 0 0 0 0 0 0 0 0

Total # of neighbors = 2472
Ave neighs/atom = 309
Neighbor list builds = 0
Dangerous builds = 0

# Obtain new stress tensor

variable tmp equal pxx
variable pxx1 equal ${tmp}
variable pxx1 equal -5293.21205268897
variable tmp equal pyy
variable pyy1 equal ${tmp}
variable pyy1 equal -5293.18694653989
variable tmp equal pzz
variable pzz1 equal ${tmp}
variable pzz1 equal -5293.18694554779
variable tmp equal pxy
variable pxy1 equal ${tmp}
variable pxy1 equal 1.75446795509614e-10
variable tmp equal pxz
variable pxz1 equal ${tmp}
variable pxz1 equal 4.26364265657022e-10
variable tmp equal pyz
variable pyz1 equal ${tmp}
variable pyz1 equal 1.72769300272695

# Compute elastic constant from pressure tensor

variable C1neg equal ${d1}
variable C1neg equal 71.5581160239708
variable C2neg equal ${d2}
variable C2neg equal 74.0687310379144
variable C3neg equal ${d3}
variable C3neg equal 74.0688302340459
variable C4neg equal ${d4}
variable C4neg equal 172.769300251639
variable C5neg equal ${d5}
variable C5neg equal 7.32066455692769e-08
variable C6neg equal ${d6}
variable C6neg equal 2.61790522993076e-08

# Reset box and simulation parameters

clear
read_restart restart.equil remap
  triclinic box = (0.0211229 0.0211229 0.0211229) to (4.23538 4.23538 4.23538) with tilt (0 0 0)
  1 by 1 by 1 MPI processor grid
  8 atoms
include potential.mod
mass 1 24.305
mass 2 15.999

group Mg type 1
4 atoms in group Mg
group O type 2
4 atoms in group O

set group Mg charge 2.0
  4 settings made for charge
set group O charge -2.0
  4 settings made for charge

variable R_cut equal 10

pair_style buck/coul/long ${R_cut}
pair_style buck/coul/long 10
pair_coeff 1 1 0.0 0.5 0.0 ${R_cut}
pair_coeff 1 1 0.0 0.5 0.0 10
pair_coeff 1 2 821.6 0.3242 0.0 ${R_cut}
pair_coeff 1 2 821.6 0.3242 0.0 10
pair_coeff 2 2 2274.0 0.149 27.88 ${R_cut}
pair_coeff 2 2 2274.0 0.149 27.88 10

kspace_style pppm 1.0e-5

neighbor 1.0 bin
neigh_modify every 1 delay 0 check yes
# setup minimization style
min_style cg
min_modify dmax ${dmax} line quadratic
min_modify dmax 0.01 line quadratic
# setup output
thermo 1
thermo_style custom step temp pe press pxx pyy pzz pxy pxz pyz lx ly lz vol
thermo_modify norm no

# Positive deformation

variable delta equal ${up}*${len0}
variable delta equal 1e-06*${len0}
variable delta equal 1e-06*4.21425423749998
if "${dir} == 1" then    "change_box all x delta 0 ${delta} remap units box"
if "${dir} == 2" then    "change_box all y delta 0 ${delta} remap units box"
if "${dir} == 3" then    "change_box all z delta 0 ${delta} remap units box"
if "${dir} == 4" then    "change_box all yz delta ${delta} remap units box"
change_box all yz delta ${delta} remap units box
change_box all yz delta 4.21425423749998e-06 remap units box
  triclinic box = (0.0211229 0.0211229 0.0211229) to (4.23538 4.23538 4.23538) with tilt (0 0 4.21425e-06)
if "${dir} == 5" then    "change_box all xz delta ${delta} remap units box"
if "${dir} == 6" then    "change_box all xy delta ${delta} remap units box"

# Relax atoms positions

minimize ${etol} ${ftol} ${maxiter} ${maxeval}
minimize 0 ${ftol} ${maxiter} ${maxeval}
minimize 0 1e-10 ${maxiter} ${maxeval}
minimize 0 1e-10 100 ${maxeval}
minimize 0 1e-10 100 1000
PPPM initialization ...
  G vector (1/distance) = 0.355343
  grid = 8 8 8
  stencil order = 5
  estimated absolute RMS force accuracy = 5.22361e-05
  estimated relative force accuracy = 3.6276e-06
  using double precision FFTs
  3d grid and FFT values/proc = 3375 512
Neighbor list info ...
  1 neighbor list requests
  update every 1 steps, delay 0 steps, check yes
  master list distance cutoff = 11
Memory usage per processor = 3.77377 Mbytes
Step Temp PotEng Press Pxx Pyy Pzz Pxy Pxz Pyz Lx Ly Lz Volume 
     100            0   -162.17866    -5293.142   -5293.2102   -5293.1079   -5293.1079 1.3116798e-10 1.7550659e-10   -1.6348527    4.2142542    4.2142542    4.2142542    74.844897 
     101            0   -162.17867   -5293.1954   -5293.2121    -5293.187    -5293.187 8.5794337e-10 8.6639022e-11    -1.727693    4.2142542    4.2142542    4.2142542    74.844897 
     102            0   -162.17867   -5293.1954   -5293.2121    -5293.187    -5293.187 -1.1320226e-10 1.1560051e-10    -1.727693    4.2142542    4.2142542    4.2142542    74.844897 
Loop time of 0.00205898 on 1 procs for 2 steps with 8 atoms

Minimization stats:
  Stopping criterion = linesearch alpha is zero
  Energy initial, next-to-last, final = 
        -162.178662696     -162.178666724     -162.178666724
  Force two-norm initial, final = 0.00150435 0.000173375
  Force max component initial, final = 0.000316743 3.64062e-05
  Final line search alpha, max atom move = 0.25 9.10155e-06
  Iterations, force evaluations = 2 9

Pair  time (%) = 0.00104308 (50.66)
Kspce time (%) = 0.000720978 (35.0162)
Neigh time (%) = 0 (0)
Comm  time (%) = 0.00018239 (8.85827)
Outpt time (%) = 2.21729e-05 (1.07689)
Other time (%) = 9.03606e-05 (4.38861)

Nlocal:    8 ave 8 max 8 min
Histogram: 1 0 0 0 0 0 0 0 0 0
Nghost:    2189 ave 2189 max 2189 min
Histogram: 1 0 0 0 0 0 0 0 0 0
Neighs:    2472 ave 2472 max 2472 min
Histogram: 1 0 0 0 0 0 0 0 0 0

Total # of neighbors = 2472
Ave neighs/atom = 309
Neighbor list builds = 0
Dangerous builds = 0

# Obtain new stress tensor

variable tmp equal pe
variable e1 equal ${tmp}
variable e1 equal -162.178666724373
variable tmp equal press
variable p1 equal ${tmp}
variable p1 equal -5293.19535828368
variable tmp equal pxx
variable pxx1 equal ${tmp}
variable pxx1 equal -5293.21209605233
variable tmp equal pyy
variable pyy1 equal ${tmp}
variable pyy1 equal -5293.1869898958
variable tmp equal pzz
variable pzz1 equal ${tmp}
variable pzz1 equal -5293.1869889029
variable tmp equal pxy
variable pxy1 equal ${tmp}
variable pxy1 equal -1.13202264952886e-10
variable tmp equal pxz
variable pxz1 equal ${tmp}
variable pxz1 equal 1.15600506783336e-10
variable tmp equal pyz
variable pyz1 equal ${tmp}
variable pyz1 equal -1.72769301049068

# Compute elastic constant from pressure tensor

variable C1pos equal ${d1}
variable C1pos equal -71.5537796880199
variable C2pos equal ${d2}
variable C2pos equal -74.0643954469306
variable C3pos equal ${d3}
variable C3pos equal -74.0644947230067
variable C4pos equal ${d4}
variable C4pos equal 172.769301070124
variable C5pos equal ${d5}
variable C5pos equal -4.21302696819083e-08
variable C6pos equal ${d6}
variable C6pos equal 2.68585374694242e-09

# Combine positive and negative

variable C1${dir} equal 0.5*(${C1neg}+${C1pos})
variable C14 equal 0.5*(${C1neg}+${C1pos})
variable C14 equal 0.5*(71.5581160239708+${C1pos})
variable C14 equal 0.5*(71.5581160239708+-71.5537796880199)
variable C2${dir} equal 0.5*(${C2neg}+${C2pos})
variable C24 equal 0.5*(${C2neg}+${C2pos})
variable C24 equal 0.5*(74.0687310379144+${C2pos})
variable C24 equal 0.5*(74.0687310379144+-74.0643954469306)
variable C3${dir} equal 0.5*(${C3neg}+${C3pos})
variable C34 equal 0.5*(${C3neg}+${C3pos})
variable C34 equal 0.5*(74.0688302340459+${C3pos})
variable C34 equal 0.5*(74.0688302340459+-74.0644947230067)
variable C4${dir} equal 0.5*(${C4neg}+${C4pos})
variable C44 equal 0.5*(${C4neg}+${C4pos})
variable C44 equal 0.5*(172.769300251639+${C4pos})
variable C44 equal 0.5*(172.769300251639+172.769301070124)
variable C5${dir} equal 0.5*(${C5neg}+${C5pos})
variable C54 equal 0.5*(${C5neg}+${C5pos})
variable C54 equal 0.5*(7.32066455692769e-08+${C5pos})
variable C54 equal 0.5*(7.32066455692769e-08+-4.21302696819083e-08)
variable C6${dir} equal 0.5*(${C6neg}+${C6pos})
variable C64 equal 0.5*(${C6neg}+${C6pos})
variable C64 equal 0.5*(2.61790522993076e-08+${C6pos})
variable C64 equal 0.5*(2.61790522993076e-08+2.68585374694242e-09)

# Delete dir to make sure it is not reused

variable dir delete
# ---- uxz Perturbation
variable dir equal 5
include displace.mod
# NOTE: This script should not need to be
# modified. See in.elastic for more info.
# Find which reference length to use

if "${dir} == 1" then    "variable len0 equal ${lx0}"
if "${dir} == 2" then    "variable len0 equal ${ly0}"
if "${dir} == 3" then    "variable len0 equal ${lz0}"
if "${dir} == 4" then    "variable len0 equal ${lz0}"
if "${dir} == 5" then    "variable len0 equal ${lz0}"
variable len0 equal ${lz0}
variable len0 equal 4.21425423749998
if "${dir} == 6" then    "variable len0 equal ${ly0}"

# Reset box and simulation parameters

clear
read_restart restart.equil remap
  triclinic box = (0.0211229 0.0211229 0.0211229) to (4.23538 4.23538 4.23538) with tilt (0 0 0)
  1 by 1 by 1 MPI processor grid
  8 atoms
include potential.mod
mass 1 24.305
mass 2 15.999

group Mg type 1
4 atoms in group Mg
group O type 2
4 atoms in group O

set group Mg charge 2.0
  4 settings made for charge
set group O charge -2.0
  4 settings made for charge

variable R_cut equal 10

pair_style buck/coul/long ${R_cut}
pair_style buck/coul/long 10
pair_coeff 1 1 0.0 0.5 0.0 ${R_cut}
pair_coeff 1 1 0.0 0.5 0.0 10
pair_coeff 1 2 821.6 0.3242 0.0 ${R_cut}
pair_coeff 1 2 821.6 0.3242 0.0 10
pair_coeff 2 2 2274.0 0.149 27.88 ${R_cut}
pair_coeff 2 2 2274.0 0.149 27.88 10

kspace_style pppm 1.0e-5

neighbor 1.0 bin
neigh_modify every 1 delay 0 check yes
# setup minimization style
min_style cg
min_modify dmax ${dmax} line quadratic
min_modify dmax 0.01 line quadratic
# setup output
thermo 1
thermo_style custom step temp pe press pxx pyy pzz pxy pxz pyz lx ly lz vol
thermo_modify norm no

# Negative deformation

variable delta equal -${up}*${len0}
variable delta equal -1e-06*${len0}
variable delta equal -1e-06*4.21425423749998
if "${dir} == 1" then    "change_box all x delta 0 ${delta} remap units box"
if "${dir} == 2" then    "change_box all y delta 0 ${delta} remap units box"
if "${dir} == 3" then    "change_box all z delta 0 ${delta} remap units box"
if "${dir} == 4" then    "change_box all yz delta ${delta} remap units box"
if "${dir} == 5" then    "change_box all xz delta ${delta} remap units box"
change_box all xz delta ${delta} remap units box
change_box all xz delta -4.21425423749998e-06 remap units box
  triclinic box = (0.0211229 0.0211229 0.0211229) to (4.23538 4.23538 4.23538) with tilt (0 -4.21425e-06 0)
if "${dir} == 6" then    "change_box all xy delta ${delta} remap units box"

# Relax atoms positions

minimize ${etol} ${ftol} ${maxiter} ${maxeval}
minimize 0 ${ftol} ${maxiter} ${maxeval}
minimize 0 1e-10 ${maxiter} ${maxeval}
minimize 0 1e-10 100 ${maxeval}
minimize 0 1e-10 100 1000
PPPM initialization ...
  G vector (1/distance) = 0.355343
  grid = 8 8 8
  stencil order = 5
  estimated absolute RMS force accuracy = 5.2236e-05
  estimated relative force accuracy = 3.62759e-06
  using double precision FFTs
  3d grid and FFT values/proc = 3375 512
Neighbor list info ...
  1 neighbor list requests
  update every 1 steps, delay 0 steps, check yes
  master list distance cutoff = 11
Memory usage per processor = 3.77377 Mbytes
Step Temp PotEng Press Pxx Pyy Pzz Pxy Pxz Pyz Lx Ly Lz Volume 
     100            0   -162.17866    -5293.142   -5293.1078   -5293.2102   -5293.1078 -9.9735397e-10    1.6348527 -9.7271158e-10    4.2142542    4.2142542    4.2142542    74.844897 
     101            0   -162.17867   -5293.1953   -5293.1869   -5293.2121   -5293.1869 -1.9392226e-09     1.727693 3.303476e-10    4.2142542    4.2142542    4.2142542    74.844897 
     102            0   -162.17867   -5293.1953   -5293.1869   -5293.2121   -5293.1869 -1.1313587e-09     1.727693 -1.172679e-11    4.2142542    4.2142542    4.2142542    74.844897 
Loop time of 0.00160384 on 1 procs for 2 steps with 8 atoms

Minimization stats:
  Stopping criterion = linesearch alpha is zero
  Energy initial, next-to-last, final = 
        -162.178662696     -162.178666724     -162.178666724
  Force two-norm initial, final = 0.00150435 0.000173375
  Force max component initial, final = 0.000316743 3.64062e-05
  Final line search alpha, max atom move = 0.25 9.10155e-06
  Iterations, force evaluations = 2 9

Pair  time (%) = 0.000927925 (57.8564)
Kspce time (%) = 0.000522137 (32.5554)
Neigh time (%) = 0 (0)
Comm  time (%) = 0.000107527 (6.70433)
Outpt time (%) = 9.05991e-06 (0.564888)
Other time (%) = 3.71933e-05 (2.31901)

Nlocal:    8 ave 8 max 8 min
Histogram: 1 0 0 0 0 0 0 0 0 0
Nghost:    2189 ave 2189 max 2189 min
Histogram: 1 0 0 0 0 0 0 0 0 0
Neighs:    2472 ave 2472 max 2472 min
Histogram: 1 0 0 0 0 0 0 0 0 0

Total # of neighbors = 2472
Ave neighs/atom = 309
Neighbor list builds = 0
Dangerous builds = 0

# Obtain new stress tensor

variable tmp equal pxx
variable pxx1 equal ${tmp}
variable pxx1 equal -5293.18694654148
variable tmp equal pyy
variable pyy1 equal ${tmp}
variable pyy1 equal -5293.21205268989
variable tmp equal pzz
variable pzz1 equal ${tmp}
variable pzz1 equal -5293.18694554765
variable tmp equal pxy
variable pxy1 equal ${tmp}
variable pxy1 equal -1.13135874368204e-09
variable tmp equal pxz
variable pxz1 equal ${tmp}
variable pxz1 equal 1.72769300264316
variable tmp equal pyz
variable pyz1 equal ${tmp}
variable pyz1 equal -1.17267900627212e-11

# Compute elastic constant from pressure tensor

variable C1neg equal ${d1}
variable C1neg equal 74.0687307729786
variable C2neg equal ${d2}
variable C2neg equal 71.558116037977
variable C3neg equal ${d3}
variable C3neg equal 74.0688302480521
variable C4neg equal ${d4}
variable C4neg equal -2.2228885040847e-08
variable C5neg equal ${d5}
variable C5neg equal 172.769300294886
variable C6neg equal ${d6}
variable C6neg equal -1.04501501619858e-07

# Reset box and simulation parameters

clear
read_restart restart.equil remap
  triclinic box = (0.0211229 0.0211229 0.0211229) to (4.23538 4.23538 4.23538) with tilt (0 0 0)
  1 by 1 by 1 MPI processor grid
  8 atoms
include potential.mod
mass 1 24.305
mass 2 15.999

group Mg type 1
4 atoms in group Mg
group O type 2
4 atoms in group O

set group Mg charge 2.0
  4 settings made for charge
set group O charge -2.0
  4 settings made for charge

variable R_cut equal 10

pair_style buck/coul/long ${R_cut}
pair_style buck/coul/long 10
pair_coeff 1 1 0.0 0.5 0.0 ${R_cut}
pair_coeff 1 1 0.0 0.5 0.0 10
pair_coeff 1 2 821.6 0.3242 0.0 ${R_cut}
pair_coeff 1 2 821.6 0.3242 0.0 10
pair_coeff 2 2 2274.0 0.149 27.88 ${R_cut}
pair_coeff 2 2 2274.0 0.149 27.88 10

kspace_style pppm 1.0e-5

neighbor 1.0 bin
neigh_modify every 1 delay 0 check yes
# setup minimization style
min_style cg
min_modify dmax ${dmax} line quadratic
min_modify dmax 0.01 line quadratic
# setup output
thermo 1
thermo_style custom step temp pe press pxx pyy pzz pxy pxz pyz lx ly lz vol
thermo_modify norm no

# Positive deformation

variable delta equal ${up}*${len0}
variable delta equal 1e-06*${len0}
variable delta equal 1e-06*4.21425423749998
if "${dir} == 1" then    "change_box all x delta 0 ${delta} remap units box"
if "${dir} == 2" then    "change_box all y delta 0 ${delta} remap units box"
if "${dir} == 3" then    "change_box all z delta 0 ${delta} remap units box"
if "${dir} == 4" then    "change_box all yz delta ${delta} remap units box"
if "${dir} == 5" then    "change_box all xz delta ${delta} remap units box"
change_box all xz delta ${delta} remap units box
change_box all xz delta 4.21425423749998e-06 remap units box
  triclinic box = (0.0211229 0.0211229 0.0211229) to (4.23538 4.23538 4.23538) with tilt (0 4.21425e-06 0)
if "${dir} == 6" then    "change_box all xy delta ${delta} remap units box"

# Relax atoms positions

minimize ${etol} ${ftol} ${maxiter} ${maxeval}
minimize 0 ${ftol} ${maxiter} ${maxeval}
minimize 0 1e-10 ${maxiter} ${maxeval}
minimize 0 1e-10 100 ${maxeval}
minimize 0 1e-10 100 1000
PPPM initialization ...
  G vector (1/distance) = 0.355343
  grid = 8 8 8
  stencil order = 5
  estimated absolute RMS force accuracy = 5.22361e-05
  estimated relative force accuracy = 3.6276e-06
  using double precision FFTs
  3d grid and FFT values/proc = 3375 512
Neighbor list info ...
  1 neighbor list requests
  update every 1 steps, delay 0 steps, check yes
  master list distance cutoff = 11
Memory usage per processor = 3.77377 Mbytes
Step Temp PotEng Press Pxx Pyy Pzz Pxy Pxz Pyz Lx Ly Lz Volume 
     100            0   -162.17866    -5293.142   -5293.1079   -5293.2102   -5293.1079 -3.6749028e-10   -1.6348527 -2.8411658e-10    4.2142542    4.2142542    4.2142542    74.844897 
     101            0   -162.17867   -5293.1954    -5293.187   -5293.2121    -5293.187 -3.039635e-10    -1.727693 -8.7417796e-11    4.2142542    4.2142542    4.2142542    74.844897 
     102            0   -162.17867   -5293.1954    -5293.187   -5293.2121    -5293.187 2.4581847e-10    -1.727693 1.0286207e-10    4.2142542    4.2142542    4.2142542    74.844897 
Loop time of 0.00164104 on 1 procs for 2 steps with 8 atoms

Minimization stats:
  Stopping criterion = linesearch alpha is zero
  Energy initial, next-to-last, final = 
        -162.178662696     -162.178666724     -162.178666724
  Force two-norm initial, final = 0.00150435 0.000173375
  Force max component initial, final = 0.000316743 3.64062e-05
  Final line search alpha, max atom move = 0.25 9.10155e-06
  Iterations, force evaluations = 2 9

Pair  time (%) = 0.000957012 (58.3176)
Kspce time (%) = 0.000514984 (31.3817)
Neigh time (%) = 0 (0)
Comm  time (%) = 0.000102997 (6.27633)
Outpt time (%) = 9.05991e-06 (0.552085)
Other time (%) = 5.6982e-05 (3.47232)

Nlocal:    8 ave 8 max 8 min
Histogram: 1 0 0 0 0 0 0 0 0 0
Nghost:    2189 ave 2189 max 2189 min
Histogram: 1 0 0 0 0 0 0 0 0 0
Neighs:    2472 ave 2472 max 2472 min
Histogram: 1 0 0 0 0 0 0 0 0 0

Total # of neighbors = 2472
Ave neighs/atom = 309
Neighbor list builds = 0
Dangerous builds = 0

# Obtain new stress tensor

variable tmp equal pe
variable e1 equal ${tmp}
variable e1 equal -162.178666724373
variable tmp equal press
variable p1 equal ${tmp}
variable p1 equal -5293.19535828346
variable tmp equal pxx
variable pxx1 equal ${tmp}
variable pxx1 equal -5293.18698989581
variable tmp equal pyy
variable pyy1 equal ${tmp}
variable pyy1 equal -5293.21209605114
variable tmp equal pzz
variable pzz1 equal ${tmp}
variable pzz1 equal -5293.18698890343
variable tmp equal pxy
variable pxy1 equal ${tmp}
variable pxy1 equal 2.45818471094524e-10
variable tmp equal pxz
variable pxz1 equal ${tmp}
variable pxz1 equal -1.72769301008631
variable tmp equal pyz
variable pyz1 equal ${tmp}
variable pyz1 equal 1.02862069271809e-10

# Compute elastic constant from pressure tensor

variable C1pos equal ${d1}
variable C1pos equal -74.064395339974
variable C2pos equal ${d2}
variable C2pos equal -71.5537799129379
variable C3pos equal ${d3}
variable C3pos equal -74.0644946700741
variable C4pos equal ${d4}
variable C4pos equal 1.0769999107394e-08
variable C5pos equal ${d5}
variable C5pos equal 172.769300978061
variable C6pos equal ${d6}
variable C6pos equal -3.32162198577986e-08

# Combine positive and negative

variable C1${dir} equal 0.5*(${C1neg}+${C1pos})
variable C15 equal 0.5*(${C1neg}+${C1pos})
variable C15 equal 0.5*(74.0687307729786+${C1pos})
variable C15 equal 0.5*(74.0687307729786+-74.064395339974)
variable C2${dir} equal 0.5*(${C2neg}+${C2pos})
variable C25 equal 0.5*(${C2neg}+${C2pos})
variable C25 equal 0.5*(71.558116037977+${C2pos})
variable C25 equal 0.5*(71.558116037977+-71.5537799129379)
variable C3${dir} equal 0.5*(${C3neg}+${C3pos})
variable C35 equal 0.5*(${C3neg}+${C3pos})
variable C35 equal 0.5*(74.0688302480521+${C3pos})
variable C35 equal 0.5*(74.0688302480521+-74.0644946700741)
variable C4${dir} equal 0.5*(${C4neg}+${C4pos})
variable C45 equal 0.5*(${C4neg}+${C4pos})
variable C45 equal 0.5*(-2.2228885040847e-08+${C4pos})
variable C45 equal 0.5*(-2.2228885040847e-08+1.0769999107394e-08)
variable C5${dir} equal 0.5*(${C5neg}+${C5pos})
variable C55 equal 0.5*(${C5neg}+${C5pos})
variable C55 equal 0.5*(172.769300294886+${C5pos})
variable C55 equal 0.5*(172.769300294886+172.769300978061)
variable C6${dir} equal 0.5*(${C6neg}+${C6pos})
variable C65 equal 0.5*(${C6neg}+${C6pos})
variable C65 equal 0.5*(-1.04501501619858e-07+${C6pos})
variable C65 equal 0.5*(-1.04501501619858e-07+-3.32162198577986e-08)

# Delete dir to make sure it is not reused

variable dir delete
# ---- uxy Perturbation
variable dir equal 6
include displace.mod
# NOTE: This script should not need to be
# modified. See in.elastic for more info.
# Find which reference length to use

if "${dir} == 1" then    "variable len0 equal ${lx0}"
if "${dir} == 2" then    "variable len0 equal ${ly0}"
if "${dir} == 3" then    "variable len0 equal ${lz0}"
if "${dir} == 4" then    "variable len0 equal ${lz0}"
if "${dir} == 5" then    "variable len0 equal ${lz0}"
if "${dir} == 6" then    "variable len0 equal ${ly0}"
variable len0 equal ${ly0}
variable len0 equal 4.21425423749998

# Reset box and simulation parameters

clear
read_restart restart.equil remap
  triclinic box = (0.0211229 0.0211229 0.0211229) to (4.23538 4.23538 4.23538) with tilt (0 0 0)
  1 by 1 by 1 MPI processor grid
  8 atoms
include potential.mod
mass 1 24.305
mass 2 15.999

group Mg type 1
4 atoms in group Mg
group O type 2
4 atoms in group O

set group Mg charge 2.0
  4 settings made for charge
set group O charge -2.0
  4 settings made for charge

variable R_cut equal 10

pair_style buck/coul/long ${R_cut}
pair_style buck/coul/long 10
pair_coeff 1 1 0.0 0.5 0.0 ${R_cut}
pair_coeff 1 1 0.0 0.5 0.0 10
pair_coeff 1 2 821.6 0.3242 0.0 ${R_cut}
pair_coeff 1 2 821.6 0.3242 0.0 10
pair_coeff 2 2 2274.0 0.149 27.88 ${R_cut}
pair_coeff 2 2 2274.0 0.149 27.88 10

kspace_style pppm 1.0e-5

neighbor 1.0 bin
neigh_modify every 1 delay 0 check yes
# setup minimization style
min_style cg
min_modify dmax ${dmax} line quadratic
min_modify dmax 0.01 line quadratic
# setup output
thermo 1
thermo_style custom step temp pe press pxx pyy pzz pxy pxz pyz lx ly lz vol
thermo_modify norm no

# Negative deformation

variable delta equal -${up}*${len0}
variable delta equal -1e-06*${len0}
variable delta equal -1e-06*4.21425423749998
if "${dir} == 1" then    "change_box all x delta 0 ${delta} remap units box"
if "${dir} == 2" then    "change_box all y delta 0 ${delta} remap units box"
if "${dir} == 3" then    "change_box all z delta 0 ${delta} remap units box"
if "${dir} == 4" then    "change_box all yz delta ${delta} remap units box"
if "${dir} == 5" then    "change_box all xz delta ${delta} remap units box"
if "${dir} == 6" then    "change_box all xy delta ${delta} remap units box"
change_box all xy delta ${delta} remap units box
change_box all xy delta -4.21425423749998e-06 remap units box
  triclinic box = (0.0211229 0.0211229 0.0211229) to (4.23538 4.23538 4.23538) with tilt (-4.21425e-06 0 0)

# Relax atoms positions

minimize ${etol} ${ftol} ${maxiter} ${maxeval}
minimize 0 ${ftol} ${maxiter} ${maxeval}
minimize 0 1e-10 ${maxiter} ${maxeval}
minimize 0 1e-10 100 ${maxeval}
minimize 0 1e-10 100 1000
PPPM initialization ...
  G vector (1/distance) = 0.355343
  grid = 8 8 8
  stencil order = 5
  estimated absolute RMS force accuracy = 5.2236e-05
  estimated relative force accuracy = 3.62759e-06
  using double precision FFTs
  3d grid and FFT values/proc = 3375 512
Neighbor list info ...
  1 neighbor list requests
  update every 1 steps, delay 0 steps, check yes
  master list distance cutoff = 11
Memory usage per processor = 3.77377 Mbytes
Step Temp PotEng Press Pxx Pyy Pzz Pxy Pxz Pyz Lx Ly Lz Volume 
     100            0   -162.17866    -5293.142   -5293.1078   -5293.1078   -5293.2102    1.6348527 -4.2756016e-10 -5.6456371e-10    4.2142542    4.2142542    4.2142542    74.844897 
     101            0   -162.17867   -5293.1953   -5293.1869   -5293.1869   -5293.2121     1.727693 1.0112171e-09 7.3023706e-10    4.2142542    4.2142542    4.2142542    74.844897 
     102            0   -162.17867   -5293.1953   -5293.1869   -5293.1869   -5293.2121     1.727693 9.7542054e-10 7.9738333e-10    4.2142542    4.2142542    4.2142542    74.844897 
Loop time of 0.00156212 on 1 procs for 2 steps with 8 atoms

Minimization stats:
  Stopping criterion = linesearch alpha is zero
  Energy initial, next-to-last, final = 
        -162.178662696     -162.178666724     -162.178666724
  Force two-norm initial, final = 0.00150435 0.000173375
  Force max component initial, final = 0.000316743 3.64062e-05
  Final line search alpha, max atom move = 0.25 9.10155e-06
  Iterations, force evaluations = 2 9

Pair  time (%) = 0.000923872 (59.1422)
Kspce time (%) = 0.000504255 (32.2802)
Neigh time (%) = 0 (0)
Comm  time (%) = 9.89437e-05 (6.33394)
Outpt time (%) = 5.96046e-06 (0.381563)
Other time (%) = 2.90871e-05 (1.86203)

Nlocal:    8 ave 8 max 8 min
Histogram: 1 0 0 0 0 0 0 0 0 0
Nghost:    2189 ave 2189 max 2189 min
Histogram: 1 0 0 0 0 0 0 0 0 0
Neighs:    2472 ave 2472 max 2472 min
Histogram: 1 0 0 0 0 0 0 0 0 0

Total # of neighbors = 2472
Ave neighs/atom = 309
Neighbor list builds = 0
Dangerous builds = 0

# Obtain new stress tensor

variable tmp equal pxx
variable pxx1 equal ${tmp}
variable pxx1 equal -5293.18694654097
variable tmp equal pyy
variable pyy1 equal ${tmp}
variable pyy1 equal -5293.18694554813
variable tmp equal pzz
variable pzz1 equal ${tmp}
variable pzz1 equal -5293.21205268736
variable tmp equal pxy
variable pxy1 equal ${tmp}
variable pxy1 equal 1.72769300217074
variable tmp equal pxz
variable pxz1 equal ${tmp}
variable pxz1 equal 9.7542054453101e-10
variable tmp equal pyz
variable pyz1 equal ${tmp}
variable pyz1 equal 7.97383328076251e-10

# Compute elastic constant from pressure tensor

variable C1neg equal ${d1}
variable C1neg equal 74.0687308240012
variable C2neg equal ${d2}
variable C2neg equal 74.0688302139461
variable C3neg equal ${d3}
variable C3neg equal 71.5581162770832
variable C4neg equal ${d4}
variable C4neg equal 5.86821267730502e-08
variable C5neg equal ${d5}
variable C5neg equal 1.28112273456676e-07
variable C6neg equal ${d6}
variable C6neg equal 172.769300225708

# Reset box and simulation parameters

clear
read_restart restart.equil remap
  triclinic box = (0.0211229 0.0211229 0.0211229) to (4.23538 4.23538 4.23538) with tilt (0 0 0)
  1 by 1 by 1 MPI processor grid
  8 atoms
include potential.mod
mass 1 24.305
mass 2 15.999

group Mg type 1
4 atoms in group Mg
group O type 2
4 atoms in group O

set group Mg charge 2.0
  4 settings made for charge
set group O charge -2.0
  4 settings made for charge

variable R_cut equal 10

pair_style buck/coul/long ${R_cut}
pair_style buck/coul/long 10
pair_coeff 1 1 0.0 0.5 0.0 ${R_cut}
pair_coeff 1 1 0.0 0.5 0.0 10
pair_coeff 1 2 821.6 0.3242 0.0 ${R_cut}
pair_coeff 1 2 821.6 0.3242 0.0 10
pair_coeff 2 2 2274.0 0.149 27.88 ${R_cut}
pair_coeff 2 2 2274.0 0.149 27.88 10

kspace_style pppm 1.0e-5

neighbor 1.0 bin
neigh_modify every 1 delay 0 check yes
# setup minimization style
min_style cg
min_modify dmax ${dmax} line quadratic
min_modify dmax 0.01 line quadratic
# setup output
thermo 1
thermo_style custom step temp pe press pxx pyy pzz pxy pxz pyz lx ly lz vol
thermo_modify norm no

# Positive deformation

variable delta equal ${up}*${len0}
variable delta equal 1e-06*${len0}
variable delta equal 1e-06*4.21425423749998
if "${dir} == 1" then    "change_box all x delta 0 ${delta} remap units box"
if "${dir} == 2" then    "change_box all y delta 0 ${delta} remap units box"
if "${dir} == 3" then    "change_box all z delta 0 ${delta} remap units box"
if "${dir} == 4" then    "change_box all yz delta ${delta} remap units box"
if "${dir} == 5" then    "change_box all xz delta ${delta} remap units box"
if "${dir} == 6" then    "change_box all xy delta ${delta} remap units box"
change_box all xy delta ${delta} remap units box
change_box all xy delta 4.21425423749998e-06 remap units box
  triclinic box = (0.0211229 0.0211229 0.0211229) to (4.23538 4.23538 4.23538) with tilt (4.21425e-06 0 0)

# Relax atoms positions

minimize ${etol} ${ftol} ${maxiter} ${maxeval}
minimize 0 ${ftol} ${maxiter} ${maxeval}
minimize 0 1e-10 ${maxiter} ${maxeval}
minimize 0 1e-10 100 ${maxeval}
minimize 0 1e-10 100 1000
PPPM initialization ...
  G vector (1/distance) = 0.355343
  grid = 8 8 8
  stencil order = 5
  estimated absolute RMS force accuracy = 5.22361e-05
  estimated relative force accuracy = 3.6276e-06
  using double precision FFTs
  3d grid and FFT values/proc = 3375 512
Neighbor list info ...
  1 neighbor list requests
  update every 1 steps, delay 0 steps, check yes
  master list distance cutoff = 11
Memory usage per processor = 3.77377 Mbytes
Step Temp PotEng Press Pxx Pyy Pzz Pxy Pxz Pyz Lx Ly Lz Volume 
     100            0   -162.17866    -5293.142   -5293.1079   -5293.1079   -5293.2102   -1.6348527 -2.7634662e-10 -5.317901e-10    4.2142542    4.2142542    4.2142542    74.844897 
     101            0   -162.17867   -5293.1954    -5293.187    -5293.187   -5293.2121    -1.727693 -2.929887e-10 -5.0563269e-10    4.2142542    4.2142542    4.2142542    74.844897 
     102            0   -162.17867   -5293.1954    -5293.187    -5293.187   -5293.2121    -1.727693 -4.7747761e-10 -5.2554328e-10    4.2142542    4.2142542    4.2142542    74.844897 
Loop time of 0.00162387 on 1 procs for 2 steps with 8 atoms

Minimization stats:
  Stopping criterion = linesearch alpha is zero
  Energy initial, next-to-last, final = 
        -162.178662696     -162.178666724     -162.178666724
  Force two-norm initial, final = 0.00150435 0.000173375
  Force max component initial, final = 0.000316743 3.64062e-05
  Final line search alpha, max atom move = 0.25 9.10155e-06
  Iterations, force evaluations = 2 9

Pair  time (%) = 0.000929832 (57.2603)
Kspce time (%) = 0.000547647 (33.7249)
Neigh time (%) = 0 (0)
Comm  time (%) = 0.000101805 (6.26927)
Outpt time (%) = 5.96046e-06 (0.367053)
Other time (%) = 3.86238e-05 (2.37851)

Nlocal:    8 ave 8 max 8 min
Histogram: 1 0 0 0 0 0 0 0 0 0
Nghost:    2189 ave 2189 max 2189 min
Histogram: 1 0 0 0 0 0 0 0 0 0
Neighs:    2472 ave 2472 max 2472 min
Histogram: 1 0 0 0 0 0 0 0 0 0

Total # of neighbors = 2472
Ave neighs/atom = 309
Neighbor list builds = 0
Dangerous builds = 0

# Obtain new stress tensor

variable tmp equal pe
variable e1 equal ${tmp}
variable e1 equal -162.178666724373
variable tmp equal press
variable p1 equal ${tmp}
variable p1 equal -5293.19535828465
variable tmp equal pxx
variable pxx1 equal ${tmp}
variable pxx1 equal -5293.18698989606
variable tmp equal pyy
variable pyy1 equal ${tmp}
variable pyy1 equal -5293.18698890499
variable tmp equal pzz
variable pzz1 equal ${tmp}
variable pzz1 equal -5293.2120960529
variable tmp equal pxy
variable pxy1 equal ${tmp}
variable pxy1 equal -1.72769301114367
variable tmp equal pxz
variable pxz1 equal ${tmp}
variable pxz1 equal -4.77477605148706e-10
variable tmp equal pyz
variable pyz1 equal ${tmp}
variable pyz1 equal -5.25543280214938e-10

# Compute elastic constant from pressure tensor

variable C1pos equal ${d1}
variable C1pos equal -74.0643953149629
variable C2pos equal ${d2}
variable C2pos equal -74.06449452792
variable C3pos equal ${d3}
variable C3pos equal -71.5537797230354
variable C4pos equal ${d4}
variable C4pos equal 7.36105340560687e-08
variable C5pos equal ${d5}
variable C5pos equal 1.71775415112959e-08
variable C6pos equal ${d6}
variable C6pos equal 172.769301105733

# Combine positive and negative

variable C1${dir} equal 0.5*(${C1neg}+${C1pos})
variable C16 equal 0.5*(${C1neg}+${C1pos})
variable C16 equal 0.5*(74.0687308240012+${C1pos})
variable C16 equal 0.5*(74.0687308240012+-74.0643953149629)
variable C2${dir} equal 0.5*(${C2neg}+${C2pos})
variable C26 equal 0.5*(${C2neg}+${C2pos})
variable C26 equal 0.5*(74.0688302139461+${C2pos})
variable C26 equal 0.5*(74.0688302139461+-74.06449452792)
variable C3${dir} equal 0.5*(${C3neg}+${C3pos})
variable C36 equal 0.5*(${C3neg}+${C3pos})
variable C36 equal 0.5*(71.5581162770832+${C3pos})
variable C36 equal 0.5*(71.5581162770832+-71.5537797230354)
variable C4${dir} equal 0.5*(${C4neg}+${C4pos})
variable C46 equal 0.5*(${C4neg}+${C4pos})
variable C46 equal 0.5*(5.86821267730502e-08+${C4pos})
variable C46 equal 0.5*(5.86821267730502e-08+7.36105340560687e-08)
variable C5${dir} equal 0.5*(${C5neg}+${C5pos})
variable C56 equal 0.5*(${C5neg}+${C5pos})
variable C56 equal 0.5*(1.28112273456676e-07+${C5pos})
variable C56 equal 0.5*(1.28112273456676e-07+1.71775415112959e-08)
variable C6${dir} equal 0.5*(${C6neg}+${C6pos})
variable C66 equal 0.5*(${C6neg}+${C6pos})
variable C66 equal 0.5*(172.769300225708+${C6pos})
variable C66 equal 0.5*(172.769300225708+172.769301105733)

# Delete dir to make sure it is not reused

variable dir delete

# ---- Output final values
variable C11all equal ${C11}
variable C11all equal 294.045768543038
variable C22all equal ${C22}
variable C22all equal 294.045768577462
variable C33all equal ${C33}
variable C33all equal 294.045768504475
variable C12all equal 0.5*(${C12}+${C21})
variable C12all equal 0.5*(165.219814557486+${C21})
variable C12all equal 0.5*(165.219814557486+165.219814504008)
variable C13all equal 0.5*(${C13}+${C31})
variable C13all equal 0.5*(165.219814502006+${C31})
variable C13all equal 0.5*(165.219814502006+165.21981454498)
variable C23all equal 0.5*(${C23}+${C32})
variable C23all equal 0.5*(165.219814489501+${C32})
variable C23all equal 0.5*(165.219814489501+165.219814545981)
variable C44all equal ${C44}
variable C44all equal 172.769300660881
variable C55all equal ${C55}
variable C55all equal 172.769300636474
variable C66all equal ${C66}
variable C66all equal 172.76930066572
variable C14all equal 0.5*(${C14}+${C41})
variable C14all equal 0.5*(0.00216816797544794+${C41})
variable C14all equal 0.5*(0.00216816797544794+9.9008073418628e-09)
variable C15all equal 0.5*(${C15}+${C51})
variable C15all equal 0.5*(0.0021677165022993+${C51})
variable C15all equal 0.5*(0.0021677165022993+-1.21433145593996e-08)
variable C16all equal 0.5*(${C16}+${C61})
variable C16all equal 0.5*(0.00216775451914941+${C61})
variable C16all equal 0.5*(0.00216775451914941+-3.62583260170434e-08)
variable C24all equal 0.5*(${C24}+${C42})
variable C24all equal 0.5*(0.00216779549189994+${C42})
variable C24all equal 0.5*(0.00216779549189994+-3.0259789537979e-09)
variable C25all equal 0.5*(${C25}+${C52})
variable C25all equal 0.5*(0.00216806251955148+${C52})
variable C25all equal 0.5*(0.00216806251955148+7.31564853915825e-09)
variable C26all equal 0.5*(${C26}+${C62})
variable C26all equal 0.5*(0.00216784301304784+${C62})
variable C26all equal 0.5*(0.00216784301304784+-5.02719928024809e-08)
variable C34all equal 0.5*(${C34}+${C43})
variable C34all equal 0.5*(0.00216775551960069+${C43})
variable C34all equal 0.5*(0.00216775551960069+2.84677520184762e-08)
variable C35all equal 0.5*(${C35}+${C53})
variable C35all equal 0.5*(0.00216778898899861+${C53})
variable C35all equal 0.5*(0.00216778898899861+-9.52721588507945e-09)
variable C36all equal 0.5*(${C36}+${C63})
variable C36all equal 0.5*(0.00216827702389821+${C63})
variable C36all equal 0.5*(0.00216827702389821+1.29145814238693e-07)
variable C45all equal 0.5*(${C45}+${C54})
variable C45all equal 0.5*(-5.7294429667265e-09+${C54})
variable C45all equal 0.5*(-5.7294429667265e-09+1.55381879436843e-08)
variable C46all equal 0.5*(${C46}+${C64})
variable C46all equal 0.5*(6.61463304145595e-08+${C64})
variable C46all equal 0.5*(6.61463304145595e-08+1.4432453023125e-08)
variable C56all equal 0.5*(${C56}+${C65})
variable C56all equal 0.5*(7.2644907483986e-08+${C65})
variable C56all equal 0.5*(7.2644907483986e-08+-6.88588607388283e-08)

print "c11 = ${C11all} ${cunits}"
c11 = 294.045768543038 GPa
print "c22 = ${C22all} ${cunits}"
c22 = 294.045768577462 GPa
print "c33 = ${C33all} ${cunits}"
c33 = 294.045768504475 GPa
print "c12 = ${C12all} ${cunits}"
c12 = 165.219814530747 GPa
print "c13 = ${C13all} ${cunits}"
c13 = 165.219814523493 GPa
print "c23 = ${C23all} ${cunits}"
c23 = 165.219814517741 GPa
print "c44 = ${C44all} ${cunits}"
c44 = 172.769300660881 GPa
print "c55 = ${C55all} ${cunits}"
c55 = 172.769300636474 GPa
print "c66 = ${C66all} ${cunits}"
c66 = 172.76930066572 GPa
print "c14 = ${C14all} ${cunits}"
c14 = 0.00108408893812764 GPa
print "c15 = ${C15all} ${cunits}"
c15 = 0.00108385217949237 GPa
print "c16 = ${C16all} ${cunits}"
c16 = 0.0010838591304117 GPa
print "c24 = ${C24all} ${cunits}"
c24 = 0.00108389623296049 GPa
print "c25 = ${C25all} ${cunits}"
c25 = 0.00108403491760001 GPa
print "c26 = ${C26all} ${cunits}"
c26 = 0.00108389637052752 GPa
print "c34 = ${C34all} ${cunits}"
c34 = 0.00108389199367635 GPa
print "c35 = ${C35all} ${cunits}"
c35 = 0.00108388973089136 GPa
print "c36 = ${C36all} ${cunits}"
c36 = 0.00108420308485622 GPa
print "c45 = ${C45all} ${cunits}"
c45 = 4.9043724884789e-09 GPa
print "c46 = ${C46all} ${cunits}"
c46 = 4.02893917188423e-08 GPa
print "c56 = ${C56all} ${cunits}"
c56 = 1.89302337257885e-09 GPa
print "lammps_sim_done"
lammps_sim_done
