LAMMPS (10 Feb 2015)
# ---- initialize simulations
clear
units metal
dimension 3
boundary p p p
atom_style charge
atom_modify map array
# ---- create atoms
read_data /Users/eugeneragasa/pyflamestk_git/pypospack/tests/tests_integration/workflow/WorkflowLammpsThermalExpansion/param_8221/MgO_NaCl_unit.npt.T700/lammps.structure
  triclinic box = (0 0 0) to (4.2565 4.2565 4.2565) with tilt (0 0 0)
  1 by 1 by 1 MPI processor grid
  reading atoms ...
  8 atoms
# ---- define interatomic potential
include potential.mod
mass 1 24.305
mass 2 15.999

group Mg type 1
4 atoms in group Mg
group O type 2
4 atoms in group O

set group Mg charge 1.65389423724
  4 settings made for charge
set group O charge -1.65389423724
  4 settings made for charge

variable R_cut equal 10.0

pair_style buck/coul/long ${R_cut}
pair_style buck/coul/long 10
pair_coeff 1 1 0.0 0.5 0.0 ${R_cut}
pair_coeff 1 1 0.0 0.5 0.0 10
pair_coeff 1 2 1300.0678519 0.288744572517 0.0 ${R_cut}
pair_coeff 1 2 1300.0678519 0.288744572517 0.0 10
pair_coeff 2 2 40472.9144105 0.202420171096 26.2679081719 ${R_cut}
pair_coeff 2 2 40472.9144105 0.202420171096 26.2679081719 10

kspace_style pppm 1.0e-5

neighbor 1.0 bin
neigh_modify every 1 delay 0 check yes
# ---- define settings
compute eng all pe/atom
compute eatoms all reduce sum c_eng
# ---- run minimization
reset_timestep 0
fix 1 all box/relax iso 0.0 vmax 0.001
thermo 10
thermo_style custom step pe lx ly lz xy xz yz press pxx pyy pzz pxy pxz pyz c_eatoms
min_style cg
minimize 1e-25 1e-25 5000 10000
PPPM initialization ...
  G vector (1/distance) = 0.352799
  grid = 8 8 8
  stencil order = 5
  estimated absolute RMS force accuracy = 3.93787e-05
  estimated relative force accuracy = 2.7347e-06
  using double precision FFTs
  3d grid and FFT values/proc = 3375 512
Neighbor list info ...
  1 neighbor list requests
  update every 1 steps, delay 0 steps, check yes
  master list distance cutoff = 11
Memory usage per processor = 4.06549 Mbytes
Step PotEng Lx Ly Lz Xy Xz Yz Press Pxx Pyy Pzz Pxy Pxz Pyz eatoms 
       0   -110.27609       4.2565       4.2565       4.2565            0            0            0    110960.29    110960.29    110960.29    110960.29 9.3314123e-11 1.6239754e-10 5.8891323e-11   -110.27609 
      10   -110.39349     4.299065     4.299065     4.299065            0            0            0    52923.265    52923.265    52923.265    52923.265 1.8718586e-11 -3.674075e-11 -9.001309e-11   -110.39349 
      20   -110.43343      4.34163      4.34163      4.34163            0            0            0    2089.5567    2089.5567    2089.5567    2089.5567 6.9298069e-11 -1.296578e-10 -9.997383e-11   -110.43343 
      22   -110.43352     4.343513     4.343513     4.343513            0            0            0   -5.7193123   -5.7193123   -5.7193123   -5.7193123 4.586585e-11 9.062077e-11 2.6249224e-10   -110.43352 
Loop time of 0.0231249 on 1 procs for 22 steps with 8 atoms

Minimization stats:
  Stopping criterion = linesearch alpha is zero
  Energy initial, next-to-last, final = 
        -110.276087498     -110.433524975     -110.433524975
  Force two-norm initial, final = 16.0227 0.00180648
  Force max component initial, final = 16.0227 0.000859982
  Final line search alpha, max atom move = 0.00390625 3.35931e-06
  Iterations, force evaluations = 22 39

Pair  time (%) = 0.00598168 (25.8668)
Kspce time (%) = 0.00473571 (20.4788)
Neigh time (%) = 0 (0)
Comm  time (%) = 0.000736952 (3.18683)
Outpt time (%) = 4.19617e-05 (0.181456)
Other time (%) = 0.0116286 (50.2861)

Nlocal:    8 ave 8 max 8 min
Histogram: 1 0 0 0 0 0 0 0 0 0
Nghost:    2189 ave 2189 max 2189 min
Histogram: 1 0 0 0 0 0 0 0 0 0
Neighs:    2344 ave 2344 max 2344 min
Histogram: 1 0 0 0 0 0 0 0 0 0

Total # of neighbors = 2344
Ave neighs/atom = 293
Neighbor list builds = 0
Dangerous builds = 0
unfix 1
# ---- define output variables ----
variable natoms equal "count(all)"
variable tot_energy equal "c_eatoms"
variable length_x equal "lx"
variable length_y equal "ly"
variable length_z equal "lz"
variable tilt_xy equal "xy"
variable tilt_xz equal "xz"
variable tilt_yz equal "yz"
variable tot_press equal "press"
variable press_xx equal "pxx"
variable press_yy equal "pyy"
variable press_zz equal "pzz"
variable press_xy equal "pxy"
variable press_xz equal "pxz"
variable press_yz equal "pyz"

# ---- output ----
print "pypospack:output_section:begin"
pypospack:output_section:begin
print "tot_energy = ${tot_energy}"
tot_energy = -110.433524975286
print "num_atoms = ${natoms}"
num_atoms = 8
print "xx = ${length_x}"
xx = 4.34351296178449
print "yy = ${length_y}"
yy = 4.34351296178449
print "zz = ${length_z}"
zz = 4.34351296178449
print "xy = ${tilt_xy}"
xy = 0
print "xz = ${tilt_xz}"
xz = 0
print "yz = ${tilt_yz}"
yz = 0
print "tot_press = ${tot_press}"
tot_press = -5.71931225965551
print "pxx = ${press_xx}"
pxx = -5.71931225981032
print "pyy = ${press_yy}"
pyy = -5.71931225968463
print "pzz = ${press_zz}"
pzz = -5.71931225947158
print "pxy = ${press_xy}"
pxy = 4.5865850341772e-11
print "pxz = ${press_xz}"
pxz = 9.06207702771322e-11
print "pyz = ${press_yz}"
pyz = 2.62492238241466e-10
print "pypospack:output_section:done"
pypospack:output_section:done
print "pypospack:lammps_sim:done"
pypospack:lammps_sim:done
#------------------------------------------------------------------------------
# RUN THERMOSTAT
# running using an NPT Nose-Hoover style thermostat
#------------------------------------------------------------------------------
variable tempdamp equal 0.1
variable pressdamp equal 1.0
# set initial velocities
velocity all create 700 1217662 mom yes dist gaussian loop all
# fix for Nose-Hoover style thermostat
fix 20 all npt temp 700 700 0.1 aniso 0.0 0.0 1.0 drag 1.0 couple xyz
variable boxx equal lx
variable boxy equal ly
variable boxz equal lz
variable boxp equal press
variable boxt equal temp
# calculate averages every 10000 steps
reset_timestep 0
fix 21 all ave/time 10 10 100 v_boxx v_boxy v_boxz v_boxp v_boxt file lattice.out
thermo_style custom step temp pe ke etotal press lx ly lz press pxx pyy pzz pxy pxz pyz vol
thermo_modify flush yes
thermo 100
run 100000
PPPM initialization ...
  G vector (1/distance) = 0.351923
  grid = 8 8 8
  stencil order = 5
  estimated absolute RMS force accuracy = 4.10067e-05
  estimated relative force accuracy = 2.84776e-06
  using double precision FFTs
  3d grid and FFT values/proc = 3375 512
Memory usage per processor = 3.06549 Mbytes
Step Temp PotEng KinEng TotEng Press Lx Ly Lz Press Pxx Pyy Pzz Pxy Pxz Pyz Volume 
       0          700   -110.43354   0.63337471   -109.80016    8247.9541     4.343513     4.343513     4.343513    8247.9541    11650.164    9050.9854    4042.7129     3076.076   -4778.7606   -2774.6708    81.945171 
     100    310.57373   -109.99377   0.28101364   -109.71275    -13239.68    4.3684829    4.3684829    4.3684829    -13239.68   -10445.136   -4049.3769   -25224.529    1633.3527    9304.5291    2623.1301    83.366569 
     200    481.24521   -109.97367   0.43544078   -109.53823   -7572.8296    4.3668384    4.3668384    4.3668384   -7572.8296   -10979.356    11747.806   -23486.938    6676.2809    6306.3434     988.6975    83.272456 
     300    660.65406   -109.98856   0.59777368   -109.39078    17541.768    4.3634416    4.3634416    4.3634416    17541.768    22345.132    44296.544   -14016.371   -8065.4122   -6130.3291   -1664.5446    83.078283 
     400    366.65657   -109.61193   0.33175857   -109.28017    3844.2145    4.3754636    4.3754636    4.3754636    3844.2145   -9459.7954    52671.803   -31679.364   -8574.4147    15376.876   -1748.9106     83.76686 
     500    418.79372   -109.57939   0.37893336   -109.20046     9835.105    4.3761398    4.3761398    4.3761398     9835.105    14735.279    38568.721   -23798.685   -5591.2887   -3003.3482    1373.9687    83.805699 
     600    688.72944   -109.78181   0.62317687   -109.15864    12263.591    4.3714871    4.3714871    4.3714871    12263.591    12318.314    45511.178    -21038.72   -12976.925   -1652.1408   -918.68546    83.538678 
     700    683.56913   -109.77234   0.61850771   -109.15383    3428.8273    4.3725226    4.3725226    4.3725226    3428.8273    28344.433    5962.6396    -24020.59   -3923.0469    12835.739     1438.323    83.598061 
     800    584.90658   -109.68342   0.52923576   -109.15419    -20755.84    4.3864034    4.3864034    4.3864034    -20755.84    1268.3785   -28830.937   -34704.962    10362.447   -10418.115    10080.057    84.396747 
     900    874.79859   -109.93968   0.79153615   -109.14814    7334.1024    4.3569828    4.3569828    4.3569828    7334.1024    23494.588    8947.9677   -10440.249    1802.2606    3990.2664   -1872.1609    82.709905 
    1000    846.54699   -109.92876   0.76597351   -109.16278   -15286.943    4.3780236    4.3780236    4.3780236   -15286.943   -19909.839    4178.0411   -30129.033    8178.5923    11261.314    7360.3312    83.913975 
    1100    587.01636   -109.69526   0.53114474   -109.16411   -25480.752    4.3792532    4.3792532    4.3792532   -25480.752   -20237.068   -37550.517    -18654.67    13979.104    -11571.42    10921.834      83.9847 
    1200     762.7971   -109.84455   0.69019485   -109.15435    22643.286    4.3545745    4.3545745    4.3545745    22643.286    4727.5497    64348.379   -1146.0711    5137.8392    5278.4917   -4781.9213    82.572828 
    1300    842.44073   -109.92055   0.76225808    -109.1583   -18837.364    4.3866238    4.3866238    4.3866238   -18837.364   -12433.264   -15246.295   -28832.532   -8384.9724    5068.9027    5191.0114    84.409467 
    1400    403.76632   -109.52566   0.36533625   -109.16033    12004.694    4.3620701    4.3620701    4.3620701    12004.694    1398.8954    31503.494    3111.6917   -1696.6609   -11001.381    9047.4179     82.99997 
    1500    925.67512   -110.00047    0.8375703    -109.1629    227.14345    4.3693795    4.3693795    4.3693795    227.14345    14713.522    527.28992   -14559.382     2542.776    5485.4478   -3018.3704    83.417907 
    1600    791.62121   -109.87896   0.71627551   -109.16269    5933.4419    4.3732051    4.3732051    4.3732051    5933.4419    24884.633     2493.202   -9577.5093   -15519.927   -2776.2648    1311.4442    83.637213 
    1700    496.08054   -109.61709    0.4488641   -109.16822    2293.4814    4.3689845    4.3689845    4.3689845    2293.4814     15553.79   -4618.1198   -4055.2258    8588.8626   -8869.2172     4534.204    83.395286 
    1800    948.01049    -110.0163   0.85777982   -109.15852   -12226.105    4.3813518    4.3813518    4.3813518   -12226.105   -3275.4258    -10833.36   -22569.529    10239.158    1072.0589   -3232.5515    84.105494 
    1900    824.18397   -109.90096   0.74573897   -109.15522    3502.4532    4.3666016    4.3666016    4.3666016    3502.4532   -4184.0918    13422.868    1268.5828   -7811.7342    -5927.649   -319.57567    83.258905 
    2000    445.76054   -109.56797   0.40333351   -109.16463   -15440.912    4.3767294    4.3767294    4.3767294   -15440.912   -31637.787    4562.2416    -19247.19     8338.885   -8557.2373    1070.4519    83.839576 
    2100    807.76314   -109.88852   0.73088106   -109.15764    2640.9531     4.373615     4.373615     4.373615    2640.9531    893.54205    16009.003   -8979.6856    5693.5505   -2317.3338   -5190.2224    83.660729 
    2200    659.71081    -109.7558   0.59692021   -109.15888    126.76293    4.3751937    4.3751937    4.3751937    126.76293    5499.6145    4811.9238   -9931.2495   -17251.349   -4439.8445    -1223.936    83.751356 
    2300    368.07181   -109.49504   0.33303911   -109.16201    6577.0895    4.3695094    4.3695094    4.3695094    6577.0895    28148.031    4802.8546   -13219.617    136.29092   -13594.065    1391.9486    83.425348 
    2400    617.31201   -109.71913   0.55855688   -109.16058    8486.6951    4.3723918    4.3723918    4.3723918    8486.6951    33238.013    2235.3818    -10013.31   -1434.1974    1059.1102   -5099.4506    83.590556 
    2500    620.57784   -109.72305   0.56151187   -109.16154    6481.6936    4.3726254    4.3726254    4.3726254    6481.6936    23958.182    6486.3471   -10999.448   -11580.842   -1682.3234    566.96386    83.603953 
    2600     656.6307   -109.75448   0.59413325   -109.16034    2061.1872    4.3723181    4.3723181    4.3723181    2061.1872    18671.077   -2760.2126   -9727.3029    6074.3249   -10503.135   -1795.7316    83.586332 
    2700    827.43104   -109.90541     0.748677   -109.15673   -12584.893    4.3779197    4.3779197    4.3779197   -12584.893   -26807.899     491.0505    -11437.83    6349.9821    9446.0768   -4873.8403    83.907999 
    2800    702.01079   -109.79068   0.63519412   -109.15549    10325.914    4.3648601    4.3648601    4.3648601    10325.914    26028.283     4582.522    366.93821    2658.6461    1640.5271    1908.3498     83.15933 
    2900    699.45441   -109.79182   0.63288105   -109.15894   -10551.703    4.3778787    4.3778787    4.3778787   -10551.703    11938.612   -21402.101    -22191.62    12692.229   -2046.7951   -994.27258    83.905641 
    3000    488.46357   -109.60451    0.4419721   -109.16253   -2571.0284    4.3705102    4.3705102    4.3705102   -2571.0284    14937.931   -8698.8455   -13952.171    16614.624    16460.599   -971.97858    83.482688 
    3100     649.6495   -109.74762   0.58781652    -109.1598    16242.752    4.3643166    4.3643166    4.3643166    16242.752    64890.744   -11176.191   -4986.2975   -2875.9238    6048.5113    3044.6373    83.128272 
    3200     830.4211   -109.91011   0.75138247   -109.15873   -21352.034    4.3824438    4.3824438    4.3824438   -21352.034    -13155.87   -24593.029   -26307.203    12087.362   -1989.6311      2186.75    84.168401 
    3300    496.62384     -109.609   0.44935568   -109.15964    3768.3089    4.3605763    4.3605763    4.3605763    3768.3089    3760.7538    4631.5656    2912.6072    10123.286    22841.303   -1676.0199    82.914723 
    3400    903.77041   -109.98038   0.81775046   -109.16263   -2051.3278    4.3705237    4.3705237    4.3705237   -2051.3278    16176.118   -9799.5265   -12530.575   -487.09002    2676.4501    6621.4299     83.48346 
    3500    889.70203   -109.96769   0.80502109   -109.16267   -5836.1239    4.3746492    4.3746492    4.3746492   -5836.1239    18701.709   -17856.549   -18353.532   -2825.2022   -2752.2358    2731.5106    83.720095 
    3600    339.92624   -109.47279    0.3075724   -109.16522    21431.619     4.357746     4.357746     4.357746    21431.619    46709.682    9958.6967    7626.4778    1664.9111     22417.17   -1772.3552    82.753381 
    3700    766.71253   -109.85509   0.69373761   -109.16135    -12328.28    4.3846425    4.3846425    4.3846425    -12328.28    16199.716   -24754.368   -28430.188   -6892.1684   -4434.8176    12519.066    84.295148 
    3800    815.79623   -109.89474   0.73814958   -109.15659    7256.1463    4.3639263    4.3639263    4.3639263    7256.1463    20695.517      12586.5   -11513.579   -5494.5473    2266.8059   -1669.2842    83.105969 
    3900    408.52443   -109.53318   0.36964149   -109.16354    5363.8619    4.3620994    4.3620994    4.3620994    5363.8619   -18025.754    31430.333    2687.0068      9667.84    15813.359    1966.8667    83.001641 
    4000    756.63432   -109.84064   0.68461864   -109.15602   -15711.859    4.3858704    4.3858704    4.3858704   -15711.859    -10302.44    1122.5575   -37955.695   -10006.905   -7318.7277    12929.038    84.365983 
    4100    862.31979   -109.93245   0.78024506   -109.15221    9209.5782     4.361073     4.361073     4.361073    9209.5782   -996.60161    34007.843   -5382.5069    11763.396    3671.7536   -5651.2732    82.943063 
    4200    479.95167   -109.59507   0.43427035    -109.1608    1021.9385    4.3686491    4.3686491    4.3686491    1021.9385   -9198.6317    17808.891   -5544.4436    8299.7487    13489.943    5726.2095    83.376084 
    4300    753.61455   -109.83784   0.68188628   -109.15595   -14038.871     4.384435     4.384435     4.384435   -14038.871    2898.3315   -5712.6441   -39302.301    5204.1283   -13622.568     8712.466     84.28318 
    4400    653.92482   -109.74895   0.59168492   -109.15726    21397.718    4.3605063    4.3605063    4.3605063    21397.718    35758.148    31844.104   -3409.0983    13398.046   -189.28365   -1500.3473    82.910732 
    4500     485.6892   -109.60641   0.43946179   -109.16694    14051.814    4.3706214    4.3706214    4.3706214    14051.814    59456.631   -7374.0294   -9927.1611    7565.2898    6868.8097    10026.591    83.489061 
    4600    515.84401   -109.62465    0.4667465    -109.1579   -10571.882    4.3934292    4.3934292    4.3934292   -10571.882    21093.506   -16246.704   -36562.448    1814.4952   -17854.721    7867.0859    84.802939 
    4700    728.29589    -109.8052   0.65897743   -109.14623    26496.804    4.3537822    4.3537822    4.3537822    26496.804    35758.678    22579.536      21152.2    8688.2799    -566.2918    430.48256    82.527768 
    4800    730.02779   -109.81919   0.66054449   -109.15865   -13254.754    4.3755462    4.3755462    4.3755462   -13254.754   -12650.442   -14971.946   -12141.875    4907.0224    2091.0412    18765.737    83.771601 
    4900    761.02945   -109.83932   0.68859544   -109.15072   -17111.975    4.3866427    4.3866427    4.3866427   -17111.975    -27133.56    -2451.786   -21750.579   -9273.4193   -16601.028    2128.8498     84.41056 
    5000    806.72864   -109.87349   0.72994503   -109.14354    16343.394     4.354782     4.354782     4.354782    16343.394     7998.377    12933.644     28098.16    5326.6316   -406.89975    7253.1526    82.584637 
    5100    571.36951     -109.676   0.51698714   -109.15901   -4803.1961     4.374614     4.374614     4.374614   -4803.1961    14154.743   -19364.411   -9199.9198    -3745.589    13419.457    20083.929    83.718071 
    5200      549.901   -109.65577   0.49756198   -109.15821    2689.5775     4.380365     4.380365     4.380365    2689.5775    21483.754   -8535.7563   -4879.2655   -6589.4441     -9218.81   -1464.7755    84.048681 
    5300    698.98955   -109.79107   0.63246044   -109.15861    15391.088    4.3584602    4.3584602    4.3584602    15391.088     33761.48   -1850.0445    14261.828   -7250.4735    4992.5026    10944.235    82.794076 
    5400    612.89656   -109.72119   0.55456169   -109.16662    11500.557    4.3680697    4.3680697    4.3680697    11500.557    56852.144   -10498.304   -11852.169    837.32424    4506.0178     14216.31    83.342912 
    5500    651.47466   -109.74864   0.58946796   -109.15917   -20849.934    4.3879848    4.3879848    4.3879848   -20849.934   -26545.951    -15425.67   -20578.181   -13063.958   -6963.0578   -2344.8904    84.488063 
    5600    689.43876    -109.7768   0.62381868   -109.15298    13953.043    4.3530965    4.3530965    4.3530965    13953.043    32742.479    8309.6823    806.96835     -9162.11   -8511.9973    10087.099    82.488782 
    5700    882.12686   -109.95787   0.79816692    -109.1597   -4770.5728    4.3647464    4.3647464    4.3647464   -4770.5728    5926.8306    479.18724   -20717.736    6221.7147    8479.9033    14110.686    83.152832 
    5800    562.46572   -109.66897    0.5089308   -109.16003   -19181.906    4.3842492    4.3842492    4.3842492   -19181.906   -24820.465   -3718.8259   -29006.426   -8293.9796       -13492   -2216.6948    84.272462 
    5900    613.98796   -109.71051   0.55554921   -109.15496    7692.7627    4.3579076    4.3579076    4.3579076    7692.7627    34298.491    6783.2666   -18003.469   -112.96944   -6108.3623    13982.543    82.762589 
    6000    712.36914   -109.79904   0.64456657   -109.15447    821.39735    4.3716246    4.3716246    4.3716246    821.39735    31542.261   -4101.1419   -24976.927    9076.5721    6868.6845    9005.5404     83.54656 
    6100    697.22346   -109.78684   0.63086244   -109.15598   -4773.9196    4.3679631    4.3679631    4.3679631   -4773.9196    1376.8117    1808.2231   -17506.794   -2661.4318   -15236.936   -2761.3628    83.336809 
    6200    549.38347   -109.66039   0.49709371    -109.1633   -6818.0609    4.3675768    4.3675768    4.3675768   -6818.0609    33395.525   -25461.391   -28388.316    7.9029332   -1758.5835    20192.568    83.314704 
    6300    895.26237   -109.97171   0.81005221   -109.16166    9768.8433    4.3606103    4.3606103    4.3606103    9768.8433    32561.929    4976.9373   -8232.3366    11838.333   -557.96805    5489.3863    82.916668 
    6400    808.20585   -109.90263   0.73128164   -109.17135   -14338.387    4.3727717    4.3727717    4.3727717   -14338.387   -4428.4656   -13386.345   -25200.351   -12026.174    -5718.528    936.94625    83.612344 
    6500    529.17027   -109.64694   0.47880438   -109.16814    -22565.34     4.375915     4.375915     4.375915    -22565.34    3286.2692    -33045.06   -37937.229   -1163.5981   -10051.363    27116.501    83.792785 
    6600    1065.2892   -110.11655   0.96389602   -109.15265    18210.748    4.3453613    4.3453613    4.3453613    18210.748    31036.118    9585.1968    14010.931    835.46807    9918.0234   -3255.4921    82.049829 
    6700    458.00746   -109.57985   0.41441477   -109.16544   -15052.525    4.3826774    4.3826774    4.3826774   -15052.525     12153.13   -26644.582   -30666.123   -822.04884   -12517.577    11118.945    84.181857 
    6800    572.01597   -109.67987   0.51757207    -109.1623   -11165.793    4.3679953    4.3679953    4.3679953   -11165.793    27844.548   -34099.563   -27242.366    -7093.988   -400.01074    18857.039    83.338658 
    6900    792.31613   -109.86902   0.71690428   -109.15212     24944.06    4.3534828    4.3534828    4.3534828     24944.06    45817.642    12447.769    16566.769    11222.673    3330.5371    -8253.601    82.510744 
    7000    572.36794   -109.67693   0.51789054   -109.15904   -18396.348    4.3808453    4.3808453    4.3808453   -18396.348   -4306.1448   -24106.022   -26776.878    4773.4823    -8138.708    21683.024     84.07633 
    7100    650.16729   -109.74418   0.58828503   -109.15589    2342.9842    4.3629663    4.3629663    4.3629663    2342.9842     20540.21   -4489.7722   -9021.4852   -5301.1667   -2552.7911    6034.2354    83.051134 
    7200    930.33739   -109.99572   0.84178882   -109.15394   -481.66316    4.3642587    4.3642587    4.3642587   -481.66316    2279.4127   -11044.422    7320.0201    19485.907   -689.18627    -4418.265    83.124962 
    7300    586.15686   -109.68928   0.53036705   -109.15891   -3882.7842    4.3713757    4.3713757    4.3713757   -3882.7842    16943.169   -11685.848   -16905.673   -543.35277   -5775.9742    23056.394    83.532291 
    7400     741.8994   -109.82975   0.67128617   -109.15846    4467.9339    4.3680243    4.3680243    4.3680243    4467.9339     29189.02     -6224.72   -9560.4984    261.16466   -10634.274    45.321513    83.340317 
    7500    803.08125   -109.88506   0.72664479   -109.15841    3605.2739    4.3653144    4.3653144    4.3653144    3605.2739    29120.947   -18824.074    518.94897    1177.2397    5169.9077    4435.1956    83.185301 
    7600    347.41313   -109.47847    0.3143467   -109.16412    18038.803    4.3672219    4.3672219    4.3672219    18038.803    64701.185   -185.07853   -10399.696    1142.0061   -13018.658    20161.087    83.294393 
    7700    977.46311    -110.0413   0.88442916   -109.15687   -10920.247    4.3748093    4.3748093    4.3748093   -10920.247   -9080.0994   -19482.273   -4198.3702   -6115.4176   -3594.4065   -4249.7499    83.729284 
    7800    510.14756   -109.62305   0.46159223   -109.16146    14285.754     4.354803     4.354803     4.354803    14285.754    32318.786   -13366.431    23904.907    12706.502    2381.0077    13422.821    82.585828 
    7900    662.65793   -109.76972   0.59958682   -109.17013   -10696.027    4.3698631    4.3698631    4.3698631   -10696.027   -6994.8415   -16222.934   -8870.3041      1313.56   -3297.7881    17269.495     83.44561 
    8000    911.57219   -109.98088   0.82480968   -109.15607   -16085.823    4.3833562    4.3833562    4.3833562   -16085.823   -18784.188   -17870.241    -11603.04   -455.05867   -3364.0784   -6359.7222    84.220978 
    8100    553.44738   -109.65482   0.50077082   -109.15405    5896.7177    4.3533154    4.3533154    4.3533154    5896.7177    14154.449   -11611.693    15147.397    5209.5125    9511.4729    22557.238    82.501224 
    8200    593.36786   -109.69982   0.53689171   -109.16293   -1059.4852    4.3715067    4.3715067    4.3715067   -1059.4852    18262.535   -3909.8453   -17531.145   -70.352814   -1987.6914    12716.126    83.539805 
    8300    927.52647   -109.99433   0.83924544   -109.15509   -9081.0047    4.3782111    4.3782111    4.3782111   -9081.0047    2797.1725   -17884.932   -12155.255    920.33591   -4977.7285     -7332.04    83.924755 
    8400    495.01703    -109.6051   0.44790181    -109.1572    11036.408    4.3558646    4.3558646    4.3558646    11036.408    35670.929    1408.5458   -3970.2509    2496.0822    5235.6965     22575.36    82.646243 
    8500    621.51997   -109.72295   0.56236433   -109.16058   -2997.4142     4.374535     4.374535     4.374535   -2997.4142    14735.712   -13766.289   -9961.6658    2607.3258   -8972.3138    2883.5437    83.713537 
    8600    866.50234   -109.93989   0.78402953   -109.15586     3276.823    4.3702434    4.3702434    4.3702434     3276.823    12895.832   -9312.2859     6246.923   -4390.1914   -2051.7098   -11576.198    83.467401 
    8700    527.53682   -109.63677    0.4773264   -109.15945    13592.743    4.3606558    4.3606558    4.3606558    13592.743    26309.303    2937.5878    11531.337    8369.9991   -4615.8273     20233.58    82.919261 
    8800    801.52942   -109.88265   0.72524066   -109.15741    -1520.808    4.3724898    4.3724898    4.3724898    -1520.808   -4808.2729   -13679.128    13924.977   -4487.9195   -25.654576   -4336.5008    83.596176 
    8900    664.64797   -109.75862   0.60138745   -109.15723    3377.7356    4.3701384    4.3701384    4.3701384    3377.7356   -1551.2174   -3224.7715    14909.196    2746.7953   -5609.7422    -8619.286    83.461381 
    9000    737.21275   -109.82305   0.66704559   -109.15601    2021.8826    4.3623792    4.3623792    4.3623792    2021.8826   -1776.9144   -3223.6844    11066.247    5495.7581    -1008.443      20372.6    83.017612 
    9100    776.05848   -109.86137   0.70219402   -109.15917   -3668.4412    4.3672907    4.3672907    4.3672907   -3668.4412    -1487.359   -9102.3269   -415.63774   -1706.3375    5085.8922   -4338.8918    83.298329 
    9200    600.71793   -109.70707   0.54354221   -109.16353   -4015.4657    4.3692117    4.3692117    4.3692117   -4015.4657   -3726.7743    9178.1897   -17497.812    4460.8465   -1098.6407   -13610.479    83.408296 
    9300     923.0432   -109.99358   0.83518889    -109.1584    -3242.205    4.3673498    4.3673498    4.3673498    -3242.205    -4754.616   -10989.616    6017.6174    4297.1043    3090.8486    13225.402    83.301715 
    9400    729.83903   -109.81996   0.66037369   -109.15959   -8582.1258    4.3690733    4.3690733    4.3690733   -8582.1258   -16223.903   -4975.1978   -4547.2768    4138.6859    3267.2931   -10992.179    83.400374 
    9500    529.81698   -109.64107   0.47938954   -109.16169    3837.6584    4.3657997    4.3657997    4.3657997    3837.6584   -2810.1952    11580.787    2742.3831     1731.489   -926.47921   -16754.279    83.213044 
    9600    916.47743   -109.98501   0.82924803   -109.15576    2683.4163    4.3708008    4.3708008    4.3708008    2683.4163   -13545.328   -17383.053     38978.63    6496.6014    486.58579    10157.994    83.499341 
    9700    717.55545   -109.81132   0.64925925   -109.16206    3444.1778    4.3608742    4.3608742    4.3608742    3444.1778   -2198.1578    5027.6907    7503.0006   -1804.1925     3183.455   -17722.008    82.931723 
    9800    381.37903   -109.51544   0.34507977   -109.17036    4343.8065    4.3680916    4.3680916    4.3680916    4343.8065    -4862.859    3019.1143    14875.164    4723.1532   -7538.5877   -13807.202    83.344168 
    9900    1142.0117   -110.18864    1.0333162   -109.15532   -14471.532    4.3737855    4.3737855    4.3737855   -14471.532   -18701.584   -24085.045     -627.968    7968.1544    2784.2033    4859.9663    83.670513 
   10000    483.25165   -109.59654   0.43725625   -109.15928    14369.795    4.3574098    4.3574098    4.3574098    14369.795    5538.6704    23633.221    13937.494   -5089.8569    710.59984   -16628.845     82.73423 
   10100    604.16857   -109.70889   0.54666442   -109.16222   -9803.7998    4.3716605    4.3716605    4.3716605   -9803.7998   -12551.434    -6716.294   -10143.672    8167.1651   -3751.1486   -7755.7783    83.548623 
   10200    904.55798   -109.97648   0.81846307   -109.15801      11354.5    4.3640067    4.3640067    4.3640067      11354.5    8244.0318   -3853.6175    29673.086    375.45242    1936.1799    9229.0929    83.110565 
   10300      644.692   -109.74676   0.58333087   -109.16343    13114.585    4.3586008    4.3586008    4.3586008    13114.585    3334.8795    17904.046    18104.831    920.03692   -1350.9199   -11291.018    82.802087 
   10400    514.55809   -109.62904   0.46558297   -109.16346    -7628.362    4.3788381    4.3788381    4.3788381    -7628.362   -13705.265   -17244.148    8064.3272    2573.1579     2021.133   -11141.312    83.960816 
   10500    990.06857   -110.05078   0.89583485   -109.15494     8192.155    4.3559596    4.3559596    4.3559596     8192.155    1584.0724    9309.3397    13683.053   -5176.6342   -6615.3492    13604.872    82.651651 
   10600    592.28702   -109.69901   0.53591374    -109.1631    281.09658     4.364037     4.364037     4.364037    281.09658    2706.8186    6946.8166   -8810.3455    2053.3987    7307.8518   -11116.979    83.112295 
   10700    726.00433   -109.81648   0.65690397   -109.15957   -16959.313    4.3742482    4.3742482    4.3742482   -16959.313   -23812.738   -15966.188   -11099.013   -3546.8936   -3665.3442   -12488.684    83.697074 
   10800    665.09019   -109.75878   0.60178758   -109.15699    17277.342    4.3541798    4.3541798    4.3541798    17277.342    21660.728    11370.213    18801.086    3180.2798   -3093.6025    22250.648    82.550382 
   10900    647.44773    -109.7466   0.58582432   -109.16078   -9702.1368     4.371855     4.371855     4.371855   -9702.1368   -5830.0388   -20140.852   -3135.5195   -1655.0964    7872.9187   -3744.0396    83.559773 
   11000     722.4929   -109.80983   0.65372676    -109.1561    1184.6022    4.3668613    4.3668613    4.3668613    1184.6022   -8030.9285   -3217.3177    14802.053    -2761.963   -4694.5274   -6632.1289    83.273766 
   11100    679.57024   -109.77218   0.61488944   -109.15729    3792.3634     4.362424     4.362424     4.362424    3792.3634     5825.431   -6544.8651    12096.524    5319.7374    4129.2273     28229.46    83.020168 
   11200    880.82474   -109.95325   0.79698873   -109.15626   -13421.257    4.3686696    4.3686696    4.3686696   -13421.257   -7181.1336   -21098.024   -11984.614   -3443.0536   -438.89658   -2226.9964    83.377257 
   11300    653.81405   -109.75163    0.5915847   -109.16005    9811.7487    4.3592533    4.3592533    4.3592533    9811.7487   -3024.2285    7088.0269    25371.448    1719.1536    885.30852   -4619.4975    82.839282 
   11400    639.69857   -109.74411   0.57881271    -109.1653   -20817.496    4.3725104    4.3725104    4.3725104   -20817.496   -3821.4128   -38656.335   -19974.739    1278.7365    185.11225    36274.102    83.597356 
   11500    690.31435   -109.78373   0.62461093   -109.15911    8627.9257    4.3635655    4.3635655    4.3635655    8627.9257    251.71952   -10460.564    36092.621   -4118.1933    1645.2594   -4184.8577    83.085359 
   11600    753.62827   -109.84202   0.68189869   -109.16012    -946.2905     4.360444     4.360444     4.360444    -946.2905   -9573.0341   -4760.7646    11494.927    3126.0353    35.746324   -904.52567    82.907182 
   11700    384.94608   -109.51099    0.3483073   -109.16268   -14119.684    4.3779982    4.3779982    4.3779982   -14119.684   -842.84981   -44571.962    3055.7599    1683.9242    1121.8896    36492.519    83.912517 
   11800    1169.9513   -110.21197    1.0585965   -109.15338     4607.878    4.3545851    4.3545851    4.3545851     4607.878   -1174.5644   -1326.4401    16324.639   -1590.9123    685.84711   -8024.4219    82.573436 
   11900    569.80938    -109.6838    0.5155755   -109.16823    4764.1551    4.3602826    4.3602826    4.3602826    4764.1551    3426.4313   -16896.538    27762.572    14.285281   -4759.6947    16626.763    82.897976 
   12000    387.46547   -109.52131    0.3505869   -109.17073   -18001.839    4.3797628    4.3797628    4.3797628   -18001.839    1426.6072   -53172.288   -2259.8368    1047.5362    4957.6655    36068.782     84.01402 
   12100    1166.5391   -110.20849    1.0555091   -109.15298     16691.04    4.3539184    4.3539184    4.3539184     16691.04   -159.83621    6269.0085    43963.948    6032.8484   -10574.747   -10935.807    82.535516 
   12200    443.79164   -109.56911     0.401552   -109.16756   -470.27201    4.3649553    4.3649553    4.3649553   -470.27201    20501.636   -26908.577    4996.1247   -3852.1268     1996.856    32361.299    83.164772 
   12300    565.74973   -109.67499   0.51190225   -109.16309   -21652.538    4.3760195    4.3760195    4.3760195   -21652.538   -3335.5203   -42405.647   -19216.448    6084.5168     -989.791    24552.343    83.798789 
   12400    995.37199   -110.05226   0.90063349   -109.15162    17228.456     4.353448     4.353448     4.353448    17228.456    12657.506    11570.037    27457.824    1244.2839   -5628.6316   -14946.094    82.508763 
   12500    564.58179   -109.67448   0.51084547   -109.16364   -15567.772    4.3705383    4.3705383    4.3705383   -15567.772    2602.6303   -33015.559   -16290.387    1088.3245    8151.4179    33593.764    83.484294 
   12600     504.8024   -109.61834   0.45675582   -109.16159    1609.9144    4.3706615    4.3706615    4.3706615    1609.9144    9688.7263   -15308.668    10449.685    9477.4838   -6705.4948    7698.0904    83.491355 
   12700    971.27641   -110.03146   0.87883131   -109.15263    4275.2986    4.3593813    4.3593813    4.3593813    4275.2986    4230.6855   -1387.4171    9982.6274   -6063.7475    10463.358   -16012.897    82.846578 
   12800    428.97908   -109.54983   0.38814929   -109.16168   -4927.3871     4.368255     4.368255     4.368255   -4927.3871    21887.002   -25968.931   -10700.232      5966.65    1557.3951    34974.069     83.35352 
   12900    787.16907   -109.87152   0.71224712   -109.15928    -5517.145    4.3646152    4.3646152    4.3646152    -5517.145    6718.7134   -11501.105   -11769.043    2820.6776    1269.0522   -327.51891    83.145332 
   13000    684.19887   -109.77737   0.61907751   -109.15829    -4505.023    4.3707715    4.3707715    4.3707715    -4505.023    14232.255    -24879.66   -2867.6633    1906.4295    7299.2299   -10300.643    83.497659 
   13100    706.02992   -109.79605   0.63883071   -109.15722   -8814.5454    4.3657618    4.3657618    4.3657618   -8814.5454    25591.436   -29005.798   -23029.274    436.89077   -7888.3772    33673.969    83.210877 
   13200    704.81893   -109.79411   0.63773498   -109.15638    7084.3476    4.3620775    4.3620775    4.3620775    7084.3476    14723.354   -6492.7507     13022.44    2651.1739    4889.8249   -7338.3497    83.000387 
   13300    693.13341   -109.78465   0.62716167   -109.15749   -17989.698    4.3760711    4.3760711    4.3760711   -17989.698    9786.5919     -36034.8   -27720.887    3299.5434   -5706.9659   -3349.8736    83.801751 
   13400    686.47632   -109.77727    0.6211382   -109.15613    15212.503    4.3565756    4.3565756    4.3565756    15212.503    37799.484   -6852.2084    14690.233   -4822.5896   -7200.2668      19958.3    82.686722 
   13500    707.44128   -109.80194   0.64010774   -109.16183   -6761.6769    4.3706518    4.3706518    4.3706518   -6761.6769   -7600.7733   -13884.096    1199.8389    8783.8629   -5280.8659   -12356.122    83.490801 
   13600     425.8624   -109.54512   0.38532925   -109.15979    388.79649    4.3744872    4.3744872    4.3744872    388.79649    17216.387   -24233.146    8183.1486   -6512.7782   -8388.8072   -9485.1661    83.710792 
   13700    851.33315   -109.92128   0.77030412   -109.15097      17620.8    4.3538429    4.3538429    4.3538429      17620.8    25220.288    8760.0446    18882.068    517.64786    787.84175    10534.081    82.531218 
   13800    362.67081   -109.48873   0.32815217   -109.16057   -12739.401    4.3811818    4.3811818    4.3811818   -12739.401   -13167.819   -19597.431   -5452.9524    3586.8531   -10446.406   -17626.235    84.095704 
   13900    671.18085   -109.76355   0.60729854   -109.15625    985.32215    4.3639848    4.3639848    4.3639848    985.32215    20941.582   -5984.3825   -12001.233   -7666.4708    4950.3465   -15907.299     83.10931 
   14000    879.30245   -109.94839   0.79561133   -109.15278    14206.704    4.3601154    4.3601154    4.3601154    14206.704    12584.161    11658.589    18377.362    372.24535   -6012.0592    8559.0948    82.888436 
   14100    513.97028   -109.62647   0.46505111   -109.16142   -16233.135    4.3770077    4.3770077    4.3770077   -16233.135   -13514.394    -14954.54   -20230.473     2820.384   -903.46556   -16574.434    83.855572 
   14200    710.45426   -109.79894   0.64283394    -109.1561    10761.301    4.3663983    4.3663983    4.3663983    10761.301    20687.688   -1079.1529    12675.368   -3456.8595    3259.2348   -9603.5419    83.247281 
   14300    1068.0949   -110.12035   0.96643473   -109.15391    1215.0042    4.3625357    4.3625357    4.3625357    1215.0042   -10343.059    4858.3275    9129.7444   -350.98225   -8735.8905    10311.212    83.026546 
   14400    303.11614   -109.44416   0.27426585   -109.16989    4661.3369    4.3613633    4.3613633    4.3613633    4661.3369     7971.827   -7047.7604    13059.944    8469.5834   -3176.1554   -16412.433    82.959628 
   14500    746.74905   -109.84345   0.67567423   -109.16778   -6106.4563    4.3742685    4.3742685    4.3742685   -6106.4563    4822.3409   -22994.951   -146.75842   -4126.3124   -6905.0703    -11477.91    83.698237 
   14600     874.3294   -109.94985   0.79111162   -109.15873    10404.243    4.3618413    4.3618413    4.3618413    10404.243    4727.8093    3684.8108    22800.108    7271.8705    2231.4144    9309.1016    82.986905 
   14700    363.79963   -109.49433   0.32917355   -109.16516   -6003.8068    4.3651159    4.3651159    4.3651159   -6003.8068    1533.6328   -13727.696   -5817.3569    2907.7171   -10620.746   -23624.415    83.173953 
   14800    877.68261   -109.95029   0.79414567   -109.15615   -12611.851    4.3731897    4.3731897    4.3731897   -12611.851   -2477.5413   -20949.597   -14408.416    2416.8012    1479.7435   -7477.5818    83.636329 
   14900    799.31055   -109.87873   0.72323298   -109.15549    13765.524    4.3558652    4.3558652    4.3558652    13765.524    15421.144    1658.9016    24216.527    6125.1623    4158.7787    14226.909     82.64628 
   15000    523.87486   -109.63997   0.47401298   -109.16595   -9708.8729    4.3710893    4.3710893    4.3710893   -9708.8729   -3054.3088   -24481.444   -1590.8655    3105.1995      -5837.8   -27960.285    83.515877 
   15100    744.56237   -109.83175   0.67369568   -109.15805    2948.0277    4.3696802    4.3696802    4.3696802    2948.0277    5034.3466   -21738.039    25547.776    2711.0155    8638.1139    876.07367     83.43513 
   15200    580.13187   -109.68367    0.5249155   -109.15875    8008.4669    4.3631196    4.3631196    4.3631196    8008.4669    20024.386    -8714.575    12715.589    1697.7846    -142.8621     11079.55    83.059888 
   15300    621.72909   -109.71993   0.56255354   -109.15737   -11445.127     4.375352     4.375352     4.375352   -11445.127   -698.39527   -23017.731   -10619.255    6644.0565    1120.5644   -23444.975     83.76045 
   15400    818.45799   -109.89423   0.74055798   -109.15367     464.7851    4.3640262    4.3640262    4.3640262     464.7851    15764.937   -15130.257    759.67477   -310.12976    365.59153    19172.844    83.111676 
   15500    655.68761   -109.75084   0.59327993   -109.15756    1610.9902    4.3646828    4.3646828    4.3646828    1610.9902    17564.394   -10370.286   -2361.1378    2883.2467    -3441.445    13903.622      83.1492 
   15600    748.84577   -109.83445   0.67757139   -109.15688    3380.1229    4.3685576    4.3685576    4.3685576    3380.1229   -4923.0105   -14827.881     29891.26    4715.2746   -3392.4115   -15471.374    83.370843 
   15700    580.18594   -109.68395   0.52496443   -109.15898    6720.9755    4.3680121    4.3680121    4.3680121    6720.9755    14317.013   -25755.895    31601.808     314.0306   -3823.4425     27212.71    83.339619 
   15800     675.8717   -109.76881   0.61154292   -109.15727    6381.8508    4.3675307    4.3675307    4.3675307    6381.8508     12525.96   -15865.745    22485.337     660.6958   -1398.6538    7680.4959    83.312067 
   15900      926.069   -109.99228    0.8379267   -109.15436   -2188.9275    4.3627564    4.3627564    4.3627564   -2188.9275    2438.8008   -16820.926    7815.3427    3132.4732   -7976.6875    -11231.83    83.039152 
   16000    466.41299   -109.58568   0.42202027   -109.16366   -9320.3478    4.3668387    4.3668387    4.3668387   -9320.3478    17895.418   -31722.192   -14134.269    973.28182   -644.49314    36825.778    83.272474 
   16100    927.32887   -109.99659   0.83906665   -109.15752   -2819.8688    4.3687387    4.3687387    4.3687387   -2819.8688   -1157.1456   -18629.432    11326.971    5308.1261    1917.6358   -2831.0054    83.381211 
   16200    664.31529   -109.76058   0.60108643   -109.15949   -8741.8678    4.3711409    4.3711409    4.3711409   -8741.8678   -11841.426   -32579.701    18195.523    4950.1961   -4897.2514    4764.3879     83.51883 
   16300    365.69795     -109.495   0.33089119   -109.16411    4038.0598    4.3583763    4.3583763    4.3583763    4038.0598    26197.205    -32347.11    18264.084   -4159.3913    1971.8428    38724.955    82.789293 
   16400    1034.2151   -110.09371    0.9357796   -109.15793    926.62724    4.3682264    4.3682264    4.3682264    926.62724   -7599.1414   -16400.795    26779.818    4858.5895   -94.848419   -7752.4273    83.351881 
   16500    701.10148   -109.79937   0.63437135     -109.165   -16725.949    4.3715997    4.3715997    4.3715997   -16725.949   -3751.7961    -34742.43    -11683.62    2309.0718   -1905.5411    24787.517    83.545136 
   16600    563.09301   -109.67409   0.50949839   -109.16459    2741.0302    4.3516148    4.3516148    4.3516148    2741.0302     26104.49   -20245.054    2363.6546   -1194.4941    4604.5892    34062.423    82.404575 
   16700    914.12356   -109.98771   0.82711821   -109.16059   -3018.7129    4.3774783    4.3774783    4.3774783   -3018.7129   -17512.097   -21075.611    29531.569    3537.1242   -2775.8453   -14734.974    83.882623 
   16800    558.88461   -109.67024   0.50569054   -109.16455   -13141.543    4.3706961    4.3706961    4.3706961   -13141.543   -2077.7624   -32019.441   -5327.4268   -812.29608    4415.6346    28710.367    83.493341 
   16900    483.98588   -109.59527    0.4379206   -109.15735    21902.547    4.3436546    4.3436546    4.3436546    21902.547    29423.606    2329.4552     33954.58   -1.0511996   -6445.2879    17435.425    81.953188 
   17000    943.46182    -110.0106   0.85366408   -109.15694   -16794.798     4.380366     4.380366     4.380366   -16794.798   -27194.579   -13109.903   -10079.912    1473.2678    5349.9226   -18682.964    84.048741 
   17100    546.85756   -109.65479   0.49480821   -109.15998   -9591.4795    4.3709274    4.3709274    4.3709274   -9591.4795   -3881.4263    -6304.838   -18588.174    1268.3682    4814.9455    32635.974    83.506598 
   17200    758.51524   -109.83832   0.68632053     -109.152    13363.042    4.3454198    4.3454198    4.3454198    13363.042    23485.568    3208.7465    13394.813   -759.49683   -8780.9735    11610.334    82.053144 
   17300    731.28198   -109.82107    0.6616793   -109.15939   -6601.5072    4.3763521    4.3763521    4.3763521   -6601.5072   -25390.676   -9194.0142    14780.169   -2250.0803    5241.8363   -10919.097    83.817896 
   17400    516.20423   -109.62684   0.46707243   -109.15976   -2427.0277     4.373008     4.373008     4.373008   -2427.0277   -12645.036    -13379.58    18743.533   -586.70583    -1006.602    33780.007    83.625903 
   17500    751.77815   -109.83209   0.68022467   -109.15187    13920.619    4.3491789    4.3491789    4.3491789    13920.619    9321.1278   -406.44936    32847.179    1626.0777   -6211.7427   -1779.9854    82.266272 
   17600    585.95009   -109.69238   0.53017995    -109.1622   -12849.497    4.3751364    4.3751364    4.3751364   -12849.497   -19052.252   -15749.988   -3746.2492   -342.85736    3964.0607   -13249.586    83.748067 
   17700    934.50729   -109.99957   0.84556184   -109.15401   -14780.224    4.3737704    4.3737704    4.3737704   -14780.224   -15511.783   -12287.553   -16541.335   -1318.6489    4997.6873    19380.103    83.669649 
   17800    671.73678   -109.76257   0.60780156   -109.15477    11527.817    4.3524614    4.3524614    4.3524614    11527.817    4623.1994    4705.1608    25255.091    3751.9085    -9594.969   -12234.649    82.452684 
   17900    552.16852   -109.66464   0.49961368   -109.16503   -2163.7875    4.3653061    4.3653061    4.3653061   -2163.7875   -9069.1705   -14604.239    17182.047   -1252.8551    12026.228   -18299.344    83.184826 
   18000    828.69636   -109.90839   0.74982188   -109.15857    -1995.451      4.37556      4.37556      4.37556    -1995.451   -18701.696   -11359.874    24075.218    878.22461    1677.9238    9177.7703    83.772397 
   18100    592.60177   -109.69664   0.53619853   -109.16044    8115.7241    4.3563001    4.3563001    4.3563001    8115.7241    1624.5345   -5163.4995    27886.137    5317.2062   -4481.2107    -13395.88    82.671035 
   18200    505.58151   -109.62242   0.45746077   -109.16496    347.18964    4.3625705    4.3625705    4.3625705    347.18964    2067.5398   -15108.735    14082.764   -7398.5526    6558.6535   -14010.304    83.028535 
   18300     1065.007   -110.11471   0.96364071   -109.15107   -16625.359    4.3798613    4.3798613    4.3798613   -16625.359   -19805.462   -23514.733   -6555.8828    7700.8422    2071.8674    3644.7794     84.01969 
   18400    533.47222   -109.64091   0.48269688   -109.15821   -968.60706    4.3575341    4.3575341    4.3575341   -968.60706   -223.64834   -4419.3511    1737.1782    7471.4827   -4902.9132   -14238.626    82.741309 
   18500    588.22873   -109.69594   0.53224172    -109.1637    387.16437    4.3571821    4.3571821    4.3571821    387.16437    10960.579    -2852.172   -6946.9138   -6540.9433    3880.8947    -14063.74    82.721258 
   18600    1039.2815   -110.09724   0.94036374   -109.15688   -18296.882    4.3819855    4.3819855    4.3819855   -18296.882    -31519.99    -18766.09   -4604.5667    7152.6367    7176.2219    9363.0915    84.141995 
   18700    432.96736   -109.55671   0.39175796   -109.16496    10140.123    4.3547209    4.3547209    4.3547209    10140.123    2819.9297   -8580.1562    36180.595      1386.62    -10785.07   -11128.617    82.581157 
   18800     577.5401   -109.68802   0.52257042   -109.16545    2029.6236    4.3595629    4.3595629    4.3595629    2029.6236   -767.63383   -7182.8901    14039.395   -833.72674    8108.1056   -16140.941    82.856934 
   18900     803.7654   -109.88275   0.72726383   -109.15549   -10653.429    4.3790213    4.3790213    4.3790213   -10653.429   -18601.314   -20851.654    7492.6798    3812.1691     4019.491    18112.521     83.97136 
   19000    647.40757   -109.74195   0.58578797   -109.15616    10869.647    4.3512165    4.3512165    4.3512165    10869.647    14210.684    1322.2275    17076.028   -2914.1483   -7475.6741    -15427.71    82.381949 
   19100    674.17565   -109.77085    0.6100083   -109.16084   -7328.0655    4.3627709    4.3627709    4.3627709   -7328.0655     822.1524   -11218.109    -11588.24   -2561.8906    5733.8352   -13082.564    83.039975 
   19200    751.57534   -109.83692   0.68004116   -109.15688   -15331.972    4.3740573    4.3740573    4.3740573   -15331.972   -15056.341   -18491.419   -12448.156    2801.6988    2988.4195    20972.217    83.686113 
   19300    750.05589   -109.83371   0.67866634   -109.15504    2789.6189    4.3577811    4.3577811    4.3577811    2789.6189    10984.031   -12647.448    10032.274    -108.2723   -5520.0933   -13440.428    82.755379 
   19400    819.82036   -109.89888   0.74179069   -109.15709   -2823.6654    4.3586725    4.3586725    4.3586725   -2823.6654    -1866.097     3568.377   -10173.276   -6901.3992    4607.5445     -3455.66    82.806175 
   19500     467.1974   -109.58943   0.42273003    -109.1667   -2319.5387    4.3702274    4.3702274    4.3702274   -2319.5387   -5051.6995   -10155.196    8248.2797    6979.7499    3537.9244    23323.042    83.466483 
   19600     914.8391   -109.98788   0.82776564   -109.16012     6147.319    4.3618747    4.3618747    4.3618747     6147.319    8828.0209   -5983.1929    15597.129    -1773.527   -1471.7763   -6642.8439    82.988815 
   19700    733.29914   -109.82349   0.66350447   -109.15999    17552.984    4.3552413    4.3552413    4.3552413    17552.984    4460.9764    16220.168    31977.806   -4377.6936    5099.4083    6449.8867    82.610769 
   19800    313.63398   -109.45258   0.28378262    -109.1688   -14938.619     4.374568     4.374568     4.374568   -14938.619   -8222.1619   -28257.955   -8335.7392    9851.9795    5183.6457    26746.483    83.715433 
   19900    937.47077    -110.0102   0.84824325   -109.16196     12277.23    4.3527473    4.3527473    4.3527473     12277.23    9477.4024    1382.7295    25971.557   -5900.4958     6369.372   -4096.7657     82.46893 
   20000    857.91177   -109.94333    0.7762566   -109.16707    9616.0762    4.3597787    4.3597787    4.3597787    9616.0762    8052.4916    10451.549    10344.188    1313.5126   -1841.8564    8783.5082    82.869238 
   20100    386.59953   -109.52115   0.34980338   -109.17134   -23634.416     4.375024     4.375024     4.375024   -23634.416   -13794.842   -22284.968   -34823.437    9148.0244    6428.2047    21575.633    83.741615 
   20200    855.72286   -109.93294   0.77427603   -109.15867    21686.986     4.347287     4.347287     4.347287    21686.986    24514.485    14850.724    25695.749   -4009.1859    2079.3485   -4814.5743    82.158961 
   20300    974.48345   -110.04318   0.88173311   -109.16145   -12867.211    4.3703624    4.3703624    4.3703624   -12867.211   -8460.4452    -10120.09   -20021.097    -959.7745   -4348.1766    3127.1897    83.474219 
   20400    384.71718   -109.51776   0.34810019   -109.16966   -6922.0126    4.3630954    4.3630954    4.3630954   -6922.0126    6842.7816   -4929.3053   -22679.514     9918.955    9965.8473     17329.31    83.058507 
   20500    811.05182   -109.89752   0.73385673   -109.16366     6024.995    4.3550714    4.3550714    4.3550714     6024.995    7933.7537   -2466.2341    12607.465     4056.409   -4927.8115   -11820.187    82.601104 
   20600    812.19528   -109.89398   0.73489136   -109.15909   -8326.0815    4.3719023    4.3719023    4.3719023   -8326.0815    4426.9836   -11595.853   -17809.376     -6905.04    1248.7547     -4473.02    83.562485 
   20700    565.66442   -109.67299   0.51182505   -109.16116    10721.463    4.3525167    4.3525167    4.3525167    10721.463     7794.055    23181.562    1188.7735    14151.018    10248.955    17038.921    82.455827 
   20800    657.56413   -109.75793   0.59497784   -109.16295    -9051.511    4.3684059    4.3684059    4.3684059    -9051.511   -1342.6584   -24281.799   -1530.0751    2005.4672   -2988.5096   -15182.059    83.362159 
   20900    791.68582   -109.87542   0.71633396   -109.15909   -2281.8077    4.3626915    4.3626915    4.3626915   -2281.8077    100.85642     7419.334   -14365.614   -6431.9593    9161.9122   -8126.0493    83.035442 
   21000    636.54749    -109.7369   0.57596155   -109.16094     13356.04    4.3556304    4.3556304    4.3556304     13356.04    10074.028    22761.641    7232.4507    10917.871    3912.3514    13821.113    82.632913 
   21100     688.2684   -109.78322   0.62275971   -109.16046   -17542.474    4.3737275    4.3737275    4.3737275   -17542.474   -17888.115   -25033.227   -9706.0807   -1055.4315   -1977.8572   -12546.018    83.667185 
   21200    700.26514   -109.79241   0.63361462   -109.15879    14198.745    4.3520622    4.3520622    4.3520622    14198.745    15882.141    22356.802    4357.2911    -7364.026    6614.8803   -12238.157    82.429999 
   21300    867.60199   -109.94731   0.78502451   -109.16228   -6111.5078    4.3644944    4.3644944    4.3644944   -6111.5078   -17826.954   -349.82638   -157.74277    3757.3398    1694.8995    9848.4714    83.138429 
   21400    542.97856   -109.65636   0.49129841   -109.16506   -8577.3861    4.3699064    4.3699064    4.3699064   -8577.3861   -1714.6136   -18274.457   -5743.0881    3218.2689     2049.698    -12430.69    83.448088 
   21500    803.90087   -109.88495    0.7273864   -109.15756    5332.1502    4.3561055    4.3561055    4.3561055    5332.1502     3530.673    4576.0818    7889.6958   -8812.3164    1271.7688    -17067.01    82.659957 
   21600    827.64711   -109.90575    0.7488725   -109.15688   -2683.0365    4.3680985    4.3680985    4.3680985   -2683.0365   -11139.042   -2848.7945    5938.7271    3184.8106    9442.0895    10122.688    83.344561 
   21700    539.97311   -109.64979   0.48857902   -109.16121    5389.7163    4.3619395    4.3619395    4.3619395    5389.7163    5884.1453   -4465.0102    14750.014    11141.673    683.76514   -21744.664    82.992513 
   21800    748.56025   -109.83833   0.67731305   -109.16101    1161.2232    4.3634702    4.3634702    4.3634702    1161.2232   -1604.8479   -1721.9045     6810.422   -9680.9352     1441.844   -14675.997    83.079913 
   21900    869.39077   -109.94456   0.78664304   -109.15792     4959.282    4.3639793    4.3639793    4.3639793     4959.282   -17480.918    16225.591    16133.173    4035.0819    10957.171    6247.3711    83.109001 
   22000    479.32726   -109.59802   0.43370538   -109.16432    8430.1971    4.3624301    4.3624301    4.3624301    8430.1971    10268.455    6027.1892    8994.9466    11749.979   -3710.2361   -29024.174    83.020518 
   22100    816.33331   -109.89965   0.73863553   -109.16102    -1378.479    4.3665795    4.3665795    4.3665795    -1378.479   -2646.8106   -3327.9957    1839.3693   -8719.9522    3931.7638   -3059.8121    83.257645 
   22200    791.83931   -109.87569   0.71647285   -109.15922    13156.275    4.3568189    4.3568189    4.3568189    13156.275   -4315.7896    24406.842    19377.773  0.028354192    7179.2066    2457.5147    82.700572 
   22300    469.41933   -109.59245   0.42474047   -109.16771    1173.1795    4.3634159    4.3634159    4.3634159    1173.1795    13569.757   -12046.987    1996.7683    10249.644   -6246.1069    -26994.79    83.076814 
   22400    789.06856   -109.87432   0.71396581   -109.16036    -4911.003    4.3689117    4.3689117    4.3689117    -4911.003   -6963.9554   -10270.839    2501.7853   -1939.2998    3019.0028    1592.7343    83.391118 
   22500    816.32936     -109.895   0.73863196   -109.15636    2345.4303    4.3576397    4.3576397    4.3576397    2345.4303   -10455.839    3218.6149    14273.515   -10797.259    2952.5158   -2054.0528    82.747323 
   22600    462.53231   -109.58204   0.41850896   -109.16353    1221.4086    4.3631427    4.3631427    4.3631427    1221.4086    12204.493   -4717.6332   -3822.6339    13825.897   -2147.3844   -24708.607    83.061208 
   22700    829.04309   -109.90844   0.75013561    -109.1583   -7307.7426    4.3684635    4.3684635    4.3684635   -7307.7426   -7027.8427   -8370.2265   -6525.1585    -5133.712    1005.3474    3877.1901    83.365459 
   22800    677.42916   -109.77278   0.61295214   -109.15983     13483.45    4.3536706    4.3536706    4.3536706     13483.45    5602.5321    22964.758    11883.059   -18359.598     2407.643   -2446.1181    82.521419 
   22900    622.37501    -109.7308   0.56313799   -109.16766   -5005.0308    4.3647987    4.3647987    4.3647987   -5005.0308    10848.501   -4324.9306   -21538.663    13161.763    -1616.107   -26547.241    83.155819 
   23000    728.21603   -109.81923   0.65890517   -109.16032   -854.37322    4.3715311    4.3715311    4.3715311   -854.37322   -4979.0121    3549.8864   -1133.9939   -5017.7176   -3194.4004    2850.2243    83.541201 
   23100    869.21778   -109.94318   0.78648651    -109.1567    5744.1801    4.3523052    4.3523052    4.3523052    5744.1801    13083.449    4670.3273   -521.23618   -10474.599    6807.6542   -7030.8492    82.443804 
   23200    496.61395   -109.61402   0.44934674   -109.16467   -1140.6941    4.3655229    4.3655229    4.3655229   -1140.6941    12704.505     2186.467   -18313.054    12552.109    -2493.725   -25355.793     83.19722 
   23300    885.07052   -109.95844   0.80083041    -109.1576   -3994.6578    4.3679048    4.3679048    4.3679048   -3994.6578   -2623.0372   -4633.7294   -4727.2069    370.97946   -1309.5154    2017.7574    83.333476 
   23400    723.62005   -109.81356   0.65474662   -109.15882    13035.637    4.3542426    4.3542426    4.3542426    13035.637    12552.888    28365.845    -1811.821   -8686.2505     7696.548   -7223.4186    82.553954 
   23500    446.05753   -109.57139   0.40360223   -109.16779   -4287.5368    4.3645033    4.3645033    4.3645033   -4287.5368    6394.1582   -2734.6144   -16522.154    15426.141     -5070.65   -19569.024    83.138938 
   23600    887.29031   -109.96271   0.80283891   -109.15987    2136.5053    4.3666813    4.3666813    4.3666813    2136.5053     691.9945    4376.3158    1341.2056    7040.7445    3068.1068    2218.8723    83.263464 
   23700    787.56376   -109.87231   0.71260424    -109.1597    1116.0348    4.3634278    4.3634278    4.3634278    1116.0348    6806.4605    7129.7606   -10588.117   -9620.8085    472.58073   -8129.0133    83.077494 
   23800    479.37805   -109.59652   0.43375134   -109.16277   -3879.4328    4.3580815    4.3580815    4.3580815   -3879.4328    18772.253   -20000.236   -10410.316    18558.945     -3782.83   -21300.122    82.772495 
   23900    878.32427   -109.95567   0.79472625   -109.16094    2484.3087    4.3645426    4.3645426    4.3645426    2484.3087    4052.6987    3203.9795    196.24792    9922.6428     2599.548    8718.6724    83.141186 
   24000    860.97346   -109.94106   0.77902688   -109.16203    -8683.535    4.3671103    4.3671103    4.3671103    -8683.535    1899.6475    -2086.836   -25863.417   -10092.293   -1579.9205   -11358.441    83.288007 
   24100    310.50329   -109.44669    0.2809499   -109.16574     17638.32    4.3499715    4.3499715    4.3499715     17638.32    23887.412    13314.691    15712.858    18177.523    944.02247   -22053.234    82.311259 
   24200     894.7684   -109.97208   0.80960525   -109.16247   -11502.312    4.3747819    4.3747819    4.3747819   -11502.312    -17231.03   -1299.7042   -15976.201    4105.1444   -3022.4145    16048.547    83.727711 
   24300    763.04273   -109.84974    0.6904171   -109.15932    3258.4612    4.3635517    4.3635517    4.3635517    3258.4612    7866.9801    6607.7786   -4699.3751   -5100.3263    5315.0087   -16042.046    83.084571 
   24400    588.01908   -109.69208   0.53205202   -109.16003    5702.7434    4.3473572    4.3473572    4.3473572    5702.7434    13516.472   -4859.0306    8450.7885    22400.774   -42.276585   -14886.948     82.16294 
   24500    719.59343   -109.81157   0.65110326   -109.16047   -14153.266    4.3764609    4.3764609    4.3764609   -14153.266   -16792.795   -19213.816   -6453.1873    6243.7019    -2520.137    13619.443    83.824151 
   24600    967.72695   -110.03131   0.87561968   -109.15569   -2977.3797    4.3611986    4.3611986    4.3611986   -2977.3797    4073.6014   -2393.7369   -10612.004   -4968.2718    5993.5245    -16433.51    82.950231 
   24700     507.5628   -109.61949   0.45925349   -109.16023    8470.9386    4.3528842    4.3528842    4.3528842    8470.9386      5114.79   -3167.4959    23465.522     27453.76   -2153.3466   -3558.8491     82.47671 
   24800    790.52814   -109.87313   0.71528647   -109.15784   -16391.241    4.3729526    4.3729526    4.3729526   -16391.241   -18900.493   -20553.226   -9720.0029    5500.3942    4791.2042    9980.8322    83.622723 
   24900    797.28988   -109.87767   0.72140464   -109.15626    983.90723    4.3623995    4.3623995    4.3623995    983.90723   -530.35966    3680.1438   -198.06241   -8493.8331    3250.0677   -6838.6729    83.018774 
   25000     660.1688   -109.75698   0.59733461   -109.15964    2691.1258    4.3535027    4.3535027    4.3535027    2691.1258    3406.6199   -4996.5107    9663.2682    32445.472    2150.8799   -1251.1051    82.511875 
   25100    640.76986   -109.74216   0.57978204   -109.16237    498.28107     4.371056     4.371056     4.371056    498.28107   -8862.7894    2620.4828    7737.1498   -1353.9849    3128.3087    7563.4133    83.513964 
   25200    847.40575   -109.92327   0.76675053   -109.15652   -253.92633     4.364655     4.364655     4.364655   -253.92633    4261.4369   -7028.8808    2005.6649   -11952.181    1079.9604    4438.0665    83.147611 
   25300    527.96436   -109.63677   0.47771325   -109.15906    8699.3737    4.3555838    4.3555838    4.3555838    8699.3737    6755.8509   -3699.8636    23042.134    35747.075    4104.6802   -4493.2893    82.630261 
   25400     789.5199   -109.87239    0.7143742   -109.15802   -3570.5949    4.3663253    4.3663253    4.3663253   -3570.5949    3324.3375   -16427.922    2391.8002   -5894.2657   -3573.5096    8655.6611    83.243106 
   25500    655.59088   -109.75146   0.59319241   -109.15827    696.90303    4.3620982    4.3620982    4.3620982    696.90303    15153.784   -12643.031   -420.04377    -6501.762    5838.3705    5104.3846    83.001571 
   25600    549.00036   -109.65901   0.49674707   -109.16227   -10287.518    4.3618916    4.3618916    4.3618916   -10287.518   -12525.926   -27151.342    8814.7149    37340.275   -1496.0583   -6860.5136    82.989778 
   25700    857.98376   -109.93248   0.77632174   -109.15616    4882.9793    4.3602506    4.3602506    4.3602506    4882.9793    14169.236   -2100.9946    2580.6969   -8318.1892   -5504.5718    7925.6212    82.896149 
   25800    666.44695   -109.76335    0.6030152   -109.16033   -10253.027    4.3661252    4.3661252    4.3661252   -10253.027   -14379.236   -24682.357    8302.5111    3346.3978    8618.6687   -234.15411    83.231662 
   25900    568.08201   -109.67891   0.51401254   -109.16489   -8115.0562      4.35825      4.35825      4.35825   -8115.0562   -10243.283   -25754.053    11652.167    34276.098   -8180.9277   -6395.6906    82.782093 
   26000     912.7439   -109.98609   0.82586986   -109.16022    4892.0079    4.3610623    4.3610623    4.3610623    4892.0079    24052.337   -4667.0939   -4709.2196   -9080.0807    2339.9363   -667.84311    82.942452 
   26100    694.29388   -109.79086    0.6282117   -109.16265   -12884.574    4.3686194    4.3686194    4.3686194   -12884.574   -6910.5363   -33278.977    1535.7901    6746.5062    1138.7318    1032.1667    83.374384 
   26200    442.06852   -109.56307   0.39999289   -109.16307    8530.5935    4.3551109    4.3551109    4.3551109    8530.5935    29391.372   -18829.559    15029.968    24024.042   -3926.0228   -7826.3759    82.603346 
   26300    990.25492   -110.05244   0.89600346   -109.15644   -5488.5127    4.3669745    4.3669745    4.3669745   -5488.5127    17590.284   -13495.917   -20559.905   -8082.1516    1086.9968   -5794.1749    83.280241 
   26400    516.89353   -109.63021   0.46769613   -109.16251    2078.9178    4.3619819    4.3619819    4.3619819    2078.9178    7146.1284   -20196.996     19287.62    13114.049   -6895.0089    4563.0815    82.994932 
   26500    605.99443   -109.71257    0.5483165   -109.16426   -7573.9341    4.3570785    4.3570785    4.3570785   -7573.9341     6398.548    -31814.62    2694.2698    20226.297    4054.5447   -11553.811     82.71536 
   26600    925.78247   -109.99522   0.83766744   -109.15755   -9976.4165    4.3697151    4.3697151    4.3697151   -9976.4165    4689.2935   -12529.986   -22088.557   -7056.6597   -5789.4143    -2963.013     83.43713 
   26700    614.38463   -109.71608   0.55590813   -109.16017   -5864.0883    4.3616295    4.3616295    4.3616295   -5864.0883    824.17708   -32485.231    14068.789    21466.509    613.25299    1282.9705    82.974819 
   26800    502.26915   -109.61816   0.45446368    -109.1637   -2396.2688    4.3588474    4.3588474    4.3588474   -2396.2688    16927.826    -28904.55    4787.9175    11259.279    5575.9329   -14553.131    82.816144 
   26900    1017.1408   -110.07742   0.92033039   -109.15709    3881.2693    4.3620114    4.3620114    4.3620114    3881.2693    26818.243   -9497.7882   -5676.6468   -2765.6604   -3273.4829   -1331.3311    82.996614 
   27000    544.62751   -109.65757   0.49279041   -109.16478   -1387.4349    4.3680194    4.3680194    4.3680194   -1387.4349    17559.176   -34473.509    12752.029    23723.087    3861.3011   -1722.7525    83.340032 
   27100    445.96615     -109.568   0.40351954   -109.16448   -4720.8915    4.3617822    4.3617822    4.3617822   -4720.8915    15934.811   -33446.833    3349.3481    1244.2718    -1006.605   -17325.348    82.983533 
   27200    975.80701   -110.03945   0.88293069   -109.15652    9680.5058    4.3532394    4.3532394    4.3532394    9680.5058    17614.909   -2315.7321    13742.341   -3038.3474   -1751.3753   -2815.8253    82.496904 
   27300    609.36718   -109.71596   0.55136823   -109.16459   -16151.875    4.3749742    4.3749742    4.3749742   -16151.875   -11838.582   -39021.754    2404.7122    20377.637   -1227.8514   -487.43207    83.738754 
   27400    528.10119    -109.6409   0.47783705   -109.16306    1252.5102     4.358495     4.358495     4.358495    1252.5102    15986.022   -26775.991      14547.5   -6229.5653   -4825.1916   -18255.912     82.79606 
   27500     890.7106   -109.96045   0.80593367   -109.15452    16174.909    4.3564094    4.3564094    4.3564094    16174.909     26781.94    355.45808    21387.329   -7132.5718   -2303.4477    1503.5306    82.677259 
   27600    637.70444   -109.73544   0.57700838   -109.15843   -7889.0185    4.3731679    4.3731679    4.3731679   -7889.0185    9211.3693   -37262.703    4384.2782    15922.934   -2674.9214    941.66867    83.635077 
   27700    507.95008   -109.61927    0.4596039   -109.15967    8166.9342    4.3570398    4.3570398    4.3570398    8166.9342    26916.692   -17852.264    15436.375   -15787.957   -931.41095   -18647.603    82.713156 
   27800    823.19277   -109.90206   0.74484211   -109.15722    5235.8833    4.3597006    4.3597006    4.3597006    5235.8833     27744.83   -15379.677    3342.4966   -6990.6324     191.5726    13358.204    82.864781 
   27900    679.52664   -109.77575   0.61484999    -109.1609   -11485.098    4.3691352    4.3691352    4.3691352   -11485.098   -6834.5667   -24429.256   -3191.4696    8947.1394     537.4001   -529.77694     83.40392 
   28000    525.17756   -109.63717   0.47519169   -109.16198    -2327.542    4.3593376    4.3593376    4.3593376    -2327.542    669.65147   -17907.906    10255.629    -17700.96    5575.9186   -16611.505    82.844086 
   28100    754.04995   -109.84157   0.68228024   -109.15929   -3453.1804    4.3608645    4.3608645    4.3608645   -3453.1804    14194.826   -12429.531   -12124.835    1542.3179   -658.52547    25533.863    82.931169 
   28200    857.00213   -109.93225   0.77543354   -109.15681   -17987.911    4.3709137    4.3709137    4.3709137   -17987.911   -12937.695    -24987.57    -16038.47    3212.6698    4017.9594    543.20898    83.505811 
   28300    570.31623   -109.67468   0.51603411   -109.15864   -5560.9266    4.3600671    4.3600671    4.3600671   -5560.9266   -1023.5846   -17036.788    1377.5932   -15153.079    7882.4654   -6502.9117    82.885681 
   28400    751.14434   -109.83968   0.67965119   -109.16003   -7756.3483    4.3588296    4.3588296    4.3588296   -7756.3483    22051.534   -29097.179     -16223.4    2268.8856     37.87753    34692.656    82.815126 
   28500     962.3457   -110.02708   0.87075061   -109.15632   -8528.6468    4.3691698    4.3691698    4.3691698   -8528.6468   -10340.802   -16689.847    1444.7087    90.017003    1293.5496    1191.2367    83.405898 
   28600      593.045   -109.69884   0.53659958   -109.16224    931.41855    4.3576008    4.3576008    4.3576008    931.41855    8018.2246   -20379.915    15155.946    -9316.909    1230.3571    934.11717    82.745105 
   28700    429.69548   -109.55712    0.3887975   -109.16832    506.99582    4.3627372    4.3627372    4.3627372    506.99582    26757.193    -32723.62    7487.4142    942.70956    3172.4387    35198.847    83.038051 
   28800    1059.8836   -110.11611     0.959005    -109.1571   -261.28165     4.366365     4.366365     4.366365   -261.28165   -12067.394   -10052.897    21336.446   -2507.1631     5.275825   -4708.9597    83.245376 
   28900    561.19274   -109.67321   0.50777898   -109.16543   -2244.5705    4.3584676    4.3584676    4.3584676   -2244.5705    8673.2397   -26521.926    11114.975   -6094.1219   -3948.2011    12347.334    82.794496 
   29000    406.49134   -109.53806   0.36780191   -109.17026   -13114.049    4.3641914    4.3641914    4.3641914   -13114.049    25859.917   -42770.127   -22431.936    1494.3496    960.12993    34128.075    83.121116 
   29100    1220.8563   -110.26267    1.1046564   -109.15802   -1142.1086     4.361263     4.361263     4.361263   -1142.1086   -6616.2452   -5424.3265     8614.246    957.98623   -5692.5996   -10878.961    82.953905 
   29200    566.01002   -109.68205   0.51213776   -109.16991   -2538.9578    4.3605038    4.3605038    4.3605038   -2538.9578    15561.544   -25518.417    2339.9992   -5276.0458    1719.3019    27481.303    82.910589 
   29300    473.41784   -109.59907   0.42835841   -109.17071   -3219.5707    4.3629865    4.3629865    4.3629865   -3219.5707    25958.384   -35531.195   -85.900725      2561.07   -3667.9768    21634.633    83.052287 
   29400    929.69704   -109.99676   0.84120942   -109.15555   -4163.1861    4.3731518    4.3731518    4.3731518   -4163.1861   -15517.989   -17064.819    20093.249     4944.415   -5066.6171   -11904.747    83.634153 
   29500    525.85191   -109.63775   0.47580186   -109.16194    5457.7948    4.3513295    4.3513295    4.3513295    5457.7948    26382.707   -16808.471    6799.1485    -1976.186    4750.5948    33604.784     82.38837 
   29600     477.3156   -109.60017   0.43188519   -109.16829    2444.8273    4.3598865    4.3598865    4.3598865    2444.8273     19519.31   -22396.222    10211.394    1946.9892    362.54555    15998.811    82.875385 
   29700    1005.3602   -110.06459   0.90967099   -109.15492   -19925.444    4.3789359    4.3789359    4.3789359   -19925.444   -22760.906   -28102.966   -8912.4593    8122.3934       1444.7   -12673.578    83.966442 
   29800    608.28132   -109.70746   0.55038573   -109.15707    13773.973    4.3491912    4.3491912    4.3491912    13773.973    33362.037    8556.3658   -596.48208   -891.23822     381.9442    31771.643    82.266968 
   29900    727.78754   -109.81898   0.65851746   -109.16046   -4910.1379    4.3633948    4.3633948    4.3633948   -4910.1379    14868.971   -17156.725   -12442.659    3112.3724    4751.9484    4939.4894    83.075606 
   30000    819.21856    -109.8966   0.74124617   -109.15536   -12272.912     4.376184     4.376184     4.376184   -12272.912   -13025.874   -11053.203    -12739.66    9872.3677    1913.7235   -13743.882    83.808242 
   30100    678.92717   -109.77013   0.61430757   -109.15582    18931.188    4.3450711    4.3450711    4.3450711    18931.188    35482.014    15282.389    6029.1623   -3556.5268    -1402.012    26407.473    82.033393 
   30200    608.82248   -109.71653   0.55087537   -109.16566   -2142.6426    4.3634209    4.3634209    4.3634209   -2142.6426    1369.7867   -15643.368    7845.6535    1335.9497    5023.0117   -1773.4192    83.077101 
   30300    652.58667   -109.74967   0.59047413   -109.15919   -12854.716    4.3775604    4.3775604    4.3775604   -12854.716   -20363.873   -21105.283    2905.0076    3288.8077    1348.5876   -12761.323    83.887344 
   30400    885.83921   -109.95369   0.80152593   -109.15217    14864.304    4.3464662    4.3464662    4.3464662    14864.304    25673.512    10603.208    8316.1913   -2851.3171     1517.732    19273.387    82.112434 
   30500    588.40514   -109.69475   0.53240133   -109.16234   -453.58008    4.3615403    4.3615403    4.3615403   -453.58008   -7351.3718   -13430.008    19420.639   -266.10652   -2825.5706   -3740.6543     82.96973 
   30600    594.09273   -109.69889   0.53754759   -109.16134   -16110.397    4.3754892    4.3754892    4.3754892   -16110.397    -16862.81   -31070.788     -397.593    3283.3688    1925.1489   -10092.671    83.768327 
   30700    1056.5459   -110.10841   0.95598496   -109.15242    14049.921    4.3513724    4.3513724    4.3513724    14049.921    28697.257    3918.8809    9533.6249   -1613.2226   -2898.4382    12186.058    82.390808 
   30800    529.30648   -109.64459   0.47892762   -109.16567   -299.42596    4.3601639    4.3601639    4.3601639   -299.42596    5866.8033   -20509.084    13744.003     2873.047   -3469.3985   -4647.2597    82.891203 
   30900    343.67378   -109.48072   0.31096326   -109.16976   -15058.327    4.3737201    4.3737201    4.3737201   -15058.327   -104.45516   -38886.324   -6184.2025     4968.998    1312.6006   -10773.043     83.66676 
   31000    1172.5393   -110.21796    1.0609382   -109.15702    12243.168    4.3525335    4.3525335    4.3525335    12243.168    28566.136    1472.6269    6690.7393   -976.82032   -8682.7665     7328.397    82.456781 
   31100    529.73232   -109.65053   0.47931293   -109.17122    12320.729     4.355875     4.355875     4.355875    12320.729     17509.65   -1969.6524     21422.19    8914.8065    3288.1179   -7658.6042    82.646837 
   31200    376.19537   -109.51182   0.34038948   -109.17144   -20693.607      4.37613      4.37613      4.37613   -20693.607   -9148.1529   -43516.621   -9416.0474     2167.112    723.09642   -11285.395    83.805137 
   31300    1091.5492     -110.145   0.98765663   -109.15734    17542.494    4.3505263    4.3505263    4.3505263    17542.494    22167.434    18053.716    12406.331    1121.2304   -6185.3904    9078.6544    82.342753 
   31400    683.04699   -109.78655   0.61803527   -109.16851    1502.8937    4.3594651    4.3594651    4.3594651    1502.8937    8640.3912   -13165.278    9033.5675    4951.3343    4026.1827   -7630.7687    82.851352 
   31500    425.86629   -109.54997   0.38533277   -109.16463   -15111.961    4.3746301    4.3746301    4.3746301   -15111.961   -8502.2344   -33043.849   -3789.7984    681.39165    1214.6393   -10529.539    83.718997 
   31600    971.69865   -110.03167   0.87921336   -109.15245    15385.353    4.3497126    4.3497126    4.3497126    15385.353    18340.661    16787.828    11027.571   -948.22285   -1075.7931    10273.419    82.296559 
   31700    670.71839    -109.7689   0.60688009   -109.16202   -3471.5199    4.3617737    4.3617737    4.3617737   -3471.5199    5610.0106   -10235.379   -5789.1911    2681.4495   -2026.9951   -5767.1722    82.983047 
   31800    617.32634   -109.72051   0.55856984   -109.16194   -5881.2159    4.3662455    4.3662455    4.3662455   -5881.2159    9000.1598   -29093.941    2450.1339     2282.668    2928.1451   -11044.716    83.238538 
   31900    824.83509   -109.90379   0.74632812   -109.15746    3498.5756    4.3576135    4.3576135    4.3576135    3498.5756    9944.4611    10514.665   -9963.3997   -7116.1363   -4071.1474    12698.664     82.74583 
   32000    722.35603   -109.81357   0.65360292   -109.15997   -8535.1635    4.3627813    4.3627813    4.3627813   -8535.1635    14507.403   -22612.511   -17500.383    6408.3421   -5499.8299   -2254.4055    83.040572 
   32100    722.25654   -109.81243    0.6535129   -109.15892    2341.7581    4.3620219    4.3620219    4.3620219    2341.7581    20600.114   -16475.362    2900.5221   -5099.8538    4368.9311   -14238.342    82.997215 
   32200    854.64539    -109.9303   0.77330111     -109.157   -9545.7053     4.363904     4.363904     4.363904   -9545.7053   -484.85299   -5734.3133    -22417.95   -3705.0008   -10021.611    18668.797    83.104698 
   32300    582.83439   -109.68798    0.5273608   -109.16062   -3805.6024    4.3582296    4.3582296    4.3582296   -3805.6024    19283.891   -14758.011   -15942.687    4735.6138   -2696.2787    97.231256    82.780932 
   32400    799.29375   -109.88313   0.72321778   -109.15992   -208.09832     4.361874     4.361874     4.361874   -208.09832     10077.77   -16644.546    5942.4814   -10418.185    1616.1294   -17486.278    82.988775 
   32500    661.76838   -109.75894   0.59878193   -109.16016   -7574.6776    4.3672271    4.3672271    4.3672271   -7574.6776    10612.177   -14014.604   -19321.606    5972.9994   -12265.448    29173.467    83.294693 
   32600    676.08886   -109.77159   0.61173941   -109.15985    1425.6071    4.3544121    4.3544121    4.3544121    1425.6071    17039.266   -13904.091    1141.6461   -1593.8977   -557.85402   -163.76119    82.563592 
   32700    745.28774   -109.83457   0.67435201   -109.16022    765.20866    4.3645089    4.3645089    4.3645089    765.20866    6456.2923   -19179.209    15018.542   -148.18544    644.92099   -11538.799    83.139262 
   32800    630.49108   -109.73009   0.57048158    -109.1596   -9062.0487    4.3668158    4.3668158    4.3668158   -9062.0487    5906.1766   -22857.792   -10234.531     1593.361   -2595.3745    34091.952    83.271162 
   32900     686.6192   -109.77798   0.62126748   -109.15671    12616.867    4.3518016    4.3518016    4.3518016    12616.867     19946.97   -2981.4156    20885.047   -1416.1745   -7694.3243   -1345.7138    82.415192 
   33000    762.03898   -109.84827   0.68950888   -109.15876   -9211.7567    4.3679032    4.3679032    4.3679032   -9211.7567   -3466.8929   -25762.275    1593.8979     3422.995    3547.3606   -1804.0295    83.333383 
   33100    380.88562   -109.50909   0.34463332   -109.16446    1938.4985    4.3605841    4.3605841    4.3605841    1938.4985    28956.762   -15504.968   -7636.2982   -3933.8606    2627.1376     36192.81    82.915169 
   33200    958.97269   -110.02477   0.86769865   -109.15707    2629.9061    4.3552231    4.3552231    4.3552231    2629.9061   -537.36535   -759.17556    9186.2591    3755.7941   -16245.823    -3937.019    82.609733 
   33300    655.04277    -109.7538   0.59269646    -109.1611   -11093.569    4.3689523    4.3689523    4.3689523   -11093.569    1945.0151   -24569.712    -10656.01   -4972.7038    8229.8317    9619.9594    83.393447 
   33400    532.98652   -109.64611    0.4822574   -109.16385     1102.508    4.3556623    4.3556623    4.3556623     1102.508    14821.082   -10693.645   -819.91292    1224.0399   -2929.6835    30345.198    82.634728 
   33500    915.33037   -109.98653   0.82821016   -109.15832    5612.5921    4.3625507    4.3625507    4.3625507    5612.5921    8202.9112   -1941.5449     10576.41   -2061.6056   -13647.691   -9411.0219    83.027404 
   33600    753.00757    -109.8446   0.68133707   -109.16326    2674.1778    4.3569048    4.3569048    4.3569048    2674.1778    4672.6242    -13626.59    16976.499   -6460.8068    5363.5188    16788.804    82.705468 
   33700    436.03909   -109.56403   0.39453733    -109.1695    6645.2444      4.36074      4.36074      4.36074    6645.2444    15219.347   -14387.972    19104.358    1041.9468   -517.58917    23063.586    82.924066 
   33800    946.36634   -110.01616   0.85629215   -109.15987    -7292.071    4.3642184    4.3642184    4.3642184    -7292.071   -15700.859   -869.21981   -5306.1347   -5805.0535   -7948.9778     -12840.3     83.12266 
   33900    603.13509   -109.70586    0.5457293   -109.16013     11658.07    4.3518393    4.3518393    4.3518393     11658.07     13351.62    -3487.712    25110.303   -1106.5875    669.57116    15152.781     82.41733 
   34000    722.22597   -109.81365   0.65348523   -109.16016   -21380.132    4.3700799    4.3700799    4.3700799   -21380.132   -19351.688   -19203.593   -25585.116   -4819.3355     3738.972    19893.444    83.458032 
   34100    700.58905   -109.79406    0.6339077   -109.16015    10727.009    4.3509375    4.3509375    4.3509375    10727.009    6984.0825    16599.341    8597.6049   -859.92687   -2812.6888   -15616.676    82.366107 
   34200    669.12644   -109.76945   0.60543966   -109.16401   -228.47496    4.3619987    4.3619987    4.3619987   -228.47496   -2585.8872   -15210.972    17111.434   -799.07086   -5721.9019    8998.9331    82.995891 
   34300    848.83837   -109.92667    0.7680468   -109.15862   -8394.5405    4.3665363    4.3665363    4.3665363   -8394.5405   -14884.889   -10542.764    244.03115   -3035.4631    4975.4243    15516.674    83.255175 
   34400    447.15593   -109.56511   0.40459608   -109.16052    13957.065    4.3486696    4.3486696    4.3486696    13957.065   -7003.9949     14722.29    34152.901    1835.1743   -6702.1248    -20357.09    82.237377 
   34500     815.0686   -109.89778    0.7374912   -109.16029   -14257.343    4.3695462    4.3695462    4.3695462   -14257.343   -14786.376   -22327.776   -5657.8756   -5192.5065   -7344.5224     3798.936    83.427456 
   34600    1022.2801   -110.08203    0.9249805   -109.15705    9264.7999    4.3535413    4.3535413    4.3535413    9264.7999   -221.47205    5895.6042    22120.267     4167.659     8260.072    8718.3838    82.514067 
   34700    271.36112   -109.41656   0.24553324   -109.17103    -11177.73    4.3629486    4.3629486    4.3629486    -11177.73   -20361.198   -2437.2577   -10734.735   -1554.9246   -9929.1835   -22665.992    83.050125 
   34800    938.40505   -110.01219   0.84908861   -109.16311   -6652.6616    4.3651618    4.3651618    4.3651618   -6652.6616   -5861.4909   -15373.319    1276.8245   -1654.0035   -4884.3908    2512.6367    83.176574 
   34900    895.27227   -109.96845   0.81006116   -109.15839    9340.2391    4.3556754    4.3556754    4.3556754    9340.2391   -12443.515    8854.5294    31609.703    2425.6824    8707.4809    2360.4095    82.635476 
   35000    150.51058   -109.30659   0.13618513    -109.1704   -17509.244    4.3674847    4.3674847    4.3674847   -17509.244   -37572.369    -6498.374   -8456.9874   -2930.5159   -5353.9716   -18952.546    83.309431 
   35100     888.4364   -109.96726   0.80387592   -109.16339    12436.078    4.3522959    4.3522959    4.3522959    12436.078   -800.87093    6240.3404    31868.765    3407.9225   -3055.1012    5084.8256    82.443276 
   35200    838.86785   -109.92398   0.75902526   -109.16495    513.03526    4.3645871    4.3645871    4.3645871    513.03526   -1649.7857   -2112.8344    5301.7259   -3662.5028    8550.6582    5590.0891    83.143726 
   35300    483.92219   -109.60636   0.43786297   -109.16849    -14054.31    4.3642399    4.3642399    4.3642399    -14054.31    -23492.64   -221.46342   -18448.826   -299.38522   -9830.7249   -13151.367    83.123887 
   35400    878.49372   -109.95202   0.79487958   -109.15714    15432.424    4.3518658    4.3518658    4.3518658    15432.424     15453.69    8837.4989    22006.081    600.08281   -3804.7676    7459.1255    82.418837 
   35500    723.09508   -109.81101   0.65427162   -109.15674    -15147.52    4.3734124    4.3734124    4.3734124    -15147.52   -13336.442   -22128.464   -9977.6543   -3780.7946   -390.48153    12469.277    83.649102 
   35600    591.46546   -109.69241   0.53517038   -109.15724      15974.5    4.3505658    4.3505658    4.3505658      15974.5   -7007.6257    16164.255    38766.871    1754.2101   -12215.141    -14282.24    82.344997 
   35700    634.74737   -109.73571   0.57433276   -109.16137   -2602.9431    4.3611827    4.3611827    4.3611827   -2602.9431    926.97962   -14840.857     6105.048   -3804.2272   -3073.8135    16551.821    82.949323 
   35800    619.68429   -109.71903   0.56070337   -109.15832   -5136.3426     4.367164     4.367164     4.367164   -5136.3426   -1299.5619   -16368.199    2258.7329    143.58771   -6312.7273    20014.466     83.29108 
   35900    910.40691   -109.97673   0.82375531   -109.15298    2185.1129    4.3548813    4.3548813    4.3548813    2185.1129   -6830.1055    8091.4895    5293.9547   -1065.3516   -9891.3443   -12335.412    82.590286 
   36000     474.4261   -109.59191    0.4292707   -109.16264    -15801.97    4.3628234    4.3628234    4.3628234    -15801.97    6200.9546   -21600.447   -32006.419   -2256.3474   -3997.3404    30561.919    83.042975 
   36100    719.26289   -109.81463   0.65080418   -109.16383    7517.9257    4.3570429    4.3570429    4.3570429    7517.9257    9166.7541   -18321.538    31708.561    474.58767    2526.1958    18752.947    82.713333 
   36200    941.76311   -110.01323   0.85212705    -109.1611    1372.2138    4.3635583    4.3635583    4.3635583    1372.2138   -10066.719   -6662.8349    20846.196   -1018.6894   -8278.5372   -6051.3802    83.084947 
   36300    380.14777    -109.5116   0.34396569   -109.16763    8313.4544    4.3568285    4.3568285    4.3568285    8313.4544     13989.45   -14939.056    25889.969    1266.9223    1104.3379    37962.763    82.701121 
   36400    873.43212    -109.9514   0.79029974    -109.1611   -2805.4917    4.3651871    4.3651871    4.3651871   -2805.4917   -2744.1456   -24906.231    19233.901    1596.4118    5187.3451    5585.7038    83.178021 
   36500    845.64495   -109.92281   0.76515732   -109.15765    3438.2267    4.3611221    4.3611221    4.3611221    3438.2267    -1575.725   -4992.4779    16882.883    491.40657   -3837.1077    1337.7791    82.945866 
   36600     586.6495   -109.69276    0.5308128   -109.16195   -3428.5578     4.355999     4.355999     4.355999   -3428.5578    15268.076   -12596.677   -12957.073    4008.7104   -487.74849    38087.375     82.65389 
   36700    860.13265   -109.93711   0.77826609   -109.15884   -4759.0559    4.3653007    4.3653007    4.3653007   -4759.0559   -4701.9115   -16988.838    7413.5819   -473.50735    4508.8507     -7892.95    83.184519 
   36800    687.50178   -109.78119   0.62206606   -109.15913    2640.2205    4.3621798    4.3621798    4.3621798    2640.2205    7168.2854   -5586.4088     6338.785    2331.0238    2223.7908   -800.06542    83.006232 
   36900    599.41193   -109.70151   0.54236051   -109.15915   -2721.6094    4.3639636    4.3639636    4.3639636   -2721.6094    5261.4492   -14575.728    1149.4509    235.88476   -4186.8264    29462.182    83.108102 
   37000    705.91529   -109.79594   0.63872699   -109.15721    8721.2744    4.3588096    4.3588096    4.3588096    8721.2744    1932.4592   -11014.377    35245.741     1702.923    7858.5142   -17661.741     82.81399 
   37100    600.41862   -109.70455   0.54327139   -109.16128    1182.8176    4.3617175    4.3617175    4.3617175    1182.8176    5397.1328    -6867.015     5018.335    3583.1669   -6048.7374   -1683.0841     82.97984 
   37200    679.14952   -109.77458   0.61450876   -109.16007   -13065.657    4.3680458    4.3680458    4.3680458   -13065.657   -1517.6095   -14882.882    -22796.48   -169.56182   -7255.9244    23753.799    83.341545 
   37300    711.38175   -109.80217   0.64367315    -109.1585    5621.1652    4.3522067    4.3522067    4.3522067    5621.1652     8707.784   -8314.6083     16470.32    2150.5124    593.35481   -16154.703    82.438209 
   37400    698.88906   -109.79511   0.63236951   -109.16274   -13484.574    4.3673505    4.3673505    4.3673505   -13484.574     1696.889   -25457.424   -16693.186    -525.0432   -4968.5453    332.98019    83.301753 
   37500    911.54459   -109.98252   0.82478471   -109.15773   -11494.727    4.3642337    4.3642337    4.3642337   -11494.727    1113.8166   -11566.548   -24031.449     696.7973   -6878.3912    19013.863    83.123532 
   37600     605.2042   -109.70768   0.54760148   -109.16008    5869.7568     4.350888     4.350888     4.350888    5869.7568    13658.637   -18270.647     22221.28    1976.8801   -2746.7499   -13691.667    82.363294 
   37700    746.00119   -109.83684   0.67499756   -109.16184   -16604.114    4.3698994    4.3698994    4.3698994   -16604.114    3589.7091   -36562.281   -16839.769   -1761.1401    2148.3304   -2040.2086    83.447692 
   37800    1050.5904   -110.10776    0.9505963   -109.15716    7275.9175    4.3541945    4.3541945    4.3541945    7275.9175    20266.584    2357.1042   -795.93551   -1788.9231     -12035.8    9996.4745    82.551219 
   37900    360.93903   -109.49648   0.32658522    -109.1699   -2461.0874    4.3592102    4.3592102    4.3592102   -2461.0874    9688.2616    -37148.94    20077.417    3634.5078    3499.6252   -15405.984     82.83682 
   38000    651.78491   -109.75874   0.58974868   -109.16899   -10589.036    4.3651835    4.3651835    4.3651835   -10589.036    5565.8534   -35811.163   -1521.7988   -3576.4738    -655.4048   -10701.977    83.177816 
   38100    1103.1611   -110.15563   0.99816335   -109.15747    11989.725    4.3534207    4.3534207    4.3534207    11989.725    22744.675     7737.393     5487.106    1535.0765   -6975.3298    5511.4534     82.50721 
   38200    277.04903   -109.42332   0.25067979   -109.17264   -18666.895     4.365909     4.365909     4.365909   -18666.895   -11525.574   -44428.135   -46.975627    3187.1152    9021.0509   -16718.919    83.219297 
   38300    590.76813    -109.7067   0.53453942   -109.17216    2018.3691    4.3533309    4.3533309    4.3533309    2018.3691    11215.268   -15792.553    10632.393   -6536.6033   -3991.5373    -11694.63    82.502109 
   38400    1111.9845   -110.16866     1.006147   -109.16251    4478.7627    4.3611096    4.3611096    4.3611096    4478.7627    16402.853    1314.3412   -4280.9058    6385.3668    5859.3652    9431.4805     82.94515 
   38500    411.34233   -109.54638   0.37219118   -109.17419    -7480.047    4.3626768    4.3626768    4.3626768    -7480.047   -939.89438   -22487.732    987.48556    2201.2117    3868.5064   -13606.656    83.034605 
   38600    534.26461   -109.65302   0.48341385   -109.16961    7264.6281    4.3546207    4.3546207    4.3546207    7264.6281    10631.229    223.90356    10938.752    526.75397    959.71531   -10873.835    82.575458 
   38700     942.4029   -110.01055   0.85270594   -109.15784   -4171.0605    4.3684737    4.3684737    4.3684737   -4171.0605    17896.278   -10081.793   -20327.666    1412.3736    4658.8453    15340.661    83.366038 
   38800    576.40999    -109.6836   0.52154787   -109.16205    2050.5719    4.3555971    4.3555971    4.3555971    2050.5719    5525.3312   -1483.8791    2110.2637    1159.2096   -1306.2306   -12313.575    82.631016 
   38900    545.69448   -109.65787   0.49375583   -109.16411   -1359.2184    4.3580212    4.3580212    4.3580212   -1359.2184    11709.608   -13288.215   -2499.0481   -3536.0642    6638.9613   -6263.6664    82.769061 
   39000     800.8701   -109.88637    0.7246441   -109.16173   -5989.2361    4.3644891    4.3644891    4.3644891   -5989.2361    16597.255   -14464.841   -20100.122   -2045.8746   -3929.0871    24560.855    83.138129 
   39100    786.99515   -109.87259   0.71208975    -109.1605    9216.3586    4.3558044    4.3558044    4.3558044    9216.3586    15154.906    6615.3369    5878.8326     154.9275    1165.9688   -10417.492    82.642813 
   39200    618.26565   -109.72313   0.55941975   -109.16371   -10488.152    4.3652973    4.3652973    4.3652973   -10488.152    3229.7544   -28674.856   -6019.3526   -6596.2429    5516.6064   -599.66265     83.18432 
   39300    580.56537   -109.68804   0.52530775   -109.16273    4128.8892    4.3594623    4.3594623    4.3594623    4128.8892    24716.408   -1102.7423   -11226.998   -241.34661   -7605.4317    31394.423    82.851195 
   39400    1015.5765   -110.07421   0.91891494   -109.15529    4185.6708    4.3588399    4.3588399    4.3588399    4185.6708    4739.1311    6008.0297    1809.8516   -4569.6309    8262.5341   -10785.812    82.815714 
   39500    474.29267   -109.59439   0.42914998   -109.16524   -11556.624    4.3649511    4.3649511    4.3649511   -11556.624    3949.7845   -24510.473   -14109.182   -3628.2761     300.2966    5336.7536    83.164534 
   39600    424.97901    -109.5544   0.38452994   -109.16987    3503.3681    4.3555443    4.3555443    4.3555443    3503.3681    17227.613    2580.0194   -9297.5279   -1366.5588   -3920.7121    33869.125    82.628014 
   39700    1154.9228   -110.20648    1.0449984   -109.16148    2994.0503    4.3625354    4.3625354    4.3625354    2994.0503    9508.3415    98.676808   -624.86741   -4959.0025    3344.1534   -9053.4273    83.026529 
   39800    513.11191   -109.63706   0.46427444   -109.17279    6079.4955    4.3592511    4.3592511    4.3592511    6079.4955    17144.544    1531.0565   -437.11462   -756.98369   -534.53307    13158.271    82.839152 
   39900     357.3025   -109.49789   0.32329481    -109.1746    131.25812    4.3610404    4.3610404    4.3610404    131.25812    10952.276   -18855.609     8297.108   -2171.5207   -1310.7952    29702.688    82.941201 
   40000    1102.1388   -110.15632   0.99723835   -109.15909    5472.0406    4.3643753    4.3643753    4.3643753    5472.0406    4746.4534    1306.4487     10363.22   -1647.8138    -104.5754   -8344.3355    83.131624 
   40100    598.63825   -109.70901   0.54166047   -109.16735        10976    4.3547096    4.3547096    4.3547096        10976    22059.493   -3313.2023     14181.71    -816.3117    749.44483    24558.635    82.580518 
   40200    325.07957   -109.46798   0.29413883   -109.17384   -10656.052    4.3635756    4.3635756    4.3635756   -10656.052   -305.09504   -34002.939    2339.8777   -3942.1019   -4500.3523    21114.522    83.085933 
   40300    922.91965    -109.9986    0.8350771   -109.16352    6269.4669    4.3591425    4.3591425    4.3591425    6269.4669   -2882.8352   -2343.7966    24035.032   -2551.7234    863.53981   -8352.2803    82.832965 
   40400    809.70745   -109.89724   0.73264032    -109.1646    -1496.197    4.3615912    4.3615912    4.3615912    -1496.197    10565.519   -16110.343    1056.2327   -31.207197    1423.1268    21272.173    82.972634 
   40500    484.29128   -109.60398   0.43819692   -109.16579   -13606.338    4.3636942    4.3636942    4.3636942   -13606.338   -6518.1362   -31830.086   -2470.7932   -7508.9716   -4297.2954    13067.073    83.092712 
   40600    759.53336   -109.84846   0.68724175   -109.16122    6688.4392    4.3551374    4.3551374    4.3551374    6688.4392    7954.9321   -10270.484     22380.87    1457.9528    1564.8474   -13335.348    82.604856 
   40700     955.2927   -110.02297   0.86436891    -109.1586   -11648.264    4.3674658    4.3674658    4.3674658   -11648.264    11721.484   -24214.007   -22452.268    938.84218   -4648.7832    12690.697    83.308352 
   40800    579.04092   -109.68873   0.52392839    -109.1648   -4050.6736    4.3558865    4.3558865    4.3558865   -4050.6736     3579.679   -23051.707    7320.0072    -10810.71   -5734.0659    7720.2783    82.647488 
   40900    580.96265   -109.69325   0.52566721   -109.16759   -2548.7198    4.3578143    4.3578143    4.3578143   -2548.7198     9675.581   -24666.545    7344.8043     5514.833   -2092.1682   -18285.808     82.75727 
   41000    1024.3201   -110.08565   0.92682635   -109.15883   -13194.832    4.3677885    4.3677885    4.3677885   -13194.832    6148.5505   -25330.241   -20402.804    16.746253   -2093.3274    4385.6351    83.326816 
   41100    690.47321   -109.78795   0.62475467    -109.1632    10959.843    4.3500047    4.3500047    4.3500047    10959.843    9054.3512   -11019.187    34844.365   -8945.2655   -355.59284    6440.2319    82.313145 
   41200    490.43442   -109.61351   0.44375537   -109.16976   -9409.2917    4.3653302    4.3653302    4.3653302   -9409.2917    3905.3168   -33668.778    1535.5863    7479.0131    -5322.143   -19851.565    83.186201 
   41300     954.1031   -110.02452   0.86329254   -109.16123   -1597.7078    4.3627581    4.3627581    4.3627581   -1597.7078    6429.2575   -11673.086     450.7053    2204.4485    6893.1496   -4693.4069    83.039245 
   41400    742.96419   -109.83376   0.67224961   -109.16151    16686.097    4.3518604    4.3518604    4.3518604    16686.097    9124.4219   -1813.1567    42747.026   -9890.6489   -1207.7719    7887.1915    82.418532 
   41500    400.97656   -109.53056   0.36281202   -109.16774   -11201.032    4.3675162    4.3675162    4.3675162   -11201.032    1922.6369   -36048.798    523.06433    6502.2226   -1593.2094   -17263.763    83.311233 
   41600    793.24683   -109.87852    0.7177464   -109.16077    10611.915    4.3577791    4.3577791    4.3577791    10611.915    12616.271    2644.4493    16575.026    2312.2246    10918.953   -6851.7625    82.755266 
   41700    879.25306   -109.95589   0.79556665   -109.16033    8025.0717    4.3579982    4.3579982    4.3579982    8025.0717    6839.3704   -3568.8405    20804.685   -8023.6962   -48.523222    6421.0755    82.767749 
   41800    413.29377   -109.54215   0.37395689   -109.16819   -9326.6945     4.364597     4.364597     4.364597   -9326.6945    4857.7446    -27544.09   -5293.7378    7662.6573   -859.46784   -20082.006    83.144294 
   41900    776.53684   -109.86741   0.70262685   -109.16479    4243.2572    4.3574874    4.3574874    4.3574874    4243.2572    10748.344   -360.31033    2341.7376   -719.07528    6602.8258   -5575.4668    82.738647 
   42000    1006.6812   -110.06958   0.91086635   -109.15872   -847.66088    4.3644994    4.3644994    4.3644994   -847.66088    3871.1305   -6115.7161   -298.39713   -2713.0615    3974.7471    2452.5433    83.138716 
   42100    456.15992   -109.57859   0.41274308   -109.16585   -6448.0804    4.3613503    4.3613503    4.3613503   -6448.0804    6853.9881   -28226.359    2028.1298    8245.6133   -1659.1948   -24654.644    82.958885 
   42200    652.51696   -109.75555   0.59041106   -109.16514    595.90567    4.3585286    4.3585286    4.3585286    595.90567    6740.1589   -6907.7843    1955.3424    1263.0718    7815.5858   -3848.2916    82.797973 
   42300    995.30308   -110.05995   0.90057114   -109.15938    4244.6059    4.3603758    4.3603758    4.3603758    4244.6059    9004.9056   -6366.7313    10095.643   -1863.3363    4067.0803    4743.0617    82.903289 
   42400    428.08898   -109.55526   0.38734391   -109.16792     989.7224    4.3605509    4.3605509    4.3605509     989.7224    11717.058   -26412.334    17664.443    8416.2012   -6883.6515   -25572.994    82.913277 
   42500    561.55516   -109.67296   0.50810691   -109.16485    -5295.195    4.3646791    4.3646791    4.3646791    -5295.195   -4711.6376   -16409.689    5235.7413    4131.4929    14396.321    1073.3649    83.148988 
   42600    964.55101   -110.02879   0.87274602   -109.15604    9059.7938    4.3558923    4.3558923    4.3558923    9059.7938    10096.331    2089.0769    14993.973   -3302.2955   -809.52762    7011.5776    82.647818 
   42700    605.28563   -109.71278   0.54767516    -109.1651   -12206.386    4.3605761    4.3605761    4.3605761   -12206.386    -733.3708   -21785.254   -14100.535    10444.818   -7014.9121   -24633.981    82.914715 
   42800    546.94416   -109.66294   0.49488657   -109.16806   -12187.074    4.3598089    4.3598089    4.3598089   -12187.074   -12271.903   -7733.3706    -16555.95    2092.0164    18762.928    7540.0893     82.87096 
   42900    941.61273   -110.01218   0.85199099   -109.16019   -1066.4221    4.3589896    4.3589896    4.3589896   -1066.4221   -2485.9593   -1087.2208    373.91387   -5112.4867   -1760.4359    3662.4005    82.824249 
   43000    656.84446   -109.75721   0.59432667   -109.16288   -17116.459    4.3655504    4.3655504    4.3655504   -17116.459   -5872.3506   -23536.038    -21940.99    10828.664   -1889.4338   -22555.118    83.198795 
   43100    524.82014    -109.6376   0.47486829   -109.16274    10145.439    4.3519099    4.3519099    4.3519099    10145.439    4716.4523    5587.2824    20132.583    -1219.588    15006.589    7752.5568    82.421345 
   43200     899.6716    -109.9753   0.81404177   -109.16126   -3894.0857    4.3624243    4.3624243    4.3624243   -3894.0857   -771.31668   -17395.858     6484.918   -8649.2675   -1359.9138   -408.42603    83.020189 
   43300    677.81673   -109.77686   0.61330283   -109.16356    5436.9396    4.3596354    4.3596354    4.3596354    5436.9396    11587.974    -9989.806    14712.651    7866.4919   -1260.3267   -18097.273    82.861063 
   43400    553.63321   -109.66506   0.50093896   -109.16412    2200.0827    4.3615709    4.3615709    4.3615709    2200.0827   -1677.2422   -3679.0663    11956.557   -183.89333    11790.316    789.82087    82.971474 
   43500    815.03746   -109.89509   0.73746302   -109.15762   -6015.8222    4.3644495    4.3644495    4.3644495   -6015.8222   -5726.5362   -19185.124    6864.1936   -13859.056   -2412.0955   -1117.1287    83.135864 
   43600    809.37354   -109.88851   0.73233819   -109.15617    9997.7582    4.3511976    4.3511976    4.3511976    9997.7582     15520.73    10269.259    4203.2854       4355.6   -2075.1664   -19201.784    82.380878 
   43700    450.52793   -109.57242   0.40764714   -109.16477   -7799.8354    4.3674405    4.3674405    4.3674405   -7799.8354   -16867.735    152.98643    -6684.758   -180.24916    11946.863    952.62642    83.306906 
   43800    735.80509   -109.82796   0.66577191   -109.16219    1163.8414    4.3579598    4.3579598    4.3579598    1163.8414    1368.1665    -5094.359    7217.7165   -16050.074   -2624.9585    1778.9703    82.765559 
   43900    896.12021   -109.96871    0.8108284   -109.15789    7766.8845    4.3582004    4.3582004    4.3582004    7766.8845    13867.835    17439.246   -8006.4277    3502.5623    856.86483   -14710.014     82.77927 
   44000    497.52164   -109.61408   0.45016804   -109.16391   -13989.897    4.3685777    4.3685777    4.3685777   -13989.897   -20070.071   -15244.878   -6654.7423   -6504.3604    13510.592    2812.1755    83.371997 
   44100    641.31637   -109.74231   0.58027653   -109.16204    9357.9455    4.3519822    4.3519822    4.3519822    9357.9455    18309.115   -4816.4335    14581.155   -16065.191    -3353.098    3587.9422     82.42545 
   44200    1018.8762   -110.08072    0.9219006   -109.15882    2174.8549    4.3625708    4.3625708    4.3625708    2174.8549    15953.342    5210.9211   -14639.698    5339.7821   -1263.1337    -6857.217    83.028553 
   44300     540.6965   -109.65578   0.48923356   -109.16655   -3118.0197    4.3638804    4.3638804    4.3638804   -3118.0197     3282.054   -16273.462    3637.3492    -12782.83    11293.268    2981.7983    83.103348 
   44400    522.95174   -109.63805   0.47317772   -109.16487   -1494.2941    4.3613579    4.3613579    4.3613579   -1494.2941    8822.8657    -16706.29    3400.5417   -9540.4288   -5430.2314    5151.1652     82.95932 
   44500    1005.1387   -110.06473   0.90947059   -109.15526    476.87616    4.3596039    4.3596039    4.3596039    476.87616     3896.593    9742.0635   -12208.028    5687.8185   -8907.4625   -502.21313    82.859267 
   44600     700.1802   -109.79633   0.63353776   -109.16279   -5749.1306    4.3580572    4.3580572    4.3580572   -5749.1306   -6073.3628   -22549.363    11375.334   -15604.366    10080.166    3235.2323    82.771108 
   44700     523.3716   -109.63839   0.47355762   -109.16483   -16493.215    4.3664213    4.3664213    4.3664213   -16493.215   -15997.465   -22686.412   -10795.768   -1331.5881   -5776.9678    11428.424    83.248593 
   44800    935.80408   -110.00421   0.84673519   -109.15748   -1101.0836    4.3572358    4.3572358    4.3572358   -1101.0836    230.71549    14168.227   -17702.193    4055.0015   -17695.991   -2058.9215    82.724316 
   44900     909.3821   -109.98158   0.82282804   -109.15875    -9434.663    4.3618056    4.3618056    4.3618056    -9434.663   -5194.6387   -21462.502   -1646.8487   -13913.962    8769.5709    3546.8093    82.984872 
   45000    518.91529   -109.63291   0.46952546   -109.16338   -13277.116     4.363045     4.363045     4.363045   -13277.116   -10365.661   -12896.129   -16569.557    3466.1304   -8786.6927    11586.882     83.05563 
   45100    722.24636   -109.81576   0.65350368   -109.16226   -1589.6938    4.3568525    4.3568525    4.3568525   -1589.6938    2846.6224    15839.774   -23455.478    6143.8334   -25705.779   -530.40457    82.702486 
   45200    1114.5065   -110.16672    1.0084289   -109.15829   -3828.6919    4.3596443    4.3596443    4.3596443   -3828.6919    7375.0866   -16673.832   -2187.3302   -7531.8506    7887.1585    4240.0154    82.861574 
   45300    429.28531    -109.5571   0.38842637   -109.16868   -7612.7112     4.363772     4.363772     4.363772   -7612.7112    2534.6559   -1375.1527   -23997.637   -16.769437   -16447.892    6673.5642    83.097156 
   45400     597.6136   -109.70948   0.54073334   -109.16875   -12193.262    4.3597611    4.3597611    4.3597611   -12193.262   -17368.833    11956.795   -31167.749    9914.8515   -23811.294    4674.4041    82.868231 
   45500     1160.967   -110.20929    1.0504674   -109.15883    3846.3833    4.3554538    4.3554538    4.3554538    3846.3833    15456.117   -878.40029   -3038.5664   -5948.0818    14991.643   -462.40968    82.622862 
   45600    538.75592   -109.65521   0.48747768   -109.16773   -20285.594    4.3690488    4.3690488    4.3690488   -20285.594    -18059.51   -7705.4232   -35091.849   -238.85881   -30192.217    6958.7253     83.39897 
   45700    475.89475    -109.5991   0.43059957    -109.1685   -8752.3618    4.3576214    4.3576214    4.3576214   -8752.3618   -16744.695    11741.723   -21254.113     11904.98   -9090.8179    4517.9175     82.74628 
   45800    1110.1687   -110.16354    1.0045039   -109.15903    4303.9978     4.354706     4.354706     4.354706    4303.9978    15991.628    36.086734   -3115.7214   -6270.2289    14112.218   -2752.4994    82.580313 
   45900    665.06026   -109.76685    0.6017605   -109.16509   -16485.754    4.3696296    4.3696296    4.3696296   -16485.754   -19078.434    -3442.003   -26936.825    2303.9874   -32276.384    5466.1598    83.432237 
   46000    469.40872   -109.59146   0.42473088   -109.16673    626.05289    4.3540489    4.3540489    4.3540489    626.05289   -6854.9779    7965.8408    767.29577    6203.1341    1036.4258    2487.5717    82.542933 
   46100    989.29622   -110.05581   0.89513601   -109.16068    -3907.527    4.3615956    4.3615956    4.3615956    -3907.527   -1887.4459   -6311.0016   -3524.1335   -2613.5361    12366.215   -3396.2916    82.972886 
   46200    750.33728   -109.83886   0.67892094   -109.15994    -6316.475    4.3676777    4.3676777    4.3676777    -6316.475   -9086.4638   -3411.0663    -6451.895   -964.24712   -25258.568    594.50861    83.320475 
   46300    570.21269   -109.67577   0.51594042   -109.15983    2311.4054    4.3549036    4.3549036    4.3549036    2311.4054   -668.75518    4662.9701    2940.0011    7772.5422    6149.6016    3853.5521    82.591555 
   46400    790.63422   -109.87484   0.71538246   -109.15945   -6500.6367    4.3627565    4.3627565    4.3627565   -6500.6367   -7992.0445   -11787.486    277.61988   -8183.5362    11092.484   -6203.7354    83.039154 
   46500    820.00462   -109.90029   0.74195741   -109.15834    3666.7483    4.3600562    4.3600562    4.3600562    3666.7483    2642.2445    4568.2456    3789.7549   -4804.9576   -12588.826   -771.30018    82.885063 
   46600    568.45006   -109.67722   0.51434556   -109.16288   -1949.5947     4.361084     4.361084     4.361084   -1949.5947   -2570.6903    5880.7799   -9158.8738    13683.623    7715.7393    3392.7544    82.943689 
   46700    621.31481   -109.72492    0.5621787   -109.16274   -5256.6923    4.3617185    4.3617185    4.3617185   -5256.6923   -16631.756    -4294.268    5155.9468   -15769.374    10492.226   -7792.1691    82.979897 
   46800    863.44866   -109.93936   0.78126649    -109.1581    7229.6973    4.3582616    4.3582616    4.3582616    7229.6973    7957.1974    12988.149    743.74558   -3310.0951   -6889.5663     516.9315    82.782757 
   46900    662.72989   -109.76279   0.59965193   -109.16314   -9722.6224    4.3632042    4.3632042    4.3632042   -9722.6224     -7045.01   -7213.2538   -14909.603    14510.538    9417.1691    5128.5466    83.064725 
   47000    469.93864   -109.59112   0.42521036   -109.16591    4924.3654      4.35426      4.35426      4.35426    4924.3654   -7040.0419    1669.4169    20143.721   -15958.618    10795.664    -4405.628    82.554939 
   47100    1028.5513   -110.09121   0.93065482   -109.16056   -1512.4561    4.3625627    4.3625627    4.3625627   -1512.4561    7003.4409   -4427.0804   -7113.7289   -2574.9659   -6420.7213    3424.8028    83.028092 
   47200    661.18098   -109.76178   0.59825045   -109.16353    -5380.476    4.3643754    4.3643754    4.3643754    -5380.476    3892.0849   -5423.5253   -14609.988     8696.178    7325.4642    9706.9291    83.131632 
   47300    485.97804   -109.60367   0.43972314   -109.16395   -753.51333    4.3535259    4.3535259    4.3535259   -753.51333   -6611.7267   -8776.4314    13127.618   -18688.033    7749.7565   -3139.5025    82.513192 
   47400    954.67421   -110.02203   0.86380929   -109.15822   -6087.6255    4.3636853    4.3636853    4.3636853   -6087.6255    10900.085   -13870.832    -15292.13   -5619.7681   -6194.4941    7832.8067      83.0922 
   47500    757.44514   -109.84645   0.68535228   -109.16109   -10063.115    4.3613321    4.3613321    4.3613321   -10063.115     3493.375   -16336.414   -17346.306    1478.6564    3653.5606    13484.326    82.957846 
   47600    510.35621   -109.62619   0.46178103    -109.1644   -6074.6989    4.3565596    4.3565596    4.3565596   -6074.6989   -15132.335   -14540.372    11448.611   -23770.291    4436.9467   -2780.4309    82.685806 
   47700    951.37954   -110.01953    0.8608282    -109.1587   -12176.706    4.3642646    4.3642646    4.3642646   -12176.706   -1475.0826   -16216.012   -18839.024   -5586.0737   -11537.227    11050.002    83.125301 
   47800     783.8528   -109.86866   0.70924648   -109.15941   -6742.2983    4.3605314    4.3605314    4.3605314   -6742.2983    4755.3604   -11520.939   -13461.316   -1521.6913    284.48232    12345.072    82.912167 
   47900    707.94808    -109.8003    0.6405663   -109.15974   -5460.1289     4.359427     4.359427     4.359427   -5460.1289   -9204.0108   -18281.151    11104.775   -23690.131    9465.0848    128.86237    82.849185 
   48000    804.74828   -109.88498   0.72815316   -109.15683   -4538.8966    4.3640966    4.3640966    4.3640966   -4538.8966    8598.3757   -2408.7675   -19806.298      1834.79   -16735.157    8799.4585    83.115698 
   48100     751.7651   -109.83621   0.68021286   -109.15599   -2127.7017    4.3603648    4.3603648    4.3603648   -2127.7017    4795.3651   -7999.1182   -3179.3519   -4725.3266    -1606.616    10548.546    82.902661 
   48200    633.71209   -109.73104   0.57339602   -109.15764    2191.3973    4.3607682    4.3607682    4.3607682    2191.3973    1620.0459   -9833.8427    14787.989   -19707.323    10615.884   -2508.6083    82.925676 
   48300    673.89333   -109.76932   0.60975285   -109.15957    762.08519    4.3583417    4.3583417    4.3583417    762.08519    8085.6312    9854.9327   -15654.308     8199.347   -17211.316    3457.2881    82.787322 
   48400    554.30974   -109.66311    0.5015511   -109.16156    3375.6392    4.3630659    4.3630659    4.3630659    3375.6392    7077.5625   -4002.8765    7052.2315   -7214.6933    195.89506    8883.1304    83.056825 
   48500    752.83242    -109.8399   0.68117859   -109.15872    -2733.746    4.3635903    4.3635903    4.3635903    -2733.746   -7631.4235   -11170.647    10600.832    -17334.52    5345.4583   -7541.8452    83.086777 
   48600     658.7288   -109.75388   0.59603166   -109.15785     13135.22    4.3514367    4.3514367    4.3514367     13135.22    5132.2193    29861.401    4412.0405    10664.559   -15534.843    3631.9454    82.394459 
   48700    596.04252   -109.70142   0.53931179   -109.16211   -10281.665    4.3690359    4.3690359    4.3690359   -10281.665   -17707.781   -10763.913   -2373.3002   -12513.121   -3595.0429    8453.9507     83.39823 
   48800    841.24067   -109.92033   0.76117224   -109.15916   -1411.9037    4.3588155    4.3588155    4.3588155   -1411.9037   -13741.832   -4838.7294     14344.85   -20119.831    1023.9046   -4631.9055    82.814324 
   48900    773.25856   -109.85771   0.69966059   -109.15805    12367.016    4.3493949    4.3493949    4.3493949    12367.016    3473.8052    32198.141    1429.1017    6482.0994   -19565.382    3010.2277    82.278529 
   49000    513.00106   -109.62756   0.46417414   -109.16339   -20024.208    4.3732984    4.3732984    4.3732984   -20024.208   -18202.221   -25338.831   -16531.573   -20125.054   -7956.0657    5326.8967    83.642565 
   49100    737.45008   -109.82615   0.66726033   -109.15889    10177.865    4.3534173    4.3534173    4.3534173    10177.865    12075.759   -344.75499     18802.59   -18814.797    3339.1485   -124.40433     82.50702 
   49200    775.79625    -109.8605   0.70195675   -109.15854    9196.4608    4.3557592    4.3557592    4.3557592    9196.4608    16594.739    20102.069   -9107.4255    4194.9131   -21541.911   -504.61294    82.640244 
   49300    391.87232   -109.51773   0.35457431   -109.16316   -12481.064    4.3703365    4.3703365    4.3703365   -12481.064    416.29097   -24033.653    -13825.83   -25986.132   -3851.5938    6391.6312    83.472735 
   49400    656.33542   -109.75219   0.59386608   -109.15832    13928.209    4.3512431    4.3512431    4.3512431    13928.209    21850.692    12057.946    7875.9894   -15013.287   -995.73329   -3880.8196    82.383463 
   49500    892.30915   -109.96509   0.80738007   -109.15771   -152.66783    4.3630305    4.3630305    4.3630305   -152.66783    4440.0246    14225.837   -19123.865    6089.7896   -16465.155   -4210.2751    83.054799 
   49600    424.61446    -109.5476   0.38420009    -109.1634   -477.03419    4.3641735    4.3641735    4.3641735   -477.03419   -7451.6401   -1479.0204    7499.5579   -34919.508     807.4044    8989.1684    83.120095 
   49700    833.93118   -109.91235   0.75455845   -109.15779    4074.6209    4.3550531    4.3550531    4.3550531    4074.6209   -340.61786    11149.898    1414.5827   -6895.9304   -5679.5987   -7380.9576    82.600063 
   49800    785.94569   -109.86959   0.71114017   -109.15845     367.8991    4.3626789    4.3626789    4.3626789     367.8991   -10727.262    16909.127   -5078.1677    7060.4375   -12170.828   -3768.8009    83.034727 
   49900    561.04588   -109.66865    0.5076461   -109.16101   -4485.0541    4.3613127    4.3613127    4.3613127   -4485.0541    -13132.28   -7467.3286    7144.4469   -33240.731   -306.16567    6759.5849    82.956741 
   50000     835.2145   -109.91219   0.75571964   -109.15647   -235.60825    4.3581432    4.3581432    4.3581432   -235.60825    10036.685   -6353.7678   -4389.7417    1626.5064   -2083.4649   -4095.7703     82.77601 
   50100    780.25342   -109.86415   0.70598969   -109.15816   -3554.3385    4.3591874    4.3591874    4.3591874   -3554.3385    1735.9774   -4815.8499   -7583.1431    1945.2955   -7071.7145   -2454.3474    82.835522 
   50200    461.27285   -109.58227   0.41736937    -109.1649   -7535.3356     4.362442     4.362442     4.362442   -7535.3356     -3066.88   -29705.847     10166.72   -29615.476   -2542.3869    4572.0798      83.0212 
   50300    945.26526   -110.01368   0.85529587   -109.15839    2390.1527    4.3557198    4.3557198    4.3557198    2390.1527    15976.238   -6158.1532   -2647.6265     3369.341    5647.3197    4718.1111    82.637999 
   50400     779.6377   -109.86629   0.70543258   -109.16086   -3371.0355    4.3616413    4.3616413    4.3616413   -3371.0355    399.87234   -7673.9276   -2839.0513   -2211.9813   -5877.5274   -3646.2846    82.975491 
   50500    442.04933   -109.56592   0.39997553   -109.16594   -9270.1734    4.3609965    4.3609965    4.3609965   -9270.1734   -14748.673   -23937.754    10875.906   -25867.269    380.26219    9536.5639    82.938698 
   50600    874.54788   -109.95096    0.7913093   -109.15965    13871.822    4.3522774    4.3522774    4.3522774    13871.822    21621.273    24298.846   -4304.6527    3543.9496     8123.207    8113.2455    82.442225 
   50700    824.15165   -109.90583   0.74570973   -109.16012   -11089.387    4.3689123    4.3689123    4.3689123   -11089.387   -13627.681   -12087.385   -7553.0951    -10444.58   -8027.0126   -5089.2727    83.391155 
   50800    356.12729    -109.4891   0.32223146   -109.16687    6459.7208    4.3497467    4.3497467    4.3497467    6459.7208    2511.5912     374.8294    16492.742   -25437.306    5365.9573    11899.005    82.298495 
   50900    729.22559   -109.82776   0.65981864   -109.16794     5718.278    4.3580189    4.3580189    4.3580189     5718.278    23638.696    11244.681   -17728.544    8312.5763    10107.631    12821.132    82.768928 
   51000    868.16613   -109.94597   0.78553496   -109.16044   -6452.0956    4.3670095    4.3670095    4.3670095   -6452.0956   -2663.7684   -12166.353   -4526.1651   -18577.039   -1107.4992    -3056.042     83.28224 
   51100     414.6355   -109.53799   0.37517091   -109.16282    13870.086    4.3481749    4.3481749    4.3481749    13870.086    24609.715   -4337.6457     21338.19   -18365.474    4936.9199    11219.921    82.209314 
   51200    721.07461   -109.81047   0.65244346   -109.15802   -12612.467    4.3703028    4.3703028    4.3703028   -12612.467    3481.0674   -12349.678   -28968.792    8552.4605    10913.166    15071.828    83.470801 
   51300    898.85383   -109.96878   0.81330183   -109.15548    6622.0623    4.3520628    4.3520628    4.3520628    6622.0623    8576.4285   -2412.2702    13702.029   -22462.209    440.39137   -2966.2537    82.430033 
   51400    589.06225   -109.69663   0.53299591   -109.16364   -3327.7387    4.3559597    4.3559597    4.3559597   -3327.7387    1988.1159       -20211    8239.6679   -7702.8903     3587.183    11279.977    82.651657 
   51500    677.52558   -109.77356   0.61303939   -109.16052   -16153.531    4.3678162    4.3678162    4.3678162   -16153.531   -5552.1237   -14256.648   -28651.821    9290.8981    15218.835    14872.343    83.328402 
   51600    922.38598   -109.98952   0.83459422   -109.15493    13233.041    4.3496959    4.3496959    4.3496959    13233.041    14949.342    2750.2258    21999.554   -14408.444   -6110.1912   -4922.3199    82.295613 
   51700    671.31294   -109.76701   0.60741805   -109.15959   -13228.147       4.3663       4.3663       4.3663   -13228.147   -10603.463   -30699.102    1618.1236    -3459.352    5440.6475    12280.901    83.241656 
   51800    507.98084   -109.62245   0.45963174   -109.16282    2269.1995    4.3555919    4.3555919    4.3555919    2269.1995    14382.567   -2574.7805   -5000.1883    14787.794    12632.056    11968.488     82.63072 
   51900    904.70102   -109.97641   0.81859249   -109.15782     7426.652    4.3589084    4.3589084    4.3589084     7426.652    7176.7504   -3142.6478    18245.853   -14166.273   -8616.8538   -4477.7034    82.819617 
   52000    662.36207   -109.76076   0.59931912   -109.16144   -4788.9405    4.3632287    4.3632287    4.3632287   -4788.9405     7983.585    -26012.03    3661.6236   -254.62065    5339.0546    7304.9983    83.066123 
   52100    295.86361   -109.43583   0.26770362   -109.16813     6241.428    4.3530522    4.3530522    4.3530522     6241.428    24165.106   -3781.0591   -1659.7635    14559.255    10239.943    11049.346    82.486265 
   52200    1065.1461   -110.12552   0.96376657   -109.16176    2015.9908    4.3616995    4.3616995    4.3616995    2015.9908    1761.0736   -4256.7521    8543.6507   -10026.041   -4374.8064   -4345.2646    82.978812 
   52300    694.69023   -109.79666   0.62857032   -109.16809    7946.0149     4.356742     4.356742     4.356742    7946.0149    33452.087   -7489.3298   -2124.7124    4008.5119    617.48067   -501.01083    82.696195 
   52400    303.43952   -109.44812   0.27455845   -109.17356   -12624.707    4.3635267    4.3635267    4.3635267   -12624.707    -8784.537    -11252.78   -17836.805    14039.829    17044.563    9895.6683    83.083144 
   52500    1164.8189   -110.21071    1.0539526   -109.15675    4881.6076    4.3576276    4.3576276    4.3576276    4881.6076    5540.9888    2450.7475    6653.0865    -5109.791   -287.58875   -3953.6716    82.746633 
   52600    693.78743   -109.79354   0.62775345   -109.16579    -8643.676    4.3569345    4.3569345    4.3569345    -8643.676    11523.413   -20072.239   -17382.202    5133.0837    2039.8029   -232.28923    82.707155 
   52700    346.68886   -109.48604   0.31369136   -109.17235   -15926.753    4.3581601    4.3581601    4.3581601   -15926.753   -18584.869   -14564.044   -14631.345    15147.697    22720.607    12259.159    82.776973 
   52800      1017.34   -110.08353   0.92051061   -109.16302   -309.77556    4.3602138    4.3602138    4.3602138   -309.77556   -1479.1908   -11197.039    11746.903   -3308.9372   -404.74078   -7972.7035    82.894049 
   52900     695.2353   -109.79539   0.62906351   -109.16633   -5336.0667    4.3602413    4.3602413    4.3602413   -5336.0667    4604.6082    -8011.574   -12601.234   -2098.9066    2159.5614    4077.6028    82.895617 
   53000    439.07871   -109.56434   0.39728765   -109.16706    5606.2964    4.3522455    4.3522455    4.3522455    5606.2964   -269.99264   -3282.0881     20370.97    15335.971    17339.499    11675.452    82.440414 
   53100    848.66101     -109.928   0.76788632   -109.16011   -2571.1881    4.3675255    4.3675255    4.3675255   -2571.1881    3740.4227   -16117.073    4663.0864   -11227.433   -377.48405   -5828.7632    83.311768 
   53200     811.9807   -109.89629    0.7346972   -109.16159    9796.9958    4.3514966    4.3514966    4.3514966    9796.9958    17443.368   -4335.5802      16283.2   -3570.0857   -1780.0703    7824.0138    82.397861 
   53300     412.3102   -109.54167   0.37306694   -109.16861    7763.8278    4.3554123    4.3554123    4.3554123    7763.8278     14333.21   -4153.5214    13111.794    14927.734    18602.447    6928.6941    82.620502 
   53400    760.84018    -109.8503   0.68842419   -109.16187   -12197.905     4.369114     4.369114     4.369114   -12197.905   -13883.657   -22662.174    -47.88434   -18718.559   -65.501185    1127.3095    83.402703 
   53500    863.81228   -109.93776    0.7815955   -109.15617    21402.789    4.3450183    4.3450183    4.3450183    21402.789    21677.839    10895.826    31634.703   -638.39103   -2963.0919    6895.0715    82.030397 
   53600    431.72652   -109.55644   0.39063523   -109.16581   -19150.826    4.3671646    4.3671646    4.3671646   -19150.826   -20831.208    -16601.02    -20020.25    11276.254    22398.943    8989.8762    83.291117 
   53700    717.04156   -109.81169   0.64879427    -109.1629   -7463.8944    4.3569403    4.3569403    4.3569403   -7463.8944   -15862.135   -17530.788     11001.24   -20777.009     -2773.26    23.184743    82.707488 
   53800    1005.1968   -110.06757    0.9095232   -109.15805    4470.5502    4.3497221    4.3497221    4.3497221    4470.5502     9595.875   -2978.0642      6793.84    -1857.728    4693.1438   -14.736411    82.297103 
   53900    408.40237   -109.53641   0.36953105   -109.16688   -24033.178    4.3690661    4.3690661    4.3690661   -24033.178   -24745.378   -15679.239   -31674.919    8320.2921    22735.547    13590.666    83.399963 
   54000    706.92078   -109.80227   0.63963677   -109.16263    12000.922    4.3478803    4.3478803    4.3478803    12000.922     20328.69   -6610.9094    22284.986   -15936.274   -3188.4567   -6757.8321    82.192606 
   54100    935.24634    -110.0044   0.84623055   -109.15817   -10528.425    4.3648498    4.3648498    4.3648498   -10528.425    108.47017    -15465.93   -16227.817   -1686.7039    5789.3272   -6039.3675    83.158742 
   54200    430.41146    -109.5555   0.38944534   -109.16606   -1603.2326     4.354076     4.354076     4.354076   -1603.2326    3539.4306    3404.8036   -11753.932     5708.632     15330.31    12551.933    82.544476 
   54300    740.31249   -109.83394    0.6698503   -109.16409    1156.4587    4.3535384    4.3535384    4.3535384    1156.4587    6072.9588    -22611.43    20007.847   -10026.542    556.31277   -8858.2147    82.513903 
   54400    746.00407   -109.83473   0.67500016   -109.15973   -12114.099    4.3671822    4.3671822    4.3671822   -12114.099    3543.2972   -22038.333   -17847.261   -2854.6659   -737.38991   -11630.113    83.292125 
   54500    654.15625    -109.7519   0.59189432      -109.16    5373.8583    4.3454454    4.3454454    4.3454454    5373.8583   -10208.206    9789.5762    16540.205    5090.6624    12046.295      3949.41    82.054593 
   54600    662.09421   -109.76116   0.59907675   -109.16208   -10363.382    4.3646106    4.3646106    4.3646106   -10363.382   -14705.547   -29876.702    13492.104   -2690.0478     870.4295   -12432.111    83.145071 
   54700    766.20244   -109.85391   0.69327607   -109.16064   -4924.1067     4.356451     4.356451     4.356451   -4924.1067   -149.37933   -11200.686   -3422.2548   -4038.1565    -2507.578   -11696.976    82.679624 
   54800    635.85814   -109.73683   0.57533781   -109.16149    4414.6887    4.3509996    4.3509996    4.3509996    4414.6887   -19465.995    11223.228    21486.832    7044.0081    14292.638    4148.2418     82.36963 
   54900    770.25339   -109.85644   0.69694146   -109.15949    -10211.22    4.3652735    4.3652735    4.3652735    -10211.22   -10886.722   -31243.733    11496.796    2022.2708   -1076.1682   -12076.378    83.182964 
   55000    775.75865   -109.85978   0.70192273   -109.15786    9744.6228    4.3525174    4.3525174    4.3525174    9744.6228    13253.321    1931.5612    14048.986   -1420.9529    3426.1446   -10010.118    82.455866 
   55100    504.91121   -109.62101   0.45685428   -109.16416   -6560.8278    4.3589213    4.3589213    4.3589213   -6560.8278   -26235.801    5622.1427     931.1744    7024.7198     14194.32     7007.046    82.820353 
   55200    821.90973   -109.90429    0.7436812   -109.16061    3154.1047    4.3575171    4.3575171    4.3575171    3154.1047    10801.732   -15652.708     14313.29    4505.5355   -3482.0681   -8327.9231    82.740339 
   55300    786.76781   -109.87333   0.71188405   -109.16145    3293.0327    4.3571137    4.3571137    4.3571137    3293.0327    9060.4831    -1668.003    2486.6181    917.37468     6011.075   -9115.6471    82.717365 
   55400    250.88551   -109.39772   0.22700648   -109.17071   -4989.1967    4.3574501    4.3574501    4.3574501   -4989.1967   -16146.097    5764.0484   -4585.5419    4927.0933    9090.9399    10438.496    82.736523 
   55500    913.38787   -109.99049   0.82645254   -109.16403    3085.6682    4.3591227    4.3591227    4.3591227    3085.6682    6516.9617   -13042.425    15782.468    7804.2619   -5076.3262   -4611.8083    82.831833 
   55600    848.31493   -109.93215   0.76757318   -109.16457   -445.31182    4.3591184    4.3591184    4.3591184   -445.31182   -6690.6635    -377.7618    5732.4899   -4297.7864    7903.6789   -3406.2915     82.83159 
   55700    238.54774   -109.38742   0.21584301   -109.17157    382.22149    4.3549627    4.3549627    4.3549627    382.22149   -18535.719    17805.672    1876.7122     6652.434    6567.9921    11860.479    82.594917 
   55800    1057.8168   -110.11852   0.95713487   -109.16139   -5660.8028    4.3647443    4.3647443    4.3647443   -5660.8028   -13855.935   -10882.845    7756.3717    5054.1791   -8385.5506   -4653.8553     83.15271 
   55900    880.41285   -109.96047   0.79661605   -109.16386    11267.066    4.3500212    4.3500212    4.3500212    11267.066   -7832.3051    13686.222    27947.282   -7937.5685    10738.031   -776.64611    82.314079 
   56000    384.58897   -109.52078   0.34798418    -109.1728   -6294.3141    4.3603074    4.3603074    4.3603074   -6294.3141   -25426.547    9033.5088   -2489.9045    4970.0345    1526.1855    7430.1394    82.899387 
   56100    973.62277   -110.04246   0.88095434   -109.16151   -6425.0116     4.362857     4.362857     4.362857   -6425.0116   -15572.797   -8425.4888    4723.2506    76.832071    -9956.732   -7089.7089    83.044892 
   56200    761.70446   -109.84841    0.6892062    -109.1592    13421.344    4.3469117    4.3469117    4.3469117    13421.344    6812.3087    8495.2166    24956.506   -9914.8488    10599.548   -2949.9088    82.137685 
   56300    529.72988   -109.64225   0.47931072   -109.16294   -13219.782    4.3674884    4.3674884    4.3674884   -13219.782   -21303.921    -4.340037   -18351.087    4400.0299   -418.55042    5325.1088    83.309645 
   56400     783.3632   -109.86792   0.70880348   -109.15911    13257.178    4.3498706    4.3498706    4.3498706    13257.178    17464.799     6678.874     15627.86   -2175.7016   -5464.2011   -9321.7763    82.305532 
   56500    630.31263   -109.73336   0.57032011   -109.16304    2506.7285    4.3565977    4.3565977    4.3565977    2506.7285    11047.101   -13354.279    9827.3639   -12853.733    5055.3549   -9491.8008     82.68798 
   56600     696.0522   -109.78992   0.62980266   -109.16011   -7184.6112    4.3636338    4.3636338    4.3636338   -7184.6112   -19333.571     1408.607     -3628.87    4750.4538    5520.5919    6588.4708    83.089262 
   56700    717.57641   -109.80658   0.64927822    -109.1573    15438.215    4.3458919    4.3458919    4.3458919    15438.215    25731.587    1242.2129    19340.846   -5313.6676   -6395.1146    -12660.68    82.079889 
   56800    592.08399   -109.69791   0.53573004   -109.16218   -14579.922    4.3661799    4.3661799    4.3661799   -14579.922   -11225.819    -27666.17    -4847.778   -16005.824       7073.1   -13497.941    83.234788 
   56900    853.15481   -109.92986    0.7719524   -109.15791    9792.1611    4.3508879    4.3508879    4.3508879    9792.1611   -4835.7632    12588.845    21623.401    3615.7545    9145.5231    7140.1885    82.363289 
   57000    673.03979   -109.77207   0.60898054   -109.16309   -2925.3377    4.3568692    4.3568692    4.3568692   -2925.3377    5019.2633   -8443.8563   -5351.4201    -8939.663   -9238.6982   -19857.382    82.703437 
   57100    512.52898   -109.62759   0.46374699   -109.16384   -12327.211    4.3615674    4.3615674    4.3615674   -12327.211   -14806.593   -28131.591    5956.5501    -20146.01    5967.2134    -14035.98    82.971273 
   57200    878.64594   -109.95217   0.79501731   -109.15715    8704.6018    4.3475647    4.3475647    4.3475647    8704.6018   -4249.9258    17027.625    13336.106    5760.9876    4172.2748     7177.095    82.174705 
   57300    649.29033    -109.7483   0.58749153   -109.16081    -18186.36     4.367337     4.367337     4.367337    -18186.36    -9456.596   -26720.006   -18382.479   -8293.9964   -3205.5189   -20260.246     83.30098 
   57400    558.40579   -109.66824   0.50525729   -109.16298    5162.1573    4.3484322    4.3484322    4.3484322    5162.1573    5018.8562   -7318.0215    17785.637   -25874.844    1604.9307   -11512.955    82.223905 
   57500    930.40796   -110.00297   0.84185267   -109.16112   -168.14464    4.3580106    4.3580106    4.3580106   -168.14464   -5780.3243    8686.0436   -3410.1533    11277.038    6177.0112    8394.2051    82.768455 
   57600        686.2   -109.78452   0.62088818   -109.16364   -11136.375    4.3613956    4.3613956    4.3613956   -11136.375   -8578.7371   -15172.459   -9657.9293   -10955.443    -1137.519   -16020.423    82.961474 
   57700    572.76201   -109.68142    0.5182471   -109.16317    10822.086    4.3451876    4.3451876    4.3451876    10822.086    8782.0086     210.8286    23473.422   -27913.442    2627.3885   -8218.6407    82.039987 
   57800    942.98491   -110.00993   0.85323256    -109.1567   -15200.214     4.369578     4.369578     4.369578   -15200.214   -26015.383    1474.1136   -21059.372    14408.215    10133.477     6121.179    83.429279 
   57900    584.04212   -109.69153   0.52845358   -109.16307    5265.4859    4.3476791    4.3476791    4.3476791    5265.4859    3059.5809   -1429.6923    14166.569   -20537.173   -5794.4071   -7849.8176    82.181195 
   58000    477.12888   -109.60146   0.43171624   -109.16974   -523.13968    4.3549501    4.3549501    4.3549501   -523.13968   -12633.947   -603.24741    11667.776   -26660.864     4883.259   -10005.831    82.594199 
   58100    1050.6852   -110.10706   0.95068201   -109.15638   -9318.1408    4.3651484    4.3651484    4.3651484   -9318.1408   -23133.541    11972.665   -16793.546    11525.808    7904.3435     2226.931    83.175809 
   58200    492.81827   -109.60875   0.44591233   -109.16284    11849.207    4.3445192    4.3445192    4.3445192    11849.207   -771.64374    10593.488    25725.778   -28138.642   -5444.1714   -3586.3307    82.002134 
   58300    579.87933   -109.69043     0.524687   -109.16574   -14993.295    4.3657126    4.3657126    4.3657126   -14993.295   -21024.295   -20945.884   -3009.7064   -16450.999    3646.6205   -14312.853    83.208064 
   58400    1032.6769   -110.09228   0.93438777   -109.15789    10628.038     4.351139     4.351139     4.351139    10628.038   -921.76065    33427.315   -621.43871    8149.0257    5215.7636    1870.9573    82.377551 
   58500    544.64779   -109.65986   0.49280876   -109.16706    1500.5665    4.3524553    4.3524553    4.3524553    1500.5665   -9256.0021   -7146.6557    20904.357    -33807.54   -2946.2185   -2946.8689    82.452334 
   58600    581.26358   -109.68966    0.5259395   -109.16372   -10029.842    4.3637821    4.3637821    4.3637821   -10029.842   -13271.542   -10030.308   -6787.6771   -7555.8889    2012.8156   -13501.063    83.097732 
   58700    853.96342   -109.92916   0.77268405   -109.15648     11523.32    4.3489248    4.3489248    4.3489248     11523.32      2753.18    21547.311     10269.47    9543.7662    7677.7697    5986.1746    82.251851 
   58800    619.16907   -109.72066   0.56023718   -109.16042   -8058.9827    4.3600117    4.3600117    4.3600117   -8058.9827    -21936.75   -12798.471    10558.273   -31040.222   -5422.7659   -1253.6837    82.882525 
   58900     598.9562   -109.70314   0.54194816   -109.16119    2274.9626     4.353504     4.353504     4.353504    2274.9626    2441.5874    4009.3116    373.98889   -515.97802         4048   -18008.195    82.511946 
   59000    692.92617   -109.78973   0.62697416   -109.16275    3870.8382    4.3545761    4.3545761    4.3545761    3870.8382    2367.6763    9774.4827   -529.64439    10203.775    7945.9071    6699.1234     82.57292 
   59100    853.59403   -109.93203   0.77234982   -109.15969    501.02954    4.3578339    4.3578339    4.3578339    501.02954   -5281.9128    1464.8612    5320.1402   -17842.143   -4118.4353    2289.5305    82.758386 
   59200    615.80147   -109.72044   0.55719011   -109.16325    3767.3118    4.3528436    4.3528436    4.3528436    3767.3118    11456.819    4665.4182   -4820.3012    5268.2404    6765.4275   -25842.658    82.474404 
   59300     620.2508   -109.72432   0.56121596   -109.16311   -3576.3416    4.3594545    4.3594545    4.3594545   -3576.3416   -4007.5612   -7676.1411    954.67753    12452.292    4569.8368     11379.09     82.85075 
   59400    959.57274   -110.02446   0.86824158   -109.15621    4449.4132    4.3532657    4.3532657    4.3532657    4449.4132    1478.2391    7206.4601    4663.5403   -7318.2447   -762.83513   -4176.6597    82.498401 
   59500    515.38345   -109.63193   0.46632978    -109.1656   -4422.3038    4.3546162    4.3546162    4.3546162   -4422.3038    4729.3838   -11545.212   -6451.0836    3478.9998    4692.7059    -30695.39    82.575203 
   59600    570.58726   -109.68228   0.51627935     -109.166   -3272.2172    4.3555926    4.3555926    4.3555926   -3272.2172   -9226.1561    -2958.589    2368.0934    17661.305    6273.2197    14085.658    82.630763 
   59700    886.06142    -109.9619   0.80172699   -109.16017    2814.1566    4.3575066    4.3575066    4.3575066    2814.1566    2168.6621   -409.53122    6683.3388   -2135.0663   -2866.9275   -4262.9257    82.739739 
   59800    609.98194   -109.71583   0.55192447   -109.16391   -1845.3068    4.3546072    4.3546072    4.3546072   -1845.3068    9700.0922   -11142.954   -4093.0586    1831.5779    2727.4833   -27491.221    82.574694 
   59900    581.11724   -109.68867   0.52580709   -109.16286    4475.3144    4.3546782    4.3546782    4.3546782    4475.3144   -7057.7976    5418.3545    15065.386    18653.723    6363.6834    13735.398     82.57873 
   60000    861.89115    -109.9387   0.77985723   -109.15884   -5882.4364    4.3603519    4.3603519    4.3603519   -5882.4364    985.58289   -12946.347    -5686.545   -3739.4974   -5452.4425   -2314.1074    82.901924 
   60100    685.90314   -109.78111   0.62061958   -109.16049    10668.706    4.3478308    4.3478308    4.3478308    10668.706    21556.683    430.72475    10018.711    3266.9873    3437.1725   -28807.443    82.189799 
   60200    673.68206   -109.77343   0.60956168   -109.16387   -4563.7644    4.3595702    4.3595702    4.3595702   -4563.7644   -14720.531   -4733.5861    5762.8242    18356.758    1856.4882    15228.077    82.857346 
   60300    688.20487   -109.78412   0.62270223   -109.16142   -31.622453    4.3593007    4.3593007    4.3593007   -31.622453    3674.0789   -17275.981    13507.035   -6987.1812   -350.61595    -4784.096    82.841982 
   60400    791.77845   -109.87486   0.71641778   -109.15844    10081.026    4.3467293    4.3467293    4.3467293    10081.026    17673.976    1697.6825     10871.42    6575.8184   -372.13754   -27685.769    82.127343 
   60500    606.37633   -109.71109   0.54866205   -109.16243   -4664.8557    4.3614349    4.3614349    4.3614349   -4664.8557   -22217.545   -12601.267    20824.245    24712.954    4332.6569    14904.776    82.963714 
   60600     710.1294   -109.80309   0.64254001   -109.16055    2975.5036    4.3541528    4.3541528    4.3541528    2975.5036    7421.5373   -7776.1363    9281.1099   -10916.596    3554.4604   -10514.078    82.548843 
   60700     631.8492   -109.73269   0.57171043   -109.16098    3526.3934    4.3538769    4.3538769    4.3538769    3526.3934    5400.0704   -6265.8316    11444.941      10630.9   -6697.9455   -15371.783    82.533156 
   60800     675.8807   -109.77264   0.61155106   -109.16109   -7646.4693    4.3589873    4.3589873    4.3589873   -7646.4693   -24133.095   -20609.284    21802.971    29402.273    7248.0573    6613.2791    82.824115 
   60900    817.26032   -109.89815   0.73947431   -109.15867    8099.5612    4.3499992    4.3499992    4.3499992    8099.5612    13670.829   -669.21152    11297.066   -15350.361    1685.0434   -4504.4473    82.312827 
   61000    529.30442   -109.64416   0.47892576   -109.16524    -14539.71    4.3603885    4.3603885    4.3603885    -14539.71   -11213.192   -31653.684   -752.25393    22710.786   -4097.2909   -10532.527    82.904016 
   61100    731.04175   -109.82537   0.66146194   -109.16391    1149.3689    4.3526696    4.3526696    4.3526696    1149.3689   -9839.3826   -13061.707    26349.196    28308.757   -1483.6518    1066.3239    82.464515 
   61200    1041.1722   -110.10124   0.94207445   -109.15917   -100.27181    4.3558811    4.3558811    4.3558811   -100.27181    12941.805   -5372.7886   -7869.8316   -13997.945    1524.6992   -1062.8403     82.64718 
   61300    287.24876   -109.43125   0.25990871   -109.17134   -13459.885    4.3585693    4.3585693    4.3585693   -13459.885   -13400.098   -38343.365    11363.809     35115.62   -633.70133   -13129.682    82.800294 
   61400    729.91767   -109.82862   0.66044484   -109.16817    6355.9673    4.3485143    4.3485143    4.3485143    6355.9673    2604.8941   -6190.5517    22653.559    19175.197    -6117.229    3385.5771    82.228567 
   61500    1062.8085   -110.12247   0.96165146   -109.16081   -5529.3125    4.3625115    4.3625115    4.3625115   -5529.3125   -1164.9384   -7073.8016   -8349.1975   -8551.9589    11947.769   -3848.6256    83.025166 
   61600    247.49048   -109.39691   0.22393459   -109.17298    1807.4494    4.3517994    4.3517994    4.3517994    1807.4494    11530.735   -29348.042    23239.656    39419.858    -4569.912    -11648.79    82.415065 
   61700    763.45949   -109.85905   0.69079419   -109.16825    2104.9075    4.3541475    4.3541475    4.3541475    2104.9075    1918.5202   -5596.4179    9992.6204      7854.49   -2788.2065    716.82013    82.548541 
   61800     1007.702   -110.07322   0.91178997   -109.16143   -484.37536    4.3583071    4.3583071    4.3583071   -484.37536      1232.45    896.94144   -3582.5175   -4294.0527    11177.899    1413.5631    82.785349 
   61900    400.99835   -109.53262   0.36283174   -109.16978   -1529.5778     4.351131     4.351131     4.351131   -1529.5778    -5233.143    -20752.04    21396.449    40366.479   -3097.2161   -11806.059    82.377093 
   62000    749.47631   -109.84277   0.67814191   -109.16462   -7312.3132    4.3603471    4.3603471    4.3603471   -7312.3132   -6231.3206   -7604.5269   -8101.0921   -1553.5069   -6607.8991   -2507.8809    82.901653 
   62100    940.80405    -110.0102   0.85125928   -109.15894    1288.4293    4.3532897    4.3532897    4.3532897    1288.4293   -7473.2907    6892.7678    4445.8109   -302.83515    2060.3866    5420.4616    82.499763 
   62200    413.56756   -109.54036   0.37420462   -109.16616   -5114.6382    4.3564369    4.3564369    4.3564369   -5114.6382   -6078.6703    -20060.96    10795.716     34064.14    800.49807   -13588.142    82.678825 
   62300    764.87819   -109.85573   0.69207786   -109.16366   -4272.8416    4.3545006    4.3545006    4.3545006   -4272.8416   -4056.9955    1636.2938   -10397.823    -3651.136   -15693.204   -4887.9951    82.568625 
   62400    859.68424    -109.9393   0.77786037   -109.16144    4461.2276    4.3534982    4.3534982    4.3534982    4461.2276   -1532.0707     8703.001    6212.7524    574.43521    4014.6521    3949.4785    82.511617 
   62500    518.99845   -109.63611    0.4696007   -109.16651   -10837.335    4.3601426    4.3601426    4.3601426   -10837.335   -12836.098   -22738.508     3062.601    23099.404    208.63196   -14060.022    82.889991 
   62600     630.8833   -109.73376   0.57083646   -109.16292    7230.0909    4.3516601    4.3516601    4.3516601    7230.0909    19164.703    11334.648    -8809.078   -3048.7386   -23217.653   -7895.4119    82.407149 
   62700    942.67418   -110.01066   0.85295141   -109.15771   -2287.7707    4.3588587    4.3588587    4.3588587   -2287.7707   -6190.3582    785.67637   -1458.6302    2786.8841    7062.3155    4109.4488    82.816784 
   62800     500.1086   -109.61742   0.45250877   -109.16491   -1127.1489    4.3546099    4.3546099    4.3546099   -1127.1489    2537.7215   -6879.4142    960.24602    16699.393   -1829.8404   -15900.104    82.574845 
   62900    623.27328   -109.73065   0.56395076    -109.1667    385.87271    4.3526499    4.3526499    4.3526499    385.87271    2176.1961    15678.708   -16697.286    499.88994   -24272.219   -11046.211    82.463395 
   63000    1029.2204   -110.09045   0.93126023   -109.15919   -1485.9283     4.360365     4.360365     4.360365   -1485.9283   -9272.5701    4871.0327   -56.247662   -1330.9511    2257.0639    6773.0873    82.902676 
   63100    595.13847   -109.70492   0.53849379   -109.16643   -339.02644    4.3523981    4.3523981    4.3523981   -339.02644   -1790.2591   -1612.8495    2386.0293    12921.807   -4000.1845   -13668.592    82.449087 
   63200    507.69293   -109.62937   0.45937123      -109.17   -4498.3007    4.3571042    4.3571042    4.3571042   -4498.3007   -1475.6542    10167.093   -22186.341   -715.05775   -28424.556   -11752.071    82.716821 
   63300    1150.5417   -110.19873    1.0410343    -109.1577    1276.8031    4.3567454    4.3567454    4.3567454    1276.8031   -7199.8215    5754.4373    5275.7935    -1264.995    2200.6959    6738.2181    82.696387 
   63400    451.43995   -109.57728   0.40847236    -109.1688   -5285.4148    4.3564161    4.3564161    4.3564161   -5285.4148    -3351.393   -5697.2983    -6807.553    11937.842   -9004.6146   -13347.448    82.677638 
   63500    396.58689   -109.53121   0.35884015   -109.17237   -5243.9372    4.3554529    4.3554529    4.3554529   -5243.9372   -12418.782    12419.685   -15732.715   -2722.4912   -32737.595   -13067.514    82.622813 
   63600    1184.2206   -110.23171    1.0715077   -109.16021    10809.789    4.3530655    4.3530655    4.3530655    10809.789    10816.613      9362.93    12249.823    1977.5601    7497.6355    7149.8936    82.487019 
   63700     455.1537   -109.58582   0.41183264   -109.17399    -9045.563    4.3608958    4.3608958    4.3608958    -9045.563   -5376.8385   -9783.6105    -11976.24    10488.424   -15950.571   -13448.279    82.932953 
   63800    359.13777   -109.50113    0.3249554   -109.17617   -969.22696    4.3538804    4.3538804    4.3538804   -969.22696   -4611.2571    11205.979   -9502.4029    3429.1134    -30580.29   -14606.301    82.533355 
   63900    1282.0821   -110.31925    1.1600548   -109.15919    8713.0185    4.3563932    4.3563932    4.3563932    8713.0185    9578.7901    7731.0666    8829.1988    1194.2396    11128.243     7602.889    82.676333 
   64000    460.22686   -109.59054   0.41642293   -109.17412   -6487.9173    4.3594069    4.3594069    4.3594069   -6487.9173   -4549.0535   -1473.3872   -13441.311    3518.8345   -24566.457   -11749.226    82.848038 
   64100    307.32271   -109.45541   0.27807205   -109.17734    2145.9758     4.351326     4.351326     4.351326    2145.9758   -4567.0724    14782.362   -3777.3622    8454.0839    -25037.19   -15662.022    82.388173 
   64200    1215.1265   -110.26212     1.099472   -109.16264    7301.0628    4.3571077    4.3571077    4.3571077    7301.0628    9468.3514    4784.6678    7650.1691   -2578.4934    9485.4856    5041.6634     82.71702 
   64300    487.53359   -109.61667   0.44113064   -109.17554   -3725.4388    4.3580472    4.3580472    4.3580472   -3725.4388    -4074.072    8874.7737   -15977.018    2893.1109   -25597.424   -9339.6661    82.770539 
   64400     340.9263   -109.48285   0.30847728   -109.17437   -5087.9247    4.3558522    4.3558522    4.3558522   -5087.9247   -4464.3547    3361.1912   -14160.611    6985.6375   -20693.073   -17866.784    82.645539 
   64500    1156.7619   -110.20536    1.0466625    -109.1587    5862.4085    4.3570164    4.3570164    4.3570164    5862.4085    2784.1476    4544.6433    10258.435   -3059.3466    6745.5032    7173.1088    82.711824 
   64600    548.65283   -109.66658   0.49643261   -109.17015   -3628.7704    4.3556956    4.3556956    4.3556956   -3628.7704    -9220.171    13553.314   -15219.454    3303.7317   -24510.575   -12007.001    82.636626 
   64700    405.77432   -109.53959   0.36715313   -109.17244   -7434.3683    4.3540661    4.3540661    4.3540661   -7434.3683   -7971.6754   -4581.7924   -9749.6372    9333.3915   -14962.618   -20682.908    82.543912 
   64800     1048.711   -110.11062   0.94889575   -109.16172   -1617.7326    4.3581052    4.3581052    4.3581052   -1617.7326   -12051.425   -3167.5166    10365.744   -379.12066     8128.539    9175.7943    82.773846 
   64900    617.76974    -109.7255   0.55897104   -109.16653    -8287.666    4.3575851    4.3575851    4.3575851    -8287.666   -11336.531     7804.214   -21330.681   -3826.3287   -26127.893   -12265.721    82.744214 
   65000    528.01676   -109.64476   0.47776066     -109.167   -5599.8373    4.3528342    4.3528342    4.3528342   -5599.8373    1475.7764   -10519.321   -7755.9674    14417.281   -7448.9533   -17952.217    82.473868 
   65100    978.05496   -110.04436   0.88496468   -109.15939   -3858.4147    4.3586166    4.3586166    4.3586166   -3858.4147   -13052.582   -5471.1217    6948.4599    204.50991    8110.3158    4181.2727     82.80299 
   65200    691.56739   -109.78984    0.6257447    -109.1641   -2467.1378    4.3545029    4.3545029    4.3545029   -2467.1378   -3225.6368    8316.3792   -12492.156   -8901.3289   -25885.575    -6140.459    82.568756 
   65300    588.90847   -109.69789   0.53285676   -109.16503     -3204.22    4.3547683    4.3547683    4.3547683     -3204.22    10.706405   -8437.2749   -1186.0914    15512.935   -3371.3507   -15318.962    82.583856 
   65400    842.88472   -109.92251   0.76265981   -109.15985   -5655.9364    4.3593627    4.3593627    4.3593627   -5655.9364   -21613.811   -4565.7884    9211.7907   -889.88167    2210.2953    621.05216    82.845517 
   65500    660.40681   -109.76039   0.59754996   -109.16284     8019.159    4.3496861    4.3496861    4.3496861     8019.159     9945.222    17105.149   -2992.8944   -7825.7201   -19594.509    474.56537    82.295056 
   65600    562.67712   -109.67417   0.50912208   -109.16505   -3965.2531    4.3586352    4.3586352    4.3586352   -3965.2531    -5500.769   -10293.553    3898.5625    18440.744   -1392.5358   -15947.649    82.804047 
   65700    758.12456   -109.84751   0.68596703   -109.16154   -905.62187    4.3577826    4.3577826    4.3577826   -905.62187   -16497.286    3830.5872    9949.8334    5030.3725    1387.2604    2198.9644    82.755467 
   65800    774.14317   -109.85996   0.70046101   -109.15949    7827.2859    4.3510846    4.3510846    4.3510846    7827.2859    12522.344    9557.2823    1402.2315   -8859.6287   -14109.252    1670.6195    82.374461 
   65900    541.88151   -109.65484   0.49030577   -109.16453   -5996.5864    4.3595669    4.3595669    4.3595669   -5996.5864     -3865.55   -16620.812    2496.6022    24889.545   -1270.0938   -13924.612    82.857161 
   66000    797.77788   -109.88512   0.72184619   -109.16328    6895.4372    4.3518074    4.3518074    4.3518074    6895.4372    1092.3402    2114.6498    17479.322     10195.77    9208.7443    750.62354    82.415519 
   66100    893.84567   -109.97054   0.80877035   -109.16177    6642.6057     4.356031     4.356031     4.356031    6642.6057    17908.516     623.5861    1395.7148    -12720.93   -11650.696    2643.2802    82.655715 
   66200    383.32029   -109.51427   0.34683625   -109.16744   -6835.7331    4.3610397    4.3610397    4.3610397   -6835.7331   -7026.6652   -22814.442    9333.9081    31152.607   -2484.6686   -7315.3233    82.941165 
   66300    760.92865   -109.85002   0.68850424   -109.16152    5277.4002    4.3518214    4.3518214    4.3518214    5277.4002    936.58441   -246.56587    15142.182    8907.0003    9533.7662   -3583.0023    82.416315 
   66400    985.55562     -110.051   0.89175144   -109.15925    842.83009    4.3554742    4.3554742    4.3554742    842.83009   -620.33808   -1632.9856    4781.8139   -8114.4378   -8000.6456    3705.0501    82.624025 
   66500     267.9242   -109.41572   0.24242345   -109.17329   -3951.6721    4.3557065    4.3557065    4.3557065   -3951.6721   -747.50132   -27825.896    16718.381    36458.281    795.26602   -5979.2516    82.637242 
   66600    807.94559   -109.90096   0.73104615   -109.16991   -2830.7492    4.3564988    4.3564988    4.3564988   -2830.7492   -3305.9503   -10843.402    5657.1047    3826.8086    8091.6167   -6006.1968    82.682346 
   66700    1046.4162   -110.10807   0.94681934   -109.16125    749.62237     4.357729     4.357729     4.357729    749.62237    -1030.118   -1138.5534    4417.5386    1171.6533   -64.777588    1830.0675    82.752411 
   66800     364.9798   -109.50012   0.33024139   -109.16988   -6992.2616    4.3559046    4.3559046    4.3559046   -6992.2616   -1642.9561     -32605.7    13271.871    33878.075   -1164.1724   -7215.8997    82.648519 
   66900    726.69419   -109.82286   0.65752817   -109.16533   -3386.3738    4.3556687    4.3556687    4.3556687   -3386.3738    2489.8793   -8052.0617    -4596.939    -3115.203    12638.499    -6366.513    82.635093 
   67000    971.49824   -110.03889   0.87903202   -109.15986    1891.7658    4.3537772    4.3537772    4.3537772    1891.7658   -3159.5896    978.57129    7856.3158    4090.8977     6718.561    3623.5951    82.527485 
   67100    481.84031   -109.60457   0.43597924   -109.16859   -5980.9915    4.3573693    4.3573693    4.3573693   -5980.9915    2452.1893   -28452.646    8057.4822    28104.368   -3861.0251   -10157.481    82.731923 
   67200    622.49509   -109.72902   0.56324664   -109.16577   -3996.6955    4.3556692    4.3556692    4.3556692   -3996.6955   -1786.3054    -2175.348   -8028.4331   -2878.4175    17850.802   -7187.0503     82.63512 
   67300     869.5108   -109.94685   0.78675164   -109.16009    2.6044441    4.3553613    4.3553613    4.3553613    2.6044441   -9776.8986   -4358.3911    14143.103    1470.6872    3564.4195    8499.1056      82.6176 
   67400    665.32777   -109.76438   0.60200255   -109.16237   -9310.8408    4.3581683    4.3581683    4.3581683   -9310.8408   -12088.349   -24027.468    8183.2951    27187.901   -5113.1492   -13581.757    82.777442 
   67500    632.65519   -109.73553   0.57243971    -109.1631     5.849001    4.3519576    4.3519576    4.3519576     5.849001    720.51845    4294.1196   -4997.0911   -5148.1731    18217.559    -8565.283    82.424053 
   67600    759.51918   -109.84877   0.68722891   -109.16154   -3146.6277    4.3581161    4.3581161    4.3581161   -3146.6277   -17803.885   -1338.1704    9702.1723    195.31619    1837.6215    8365.2466    82.774466 
   67700    641.02421   -109.74231   0.58001218    -109.1623   -7233.1995    4.3577801    4.3577801    4.3577801   -7233.1995    -9670.704   -11227.907   -800.98776    23913.147   -3843.2392   -11973.666    82.755323 
   67800    614.12599    -109.7179    0.5556741   -109.16223     5965.454    4.3513775    4.3513775    4.3513775     5965.454    3411.3767    16273.239   -1788.2536   -6565.5734    13984.046   -9903.1542    82.391095 
   67900    749.59794   -109.83847   0.67825197   -109.16022   -5013.7885    4.3588744    4.3588744    4.3588744   -5013.7885   -21586.137   -3379.6971    9924.4684    2743.9171    1219.8729    3332.7015     82.81768 
   68000     517.5882   -109.63354   0.46832468   -109.16522   -4547.1947    4.3553234    4.3553234    4.3553234   -4547.1947   -13766.813   -1596.7068    1721.9361    17873.915   -5610.8383   -11190.457     82.61544 
   68100    797.98206   -109.88469   0.72203094   -109.16266    2089.2602    4.3538599    4.3538599    4.3538599    2089.2602    2473.9198    8360.1678    -4566.307   -3625.0782    9410.2794   -14701.356    82.532187 
   68200    880.62411   -109.95771    0.7968072    -109.1609   -505.38118    4.3580842    4.3580842    4.3580842   -505.38118   -19903.943    5730.2257    12657.574    2037.8581    973.41839    4295.8312    82.772651 
   68300    409.62186   -109.53857   0.37063447   -109.16793   -2775.0613     4.356327     4.356327     4.356327   -2775.0613   -16718.371    4769.3975    3623.7897     13903.96    -10383.04   -13611.097    82.672564 
   68400    893.80811   -109.97021   0.80873636   -109.16148    5462.2194    4.3543258    4.3543258    4.3543258    5462.2194    7100.4986    14292.981   -5006.8219   -1334.8616    4304.4834   -16960.168    82.558684 
   68500    809.60106   -109.89482   0.73254405   -109.16228    8112.5937    4.3557697    4.3557697    4.3557697    8112.5937   -14139.677    23730.895    14746.563   -2136.2235    702.96768    10030.222    82.640842 
   68600    310.53434   -109.45158     0.280978    -109.1706   -8272.8944    4.3590487    4.3590487    4.3590487   -8272.8944   -24046.058    2410.1827    -3182.808    13401.708   -10683.028    -16162.51    82.827618 
   68700    876.18509   -109.95649   0.79279068    -109.1637    8994.2191    4.3498292    4.3498292    4.3498292    8994.2191    10419.353    23818.757   -7255.4527   -2201.1026   -1966.7482   -9882.9081    82.303178 
   68800    820.32528   -109.90747   0.74224755   -109.16522    737.69824    4.3585258    4.3585258    4.3585258    737.69824   -11344.392    14302.569   -745.08202     1477.352    874.09386    15746.577    82.797815 
   68900    387.73058   -109.52085   0.35082678   -109.17002    -9880.519    4.3599807    4.3599807    4.3599807    -9880.519   -26313.662    -10842.91    7515.0148    13429.086    -9490.846   -15373.609    82.880758 
   69000     890.2968   -109.96633   0.80555926   -109.16077    10593.838    4.3479271    4.3479271    4.3479271    10593.838    11232.766    19983.491    565.25585   -1162.8522   -4498.9748    1793.4459    82.195257 
   69100    772.69756    -109.8609   0.69915299   -109.16175   -9835.2678      4.36308      4.36308      4.36308   -9835.2678   -11836.263   -13579.835   -4089.7051    5156.1716    2163.3126    18226.143    83.057626 
   69200    512.40145   -109.62848    0.4636316   -109.16485   -3470.7447    4.3530308    4.3530308    4.3530308   -3470.7447   -19478.595   -4944.7232    14011.084    14269.382   -9893.6705   -10452.144    82.485046 
   69300    704.01572   -109.79879   0.63700822   -109.16178    2296.3938    4.3541812    4.3541812    4.3541812    2296.3938    392.84012    11045.943   -4549.6014   -1285.6291   -1016.0762    5224.5361    82.550459 
   69400    796.19721   -109.87954   0.72041597   -109.15913   -7756.5749     4.361525     4.361525     4.361525   -7756.5749   -5786.9846   -5893.7734   -11588.967    5567.2972    6112.5893    16902.199    82.968855 
   69500    605.65854   -109.70906   0.54801258   -109.16105    12813.447    4.3486156    4.3486156    4.3486156    12813.447   -7912.0089    19996.835    26355.516    14531.044   -12458.451   -9953.4304    82.234311 
   69600    614.99928   -109.72048   0.55646427   -109.16401   -7919.5599    4.3612133    4.3612133    4.3612133   -7919.5599   -11764.559    9155.5686   -21149.689    -1800.907    4035.8886    5546.1491    82.951067 
   69700    816.43289   -109.89895   0.73872564   -109.16023    5821.8362    4.3545331    4.3545331    4.3545331    5821.8362    6855.7685    6977.0538    3632.6862    3248.3438    8868.6028    17154.246    82.570478 
   69800    763.12538   -109.85161   0.69049188   -109.16112    5771.2231    4.3534531    4.3534531    4.3534531    5771.2231   -7956.2602    11671.908    13598.021    11080.938   -12963.238   -13690.769    82.509053 
   69900    411.34834   -109.53698   0.37219662   -109.16478   -8201.3117    4.3620063    4.3620063    4.3620063   -8201.3117   -8457.8298   -2890.0786   -13256.027   -2035.9391    5984.9764    7701.3939    82.996323 
   70000     842.1586   -109.92011    0.7620028   -109.15811    10185.019    4.3496721    4.3496721    4.3496721    10185.019    14419.837    4220.9911    11914.229    1031.1748    7764.7426    17699.533    82.294261 
   70100    755.75435    -109.8443   0.68382242   -109.16047   -1716.5002    4.3595842    4.3595842    4.3595842   -1716.5002   -6966.7116      751.067     1066.144    6711.9974   -14245.498   -14293.696    82.858146 
   70200    419.58702   -109.54644   0.37965115   -109.16679   -3023.1093     4.354903     4.354903     4.354903   -3023.1093   -2802.9267    2845.2854   -9111.6866   -1040.4736    6586.2781    10387.266     82.59152 
   70300    839.75794    -109.9218   0.75983063   -109.16196    4511.7609    4.3536654    4.3536654    4.3536654    4511.7609   -21.415673    2113.2549    11443.443   -6823.6364    6416.1468     13206.68    82.521124 
   70400     842.8209   -109.92234   0.76260206   -109.15974   -7780.5702    4.3615221    4.3615221    4.3615221   -7780.5702   -14062.242    553.17266   -9832.6411   -205.42849   -16042.477   -16343.914    82.968691 
   70500    538.28461   -109.64961   0.48705123   -109.16256    4311.9308    4.3500724    4.3500724    4.3500724    4311.9308    2785.0125    12816.084   -2665.3046    2121.2707    8649.8131    10963.331    82.316988 
   70600    760.11583   -109.84889   0.68776878   -109.16112   -7718.9115    4.3601714    4.3601714    4.3601714   -7718.9115   -14828.346   -7757.1912   -571.19766   -16016.644    3676.9193    9486.5518    82.891631 
   70700    843.18491   -109.92099   0.76293143   -109.15806    2598.7996    4.3549042    4.3549042    4.3549042    2598.7996   -8696.5869    14235.016    2257.9696   -5567.5356   -14470.334   -14231.905    82.591587 
   70800    538.57619   -109.65062   0.48731505   -109.16331    3227.8214    4.3527937    4.3527937    4.3527937    3227.8214   -6542.3536    17569.189   -1343.3713    3765.0737    12110.447    12286.637    82.471568 
   70900    568.32381   -109.67724   0.51423133   -109.16301   -10907.514    4.3616386    4.3616386    4.3616386   -10907.514   -26492.186   -12232.689    6002.3321   -21161.758    2767.2849    4902.1066    82.975339 
   71000    890.45624   -109.96276   0.80570352   -109.15706    8462.6458    4.3504282    4.3504282    4.3504282    8462.6458   -3932.3282    22913.584    6406.6818   -1939.4788   -9883.6237   -7757.3657    82.337186 
   71100    557.56385   -109.66821   0.50449549   -109.16372   -7185.9308    4.3593002    4.3593002    4.3593002   -7185.9308   -19965.667    11056.009   -12648.134   -2548.1584    15000.498    14646.529    82.841953 
   71200    512.33557   -109.62811   0.46357199   -109.16454   -4739.6415    4.3572454    4.3572454    4.3572454   -4739.6415   -22527.266   -842.63346    9150.9751   -22108.786    2602.6689    2753.8808    82.724865 
   71300      1055.07   -110.11048   0.95464948   -109.15583    3586.2715    4.3536351    4.3536351    4.3536351    3586.2715   -10371.473    20355.608    774.67921    4595.3469    -4168.403   -2320.0661    82.519403 
   71400    562.36766   -109.67422   0.50884207   -109.16537   -11269.062    4.3584131    4.3584131    4.3584131   -11269.062   -22902.596    5072.9396   -15977.529   -6210.0986    18486.687    12635.107    82.791393 
   71500    487.28216   -109.61046   0.44090314   -109.16955   -3973.2487     4.351972     4.351972     4.351972   -3973.2487   -23118.212   -2329.5484    13528.014   -19812.077     1863.528    6382.8876    82.424869 
   71600    1128.9021   -110.18007    1.0214543   -109.15861   -5343.4133    4.3612961    4.3612961    4.3612961   -5343.4133   -13636.396    3620.3627   -6014.2066    5269.5508   -944.32952   -3662.0935    82.955794 
   71700    497.67123   -109.61747   0.45030339   -109.16717    451.59179    4.3542765    4.3542765    4.3542765    451.59179   -10683.668    16607.041   -4568.5974   -7430.7314    20616.708    9212.0109    82.555879 
   71800    518.83636   -109.63733   0.46945405   -109.16787   -1182.9952    4.3555609    4.3555609    4.3555609   -1182.9952   -19758.537   -5024.8188     21234.37   -18987.339    -1692.557    8377.1085    82.628955 
   71900    1113.9122   -110.16491    1.0078912   -109.15702   -157.68639    4.3589469    4.3589469    4.3589469   -157.68639   -11003.556    8026.1762    2504.3205    8042.6373    1014.0448   -6357.0096    82.821816 
   72000    546.04734   -109.66172   0.49407511   -109.16764    5485.4059    4.3485898    4.3485898    4.3485898    5485.4059   -7542.7612    15513.645     8485.334   -14604.015    15483.634    7226.6939    82.232845 
   72100    488.22104   -109.61201   0.44175266   -109.17026   -11780.912    4.3633097    4.3633097    4.3633097   -11780.912   -29013.903    -19597.12    13268.286    -23312.55   -1215.2231    5663.4763    83.070749 
   72200    1077.2286   -110.13138   0.97469906   -109.15668    3896.4412    4.3543452    4.3543452    4.3543452    3896.4412    -1737.572     11534.98    1891.9155    10062.169   -1656.5803   -6432.3326    82.559789 
   72300    441.29967   -109.56454   0.39929722   -109.16524   -514.73173    4.3533521    4.3533521    4.3533521   -514.73173    941.60745   -9897.4364    7411.6337   -19485.295    8790.2241    5896.3978    82.503314 
   72400    513.71743   -109.63058   0.46482233   -109.16576   -11759.624    4.3605144    4.3605144    4.3605144   -11759.624   -19826.776   -26519.858    11067.763   -24451.826    -135.9759    5106.2039    82.911194 
   72500    986.77139   -110.05059   0.89285149   -109.15773    10236.363     4.349132     4.349132     4.349132    10236.363    13152.598    14856.536    2699.9538    9751.2129   -13939.884   -4402.4831     82.26361 
   72600    456.51413   -109.58194   0.41306357   -109.16887   -11597.486     4.360672     4.360672     4.360672   -11597.486   -4135.9973   -30145.378   -511.08327   -23085.986    7639.8715    5985.7705    82.920184 
   72700    542.40305   -109.65821   0.49077768   -109.16743    587.67215     4.355093     4.355093     4.355093    587.67215    2027.9735   -18555.388    18290.431   -24721.397   -154.30808    6838.6042    82.602333 
   72800    1085.3968   -110.13879   0.98208979    -109.1567    5849.8044    4.3540726    4.3540726    4.3540726    5849.8044     7781.346    6042.0667    3726.0006    10449.849    -18953.41   -3881.6966    82.544285 
   72900    501.80844   -109.62029   0.45404682   -109.16624   -11837.031    4.3610017    4.3610017    4.3610017   -11837.031   -13644.812   -31914.407    10048.126   -29070.586    7973.2883    5104.7312    82.938992 
   73000    608.56138   -109.71606   0.55063913   -109.16542    5591.7511    4.3474029    4.3474029    4.3474029    5591.7511    4155.1117   -8994.9397    21615.081   -16428.062   -1699.5896    7602.7198    82.165531 
   73100    1024.0854   -110.08553   0.92661401   -109.15891   -4122.1141    4.3606313    4.3606313    4.3606313   -4122.1141   -1955.4965   -2765.0916    -7645.754    9382.4504   -12939.586   -669.08133    82.917865 
   73200    551.73289   -109.66483   0.49921951   -109.16561   -7802.6604    4.3579824    4.3579824    4.3579824   -7802.6604   -11470.345   -25737.369    13799.732   -34422.601    7694.1147    1429.5138    82.766848 
   73300    629.46536   -109.73195   0.56955348    -109.1624    6485.8193    4.3477387    4.3477387    4.3477387    6485.8193    14552.675   -4693.6895    9598.4719    -5622.117   -1816.0213    8219.6884    82.184575 
   73400    843.74355   -109.92248    0.7634369   -109.15904   -7521.5441    4.3622166    4.3622166    4.3622166   -7521.5441   -5903.8158   -4668.8822   -11991.934    7767.0996   -11537.187   -865.84799    83.008333 
   73500    581.67346   -109.68844   0.52631037   -109.16213    2966.3198    4.3523417    4.3523417    4.3523417    2966.3198    252.92542    -10121.85    18767.884    -35883.06      5254.22    1390.8974    82.445879 
   73600    676.00738    -109.7723   0.61166568   -109.16063    1217.1777    4.3552426    4.3552426    4.3552426    1217.1777    12524.503   -6649.7672   -2223.2031    3217.3207     1051.334    9815.9041    82.610842 
   73700    679.84593   -109.77487   0.61513888   -109.15973   -2126.7162    4.3580088    4.3580088    4.3580088   -2126.7162    530.77704   -3114.0032   -3796.9225    5616.7845   -13259.202   -4039.7415    82.768352 
   73800    663.10473   -109.76033    0.5999911   -109.16034    1795.3128    4.3525927    4.3525927    4.3525927    1795.3128   -10078.069   -1846.6657    17310.673    -33042.14   -26.086841    862.46592    82.460145 
   73900     810.7167   -109.89374    0.7335535   -109.16019   -5047.1517    4.3574731    4.3574731    4.3574731   -5047.1517    180.13048   -5698.8407    -9622.745    8314.9488   -85.135088    15998.621    82.737835 
   74000    624.37728   -109.72745   0.56494968    -109.1625    4016.9632     4.353747     4.353747     4.353747    4016.9632   -4339.1928    11148.068    5242.0148    871.06793   -12351.759   -4037.2575    82.525766 
   74100    757.13215   -109.84587   0.68506908    -109.1608   -8061.6017     4.361106     4.361106     4.361106   -8061.6017   -19337.142   -10753.038    5905.3751   -28665.427    2540.0567   -109.21805    82.944946 
   74200     864.3714   -109.94049   0.78210141   -109.15839    3909.6192    4.3515272    4.3515272    4.3515272    3909.6192    19688.357   -397.70463   -7561.7943    9549.7481   -2549.1626    19663.698      82.3996 
   74300     665.3284   -109.76512   0.60200312   -109.16312   -2302.7347    4.3536441    4.3536441    4.3536441   -2302.7347   -11386.786    2237.3825    2241.1989   -4134.8531   -12546.135   -5408.1947    82.519913 
   74400    654.44985   -109.75422   0.59215998   -109.16206     -12035.7    4.3626881    4.3626881    4.3626881     -12035.7   -19770.466   -13677.568    -2659.066   -20701.001    904.10755    1367.5876    83.035252 
   74500    805.52323   -109.88576   0.72885435   -109.15691    2722.6521    4.3517464    4.3517464    4.3517464    2722.6521     19735.28    -243.3279   -11323.996    5358.2119    336.71439    23428.765    82.412054 
   74600    702.92387   -109.79517   0.63602029   -109.15915   -3218.8031    4.3565676    4.3565676    4.3565676   -3218.8031   -10587.449    666.02434    265.01534   -7850.8439   -11133.791    -7764.019    82.686264 
   74700    564.32307   -109.67309   0.51061137   -109.16248    1156.0249    4.3543128    4.3543128    4.3543128    1156.0249   -3724.6669    1963.3516    5229.3898   -14958.943   -412.71612    4676.5082    82.557944 
   74800    698.27287   -109.79427   0.63181197   -109.16246   -1017.2093    4.3584936    4.3584936    4.3584936   -1017.2093    11956.358    2619.0342    -17627.02    2452.1281    5206.5276    27105.861    82.795978 
   74900     907.9241   -109.97904   0.82150881   -109.15753    287.26479     4.356293     4.356293     4.356293    287.26479   -15946.105    11905.322    4902.5772   -7693.6299   -13835.336   -8167.0102    82.670631 
   75000    493.54937   -109.60899   0.44657384   -109.16242    1708.5541    4.3534214    4.3534214    4.3534214    1708.5541     156.1007    2488.9867     2480.575   -17095.743    2773.7911    13169.045    82.507254 
   75100    659.78176   -109.76165    0.5969844   -109.16466    -7853.557    4.3590092    4.3590092    4.3590092    -7853.557     10930.36   -10790.476   -23700.556    5452.6467    5918.4155    28632.602    82.825363 
   75200    1013.7159   -110.07608   0.91723147   -109.15885    12021.826    4.3485786    4.3485786    4.3485786    12021.826    2448.8065    21968.676    11647.994   -3896.9421   -12541.535    -9192.622    82.232211 
   75300    474.09725   -109.59819   0.42897315   -109.16922   -8152.2015    4.3603611    4.3603611    4.3603611   -8152.2015    4485.2088   -19364.075   -9577.7386   -18059.616    3897.0467    20947.667     82.90245 
   75400    611.98774    -109.7204   0.55373937   -109.16666   -5928.9964    4.3565284    4.3565284    4.3565284   -5928.9964    10150.966   -12683.773   -15254.182     9258.255    5792.0324    25098.443    82.684034 
   75500    1005.5284   -110.06567   0.90982326   -109.15585    7024.2359    4.3505805    4.3505805    4.3505805    7024.2359   -3231.4466    11339.342    12964.813   -6356.1932   -4737.6476   -10317.263    82.345832 
   75600    424.66667   -109.55087   0.38424733   -109.16662   -9723.3335    4.3598787    4.3598787    4.3598787   -9723.3335    4860.8205   -26237.429   -7793.3917   -16332.075   -1782.9489    26477.035    82.874937 
   75700    607.22545    -109.7158   0.54943035   -109.16637    7343.4586    4.3506043    4.3506043    4.3506043    7343.4586    19803.821    2628.8978    -402.3427    7939.9339    9412.2663    21791.027    82.347184 
   75800    1005.8653   -110.07041   0.91012808   -109.16028    1347.8309    4.3558837    4.3558837    4.3558837    1347.8309   -8280.1587    229.82107     12093.83   -1326.8258    1854.1178   -11027.745    82.647331 
   75900    346.59966   -109.48444   0.31361065   -109.17083   -2660.7667    4.3555847    4.3555847    4.3555847   -2660.7667    13919.317   -19219.154    -2682.464   -13378.176   -3775.2633    29800.763    82.630309 
   76000    677.63848   -109.77969   0.61314154   -109.16655    2404.6811    4.3561029    4.3561029    4.3561029    2404.6811    7124.3603    664.75773   -575.07464    1018.6553    11537.412    15140.753    82.659808 
   76100    1027.4482   -110.08837    0.9296567   -109.15871    4606.0818    4.3556094    4.3556094    4.3556094    4606.0818    1769.3909   -3455.1629    15504.018    3797.1735   -92.091404   -8434.4877    82.631718 
   76200     396.6718   -109.52815   0.35891698   -109.16923    702.76542     4.351602     4.351602     4.351602    702.76542    19415.865   -15200.295   -2107.2743    -15007.41   -4086.6929    33207.068    82.403853 
   76300    700.86201   -109.80203   0.63415468   -109.16788   -5870.3263      4.35923      4.35923      4.35923   -5870.3263   -3834.6354   -6371.2721   -7405.0715    1047.7128     10785.83    6134.1315     82.83795 
   76400     981.8259   -110.04971   0.88837671   -109.16133     7350.686    4.3514722    4.3514722    4.3514722     7350.686   -143.75183    11616.211    10579.599    6154.1217    6724.5765   -3004.6324    82.396477 
   76500    475.91256   -109.59897   0.43061569   -109.16835    -3498.546     4.355877     4.355877     4.355877    -3498.546    16112.621   -22416.454   -4191.8045   -16481.651   -4253.4793    33382.743    82.646948 
   76600    679.85376   -109.77718   0.61514597   -109.16203   -3539.4918    4.3593516    4.3593516    4.3593516   -3539.4918   -7505.6661   -4559.8513    1447.0421    723.08829    7310.8644   -2245.2542    82.844884 
   76700    789.60572   -109.87265   0.71445185    -109.1582    9240.0793    4.3502475    4.3502475    4.3502475    9240.0793    4050.5946    12895.236    10774.407    3275.8969    8330.2959    399.25881    82.326928 
   76800    653.73462   -109.75323   0.59151282   -109.16172    -1710.888    4.3563768    4.3563768    4.3563768    -1710.888    12446.334   -25488.144    7909.1463   -12055.854   -3814.2454    25346.715    82.675398 
   76900    609.84971   -109.71421   0.55180483   -109.16241    797.46605    4.3562377    4.3562377    4.3562377    797.46605   -12373.939    3702.3148    11064.022   -689.73595    11707.432   -5409.1375    82.667481 
   77000    651.93834   -109.75303   0.58988751   -109.16314    4679.6658    4.3528736    4.3528736    4.3528736    4679.6658   -7543.5015    13750.526     7831.973    3126.1707    6725.0966   -2531.0194    82.476111 
   77100    926.05611   -109.99701   0.83791503    -109.1591    1981.9099    4.3558036    4.3558036    4.3558036    1981.9099     6374.819   -15500.171    15071.082   -6382.0384   -3896.9422    16005.183    82.642773 
   77200    592.52808   -109.70152   0.53613186   -109.16539   -4257.8573    4.3556485    4.3556485    4.3556485   -4257.8573   -16542.442    10955.454   -7186.5834   -398.59601    14343.588   -11328.209    82.633945 
   77300    506.63194    -109.6271   0.45841122   -109.16869    -1685.496    4.3541942    4.3541942    4.3541942    -1685.496   -19009.464    19155.451    -5202.475    3311.3634    6127.6618   -6316.5642    82.551199 
   77400    1199.6184   -110.24343    1.0854399   -109.15799    3204.1245    4.3561452    4.3561452    4.3561452    3204.1245   -5097.5588   -6466.1494    21176.082    -4828.192   -7109.3775    9736.6697    82.662218 
   77500    519.56868   -109.64011   0.47011666   -109.16999   -4809.5698     4.355952     4.355952     4.355952   -4809.5698   -22667.642    15499.401   -7260.4676    1231.6857    21008.015   -12708.927    82.651216 
   77600    419.53198   -109.55141   0.37960135   -109.17181   -3475.6255    4.3544697    4.3544697    4.3544697   -3475.6255   -30124.036    19568.854    128.30521    3915.4483   -2196.3687   -5819.9555    82.566867 
   77700    1166.4093   -110.21453    1.0553916   -109.15914    1663.6831    4.3576029    4.3576029    4.3576029    1663.6831   -9413.3779    -3990.567    18394.994   -647.64554   -9899.0013    5775.5122     82.74523 
   77800    595.30776   -109.70877   0.53864697   -109.17013    3637.6065    4.3500001    4.3500001    4.3500001    3637.6065   -8926.7529    19868.784    -29.21219    649.48551    21352.561   -10402.308    82.312879 
   77900    415.81247    -109.5492   0.37623586   -109.17297    -2751.515    4.3590955    4.3590955    4.3590955    -2751.515    -25575.13    14114.564    3206.0215     4134.342   -6668.9713   -5204.4428    82.830282 
   78000    1042.0632   -110.10233   0.94288064   -109.15945   -2463.3724    4.3586623    4.3586623    4.3586623   -2463.3724   -3212.3075    -5912.434    1734.6244    2002.6919   -7829.7781    11059.154    82.805592 
   78100    605.41695   -109.71038   0.54779398   -109.16258    6199.0981     4.348314     4.348314     4.348314    6199.0981    1980.7158    19581.665   -2965.0863   -914.19885    17740.149    -5186.035      82.2172 
   78200    653.93823   -109.75354   0.59169705   -109.16185   -11694.047    4.3626009    4.3626009    4.3626009   -11694.047   -28177.532    5893.7997    -12798.41    5776.3332   -3613.8609   -8592.3104    83.030272 
   78300    777.18261   -109.86332   0.70321116   -109.16011    4955.6284    4.3523731    4.3523731    4.3523731    4955.6284     6874.357   -1225.2434    9217.7714   -1049.1475   -6159.2061    24164.543    82.447665 
   78400     669.2231   -109.76797   0.60552712   -109.16244    4923.3957    4.3508035    4.3508035    4.3508035    4923.3957    2660.8685    14453.711   -2344.3929   -2358.3123     14704.98    2578.7557    82.358495 
   78500    710.11671   -109.80319   0.64252852   -109.16066   -5934.5186    4.3621178    4.3621178    4.3621178   -5934.5186   -20440.992    3407.6166   -770.18033    4225.6032    1990.1331   -12355.336     83.00269 
   78600      619.966   -109.72263   0.56095826   -109.16167    2917.3494    4.3508835    4.3508835    4.3508835    2917.3494    15888.817   -3367.1571   -3769.6119    -1451.389   -8492.9003    36110.897    82.363037 
   78700    756.32074   -109.84503    0.6843349    -109.1607   -1400.5879    4.3560458    4.3560458    4.3560458   -1400.5879    3008.3697    1104.6424   -8314.7757   -1637.9956    10479.891    1020.6434     82.65656 
   78800    785.48365   -109.87035   0.71072212   -109.15963   -3282.0791    4.3571644    4.3571644    4.3571644   -3282.0791   -2241.3997   -3000.8699   -4603.9678     647.2568     6820.267   -7505.8505     82.72025 
   78900    419.34161   -109.54644    0.3794291   -109.16701   -1026.6835    4.3531033    4.3531033    4.3531033   -1026.6835    21738.555   -16957.701   -7860.9045   -1169.3979   -7670.3852    45176.709    82.489166 
   79000    1050.2504   -110.11069   0.95028865   -109.16041   -1891.4963    4.3574139    4.3574139    4.3574139   -1891.4963   -2717.7709   -9314.3778    6357.6599   -3759.5816    1859.1319   -4077.2878    82.734463 
   79100     761.9013   -109.85405   0.68938431   -109.16466   -138.00623    4.3543149    4.3543149    4.3543149   -138.00623    5278.0291   -10296.983    4604.9356    744.56859    6003.7348    7397.6347    82.558065 
   79200    314.78016   -109.45718    0.2848197   -109.17236   -11104.374    4.3569348    4.3569348    4.3569348   -11104.374    11948.374   -27559.438   -17702.057   -181.21476   -6331.5973    39671.078    82.707176 
   79300    1085.9648   -110.14364   0.98260381   -109.16103    2730.3155    4.3548581    4.3548581    4.3548581    2730.3155   -8394.7777   -3694.6064    20280.331   -6565.7687   -5431.9152   -10858.347    82.588965 
   79400    764.04878   -109.85701   0.69132739   -109.16568   -44.375104    4.3545701    4.3545701    4.3545701   -44.375104    9719.0618   -13757.481    3905.2941    1487.0889    1875.4191     24993.99     82.57258 
   79500    379.69083   -109.51354   0.34355224   -109.16999   -7422.7974    4.3558663    4.3558663    4.3558663   -7422.7974    3313.0499   -18258.417   -7323.0255   -584.18644   -8285.3013    25815.915    82.646342 
   79600     813.9468    -109.8986   0.73647617   -109.16213   -805.67712    4.3553929    4.3553929    4.3553929   -805.67712   -17656.263    4780.3824    10458.849    -4758.457   -11356.005   -14126.083    82.619394 
   79700    780.59759   -109.86631    0.7063011   -109.16001   -2606.3858    4.3568437    4.3568437    4.3568437   -2606.3858    10219.403   -13234.118   -4804.4422   -1547.1006    3445.6259    26989.277    82.701988 
   79800    628.24175   -109.72938   0.56844634   -109.16093    1050.0366    4.3543266    4.3543266    4.3543266    1050.0366    2430.0109   -7558.6354    8278.7342    1184.5047   -7092.3378     13321.73    82.558727 
   79900     615.3495   -109.72013   0.55678116   -109.16335   -3788.5539     4.354745     4.354745     4.354745   -3788.5539   -19699.875     9833.988   -1499.7742   -6014.0079   -11294.187   -15356.918    82.582529 
   80000     908.9752   -109.98391   0.82245987   -109.16145    3420.4466    4.3549084    4.3549084    4.3549084    3420.4466    6922.7131   -2813.2717    6151.8984   -1048.7155    7594.4573    17046.271    82.591825 
   80100    866.70413   -109.94598   0.78421211   -109.16176    -2990.766    4.3570126    4.3570126    4.3570126    -2990.766   -4399.8486   -4257.8508    -314.5987      3364.35    -9946.273    4840.5905    82.711607 
   80200    331.18448   -109.46942   0.29966268   -109.16976   -3561.0035    4.3534965    4.3534965    4.3534965   -3561.0035   -15129.861    15277.848   -10830.998   -8308.0604   -8230.0165    -15817.65     82.51152 
   80300     1007.723   -110.07322   0.91180895   -109.16142    3272.9791    4.3570948    4.3570948    4.3570948    3272.9791    3383.2631    -981.8739    7417.5482    1082.5642    12323.599    9041.7377    82.716287 
   80400    732.76024   -109.82693   0.66301686   -109.16391   -1699.0858    4.3583542    4.3583542    4.3583542   -1699.0858    -8166.487   -128.44804    3197.6775    3603.5882   -18493.502   -1017.8882    82.788034 
   80500    226.28202   -109.37699   0.20474472   -109.17225    207.36344    4.3473063    4.3473063    4.3473063    207.36344   -15380.322    20642.509   -4640.0965   -6149.6238    -5652.331   -16675.561    82.160056 
   80600    939.78717   -110.01524   0.85033918    -109.1649   -963.65166    4.3595754    4.3595754    4.3595754   -963.65166   -6285.1548   -3976.2316    7370.4314   -1387.5825    10134.794    1494.4883    82.857645 
   80700    769.09228   -109.86181   0.69589085   -109.16592    1299.7057    4.3566349    4.3566349    4.3566349    1299.7057   -1544.1269   -607.59482    6050.8388    8583.4867   -17199.683   -913.22962    82.690099 
   80800    372.02425   -109.50614   0.33661536   -109.16952     8180.579    4.3483189    4.3483189    4.3483189     8180.579    1230.8013    16012.616    7298.3196   -7028.5417   -2913.7836   -15203.996    82.217477 
   80900    925.00007    -109.9977    0.8369595   -109.16074   -5475.5479    4.3613773    4.3613773    4.3613773   -5475.5479   -4546.8187   -11288.732   -591.09276    1343.4963    6441.5769    4421.0992    82.960429 
   81000    753.03439   -109.84281   0.68136134   -109.16144    3890.4982    4.3529462    4.3529462    4.3529462    3890.4982   -311.06365   -775.40786    12757.966    12352.889   -8918.5852    7344.4109    82.480238 
   81100    654.44662   -109.75468   0.59215705   -109.16253   -391.42942    4.3523598    4.3523598    4.3523598   -391.42942   -5004.4044    7481.6087   -3651.4925   -9217.1721   -4874.7668   -18211.804    82.446906 
   81200    737.29151   -109.82845   0.66711685   -109.16133   -5528.9364    4.3575181    4.3575181    4.3575181   -5528.9364   -1847.0921   -11001.898   -3737.8191    7506.2437    10219.731    12115.905    82.740399 
   81300    679.70756   -109.77774   0.61501369   -109.16273    2620.7611    4.3528115    4.3528115    4.3528115    2620.7611    1608.5677   -876.63584    7130.3513    8242.8137    -2950.997    16262.874    82.472578 
   81400    804.88444   -109.88896   0.72827635   -109.16068    1496.2177    4.3551183    4.3551183    4.3551183    1496.2177   -517.77467    3267.6374    1738.7903   -5976.7709   -9079.8112   -22082.336    82.603768 
   81500    569.44423   -109.67896   0.51524511   -109.16371   -3921.5808    4.3548579    4.3548579    4.3548579   -3921.5808    3289.9531   -11480.532   -3574.1634     7960.864     8466.431    21363.911    82.588956 
   81600    653.63217   -109.75493   0.59142012   -109.16351   -4679.1858    4.3574968    4.3574968    4.3574968   -4679.1858   -6263.8979   -10914.271    3140.6118    8253.1717   -988.93801    16188.796    82.739185 
   81700    992.72961   -110.05633   0.89824261   -109.15809    4258.1198    4.3520698    4.3520698    4.3520698    4258.1198    2788.4753   -904.64785    10890.532   -3745.3245   -5741.9204   -18875.023     82.43043 
   81800    414.85411    -109.5433   0.37536872   -109.16793    30.620496    4.3535897    4.3535897    4.3535897    30.620496    17675.793   -19039.859    1455.9276     3115.572     2970.277    30994.834    82.516821 
   81900    730.72434   -109.82789   0.66117474   -109.16672   -7413.7319    4.3589705    4.3589705    4.3589705   -7413.7319     -5029.22   -22996.349    5784.3733     10134.11    2765.3061    12362.901    82.823161 
   82000    992.43416   -110.05758   0.89797529    -109.1596    11003.106    4.3501951    4.3501951    4.3501951    11003.106    14477.288   -2657.5736    21189.604   -7865.3959   -1640.4404   -6571.6711    82.323953 
   82100    429.37874   -109.55842   0.38851091   -109.16991   -7082.9759    4.3563369    4.3563369    4.3563369   -7082.9759     13845.36   -22950.153   -12144.135     3484.145   -4438.4574    33518.687    82.673131 
   82200    719.82339   -109.81689   0.65131133   -109.16558   -2313.1889     4.356287     4.356287     4.356287   -2313.1889   -2362.0634   -9458.1562     4880.653    7752.6445    11212.867    3877.8226    82.670291 
   82300    961.37767   -110.02946   0.86987472   -109.15958    4641.4331    4.3529453    4.3529453    4.3529453    4641.4331    8331.1257    -3651.996    9245.1695    -9533.625    1456.4631    4921.2024    82.480184 
   82400    490.63668   -109.61002   0.44393838   -109.16608    -4115.333    4.3568078    4.3568078    4.3568078    -4115.333    15187.826   -20899.436   -6634.3888    4641.1967   -8248.5011    32362.667    82.699944 
   82500    708.97281   -109.80482    0.6414935   -109.16332   -607.50281    4.3528149    4.3528149    4.3528149   -607.50281   -7624.0866   -702.88048    6504.4587    5629.5691    16676.497   -4129.3706    82.472774 
   82600    805.44862   -109.89025   0.72878684   -109.16146    -978.5958    4.3556443    4.3556443    4.3556443    -978.5958    3322.3807   -11390.248    5132.0798    -4565.927     5729.959    3946.7779    82.633705 
   82700    660.86993   -109.76143     0.597969   -109.16346   -1248.5372    4.3537865    4.3537865    4.3537865   -1248.5372    10615.202    -13253.11   -1107.7031     405.8288   -7833.9556    27664.097    82.528011 
   82800    532.55808   -109.64688   0.48186974   -109.16501    702.19561    4.3546123    4.3546123    4.3546123    702.19561   -5060.2392    2782.4644    4384.3616    9477.4381    13594.482   -5926.1584    82.574979 
   82900    824.13485   -109.90636   0.74569453   -109.16066    -4247.783    4.3582069    4.3582069    4.3582069    -4247.783   -1672.1906   -12667.711    1596.5526   -2225.8108    9012.9323   -560.33153    82.779642 
   83000    791.50288   -109.87638   0.71616844   -109.16021    7387.3272    4.3510573    4.3510573    4.3510573    7387.3272    14396.552   -1427.1069    9192.5362   -661.81579   -9560.7717    19418.843    82.372909 
   83100    458.81367   -109.58209   0.41514425   -109.16694   -7915.6429    4.3560191    4.3560191    4.3560191   -7915.6429   -23125.624    4220.4009   -4841.7058    14792.483    11231.273   -7074.2122    82.655037 
   83200    789.30748   -109.87925     0.714182   -109.16506   -1572.8909    4.3551479    4.3551479    4.3551479   -1572.8909   -3617.1136    -4528.264    3426.7049   -2578.7321    9433.4058   -7240.8237    82.605452 
   83300    960.05321      -110.03   0.86867632   -109.16132    3729.0861    4.3525544    4.3525544    4.3525544    3729.0861    1189.8924    1320.1071    8677.2588     4924.972   -7055.8267    8377.0532    82.457969 
   83400    319.62531   -109.45967    0.2892037   -109.17047   -6117.7576    4.3580004    4.3580004    4.3580004   -6117.7576   -21375.444    1954.7074    1067.4636    13746.993    7972.3907   -5812.6449    82.767876 
   83500    729.92337   -109.82505      0.66045    -109.1646    1839.1233    4.3564875    4.3564875    4.3564875    1839.1233    5316.0696   -9574.3427     9775.643    -2723.451    7138.2304   -16906.527    82.681705 
   83600    1015.6384   -110.07738   0.91897092   -109.15841    5722.4668    4.3516539    4.3516539    4.3516539    5722.4668    972.40318   -2995.2486    19190.246    5472.3996   -2887.2715    3702.4865    82.406801 
   83700    373.07925   -109.50819   0.33756994   -109.17062   -1861.7121    4.3540623    4.3540623    4.3540623   -1861.7121   -22532.496    1067.6112    15879.749    9224.2616    6712.8589   -4063.3563    82.543699 
   83800    651.89372   -109.75773   0.58984714   -109.16788   -6708.5603    4.3593589    4.3593589    4.3593589   -6708.5603    1296.6612   -18122.032   -3300.3104   -299.43792    8324.8782   -22834.321      82.8453 
   83900    1001.3383   -110.06659   0.90603198   -109.16056     7319.629    4.3493357    4.3493357    4.3493357     7319.629    1439.7429   -5987.6289    26506.773   -4015.4531   -6564.0894    7430.6998     82.27517 
   84000    548.90835   -109.66433   0.49666381   -109.16767   -4657.0024    4.3564808    4.3564808    4.3564808   -4657.0024   -19342.593   -3507.1363    8878.7221    10755.619    8813.6335   -5843.9715     82.68132 
   84100    671.13103   -109.77106   0.60725346   -109.16381    -5576.583    4.3588181    4.3588181    4.3588181    -5576.583    7444.4085   -14703.767   -9470.3902   -3808.4141    8395.2332   -18978.038    82.814471 
   84200    774.99934   -109.86104   0.70123569    -109.1598    4545.3239    4.3480571    4.3480571    4.3480571    4545.3239    1422.5284   -12848.755    25062.198   -7670.7215   -5921.2771     14213.02    82.202632 
   84300    565.73791   -109.67614   0.51189155   -109.16424   -10325.076    4.3595088    4.3595088    4.3595088   -10325.076   -17705.255   -16033.973         2764     15252.53    11487.074   -4386.8628    82.853849 
   84400    809.53962   -109.89361   0.73248846   -109.16112    1061.6752    4.3538738    4.3538738    4.3538738    1061.6752    17017.344   -12654.864   -1177.4547   -7088.4531    2871.0312   -10244.806    82.532976 
   84500    606.50004   -109.71295   0.54877398   -109.16417    2573.4921    4.3507068    4.3507068    4.3507068    2573.4921    14470.446   -26981.455    20231.484   -7103.4729   -2147.0426    16047.608    82.353007 
   84600    591.39736    -109.7012   0.53510876   -109.16609   -8742.8069    4.3609717    4.3609717    4.3609717   -8742.8069   -6021.2251   -24453.583    4246.3875    17900.834    9985.4156   -614.31423    82.937281 
   84700    1015.2603    -110.0763   0.91862883   -109.15767    8725.4533    4.3513918    4.3513918    4.3513918    8725.4533    18030.257    -1129.634    9275.7372    -4647.488   -66.581803   -1866.7153     82.39191 
   84800    558.32113    -109.6713   0.50518069   -109.16612   -5536.1467    4.3539752    4.3539752    4.3539752   -5536.1467    1267.1884   -30675.022    12799.394   -8398.4168     -324.248    14575.021    82.538746 
   84900     469.5916   -109.59483   0.42489635   -109.16993   -8318.9659    4.3557657    4.3557657    4.3557657   -8318.9659   -12757.074   -23026.259    10826.436    26172.459    6498.5298    2705.5974    82.640613 
   85000    1073.2951   -110.13069   0.97113999   -109.15955    3497.0478    4.3541613    4.3541613    4.3541613    3497.0478    11906.283   -2387.7717    972.63179    -1845.742    6257.8887   -1665.5335    82.549326 
   85100     556.0097   -109.67091   0.50308927   -109.16782   -7043.1535    4.3566799    4.3566799    4.3566799   -7043.1535    2876.4135   -31928.027    7922.1535   -5083.6935   -4573.2058    13871.135    82.692661 
   85200    441.64014   -109.56955   0.39960528   -109.16995   -3515.8817    4.3518684    4.3518684    4.3518684   -3515.8817   -3751.9551   -24809.273    18013.583    26391.677    7873.3947    3031.2783    82.418986 
   85300    1047.8786   -110.10894   0.94814261   -109.16079   -1060.7343    4.3568385    4.3568385    4.3568385   -1060.7343    13120.364   -6917.3207   -9385.2463   -1883.5132    9318.2365   -10606.856    82.701688 
   85400    617.59401   -109.72595   0.55881204   -109.16714    -251.7002    4.3538974    4.3538974    4.3538974    -251.7002    13362.705   -23587.291    9469.4856     846.8516   -10179.661    11726.023    82.534319 
   85500     486.0717   -109.60804   0.43980789   -109.16823    -6583.454    4.3542626    4.3542626    4.3542626    -6583.454   -985.78707   -28753.282    9988.7075    20425.536    7904.0793     2522.912    82.555088 
   85600    879.04573    -109.9552   0.79537905   -109.15982   -5123.8465    4.3577793    4.3577793    4.3577793   -5123.8465     17529.29   -11808.162   -21092.667   -3541.3224   -512.81563   -18967.098    82.755277 
   85700    693.94919   -109.79054   0.62789981   -109.16264    -3290.366    4.3525181    4.3525181    4.3525181    -3290.366    -1503.609   -10934.871     2567.382    7057.1965   -8957.4378    7710.6464    82.455904 
   85800    527.71669   -109.64265   0.47748916   -109.16516    -5923.206    4.3543279    4.3543279    4.3543279    -5923.206   -7601.3786   -24432.596    14264.356     21835.39    6834.1644    1108.9625    82.558801 
   85900     796.4081   -109.88286   0.72060679   -109.16225    -5923.425    4.3570646    4.3570646    4.3570646    -5923.425    17285.993   -15673.567   -19382.701   -6887.7338   -5993.0877   -27561.664    82.714564 
   86000    844.00986   -109.92395   0.76367786   -109.16027   -3728.4962    4.3552028    4.3552028    4.3552028   -3728.4962   -6903.0498   -11123.981    6841.5417    12062.732   -5354.1989    4665.5011    82.608578 
   86100    567.04333   -109.67734   0.51307272   -109.16426   -4047.6322    4.3519799    4.3519799    4.3519799   -4047.6322    2365.5423   -29560.797    15052.358    19490.156    1594.6709    -4374.741    82.425319 
   86200    663.19533   -109.76572   0.60007307   -109.16565   -6377.7331    4.3564192    4.3564192    4.3564192   -6377.7331    21440.399   -28833.076   -11740.523   -7958.5124    1240.3085   -34497.206    82.677816 
   86300    948.47144   -110.01856   0.85819689   -109.16036    3025.3238    4.3551998    4.3551998    4.3551998    3025.3238    125.71275   -1341.1896    10291.448    9831.5139   -6075.0735    7114.2645    82.608409 
   86400    540.02813   -109.65583   0.48862881    -109.1672    1898.8718    4.3514508    4.3514508    4.3514508    1898.8718     12318.24   -22129.663    15508.038    13883.418   -2930.3323    -14809.08    82.395262 
   86500    456.33683   -109.58293   0.41290315   -109.17003   -6086.4421      4.35816      4.35816      4.35816   -6086.4421    29133.953   -31483.586   -15909.693   -6794.5874    5046.1104   -29954.257    82.776967 
   86600    1042.3831   -110.10229   0.94317013   -109.15912    5449.2557    4.3539225    4.3539225    4.3539225    5449.2557    6667.7847   -230.61343    9910.5959   -561.63984     -9284.78    12693.926    82.535744 
   86700    651.00852   -109.75514   0.58904619   -109.16609    1145.6717    4.3521629    4.3521629    4.3521629    1145.6717    18014.269   -18672.042    4094.7885    10001.562    942.44441   -26993.085    82.435718 
   86800    439.58524   -109.56848   0.39774596   -109.17074   -7578.6807    4.3572254    4.3572254    4.3572254   -7578.6807    25545.152   -33629.077   -14652.117    -7991.967    1899.3744   -17665.926    82.723722 
   86900    982.90862   -110.05049   0.88935638   -109.16113    6401.4446    4.3525891    4.3525891    4.3525891    6401.4446    8145.0468   -3016.2847    14075.572   -8309.2292   -3641.0248    18788.593    82.459938 
   87000    716.89704   -109.81353   0.64866351   -109.16487   -3694.5966    4.3558974    4.3558974    4.3558974   -3694.5966    13405.465   -13652.299   -10836.956     5073.103    4360.8527   -33438.306    82.648112 
   87100    439.61669   -109.56553   0.39777442   -109.16776   -828.50056    4.3528576    4.3528576    4.3528576   -828.50056    33525.051   -24713.528   -11297.026   -4889.0175   -954.88324   -9691.5006    82.475203 
   87200    771.60425   -109.86076   0.69816374   -109.16259     575.0326    4.3545681    4.3545681    4.3545681     575.0326    6443.2875     -8060.31    3342.1203   -8731.4158    2569.6692    21666.434    82.572468 
   87300    751.93884   -109.84248   0.68037006   -109.16211   -5253.8695    4.3575624    4.3575624    4.3575624   -5253.8695    13558.879   -11783.969   -17536.519    2117.1067   -875.84572   -33736.231    82.742921 
   87400    640.61867   -109.74276   0.57964523   -109.16312    6593.3828    4.3475101    4.3475101    4.3475101    6593.3828    33246.502   -10217.474   -3248.8791   -219.63748    1061.1485   -2223.4019    82.171611 
   87500    642.44938   -109.74701    0.5813017   -109.16571   -9773.0657    4.3598997    4.3598997    4.3598997   -9773.0657   -234.89585   -23770.857   -5313.4439   -12158.691   -686.73117    22532.025    82.876134 
   87600    888.85138   -109.96635    0.8042514   -109.16209    174.65718    4.3541965    4.3541965    4.3541965    174.65718    16619.541   -4883.4591   -11212.111     1852.915    -7087.935   -27633.604    82.551332 
   87700     772.7459   -109.86219   0.69919673   -109.16299    4963.1418    4.3481127    4.3481127    4.3481127    4963.1418    28376.797   -13381.414   -105.95723   -747.12065    4554.9821    6351.7374    82.205785 
   87800     420.1922   -109.54845   0.38019873   -109.16826   -16879.524    4.3627593    4.3627593    4.3627593   -16879.524   -9849.4707   -35412.211   -5376.8913   -11810.483   -815.39776    23461.344    83.039313 
   87900    924.98402   -109.99733   0.83694498   -109.16038    3736.8297    4.3503741    4.3503741    4.3503741    3736.8297    9608.2528     1154.163    448.07335    4.1543102   -4009.2415   -17142.907    82.334116 
   88000     701.3408   -109.79909   0.63458789   -109.16451   -829.83074    4.3520234    4.3520234    4.3520234   -829.83074    19274.357   -12836.107   -8927.7422   -1769.4769    -1088.601    13872.469    82.427789 
   88100    324.63631   -109.46579   0.29373776   -109.17205    -11957.45    4.3579032    4.3579032    4.3579032    -11957.45   -1181.4804   -37836.146    3145.2761   -8859.0123    803.20528    22487.225    82.762334 
   88200    956.10572   -110.02873   0.86510455   -109.16363    4479.7562    4.3536423    4.3536423    4.3536423    4479.7562    9833.4649   -760.78691    4366.5905    44.293468    918.62431   -8045.2658    82.519814 
   88300    818.19154   -109.90612    0.7403169    -109.1658   -2033.5606    4.3539067    4.3539067    4.3539067   -2033.5606     22449.43   -16580.468   -11969.643   -1151.6128   -6211.7341     18132.18    82.534849 
   88400    448.69359   -109.57676   0.40598739   -109.17077    2457.9632     4.351963     4.351963     4.351963    2457.9632    18975.529    -26994.51    15392.871   -10780.901    2163.2117    17768.995    82.424357 
   88500    934.75348   -110.00818   0.84578459    -109.1624   -2601.6828    4.3604419    4.3604419    4.3604419   -2601.6828    3306.1319   -9387.1468   -1724.0336    3338.0757   -2927.6063   -6532.5752     82.90706 
   88600    705.26782   -109.80299   0.63814115   -109.16485    6454.2358     4.348086     4.348086     4.348086    6454.2358    33785.872    530.93603   -14954.101    -2095.513    -3894.607    18885.562    82.204271 
   88700    449.47479   -109.57671   0.40669423   -109.17001    -316.2469    4.3528465    4.3528465    4.3528465    -316.2469    13983.714   -21183.147     6250.692   -13129.301    2496.7863    13127.614    82.474572 
   88800    874.44697    -109.9524     0.791218   -109.16118   -7990.9198    4.3623409    4.3623409    4.3623409   -7990.9198    -5920.851   -12889.177   -5162.7317    4411.6751   -5537.3365   -7064.7719    83.015426 
   88900    631.76775   -109.73524   0.57163673   -109.16361    8005.5031    4.3445315    4.3445315    4.3445315    8005.5031    35967.696    1674.6953   -13625.882   -673.59051    -680.0705    18661.333    82.002835 
   89000     482.0153   -109.60583   0.43613757   -109.16969   -9569.3812    4.3576503    4.3576503    4.3576503   -9569.3812   -2543.0334   -21133.037   -5032.0736   -14816.816    3467.2391    11075.057     82.74793 
   89100    1023.8262   -110.08697   0.92637946    -109.1606   -3032.7684    4.3581641    4.3581641    4.3581641   -3032.7684   -1286.5707   -8118.1833    306.44883    3807.1235    -1302.442   -5657.7466    82.777199 
   89200    744.69278   -109.83814   0.67381368   -109.16433    2920.0024    4.3466589    4.3466589    4.3466589    2920.0024    32163.889   -5179.6129   -18224.269    1229.1924    209.80203     17815.46    82.123352 
   89300    441.95957   -109.57008   0.39989431   -109.17018   -10297.925    4.3571902    4.3571902    4.3571902   -10297.925   -9165.7017   -13168.013   -8560.0595   -18727.881    1640.8485    7854.1296    82.721722 
   89400    926.62868   -110.00092    0.8384331   -109.16249   -3030.7686    4.3559066    4.3559066    4.3559066   -3030.7686   -800.72651   -3435.2375   -4856.3418    1867.2222    3680.6249   -1528.0614    82.648632 
   89500    648.59307   -109.75168   0.58686064   -109.16482    1282.8652    4.3501952    4.3501952    4.3501952    1282.8652    27094.977    -4785.222   -18461.159   -413.04155   -18.721261    19053.757    82.323956 
   89600    465.25537   -109.58912   0.42097284   -109.16815   -2803.9425    4.3551268    4.3551268    4.3551268   -2803.9425    -3595.242    1043.4482   -5860.0337   -24472.373    16.131345     895.3457    82.604256 
   89700    870.15366   -109.94915   0.78733332   -109.16181    1599.9035    4.3554503    4.3554503    4.3554503    1599.9035    7270.1435     8323.581   -10794.014    915.88224    1433.8582    988.91216    82.622665 
   89800     620.7501   -109.72672   0.56166773   -109.16505    2436.7426    4.3512384    4.3512384    4.3512384    2436.7426      20558.7    10529.871   -23778.343    1174.6617   -2308.4282    22599.599    82.383195 
   89900    549.89626   -109.66578   0.49755769   -109.16822   -3481.4495    4.3552796    4.3552796    4.3552796   -3481.4495   -514.25803   -5209.8763   -4720.2141   -22995.289    585.41865   -3718.2365    82.612948 
   90000     985.3182   -110.05307   0.89153661   -109.16153    5333.1135    4.3533865    4.3533865    4.3533865    5333.1135    8545.4232    12411.574   -4957.6563   -1930.5037    1228.7699   -2398.7333    82.505268 
   90100     731.7724   -109.82742   0.66212305    -109.1653   -1787.8637    4.3547202    4.3547202    4.3547202   -1787.8637    8004.9654    6556.3294   -19924.886    477.86734   -3703.1768    20598.021    82.581121 
   90200    467.00422   -109.59216   0.42255524   -109.16961   -3789.8121    4.3533718    4.3533718    4.3533718   -3789.8121    2211.4986   -11581.667   -1999.2675    -25661.57   -636.79616   -8129.5516    82.504431 
   90300    939.59436   -110.01317   0.85016472   -109.16301    4074.3267    4.3525701    4.3525701    4.3525701    4074.3267    1205.9658    13157.223   -2140.2089   -7.3382578    1304.3607   -5046.9262     82.45886 
   90400    765.39523   -109.85649   0.69254569   -109.16394   -6323.5863    4.3586754    4.3586754    4.3586754   -6323.5863   -6351.7005    4806.3209   -17425.379    1778.3717   -939.52198     17103.77    82.806341 
   90500    390.42777   -109.52178   0.35326725   -109.16852   -289.13395     4.348404     4.348404     4.348404   -289.13395     1818.546   -3614.1299    928.18202   -32097.547   -2134.6389   -14264.649    82.222306 
   90600    716.88582   -109.81486   0.64865336    -109.1662    462.93006    4.3558781    4.3558781    4.3558781    462.93006   -11006.343    10760.917    1634.2159    10315.784    1273.1686   -8327.7667    82.647009 
   90700    838.46682    -109.9213    0.7586624   -109.16263   -1422.9057    4.3560817    4.3560817    4.3560817   -1422.9057   -9230.8937    9066.6669   -4104.4902    6926.3624    1274.1963    10953.763    82.658602 
   90800    498.25066   -109.61726   0.45082766   -109.16643    478.85541    4.3490881    4.3490881    4.3490881    478.85541    1637.1911   -3358.9166    3158.2918   -32358.534   -283.35196   -14507.659    82.261121 
   90900    664.20129   -109.76697   0.60098329   -109.16598   -8566.4502    4.3584857    4.3584857    4.3584857   -8566.4502   -17125.546   -10051.688    1477.8829    21269.539    1767.0012    -7586.778    82.795529 
   91000    918.97831   -109.99209   0.83151089   -109.16058    6849.2631    4.3509306    4.3509306    4.3509306    6849.2631     -2567.95     9940.358    13175.381    9811.0738   -532.73967    4844.0783    82.365714 
   91100    706.01278   -109.80362    0.6388152    -109.1648   -4373.5952    4.3544834    4.3544834    4.3544834   -4373.5952   -1784.3993   -13428.114    2091.7278   -31149.408    579.50501   -14159.074    82.567646 
   91200    562.24026    -109.6757   0.50872681   -109.16697   -1106.9625    4.3546437    4.3546437    4.3546437   -1106.9625   -11653.027   -3462.4059    11794.545    24414.352    -338.3694   -7569.4309    82.576769 
   91300    927.58758   -110.00071   0.83930074   -109.16141    5361.1173    4.3517597    4.3517597    4.3517597    5361.1173   -2369.2306    6904.6375    11547.945    12341.486     1754.433    4468.7524     82.41281 
   91400    689.15297   -109.78837   0.62356009   -109.16481   -2580.8758     4.356377     4.356377     4.356377   -2580.8758   -3549.8604   -2924.6939   -1268.0729   -25495.392    366.09648    -9610.809    82.675412 
   91500    491.92931   -109.61139   0.44510798   -109.16628    1760.5954    4.3521918    4.3521918    4.3521918    1760.5954   -11358.241    5127.7683    11512.259    20557.351   -3290.4712   -13803.732     82.43736 
   91600    800.00609    -109.8861   0.72386233   -109.16223    3258.9037    4.3538069    4.3538069    4.3538069    3258.9037    483.33436    4419.2789    4874.0978    11558.332    4902.7946    13244.281    82.529173 
   91700    653.98451   -109.75546   0.59173893   -109.16372    1777.0892    4.3544715    4.3544715    4.3544715    1777.0892    3391.9897    5630.6647   -3691.3867    -17351.65    1082.8236   -1843.9608    82.566975 
   91800    594.91642   -109.70297   0.53829288   -109.16467   -5477.4468     4.354282     4.354282     4.354282   -5477.4468   -10188.963   -9217.3874    2974.0096    16781.615   -1919.3483   -18542.432     82.55619 
   91900    715.63076   -109.81104   0.64751775   -109.16352   -292.68505    4.3517445    4.3517445    4.3517445   -292.68505    6628.4346   -1475.8176   -6030.6722    9059.5839    4399.8567    27538.651    82.411945 
   92000    726.24257   -109.82083   0.65711954   -109.16371   -2626.5815    4.3562679    4.3562679    4.3562679   -2626.5815    5830.2224   -4773.6462   -8936.3206   -9882.1842    634.61473    1021.5993    82.669202 
   92100     814.6949   -109.89955   0.73715307    -109.1624   -4344.9943    4.3542052    4.3542052    4.3542052   -4344.9943   -5834.1875    -12131.16    4930.3647    8214.7042    463.65478   -21537.298    82.551825 
   92200    579.45441   -109.69045   0.52430253   -109.16615    2791.2297    4.3491049    4.3491049    4.3491049    2791.2297    15146.214    1188.0367   -7960.5618    6991.2268    4581.4306    35889.926    82.262075 
   92300     819.8891   -109.90625   0.74185289    -109.1644   -7526.0279    4.3597879    4.3597879    4.3597879   -7526.0279    2075.8743   -6111.9768   -18541.981    -5055.711    3636.3883    6271.4779    82.869758 
   92400    905.17448   -109.98087    0.8190209   -109.16185    4124.0033    4.3512377    4.3512377    4.3512377    4124.0033   -622.73932    4018.0018    8976.7474    1026.4302   -1126.2225   -14268.669    82.383158 
   92500     309.7878   -109.45188   0.28030251   -109.17158   -2053.2356    4.3515882    4.3515882    4.3515882   -2053.2356    17803.252    2706.5862   -26669.545    6107.6778      3301.31    39878.977    82.403067 
   92600    827.01216   -109.91488   0.74829798   -109.16658   -2866.0912    4.3587062    4.3587062    4.3587062   -2866.0912   -1704.5449    6095.7021   -12989.431     -3095.48    5735.5037    7847.4938    82.808094 
   92700    952.49649   -110.02513   0.86183884   -109.16329    8999.5685    4.3499435    4.3499435    4.3499435    8999.5685    5599.8795    17898.521    3500.3054    396.94757   -3439.6936   -2094.9495    82.309666 
   92800    227.05906   -109.38156   0.20544781   -109.17611   -11990.762    4.3546196    4.3546196    4.3546196   -11990.762    14149.069   -16311.865   -33809.492     5879.046    2570.9257    41977.348    82.575396 
   92900    784.79743   -109.87975   0.71010121   -109.16965   -1152.1633    4.3558712    4.3558712    4.3558712   -1152.1633   -7505.8641    12325.206   -8275.8318    1405.6852    4891.7256    -890.0017    82.646619 
   93000    1018.9088   -110.08548   0.92193014   -109.16355    2986.9794    4.3531753    4.3531753    4.3531753    2986.9794    9629.0074    1783.9008     -2451.97    752.71488   -1318.4588    6430.9496    82.493258 
   93100    434.99693   -109.56457   0.39359436   -109.17097    -3151.789    4.3532288    4.3532288    4.3532288    -3151.789    15003.916   -14952.114   -9507.1692    2793.2311    468.86962    37121.745    82.496301 
   93200    713.16597   -109.81181   0.64528756   -109.16652    75.291392    4.3556673    4.3556673    4.3556673    75.291392   -7475.0044    14282.691    -6581.812    3709.8192     8017.176   -9632.6273    82.635014 
   93300    912.06047   -109.98691   0.82525148   -109.16166    617.09769    4.3539455    4.3539455    4.3539455    617.09769    13465.415   -6468.9694   -5145.1526   -3572.4694    1172.7684    3758.7981    82.537054 
   93400     614.2525   -109.72051   0.55578857   -109.16472     5340.007    4.3506646    4.3506646    4.3506646     5340.007    13994.148   -2692.6841    4718.5574     2680.485   -1563.3896    27991.736    82.350611 
   93500     543.3315   -109.65787   0.49161776   -109.16625   -5903.5646    4.3581711    4.3581711    4.3581711   -5903.5646   -8394.6632    13614.106   -22930.136    4564.2969    15385.507   -14441.805    82.777598 
   93600    765.05361   -109.85482   0.69223658   -109.16258    6615.9595     4.352288     4.352288     4.352288    6615.9595    20504.127   -1876.7943    1220.5454   -4592.5902   -2438.1683   -5964.4612    82.442826 
   93700    827.45999   -109.91042   0.74870319   -109.16172    4170.2651    4.3525664    4.3525664    4.3525664    4170.2651    7996.0271    2653.9408    1860.8273    3823.8731    3765.3146    20120.792    82.458647 
   93800    440.20425   -109.56642   0.39830605   -109.16812   -6752.0797    4.3569248    4.3569248    4.3569248   -6752.0797   -4748.0979    9363.7891    -24871.93    4152.4813    19571.441   -12218.977    82.706602 
   93900     789.5984   -109.88033   0.71444523   -109.16589    3945.5299    4.3516005    4.3516005    4.3516005    3945.5299    17711.632   -2368.8922   -3506.1498   -268.67831   -5244.1864   -16527.616    82.403763 
   94000    1046.1749   -110.10811   0.94660101   -109.16151    1878.7112    4.3546738    4.3546738    4.3546738    1878.7112    2171.8825    1893.0466    1571.2045    1626.6157    6745.9846    8990.2742    82.578483 
   94100    388.94912   -109.52346   0.35192933   -109.17153   -4925.4506    4.3549059    4.3549059    4.3549059   -4925.4506   -2799.2849    9744.8545   -21721.922    2868.6695    22581.181   -13859.003    82.591682 
   94200    712.69034   -109.81332   0.64485719   -109.16846   -2451.3537    4.3547194    4.3547194    4.3547194   -2451.3537    12557.667   -2987.2239   -16924.504    619.65675   -6272.7314   -20445.689    82.581072 
   94300    1025.7984   -110.08898   0.92816394   -109.16081    495.33269     4.353846     4.353846     4.353846    495.33269   -3164.6925    6150.0037   -1499.3131   -4335.8666    660.80648    6935.0684    82.531394 
   94400    322.86196   -109.46356   0.29213228   -109.17142   -6260.0066    4.3530184    4.3530184    4.3530184   -6260.0066   -1283.5316     7951.941   -25448.429    5756.2388     25391.51   -19603.947    82.484339 
   94500    630.55949   -109.73956   0.57054348   -109.16901   -8521.7553    4.3566424    4.3566424    4.3566424   -8521.7553    7990.3708   -2360.5115   -31195.125   -472.78679   -7795.3885   -20417.977    82.690523 
   94600    934.87043   -110.00677   0.84589041   -109.16088    2107.8074    4.3538807    4.3538807    4.3538807    2107.8074   -2992.2882    5690.7551    3624.9554   -4280.0013   -2207.8859    13509.885    82.533371 
   94700    430.40491   -109.55793   0.38943941   -109.16849   -4572.2164    4.3536405    4.3536405    4.3536405   -4572.2164   -5514.5943     3916.459   -12118.514    7519.3976     21332.64    -22144.04    82.519713 
   94800    770.08487   -109.86218   0.69678897   -109.16539   -2612.7462    4.3553555    4.3553555    4.3553555   -2612.7462    6856.6574      2769.95   -17464.846   -2605.5702    -4266.865   -16963.866    82.617267 
   94900    936.73651   -110.00881   0.84757888   -109.16123    3581.5231    4.3532755    4.3532755    4.3532755    3581.5231   -137.39404    1700.1523     9181.811   -339.24064   -745.16931    18942.241    82.498956 
   95000    459.65408   -109.58506   0.41590467   -109.16915   -4197.3856    4.3538901    4.3538901    4.3538901   -4197.3856   -9873.3481    4497.5288   -7216.3374    6291.8516    15628.716   -23502.411    82.533906 
   95100     791.7824   -109.88113   0.71642136   -109.16471   -1074.3811    4.3557545    4.3557545    4.3557545   -1074.3811    3626.0818    5063.7251    -11912.95   -716.17582     3916.126   -11732.582    82.639977 
   95200    916.76873   -109.99047   0.82951162   -109.16095    5243.2138    4.3532131    4.3532131    4.3532131    5243.2138    2915.3299     2203.848    10610.464    -87.30508   -2183.9787    21309.596    82.495408 
   95300    346.01275   -109.48274   0.31307961   -109.16966   -2031.1663     4.353979     4.353979     4.353979   -2031.1663   -5893.6087    7502.6845   -7702.5747    2899.6309    16205.999   -23843.128    82.538959 
   95400    741.32892   -109.83777   0.67076998     -109.167   -3118.9732    4.3553544    4.3553544    4.3553544   -3118.9732   -1957.6531     3937.825   -11337.092    1478.0301    9590.9683   -10154.641    82.617203 
   95500    1030.8986   -110.09319   0.93277872   -109.16042     7967.802    4.3527669    4.3527669    4.3527669     7967.802    3349.1163    3932.5785    16621.711   -1101.6644   -5270.6477    16429.294    82.470047 
   95600    330.46749   -109.47065   0.29901393   -109.17163   -8198.9398    4.3569803    4.3569803    4.3569803   -8198.9398   -16499.733   -1292.2074   -6804.8784    3194.6752    19108.515   -24527.685    82.709763 
   95700    639.33039   -109.74922   0.57847957   -109.17074    -185.6055    4.3520357    4.3520357    4.3520357    -185.6055   -8049.6519    7248.3964    244.43898    24.671248    7151.6058   -8169.1588    82.428491 
   95800    1152.8578   -110.20402      1.04313   -109.16089    8363.9619    4.3532498    4.3532498    4.3532498    8363.9619   -3448.4564     3746.358    24793.984   -3095.9367   -8723.9373    8757.8479    82.497499 
   95900    350.67351   -109.49182   0.31729676   -109.17452   -11229.983    4.3583734    4.3583734    4.3583734   -11229.983   -12210.995   -5488.1326   -15990.822     5722.611     20986.44    -28275.38    82.789127 
   96000    515.05617   -109.63906   0.46603365   -109.17302    989.06097    4.3495977    4.3495977    4.3495977    989.06097   -11823.603    13654.698    1136.0876   -1599.2146   -159.36333   -6945.4646    82.290039 
   96100     1132.562    -110.1851    1.0247659   -109.16033   -1010.4042    4.3579013    4.3579013    4.3579013   -1010.4042   -13033.424    1066.8855    8935.3262   -3446.9228   -10505.159      4192.12    82.762227 
   96200    467.12691   -109.59386   0.42266624    -109.1712    -4704.456    4.3542609    4.3542609    4.3542609    -4704.456   -8729.9179    6361.5918   -11745.042    4215.5009    21131.327   -25080.884    82.554994 
   96300    577.98683   -109.69291   0.52297463   -109.16993     2536.256    4.3504832    4.3504832    4.3504832     2536.256   -14666.969    18607.963    3667.7734   -1131.3098    -1823.461   -5893.7483    82.340307 
   96400    1057.5031   -110.11727   0.95685105   -109.16042   -1244.7551    4.3587262    4.3587262    4.3587262   -1244.7551   -9956.8972    3534.8082    2687.8238   -1571.5632   -10597.522    4385.9518    82.809234 
   96500    563.90695   -109.67845   0.51023486   -109.16822    2595.7074    4.3499854    4.3499854    4.3499854    2595.7074    3750.8446    14238.576   -10202.298    718.11593    19422.731   -16878.879    82.312044 
   96600    644.87471   -109.75026   0.58349619   -109.16676   -2613.7988    4.3565122    4.3565122    4.3565122   -2613.7988   -16174.368    11617.714   -3284.7427    413.48805    5878.8089   -5352.0527    82.683109 
   96700    942.48499   -110.01311   0.85278022   -109.16033    88.742569      4.35463      4.35463      4.35463    88.742569    -5524.031    4571.9118    1218.3469   -4121.8755   -9809.3625    9155.1744    82.575986 
   96800    387.25592   -109.51888   0.35039729   -109.16849    1561.7901    4.3507332    4.3507332    4.3507332    1561.7901    6002.5407    17385.734   -18702.905    14.133529    16910.074   -14936.139    82.354504 
   96900    715.33166   -109.81308   0.64724712   -109.16584   -5481.2515    4.3588317    4.3588317    4.3588317   -5481.2515   -17899.518    16239.497   -14783.733    2846.2295    14198.331   -7883.2407     82.81525 
   97000    951.81672   -110.02228   0.86122377   -109.16105    9095.5228    4.3497051    4.3497051    4.3497051    9095.5228    3496.5297    18531.343    5258.6958   -7641.7191   -7546.4364    10562.701    82.296136 
   97100    254.78891   -109.40451   0.23053836   -109.17397   -12137.862    4.3561234    4.3561234    4.3561234   -12137.862    1148.0664    799.66789    -38361.32   -3018.6281      19824.9   -13918.532    82.660975 
   97200    717.37991   -109.82044   0.64910042   -109.17134   -2959.9466    4.3550238    4.3550238    4.3550238   -2959.9466   -9142.5881    16766.539    -16503.79    1798.8176    16652.832   -6844.4742    82.598392 
   97300    1103.2741   -110.16068   0.99826559   -109.16242    5262.1321    4.3516405    4.3516405    4.3516405    5262.1321    313.91788     13739.66    1732.8186    -2455.835    -8474.336    3374.1951    82.406035 
   97400    295.89186   -109.44329   0.26772917   -109.17556   -14035.558    4.3574665    4.3574665    4.3574665   -14035.558    980.33401   -2132.5017   -40954.508    335.29121      24977.3   -13807.686    82.737459 
   97500    722.63461   -109.82451   0.65385498   -109.17065    4406.6749    4.3517925    4.3517925    4.3517925    4406.6749     9894.908    16751.049   -13425.932    2216.8888    12688.055   -6812.3693    82.414672 
   97600     1093.278   -110.15102   0.98922093    -109.1618     -2722.97    4.3572355    4.3572355    4.3572355     -2722.97   -4460.6016    7102.8189   -10811.127    -2100.197    -17353.37     2578.539    82.724302 
   97700    499.64101   -109.62243   0.45208568   -109.17035   -494.51968    4.3507952    4.3507952    4.3507952   -494.51968    12448.272    11285.701   -25217.533   -2570.9106    20714.533    -14218.44    82.358022 
   97800    680.12147   -109.78272    0.6153882   -109.16733     -509.598    4.3553083    4.3553083    4.3553083     -509.598    3169.4529    10448.466   -15146.713    5291.3608    6741.2512   -7449.8937    82.614584 
   97900    865.07812    -109.9448   0.78274086   -109.16206   -5004.6857    4.3572455    4.3572455    4.3572455   -5004.6857   -14962.562    11100.667   -11152.162    1157.5735   -24835.767    5789.0767    82.724869 
   98000    640.10083     -109.742   0.57917669   -109.16282    5976.2186    4.3475431    4.3475431    4.3475431    5976.2186    11046.805    12940.445   -6058.5939   -5648.9498    17365.796   -14898.022    82.173482 
   98100    572.05859   -109.68098   0.51761063   -109.16337   -7449.7655    4.3610114    4.3610114    4.3610114   -7449.7655   -2861.1765   -1174.2948   -18313.825    6560.5667    1154.6717   -4721.2031    82.939546 
   98200    723.10742   -109.81627   0.65428279   -109.16199    1981.1922    4.3509394    4.3509394    4.3509394    1981.1922   -3832.9521    13626.159   -3849.6299     3404.653    -28576.32    5145.1252    82.366215 
   98300    728.47748   -109.82081   0.65914174   -109.16167    6102.4279    4.3506506    4.3506506    4.3506506    6102.4279    12844.239    5328.6283    134.41666   -5854.3758    15937.739   -15523.857    82.349816 
   98400    608.85322    -109.7145   0.55090319    -109.1636   -9964.5874    4.3607844    4.3607844    4.3607844   -9964.5874   -690.75372   -8191.8882    -21011.12    8440.6944   -827.38413   -4823.3931    82.926597 
   98500    685.05474   -109.78218   0.61985192   -109.16233    7313.0899    4.3481297    4.3481297    4.3481297    7313.0899    11145.931    9105.2939    1688.0446     5488.844    -29646.26    5474.8301    82.206749 
   98600    797.45005   -109.88271   0.72154956   -109.16116   -2224.5013    4.3558042    4.3558042    4.3558042   -2224.5013    14448.582   -17087.178   -4034.9085   -9594.2375    12497.347   -9906.9343    82.642804 
   98700    633.74091    -109.7369    0.5734221   -109.16348   -2922.4835    4.3562234    4.3562234    4.3562234   -2922.4835    10729.071   -2618.8331   -16877.688    2996.9099   -3161.7173   -10016.016    82.666669 
   98800    756.38082    -109.8467   0.68438926   -109.16231    4240.8642    4.3498115    4.3498115    4.3498115    4240.8642    814.50346    9984.4907    1923.5985    3654.3369   -25094.347    6454.9282    82.302173 
   98900    707.95699    -109.8035   0.64057436   -109.16293   -5427.2204    4.3569492    4.3569492    4.3569492   -5427.2204    8722.4633   -23654.912    -1349.212   -12651.136    9400.1011   -3351.4473    82.707994 
   99000    702.92519   -109.79959   0.63602148   -109.16356   -3903.8243     4.354049     4.354049     4.354049   -3903.8243    1138.5431   -1291.1286   -11558.887     654.5406   -7315.2528   -17168.279    82.542941 
   99100    842.90219   -109.92383   0.76267561   -109.16115     147.5942     4.352628     4.352628     4.352628     147.5942   -4167.2293    2846.7239     1763.288    2056.6679   -17624.401     9774.323     82.46215 
   99200    567.08088   -109.67784    0.5131067   -109.16473   -7580.5345    4.3556316    4.3556316    4.3556316   -7580.5345    10543.304   -34457.358    1172.4505   -17531.287     7126.058   -1514.1702     82.63298 
   99300    646.17141   -109.74935   0.58466947   -109.16468   -4218.1723    4.3535714    4.3535714    4.3535714   -4218.1723    2644.1686   -10709.093   -4589.5922    -810.1476   -2404.6419   -18801.573     82.51578 
   99400    865.18232   -109.94328   0.78283514   -109.16044    2134.7974    4.3545075    4.3545075    4.3545075    2134.7974   -2168.6183    2778.8906    5794.1198    2392.7887   -10314.728    10468.901    82.569022 
   99500     477.6715   -109.59924   0.43220721   -109.16703   -4266.3379    4.3529602    4.3529602    4.3529602   -4266.3379    12893.199   -33116.625    7424.4121   -18764.209    2754.8827   -520.48116    82.481033 
   99600    579.03052   -109.69118   0.52391898   -109.16727    -6297.277    4.3554584    4.3554584    4.3554584    -6297.277    1362.0899   -16086.547   -4167.3739   -947.99334    2259.0974   -17389.587    82.623124 
   99700    953.75126   -110.02332   0.86297418   -109.16035   -3386.8947     4.355421     4.355421     4.355421   -3386.8947   -6862.6436   -5952.8778    2654.8374    3983.7706   -9379.6958    7435.6127    82.620994 
   99800     596.4355   -109.70531   0.53966737   -109.16565    1367.2544    4.3502731    4.3502731    4.3502731    1367.2544    13178.889   -17299.043    8221.9179   -11364.395    3455.7984    3793.7537    82.328377 
   99900     657.6505   -109.76095   0.59505599   -109.16589   -7372.1787    4.3581849    4.3581849    4.3581849   -7372.1787   -7128.0351   -12948.353   -2040.1484     1877.633    7218.0454   -18613.515    82.778388 
  100000     897.7258   -109.97349   0.81228117   -109.16121    2073.1859    4.3527546    4.3527546    4.3527546    2073.1859    -6777.624    4.3518695     12992.83    11224.222   -5224.2799    8216.5807    82.469346 
Loop time of 25.2283 on 1 procs for 100000 steps with 8 atoms

Pair  time (%) = 7.95583 (31.5353)
Kspce time (%) = 6.24264 (24.7446)
Neigh time (%) = 0 (0)
Comm  time (%) = 1.26769 (5.02486)
Outpt time (%) = 0.031354 (0.124281)
Other time (%) = 9.7308 (38.5709)

Nlocal:    8 ave 8 max 8 min
Histogram: 1 0 0 0 0 0 0 0 0 0
Nghost:    2189 ave 2189 max 2189 min
Histogram: 1 0 0 0 0 0 0 0 0 0
Neighs:    2056 ave 2056 max 2056 min
Histogram: 1 0 0 0 0 0 0 0 0 0

Total # of neighbors = 2056
Ave neighs/atom = 257
Neighbor list builds = 0
Dangerous builds = 0
unfix 20
unfix 21
print "seeds:1217662"
seeds:1217662
