LAMMPS (10 Feb 2015)
# ---- initialize simulations
clear
units metal
dimension 3
boundary p p p
atom_style charge
atom_modify map array
# ---- create atoms
read_data /Users/eugeneragasa/pyflamestk_git/pypospack/tests/tests_integration/workflow/WorkflowLammpsThermalExpansion/param_2217/MgO_NaCl_unit.npt.T300/lammps.structure
  triclinic box = (0 0 0) to (4.2565 4.2565 4.2565) with tilt (0 0 0)
  1 by 1 by 1 MPI processor grid
  reading atoms ...
  8 atoms
# ---- define interatomic potential
include potential.mod
mass 1 24.305
mass 2 15.999

group Mg type 1
4 atoms in group Mg
group O type 2
4 atoms in group O

set group Mg charge 1.63539617609
  4 settings made for charge
set group O charge -1.63539617609
  4 settings made for charge

variable R_cut equal 10.0

pair_style buck/coul/long ${R_cut}
pair_style buck/coul/long 10
pair_coeff 1 1 0.0 0.5 0.0 ${R_cut}
pair_coeff 1 1 0.0 0.5 0.0 10
pair_coeff 1 2 1445.86118726 0.28350177361 0.0 ${R_cut}
pair_coeff 1 2 1445.86118726 0.28350177361 0.0 10
pair_coeff 2 2 14001.7361193 0.0970682303871 13.3227844282 ${R_cut}
pair_coeff 2 2 14001.7361193 0.0970682303871 13.3227844282 10

kspace_style pppm 1.0e-5

neighbor 1.0 bin
neigh_modify every 1 delay 0 check yes
# ---- define settings
compute eng all pe/atom
compute eatoms all reduce sum c_eng
# ---- run minimization
reset_timestep 0
fix 1 all box/relax iso 0.0 vmax 0.001
thermo 10
thermo_style custom step pe lx ly lz xy xz yz press pxx pyy pzz pxy pxz pyz c_eatoms
min_style cg
minimize 1e-25 1e-25 5000 10000
PPPM initialization ...
  G vector (1/distance) = 0.35265
  grid = 8 8 8
  stencil order = 5
  estimated absolute RMS force accuracy = 3.8734e-05
  estimated relative force accuracy = 2.68993e-06
  using double precision FFTs
  3d grid and FFT values/proc = 3375 512
Neighbor list info ...
  1 neighbor list requests
  update every 1 steps, delay 0 steps, check yes
  master list distance cutoff = 11
Memory usage per processor = 4.06549 Mbytes
Step PotEng Lx Ly Lz Xy Xz Yz Press Pxx Pyy Pzz Pxy Pxz Pyz eatoms 
       0   -107.83625       4.2565       4.2565       4.2565            0            0            0    103722.55    103722.55    103722.55    103722.55 -7.9651797e-11 -6.6040977e-11 3.4954802e-10   -107.83625 
      10   -107.94585     4.299065     4.299065     4.299065            0            0            0    48505.206    48505.206    48505.206    48505.206 -1.814552e-10 -8.0829294e-11 -4.0355362e-11   -107.94585 
      20   -107.98099     4.341612     4.341612     4.341612            0            0            0  -0.16598057  -0.16598057  -0.16598058  -0.16598057 -1.539671e-10 -9.8603927e-12 -7.0562295e-11   -107.98099 
      24     -107.981    4.3416118    4.3416118    4.3416118            0            0            0 -0.022137581 -0.022137581 -0.022137581 -0.022137581 -7.2866315e-11 -1.1353573e-10 -3.1341588e-11     -107.981 
Loop time of 0.016448 on 1 procs for 24 steps with 8 atoms

Minimization stats:
  Stopping criterion = linesearch alpha is zero
  Energy initial, next-to-last, final = 
        -107.836253395     -107.981002151     -107.981002151
  Force two-norm initial, final = 14.9776 3.56003e-06
  Force max component initial, final = 14.9776 3.3258e-06
  Final line search alpha, max atom move = 0.5 1.6629e-06
  Iterations, force evaluations = 24 36

Pair  time (%) = 0.00436544 (26.5408)
Kspce time (%) = 0.00283504 (17.2363)
Neigh time (%) = 0 (0)
Comm  time (%) = 0.000506163 (3.07735)
Outpt time (%) = 5.98431e-05 (0.363831)
Other time (%) = 0.00868154 (52.7816)

Nlocal:    8 ave 8 max 8 min
Histogram: 1 0 0 0 0 0 0 0 0 0
Nghost:    2189 ave 2189 max 2189 min
Histogram: 1 0 0 0 0 0 0 0 0 0
Neighs:    2344 ave 2344 max 2344 min
Histogram: 1 0 0 0 0 0 0 0 0 0

Total # of neighbors = 2344
Ave neighs/atom = 293
Neighbor list builds = 0
Dangerous builds = 0
unfix 1
# ---- define output variables ----
variable natoms equal "count(all)"
variable tot_energy equal "c_eatoms"
variable length_x equal "lx"
variable length_y equal "ly"
variable length_z equal "lz"
variable tilt_xy equal "xy"
variable tilt_xz equal "xz"
variable tilt_yz equal "yz"
variable tot_press equal "press"
variable press_xx equal "pxx"
variable press_yy equal "pyy"
variable press_zz equal "pzz"
variable press_xy equal "pxy"
variable press_xz equal "pxz"
variable press_yz equal "pyz"

# ---- output ----
print "pypospack:output_section:begin"
pypospack:output_section:begin
print "tot_energy = ${tot_energy}"
tot_energy = -107.981002151143
print "num_atoms = ${natoms}"
num_atoms = 8
print "xx = ${length_x}"
xx = 4.34161184326772
print "yy = ${length_y}"
yy = 4.34161184326772
print "zz = ${length_z}"
zz = 4.34161184326772
print "xy = ${tilt_xy}"
xy = 0
print "xz = ${tilt_xz}"
xz = 0
print "yz = ${tilt_yz}"
yz = 0
print "tot_press = ${tot_press}"
tot_press = -0.0221375810241508
print "pxx = ${press_xx}"
pxx = -0.0221375810918532
print "pyy = ${press_yy}"
pyy = -0.0221375807194137
print "pzz = ${press_zz}"
pzz = -0.0221375812611855
print "pxy = ${press_xy}"
pxy = -7.28663154154814e-11
print "pxz = ${press_xz}"
pxz = -1.13535727889352e-10
print "pyz = ${press_yz}"
pyz = -3.13415884666446e-11
print "pypospack:output_section:done"
pypospack:output_section:done
print "pypospack:lammps_sim:done"
pypospack:lammps_sim:done
#------------------------------------------------------------------------------
# RUN THERMOSTAT
# running using an NPT Nose-Hoover style thermostat
#------------------------------------------------------------------------------
variable tempdamp equal 0.1
variable pressdamp equal 1.0
# set initial velocities
velocity all create 300 8050263 mom yes dist gaussian loop all
# fix for Nose-Hoover style thermostat
fix 20 all npt temp 300 300 0.1 aniso 0.0 0.0 1.0 drag 1.0 couple xyz
variable boxx equal lx
variable boxy equal ly
variable boxz equal lz
variable boxp equal press
variable boxt equal temp
# calculate averages every 10000 steps
reset_timestep 0
fix 21 all ave/time 10 10 100 v_boxx v_boxy v_boxz v_boxp v_boxt file lattice.out
thermo_style custom step temp pe ke etotal press lx ly lz press pxx pyy pzz pxy pxz pyz vol
thermo_modify flush yes
thermo 100
run 100000
PPPM initialization ...
  G vector (1/distance) = 0.3518
  grid = 8 8 8
  stencil order = 5
  estimated absolute RMS force accuracy = 4.02804e-05
  estimated relative force accuracy = 2.79732e-06
  using double precision FFTs
  3d grid and FFT values/proc = 3375 512
Memory usage per processor = 3.06549 Mbytes
Step Temp PotEng KinEng TotEng Press Lx Ly Lz Press Pxx Pyy Pzz Pxy Pxz Pyz Volume 
       0          300   -107.98101    0.2714463   -107.70957    3540.7898    4.3416118    4.3416118    4.3416118    3540.7898    2213.1214    1055.8059    7353.4421    840.40026   -585.92924    687.34306    81.837618 
     100    44.839644   -107.71205  0.040571852   -107.67148    575.42828    4.3566527    4.3566527    4.3566527    575.42828   -2622.9802   -11736.844     16086.11   -1409.3884    227.42947    641.03158    82.691108 
     200    292.03356   -107.86032    0.2642381   -107.59608    233.45064    4.3448297    4.3448297    4.3448297    233.45064    1199.7389   -1640.9425    1141.5556   -265.85572   -331.02615    2690.6975    82.019716 
     300    186.90456   -107.70543   0.16911518   -107.53632   -3143.7314    4.3611723    4.3611723    4.3611723   -3143.7314     -2594.86   -11410.645    4574.3105    7.9849034   -659.29185   -2299.9124     82.94873 
     400    282.79065   -107.74011   0.25587492   -107.48423    1858.0449    4.3487662    4.3487662    4.3487662    1858.0449   -1123.7975   -5836.9853    12534.918   -2502.8093    899.29495    4829.5197    82.242857 
     500    312.45578   -107.73556   0.28271656   -107.45284   -2125.1215    4.3603556    4.3603556    4.3603556   -2125.1215    436.90806   -13542.025    6729.7518    462.05493   -1764.4058   -617.67086    82.902137 
     600    292.27218   -107.70289   0.26445401   -107.43844    1545.6233    4.3577764    4.3577764    4.3577764    1545.6233   -8528.3548   -11171.651    24336.876   -1908.8649    2313.5414    1396.0941    82.755112 
     700    237.42141   -107.64958   0.21482388   -107.43475    3361.2739    4.3515958    4.3515958    4.3515958    3361.2739    10316.103   -8579.6003    8347.3186   -1668.6171   -1544.6094    2689.2638    82.403495 
     800    331.51207    -107.7333   0.29995909   -107.43334   -7491.6351    4.3658207    4.3658207    4.3658207   -7491.6351   -15915.619   -17205.188    10645.902   -59.770515    2951.4382   -1197.7334    83.214247 
     900    338.54449   -107.74058   0.30632217   -107.43426    4945.2625    4.3479517    4.3479517    4.3479517    4945.2625    11619.592   -3208.4514    6424.6469   -2495.1153    292.89339    3842.4069    82.196652 
    1000    223.61231    -107.6387   0.20232912   -107.43637   -5491.4235    4.3636392    4.3636392    4.3636392   -5491.4235   -12387.922   -16283.181    12196.832   -967.56367    1774.8259    712.71935     83.08957 
    1100     393.4007   -107.79075   0.35595722   -107.43479     2433.514    4.3532342    4.3532342    4.3532342     2433.514    7302.0292   -3750.3951     3748.908   -126.37553    1941.4623     1389.055    82.496608 
    1200    171.39488   -107.59296   0.15508169   -107.43787    3314.1882    4.3577542    4.3577542    4.3577542    3314.1882   -6801.2686   -11131.199    27875.032   -2939.4282    -1325.863    3087.5801    82.753849 
    1300    353.24489   -107.75699    0.3196234   -107.43736   -1264.7104    4.3564937    4.3564937    4.3564937   -1264.7104    7307.8436   -10441.448    -660.5266    758.99589    2811.3736    1384.3851    82.682055 
    1400    389.43668   -107.79001   0.35237049   -107.43764   -2542.3608    4.3586111    4.3586111    4.3586111   -2542.3608   -10914.161   -12167.651     15454.73   -949.62247    -5405.525   -380.40517    82.802671 
    1500    163.77476   -107.58775   0.14818685   -107.43956    2689.0261    4.3526533    4.3526533    4.3526533    2689.0261    15901.677   -8340.2037    505.60516   -1738.1411    2131.9905    5481.2576    82.463587 
    1600    437.29095    -107.8322   0.39567004   -107.43653   -15151.073    4.3634833    4.3634833    4.3634833   -15151.073   -15524.192     -17620.3   -12308.726    1973.4684   -5942.3866   -3239.9967    83.080666 
    1700     152.9692   -107.57629   0.13840975   -107.43788    16318.644    4.3497583    4.3497583    4.3497583    16318.644    18806.224    552.97445    29596.733   -2228.2706    395.10662    3929.4633    82.299155 
    1800    432.40185   -107.82864   0.39124628    -107.4374   -14857.987    4.3619719    4.3619719    4.3619719   -14857.987   -13993.056   -19877.646    -10703.26    667.07656   -1600.5372    -937.7716    82.994364 
    1900    180.32067   -107.60118   0.16315793   -107.43802    13787.107    4.3558386    4.3558386    4.3558386    13787.107    9870.5364   -2960.4926    34451.276    320.49861    178.80747    349.60139    82.644762 
    2000    414.75163   -107.81288   0.37527599   -107.43761   -6490.1718    4.3535004    4.3535004    4.3535004   -6490.1718   -3883.5782   -9817.7518   -5769.1853   -1286.5113    3465.1278    1991.4269    82.511743 
    2100    136.38574   -107.56298   0.12340468   -107.43958    262.27774    4.3631652    4.3631652    4.3631652    262.27774    6478.5014   -15266.455    9574.7866    525.58489    -356.9879     -374.647    83.062493 
    2200    496.35282   -107.88543   0.44911046   -107.43632      2002.37    4.3496461    4.3496461    4.3496461      2002.37   -863.12932   -3655.0476    10525.287   -405.11613    5120.0663    1277.5045    82.292784 
    2300     176.0213   -107.59833   0.15926777   -107.43906    807.28544    4.3625202    4.3625202    4.3625202    807.28544    8719.9467   -16413.379    10115.289   -1355.7154   -2103.5442    1522.4286    83.025662 
    2400    354.50357   -107.75828   0.32076228   -107.43751    804.59878    4.3531688    4.3531688    4.3531688    804.59878   -4441.5655   -7525.6148    14380.977    865.46217    3623.8575   -331.63661    82.492892 
    2500    293.40233    -107.7026    0.2654766   -107.43712    3484.3652     4.358137     4.358137     4.358137    3484.3652    5122.8532   -7451.2366    12781.479   -1111.3113   -3672.5521    1416.1664    82.775657 
    2600    248.40978   -107.66317   0.22476639    -107.4384   -3545.2412    4.3570363    4.3570363    4.3570363   -3545.2412   -4915.4634    -11401.37    5681.1098   -671.14021    850.27388    1853.9655    82.712954 
    2700    369.52465   -107.77192   0.33435367   -107.43757    -4038.616    4.3567456    4.3567456    4.3567456    -4038.616   -4702.6796    -9410.575    1997.4065    2341.5223   -3017.9788   -2979.9274      82.6964 
    2800    249.28016   -107.66318   0.22555392   -107.43763    2689.9982    4.3564176    4.3564176    4.3564176    2689.9982   -725.50955   -6644.2022    15439.706   -1881.8146   -2107.1144     3578.273    82.677724 
    2900    338.06902   -107.74307   0.30589195   -107.43717   -9165.1583    4.3583107    4.3583107    4.3583107   -9165.1583   -380.67747   -16347.611   -10767.186    2263.2729     499.3686    -2938.605    82.785555 
    3000    245.17421   -107.65838   0.22183878   -107.43655    10422.804    4.3551778    4.3551778    4.3551778    10422.804   -997.63344   -5116.9209    37382.965    1834.1783   -3703.2518   -394.93539    82.607153 
    3100    401.59324    -107.7992   0.36337001   -107.43583   -6589.1815    4.3585773    4.3585773    4.3585773   -6589.1815    538.28937   -13966.982   -6338.8524   -697.21277    4099.5271    100.45543    82.800748 
    3200    173.28712   -107.59467   0.15679383   -107.43787    5230.3095    4.3558565    4.3558565    4.3558565    5230.3095   -7358.7065   -8274.2404    31323.875    3341.9531   -2807.3358   -756.61504     82.64578 
    3300    413.82297   -107.80992   0.37443572   -107.43549   -5473.9879    4.3577018    4.3577018    4.3577018   -5473.9879   -5067.9719   -8107.2534   -3246.7382    617.51592    3753.6809   -617.65742    82.750863 
    3400    224.74018   -107.64051   0.20334964   -107.43716   -307.74249    4.3563147    4.3563147    4.3563147   -307.74249   -3773.3302   -8904.7571     11754.86    782.78425   -371.80493     2306.365    82.671868 
    3500    297.06703   -107.70589   0.26879249   -107.43709    -2069.726    4.3576294    4.3576294    4.3576294    -2069.726   -8993.6236   -9778.0956    12562.541     2232.093    1464.1374   -1847.3312    82.746736 
    3600    370.69474   -107.77133   0.33541239   -107.43592    1036.7652    4.3557188    4.3557188    4.3557188    1036.7652    -4518.343   -7348.0177    14976.656   -12.161555   -448.53887    3521.2116    82.637944 
    3700    188.46077   -107.60889   0.17052326   -107.43837    4764.6375    4.3582802    4.3582802    4.3582802    4764.6375   -376.55085   -12691.496    27361.959    1164.0118   -153.07314   -1322.3998    82.783819 
    3800    438.22791   -107.83352   0.39651782     -107.437   -2298.7473    4.3541176    4.3541176    4.3541176   -2298.7473   -5985.0399   -8344.3845    7433.1826    1099.1495   -1752.9897    209.65858     82.54684 
    3900    176.09612   -107.59831   0.15933547   -107.43898    5296.7276    4.3597614    4.3597614    4.3597614    5296.7276    290.93455   -10266.231    25865.479    -1025.531   -1353.2058   -504.33649    82.868251 
    4000    371.01601   -107.77571   0.33570308   -107.44001   -4175.8044    4.3519093    4.3519093    4.3519093   -4175.8044   -8772.6485   -9021.4714    5266.7067    2214.8845    753.29713   -2251.0582    82.421309 
    4100    304.01479   -107.71608   0.27507897     -107.441    -2981.425    4.3619902    4.3619902    4.3619902    -2981.425   -9359.5423   -11052.218    11467.485    -218.0843   -324.48005   -713.79298    82.995407 
    4200    225.01636   -107.64663   0.20359953   -107.44303    7600.0945    4.3511104    4.3511104    4.3511104    7600.0945   -3155.3407   -6349.3469    32304.971   -383.28669    854.01842    582.75489    82.375923 
    4300     357.0322   -107.76709   0.32305024   -107.44404   -9847.4904    4.3600999    4.3600999    4.3600999   -9847.4904   -7414.1467   -13651.061   -8477.2637    3230.4618   -398.30923   -2741.8998    82.887554 
    4400    324.79876   -107.73812   0.29388475   -107.44423    321.56606    4.3561032    4.3561032    4.3561032    321.56606   -9605.0473   -9146.7744     19716.52   -1300.6906   -3786.3749     3557.206    82.659824 
    4500    194.90644   -107.62218   0.17635545   -107.44582    8584.1474    4.3531595    4.3531595    4.3531595    8584.1474    7819.2356   -8314.5203    26247.727    2404.1109   -87.896815   -1466.0965    82.492362 
    4600      445.539   -107.84719   0.40313305   -107.44406   -13159.242     4.362335     4.362335     4.362335   -13159.242   -15982.638   -17366.415   -6128.6718    1618.3022   -4224.3599    193.13959    83.015092 
    4700    208.60481   -107.63234   0.18875002   -107.44359    17105.244     4.351492     4.351492     4.351492    17105.244    9746.7444    -1759.929    43328.918    357.97742    1492.0552   -541.52849    82.397603 
    4800    343.41096   -107.75319   0.31072545   -107.44247   -11568.884      4.35936      4.35936      4.35936   -11568.884   -13354.625   -15937.067   -5414.9598    3187.5576   -1811.8742   -1405.9117    82.845365 
    4900    246.49741   -107.66359   0.22303604   -107.44056    1331.7531    4.3585041    4.3585041    4.3585041    1331.7531   -6365.7457   -6344.2579    16705.263    75.982748    1343.8884   -1638.9063    82.796576 
    5000      365.597   -107.76834   0.33079985   -107.43754    2092.0621     4.353092     4.353092     4.353092    2092.0621   -3388.0047   -7008.9947    16673.186    2124.6674    2692.2685   -278.45084    82.488523 
    5100    262.14481   -107.67562   0.23719414   -107.43843   -6631.9548    4.3612855    4.3612855    4.3612855   -6631.9548     -3585.26   -15592.448   -718.15627    1883.5547   -318.70764   -2566.7634    82.955189 
    5200    324.72606   -107.73013   0.29381896   -107.43631    7609.5756    4.3548892    4.3548892    4.3548892    7609.5756   -3007.0785   -5645.8793    31481.685   -398.44315    3651.8442     -1077.26    82.590737 
    5300    344.92252    -107.7494   0.31209314   -107.43731   -4034.0057    4.3567684    4.3567684    4.3567684   -4034.0057   -1151.0491    -12851.17    1900.2022    1796.6327   -2194.9446    1117.9717      82.6977 
    5400     158.3174   -107.58208   0.14324891   -107.43883    2812.8735    4.3583382    4.3583382    4.3583382    2812.8735   -7856.8564   -9487.4141    25782.891    880.46777    1501.0476   -3126.3931    82.787122 
    5500    490.34674   -107.87969   0.44367604   -107.43601   -5745.5038    4.3569872    4.3569872    4.3569872   -5745.5038   -7747.1144   -10223.749    734.35182   -1033.5036   -3882.4182    3317.7743    82.710159 
    5600    171.75059   -107.59485   0.15540355   -107.43944    6157.7277     4.354042     4.354042     4.354042    6157.7277   -3081.8082   -5496.3186     27051.31    2333.0501   -625.33327   -2526.0451    82.542544 
    5700    298.08831   -107.70961   0.26971657   -107.43989   -6922.8497    4.3630153    4.3630153    4.3630153   -6922.8497   -16149.241   -14657.451    10038.143    415.86165   -3296.7444    955.38509    83.053936 
    5800    416.11535   -107.81577   0.37650991   -107.43926    6471.3166    4.3476042    4.3476042    4.3476042    6471.3166   -1867.2581    290.34208    20990.866     113.0606   -1169.8138   -297.07488    82.176949 
    5900    88.982485   -107.52441  0.080513222   -107.44389      1047.15    4.3661545    4.3661545    4.3661545      1047.15   -8629.7367   -18613.969    30385.156    2445.1078    1149.8319   -4310.2157    83.233338 
    6000    487.22879   -107.88297   0.44085485   -107.44211    5013.7281    4.3456122    4.3456122    4.3456122    5013.7281    1347.9168    -2894.721    16587.988   -559.31797    620.77933    252.15595    82.064043 
    6100    317.97565   -107.73333   0.28771105   -107.44561   -7903.7131    4.3653942    4.3653942    4.3653942   -7903.7131   -11933.379   -19762.593    7984.8328     2708.403   -701.14003   -2889.9973    83.189861 
    6200    145.98406   -107.57813   0.13208944   -107.44604    12088.224    4.3465508    4.3465508    4.3465508    12088.224    989.41129   -1731.5954    37006.856   -158.70016    -1391.177    729.89675    82.117229 
    6300    425.75533   -107.82807   0.38523237   -107.44284   -13459.922    4.3649045    4.3649045    4.3649045   -13459.922   -17455.439   -18968.831   -3955.4949    1062.8958   -2926.2408    286.34974    83.161868 
    6400    281.77029   -107.69789   0.25495168   -107.44294    6155.5474    4.3488079    4.3488079    4.3488079    6155.5474   -265.34564    -3064.442     21796.43     2769.192    1433.3574    208.64935    82.245219 
    6500    216.19575   -107.63758   0.19561846   -107.44196    -3842.776    4.3620241    4.3620241    4.3620241    -3842.776   -9204.4706   -13078.547     10754.69   -1272.0471   -1919.7576    -1014.588    82.997341 
    6600     453.9825   -107.84862   0.41077291   -107.43785   -3720.3875    4.3536017    4.3536017    4.3536017   -3720.3875   -11969.892   -7770.2717    8579.0016    2516.0185    4255.1403     1591.446    82.517507 
    6700    102.63833   -107.53246  0.092869319   -107.43959    9284.3354    4.3575461    4.3575461    4.3575461    9284.3354    5544.7121   -6836.3619    29144.656    1133.1776   -1064.6896   -1878.7819    82.741993 
    6800    471.55238   -107.86336   0.42667051   -107.43669   -8050.0183    4.3561405    4.3561405    4.3561405   -8050.0183   -10630.724   -14575.994    1056.6625   -838.14083    3781.7977   -2183.8909    82.661948 
    6900    232.45614   -107.64835    0.2103312   -107.43802     6709.503    4.3576193    4.3576193    4.3576193     6709.503    1028.8239   -6503.2225    25602.908    1401.3951    -1839.094    1053.6346    82.746159 
    7000    315.32059   -107.72342    0.2853087   -107.43811   -1542.6011    4.3542378    4.3542378    4.3542378   -1542.6011   -7316.3087   -9490.1824    12178.688     276.9666    481.37027   -5584.7197    82.553681 
    7100    327.69162   -107.73481   0.29650226    -107.4383   -5314.5455    4.3590097    4.3590097    4.3590097   -5314.5455   -12060.753   -11560.599     7677.716   -594.47377   -2005.9501    2761.6874    82.825391 
    7200    227.74633   -107.64718   0.20606966   -107.44112    10437.261    4.3547041    4.3547041    4.3547041    10437.261   -5838.8065   -5219.3116    42369.901    1119.8765   -1540.4543   -5477.5075    82.580203 
    7300    317.84483   -107.73299   0.28759268   -107.44539   -5065.9458    4.3556036    4.3556036    4.3556036   -5065.9458    -2166.616   -11379.868   -1651.3528   -81.080603    827.96425    1446.2004    82.631389 
    7400    397.26309   -107.80556     0.359452    -107.4461   -4764.8617    4.3590694    4.3590694    4.3590694   -4764.8617   -15665.028   -12999.078    14369.521    569.18162   -2863.3945    250.82065    82.828797 
    7500    153.37424   -107.58604   0.13877623   -107.44726    8822.4365    4.3519959    4.3519959    4.3519959    8822.4365    6035.0351   -5152.1793    25584.454     872.0474     1142.921   -726.94246     82.42623 
    7600    411.00562   -107.81705   0.37188653   -107.44517   -13413.862    4.3603794    4.3603794    4.3603794   -13413.862   -14531.719   -20404.962   -5304.9064   -1271.8466   -2707.7108   -565.70972    82.903495 
    7700    305.92024   -107.72036   0.27680306   -107.44355     9930.524     4.351102     4.351102     4.351102     9930.524    996.14897   -4622.4607    33417.884    1897.3143   -379.12547   -616.13456    82.375449 
    7800    217.58722   -107.64091   0.19687749   -107.44403   -4351.6589    4.3609688    4.3609688    4.3609688   -4351.6589   -8964.6381   -13766.244     9675.905   -1213.9246    1917.4588   -4511.8358    82.937118 
    7900    382.85001    -107.7862   0.34641073   -107.43979   -77.177844    4.3513876    4.3513876    4.3513876   -77.177844   -7381.1389   -5737.0943      12886.7    -291.2116   -3454.3226    2643.7424     82.39167 
    8000    245.07362   -107.66008   0.22174776   -107.43833    1793.0413    4.3601919    4.3601919    4.3601919    1793.0413   -10065.968   -7333.0037    22778.096    1852.0878    3542.9534   -1047.6668    82.892798 
    8100    316.07181   -107.72322   0.28598841   -107.43723   -223.58456    4.3540312    4.3540312    4.3540312   -223.58456     2066.063   -8783.0965    6046.2799   -1346.8322    -2735.639   -1146.0886    82.541926 
    8200    307.77995   -107.71434   0.27848576   -107.43585    4081.8913    4.3568262    4.3568262    4.3568262    4081.8913   -8022.7011   -8868.2562    29136.631    1074.4152    2075.9798    2993.8881    82.700992 
    8300    312.13992   -107.71866   0.28243076   -107.43623    3091.1995    4.3564376    4.3564376    4.3564376    3091.1995    3065.8616   -7529.0496    13736.787    5.8135214    728.31958   -2448.3964     82.67886 
    8400    301.07191    -107.7101    0.2724162   -107.43769     -3681.64    4.3568093    4.3568093    4.3568093     -3681.64   -6630.3337   -14531.903    10117.317    -109.7941    294.24284    289.96398    82.700027 
    8500    274.59917   -107.68674    0.2484631   -107.43828    8129.4624     4.352994     4.352994     4.352994    8129.4624    2630.9333    -3758.137    25515.591    61.665075    1913.8445    1462.9496    82.482952 
    8600    384.73348   -107.78777   0.34811494   -107.43966   -14859.632    4.3629035    4.3629035    4.3629035   -14859.632   -13005.834   -18591.523   -12981.539   -60.777637    -277.1996   -4803.4596    83.047547 
    8700    150.39752   -107.57755   0.13608284   -107.44147    14118.739     4.345519     4.345519     4.345519    14118.739    5953.4099    698.40233    35704.404    283.14208    908.54878    4546.3834    82.058764 
    8800    401.48074   -107.80404   0.36326821   -107.44077   -15385.859    4.3690048    4.3690048    4.3690048   -15385.859   -24361.267   -20218.931   -1577.3801    257.53976   -2044.1555   -3033.1736    83.396453 
    8900    281.82205   -107.69738   0.25499852   -107.44238    10247.311     4.342239     4.342239     4.342239    10247.311    15476.474    1465.8323    13799.628   -214.43473   -515.73151    503.38081    81.873088 
    9000     246.8238   -107.66613   0.22333136   -107.44279   -9980.3747    4.3689804    4.3689804    4.3689804   -9980.3747   -19062.946   -22484.036    11605.857    83.735771   -2760.3455    2848.0511    83.395051 
    9100     371.6379   -107.77688   0.33626578   -107.44061    11150.131    4.3454764    4.3454764    4.3454764    11150.131    12462.844    2995.3732    17992.175    145.00518    281.80056   -1705.6977    82.056348 
    9200    220.50192   -107.64086   0.19951478   -107.44134   -5691.8634    4.3631409    4.3631409    4.3631409   -5691.8634   -11903.832   -20392.769    15221.011   -2162.6603   -257.22147    705.13459    83.061106 
    9300    317.78892   -107.72537    0.2875421   -107.43783     7263.266     4.352579     4.352579     4.352579     7263.266    159.00394   -569.57633     22200.37    1413.1132   -268.41621    3350.8461    82.459368 
    9400    365.03493   -107.76673   0.33029128   -107.43644   -4129.6399    4.3580102    4.3580102    4.3580102   -4129.6399   -9146.2793   -12431.746     9189.106   -1734.3862    2345.0028    -5172.912    82.768432 
    9500     156.9528   -107.58009    0.1420142   -107.43807    3057.1283    4.3547612    4.3547612    4.3547612    3057.1283    2008.6562   -5682.8423    12845.571    26.086589   -1995.4183     4809.215    82.583454 
    9600     462.5727   -107.85371    0.4185455   -107.43516   -7386.7099    4.3586662    4.3586662    4.3586662   -7386.7099    -14030.55   -10765.111    2635.5314    429.23483    3084.4815   -2581.8524    82.805814 
    9700     139.4752   -107.56439   0.12620009   -107.43819    9138.4268     4.353515     4.353515     4.353515    9138.4268    6188.0056   -6073.7413    27301.016   -1611.7126   -738.48621   -1101.3469    82.512575 
    9800    414.25048   -107.81163   0.37482254    -107.4368   -6893.7588    4.3577996    4.3577996    4.3577996   -6893.7588   -6408.4739   -15496.985    1224.1821     1407.241     554.2926    2053.7673    82.756434 
    9900    306.30111   -107.71475   0.27714768    -107.4376    3987.5201    4.3573392    4.3573392    4.3573392    3987.5201   -2163.7849   -8277.2462    22403.591   -2370.9824    2276.6973    -1784.315    82.730208 
   10000    214.08815   -107.63399   0.19371146   -107.44027    1157.8772    4.3520305    4.3520305    4.3520305    1157.8772    307.86325   -9743.8272    12909.596    771.66324   -1451.7263    2285.5151    82.428194 
   10100    405.05943   -107.80603   0.36650628   -107.43953   -10650.395    4.3627189    4.3627189    4.3627189   -10650.395   -14915.145   -14696.418   -2339.6232    265.66987    2846.9973    3870.9886    83.037006 
   10200     220.4554    -107.6419   0.19947268   -107.44242    9366.2168    4.3476977    4.3476977    4.3476977    9366.2168    448.63432   -2595.4177    30245.434   -1176.4894   -2641.6216   -1238.2273     82.18225 
   10300    286.30068   -107.70312   0.25905088   -107.44407   -6118.2327    4.3629179    4.3629179    4.3629179   -6118.2327   -7026.4631   -17927.959    6599.7243    1740.5757   -52.795918    3132.2294    83.048372 
   10400    388.10322   -107.79257   0.35116395    -107.4414    6748.8921    4.3492782    4.3492782    4.3492782    6748.8921   -1001.4701   -3316.9391    24565.086   -231.51731   -1278.2091   -413.58923    82.271904 
   10500    155.05419   -107.58329   0.14029629     -107.443    319.40522    4.3613256    4.3613256    4.3613256    319.40522   -4485.0702   -14060.179    19503.465   -483.53196   -364.32024   -2183.3396    82.957474 
   10600    404.61891   -107.80631    0.3661077   -107.44021    2259.7469    4.3502741    4.3502741    4.3502741    2259.7469    4613.4911   -9352.6788    11518.428    71.388697   -1231.7634    2769.2657    82.328438 
   10700    289.52105   -107.70158   0.26196473   -107.43962   -999.34424    4.3612985    4.3612985    4.3612985   -999.34424   -10603.091   -12277.545    19882.603   -730.70432   -1325.5195   -1713.4052    82.955929 
   10800    259.31902   -107.67411   0.23463729   -107.43947    4016.6961     4.353014     4.353014     4.353014    4016.6961    2496.1711   -8279.6946    17833.612   -1193.8122   -393.41325    241.62972    82.484089 
   10900    339.35326   -107.74498   0.30705396   -107.43792   -1731.4846    4.3558757    4.3558757    4.3558757   -1731.4846   -7569.2397   -9202.4961    11577.282    27.674162   -1104.6777    5187.7076    82.646872 
   11000    247.17962   -107.66175   0.22365331    -107.4381   -269.71834    4.3593941    4.3593941    4.3593941   -269.71834   -10856.411   -9242.7227    19289.979   -1449.3142    1992.0463    -3162.636    82.847307 
   11100    340.50125   -107.74607   0.30809269   -107.43798   -4079.9365    4.3531016    4.3531016    4.3531016   -4079.9365    3419.4128   -11373.737    -4285.485    428.60109   -1160.4758     7134.436    82.489071 
   11200    268.90212   -107.68081   0.24330829    -107.4375    2600.2845    4.3559809    4.3559809    4.3559809    2600.2845   -3249.5272    -10803.92      21854.3    -1718.214    3352.1982   -227.04949    82.652865 
   11300    343.14598   -107.74901    0.3104857   -107.43853   -11564.179    4.3622552    4.3622552    4.3622552   -11564.179   -8461.2793   -18806.007   -7425.2508   -1423.1138    2629.9634    2125.3094    83.010531 
   11400    223.10674    -107.6416   0.20187167   -107.43973    10361.281     4.345011     4.345011     4.345011    10361.281    13721.495   -5259.9612    22622.308    896.35394   -422.32129    3669.7377    82.029987 
   11500    344.45884   -107.75084    0.3116736   -107.43916   -15842.841    4.3705522    4.3705522    4.3705522   -15842.841   -23251.442   -24470.602    193.52042    -3468.787    4491.0252   -819.31195    83.485095 
   11600    324.69384   -107.73195   0.29378981   -107.43816    7248.8785    4.3426512    4.3426512    4.3426512    7248.8785    12395.033   -1201.7503    10553.353    1404.0327   -3980.9094    2347.2852    81.896407 
   11700    228.51062   -107.64439   0.20676121   -107.43763   -7294.1911    4.3661573    4.3661573    4.3661573   -7294.1911   -13307.016   -17540.361    8964.8038    -439.1421    2035.9413    1072.9706    83.233497 
   11800    404.29763    -107.8005   0.36581699   -107.43468   -2431.8488    4.3518762    4.3518762    4.3518762   -2431.8488   -6817.4358   -7248.2879    6770.1773   -1299.1238   -2175.5419   -489.77707    82.419427 
   11900    155.46552   -107.57764   0.14066847   -107.43697    6945.8391    4.3562997    4.3562997    4.3562997    6945.8391    3833.8148   -8127.7083    25131.411    1335.4969    270.66538    3194.3458    82.671011 
   12000    405.42546   -107.80314   0.36683748    -107.4363   -5257.2665    4.3583303    4.3583303    4.3583303   -5257.2665   -7289.7784   -16818.636    8336.6154   -1932.2334   -317.41307    1384.9378    82.786673 
   12100    303.37204   -107.71159   0.27449739   -107.43709    4645.8316    4.3536684    4.3536684    4.3536684    4645.8316    11.035385   -5219.2174    19145.677   -319.32098    1235.9117    504.28772    82.521296 
   12200    228.64815   -107.64553   0.20688565   -107.43865    1580.7595    4.3575178    4.3575178    4.3575178    1580.7595   -956.18624   -15139.581    20838.046   -1038.6227    832.47401    3829.6619    82.740378 
   12300    411.88454   -107.81142   0.37268179   -107.43874   -4954.8913    4.3541648    4.3541648    4.3541648   -4954.8913   -11718.582   -7157.7465    4011.6545   -2132.9299   -1193.1758    1005.0398    82.549524 
   12400    178.37419     -107.604   0.16139672    -107.4426    6722.3212    4.3585035    4.3585035    4.3585035    6722.3212   -5156.7649   -11200.293    36524.022    428.79808    1108.7264   -1372.2127    82.796542 
   12500    357.78829   -107.76729   0.32373436   -107.44356   -1666.5126    4.3522295    4.3522295    4.3522295   -1666.5126   -2453.6145   -9100.6492    6554.7259   -1658.7511   -4186.8403    4515.7696    82.439501 
   12600    372.00978   -107.77963   0.33660227   -107.44303   -3957.6706    4.3595595    4.3595595    4.3595595   -3957.6706   -12724.431   -12021.198    12872.618     -1999.75    2053.8155   -3699.4575    82.856738 
   12700    163.33468   -107.59198   0.14778865   -107.44419    4760.9303    4.3523499    4.3523499    4.3523499    4760.9303    1373.4511   -7240.9936    20150.333    812.79854    1255.2937    3215.3699    82.446344 
   12800    385.73101   -107.79217   0.34901752   -107.44315   -8608.1269     4.358991     4.358991     4.358991   -8608.1269   -7421.1023   -18219.065   -184.21328   -3308.1915      1632.42    1255.7731     82.82433 
   12900    299.19703   -107.71293   0.27071976   -107.44221    6180.2893    4.3521722    4.3521722    4.3521722    6180.2893     -3176.94   -3705.8253    25423.633     -773.369     3665.175    2094.6749    82.436248 
   13000    254.74465    -107.6725   0.23049831   -107.44201   -5512.4563    4.3605866    4.3605866    4.3605866   -5512.4563    -2354.484   -19111.718    4928.8331   -38.361596   -144.95597    3816.4165    82.915312 
   13100    349.56108   -107.75333   0.31629021   -107.43704    4777.7266    4.3502211    4.3502211    4.3502211    4777.7266    -7281.084   -1263.7151    22877.979   -2911.8878    3687.8853    603.55795    82.325429 
   13200     236.9829   -107.65028   0.21442711   -107.43585   -5148.0359     4.362868     4.362868     4.362868   -5148.0359    -9094.312   -13444.828    7095.0325    1909.9682   -476.66453    1968.0305    83.045522 
   13300    339.63604   -107.74233   0.30730983   -107.43502    559.38627    4.3506272    4.3506272    4.3506272    559.38627    749.07819   -7911.7376    8840.8183   -2146.7794     159.2991    1591.5981    82.348484 
   13400    271.40944   -107.68105   0.24557697   -107.43547    2749.5906    4.3595302    4.3595302    4.3595302    2749.5906   -5105.7536   -9270.6792    22625.205    -177.9001    1.4893492   -272.70463    82.855068 
   13500    391.58288   -107.79038   0.35431242   -107.43606   -3384.5449    4.3548202    4.3548202    4.3548202   -3384.5449   -1537.9258   -11568.995    2953.2867    65.968316   -4031.1567    317.47893    82.586808 
   13600    162.95766   -107.58588   0.14744751   -107.43843      5012.39    4.3565223    4.3565223    4.3565223      5012.39    1402.5496   -11718.009    25352.629    -3505.232    82.993748    2068.2141    82.683687 
   13700    418.58161   -107.81575   0.37874144   -107.43701   -1577.4669    4.3541416    4.3541416    4.3541416   -1577.4669    -6885.522     -6039.43    8192.5512    1023.5947   -4437.2188   -3106.1988    82.548206 
   13800    275.57507   -107.68971   0.24934611   -107.44036    -7425.866    4.3609019    4.3609019    4.3609019    -7425.866   -3399.3263   -17720.996   -1157.2756   -1813.0812    2014.7527      4545.01    82.933301 
   13900    246.65522   -107.66381   0.22317882   -107.44063    9047.7534     4.346995     4.346995     4.346995    9047.7534    796.64007   -54.379091    26400.999   -1978.2923   -2743.0062   -193.14184    82.142407 
   14000    415.87541   -107.81509   0.37629281   -107.43879   -17956.793    4.3681866    4.3681866    4.3681866   -17956.793   -17550.943   -22037.436       -14282    1177.4124    4412.1316    2731.0549    83.349603 
   14100    130.89781   -107.55842   0.11843909   -107.43998    14197.982    4.3433015    4.3433015    4.3433015    14197.982    13410.872    -1421.609    30604.683   -2702.3249   -1180.6039     2941.167    81.933201 
   14200    408.45741   -107.80675   0.36958085   -107.43717   -15150.797    4.3662336    4.3662336    4.3662336   -15150.797   -14576.803   -21475.487   -9400.1007    -1792.104    4323.1365    163.21318     83.23786 
   14300    294.71848   -107.70354   0.26666747   -107.43688    4618.9407    4.3509387    4.3509387    4.3509387    4618.9407    5696.7375   -7810.5415    15970.626    756.38701   -973.27109      2499.49    82.366176 
   14400    263.75307   -107.67649   0.23864932   -107.43784   -2688.6625    4.3564493    4.3564493    4.3564493   -2688.6625   -3237.6459   -13631.786     8803.445   -3314.0442   -1325.9262    1241.9042    82.679531 
   14500     368.2093   -107.76945   0.33316351   -107.43628   -5585.1363    4.3593959    4.3593959    4.3593959   -5585.1363    -11716.05   -12731.029    7691.6698    948.25388    257.86774   -759.72961    82.847407 
   14600    212.08571   -107.62918   0.19189961   -107.43728    7281.6239    4.3521967    4.3521967    4.3521967    7281.6239    3209.5727   -6592.2923    25227.591   -208.46006    -3187.224     3107.726    82.437637 
   14700    361.67206   -107.76399   0.32724848   -107.43674   -5863.1091    4.3583897    4.3583897    4.3583897   -5863.1091    -10603.33   -13805.391     6819.394   -2201.8092     1797.105   -2054.3554    82.790056 
   14800    268.77607   -107.67918   0.24319423   -107.43598    4786.2096    4.3561575    4.3561575    4.3561575    4786.2096   -1908.9383   -8267.6621    24535.229    2756.2374   -1423.8762     1612.535    82.662917 
   14900    342.74906   -107.74753   0.31012655   -107.43741   -2368.4604    4.3546223    4.3546223    4.3546223   -2368.4604   -5660.5338   -12479.818     11034.97   -3861.4053    3454.7912    52.654828    82.575551 
   15000    278.81008   -107.69126   0.25227322   -107.43899   -200.33571    4.3575039    4.3575039    4.3575039   -200.33571   -2790.7869   -13714.906    15904.686    1023.1735   -51.764312    973.75902    82.739588 
   15100    299.97524   -107.71144    0.2714239   -107.44001    6626.8151    4.3540769    4.3540769    4.3540769    6626.8151   -3386.7085     -9707.53    32974.684    494.48208    924.50411    497.06099    82.544529 
   15200    344.96474   -107.75451   0.31213134   -107.44238    -6441.407    4.3567681    4.3567681    4.3567681    -6441.407   -3891.6766   -16155.279    722.73476   -3209.4752   -1550.4961    2892.8685    82.697682 
   15300     228.1595   -107.64917   0.20644351   -107.44272    7382.4445    4.3530098    4.3530098    4.3530098    7382.4445   -6586.3804   -5893.3406    34627.055    3496.5271   -3444.0278   -1743.9719    82.483853 
   15400    347.57529   -107.75627   0.31449343   -107.44177   -6981.4344    4.3578349    4.3578349    4.3578349   -6981.4344   -8199.8168   -12817.905    73.418373   -1987.1715   -914.82642    1991.4092    82.758442 
   15500    267.82896   -107.68545   0.24233727   -107.44311   -2071.9498    4.3539706    4.3539706    4.3539706   -2071.9498   -7366.6349   -9948.5187    11099.304    16.825641   -1448.4562   -2791.5074    82.538479 
   15600    300.27176   -107.71301    0.2716922   -107.44132    4922.3334    4.3559714    4.3559714    4.3559714    4922.3334   -523.77711   -9618.4716    24909.249    1977.4612     526.7801    616.63081     82.65232 
   15700    367.02412    -107.7725   0.33209113   -107.44041   -5142.8103    4.3559083    4.3559083    4.3559083   -5142.8103   -8128.6394   -11517.959    4218.1678   -2623.4558    3025.2944    -129.5548    82.648727 
   15800    203.77266    -107.6244   0.18437778   -107.44002     4429.295    4.3564848    4.3564848    4.3564848     4429.295    2827.7127   -13380.653    23840.825    2357.6849    101.20243   -331.83661     82.68155 
   15900    397.32589   -107.79677   0.35950881   -107.43726    157.04708     4.353863     4.353863     4.353863    157.04708    -4772.982    -5402.858    10646.981     1253.854    5927.3095    663.05956     82.53236 
   16000    263.62996   -107.67745   0.23853793   -107.43891   -5687.4992     4.359772     4.359772     4.359772   -5687.4992   -3083.8314   -14150.084    171.41773   -1250.5059   -2936.6109    2352.1285    82.868853 
   16100      231.899   -107.64883   0.20982709     -107.439    7632.4447    4.3512087    4.3512087    4.3512087    7632.4447   -3180.8078   -4954.5854    31032.727    4516.5406    3983.3161   -118.52423    82.381509 
   16200    446.28446   -107.84078   0.40380756   -107.43697    -7453.795    4.3598245    4.3598245    4.3598245    -7453.795   -9674.2258   -12181.238   -505.92076   -1263.5628   -4339.4298    1615.8005    82.871846 
   16300    142.41267   -107.56916   0.12885798    -107.4403    7502.7232    4.3542371    4.3542371    4.3542371    7502.7232   -2868.6708    -8160.703    33537.543    668.94621    1027.3016    -6.009612     82.55364 
   16400    408.79788   -107.80822   0.36988891   -107.43833   -4358.2507    4.3544828    4.3544828    4.3544828   -4358.2507   -1279.7396   -12319.506    524.49378    4061.5983     -3810.93   -2556.5267    82.567612 
   16500    265.32484   -107.67878   0.24007149   -107.43871   -1808.5537    4.3606558    4.3606558    4.3606558   -1808.5537   -8160.4062   -9326.8738    12061.619   -3202.4186    239.59802    178.22242    82.919263 
   16600    256.75477   -107.67115   0.23231711   -107.43883    2476.4544    4.3500817    4.3500817    4.3500817    2476.4544    5819.5026   -12086.618    13696.478    4549.1667   -667.56609   -2717.1839     82.31751 
   16700    374.53594   -107.77536   0.33888799   -107.43647   -4954.4648    4.3607728    4.3607728    4.3607728   -4954.4648   -11979.313   -11292.416    8408.3339    1130.1493   -145.28901   -1301.3343    82.925938 
   16800    224.72871   -107.64127   0.20333926   -107.43793    5480.8906    4.3543215    4.3543215    4.3543215    5480.8906    855.85645   -9362.5118    24949.327   -946.92193    1458.7906    961.70369    82.558441 
   16900    331.82565   -107.73915   0.30024282   -107.43891   -4653.5584    4.3540587    4.3540587    4.3540587   -4653.5584   -6869.4782   -11932.608    4841.4115    5219.7765    1697.1746    -2062.571    82.543494 
   17000    294.67806   -107.70623    0.2666309    -107.4396   -614.95506     4.360073     4.360073     4.360073   -614.95506   -8262.3692   -10867.825    17285.329   -2261.7856   -532.28211    442.58887    82.886021 
   17100    288.97384   -107.70396   0.26146961   -107.44249    4494.3528    4.3507016    4.3507016    4.3507016    4494.3528   -3098.2964   -8633.5226    25214.877    2868.4074    454.14274    1645.7258    82.352707 
   17200    357.60596   -107.76663   0.32356939   -107.44306   -7902.4446    4.3608855    4.3608855    4.3608855   -7902.4446   -7439.2512   -18195.957     1927.874    2321.8171    -2294.812   -1286.0341    82.932367 
   17300     266.0007   -107.68326   0.24068302   -107.44258    13470.252    4.3507872    4.3507872    4.3507872    13470.252   -1024.0976   -918.65721    42353.511   -809.81157    1608.1744   -96.059244    82.357572 
   17400    271.95628      -107.69   0.24607176   -107.44393   -10291.358    4.3595419    4.3595419    4.3595419   -10291.358   -4440.4178   -20423.479   -6010.1777    5244.5315   -1174.4379   -973.88623    82.855732 
   17500    319.02131    -107.7315   0.28865718   -107.44285    1826.0404    4.3536635    4.3536635    4.3536635    1826.0404   -5002.2086   -5870.5307    16350.861   -93.283223    6151.7052   -5223.6696    82.521019 
   17600    281.88764   -107.69679   0.25505786   -107.44173    1914.0527    4.3566164    4.3566164    4.3566164    1914.0527   -13.582433   -10851.652    16607.393    1873.8594   -122.19582    874.76118    82.689044 
   17700    322.11972   -107.73234   0.29146069   -107.44088   -11232.388     4.357062     4.357062     4.357062   -11232.388   -10142.025   -17827.701   -5727.4374    3998.0698    2306.6364   -3474.3254    82.714417 
   17800    255.48545   -107.66896    0.2311686   -107.43779    11013.281    4.3548148    4.3548148    4.3548148    11013.281    2825.9445   -3717.8522    33931.751   -1202.7896   -175.11004    83.282982    82.586502 
   17900    364.47917   -107.76749   0.32978841    -107.4377   -9206.4698    4.3574253    4.3574253    4.3574253   -9206.4698   -10499.106   -17460.293     339.9891     3445.861   -2772.3518    1024.4185    82.735112 
   18000    210.06305    -107.6288   0.19006946   -107.43873    2082.6059    4.3555522    4.3555522    4.3555522    2082.6059    3479.7497   -11558.887    14326.955    2110.3177    318.41833   -3749.7549    82.628462 
   18100    404.90679   -107.80321   0.36636817   -107.43684    433.76471    4.3566382    4.3566382    4.3566382    433.76471   -7114.9131   -9086.9486    17503.156   -610.34037   -6497.3227    3833.7758    82.690285 
   18200    265.18957    -107.6798   0.23994909   -107.43985   -1554.5659    4.3540822    4.3540822    4.3540822   -1554.5659    3328.8139   -11651.186    3658.6744    4754.8755    1629.4625   -705.76463    82.544827 
   18300     198.5249   -107.62053    0.1796295   -107.44091    4811.6104    4.3599382    4.3599382    4.3599382    4811.6104   -9663.0779   -11330.021    35427.931   -473.08376   -2818.1445    48.211758    82.878332 
   18400    437.36373   -107.83551    0.3957359   -107.43977    3484.9145    4.3495783    4.3495783    4.3495783    3484.9145    4156.5762   -3891.5793    10189.747    1496.9639    3048.0974   -200.60837    82.288941 
   18500    251.42726   -107.67158   0.22749667   -107.44409   -6852.8023    4.3633094    4.3633094    4.3633094   -6852.8023   -16584.087    -20436.66     16462.34    2817.7586    811.98964   -1118.6937    83.070731 
   18600    281.49512   -107.69854    0.2547027   -107.44383    8089.1503    4.3466556    4.3466556    4.3466556    8089.1503    7001.7061   -977.57899    18243.324   -1858.5109    2017.5871   -4536.5609     82.12317 
   18700    402.27769    -107.8075   0.36398931   -107.44351   -17026.278     4.366814     4.366814     4.366814   -17026.278    -22256.81   -23526.269   -5295.7542     4293.055    264.54755    1313.4059     83.27106 
   18800    152.79038   -107.58043   0.13824795   -107.44219    15602.339    4.3433836    4.3433836    4.3433836    15602.339    15330.338   -360.95409    31837.633   -182.63166   -235.75929   -2876.1517    81.937847 
   18900    408.27442   -107.80638   0.36941528   -107.43696   -16625.254    4.3683615    4.3683615    4.3683615   -16625.254   -21079.231   -21034.292   -7762.2376    1523.1622    1478.7957    771.06903    83.359618 
   19000    250.26441   -107.66151    0.2264445   -107.43506    11576.687    4.3469576    4.3469576    4.3469576    11576.687    9591.5587   -2342.2891    27480.792     4251.842   -1287.0051   -740.03959    82.140288 
   19100     281.4839   -107.68992   0.25469255   -107.43523   -9279.1366    4.3612999    4.3612999    4.3612999   -9279.1366   -11876.855   -14101.722   -1858.8332   -1562.1608    394.75691   -1873.7971    82.956009 
   19200    330.02225   -107.73414   0.29861107   -107.43553   -42.045547    4.3555619    4.3555619    4.3555619   -42.045547   -2039.0676    -9967.551    11880.482    3960.2377    1232.4116    985.77536    82.629014 
   19300    266.14771   -107.67824   0.24081604   -107.43742    2494.0934    4.3537435    4.3537435    4.3537435    2494.0934   -6624.8108    -8506.444    22613.535    1428.9117   -2870.8509   -2351.3666    82.525565 
   19400    344.19039   -107.74847    0.3114307   -107.43704   -1469.4739    4.3576649    4.3576649    4.3576649   -1469.4739   -2382.5776    -13636.37    11610.525   -271.24415    3640.0893   -647.55511     82.74876 
   19500    328.39585   -107.73448   0.29713946   -107.43734    856.62287    4.3561914    4.3561914    4.3561914    856.62287   -11813.784   -10230.664    24614.316    4239.4425   -3693.5813    851.16944    82.664847 
   19600    221.90004   -107.64061   0.20077982   -107.43983    8974.1439    4.3517947    4.3517947    4.3517947    8974.1439    7036.4415   -6746.5954    26632.586   -684.80139    1356.8505   -2007.6138    82.414797 
   19700    420.28954   -107.82155   0.38028681   -107.44126   -12925.008    4.3615163    4.3615163    4.3615163   -12925.008   -15553.811   -16378.006   -6843.2065    2079.3682   -1568.6538    68.257576    82.968356 
   19800    186.63449   -107.61325   0.16887081   -107.44438    16178.678    4.3478984    4.3478984    4.3478984    16178.678    6498.7721   -828.53253    42865.794    1893.2554   -3045.6061    2002.0051    82.193632 
   19900    367.80046   -107.77582   0.33279358   -107.44303   -14678.643    4.3648983    4.3648983    4.3648983   -14678.643   -16438.474   -19576.166   -8021.2903   -1677.1685   -218.32854    -721.1826    83.161514 
   20000    249.22037    -107.6668   0.22549983    -107.4413    9095.7361    4.3458533    4.3458533    4.3458533    9095.7361    4642.4484   -1622.2087    24266.969     2961.533    465.62169    -699.1192      82.0777 
   20100    323.50172   -107.73058   0.29271116   -107.43786   -13109.004    4.3657575    4.3657575    4.3657575   -13109.004    -18742.54   -17749.205   -2835.2667   -752.70659   -1101.7363    512.02707    83.210634 
   20200    292.83088   -107.70132   0.26495953   -107.43636    2590.0307    4.3483375    4.3483375    4.3483375    2590.0307    6725.8364   -7124.5892    8168.8449    96.479969    3868.1323   -4915.6393    82.218534 
   20300     304.1528   -107.71087   0.27520384   -107.43566   -4373.9111    4.3606055    4.3606055    4.3606055   -4373.9111   -16693.955   -11209.158     14781.38    3471.7784    191.21939    1538.8043    82.916389 
   20400    307.74898    -107.7146   0.27845774   -107.43614   -900.76932     4.356106     4.356106     4.356106   -900.76932    891.54773   -11131.435    7537.5792   -1785.5887    1857.9398   -5055.5932    82.659986 
   20500    280.55102   -107.69055   0.25384846    -107.4367    4155.5364    4.3515952    4.3515952    4.3515952    4155.5364   -2883.0088    -4451.324    19800.942    3061.0351    2222.2857    477.23493    82.403461 
   20600    260.40724   -107.67316   0.23562194   -107.43754   -4905.1904    4.3638391    4.3638391    4.3638391   -4905.1904   -11174.598   -14663.525    11122.552    1193.4051    -508.4726   -989.48097     83.10099 
   20700    417.34424   -107.81427   0.37762184   -107.43665    3055.6224    4.3459421    4.3459421    4.3459421    3055.6224    3240.9326   -1457.8393    7383.7739   -728.43999   -2376.6395   -2091.3068    82.082733 
   20800    138.29672   -107.56604   0.12513378   -107.44091   -564.19313    4.3646737    4.3646737    4.3646737   -564.19313   -13398.581   -18554.829    30260.831    3594.3863    9.3377042    2268.7811    83.148679 
   20900    428.70692   -107.82811   0.38790303   -107.44021    2971.6875    4.3471798    4.3471798    4.3471798    2971.6875   -2483.3915    257.30281    11141.151   -892.13703   -7584.4048   -317.19731    82.152885 
   21000    241.11107   -107.66004   0.21816236   -107.44188   -756.90398    4.3617382    4.3617382    4.3617382   -756.90398   -5808.1869   -16980.901    20518.376     2349.202    3643.7039    1684.5671    82.981023 
   21100    297.12039   -107.70964   0.26884077    -107.4408   -1242.1407    4.3521149    4.3521149    4.3521149   -1242.1407   -9443.8766   -3566.1944    9283.6489     2058.744   -3769.3306    499.12877    82.432994 
   21200    362.27708   -107.76745   0.32779592   -107.43965   -2380.8325    4.3581707    4.3581707    4.3581707   -2380.8325   -3477.6502   -9903.8355    6238.9881    -1289.992   -416.78434   -654.58713    82.777576 
   21300    233.15466   -107.65124   0.21096324   -107.44028    621.17053    4.3530273    4.3530273    4.3530273    621.17053   -4472.0653   -7372.1609    13707.738    3286.4976    888.60367   -1881.4239    82.484848 
   21400    301.05158   -107.71201   0.27239779   -107.43961    -7804.334    4.3606171    4.3606171    4.3606171    -7804.334   -10713.069    -11851.21   -848.72271   -931.03964   -3142.4412   -1522.3663    82.917055 
   21500    317.27086   -107.72326   0.28707335   -107.43619    8438.2323    4.3500515    4.3500515    4.3500515    8438.2323    1279.3976   -2162.0704     26197.37   -238.11222   -906.58784    272.12255    82.315798 
   21600    252.46391   -107.66488   0.22843465   -107.43644   -10293.984    4.3621404    4.3621404    4.3621404   -10293.984   -12208.661   -17971.323   -701.96751    2746.9762   -424.17469   -2386.9006    83.003978 
   21700    371.93531   -107.77147   0.33653489   -107.43493    1432.2458    4.3524357    4.3524357    4.3524357    1432.2458   -8006.0875   -2865.0746    15167.899    -1691.222    -3372.201    2299.7012     82.45122 
   21800    245.51404   -107.65936   0.22214627   -107.43721   -1841.0327    4.3574348    4.3574348    4.3574348   -1841.0327   -1038.8397    -14946.26    10462.001    2346.3804   -684.76921   -3435.4267    82.735654 
   21900    361.94117   -107.76536   0.32749198   -107.43787   -7733.8498    4.3566759    4.3566759    4.3566759   -7733.8498    -13558.15   -8576.9685   -1066.4307    1281.8639    -290.9669    3007.5195    82.692432 
   22000    237.98228   -107.65515   0.21533137   -107.43982    8293.2308    4.3541636    4.3541636    4.3541636    8293.2308    532.40123     -5946.29    30293.581   -1073.1438   -1873.5225   -699.46926    82.549456 
   22100    327.87103   -107.73779    0.2966646   -107.44113    2425.4345    4.3538131    4.3538131    4.3538131    2425.4345   -7508.7266    -7651.625    22436.655    3276.6439    1938.9161    1630.1563    82.529523 
   22200    296.57765   -107.70945   0.26834969    -107.4411   -4686.7837    4.3608524    4.3608524    4.3608524   -4686.7837   -12174.701   -11183.886    9298.2356   -1354.8024    -1939.181    -269.5549    82.930479 
   22300    281.63903   -107.69461   0.25483291   -107.43978    9260.8025     4.346905     4.346905     4.346905    9260.8025   -773.68836    723.68296    27832.413    2062.0279   -3287.2458   -1131.3128    82.137303 
   22400    350.54496   -107.75731   0.31718045   -107.44013   -13967.742    4.3653612    4.3653612    4.3653612   -13967.742   -16157.923   -20629.685   -5115.6176    2629.6953    1608.4799    210.07275    83.187977 
   22500    245.96212   -107.66312    0.2225517   -107.44056     8213.869    4.3463357    4.3463357    4.3463357     8213.869   -4991.0252    3295.1498    26337.482   -1370.5466   -8798.1545    48.599734    82.105035 
   22600     328.3238   -107.73694   0.29707427   -107.43986   -7924.2301     4.364665     4.364665     4.364665   -7924.2301   -9908.8845   -20314.079     6450.273    4246.3837    779.27205    320.64532    83.148181 
   22700    317.79386    -107.7262   0.28754656   -107.43865    2150.1074    4.3474734    4.3474734    4.3474734    2150.1074   -3303.1229    1399.2278    8354.2172   -469.28441   -4155.4372     2212.735    82.169527 
   22800    212.22938   -107.63021    0.1920296   -107.43818   -5873.8707    4.3627036    4.3627036    4.3627036   -5873.8707   -9107.8081   -10769.911    2256.1068   -37.569523   -5972.7118   -371.43387    83.036136 
   22900    401.28301   -107.79895    0.3630893   -107.43586   -1066.2518    4.3525799    4.3525799    4.3525799   -1066.2518   -7547.5744   -6895.0407     11243.86    3267.2393    3662.2845    614.61664    82.459419 
   23000    194.34665   -107.61478   0.17584894   -107.43893    993.44482    4.3558991    4.3558991    4.3558991    993.44482   -5698.6536   -2514.3488    11193.337   -1749.4492   -5605.7921     261.4404    82.648207 
   23100    356.17352   -107.76091   0.32227328   -107.43864   -3182.1026    4.3590401    4.3590401    4.3590401   -3182.1026   -14950.764   -11963.071    17367.527    2108.9275    2241.7805    699.74159    82.827124 
   23200    314.09276   -107.72306   0.28419773   -107.43887    6802.5344    4.3495527    4.3495527    4.3495527    6802.5344    2321.5072   -1558.5649    19644.661    1514.6804   -434.72559    -1783.102    82.287487 
   23300    214.87485   -107.63387   0.19442328   -107.43945    -5510.537    4.3636131    4.3636131    4.3636131    -5510.537   -17477.908   -13932.368    14878.665   -1573.5482   -2685.3016    1780.7071    83.088079 
   23400    413.29473   -107.81083   0.37395776   -107.43687    6496.4332    4.3472443    4.3472443    4.3472443    6496.4332    4896.8519   -2149.0798    16741.527    3438.8283   -195.17831   -2437.6837    82.156539 
   23500    234.38599   -107.65024   0.21207737   -107.43816   -405.91513    4.3625553    4.3625553    4.3625553   -405.91513   -12019.774   -14132.856    24934.885   -806.01115   -2770.2819    2166.4469    83.027669 
   23600    310.97295   -107.72026   0.28137486   -107.43889    2888.4596    4.3502683    4.3502683    4.3502683    2888.4596    318.00276   -544.19955    8891.5756    176.44727   -5118.9273   -912.93591    82.328104 
   23700    311.90932   -107.72072   0.28222211    -107.4385    1107.6142    4.3583252    4.3583252    4.3583252    1107.6142   -8514.8246   -11241.423     23079.09    4061.0918     604.9419    2071.7725    82.786379 
   23800    260.45421    -107.6741   0.23566445   -107.43844    46.288093    4.3558507    4.3558507    4.3558507    46.288093   -2671.3935   -3494.3694    6304.6272   -1931.2961   -5239.1231    2850.0853    82.645454 
   23900    345.05603   -107.75034   0.31221395   -107.43813   -4961.6478    4.3548985    4.3548985    4.3548985   -4961.6478   -11596.436   -10275.631    6987.1238     4112.807   -1004.7912   -1955.4038    82.591262 
   24000    276.91832    -107.6868   0.25056152   -107.43624     4705.683    4.3558379    4.3558379    4.3558379     4705.683    3096.6289   -6648.6903     17669.11    2153.5649    298.22932    2813.5922    82.644721 
   24100    331.99819   -107.73671   0.30039894   -107.43631   -10675.667    4.3586636    4.3586636    4.3586636   -10675.667   -15027.873   -12617.102   -4382.0252   -1280.5101   -1913.1574   -3574.2526    82.805663 
   24200    225.18628   -107.64134   0.20375328   -107.43759    9933.2642    4.3511078    4.3511078    4.3511078    9933.2642    6356.8271   -5274.4472    28717.413    5261.1424   -352.47956    998.68745     82.37578 
   24300    381.04948   -107.78337   0.34478157   -107.43859   -9119.4996    4.3625688    4.3625688    4.3625688   -9119.4996   -15210.703   -16052.991     3905.196    -1289.007    885.60983   -1337.6867    83.028437 
   24400    263.23711   -107.67878   0.23818247   -107.44059     6855.111    4.3465891    4.3465891    4.3465891     6855.111    4757.7228    2446.2253    13361.385    2263.4816   -6333.8662   -413.50602    82.119401 
   24500    267.45059   -107.68165   0.24199492   -107.43965   -5794.2104    4.3656854    4.3656854    4.3656854   -5794.2104   -17908.107   -18101.668    18627.144    3578.9238    1772.4999    1542.1309    83.206513 
   24600    389.55005   -107.78908   0.35247307   -107.43661    7331.9832    4.3449661    4.3449661    4.3449661    7331.9832    6738.6933    5950.0063      9307.25   -1720.0487   -4205.9802    340.01369    82.027445 
   24700    169.14934   -107.59359   0.15304988   -107.44054   -2540.1457     4.364108     4.364108     4.364108   -2540.1457   -21915.825   -15982.336    30277.724    4866.3167   -1432.1659    391.64657    83.116349 
   24800     368.1905   -107.77268    0.3331465   -107.43953    9054.8418    4.3487297    4.3487297    4.3487297    9054.8418    8513.2821    344.54558    18306.698     23.91298    1814.6954    1304.9021    82.240785 
   24900    353.57493   -107.75984   0.31992202   -107.43992    -4803.774      4.36001      4.36001      4.36001    -4803.774    -17146.16   -11927.186    14662.025    51.902528   -1859.1469   -1339.4687    82.882426 
   25000    173.91169   -107.59722   0.15735896   -107.43986    3219.0119    4.3543361    4.3543361    4.3543361    3219.0119    2797.7779   -5809.7909    12669.049    4309.5192    -75.11149   -272.17376    82.559269 
   25100    451.90878   -107.84501   0.40889656   -107.43612   -1727.3747    4.3551097    4.3551097    4.3551097   -1727.3747   -9690.9584    -6547.259    11056.093    -1675.266    3501.0138   -3512.3911     82.60328 
   25200    179.26798   -107.60083   0.16220543   -107.43863    3441.7548    4.3574534    4.3574534    4.3574534    3441.7548   -3076.1944   -6112.0973    19513.556    3156.1464   -4976.0889    278.61423    82.736711 
   25300     350.9212    -107.7557   0.31752087   -107.43817   -3744.1349    4.3541776    4.3541776    4.3541776   -3744.1349   -11621.216   -6480.7504    6869.5614    3114.9426    3248.1949    -3046.332    82.550256 
   25400    332.62919   -107.73892   0.30096988   -107.43795    3133.9499    4.3568353    4.3568353    4.3568353    3133.9499   -2051.1867   -4480.8533     15933.89   -1113.5888   -3177.9945    2439.6995    82.701506 
   25500    207.47495   -107.62842    0.1877277   -107.44069   -8018.0324    4.3565151    4.3565151    4.3565151   -8018.0324   -13652.423   -9724.6601   -677.01431    5204.5098   -1698.5724   -1958.8441    82.683273 
   25600    365.65817   -107.77024    0.3308552   -107.43938   -383.23426    4.3542761    4.3542761    4.3542761   -383.23426   -491.33125   -5033.8484    4375.4768    225.58175    1607.1024    2971.8938    82.555857 
   25700    294.38184   -107.70522   0.26636287   -107.43886   -387.48244    4.3573039    4.3573039    4.3573039   -387.48244   -7220.3418   -10100.424    16158.319    1275.5482   -2211.5429   -80.776872    82.728197 
   25800    253.36741   -107.66823   0.22925216   -107.43898   -4801.2909    4.3560051    4.3560051    4.3560051   -4801.2909   -3608.1355   -9457.3486   -1338.3887    5154.1893    425.73217    1038.8415     82.65424 
   25900    388.90804   -107.78771   0.35189217   -107.43582    4459.7395    4.3540992    4.3540992    4.3540992    4459.7395   -2850.8366   -6193.5136    22423.569   -1464.2939    3818.6085   -873.32025    82.545794 
   26000    196.69272    -107.6168    0.1779717   -107.43883   -2036.3923    4.3581045    4.3581045    4.3581045   -2036.3923   -834.50275   -9741.7886    4467.1145     3923.284   -2416.3655   -234.90961    82.773806 
   26100    378.51808   -107.78151   0.34249111   -107.43902   -4457.5652    4.3532875    4.3532875    4.3532875   -4457.5652   -11279.444   -7663.8295    5570.5776    2729.3509    4352.6916   -231.38699    82.499639 
   26200    243.93519   -107.66009   0.22071768   -107.43937    6950.6178     4.358011     4.358011     4.358011    6950.6178    6086.4532   -5293.3117    20058.712    -1937.719    1365.9226   -864.76717    82.768477 
   26300    375.80785   -107.77977   0.34003884   -107.43974   -7302.8573    4.3531005    4.3531005    4.3531005   -7302.8573   -12294.606   -8491.9364    -1122.029    5520.8414   -4043.5919    -1386.214     82.48901 
   26400     164.5842   -107.58883   0.14891924   -107.43991    8912.2781    4.3585135    4.3585135    4.3585135    8912.2781    3419.6654   -5738.1688    29055.338   -1353.6547    3629.4521    -1132.598     82.79711 
   26500    458.06292   -107.85176   0.41446495    -107.4373    -2635.064    4.3523602    4.3523602    4.3523602    -2635.064     -5449.74   -8430.0709    5974.6188    1389.4912   -5463.9736    1241.7428    82.446932 
   26600    162.48497   -107.58738   0.14701982   -107.44036    55.337189    4.3599872    4.3599872    4.3599872    55.337189    -6659.028   -10749.575    17574.614    4700.2502    16.294455   -604.04043    82.881124 
   26700    404.98513     -107.803   0.36643906   -107.43656    1934.9458    4.3517346    4.3517346    4.3517346    1934.9458   -1629.4251    -4854.768     12289.03   -2310.2071    838.83919     446.2815    82.411381 
   26800    293.77147   -107.70238    0.2658106   -107.43657   -3809.8368    4.3591472    4.3591472    4.3591472   -3809.8368   -6555.8953   -11202.003    6328.3874    4821.3484    -1126.921     129.9566    82.833232 
   26900    207.83886   -107.62524   0.18805697   -107.43719    5088.4189    4.3543034    4.3543034    4.3543034    5088.4189   -6778.6731     -5841.25     27885.18      777.347    1802.1482   -1539.6163    82.557408 
   27000    411.13238   -107.80751   0.37200122   -107.43551   -1999.2052    4.3559503    4.3559503    4.3559503   -1999.2052   -171.23805   -7323.7139    1497.3362   -220.72933    3919.8967   -2172.2719    82.651121 
   27100    213.25181   -107.63198   0.19295472   -107.43903    3151.2957    4.3569172    4.3569172    4.3569172    3151.2957   -11698.631   -10127.687    31280.205     4931.931    196.92031   -293.80673     82.70617 
   27200    320.85646   -107.72956   0.29031767   -107.43924   -2268.5072     4.353825     4.353825     4.353825   -2268.5072    400.44834   -3437.3569   -3768.6131   -1168.6706    4181.0636   -2775.1489      82.5302 
   27300    355.03628   -107.76044   0.32124428    -107.4392   -4347.7611    4.3579754    4.3579754    4.3579754   -4347.7611   -11927.369    -13281.91    12165.996    3441.4294    1047.0248    2506.8603    82.766451 
   27400    202.22051   -107.62366   0.18297336   -107.44069    3209.4682    4.3532141    4.3532141    4.3532141    3209.4682   -1089.7102   -5208.0333    15926.148    3170.6172   -1475.1965    63.514611    82.495468 
   27500     368.7879   -107.77249   0.33368704    -107.4388   -8241.9225    4.3581657    4.3581657    4.3581657   -8241.9225   -10590.089   -11392.269   -2743.4097   -654.30953    2784.6087    1203.7298    82.777293 
   27600    285.18351   -107.69602   0.25804003   -107.43798    2696.9225    4.3547814    4.3547814    4.3547814    2696.9225   -1407.0997   -10794.629    20292.496    4070.6882   -2415.0895    1156.0797    82.584602 
   27700    289.06001   -107.69959   0.26154757   -107.43805   -8294.1114    4.3568666    4.3568666    4.3568666   -8294.1114   -8835.3459   -8421.3678   -7625.6206    563.28682    591.47765    394.10535    82.703289 
   27800    286.41478   -107.69601   0.25915411   -107.43686   -1032.9527     4.354471     4.354471     4.354471   -1032.9527   -969.84611   -7167.0554    5038.0432    452.53392     3269.241   -1547.6064    82.566945 
   27900    325.90151   -107.73167   0.29488253   -107.43679   -6682.3507    4.3589994    4.3589994    4.3589994   -6682.3507    -7645.502   -14358.949    1957.3993    4525.7678   -3356.4119    50.982597    82.824809 
   28000    255.05145   -107.66855   0.23077591   -107.43778   -333.37678    4.3515448    4.3515448    4.3515448   -333.37678   -3015.9637    987.59711    1028.2362   -1010.1243    7400.9932   -2148.5656    82.400601 
   28100    306.35531   -107.71439   0.27719673   -107.43719   -5319.5535    4.3617432    4.3617432    4.3617432   -5319.5535    -6233.038   -17387.892    7662.2697    3330.1972   -1359.9678   -2094.5378    82.981307 
   28200    341.45999   -107.74581   0.30896018   -107.43685   -1253.0205    4.3503764    4.3503764    4.3503764   -1253.0205   -5588.3777    -2581.938    4411.2542    2200.3324    4589.3855    -542.8715    82.334244 
   28300    195.33266    -107.6152    0.1767411   -107.43846   -3324.0442    4.3601776    4.3601776    4.3601776   -3324.0442    101.53934   -12626.816    2553.1444   -642.69434    3539.2376   -3236.0953    82.891984 
   28400    437.92973   -107.83253   0.39624802   -107.43628   -2879.6151    4.3530125    4.3530125    4.3530125   -2879.6151   -7917.5227   -11382.565    10661.242    5019.1525   -192.87921    1376.7917    82.484007 
   28500     196.5056   -107.61694    0.1778024   -107.43913    1439.8909    4.3571267    4.3571267    4.3571267    1439.8909    7795.3434   -8437.4518    4961.7811   -880.02069    2410.3962    568.31535    82.718101 
   28600    357.59586   -107.76223   0.32356024   -107.43867   -2050.6194    4.3560211    4.3560211    4.3560211   -2050.6194   -12203.354   -9197.5973    15249.093    1908.6474    406.84301    502.82737    82.655154 
   28700    294.38226   -107.70626   0.26636325    -107.4399    4660.1989    4.3534351    4.3534351    4.3534351    4660.1989    11750.516   -9260.7753    11490.856    2475.9822    -375.9419    588.79881    82.508033 
   28800    273.64917   -107.68846   0.24760352   -107.44086    1695.7537    4.3573415    4.3573415    4.3573415    1695.7537   -11096.708   -5213.8545    21397.824   -313.39928   -504.33252    856.91689    82.730337 
   28900    308.81745   -107.71857   0.27942452   -107.43915    2458.2992    4.3547857    4.3547857    4.3547857    2458.2992    6500.8277   -9043.8076    9917.8777    1274.0769    3576.7071   -615.18374    82.584845 
   29000    292.89607   -107.70317   0.26501852   -107.43815    3584.2077    4.3540244    4.3540244    4.3540244    3584.2077   -852.30595   -7104.9573    18709.886    2113.5824   -3857.7534    818.16401    82.541541 
   29100     314.1873   -107.72189   0.28428328   -107.43761   -2374.5766    4.3583812    4.3583812    4.3583812   -2374.5766   -541.82579    -9140.408    2558.5039    -472.7624    6831.6377   -1148.5422    82.789569 
   29200    262.51687    -107.6749   0.23753078   -107.43737    5396.4129    4.3526114    4.3526114    4.3526114    5396.4129    6098.3955   -11328.974    21419.817    2519.2028   -2322.9881    1850.0271    82.461209 
   29300     358.4297   -107.76114   0.32431472   -107.43683   -3727.8632    4.3587771    4.3587771    4.3587771   -3727.8632   -4521.3067   -11686.927    5024.6443    1061.7156    3791.9357    -1690.378    82.812137 
   29400    256.84298   -107.66979   0.23239693   -107.43739    2759.7137    4.3532023    4.3532023    4.3532023    2759.7137    4778.3811    -5799.493    9300.2529   -139.25747   -800.79758    345.26384    82.494796 
   29500    329.85092   -107.73512   0.29845604   -107.43666   -2904.1881     4.356497     4.356497     4.356497   -2904.1881   -5430.8834   -12512.495    9230.8136      3157.63    1185.5193     185.7928    82.682247 
   29600    314.47567   -107.72199   0.28454419   -107.43745   -3898.5437    4.3577005    4.3577005    4.3577005   -3898.5437     -1071.63   -6869.6277   -3754.3734   -807.45469   -1349.5811    1025.4896    82.750788 
   29700    240.08981   -107.65553    0.2172383   -107.43829    4334.6252    4.3513516    4.3513516    4.3513516    4334.6252   -3078.7779   -3648.5156    19731.169    2774.2552   -1156.8533    400.55057    82.389627 
   29800    386.21371   -107.78702   0.34945428   -107.43756   -8940.6307    4.3617418    4.3617418    4.3617418   -8940.6307   -6028.4821    -17651.74   -3141.6702    2013.2468   -858.49542    247.47449    82.981227 
   29900    233.19716   -107.64974   0.21100169   -107.43874    7061.3412    4.3486504    4.3486504    4.3486504    7061.3412    1271.5717    2417.7626    17494.689   -171.02974   -3095.6027   -1347.7371    82.236287 
   30000    314.74269   -107.72353    0.2847858   -107.43874   -9126.1605    4.3613764    4.3613764    4.3613764   -9126.1605   -8042.2015   -22157.472    2821.1922    5300.6265    2300.2837    544.51068    82.960375 
   30100    332.93335   -107.73879   0.30124509   -107.43754    1506.1151    4.3526109    4.3526109    4.3526109    1506.1151   -1134.3037   -6814.4557    12467.105   -378.59598   -3822.5229   -221.81016    82.461178 
   30200    260.82295   -107.67496   0.23599809   -107.43896   -2823.7375    4.3559771    4.3559771    4.3559771   -2823.7375    -5923.012   -9271.3089    6723.1083    2202.8415    2859.8285    2.7649465    82.652647 
   30300     354.2001   -107.75851   0.32048769   -107.43802   -4764.6227    4.3572943    4.3572943    4.3572943   -4764.6227   -8571.0316   -16456.802    10733.966    3777.4353   -247.85746    1911.9695    82.727647 
   30400    261.79322   -107.67484     0.236876   -107.43797    6118.5491    4.3532076    4.3532076    4.3532076    6118.5491    4736.9951   -2752.0784     16370.73   -1265.4982   -169.71058    283.83391    82.495095 
   30500    312.24157   -107.72047   0.28252273   -107.43795   -6607.5369    4.3578497    4.3578497    4.3578497   -6607.5369   -12731.744    -14478.01    7387.1442    4504.3618    2353.3275    1568.1321    82.759288 
   30600    270.36404   -107.68167   0.24463106   -107.43704    5637.1907    4.3546845    4.3546845    4.3546845    5637.1907    7185.9817   -8374.8697     18100.46    807.52158   -21.690345    1018.0707    82.579088 
   30700    364.72897   -107.76691   0.33001444    -107.4369   -5167.6699    4.3555376    4.3555376    4.3555376   -5167.6699   -10800.501   -8978.6229    4276.1146   -437.18567    206.48001    681.84077    82.627633 
   30800    209.14007   -107.62734   0.18923433    -107.4381   -2070.4083    4.3570786    4.3570786    4.3570786   -2070.4083   -1835.4153   -13733.521    9357.7116    4700.0783    813.75066    2065.1828    82.715362 
   30900    402.34369    -107.8005   0.36404902   -107.43645   -1126.3361    4.3541287    4.3541287    4.3541287   -1126.3361   -1293.5355   -10956.943    8871.4704   -2399.1881   -1713.4103    1724.3683    82.547471 
   31000     241.4809   -107.65751     0.218497   -107.43902   -4478.2124     4.357652     4.357652     4.357652   -4478.2124   -7522.8568   -13050.381    7138.6009    4097.0718    1054.1583   -243.47637    82.748022 
   31100    286.75615   -107.69872   0.25946299   -107.43925    2126.5341    4.3528442    4.3528442    4.3528442    2126.5341    2550.3169   -10390.758    14220.043    1679.1655   -606.39649    813.30297    82.474438 
   31200    388.44371   -107.78947   0.35147203   -107.43799   -6919.7208    4.3592975    4.3592975    4.3592975   -6919.7208   -3859.7023   -13560.539   -3338.9206    72.097527    -640.6491   -1046.2658    82.841801 
   31300     143.3114   -107.57007   0.12967117    -107.4404    1092.3638    4.3523903    4.3523903    4.3523903    1092.3638   -2346.6815   -5198.4534    10822.226    4974.8745    1604.0951   -781.62088    82.448641 
   31400    436.23549   -107.83259   0.39471504   -107.43788   -7679.7111    4.3585153    4.3585153    4.3585153   -7679.7111   -683.98769   -15307.508   -7047.6372   -881.18685     635.8327    -894.2246    82.797213 
   31500    215.30404    -107.6353   0.19481162   -107.44049    4330.2143    4.3527755    4.3527755    4.3527755    4330.2143   -1963.1394   -4053.9537    19007.736    2046.9756   -46.046539    1117.2048    82.470534 
   31600    327.24891   -107.73653   0.29610169   -107.44043    -7539.573    4.3581348    4.3581348    4.3581348    -7539.573   -7125.1862   -17111.107    1617.5741    2553.7839    4261.6602    -412.8264    82.775529 
   31700    292.38888   -107.70313   0.26455961   -107.43857    7074.9946    4.3534949    4.3534949    4.3534949    7074.9946    11126.489   -7602.1521    17700.647   -1563.4564   -3687.3072    1594.0415    82.511431 
   31800     316.8435   -107.72509   0.28668666   -107.43841   -5228.1559    4.3560775    4.3560775    4.3560775   -5228.1559   -11411.309   -11449.133     7175.974    3585.1475    2743.2891    386.46555    82.658362 
   31900    260.82351   -107.67414    0.2359986   -107.43815    4289.6663    4.3572013    4.3572013    4.3572013    4289.6663    13610.066    -11805.26    11064.193   -130.38828   -94.881104     2872.586    82.722352 
   32000    381.44343   -107.78142   0.34513803   -107.43628    2095.1834    4.3522325    4.3522325    4.3522325    2095.1834   -3365.4525   -5598.9459    15249.948   -454.51855   -1098.9999    73.818509    82.439674 
   32100    221.95878   -107.63919   0.20083296   -107.43835    583.08317    4.3591312    4.3591312    4.3591312    583.08317    6844.6886   -11057.966    5962.5266    2968.3575    1630.9403    402.63847    82.832318 
   32200    321.53357   -107.72752   0.29093033   -107.43659    6183.5882    4.3529606    4.3529606    4.3529606    6183.5882     3341.678    -8045.799    23254.886   -1990.9038   -423.81184    1332.2598    82.481053 
   32300    310.43284   -107.71838   0.28088615   -107.43749    4232.4928    4.3543487    4.3543487    4.3543487    4232.4928    6290.8593   -6570.4009     12977.02      1913.36    792.71126   -2231.5142    82.559985 
   32400    300.73273   -107.71076    0.2721093   -107.43865   -4671.8862     4.360916     4.360916     4.360916   -4671.8862   -6466.4735   -17158.712    9609.5263    1719.8591    216.55757    2480.0752    82.934103 
   32500    291.04426   -107.70166   0.26334296   -107.43832    10206.709    4.3459663    4.3459663    4.3459663    10206.709    17091.178   -2426.1668    15955.117   -255.27673    1886.8805   -1448.0696    82.084104 
   32600    375.04023   -107.77814   0.33934428   -107.43879   -14556.267    4.3670321    4.3670321    4.3670321   -14556.267   -13071.028   -23740.218   -6857.5554    3151.8664    -2885.031    1080.8626    83.283533 
   32700    181.33006   -107.60314   0.16407125   -107.43907    13751.341     4.344174     4.344174     4.344174    13751.341    19910.659    545.61033    20797.754   0.61574305    1965.6152    615.43561    81.982588 
   32800    412.59109   -107.81087   0.37332109   -107.43755   -12812.949    4.3641295    4.3641295    4.3641295   -12812.949   -7533.9699   -21767.088   -9137.7874    855.80582   -3784.5351   -489.45182    83.117581 
   32900    228.67098   -107.64518   0.20690631   -107.43827    5604.1524    4.3515803    4.3515803    4.3515803    5604.1524    3396.4587   -2829.3953    16245.394    1778.9111    3433.8832    235.89514    82.402616 
   33000     298.3128   -107.70836   0.26991969   -107.43845   -3967.9615    4.3543567    4.3543567    4.3543567   -3967.9615    4729.8523   -11751.709   -4882.0278    1450.9056    -90.71287    1373.5315    82.560444 
   33100     339.4736   -107.74458   0.30716285   -107.43741    -5832.384    4.3613337    4.3613337    4.3613337    -5832.384   -4528.6215   -15635.292    2666.7616    1864.9034    2126.7368   -1924.2302     82.95794 
   33200    252.16386   -107.66589   0.22816316   -107.43772    5165.4973    4.3485854    4.3485854    4.3485854    5165.4973    8403.8388    -3818.119    10910.772    2876.3567    4022.2183    1324.3853    82.232597 
   33300    338.79319   -107.74352    0.3065472   -107.43697   -7299.3244    4.3604221    4.3604221    4.3604221   -7299.3244    488.44676   -20159.992   -2226.4276   -559.99008    699.60208    -1515.198    82.905928 
   33400    271.47136   -107.68259     0.245633   -107.43696    3976.8997     4.355216     4.355216     4.355216    3976.8997    1097.3599   -10176.334    21009.673    2105.2029    4641.8581   -647.38702    82.609328 
   33500     343.8387   -107.74913   0.31111248   -107.43802    172.44459    4.3510868    4.3510868    4.3510868    172.44459    3490.9453   -7114.8472    4141.2357      447.378   -1465.6285    914.55731    82.374584 
   33600    227.41768   -107.64531    0.2057723   -107.43954   -1461.5235    4.3627362    4.3627362    4.3627362   -1461.5235   -954.63689   -18637.983    15208.049   -665.72073    2235.6417     -1623.15    83.037994 
   33700    413.43048   -107.81163   0.37408059   -107.43755     6527.774    4.3463837    4.3463837    4.3463837     6527.774    1668.6682    1808.1254    16106.528    2815.8735   -3251.9951   -40.094508    82.107755 
   33800    170.50447   -107.59398   0.15427603   -107.43971   -1303.7531    4.3632396    4.3632396    4.3632396   -1303.7531    5462.8086   -18595.652    9221.5839    173.76984    41.102848    2016.7269    83.066744 
   33900    373.92969   -107.77611   0.33833944   -107.43777    4405.3145      4.34848      4.34848      4.34848    4405.3145    4042.7148   -5945.2333    15118.462    1447.0941   -2693.8633   -2563.1759     82.22662 
   34000    300.85317   -107.71074   0.27221827   -107.43852    -1073.948    4.3599457    4.3599457    4.3599457    -1073.948    2950.2986   -14001.032    7828.8895    2518.3813    -466.9138    3045.4732    82.878759 
   34100    259.78373   -107.67509   0.23505778   -107.44004   -2289.3629    4.3526812    4.3526812    4.3526812   -2289.3629    812.66568   -12297.583    4616.8284      -739.33   -282.07127   -1350.6894    82.465176 
   34200    357.30844   -107.76195   0.32330019   -107.43865   -2520.1047     4.356246     4.356246     4.356246   -2520.1047    1094.8753   -13843.197     5188.007    3094.7547     359.6613   -519.74108    82.667955 
   34300    287.65592   -107.69897   0.26027712   -107.43869   -3596.3485    4.3567946    4.3567946    4.3567946   -3596.3485   -1084.1358   -10578.372     873.4622    476.75031    3906.9204    321.00193     82.69919 
   34400    245.42113   -107.66035    0.2220622   -107.43828   -1470.5828    4.3534183    4.3534183    4.3534183   -1470.5828    11716.477   -13145.727   -2982.4986    887.75329   -406.41063   -3708.6194    82.507074 
   34500    385.81892   -107.78456   0.34909707   -107.43546   -1005.4354    4.3582007    4.3582007    4.3582007   -1005.4354   -2691.5141   -9308.1335    8983.3414    2956.9825    4503.2714    339.93056    82.779286 
   34600    206.50836   -107.62482    0.1868531   -107.43797    297.55192    4.3530619    4.3530619    4.3530619    297.55192    12185.648   -11384.237    91.244895   -1677.4395   -861.70832    -1921.099    82.486812 
   34700    330.90355   -107.73776   0.29940848   -107.43835   -4912.6912    4.3569357    4.3569357    4.3569357   -4912.6912    88.912138   -15638.579    811.59291    2500.9876    2117.1532   -1742.7205    82.707225 
   34800    319.85579   -107.72775   0.28941224   -107.43834    1610.0666    4.3557809    4.3557809    4.3557809    1610.0666    1465.5354   -10640.613    14005.277   -1082.4891   -2622.8541   -532.48888     82.64148 
   34900    278.68525   -107.69209   0.25216027   -107.43993   -2160.8377    4.3523477    4.3523477    4.3523477   -2160.8377    11335.354    -13116.44   -4701.4269   -733.62736   -1156.0627   -146.41523    82.446218 
   35000    288.80684   -107.70046    0.2613185   -107.43914   -649.21326    4.3605222    4.3605222    4.3605222   -649.21326   -7002.2987   -17718.004    22772.663    2578.3053   -2529.9234   -1511.3945     82.91164 
   35100    334.86056   -107.74117   0.30298887   -107.43818    9176.9901    4.3482569    4.3482569    4.3482569    9176.9901    22155.359   -675.41317    6051.0241    -703.8291   -2925.0359    1677.6789    82.213962 
   35200    240.18758   -107.65742   0.21732677    -107.4401   -3326.8382    4.3611574    4.3611574    4.3611574   -3326.8382    -6712.615   -20914.795    17646.896    1635.4414    977.72334    -2043.572    82.947877 
   35300    327.45933   -107.73503   0.29629208   -107.43874    8423.6924     4.351741     4.351741     4.351741    8423.6924    19083.266   -2979.5093    9167.3208   -109.86467   -715.91702    202.10815    82.411746 
   35400    355.09589   -107.76055   0.32129822   -107.43925   -1587.8657    4.3559273    4.3559273    4.3559273   -1587.8657   -4596.6108   -12891.825    12724.839   -536.48822    4711.8091   -1794.4444    82.649812 
   35500    177.25652   -107.60036   0.16038542   -107.43998    2324.2447    4.3562763    4.3562763    4.3562763    2324.2447     14673.04   -14893.072    7192.7658    1173.2094    103.67524   -1641.9867    82.669677 
   35600    435.42782   -107.83043   0.39398424   -107.43645   -1173.3733    4.3535488    4.3535488    4.3535488   -1173.3733   -1698.7822   -8367.1725    6545.8347    727.23757    3883.7638   -87.999651    82.514497 
   35700    184.46337   -107.60497   0.16690633   -107.43807    4797.0398    4.3574386    4.3574386    4.3574386    4797.0398    12986.305   -14525.142    15929.956   -92.967397   -349.87041   -1549.1695    82.735868 
   35800    377.50268   -107.77916   0.34157236   -107.43759   -5084.0715    4.3536966    4.3536966    4.3536966   -5084.0715   -857.18415    -13001.93   -1393.1002    2912.9663    1956.5891   -882.71459      82.5229 
   35900    290.54982   -107.70185   0.26289558   -107.43896    3411.3195    4.3569143    4.3569143    4.3569143    3411.3195    5174.3777   -8574.3924    13633.973   -730.87823   -4585.7005    360.68833    82.706004 
   36000    277.29933   -107.69097   0.25090626   -107.44006   -5001.7193    4.3541749    4.3541749    4.3541749   -5001.7193    3655.2356   -13335.733   -5324.6602    565.35786     1576.875   -2648.6954    82.550099 
   36100    312.23292   -107.72211   0.28251491   -107.43959   -4584.1331    4.3564276    4.3564276    4.3564276   -4584.1331   -1272.8094   -10424.115   -2055.4751    1056.2481   -2916.7495    1672.0502    82.678291 
   36200    293.37812   -107.70388   0.26545468   -107.43842    1585.3976    4.3551427    4.3551427    4.3551427    1585.3976    3351.8206   -9958.8259    11363.198   -1195.8733   -2714.2879   -2291.1534    82.605158 
   36300    330.77641   -107.73751   0.29929345   -107.43822   -8006.3534     4.355022     4.355022     4.355022   -8006.3534   -593.74194   -16117.189   -7308.1292     1882.396    2851.9045    -541.3278    82.598291 
   36400     253.7394   -107.66839   0.22958874    -107.4388    2718.9278    4.3567049    4.3567049    4.3567049    2718.9278   -583.57571   -10566.316    19306.675     398.9876   -4452.0515   -22.674038    82.694083 
   36500    370.15697   -107.77288   0.33492581   -107.43796   -2398.9298    4.3531263    4.3531263    4.3531263   -2398.9298    4158.9763   -10366.344   -989.42187   -1094.5135    3749.0969   -1969.5767    82.490474 
   36600    208.04903   -107.62706   0.18824713   -107.43881   -2039.9087    4.3587933    4.3587933    4.3587933   -2039.9087    2208.8642   -13938.669     5610.079    1633.7379   -2161.1351    -401.9601     82.81306 
   36700    355.91503   -107.75834    0.3220394    -107.4363    2022.1829    4.3525093    4.3525093    4.3525093    2022.1829    -4239.027    -4360.251    14665.827   -1149.5785     1817.447   -1374.8024    82.455406 
   36800    276.43427   -107.68675   0.25012353   -107.43662   -65.390379     4.356543     4.356543     4.356543   -65.390379     7718.656   -11955.053    4040.2255   -147.32168   -1001.0788   -1542.6828    82.684864 
   36900    281.80909   -107.69218   0.25498678   -107.43719   -434.98056    4.3565676    4.3565676    4.3565676   -434.98056    -12232.43   -11077.045    22004.533    2656.3974    1023.5932    -529.6927    82.686266 
   37000    327.88562   -107.73381    0.2966778   -107.43714     6075.079    4.3520754    4.3520754    4.3520754     6075.079    14228.502   -3863.6044     7860.339   -2065.9102   -3894.7592   -1447.9336    82.430746 
   37100    277.80643   -107.69015    0.2513651   -107.43878   -1580.1013    4.3589716    4.3589716    4.3589716   -1580.1013   -6317.6562   -17987.431    19564.783    3054.0336    2630.1887   -1832.5419     82.82322 
   37200    298.34772   -107.70929   0.26995129   -107.43934    3216.6597    4.3510669    4.3510669    4.3510669    3216.6597     10242.05   -4397.2384    3805.1677   -1009.8191   -4080.7099    2542.5902    82.373455 
   37300    312.82741   -107.72173   0.28305281   -107.43868   -208.85801    4.3585906    4.3585906    4.3585906   -208.85801   -4838.2552   -13487.628    17699.309   -1648.5716   -1398.2187   -1858.6114    82.801506 
   37400    293.66517   -107.70454   0.26571442   -107.43882   -1399.0207    4.3537764    4.3537764    4.3537764   -1399.0207    4190.4023   -9637.8036    1250.3393    2908.5471    1102.3771    1402.6497    82.527439 
   37500    282.43641   -107.69458    0.2555544   -107.43903    1200.1861    4.3548359    4.3548359    4.3548359    1200.1861   -2651.3859   -6442.2125    12694.157   -2981.8631     -5563.99    906.40733    82.587702 
   37600    315.95372   -107.72386   0.28588156   -107.43798   -1252.5263     4.358067     4.358067     4.358067   -1252.5263    5879.2057   -11528.067    1891.2828    2219.4265    3053.2155   -1574.3881    82.771669 
   37700    290.33629   -107.70114   0.26270237   -107.43844    89.161198    4.3508506    4.3508506    4.3508506    89.161198    3335.3424   -7590.8698    4523.0109   -0.9689822   -2904.2625   -437.25746    82.361172 
   37800    255.87173   -107.66828   0.23151812   -107.43677    -1654.374    4.3607576    4.3607576    4.3607576    -1654.374    2687.7333   -9603.5026    1952.6472   -2286.9166   -1440.2542    60.923907    82.925066 
   37900    400.14907   -107.79701   0.36206328   -107.43494   -3074.3581    4.3516745    4.3516745    4.3516745   -3074.3581    1643.4869   -11480.461    613.89963    2501.7669    405.99543   -1881.0647    82.407966 
   38000     187.7835   -107.60725   0.16991045   -107.43734    1756.8752    4.3567703    4.3567703    4.3567703    1756.8752    3414.6562   -8752.6657    10608.635   -2990.2043   -2323.1198    1741.2402    82.697808 
   38100    398.95392   -107.79732   0.36098189   -107.43633   -5454.7473    4.3578286    4.3578286    4.3578286   -5454.7473   -3792.2832   -12689.441    117.48246    339.15828   -2286.1632   -1542.8592    82.758088 
   38200    264.43582   -107.67731   0.23926709   -107.43804    5950.5622    4.3498529    4.3498529    4.3498529    5950.5622    8648.7437   -5396.4035    14599.346    1794.5675    3168.5515    502.48091    82.304523 
   38300    253.88647   -107.66953   0.22972181   -107.43981   -5508.8364    4.3621834    4.3621834    4.3621834   -5508.8364    -8251.057   -10661.748    2386.2958   -2889.0467   -5882.8211    920.55539    83.006436 
   38400    400.96838   -107.80036   0.36280461   -107.43756    4477.7551    4.3480968    4.3480968    4.3480968    4477.7551    6525.6035   -1893.3354    8800.9971    2150.4134    2226.0721   -1120.3576     82.20488 
   38500    195.93177   -107.61746   0.17728319   -107.44018    1785.4933    4.3603628    4.3603628    4.3603628    1785.4933    -662.5473   -12854.439    18873.466   -1747.9368   -905.04431    919.61844    82.902546 
   38600    368.66052   -107.77247   0.33357179    -107.4389   -1467.6753    4.3529531    4.3529531    4.3529531   -1467.6753   -3289.5226   -3758.7105    2645.2072   -1979.6397   -4864.3473    -1855.614    82.480627 
   38700    258.89378   -107.67298   0.23425254   -107.43873    9360.3616    4.3539694    4.3539694    4.3539694    9360.3616    10314.044   -8028.6861    25795.727    1905.1425    989.69307   -1552.3225    82.538416 
   38800    323.20762   -107.73126   0.29244505   -107.43881   -8556.8721    4.3584426    4.3584426    4.3584426   -8556.8721   -15401.957    -11036.81    768.15075   -1895.1047   -4164.0865    204.78174    82.793071 
   38900    264.54559   -107.67719   0.23936641   -107.43783    5740.5681    4.3518303    4.3518303    4.3518303    5740.5681    6921.5118    -1846.231    12146.423    540.57995   -6713.3129   -1559.2468     82.41682 
   39000    382.45682   -107.78188   0.34605497   -107.43582   -4477.3051    4.3583118    4.3583118    4.3583118   -4477.3051   -11510.717   -12355.481    10434.282    667.52742    1904.9795   -1150.8409    82.785615 
   39100    209.31874   -107.62665     0.189396   -107.43726   -1158.6126     4.354623     4.354623     4.354623   -1158.6126    1330.3157    -3002.977   -1803.1765   -2315.2936   -8910.9681    2409.3773    82.575593 
   39200    349.83553   -107.75227   0.31653854   -107.43573    3189.7269    4.3538546    4.3538546    4.3538546    3189.7269   -5465.4373   -3135.2305    18169.848    512.42022   -1289.2105   -1270.8157    82.531887 
   39300    292.83435   -107.70188   0.26496267   -107.43692   -6343.4314    4.3591701    4.3591701    4.3591701   -6343.4314   -1812.3489   -14174.097   -3043.8485   -464.02355   -1264.7358    2113.2647    82.834534 
   39400    241.09771   -107.65631   0.21815028   -107.43816    1060.1917    4.3504522    4.3504522    4.3504522    1060.1917    -10425.41    1353.8562    12252.129   -1979.7865   -7594.6418     126.7713    82.338546 
   39500    395.27061   -107.79461   0.35764916   -107.43696   -8050.7817    4.3607566    4.3607566    4.3607566   -8050.7817   -2930.6673   -17572.745    -3648.933     3959.477    3311.3887    1626.8584    82.925009 
   39600    241.08771   -107.65753   0.21814123   -107.43939   -956.60189    4.3502331    4.3502331    4.3502331   -956.60189   -7543.8362   -2177.0541    6851.0847   -2151.1093   -5942.3031    191.32834    82.326109 
   39700    283.89784   -107.69601   0.25687673   -107.43914   -4681.4183    4.3603662    4.3603662    4.3603662   -4681.4183   -18.391357   -12913.098   -1112.7655    1166.2867   -2998.0808    727.95146    82.902743 
   39800    375.59281   -107.77723   0.33984427   -107.43738    1377.7424    4.3513561    4.3513561    4.3513561    1377.7424   -939.15592   -6408.7977    11481.181     1772.089    164.30395    -1365.889    82.389884 
   39900    184.58849   -107.60635   0.16701955   -107.43933   -2178.5118    4.3580231    4.3580231    4.3580231   -2178.5118   -1534.7661   -6731.0556    1730.2862   -3700.0489     -6663.54    931.58118    82.769166 
   40000    406.97574   -107.80475    0.3682402   -107.43651   -655.53641    4.3543789    4.3543789    4.3543789   -655.53641   -4299.5729   -6268.2538    8601.2175    3874.6322    -3721.346    -891.9426    82.561703 
   40100    239.49538   -107.65473   0.21670045   -107.43803    1109.0137    4.3555875    4.3555875    4.3555875    1109.0137      4232.94    -7311.377    6405.4783   -1130.6162     -1389.55   -831.59582     82.63047 
   40200    276.15207   -107.68859   0.24986819   -107.43872   -1779.5529    4.3548601    4.3548601    4.3548601   -1779.5529   -4178.4199   -5613.6581    4453.4194   -998.93947   -8556.6111    285.05194    82.589079 
   40300      356.982   -107.76024   0.32300482   -107.43724    1132.3797    4.3565794    4.3565794    4.3565794    1132.3797    2214.5221   -10365.995    11548.612    2352.2148    2275.0557   -1127.6386    82.686938 
   40400    270.06575   -107.68309   0.24436117   -107.43873    4048.9432    4.3528092    4.3528092    4.3528092    4048.9432    1496.1615   -4284.4524     14935.12   -3551.5403   -5538.0532    1429.2602    82.472451 
   40500    316.04416   -107.72445   0.28596339   -107.43848   -3372.3854    4.3582426    4.3582426    4.3582426   -3372.3854   -4256.2236   -9056.5104    3195.5777   -138.62037   -2118.8937   -551.24497    82.781675 
   40600     300.9371   -107.70976   0.27229421   -107.43746    8872.5321    4.3522643    4.3522643    4.3522643    8872.5321    10551.857   -5208.3781    21274.118    1026.0533    2737.2914    318.27152    82.441481 
   40700    296.99676   -107.70763   0.26872891    -107.4389   -4578.4188    4.3576135    4.3576135    4.3576135   -4578.4188   -6814.4611   -9121.1075    2200.3122   -2607.5535    -4995.908   -745.21399    82.745831 
   40800    256.46678   -107.67044   0.23205653   -107.43839    5836.0371    4.3539971    4.3539971    4.3539971    5836.0371    6214.1976   -2563.7254    13857.639    2388.1552   -875.34425    924.02836    82.539988 
   40900    414.04316   -107.81133   0.37463495    -107.4367   -1184.2712    4.3551731    4.3551731    4.3551731   -1184.2712   -6116.5622   -8993.4993    11557.248    392.56202   -1140.6767    259.64815    82.606891 
   41000    169.74687   -107.59284   0.15359053   -107.43925    1465.4966     4.356354     4.356354     4.356354    1465.4966     3672.323   -4839.4747    5563.6415   -2356.1537   -6455.6086    1064.0457    82.674104 
   41100    381.43959   -107.78182   0.34513456   -107.43668    26.049613    4.3534706    4.3534706    4.3534706    26.049613   -2809.6634     -10113.5    13001.312    3632.5047   -864.51293    267.11776    82.510047 
   41200    294.64078    -107.7046   0.26659717     -107.438   -1455.1392    4.3582513    4.3582513    4.3582513   -1455.1392    5339.6009   -8572.7692   -1132.2492   -2489.2685   -3798.7027    1596.5417     82.78217 
   41300    243.88938   -107.65936   0.22067624   -107.43868    68.433889    4.3517661    4.3517661    4.3517661    68.433889   -2759.5074   -4920.7556    7885.5646     1276.885   -5513.6189    1570.6319    82.413172 
   41400    394.32972   -107.79333   0.35679781   -107.43654   -5476.8614    4.3599886    4.3599886    4.3599886   -5476.8614    204.59812   -12383.334   -4251.8479    1726.8593    2410.0761    2321.5429    82.881203 
   41500    246.52881   -107.66112   0.22306445   -107.43805    3155.0407    4.3507084    4.3507084    4.3507084    3155.0407   -1221.0637   -2714.8458    13401.032   -2696.9134   -4444.6356   -269.29202    82.353095 
   41600    268.89283   -107.68148   0.24329988   -107.43818   -5829.2045    4.3598058    4.3598058    4.3598058   -5829.2045   -716.46733     -10639.6   -6131.5458    2309.0178   -305.46542    3939.0267    82.870781 
   41700    380.45974   -107.78052   0.34424797   -107.43627    2758.6791    4.3530303    4.3530303    4.3530303    2758.6791   -1603.5095   -6106.1497    15985.696    -2583.523    3324.7762   -3668.7203     82.48502 
   41800     197.8871    -107.6176   0.17905241   -107.43854    1443.0968    4.3549717    4.3549717    4.3549717    1443.0968    6933.7474   -3882.8115    1278.3545   -607.14643   -6281.0648     708.2378     82.59543 
   41900    369.26705   -107.77087   0.33412059   -107.43675   -6496.0896    4.3583303    4.3583303    4.3583303   -6496.0896   -11611.514   -10849.333    2972.5782    995.20678    2555.2683   -728.89434    82.786673 
   42000    263.03255    -107.6748   0.23799738   -107.43681    9346.5546    4.3518128    4.3518128    4.3518128    9346.5546    11819.266   -2005.3533    18225.751   -1282.6604   -1084.7538   -3012.2462    82.415828 
   42100      339.494   -107.74493   0.30718131   -107.43775   -6933.1541    4.3572543    4.3572543    4.3572543   -6933.1541   -10479.683    -6478.937   -3840.8423    223.94797   -7723.6956    2561.9784     82.72537 
   42200    244.56458   -107.65928   0.22128717   -107.43799    5582.4099    4.3564564    4.3564564    4.3564564    5582.4099     4588.898   -8580.8197    20739.152    1259.4961    3098.0436   -2869.1754    82.679935 
   42300    390.71822   -107.79096   0.35353006   -107.43743    825.28117    4.3515628    4.3515628    4.3515628    825.28117    709.61172   -1177.1237    2943.3555   -2547.4586   -5977.3184    3125.6675    82.401621 
   42400    188.10262   -107.60932    0.1701992   -107.43912    -2102.775     4.360326     4.360326     4.360326    -2102.775   -5215.8807   -10254.261    9161.8162    1173.4356   -2552.2224    499.63945    82.900451 
   42500    383.07102   -107.78334   0.34661071   -107.43673    3452.1496    4.3510038    4.3510038    4.3510038    3452.1496    3883.5562   -3080.6095     9553.502    1263.8518    2593.7195    2260.5496    82.369874 
   42600     279.7839   -107.69066   0.25315435   -107.43751   -404.00823    4.3580739    4.3580739    4.3580739   -404.00823   -2675.9639   -6230.5238     7694.463   -1752.9589   -3380.0153    609.70345    82.772063 
   42700    241.84008   -107.65676   0.21882199   -107.43794    967.78128    4.3548238    4.3548238    4.3548238    967.78128   -982.68449   -6554.7475    10440.776    4511.9758    450.93958   -435.89726    82.587012 
   42800     406.3639   -107.80428    0.3676866    -107.4366   -1568.9871    4.3542429    4.3542429    4.3542429   -1568.9871   -1714.7778   -6564.7307    3572.5473   -1946.4221    4914.8392    406.64791    82.553968 
   42900    176.10278   -107.59831    0.1593415   -107.43897    3390.9123    4.3567843    4.3567843    4.3567843    3390.9123   -1048.7855    -6054.191    17275.713    685.60081   -7053.0925   -182.56314    82.698603 
   43000    428.29215   -107.82477   0.38752773   -107.43725   -8372.3137    4.3553246    4.3553246    4.3553246   -8372.3137    -8678.127    -10162.05   -6276.7645    1918.0719    4566.5272   -645.25405     82.61551 
   43100    212.32215   -107.63024   0.19211354   -107.43812    8378.9618     4.354343     4.354343     4.354343    8378.9618    8947.3215   -5336.8712    21526.435    -2582.561    -1902.912    532.58252    82.559663 
   43200    346.78216   -107.75172   0.31377579   -107.43794   -8684.9931    4.3569744    4.3569744    4.3569744   -8684.9931   -10404.204   -10396.475   -5254.3001    2625.1024   -7560.0097   -742.25283    82.709429 
   43300    238.73437   -107.65357   0.21601188   -107.43756    5448.9273    4.3539829    4.3539829    4.3539829    5448.9273     8958.784   -6854.1528    14242.151   -71.192484    5790.4737    1840.4376    82.539183 
   43400    357.53337    -107.7601    0.3235037   -107.43659   -5401.5362     4.357285     4.357285     4.357285   -5401.5362   -11892.947   -8272.1855     3960.524   -1035.7999   -8771.9611   -420.13262    82.727121 
   43500     250.9214   -107.66447   0.22703896   -107.43743    205.35516    4.3536474    4.3536474    4.3536474    205.35516    2875.6977   -3310.2557    1050.6234     1730.462    2051.7816    934.92211    82.520105 
   43600    313.59243    -107.7206   0.28374502   -107.43685    -2332.278    4.3572863    4.3572863    4.3572863    -2332.278   -9189.6853   -12530.097    14722.949   -2199.2073    780.09399   -1106.2478    82.727194 
   43700    295.44131   -107.70517    0.2673215   -107.43785    1345.3547    4.3535539    4.3535539    4.3535539    1345.3547    7544.4813   -2318.0915   -1190.3257     118.4448   -4347.2426    342.95665    82.514785 
   43800    276.74339   -107.68919   0.25040324   -107.43878   -1834.0129    4.3568954    4.3568954    4.3568954   -1834.0129   -9103.6907   -12872.287    16473.939    921.34889    3470.9274     192.7225     82.70493 
   43900    339.61551   -107.74568   0.30729125   -107.43839    2355.4006    4.3537277    4.3537277    4.3537277    2355.4006    7589.6939   -3579.6942     3056.202   -1361.2902    916.84133   -1117.4337    82.524669 
   44000     300.3218   -107.71002   0.27173748   -107.43829   -3322.9894    4.3572721    4.3572721    4.3572721   -3322.9894   -9734.0863   -12717.577    12482.695    1987.3607   -5400.9186    741.22044    82.726385 
   44100    254.56478   -107.66824   0.23033556   -107.43791    1204.4537    4.3533912    4.3533912    4.3533912    1204.4537    6311.2565   -5160.9913     2463.096   -1249.4319    7031.9758   -1223.2808    82.505538 
   44200    374.57019   -107.77552   0.33891898    -107.4366   -4102.1416    4.3577524    4.3577524    4.3577524   -4102.1416   -7381.2262   -12935.338      8010.14   -742.90577   -4857.4246    881.53432    82.753743 
   44300    207.79241   -107.62562   0.18801494   -107.43761    3426.8338    4.3535754    4.3535754    4.3535754    3426.8338    5180.8889   -1498.2817    6597.8943    652.01346    616.05797   -360.70638    82.516009 
   44400    379.03143   -107.77939   0.34295561   -107.43644   -5292.4498    4.3565227    4.3565227    4.3565227   -5292.4498   -10649.147   -10779.501    5551.2987   -1952.3198    6281.5874    1387.2567    82.683709 
   44500    241.51045   -107.65563   0.21852373   -107.43711    5964.4207    4.3551504    4.3551504    4.3551504    5964.4207    8052.2422   -3394.2964    13235.316    769.31179   -6352.9135    1003.7241    82.605599 
   44600     320.3374   -107.72753   0.28984801   -107.43768   -4633.1942    4.3548257    4.3548257    4.3548257   -4633.1942   -8395.6853   -7612.5331    2108.6359    890.31775     5223.273    1138.7547    82.587121 
   44700     309.0256    -107.7175   0.27961286   -107.43789    936.10629    4.3570021    4.3570021    4.3570021    936.10629    4575.6213   -9588.5681    7821.2656   -1145.6495    1825.2629   -621.90011    82.711006 
   44800    291.93942   -107.70343   0.26415293   -107.43928    2155.9199       4.3522       4.3522       4.3522    2155.9199   -3684.3832   -4292.0223    14444.165    1548.0698   -4429.7684   -7.0609813    82.437828 
   44900    308.77502   -107.71925   0.27938613   -107.43986   -6224.9059    4.3587048    4.3587048    4.3587048   -6224.9059   -7262.1935   -13495.994    2083.4693   -601.82926     6784.624     -1144.46    82.808013 
   45000    310.74369   -107.71989   0.28116742   -107.43872     5005.514    4.3527152    4.3527152    4.3527152     5005.514    816.57747   -5307.5353      19507.5   -356.68404   -4765.1071   -131.59703    82.467108 
   45100    297.99593   -107.70841   0.26963298   -107.43878    -2231.633    4.3557246    4.3557246    4.3557246    -2231.633   -3408.3156   -6926.1169    3639.5336    2565.8833   -839.28917   -1711.4322    82.638274 
   45200    299.98863   -107.70953   0.27143602   -107.43809   -151.82411     4.356985     4.356985     4.356985   -151.82411   -786.70144   -7934.2995    8265.5286   -960.41964    5866.6765   -1223.5729    82.710033 
   45300    308.95503   -107.71604     0.279549   -107.43649    6997.7618    4.3520063    4.3520063    4.3520063    6997.7618    6535.6909   -3023.7837    17481.378    2407.5176   -4905.4072      168.247    82.426819 
   45400    294.58195   -107.70381   0.26654394   -107.43727   -5726.9785    4.3595387    4.3595387    4.3595387   -5726.9785   -8404.4412   -9002.4483    225.95393   -516.94219     3431.246    379.95685    82.855554 
   45500    280.71824   -107.69068   0.25399976   -107.43668    7441.9411    4.3515404    4.3515404    4.3515404    7441.9411    5922.2006   -5125.7126    21529.335   -1012.3349    4607.9321    -490.5738    82.400349 
   45600    357.92761   -107.76059   0.32386042   -107.43673   -1592.1217     4.357018     4.357018     4.357018   -1592.1217   -2886.5068    -6831.005    4941.1465    815.63797   -4185.5936    2504.8598     82.71191 
   45700    225.24617   -107.64249   0.20380747   -107.43868    222.90732    4.3563807    4.3563807    4.3563807    222.90732   -4174.2107   -10983.264    15826.197    -2930.817    7392.3528   -2643.0328    82.675621 
   45800    351.76089   -107.75575   0.31828064   -107.43747     4406.192    4.3516138    4.3516138    4.3516138     4406.192    10908.468   -4651.7862    6961.8936    985.64732   -50.491882    1163.1958    82.404518 
   45900    304.70832   -107.71426   0.27570649   -107.43856   -4099.7467    4.3601695    4.3601695    4.3601695   -4099.7467   -12254.757    -12972.19    12927.707      -1282.9   -1911.2828   -776.11288    82.891523 
   46000    243.69659   -107.65893   0.22050179   -107.43843    6122.3709    4.3509723    4.3509723    4.3509723    6122.3709     12006.07   -158.35359    6519.3968   -506.56114    7648.9538    -2195.215    82.368085 
   46100    412.03129    -107.8088   0.37281457   -107.43599   -2280.2554    4.3577553    4.3577553    4.3577553   -2280.2554   -9119.6731   -10141.164    12420.071    64.925803   -6287.4433    863.82816    82.753911 
   46200      174.966   -107.59625   0.15831291   -107.43793    3887.1465    4.3553919    4.3553919    4.3553919    3887.1465    5709.9017   -1617.3758    7568.9137   -894.16952    4202.5887   -22.074304    82.619338 
   46300    361.72577   -107.76485   0.32729707   -107.43755   -3002.1405    4.3529622    4.3529622    4.3529622   -3002.1405   -8157.0949   -6563.9978    5714.6713   -460.60625    3468.0969    729.39705    82.481148 
   46400    306.57171   -107.71504   0.27739253   -107.43765    372.04734    4.3584907    4.3584907    4.3584907    372.04734    1770.4494   -6007.7335    5353.4261    1069.4552   -2698.6437     740.1545    82.795813 
   46500    272.04741   -107.68589   0.24615421   -107.43974   -3846.7895    4.3532473    4.3532473    4.3532473   -3846.7895   -10266.131    -6110.727    4836.4892    232.02485    4689.0248    408.31187    82.497355 
   46600      332.715   -107.74023   0.30104752   -107.43919   -603.32771     4.355785     4.355785     4.355785   -603.32771    4665.2899   -8486.3607    2011.0877   -110.73695    3996.6043   -1629.1485    82.641709 
   46700    319.85919   -107.72818   0.28941531   -107.43877    -2776.124    4.3566305    4.3566305    4.3566305    -2776.124   -7578.6007   -9526.3055    8776.5343    2424.7194   -2634.9583    742.05543    82.689843 
   46800    230.82084   -107.64839   0.20885154   -107.43954   -1691.2815    4.3534876    4.3534876    4.3534876   -1691.2815    2512.1105   -2752.2883   -4833.6665   -2545.1873    10427.234   -2186.9569    82.511017 
   46900    388.45615   -107.78816   0.35148329   -107.43668   -4162.3939     4.357379     4.357379     4.357379   -4162.3939   -6747.9116   -12087.896    6348.6259     1528.076    -2204.355   -2722.0655    82.732474 
   47000    225.61868   -107.64189   0.20414452   -107.43774   -713.50038    4.3552193    4.3552193    4.3552193   -713.50038   -1956.8094    298.40198   -482.09368   -739.99165      1212.02    481.75101    82.609517 
   47100    321.50385   -107.72834   0.29090344   -107.43744   -6788.1913    4.3545886    4.3545886    4.3545886   -6788.1913   -8610.5378   -10533.616   -1220.4204   -1117.6265    8125.4148   -3849.4286    82.573634 
   47200    277.77705   -107.68781   0.25133851   -107.43647    3497.2504    4.3570785    4.3570785    4.3570785    3497.2504    4309.4117   -5025.7089    11208.048    1511.2693   -7813.1941   -185.28219     82.71536 
   47300    328.96261   -107.73512   0.29765229   -107.43747   -7379.4709    4.3543073    4.3543073    4.3543073   -7379.4709   -7518.8635   -7435.1331   -7184.4162   -1640.7486    7336.9911    463.28095    82.557634 
   47400    203.72536   -107.62267   0.18433498   -107.43833     3128.413    4.3563013    4.3563013    4.3563013     3128.413    3611.8589   -8383.9264    14157.307    995.22498    27.214519   -1644.1783    82.671102 
   47500    464.44588   -107.85727    0.4202404   -107.43703     -7291.31    4.3555404    4.3555404    4.3555404     -7291.31   -7312.8734   -10169.891    -4391.166   -2100.0873   -3773.6808    3698.5195    82.627792 
   47600    137.07664   -107.56573   0.12402982    -107.4417    1522.4129    4.3548479    4.3548479    4.3548479    1522.4129   -3203.8546   -5134.6935    12905.787   -366.38036     9466.981   -2482.7215    82.588384 
   47700    414.80997   -107.81509   0.37532878   -107.43976   -1812.8817    4.3550636    4.3550636    4.3550636   -1812.8817   -1182.5169   -9649.9559    5393.8276   -49.775672   -331.44948    1227.3547    82.600656 
   47800    265.68857   -107.68016    0.2404006   -107.43976   -1279.8329    4.3579006    4.3579006    4.3579006   -1279.8329   -6878.6147   -6858.1388    9897.2549   -265.71173     3260.741   -2204.8509    82.762189 
   47900    232.35267   -107.64963   0.21023758   -107.43939    1347.1075    4.3515271    4.3515271    4.3515271    1347.1075    3771.7804    -3775.292    4044.8341    608.70334    8221.5589    213.95458    82.399598 
   48000    401.51982   -107.79888   0.36330357   -107.43558   -2042.8748    4.3591476    4.3591476    4.3591476   -2042.8748   -6137.6252   -11459.633    11468.634     1022.669   -1234.9439   -1226.0794    82.833254 
   48100    219.03497   -107.63542   0.19818744   -107.43723    1399.8424    4.3536576    4.3536576    4.3536576    1399.8424    3474.8242   -3544.0356    4268.7386   -844.48514    5867.4663   -652.39752    82.520684 
   48200    332.62041   -107.73822   0.30096194   -107.43726   -3309.7733    4.3548195    4.3548195    4.3548195   -3309.7733   -7269.5424   -9482.2889    6822.5115    1117.0987    5243.2068   -508.27517    82.586769 
   48300    312.53718   -107.71922   0.28279021   -107.43643    760.06739    4.3586729    4.3586729    4.3586729    760.06739    2446.7173   -11002.954    10836.439    1059.1734   -2593.4476   -2191.0924    82.806196 
   48400    282.96148   -107.69451   0.25602949   -107.43848   -3842.8368      4.35124      4.35124      4.35124   -3842.8368   -8997.2543    -3550.684    1019.4279   -1730.0186    8725.4154     1316.627    82.383286 
   48500    284.89244   -107.69575   0.25777666   -107.43798    1515.1062    4.3588779    4.3588779    4.3588779    1515.1062    5128.4178   -13041.612    12458.513    2915.3119   -452.92986   -3126.4603    82.817881 
   48600     393.5266   -107.79395   0.35607114   -107.43788   -3454.4199    4.3541488    4.3541488    4.3541488   -3454.4199   -9034.9836   -5243.3742    3915.0982   -1228.0862    1676.9567     1165.135    82.548615 
   48700     176.8089    -107.6015   0.15998041   -107.44152    893.52593    4.3548089    4.3548089    4.3548089    893.52593    6752.3596   -6986.7687    2914.9869    233.05081     9076.781   -748.63093    82.586165 
   48800    401.62646   -107.80285   0.36340006   -107.43945    -1394.293    4.3565521    4.3565521    4.3565521    -1394.293   -4082.0727   -9948.2822    9847.4761    484.36433   -3681.7673   -1874.6155    82.685384 
   48900    244.41684   -107.66201   0.22115349   -107.44086    17.882168    4.3549499    4.3549499    4.3549499    17.882168    4273.9652   -4573.7013     353.3826   -2200.4919    6791.9424   -365.05157    82.594186 
   49000    285.82017   -107.69811   0.25861609   -107.43949   -845.20266    4.3554217    4.3554217    4.3554217   -845.20266   -3555.3194   -7745.7176     8765.429     1352.439    2254.7742   -2728.2815    82.621035 
   49100    348.63932   -107.75136   0.31545619    -107.4359    735.75025    4.3569301    4.3569301    4.3569301    735.75025    3582.9662   -7764.8668    6389.1513      662.577      1183.25    495.65266    82.706909 
   49200    274.83184   -107.68614   0.24867363   -107.43747   -2377.6584     4.353852     4.353852     4.353852   -2377.6584   -2122.9481   -5874.6267     864.5997   -603.61091    6965.0158   -694.49912    82.531738 
   49300    244.35239   -107.65831   0.22109518   -107.43722    4261.1202    4.3573487    4.3573487    4.3573487    4261.1202    10184.025   -10090.389    12689.725    1424.6194    393.27789   -813.77056    82.730746 
   49400    452.72873   -107.84538   0.40963847   -107.43574   -3355.3328    4.3542878    4.3542878    4.3542878   -3355.3328   -1341.4047   -5732.9698   -2991.6241     -493.273    3744.1297    1342.3353    82.556525 
   49500    110.31042   -107.54025  0.099811185   -107.44043    5271.3339    4.3563536    4.3563536    4.3563536    5271.3339     4828.479   -7923.6009    18909.124   -896.43297    7076.1187   -2239.9037    82.674079 
   49600    460.40908   -107.85412   0.41658781   -107.43754    -3200.176    4.3545657    4.3545657    4.3545657    -3200.176   -1029.5688   -7640.5203   -930.43893    1058.4577   -1091.1205    3861.2663    82.572333 
   49700    203.23311   -107.62352   0.18388959   -107.43963    2842.8147    4.3568342    4.3568342    4.3568342    2842.8147   -1841.7582   -7528.7724    17898.975   -1151.3511    4705.8194   -4065.3684    82.701446 
   49800    292.78468   -107.70378   0.26491773   -107.43886   -850.06297    4.3541063    4.3541063    4.3541063   -850.06297    5380.8396   -7570.8284   -360.20013    614.41605    3487.3352     1199.224    82.546201 
   49900    375.78912   -107.77588    0.3400219   -107.43586    1288.3545    4.3569573    4.3569573    4.3569573    1288.3545   -2339.6794   -7663.6603    13868.403    172.62243    -4574.745   -1810.7835    82.708454 
   50000    207.93854   -107.62625   0.18814716    -107.4381    2451.4913     4.354887     4.354887     4.354887    2451.4913    8480.3092   -6940.2726    5814.4373   -1432.1863     8526.782   -3058.1883    82.590607 
   50100    368.54596   -107.77058   0.33346813   -107.43711   -2617.7216    4.3551605    4.3551605    4.3551605   -2617.7216   -4539.6121   -8801.7392    5488.1866    1295.5185   -3471.7924   -639.48482    82.606171 
   50200    276.08417   -107.68699   0.24980676   -107.43718    5776.1448    4.3566348    4.3566348    4.3566348    5776.1448    9471.6928   -7584.9273    15441.669   -1414.2183    2648.5595   -3259.1666    82.690093 
   50300    328.22929   -107.73575   0.29698876   -107.43876   -6586.6854    4.3545118    4.3545118    4.3545118   -6586.6854   -7393.7185   -8478.7624   -3887.5751    1798.8281    5469.3411    -144.6197    82.569264 
   50400    242.55496    -107.6582   0.21946882   -107.43874    6360.7094    4.3553233    4.3553233    4.3553233    6360.7094    7918.3949   -7841.3576    19005.091    2528.9613    -1966.971   -553.14848    82.615437 
   50500    384.85478   -107.78716    0.3482247   -107.43894    -5031.938    4.3565508    4.3565508    4.3565508    -5031.938    -5226.046   -8611.4823   -1258.2856   -604.20981    5809.6283    1442.7604    82.685311 
   50600    190.59093   -107.61423   0.17245068   -107.44177    3221.7126    4.3540275    4.3540275    4.3540275    3221.7126    5842.0931   -7935.2826    11758.327    3175.0334      4069.59   -1565.2419    82.541717 
   50700    411.28049   -107.81101   0.37213523   -107.43888   -508.72149    4.3566425    4.3566425    4.3566425   -508.72149   -2406.7877   -6576.1872    7456.8105   -402.33415   -2118.3956    2349.5644    82.690528 
   50800    240.23745   -107.65728    0.2173719   -107.43991    1712.8611    4.3551854    4.3551854    4.3551854    1712.8611    7432.7442   -8242.8613    5948.7004     151.1397    6711.3077   -669.57538     82.60759 
   50900    296.77249   -107.70644   0.26852599   -107.43792   -1792.0975    4.3551614    4.3551614    4.3551614   -1792.0975   -4025.0405   -8550.8416    7199.5895    1479.3929    910.69839   -1047.5373    82.606225 
   51000    327.55574   -107.73199   0.29637932   -107.43561    1526.1405    4.3571186    4.3571186    4.3571186    1526.1405    5328.7272    -9335.008    8584.7023   -687.31036   -1503.0012    850.10243    82.717641 
   51100    291.70586   -107.70092   0.26394159   -107.43698   -2820.5552    4.3541709    4.3541709    4.3541709   -2820.5552    -6470.288    -7552.227    5560.8494    1228.1499    6414.7429   -2364.2483    82.549876 
   51200    283.16477   -107.69306   0.25621344   -107.43684    1020.9554    4.3571283    4.3571283    4.3571283    1020.9554     3759.612   -10422.377    9725.6316   -701.33158    -4275.168   -476.14865    82.718191 
   51300    365.89687   -107.76715   0.33107118   -107.43608   -988.79762    4.3548928    4.3548928    4.3548928   -988.79762   -348.32848   -6848.0695    4230.0052   -92.369141    532.07469    2040.1893    82.590942 
   51400    171.30603    -107.5942   0.15500129   -107.43919    2137.1957    4.3557035    4.3557035    4.3557035    2137.1957     3954.461   -11100.134     13557.26   -490.21013    2864.3963   -3734.0208    82.637073 
   51500    414.84373   -107.81279   0.37535932   -107.43743   -2821.0311    4.3559973    4.3559973    4.3559973   -2821.0311   -512.98562    -6500.824   -1449.2836   -349.58979   -6211.3292    4090.0175    82.653796 
   51600    243.81022   -107.66018   0.22060461   -107.43958    3499.5246    4.3546859    4.3546859    4.3546859    3499.5246   -1995.4281   -7654.6714    20148.673    342.10281    4931.5462    -2447.173    82.579166 
   51700    310.66373   -107.72128   0.28109507   -107.44018   -5355.6404    4.3565265    4.3565265    4.3565265   -5355.6404   -2538.2669   -9269.0282    -4259.626     961.3549   -610.73637     375.4862    82.683927 
   51800    330.74267   -107.73786   0.29926292    -107.4386    -29.09774    4.3557696    4.3557696    4.3557696    -29.09774   -4343.7637   -8185.7083    12442.179    781.22913   -1889.3512   -2311.7365    82.640837 
   51900    247.86746   -107.66338   0.22427569    -107.4391    1200.1228    4.3541739    4.3541739    4.3541739    1200.1228    3965.5988   -7063.5307    6698.3004   -396.16909    5817.2134   -2006.4296    82.550044 
   52000    346.11486   -107.75073     0.313172   -107.43756   -7066.4619    4.3584109    4.3584109    4.3584109   -7066.4619    -5828.961   -11588.633   -3781.7916    1673.1009   -1520.6711    -1666.801    82.791263 
   52100    255.40482    -107.6677   0.23109565   -107.43661     7044.434    4.3527368    4.3527368    4.3527368     7044.434     6438.077   -299.89375    14995.119   -1376.9722    -2962.168   -1018.4354    82.468336 
   52200     369.1868   -107.77113   0.33404797   -107.43708   -10650.714    4.3582125    4.3582125    4.3582125   -10650.714   -9822.6878   -13979.761   -8149.6932    1971.3792    4540.6742   -776.61454     82.77996 
   52300    172.58229   -107.59513   0.15615608   -107.43898    5887.9967    4.3544301    4.3544301    4.3544301    5887.9967    4724.0401     479.5991    12460.351    635.85318    -8011.784   -1363.9859    82.564619 
   52400    442.85453   -107.83851   0.40070409   -107.43781   -6899.4638    4.3555202    4.3555202    4.3555202   -6899.4638   -8160.3096   -9627.6227   -2910.4591   -304.02473    968.68329    3848.5914    82.626643 
   52500     158.3462   -107.58368   0.14327497   -107.44041    1972.5767    4.3566948    4.3566948    4.3566948    1972.5767    4658.8017   -6034.0267    7292.9552    1450.3924    371.12582    -1327.033    82.693509 
   52600    405.48371   -107.80499   0.36689018    -107.4381   -6399.8961    4.3546545    4.3546545    4.3546545   -6399.8961   -9327.9955   -8184.1415   -1687.5514   -2288.3555    -8523.463    2780.1434    82.577381 
   52700     240.0525    -107.6556   0.21720455   -107.43839    2867.1574    4.3566136    4.3566136    4.3566136    2867.1574    7085.5783   -9782.7129    11298.607   -551.75121    7103.2665    358.70449    82.688882 
   52800    327.63085   -107.73457   0.29644728   -107.43812   -6948.9561    4.3554751    4.3554751    4.3554751   -6948.9561   -7094.9378    -8855.513   -4896.4174   -461.75872   -4740.0018   -1739.2037    82.624075 
   52900    285.89016   -107.69621   0.25867942   -107.43753    2726.2892    4.3554655    4.3554655    4.3554655    2726.2892    5393.0874   -6660.8406    9446.6208   -1287.5929   -430.86386    1058.7509    82.623528 
   53000    305.60325   -107.71369   0.27651624   -107.43718   -4002.9408    4.3567386    4.3567386    4.3567386   -4002.9408   -4421.9871   -10803.396    3216.5604    430.41091    3451.6984   -2332.5695    82.696002 
   53100    263.71143   -107.67623   0.23861164   -107.43762   -2087.1083    4.3543634    4.3543634    4.3543634   -2087.1083    -3244.431   -4606.5195    1589.6258   -256.94894   -5706.2646   -1624.3451    82.560825 
   53200    360.83958    -107.7628   0.32649523   -107.43631   -525.00648    4.3570161    4.3570161    4.3570161   -525.00648    -2534.366   -8903.6698    9863.0164   -1655.7405    803.86451    558.04095    82.711804 
   53300    276.33377   -107.68793    0.2500326    -107.4379   -800.73783     4.354898     4.354898     4.354898   -800.73783    2656.7493   -8501.1322    3442.1694    961.79648   -47.302161   -2616.4724    82.591234 
   53400    323.92257   -107.73209   0.29309195     -107.439   -3302.3586    4.3556428    4.3556428    4.3556428   -3302.3586   -2163.9639   -8925.2496    1182.1378   -64.091309   -5139.8289    1358.4566    82.633616 
   53500    288.97251   -107.70079    0.2614684   -107.43933    3398.9686      4.35566      4.35566      4.35566    3398.9686    6867.3332   -11531.155    14860.728    -572.1626    1675.9565    -3250.334      82.6346 
   53600    312.36178   -107.72263    0.2826315      -107.44   -6772.2075     4.355997     4.355997     4.355997   -6772.2075   -3805.5452   -11144.212   -5366.8647    2606.7728      -2480.5    395.06617    82.653777 
   53700    292.69938   -107.70354   0.26484055    -107.4387    1674.5949    4.3551752    4.3551752    4.3551752    1674.5949   -2019.6001   -4878.4358    11921.821   -1159.1257   -5729.9012   -999.13358    82.607008 
   53800    334.64876   -107.73978   0.30279723   -107.43698   -1477.5607    4.3564649    4.3564649    4.3564649   -1477.5607    3931.2324   -12053.166    3689.2513    841.52058     4071.427   -150.43939    82.680419 
   53900    249.39342   -107.66338   0.22565641   -107.43772    -3142.341    4.3551391    4.3551391    4.3551391    -3142.341   -7293.4082   -3415.1358     1281.521    -1213.298   -7656.5274   -556.46032    82.604955 
   54000    272.74105   -107.68333   0.24678184   -107.43655    4728.0259    4.3564248    4.3564248    4.3564248    4728.0259    12143.897   -9111.7645    11151.946   -1122.2377   -456.94604   -65.983013    82.678135 
   54100    398.35187   -107.79698   0.36043714   -107.43655   -4868.1608    4.3545947    4.3545947    4.3545947   -4868.1608   -6358.8587   -7554.4211   -691.20251    54.237169    668.18149   -1051.6088    82.573977 
   54200    156.89896    -107.5814   0.14196548   -107.43943    3147.4681      4.35757      4.35757      4.35757    3147.4681    6576.0717   -7657.6041    10523.937    -434.6327   -6788.3289   -706.43318    82.743353 
   54300    469.43273   -107.86122    0.4247526   -107.43647   -3892.6954    4.3531107    4.3531107    4.3531107   -3892.6954   -4881.6451   -10631.444    3835.0029   -238.75685    3146.1803    -303.0394    82.489589 
   54400     139.6711    -107.5659   0.12637734   -107.43952    3731.7584    4.3571513    4.3571513    4.3571513    3731.7584    5123.2782   -9428.4202    15500.417   -38.087937    -107.9182   -908.15184    82.719502 
   54500    397.85601   -107.79878   0.35998848    -107.4388   -6194.8437    4.3561323    4.3561323    4.3561323   -6194.8437    -5926.784   -9826.9403   -2830.8068   -603.89857   -5097.3105    1424.8265     82.66148 
   54600    264.94616   -107.67884   0.23972885   -107.43911     8595.414    4.3530908    4.3530908    4.3530908     8595.414     10070.13   -6568.4573    22284.569   -1138.5699    3396.9245   -553.76315    82.488458 
   54700    306.20734   -107.71811   0.27706284   -107.44105   -6721.4451    4.3581465    4.3581465    4.3581465   -6721.4451   -10115.389   -9608.0688   -440.87775    480.61207    -6166.991    332.99059    82.776196 
   54800    258.18305   -107.67303   0.23360945   -107.43942     6752.773    4.3539919    4.3539919    4.3539919     6752.773    6969.0329   -5485.1399    18774.426    -2146.736   -2006.3727    319.68051    82.539691 
   54900    382.05691   -107.78268   0.34569312   -107.43698   -1144.4864    4.3552376    4.3552376    4.3552376   -1144.4864   -3145.4928   -8469.7099    8181.7436    1151.2321    205.52132   -238.68188    82.610558 
   55000    192.54724   -107.61276   0.17422079   -107.43854   -1549.9432     4.358788     4.358788     4.358788   -1549.9432   -1826.4498   -10025.988    7202.6079   -709.43654   -8503.2313   -580.24036    82.812756 
   55100    395.44055   -107.79291   0.35780292    -107.4351    4018.8659    4.3512227    4.3512227    4.3512227    4018.8659    1237.2144   -7006.6122    17825.996   -1314.8104   -364.49022   -472.58872    82.382304 
   55200     274.4605   -107.68575   0.24833763   -107.43742   -3695.6118    4.3595524    4.3595524    4.3595524   -3695.6118   -6675.5304   -13445.307     9034.002    390.55618   -2068.9475   -2314.8511    82.856334 
   55300    271.78977   -107.68431    0.2459211   -107.43839   -973.43025     4.354586     4.354586     4.354586   -973.43025   -6513.6486    -7728.366    11321.724   -2766.9038   -7687.9019    638.93832    82.573485 
   55400    377.26209   -107.77837   0.34135466   -107.43701    6083.6599    4.3531162    4.3531162    4.3531162    6083.6599    5327.9762   -6203.6696    19126.673    1107.3961    3718.4916   -2026.0695    82.489902 
   55500    275.52373    -107.6895   0.24929967    -107.4402   -8107.7122    4.3608792    4.3608792    4.3608792   -8107.7122   -10526.443   -12841.502    -955.1911   -504.40484   -6818.4067    1297.2422    82.932005 
   55600    218.37798   -107.63836   0.19759299   -107.44076    9339.0349    4.3496731    4.3496731    4.3496731    9339.0349    4249.5394   -965.46376    24733.029   -684.20945   -3852.4048    1778.0382    82.294319 
   55700    426.16777   -107.82487   0.38560556   -107.43927   -6691.1655    4.3597566    4.3597566    4.3597566   -6691.1655   -7077.4897    -13936.67    940.66341    1612.2149    1908.8313    1787.8941    82.867973 
   55800    173.68326   -107.59892   0.15715226   -107.44177   -1372.7184     4.354909     4.354909     4.354909   -1372.7184   -8915.1885    -5464.236    10261.269   -1722.6295   -8111.7628    256.83594    82.591861 
   55900    378.55085   -107.78091   0.34252076   -107.43839    848.98158    4.3538772    4.3538772    4.3538772    848.98158   -349.33218   -8495.7314    11392.008    510.17036    2025.8688    1055.9164     82.53317 
   56000    336.85512   -107.74244   0.30479359   -107.43765   -4946.7119    4.3590871    4.3590871    4.3590871   -4946.7119   -6956.2584   -13159.857    5275.9795    74.881589   -4407.9164   -2012.8069    82.829808 
   56100    159.85726   -107.58392    0.1446422   -107.43928    959.00369    4.3532564    4.3532564    4.3532564    959.00369    -1341.997   -5730.3958    9949.4039   -1342.4208   -8144.6339    1439.2384    82.497868 
   56200    442.44974   -107.83719   0.40033782   -107.43685   -750.16537    4.3558187    4.3558187    4.3558187   -750.16537    -549.1575   -11561.674     9860.335     956.4598    1954.4266   -1672.2068    82.643632 
   56300    241.30706   -107.65931    0.2183397   -107.44097   -3067.8705    4.3577823    4.3577823    4.3577823   -3067.8705   -5940.1312   -9555.7076    6292.2275   -558.23048   -7757.1402    773.43593    82.755449 
   56400    261.88633   -107.67927   0.23696025   -107.44231    952.55169    4.3529054    4.3529054    4.3529054    952.55169   -6285.0943   -8250.8038    17393.553   -930.07715   -4270.5602    247.95505    82.477919 
   56500    407.58689   -107.80856   0.36879318   -107.43977   -1211.8767    4.3568907    4.3568907    4.3568907   -1211.8767    224.06092   -11426.265    7566.5744    285.40452    1891.7674     1301.877     82.70466 
   56600     188.7284   -107.61257   0.17076543   -107.44181   -2662.8143    4.3571132    4.3571132    4.3571132   -2662.8143   -11202.541   -10002.957    13217.055   -2371.5086    -7401.448   -877.60906    82.717332 
   56700     318.5709   -107.72748   0.28824965   -107.43924    3596.6486    4.3529849    4.3529849    4.3529849    3596.6486    9066.4998   -8381.2285    10104.675   -883.54351    1517.0501    124.68096    82.482437 
   56800    372.15617   -107.77479   0.33673472   -107.43806   -4141.0639    4.3588785    4.3588785    4.3588785   -4141.0639   -10632.968   -12703.189    10912.966    64.346732    941.48351   -1514.1633    82.817916 
   56900    160.44663   -107.58508   0.14517548   -107.43991    1059.0071    4.3541599    4.3541599    4.3541599    1059.0071    3088.1977   -8930.7084     9019.532   -1311.6043   -7129.1475    -364.8946    82.549248 
   57000    453.65071    -107.8468   0.41047269   -107.43633   -4255.1187    4.3560096    4.3560096    4.3560096   -4255.1187   -9602.5107   -9295.1702    6132.3247    573.65666    3457.8641   -1368.0749    82.654498 
   57100    197.29363   -107.61685   0.17851542   -107.43834    2580.7609    4.3570183    4.3570183    4.3570183    2580.7609    672.62771   -9328.3031    16397.958   -307.21559   -4382.1858   -466.33172    82.711931 
   57200    334.34142   -107.74097   0.30251914   -107.43845   -7285.4651    4.3548394    4.3548394    4.3548394   -7285.4651   -10064.199   -7979.8089   -3812.3875    -1770.298   -4777.0566    1682.5777      82.5879 
   57300    277.89697   -107.68893   0.25144702   -107.43749    5864.9342    4.3562528    4.3562528    4.3562528    5864.9342     4018.888   -8280.5489    21856.463     329.8831    4306.3677    1331.6659     82.66834 
   57400    309.18589   -107.72039   0.27975789   -107.44063   -8488.0224    4.3565561    4.3565561    4.3565561   -8488.0224   -13386.373   -9367.6183   -2710.0757   -1490.0386   -10959.506    1630.1349    82.685612 
   57500      279.961   -107.69536    0.2533146   -107.44204    2324.8775    4.3534144    4.3534144    4.3534144    2324.8775    3373.7828    -6538.506    10139.356    613.29122    1813.3977    243.94876    82.506852 
   57600    367.83345   -107.77308   0.33282344   -107.44025   -3049.9847    4.3591045    4.3591045    4.3591045   -3049.9847   -11983.791   -10387.048    13220.885    302.30717    -2301.349   -99.694061      82.8308 
   57700    218.23989   -107.63818   0.19746804   -107.44072    471.50589    4.3525139    4.3525139    4.3525139    471.50589    3960.3156   -6045.5057    3499.7077    -512.6287   -7703.0558     756.5513    82.455663 
   57800    343.60413   -107.74859   0.31090024   -107.43769   -2560.0937    4.3587077    4.3587077    4.3587077   -2560.0937   -9277.7979   -11380.045    12977.562    1461.9304    1861.6622   -739.25887    82.808182 
   57900    290.89214   -107.70028   0.26320532   -107.43708    3181.1991    4.3536954    4.3536954    4.3536954    3181.1991    1459.1148   -4919.0566    13003.539   -1374.5135   -5159.5609   -1076.8425    82.522834 
   58000    300.11571    -107.7097     0.271551   -107.43815     -6185.16    4.3575774    4.3575774    4.3575774     -6185.16    -11077.26    -10926.06    3447.8396   -129.68065   -4072.0002    1430.6339    82.743772 
   58100    283.07735   -107.69329   0.25613433   -107.43715    7148.7534    4.3546971    4.3546971    4.3546971    7148.7534    2971.0451   -5756.6821    24231.897    -93.57805    3133.5644   -3110.4484    82.579804 
   58200    373.57179   -107.77554   0.33801561   -107.43753   -6529.1656     4.356078     4.356078     4.356078   -6529.1656   -6843.9379   -10083.024    -2660.535   -293.20912   -3398.1158    2268.3354     82.65839 
   58300    138.84028   -107.56525   0.12562561   -107.43962    7492.0904    4.3566174    4.3566174    4.3566174    7492.0904    3831.4847   -8828.4904    27473.277   -593.98435    -265.5967   -1317.0655      82.6891 
   58400    470.57632   -107.86328   0.42578734   -107.43749   -4469.6664    4.3544129    4.3544129    4.3544129   -4469.6664   -5606.2537   -6861.0957   -941.64991    320.54195    4695.8581    494.72354    82.563641 
   58500    180.04362   -107.60498   0.16290725   -107.44207    2127.3566    4.3564275    4.3564275    4.3564275    2127.3566   -3044.6739   -11155.541    20582.284     -1680.45   -6620.2263    1179.9079    82.678289 
   58600    337.40555   -107.74715   0.30529163   -107.44186   -2739.6654    4.3557047    4.3557047    4.3557047   -2739.6654   -5828.5764     -8705.32    6314.9002   -1328.5999    5754.7406    400.26621     82.63714 
   58700    355.38686   -107.76176    0.3215615    -107.4402   -540.62803    4.3550579    4.3550579    4.3550579   -540.62803   -4301.3443   -8057.4086    10736.869    76.902483   -1433.6936    -1318.413    82.600332 
   58800    229.63195   -107.64791   0.20777581   -107.44013    -832.4447    4.3575808    4.3575808    4.3575808    -832.4447   -2789.0141   -11144.815    11436.495   -2496.1215   -4799.0755    2652.1941    82.743968 
   58900    326.13108   -107.73252   0.29509025   -107.43743    889.34653    4.3538428    4.3538428    4.3538428    889.34653   -1699.1503   -4719.6591     9086.849    1684.7942    5850.3125   -1032.6612    82.531216 
   59000    339.40303   -107.74362   0.30709899   -107.43652   -2645.0279    4.3575075    4.3575075    4.3575075   -2645.0279   -3719.3141   -10708.813    6493.0435   -818.99314    -3972.545    1594.2256    82.739791 
   59100     204.2704   -107.62303   0.18482815   -107.43821    44.789774    4.3560657    4.3560657    4.3560657    44.789774   -6087.4402   -9012.1011    15233.911   -58.613899    696.84665    646.20812    82.657687 
   59200    419.85011   -107.81709    0.3798892    -107.4372   -3634.2542    4.3540545    4.3540545    4.3540545   -3634.2542   -4946.0665   -4442.2654   -1514.4308    1023.6453    3784.1276   -489.09156    82.543254 
   59300    207.61728   -107.62814   0.18785648   -107.44029    2611.1313    4.3582772    4.3582772    4.3582772    2611.1313   -7362.7103   -12034.459    27230.564   -1349.1749    -3698.921    2354.6734    82.783643 
   59400    319.77623   -107.72997   0.28934025   -107.44063   -2862.5168    4.3532933    4.3532933    4.3532933   -2862.5168    988.75412   -5021.6213   -4554.6832    1073.4977    3320.2083    694.74141    82.499967 
   59500    288.78965   -107.70117   0.26130294   -107.43987    3276.9008    4.3571105    4.3571105    4.3571105    3276.9008   -7419.4421   -9628.7172    26878.862   -693.84879    2747.1263   -2260.5999    82.717183 
   59600    317.10961   -107.72682   0.28692744   -107.43989   -1048.2784    4.3551932    4.3551932    4.3551932   -1048.2784    4814.3132   -9313.0984      1353.95    609.53649   -2906.9718    3395.5614     82.60803 
   59700    288.64206   -107.70035    0.2611694   -107.43918   -535.29223    4.3560931    4.3560931    4.3560931   -535.29223   -9802.2347   -8208.6568    16405.015   -277.05535     5533.142     -4408.25    82.659248 
   59800    327.63506   -107.73442   0.29645108   -107.43797    3765.6554    4.3548729    4.3548729    4.3548729    3765.6554    7124.6611   -7600.1972    11772.502   -610.71414    489.57344    451.78432    82.589805 
   59900    282.68965   -107.69425   0.25578353   -107.43847   -3771.2358    4.3575044    4.3575044    4.3575044   -3771.2358   -6802.3692   -14071.595    9560.2572   -774.03976   -2362.7516    213.65174    82.739614 
   60000    262.65895   -107.67528   0.23765934   -107.43762    3703.9515    4.3541818    4.3541818    4.3541818    3703.9515    2929.7553   -2910.0506     11092.15   -938.98347    8393.0841   -2409.4763    82.550494 
   60100    364.00747   -107.76592   0.32936161   -107.43655   -2169.5331    4.3570366    4.3570366    4.3570366   -2169.5331   -5536.1876   -11912.305    10939.893   -1841.6625   -5906.0989    3204.8056    82.712971 
   60200    274.27768   -107.68647   0.24817221    -107.4383   -3268.2611     4.355621     4.355621     4.355621   -3268.2611    393.86425   -8062.4841   -2136.1634    449.21699    3843.2609   -132.04895    82.632378 
   60300    263.01344   -107.67777   0.23798009   -107.43979    4248.6595    4.3540072    4.3540072    4.3540072    4248.6595   -7641.3884   -4963.0132     25350.38   -139.77088    2044.2325    73.594593    82.540565 
   60400    356.30314   -107.76335   0.32239057   -107.44096   -5783.0596    4.3595544    4.3595544    4.3595544   -5783.0596    4089.2321   -15377.765   -6060.6458   -1017.7346   -1073.4102    3037.8507    82.856444 
   60500    244.04165   -107.66304   0.22081402   -107.44223     2880.581    4.3500818    4.3500818    4.3500818     2880.581   -7796.6212   -523.38468    16961.749    2275.7552    4412.2533   -893.90503     82.31752 
   60600    326.15941   -107.73501   0.29511589   -107.43989    -4188.332    4.3614071    4.3614071    4.3614071    -4188.332    2385.0932   -14479.601   -470.48842   -2185.1486    1194.1331    72.713534     82.96213 
   60700    321.80152   -107.72967   0.29117277    -107.4385    -697.2843    4.3519788    4.3519788    4.3519788    -697.2843   -8209.0036   -7778.2269    13895.378    254.14613   -1588.7622    691.15823    82.425259 
   60800    239.41573   -107.65515   0.21662838   -107.43852   -1199.0622    4.3574953    4.3574953    4.3574953   -1199.0622    94.900899   -6125.1663    2433.0787     -286.469    6712.6661   -2074.4638    82.739096 
   60900    389.23755   -107.78859   0.35219032    -107.4364   -1176.4149    4.3570884    4.3570884    4.3570884   -1176.4149   -8164.2122   -11457.144    16092.112   -1006.1687   -94.899562    375.10961    82.715924 
   61000    231.79386   -107.64797   0.20973196   -107.43824    3314.8069     4.352498     4.352498     4.352498    3314.8069    7797.8502   -3558.6673    5705.2378    718.93941    944.12371    1590.5504    82.454763 
   61100    294.29935   -107.70459   0.26628824    -107.4383   -1526.4564    4.3596885    4.3596885    4.3596885   -1526.4564   -8516.3992   -11133.469    15070.499   -1094.4033    8009.1917   -1733.1001    82.864091 
   61200    357.99815   -107.76095   0.32392425   -107.43702    2849.2949    4.3531235    4.3531235    4.3531235    2849.2949     6962.754   -6642.5475    8227.6781     126.4968   -3853.0504    2416.8714    82.490313 
   61300     211.7914   -107.63134   0.19163331   -107.43971    1012.4032    4.3555338    4.3555338    4.3555338    1012.4032   -7762.5091   -9068.8935    19868.612   -1233.6841    7772.5212   -357.44005    82.627416 
   61400    398.95136   -107.79988   0.36097958    -107.4389   -5041.9486    4.3585909    4.3585909    4.3585909   -5041.9486   -1364.6495   -10736.219   -3024.9774   -825.01175    1660.1739   -2099.7788     82.80152 
   61500    253.82402   -107.67007   0.22966531   -107.44041    7367.2605    4.3509292    4.3509292    4.3509292    7367.2605    2786.8389   -9845.7008    29160.643   -190.26105   -2353.2087     532.1365    82.365634 
   61600     245.5734   -107.66395   0.22219997   -107.44175   -7895.7414    4.3608388    4.3608388    4.3608388   -7895.7414     -3445.11   -12635.533   -7606.5814   -211.36423     6208.002   -2611.4722      82.9297 
   61700     372.4424   -107.77544   0.33699371   -107.43844      4506.52    4.3519778    4.3519778    4.3519778      4506.52    2163.4411    -6940.622    18296.741    171.62926   -3255.8999    1980.9689    82.425203 
   61800    268.43772   -107.68134   0.24288809   -107.43846   -2170.4159    4.3574204    4.3574204    4.3574204   -2170.4159    465.65731   -8871.1782    1894.2732    1089.8072    3439.8186   -404.32118    82.734831 
   61900    272.09646   -107.68477   0.24619859   -107.43857   -4064.8543    4.3567097    4.3567097    4.3567097   -4064.8543   -9229.5104   -7766.0817    4801.0291   -946.44869    4755.9131   -94.353373    82.694358 
   62000    354.42056   -107.75681   0.32068717   -107.43613    4698.1162    4.3539497    4.3539497    4.3539497    4698.1162    5246.6554   -6514.2228    15361.916   -533.89589   -1265.4882    2228.5893    82.537293 
   62100    222.47097   -107.64113   0.20129641   -107.43983   -4604.6791    4.3576918    4.3576918    4.3576918   -4604.6791   -8839.9999   -9364.3346    4390.2973   -378.16114    7537.8087    383.00156    82.750291 
   62200    348.32164   -107.75473   0.31516874   -107.43956   -1514.5105    4.3543255    4.3543255    4.3543255   -1514.5105   -4350.9331   -6473.7753    6281.1768    -1604.767    5508.5993    493.84558    82.558669 
   62300    294.47043   -107.70614   0.26644303    -107.4397    2533.5998    4.3567939    4.3567939    4.3567939    2533.5998   -328.51219   -9943.8951    17873.207    673.29212   -1630.1484    210.40718    82.699151 
   62400    309.26342   -107.72093   0.27982804    -107.4411   -6499.8155    4.3539649    4.3539649    4.3539649   -6499.8155   -8790.8999   -7840.3424   -2868.2042   -1009.4717    9369.4633   -1390.4827    82.538159 
   62500    267.79065   -107.68263   0.24230261   -107.44033    4390.3481    4.3589216    4.3589216    4.3589216    4390.3481    -1605.007   -10229.634    25005.686   -612.98213   -1722.8172   -488.11333    82.820372 
   62600    388.27709   -107.79025   0.35132127   -107.43893    441.59376    4.3512986    4.3512986    4.3512986    441.59376    454.46054   -4241.9562    5112.2769   -283.32085    1683.2508    -310.1227    82.386616 
   62700    173.29891   -107.59729    0.1568045   -107.44049   -1715.3673    4.3604603    4.3604603    4.3604603   -1715.3673   -8258.5476    -10868.99    13981.436   -1643.6572    7367.4068   -107.15327    82.908108 
   62800    396.75969   -107.79519   0.35899651    -107.4362    4554.9427    4.3521683    4.3521683    4.3521683    4554.9427    34.725446   -2981.2214    16611.324     -1469.16   -4503.0483   -826.50154    82.436026 
   62900    261.48286   -107.67436   0.23659518   -107.43777   -2592.6758     4.357521     4.357521     4.357521   -2592.6758   -3685.7403   -9107.2112    5014.9241    347.32668     6900.989    1840.7792    82.740563 
   63000    253.63248   -107.66711   0.22949199   -107.43762    1447.1803    4.3565185    4.3565185    4.3565185    1447.1803   -12184.849   -5528.9694    22055.359   -1367.4215    831.27532   -2312.7695    82.683467 
   63100    393.62398   -107.79277   0.35615925   -107.43661    4864.3204    4.3528329    4.3528329    4.3528329    4864.3204    10152.942   -6578.1375    11018.157    890.46192    226.83149    701.26032    82.473794 
   63200    235.94932   -107.65491   0.21349191   -107.44142   -3374.7448    4.3587341    4.3587341    4.3587341   -3374.7448   -12710.973   -11474.647    14061.386    281.89099    6836.7018   -1913.8553    82.809687 
   63300    266.22403   -107.68297    0.2408851   -107.44208    4973.0879    4.3539138    4.3539138    4.3539138    4973.0879    6852.8822   -8449.0192    16515.401   -1246.4321   -992.22319    585.02454    82.535251 
   63400    447.05546   -107.84579   0.40450518   -107.44128   -4485.2797    4.3555652    4.3555652    4.3555652   -4485.2797   -8947.6965   -9168.4567    4660.3142    1324.8781     1406.803   -940.35938    82.629204 
   63500    132.52555   -107.56347    0.1199119   -107.44355    1125.7717    4.3566321    4.3566321    4.3566321    1125.7717   -4909.2619   -7151.4735     15438.05   -1810.8832    7770.5679   -1024.9262    82.689934 
   63600    450.18826   -107.84565    0.4073398   -107.43831   -2705.0278    4.3556323    4.3556323    4.3556323   -2705.0278   -6156.9397   -8140.2588    6182.1149    1171.1806   -1491.4419   -48.463453    82.633018 
   63700    219.62911   -107.63769   0.19872504   -107.43896    4615.2294    4.3548171    4.3548171    4.3548171    4615.2294    3068.8086    -5397.559    16174.439    198.52738    6281.7138    192.27301    82.586634 
   63800    267.41592   -107.68072   0.24196355   -107.43875   -5952.9406    4.3580554    4.3580554    4.3580554   -5952.9406   -11821.732   -9348.5879    3311.4981   -874.08787    4641.6773   -591.70715    82.771006 
   63900    379.86055   -107.77975   0.34370581   -107.43604    6137.1436    4.3536061    4.3536061    4.3536061    6137.1436    9328.3301   -5239.8323    14322.933    391.08957   -902.16985    1374.7399    82.517755 
   64000     235.7672   -107.65245   0.21332712   -107.43912   -3274.7641    4.3571522    4.3571522    4.3571522   -3274.7641   -13317.294   -8662.5887     12155.59   -1553.9956    8157.7878   -1934.3944    82.719554 
   64100    311.80351    -107.7212   0.28212637   -107.43908    404.89513    4.3559538    4.3559538    4.3559538    404.89513    2740.3034   -8598.9109    7073.2929   -2134.8742    255.96462    1673.9552    82.651322 
   64200    366.57843    -107.7698   0.33168787   -107.43811    3187.8091    4.3548818    4.3548818    4.3548818    3187.8091   -5346.5205   -7166.2292    22076.177   -439.25704    754.18136   -1856.7992    82.590311 
   64300    202.71347   -107.62448   0.18341941   -107.44106    296.30943    4.3558547    4.3558547    4.3558547    296.30943    1735.6284   -6925.1742    6078.4741   -2195.6218    6390.3597   -538.51167    82.645679 
   64400    402.62649   -107.80356   0.36430491   -107.43925   -690.15268    4.3566806    4.3566806    4.3566806   -690.15268   -6140.3908   -9826.0864    13896.019   -881.04469   -4771.9415   -1257.5507    82.692696 
   64500    264.61633   -107.67941   0.23943042   -107.43998    7131.8137    4.3526809    4.3526809    4.3526809    7131.8137    8167.9182   -3280.1327    16507.656    1142.5371    4269.2226   -850.26165    82.465155 
   64600    272.67483   -107.68703   0.24672191   -107.44031   -7788.2518     4.360938     4.360938     4.360938   -7788.2518   -14648.052   -14328.472    5611.7686   -2724.3791     2261.597   -707.63685    82.935358 
   64700    369.35799   -107.77103   0.33420287   -107.43683    8503.0266    4.3504226    4.3504226    4.3504226    8503.0266    8630.6436   -61.495152    16939.931    1929.3044    -1991.927   -530.42464    82.336866 
   64800    235.07252   -107.65089   0.21269855   -107.43819   -3167.2257    4.3598208    4.3598208    4.3598208   -3167.2257   -7803.4109   -12378.259    10679.993    -1644.702    4873.7338    1081.7138    82.871636 
   64900    312.45439   -107.72039    0.2827153   -107.43768   -2667.4086    4.3545692    4.3545692    4.3545692   -2667.4086   -2011.4393   -6813.7785    822.99195   -1173.2513    3767.0165   -418.42516    82.572532 
   65000    297.43066   -107.70653   0.26912152   -107.43741    5709.7072    4.3547976    4.3547976    4.3547976    5709.7072    1697.4213   -7960.0837    23391.784    2252.4304     531.4693    1197.9292    82.585525 
   65100    286.51372   -107.70006   0.25924363   -107.44081   -9068.4007    4.3593149    4.3593149    4.3593149   -9068.4007   -8630.1716   -9417.0413    -9157.989   -2734.7297    5882.6137   -1633.7029    82.842789 
   65200     321.0913   -107.73114   0.29053016   -107.44061    5283.2686    4.3507397    4.3507397    4.3507397    5283.2686   -25.990137   -1976.7676    17852.564    1682.8904   -728.71343   -2023.5554    82.354872 
   65300    324.93916   -107.73443   0.29401178   -107.44041   -4541.0314    4.3618496    4.3618496    4.3618496   -4541.0314   -2608.3214   -13355.047    2340.2739   -1042.4578    1009.8726    -433.0978    82.987379 
   65400    219.96165   -107.63912   0.19902592   -107.44009    2946.9822    4.3503755    4.3503755    4.3503755    2946.9822   -376.57677   -321.39042    9538.9138    -1897.204    4815.8389   -1877.0253    82.334196 
   65500    371.81995   -107.77343    0.3364305     -107.437   -3710.0257    4.3606684    4.3606684    4.3606684   -3710.0257   -2844.8605   -11666.811    3381.5946   -343.21478   -4425.6501    1530.3697    82.919982 
   65600    275.39064   -107.68685   0.24917924   -107.43767    2617.8508    4.3528739    4.3528739    4.3528739    2617.8508   -838.05299   -3694.9204    12386.526   -2468.3968     5119.302   -473.18681    82.476125 
   65700    300.13309   -107.70924   0.27156673   -107.43767   -3542.1593    4.3572508    4.3572508    4.3572508   -3542.1593   -8578.0138   -5518.0056    3469.5414   -1525.3163    425.92481    528.75478    82.725174 
   65800    323.88378   -107.72925   0.29305685    -107.4362    4430.2108    4.3572223    4.3572223    4.3572223    4430.2108    2781.3214    -7734.548    18243.859    447.38705   -2138.0243    2609.4576    82.723547 
   65900    308.38995    -107.7162   0.27903771   -107.43716   -1640.6073    4.3534703    4.3534703    4.3534703   -1640.6073   -3586.9084    -4479.303    3144.3894   -2305.9416    6828.9107   -3816.1425    82.510034 
   66000    202.60397   -107.62176   0.18332033   -107.43844    5980.1644    4.3580737    4.3580737    4.3580737    5980.1644    4212.3471   -5804.1479    19532.294   -40.152006   -1575.6533    3311.0054    82.772051 
   66100    474.65819   -107.86737   0.42948071   -107.43789   -7263.7426    4.3549289    4.3549289    4.3549289   -7263.7426   -6652.9814   -9778.2609   -5359.9855    261.47847    3.2776598   -4215.2057    82.592992 
   66200     107.9989   -107.54051  0.097719675   -107.44279    8243.7669    4.3536995    4.3536995    4.3536995    8243.7669    3139.4939   -4268.9317    25860.739    -2770.121    2676.2369   -166.92167    82.523066 
   66300     441.3252    -107.8397   0.39932032   -107.44038   -11651.111    4.3612093    4.3612093    4.3612093   -11651.111    -15120.94   -12275.603     -7556.79    2806.3579   -2444.1967   -2581.1337     82.95084 
   66400    202.69143   -107.62344   0.18339947   -107.44004    10618.427    4.3480661    4.3480661    4.3480661    10618.427    12777.829   -1729.1926    20806.646   -2105.9242    269.86577    663.61077    82.203139 
   66500    337.54532    -107.7432    0.3054181   -107.43779   -13861.589    4.3641888    4.3641888    4.3641888   -13861.589   -17300.975   -12808.233   -11475.559    283.28563    4383.0788   -352.12717    83.120967 
   66600    265.02058   -107.67576   0.23979619   -107.43596     7446.146    4.3504604    4.3504604    4.3504604     7446.146    14151.112    -2528.846    10716.172    1241.3295   -5250.9806     386.2941    82.339014 
   66700     343.6487   -107.74739   0.31094057   -107.43645   -7781.5779    4.3582878    4.3582878    4.3582878   -7781.5779   -11697.042   -12298.143    650.45174   -2916.3307    5108.6377    515.53351    82.784251 
   66800    247.65295   -107.66174    0.2240816   -107.43766   -791.72168    4.3576937    4.3576937    4.3576937   -791.72168    2527.0822   -5276.0942    373.84698    403.43692   -618.54951   -393.34535    82.750401 
   66900    359.63536    -107.7617   0.32540563   -107.43629    1454.3971    4.3517968    4.3517968    4.3517968    1454.3971   -888.83295   -6634.9573    11886.982   -1971.4107   -3101.2345   -393.39143     82.41492 
   67000    249.53513   -107.66321   0.22578463   -107.43742   -5760.3495    4.3617893    4.3617893    4.3617893   -5760.3495    659.22971   -13841.603   -4098.6756   -1078.7541    5236.1798   -2300.4903    82.983939 
   67100    314.19429   -107.72015   0.28428959   -107.43586    3119.8503     4.351127     4.351127     4.351127    3119.8503    135.47044   -814.68623    10038.767   -243.16425   -7062.4151   -526.46142    82.376868 
   67200    293.44874   -107.70253   0.26551858   -107.43701   -1469.8007    4.3589182    4.3589182    4.3589182   -1469.8007    3166.6412   -13656.147    6080.1033   -595.65844   -58.314094    -1551.143    82.820178 
   67300    338.12831   -107.74488    0.3059456   -107.43894   -673.70002    4.3535404    4.3535404    4.3535404   -673.70002   -1695.3434   -3934.9773    3609.2206   -2191.9256    507.36931   -1497.7033     82.51402 
   67400    252.49933   -107.66891    0.2284667   -107.44044    6344.6693    4.3571986    4.3571986    4.3571986    6344.6693    3656.4064   -6012.8967    21390.498    1109.0271   -3017.6297     1973.816    82.722198 
   67500    358.10303   -107.76399   0.32401915   -107.43997   -1024.9868    4.3542421    4.3542421    4.3542421   -1024.9868    4797.6683   -10716.853    2844.2248    -1884.202    166.90865   -3175.0815    82.553922 
   67600     254.4647   -107.66919   0.23024501   -107.43894    4495.5535    4.3571725    4.3571725    4.3571725    4495.5535    204.41528   -4342.5162    17624.762   -267.00858    2399.0962    1850.4257     82.72071 
   67700    339.89956   -107.74434   0.30754826   -107.43679     2789.391    4.3543284    4.3543284    4.3543284     2789.391    4052.7752   -8120.4919     12435.89    2099.7544   -3629.3091    570.13042    82.558835 
   67800      317.947   -107.72508   0.28768513   -107.43739   -2885.0518    4.3566812    4.3566812    4.3566812   -2885.0518   -998.51751   -11922.252    4265.6139   -3054.4165    5568.8505   -3840.6825    82.692735 
   67900    263.90817   -107.67635   0.23878966   -107.43756    6932.0383    4.3560086    4.3560086    4.3560086    6932.0383    5309.3066   -3075.5691    18562.377    1343.9058   -1617.3683     3798.609    82.654441 
   68000     377.7243   -107.77997   0.34177288   -107.43819   -6259.5116    4.3557728    4.3557728    4.3557728   -6259.5116   -287.30726   -13944.635   -4546.5931   -2703.3014   -2286.8971   -6214.4699    82.641016 
   68100    179.51695   -107.60239   0.16243071   -107.43996    9102.4862    4.3542038    4.3542038    4.3542038    9102.4862    7902.0092   -4607.7978    24013.247   -2362.8999    2288.2785    674.69175    82.551746 
   68200    425.42516   -107.82199   0.38493363   -107.43706   -9567.5685    4.3599637    4.3599637    4.3599637   -9567.5685   -7088.3126    -11617.54   -9996.8531    15.299154   -6974.9933   -1819.2845    82.879783 
   68300    160.35988   -107.58388   0.14509699   -107.43879    7486.0006    4.3499573    4.3499573    4.3499573    7486.0006    11543.906   -7752.1734    18666.269   -2368.0417    1230.1078    -4174.635    82.310453 
   68400    422.09484   -107.81996   0.38192028   -107.43804   -12654.857    4.3620184    4.3620184    4.3620184   -12654.857   -12899.886   -15422.133   -9642.5531    -1298.962   -1789.7691    966.59138    82.997014 
   68500    225.63536   -107.64409   0.20415961   -107.43993    7228.5556    4.3498945    4.3498945    4.3498945    7228.5556    17053.251   -4422.3356     9054.751    583.85884   -3003.3175   -2175.8517    82.306889 
   68600     324.7401   -107.73337   0.29383167   -107.43954   -9734.4067    4.3608713    4.3608713    4.3608713   -9734.4067   -11226.253   -20686.014    2709.0466   -3621.3077    306.16104   -2027.9033    82.931556 
   68700    271.30422   -107.68288   0.24548176    -107.4374    5607.3607     4.352462     4.352462     4.352462    5607.3607    11115.804   -2762.2221    8468.5004   -358.40492    1926.5527     427.1418    82.452715 
   68800    333.13345   -107.73802   0.30142615    -107.4366   -8712.2589    4.3581949    4.3581949    4.3581949   -8712.2589   -10199.324   -15476.233   -461.21934   -765.25139   -2400.5086   -2794.6031    82.778959 
   68900    236.13187   -107.65084   0.21365708   -107.43718     3874.584    4.3547042    4.3547042    4.3547042     3874.584    3655.2173   -8230.9393    16199.474   -2726.7829     6061.511    -542.6673    82.580212 
   69000    390.61971   -107.79006   0.35344093   -107.43662   -3704.2943    4.3557844    4.3557844    4.3557844   -3704.2943   -4310.2309   -6610.2443   -192.40761     1487.824   -2909.3524    75.836638    82.641678 
   69100    177.53367   -107.60046    0.1606362   -107.43982      3826.23    4.3565287    4.3565287    4.3565287      3826.23    2615.2887   -13315.619     22179.02   -1919.1286    1313.4703   -2319.7044     82.68405 
   69200    411.50647   -107.81069    0.3723397   -107.43835    -1064.327    4.3542071    4.3542071    4.3542071    -1064.327    141.98091   -8646.0569    5311.0949   -796.14585     1996.685   -1317.6418    82.551931 
   69300      232.822      -107.65   0.21066224   -107.43934     5931.053    4.3569205    4.3569205    4.3569205     5931.053   -367.86253   -10124.304    28285.326   -852.91924   -3936.5973    240.90902    82.706362 
   69400    366.88978   -107.77164   0.33196958   -107.43967   -5027.0448    4.3537988    4.3537988    4.3537988   -5027.0448   -608.91034   -14783.439    311.21463   -2633.9787    1815.6658   -5424.4901     82.52871 
   69500    252.78625   -107.66861   0.22872631   -107.43988    6307.6885    4.3580225    4.3580225    4.3580225    6307.6885   -208.13937   -10219.273    29350.478   -334.30085    -1797.654    2787.3063    82.769131 
   69600    321.85975   -107.73253   0.29122547    -107.4413   -4395.0461    4.3533378    4.3533378    4.3533378   -4395.0461   -681.28899   -12163.848   -340.00126   -1299.6266    -3263.295   -3702.1541    82.502498 
   69700    255.81666   -107.67342   0.23146829   -107.44195   -426.51017    4.3561989    4.3561989    4.3561989   -426.51017    571.23646   -14192.881    12342.114   -2501.5266    1656.3986   -1683.3505    82.665274 
   69800    367.02298   -107.77032   0.33209011   -107.43823   -1492.2751    4.3586677    4.3586677    4.3586677   -1492.2751   -2493.9516   -9546.8943    7564.0207    895.05295   -2728.6668    1529.5727    82.805897 
   69900    234.75853    -107.6508   0.21241445   -107.43838   -22.190762    4.3499519    4.3499519    4.3499519   -22.190762    3537.2622   -10345.429     6741.595   -3491.9681    -2897.845   -6772.1713    82.310145 
   70000    327.92012   -107.73255   0.29670901   -107.43584   -5590.2601    4.3634714    4.3634714    4.3634714   -5590.2601   -1942.6429   -17197.701    2369.5634   -1306.5814   -194.54007    1839.8865    83.079984 
   70100    312.16919   -107.71828   0.28245724   -107.43582    2025.6848    4.3500736    4.3500736    4.3500736    2025.6848    3044.5971   -8056.6759    11089.133   -222.72242   -4144.9881   -4030.5792    82.317056 
   70200    248.68831   -107.66372    0.2250184    -107.4387   -5331.3625    4.3575653    4.3575653    4.3575653   -5331.3625    3083.5186   -18197.278   -880.32784   -3668.0142     8.312361   -3667.7738    82.743087 
   70300    351.83313   -107.75633   0.31834601   -107.43798    -783.8613    4.3594212    4.3594212    4.3594212    -783.8613    -5365.247   -14904.591    17918.254    2331.2195    976.84851    371.08091     82.84885 
   70400    311.46052   -107.72128   0.28181602   -107.43947    3267.4347    4.3469689    4.3469689    4.3469689    3267.4347    12661.967   -6101.7451     3242.082   -1732.1181   -520.15109   -4020.2321    82.140924 
   70500    215.66816   -107.63595   0.19514108   -107.44081   -6430.1148    4.3672198    4.3672198    4.3672198   -6430.1148   -12319.272   -24416.948    17445.876   -795.23729    2037.9083    247.75884    83.294277 
   70600    411.38491   -107.80967   0.37222971   -107.43744    12669.622    4.3431309    4.3431309    4.3431309    12669.622     20726.58    4610.7952    12671.489    1303.8784    1217.0796    159.17377     81.92355 
   70700    203.85936   -107.62488   0.18445623   -107.44042   -6251.9422    4.3655843    4.3655843    4.3655843   -6251.9422   -8990.6874   -23648.177    13883.038   -3281.6272   -2910.0272   -765.48867    83.200732 
   70800    300.84906    -107.7098   0.27221455   -107.43758    8457.2065    4.3498697    4.3498697    4.3498697    8457.2065    14903.563   -4047.9182    14515.975    686.62376     1905.254    349.25677    82.305478 
   70900     390.5578    -107.7899   0.35338491   -107.43651   -1109.4125    4.3563843    4.3563843    4.3563843   -1109.4125    -4644.524   -13851.746    15168.033    1058.6485   -6655.9635   -624.46619    82.675827 
   71000     186.1754    -107.6072   0.16845542   -107.43875   -1630.9415    4.3592259    4.3592259    4.3592259   -1630.9415    5527.3627   -16597.343     6177.156   -3247.0639   -453.74074   -2767.4319    82.837716 
   71100    414.58105   -107.81185   0.37512165   -107.43672   -432.65403    4.3510796    4.3510796    4.3510796   -432.65403   -438.99794   -10348.393    9489.4291    2478.9226    -3037.678   -1350.8536    82.374178 
   71200    250.75088   -107.66543   0.22688467   -107.43854    1188.0113    4.3596218    4.3596218    4.3596218    1188.0113     10047.89   -15361.984    8878.1284   -564.78351   -121.38438   -215.53375    82.860291 
   71300    294.56432   -107.70678   0.26652798   -107.44025   -6221.6579     4.354043     4.354043     4.354043   -6221.6579   -119.26777    -16238.29   -2307.4157   -3222.8178    660.71412   -4623.4916    82.542599 
   71400    307.04011   -107.71804   0.27781635   -107.44022    3395.7553    4.3547803    4.3547803    4.3547803    3395.7553    8569.5599   -9589.4284    11207.134    5144.2356    1402.9211     2955.512    82.584537 
   71500    335.56348   -107.74376   0.30362489   -107.44014   -10529.239    4.3591643    4.3591643    4.3591643   -10529.239   -7820.1099   -17732.042   -6035.5655   -4565.8882     351.8028   -4272.5952    82.834205 
   71600    224.38118   -107.64323    0.2030248    -107.4402    95.781144    4.3515471    4.3515471    4.3515471    95.781144    5357.3745   -11712.395    6642.3642    4172.1562    1028.6473    946.33092    82.400731 
   71700     386.5827    -107.7871   0.34978815   -107.43731     -7192.97    4.3605183    4.3605183    4.3605183     -7192.97   -4856.2652   -17732.152    1009.5071    2627.4231    889.26353    82.296675    82.911419 
   71800     243.7074   -107.65924   0.22051158   -107.43873   -833.98933    4.3521428    4.3521428    4.3521428   -833.98933    7428.0472   -13729.305    3799.2897   -2061.3544   -3446.9859   -3070.2102    82.434575 
   71900    306.52475   -107.71535   0.27735003     -107.438    -4014.553    4.3581285    4.3581285    4.3581285    -4014.553    1489.7562   -17000.443    3467.0273    5693.4498    2083.8634    1909.4497    82.775172 
   72000    316.75668   -107.72353    0.2866081   -107.43692    779.60421    4.3561894    4.3561894    4.3561894    779.60421    2366.3023   -13061.083    13033.594   -1767.0356   -5607.8631   -1883.9079    82.664731 
   72100    323.97746   -107.73104   0.29314161    -107.4379   -2975.4051    4.3525264    4.3525264    4.3525264   -2975.4051    2827.9874   -11529.504   -224.69895    1638.6413    1352.9953   -2035.8444    82.456378 
   72200    212.78901   -107.63239   0.19253597   -107.43985    1756.9455    4.3609581    4.3609581    4.3609581    1756.9455    -2903.586   -18217.525    26391.948    4021.2639   -33.226217    1071.6491    82.936506 
   72300    413.99545   -107.81332   0.37459178   -107.43872    3668.1122    4.3479351    4.3479351    4.3479351    3668.1122    10400.563   -3279.7032    3883.4766   -1282.2779   -940.76669   -3706.6783     82.19571 
   72400    186.44517   -107.61125   0.16869951   -107.44255   -3758.0114    4.3634617    4.3634617    4.3634617   -3758.0114   -10224.827   -22178.246    21129.038    2377.0323    994.69527    2510.2235    83.079428 
   72500    352.35067   -107.75858   0.31881429   -107.43976    8786.7689    4.3479589    4.3479589    4.3479589    8786.7689    16971.204   -5071.1625    14460.265     2086.959   -1330.0868   -505.13415     82.19706 
   72600    355.23688   -107.75988    0.3214258   -107.43845   -5725.9597    4.3611412    4.3611412    4.3611412   -5725.9597   -11661.822   -17661.149    12145.092   -1900.9898   -102.01372    876.83012    82.946956 
   72700    191.64331   -107.61223    0.1734029   -107.43883    6036.6753    4.3526052    4.3526052    4.3526052    6036.6753        16004   -11800.646    13906.672    3873.4744    33.085352    502.26189    82.460854 
   72800    423.10028   -107.81846   0.38283003   -107.43563   -2849.0099    4.3567033    4.3567033    4.3567033   -2849.0099   -5734.3455    -12314.27    9501.5858    506.30251   -526.41231    1468.8118    82.693993 
   72900    194.06792   -107.61341   0.17559673   -107.43781    2868.0485    4.3560047    4.3560047    4.3560047    2868.0485    8873.8137   -11617.881    11348.213    1349.2948    717.44484   -1088.6217    82.654219 
   73000    331.77406   -107.73799   0.30019614    -107.4378   -5440.1301     4.355232     4.355232     4.355232   -5440.1301   -6424.5783   -14844.054    4948.2424    5608.2145    56.462377    1485.4257    82.610242 
   73100    341.50357   -107.74552   0.30899961   -107.43652    2251.2773    4.3554883    4.3554883    4.3554883    2251.2773    3114.2562   -7541.3929    11180.968   -1456.5951    1291.9876    -185.2786    82.624825 
   73200    219.98961   -107.63849   0.19905122   -107.43944   -6178.9772    4.3573821    4.3573821    4.3573821   -6178.9772   -7982.0354   -18298.565    7743.6684    4368.6022   -1965.5966   -1501.4245    82.732652 
   73300    380.13146   -107.78285   0.34395094    -107.4389   -922.47522    4.3535003    4.3535003    4.3535003   -922.47522    6312.0358    -11367.91    2288.4481    2132.6688    3513.5502     1663.522    82.511739 
   73400    261.32263   -107.67747   0.23645021   -107.44102    478.14078    4.3570981    4.3570981    4.3570981    478.14078   -3431.1025   -14104.951    18970.476    96.764366   -5145.4452   -3986.3014    82.716477 
   73500     280.3093   -107.69647   0.25362974   -107.44284   -3165.1635    4.3543033    4.3543033    4.3543033   -3165.1635    6140.9971    -15869.57    233.08286    6151.3712    1884.0483    2117.6217    82.557403 
   73600    318.92734   -107.72864   0.28857216   -107.44006    2645.2955     4.356884     4.356884     4.356884    2645.2955   -5647.4037   -11190.111    24773.402    403.76431    -4768.887    612.29701    82.704284 
   73700    295.97984   -107.70735   0.26780878   -107.43954   -1315.5349    4.3540745    4.3540745    4.3540745   -1315.5349    4594.2979   -10000.138    1459.2357    2309.2054     597.3647   -923.50059    82.544393 
   73800    267.03453      -107.68   0.24161846   -107.43838   -1911.7386    4.3582339    4.3582339    4.3582339   -1911.7386    -8854.022   -17251.045    20369.851    4541.0278   -2270.4572    4409.3511    82.781176 
   73900    361.94104   -107.76366   0.32749186   -107.43616    5003.9204    4.3521795    4.3521795    4.3521795    5003.9204    10837.873   -4731.0527    8904.9409   -1501.5882    759.82223   -1646.7112    82.436662 
   74000    270.79968   -107.68339   0.24502524   -107.43836    -3809.491    4.3586028    4.3586028    4.3586028    -3809.491   -3903.7583   -18595.692    11070.977    4726.4956    1672.0077    1775.5777    82.802198 
   74100    264.79854   -107.67768   0.23959528   -107.43808    4592.2459    4.3541902    4.3541902    4.3541902    4592.2459     8974.071   -11454.725    16257.392    1173.8434    340.57922    1533.1826    82.550973 
   74200    389.98357   -107.79017   0.35286533    -107.4373    -1375.703    4.3547909    4.3547909    4.3547909    -1375.703    672.58309   -10094.136    5294.4437    315.23635    5722.7159   -1874.9772    82.585142 
   74300    248.25356   -107.66495   0.22462504   -107.44032   -5436.1168    4.3590364    4.3590364    4.3590364   -5436.1168   -5141.4542   -21020.747     9853.851    6494.7036   -1133.8333    3349.8668    82.826915 
   74400    317.33603   -107.72715   0.28713231   -107.44002    5611.7021    4.3495947    4.3495947    4.3495947    5611.7021    11049.113   -2813.4113     8599.405   -2690.8574    5943.8288   -1299.5085    82.289868 
   74500    351.26422    -107.7577   0.31783125   -107.43987   -10851.125     4.363354     4.363354     4.363354   -10851.125   -11678.419    -20390.05   -484.90407    3539.0472   -4927.0212    910.53332    83.073275 
   74600    161.01277   -107.58575   0.14568774   -107.44006    7634.0046    4.3485653    4.3485653    4.3485653    7634.0046    16602.733    -5882.901    12182.181    3026.6973    2089.9171    1267.2139    82.231456 
   74700    417.05095   -107.81431   0.37735647   -107.43695   -8357.2606    4.3605264    4.3605264    4.3605264   -8357.2606   -6988.8771    -15145.44   -2937.4645   -1572.6993   -3868.8546    835.32508     82.91188 
   74800    245.63639   -107.66044   0.22225697   -107.43819    1183.6609     4.354193     4.354193     4.354193    1183.6609    11307.168   -12108.115    4351.9295    6244.6494    2259.1688    1590.2835    82.551132 
   74900    297.34348   -107.70778   0.26904263   -107.43874   -2490.6262    4.3537595    4.3537595    4.3537595   -2490.6262    503.93713   -13047.791    5071.9753    78.163561   -3312.6196    2149.8471    82.526478 
   75000    347.78019   -107.75273   0.31467882   -107.43805   -4059.6579    4.3600325    4.3600325    4.3600325   -4059.6579    8657.7952   -14994.637   -5842.1323    183.01002    5158.4642   -865.45584    82.883712 
   75100    246.02776   -107.66213   0.22261109   -107.43952    3962.4691    4.3504758    4.3504758    4.3504758    3962.4691    7380.2898   -10186.182      14693.3    4334.8918   -1313.9278    963.81932    82.339885 
   75200    370.02991   -107.77456   0.33481084   -107.43975   -5900.8234    4.3586149    4.3586149    4.3586149   -5900.8234    6656.3441   -13940.935   -10417.879   -4152.7218    4736.9807    106.53361    82.802891 
   75300    252.65075   -107.66935   0.22860371   -107.44074    6178.9337    4.3547132    4.3547132    4.3547132    6178.9337    7281.9241   -6652.2359    17907.113    2442.6818     2094.753   -2092.5185    82.580723 
   75400    357.17731   -107.76352   0.32318154   -107.44034   -2309.6901     4.353549     4.353549     4.353549   -2309.6901    7518.9112   -9967.4101   -4480.5714    1502.5018   -1523.5311    1257.0797    82.514509 
   75500    215.30399   -107.63517   0.19481157   -107.44036    1088.8942    4.3599323    4.3599323    4.3599323    1088.8942    2404.4269   -11677.644      12539.9   -2136.8551    2617.3829    1083.6787    82.877994 
   75600    375.30453   -107.77734   0.33958342   -107.43776    3734.2502    4.3497266    4.3497266    4.3497266    3734.2502    7792.1831   -4573.4557    7984.0233    4206.7896   -4969.1566   -644.57544    82.297358 
   75700     257.1867   -107.67013   0.23270793   -107.43743   -1664.7918    4.3605208    4.3605208    4.3605208   -1664.7918    3850.9578   -16121.352    7276.0193   -2348.8981    1284.7845    4283.9713    82.911563 
   75800    304.18146   -107.71173   0.27522978    -107.4365    3216.8021    4.3526541    4.3526541    4.3526541    3216.8021    3706.1241   -6769.2932    12713.575   -263.60248   -911.12441   -1969.5086    82.463636 
   75900    374.14746   -107.77559   0.33853648   -107.43705   -2163.6492    4.3563516    4.3563516    4.3563516   -2163.6492    5149.0671   -13133.265    1493.2507    2127.8904    2436.4888    3124.5356    82.673969 
   76000    177.17411   -107.60081   0.16031086   -107.44049    2888.5813    4.3563275    4.3563275    4.3563275    2888.5813    3085.6141   -11430.545    17010.674   -1937.4246   -1642.7385    1521.4905    82.672596 
   76100    423.83291   -107.82362   0.38349293   -107.44013    -4419.116    4.3527274    4.3527274    4.3527274    -4419.116    -3217.773   -6475.5779   -3563.9972   -691.39325      10109.4   -649.73853    82.467799 
   76200    176.81004   -107.60144   0.15998144   -107.44146    4680.2945     4.358412     4.358412     4.358412    4680.2945    9511.8876   -13097.143    17626.139     2012.149   -4958.1662    3035.7293    82.791327 
   76300    388.72356   -107.79191   0.35172525   -107.44019   -5847.7255    4.3530951    4.3530951    4.3530951   -5847.7255   -7069.5705    -5674.236     -4799.37   -3403.0321    8565.4871   -2091.3283      82.4887 
   76400    212.45713   -107.63289   0.19223568   -107.44065    5345.1025    4.3564032    4.3564032    4.3564032    5345.1025    16730.288   -9732.4073    9037.4269    1575.7915   -782.12877    701.91012    82.676903 
   76500    353.77565    -107.7596   0.32010364   -107.43949   -3243.6617    4.3556106    4.3556106    4.3556106   -3243.6617   -163.67405   -9976.0128    408.70187   -1978.8121   -121.18903    424.32257    82.631785 
   76600    265.58392   -107.67956   0.24030591   -107.43925   -63.774626    4.3558584    4.3558584    4.3558584   -63.774626    11377.559   -9231.0901   -2337.7923   -278.57142    1164.3234   -2407.7974    82.645891 
   76700     303.4988   -107.71161   0.27461209     -107.437    1800.1871    4.3548992    4.3548992    4.3548992    1800.1871    4689.9054   -9155.3044    9865.9604    2599.3325    158.50142    1600.4693    82.591301 
   76800     351.7826   -107.75445   0.31830029   -107.43615   -6276.8647    4.3576441    4.3576441    4.3576441   -6276.8647    2028.8581   -13700.167   -7159.2853   -2199.3859   -934.43778   -36.554126    82.747574 
   76900    205.94624   -107.62356   0.18634449   -107.43722    7440.7615    4.3533174    4.3533174    4.3533174    7440.7615    17814.714   -4495.6538    9003.2246    362.00619    5122.3509   -558.78624    82.501338 
   77000    428.87771   -107.82564   0.38805756   -107.43758    -5826.462    4.3570758    4.3570758    4.3570758    -5826.462   -1191.4427   -13040.466   -3247.4771    287.59591   -149.64623    2075.6858    82.715204 
   77100    200.73321   -107.62353   0.18162763    -107.4419    5596.4044    4.3545225    4.3545225    4.3545225    5596.4044    20394.251   -7596.1802    3991.1426   -2983.4535    4028.7485   -2880.1674    82.569873 
   77200    342.75095    -107.7526   0.31012826   -107.44247   -3405.7898    4.3556049    4.3556049    4.3556049   -3405.7898   -6294.4957   -7461.0028     3538.129    1783.9249    6761.4137    1803.0029    82.631461 
   77300    315.99222   -107.72778    0.2859164   -107.44186    1354.5725    4.3554422    4.3554422    4.3554422    1354.5725    14672.583   -10373.931   -234.93474   -3650.2705   -4274.5866   -354.56892    82.622199 
   77400    267.60603   -107.68365   0.24213556   -107.44151   -101.32509    4.3546766    4.3546766    4.3546766   -101.32509   -2282.3586   -4358.7585    6337.1418   -230.93625    8496.3958    56.436859    82.578642 
   77500    337.55199   -107.74466   0.30542413   -107.43924   -1739.7337    4.3565139    4.3565139    4.3565139   -1739.7337    3726.1814   -11378.837    2433.4546   -24.349445     -2842.63    351.25858    82.683204 
   77600    299.23425   -107.70896   0.27075344   -107.43821    2653.6504    4.3552612    4.3552612    4.3552612    2653.6504    7025.4063   -7555.6534    8491.1983   -3301.8174    1113.1581     632.5765    82.611902 
   77700    270.65993   -107.68335   0.24489879   -107.43846   -2868.2552    4.3550198    4.3550198    4.3550198   -2868.2552   -4960.2521   -6474.6727    2830.1593    1194.2803    2788.2092   -1657.3625    82.598168 
   77800    336.70062   -107.74091    0.3046538   -107.43626   -1170.0211    4.3572986    4.3572986    4.3572986   -1170.0211    3889.2007   -9404.2799     2005.016   -2075.4762    1782.9102    1313.8892    82.727895 
   77900    292.76652   -107.70168    0.2649013   -107.43678    564.56435    4.3540213    4.3540213    4.3540213    564.56435    1308.0824   -4855.6374    5241.2481   -64.148756   -676.87939   -908.50839    82.541367 
   78000    289.34933   -107.69955   0.26180935   -107.43774   -3322.3542    4.3567502    4.3567502    4.3567502   -3322.3542   -6759.3077   -5968.1855    2760.4307     633.8156    9079.9598    957.82032    82.696663 
   78100    290.22318   -107.70145   0.26260003   -107.43885    5274.4735    4.3553771    4.3553771    4.3553771    5274.4735    14763.493   -8758.0105    9817.9384   -1305.5201   -2995.0796    2734.8862    82.618499 
   78200    340.99269   -107.75021   0.30853735   -107.44167   -3576.8849    4.3536678    4.3536678    4.3536678   -3576.8849   -8945.6657   -3725.0739    1940.0849   -1361.0853      9462.34   -288.35656     82.52126 
   78300    194.56265   -107.61951   0.17604437   -107.44346    3294.6391    4.3579142    4.3579142    4.3579142    3294.6391    18773.124   -9616.0895     726.8831    1037.9424    1838.2048    1159.0352     82.76296 
   78400    459.29514    -107.8559    0.4155799   -107.44032   -1455.0476    4.3524096    4.3524096    4.3524096   -1455.0476   -1865.2355   -6007.4264    3507.5191   -2439.9259   -487.30131   -760.79955     82.44974 
   78500    154.14358   -107.58102   0.13947235   -107.44155   -739.11687    4.3590014    4.3590014    4.3590014   -739.11687     11097.17   -8580.0069   -4734.5141   -123.79394    8197.1873   -1872.0913    82.824919 
   78600     409.6296   -107.80804   0.37064147   -107.43739    887.53936    4.3524518    4.3524518    4.3524518    887.53936    6368.8698   -7199.1619    3492.9102   -172.99701   -1038.5369    218.00212    82.452137 
   78700    267.34987   -107.67951   0.24190379   -107.43761    2306.4512    4.3575719    4.3575719    4.3575719    2306.4512    10676.852   -8703.0221    4945.5239     -1140.22    2713.9861   -1364.1217    82.743463 
   78800    242.09228   -107.65735   0.21905018    -107.4383   -1694.5018    4.3555622    4.3555622    4.3555622   -1694.5018    7520.8464   -6668.3794   -5935.9724    870.19413    7485.9892   -1560.5359    82.629031 
   78900    403.34355   -107.80039   0.36495372   -107.43544    1836.8626    4.3545106    4.3545106    4.3545106    1836.8626    7412.7671   -7504.0835    5601.9042   -234.08672   -1045.0716     2427.416    82.569197 
   79000    206.28835   -107.62431   0.18665403   -107.43765   -1625.8061    4.3578387    4.3578387    4.3578387   -1625.8061    11349.094   -7110.0948    -9116.418   -1187.1469    5156.6067   -3422.7294    82.758661 
   79100    328.83192   -107.73518   0.29753403   -107.43764    -2635.389    4.3529956    4.3529956    4.3529956    -2635.389   -1782.2089   -3977.7994   -2146.1588    1858.8252    8970.6702    1704.9624    82.483047 
   79200    322.08221   -107.72938   0.29142675   -107.43795    1788.3941    4.3581495    4.3581495    4.3581495    1788.3941    14457.108   -13096.023    4004.0969   -2500.0977   -2389.5055    -317.9296    82.776367 
   79300    228.54907   -107.64829     0.206796    -107.4415   -3157.7983    4.3536322    4.3536322    4.3536322   -3157.7983   -2540.6845   -3453.0472   -3479.6632   -62.525447    12487.941   -1522.6396    82.519239 
   79400     355.5014   -107.76243   0.32166513   -107.44076   -2480.4487    4.3574326    4.3574326    4.3574326   -2480.4487    2745.8456   -13404.883    3217.6915   -1682.9437   -875.55311    4173.2931    82.735527 
   79500    315.61935   -107.72638   0.28557902    -107.4408   -640.40565    4.3539099    4.3539099    4.3539099   -640.40565    6998.1617   -6844.3179   -2075.0607   -1031.6443    3988.6565   -2762.8761    82.535029 
   79600    228.32374   -107.64793   0.20659212   -107.44134   -5598.0311    4.3574078    4.3574078    4.3574078   -5598.0311   -8174.7329   -8457.7097   -161.65075    358.53306    8540.3849    2422.5545    82.734113 
   79700    374.64781   -107.77622   0.33898921   -107.43723    1577.1793    4.3549687    4.3549687    4.3549687    1577.1793    12941.328   -11118.601    2908.8115   -102.04509   -1350.9917    129.15783    82.595259 
   79800    241.74449   -107.65698    0.2187355   -107.43824    -1895.069    4.3559229    4.3559229    4.3559229    -1895.069   -2617.3321   -5373.0186    2305.1439    1835.2136    6232.2855   -2172.5369    82.649561 
   79900    297.43854   -107.70665   0.26912864   -107.43752   -1230.6477    4.3565241    4.3565241    4.3565241   -1230.6477    7597.2984   -6701.4454    -4587.796   -312.55252    6478.9002     1233.707    82.683789 
   80000    350.18013   -107.75271   0.31685034   -107.43586    4051.2643    4.3548896    4.3548896    4.3548896    4051.2643    11431.351   -7957.4165    8679.8589     1771.773   -3522.9401   -744.38387     82.59076 
   80100    269.83646   -107.68217    0.2441537   -107.43801    -4219.894    4.3564372    4.3564372    4.3564372    -4219.894   -3359.1836   -4566.2536   -4734.2447   -1385.5712    11495.488    282.92765    82.678838 
   80200    231.82507   -107.64737   0.20976019   -107.43761    6863.1989    4.3562713    4.3562713    4.3562713    6863.1989    22215.888   -10628.948    9002.6571     128.6421    1986.8692    1818.9898    82.669394 
   80300    446.71012   -107.84162   0.40419271   -107.43742   -3331.2502     4.352825     4.352825     4.352825   -3331.2502   -2840.0569   -7569.8428    416.14918   -1024.6549    2304.7497   -600.20327    82.473345 
   80400    123.23729   -107.55397   0.11150769   -107.44246    444.24711    4.3598933    4.3598933    4.3598933    444.24711    19908.595   -10684.143   -7891.7109   -111.65691     9502.709    1087.4236    82.875772 
   80500    473.67119    -107.8691   0.42858765   -107.44052    3752.9537    4.3489789    4.3489789    4.3489789    3752.9537    9452.3695    -5414.458    7220.9496   -206.28734   -1311.5233   -5.6948785    82.254923 
   80600    231.36801   -107.65261   0.20934664   -107.44326   -6316.8274    4.3635766    4.3635766    4.3635766   -6316.8274    5406.1816   -16485.858   -7870.8052    341.80397    5788.1495    446.55426     83.08599 
   80700     260.2084   -107.67694   0.23544203    -107.4415    5486.5891    4.3475271    4.3475271    4.3475271    5486.5891    9717.0517    1716.7744    5025.9413    472.11299    7561.5737    1305.3063    82.172572 
   80800    404.30704   -107.80444    0.3658255   -107.43861   -4573.6392    4.3619012    4.3619012    4.3619012   -4573.6392    768.43102    -16611.42    2122.0718    814.35563   -1945.9554    623.64256    82.990326 
   80900    183.07715   -107.60502   0.16565205   -107.43937    778.87832    4.3528421    4.3528421    4.3528421    778.87832    6956.8412   -207.84515   -4412.3611   -653.59769    10821.293    1514.2793    82.474318 
   81000    383.29831    -107.7831   0.34681636   -107.43629   -3201.8325    4.3564785    4.3564785    4.3564785   -3201.8325    1923.0729   -8949.1368   -2579.4334    2040.1044    2375.6402   -318.81274    82.681193 
   81100    279.69082   -107.68906   0.25307013   -107.43599    1590.8702    4.3571384    4.3571384    4.3571384    1590.8702    8443.7534   -7656.7954    3985.6525   -1320.8196    3035.8856   -232.56736    82.718767 
   81200     244.0414   -107.65852   0.22081379    -107.4377   -6987.8601     4.354883     4.354883     4.354883   -6987.8601   -4962.5476   -6082.9809   -9918.0517    366.37259    14315.623   -1510.4243    82.590384 
   81300    367.45238   -107.76875   0.33247863   -107.43628    3441.7014    4.3559528    4.3559528    4.3559528    3441.7014    3545.9293   -8811.5562    15590.731   -1306.1885   -3831.2308     367.5525    82.651266 
   81400    243.63563   -107.65971   0.22044664   -107.43926   -5748.9324    4.3573878    4.3573878    4.3573878   -5748.9324    4762.1285   -10180.863   -11828.063   -791.10388    9564.8725   -1218.8381    82.732973 
   81500    330.24307   -107.73867   0.29881087   -107.43986   -1868.2531    4.3533092    4.3533092    4.3533092   -1868.2531   -4362.0718   -5881.3376      4638.65   -133.20079     5516.846    1039.0886    82.500874 
   81600    333.45057   -107.74098   0.30171308   -107.43926    1605.4061    4.3576242    4.3576242    4.3576242    1605.4061    19774.897   -10662.468     -4296.21   -183.37285   -2014.0488    323.73944    82.746442 
   81700    227.46533   -107.64776   0.20581541   -107.44195   -2735.5277    4.3530516    4.3530516    4.3530516   -2735.5277   -8378.2592   -4573.4663    4745.1425    240.07832    10735.752   -765.16905    82.486226 
   81800    335.74163   -107.74345   0.30378608   -107.43966   -525.50813    4.3598565    4.3598565    4.3598565   -525.50813    15432.654   -12995.322   -4013.8561    684.72376    96.058826    1208.0166    82.873671 
   81900    297.73304   -107.70884   0.26939511   -107.43945    4745.6997    4.3497364    4.3497364    4.3497364    4745.6997    6085.6415    322.67359    7828.7841    1480.2446    2271.8389   -1064.4201    82.297913 
   82000    282.37671   -107.69562   0.25550038   -107.44012   -11417.643    4.3623056    4.3623056    4.3623056   -11417.643   -3539.3593   -14048.673   -16664.898   -946.12994     10755.19    890.28406    83.013412 
   82100    338.96899   -107.74345   0.30670627   -107.43674    10920.798    4.3503693    4.3503693    4.3503693    10920.798    18640.134   -1458.4693     15580.73     2181.416   -3231.2124    798.74155    82.333839 
   82200    278.82174   -107.69034   0.25228377   -107.43806   -7263.8164    4.3586175    4.3586175    4.3586175   -7263.8164   -5701.4492   -8956.2106   -7133.7894   -969.91999    8170.5508    525.65039    82.803041 
   82300    244.83396   -107.65956   0.22153091   -107.43802    1409.8068    4.3571395    4.3571395    4.3571395    1409.8068    9064.8089    -9185.169    4349.7804    294.04289    5057.3918   -99.004343    82.718833 
   82400    403.95612   -107.80124   0.36550798   -107.43573    2939.4419    4.3516602    4.3516602    4.3516602    2939.4419    3752.8143   -3537.7366    8603.2481    -557.6468   -3508.0685    1139.0744    82.407157 
   82500    222.91148   -107.64065   0.20169499   -107.43896   -9435.6777    4.3611214    4.3611214    4.3611214   -9435.6777   -4502.8266   -10243.097   -13561.109   -326.93971     13213.79   -2000.4525    82.945827 
   82600    347.22264   -107.75159   0.31417434   -107.43742    4716.3265    4.3524269    4.3524269    4.3524269    4716.3265    3567.4207   -6688.4778    17270.037   -919.16436   -2173.1679    1223.4651    82.450722 
   82700    344.37991   -107.74935   0.31160218   -107.43774   -2861.1113    4.3568344    4.3568344    4.3568344   -2861.1113    3343.7523   -8369.2654   -3557.8207    1554.1851    2997.0734    539.91735    82.701455 
   82800    135.51474   -107.56369   0.12261659   -107.44107    630.31883    4.3566095    4.3566095    4.3566095    630.31883   -2775.4963   -5774.7504    10441.203   -302.31441    9679.3205    339.36359    82.688652 
   82900    512.14285   -107.90146   0.46339762   -107.43807   -2516.5714    4.3531216    4.3531216    4.3531216   -2516.5714    2005.5046   -9292.2098     -263.009    2060.2301   -2249.5834    2440.7613    82.490209 
   83000    124.97066    -107.5556   0.11307608   -107.44252    102.34967    4.3594937    4.3594937    4.3594937    102.34967    598.55298   -3982.3496    3690.8456    343.12957    6764.8935   -1377.4293    82.852987 
   83100    403.17334   -107.80534   0.36479971   -107.44054   -4898.1694    4.3525754    4.3525754    4.3525754   -4898.1694   -8138.7243   -5733.6548   -822.12893    613.31843    7996.5355    1531.9055    82.459159 
   83200     269.5712   -107.68331   0.24391369    -107.4394    8585.8508    4.3563212    4.3563212    4.3563212    8585.8508    16447.621   -6548.4762    15858.408   -362.28892   -4692.1293   -1519.0758    82.672238 
   83300    252.34996   -107.66846   0.22833155   -107.44013   -4642.7176    4.3570587    4.3570587    4.3570587   -4642.7176   -10291.453   -3725.0047    88.305105   -520.34187    9967.1179   -128.12026    82.714228 
   83400     334.4906   -107.73906   0.30265413    -107.4364    6195.3336    4.3540362    4.3540362    4.3540362    6195.3336     17095.02   -6152.6086     7643.589   -1034.3903     995.3412    266.64039    82.542214 
   83500    323.14907   -107.72875   0.29239207   -107.43636   -995.99879    4.3569943    4.3569943    4.3569943   -995.99879   -1449.6417   -6960.5401    5422.1855     466.5141     368.7704   -1301.3381    82.710564 
   83600    251.23217   -107.66538   0.22732015   -107.43806   -3048.8667    4.3558724    4.3558724    4.3558724   -3048.8667    -1551.801   -2948.6997   -4646.0993   -203.08239    12040.137    1141.7764    82.646688 
   83700    326.75015    -107.7317    0.2956504   -107.43605     7350.405    4.3552576    4.3552576    4.3552576     7350.405    14910.596   -9359.4274    16500.047   -597.31715   -5908.5435   -1432.2787    82.611694 
   83800     332.0161   -107.73848   0.30041514   -107.43807   -5259.8731    4.3557801    4.3557801    4.3557801   -5259.8731   -9102.9001   -3994.2711    -2682.448    1611.3048    8907.0442   -603.84912    82.641432 
   83900    164.46224   -107.58817   0.14880889   -107.43936    6607.0857    4.3574584    4.3574584    4.3574584    6607.0857     18213.02   -3740.4041    5348.6411     -88.1549    4466.8346    218.87673    82.736998 
   84000    532.78651   -107.91851   0.48207643   -107.43644   -3189.8673    4.3524241    4.3524241    4.3524241   -3189.8673   -2026.2675   -8147.2382    603.90365    1725.3127   -1670.5445   -906.93805    82.450564 
   84100    67.412015   -107.50377  0.060995808   -107.44278    4450.3959    4.3584248    4.3584248    4.3584248    4450.3959    11168.452   -3081.6158    5264.3515   -144.81966    9838.2203    2102.1168    82.792058 
   84200    443.62058   -107.84075   0.40139722   -107.43935   -3598.5166    4.3551041    4.3551041    4.3551041   -3598.5166   -5540.5911   -7517.6134    2262.6549    1260.1504    623.32925   -488.87661    82.602964 
   84300     235.6813   -107.65333    0.2132494   -107.44008    3084.3232    4.3552321    4.3552321    4.3552321    3084.3232    8751.1121   -8882.6922    9384.5497    348.84607   -537.14626    759.97775    82.610244 
   84400    270.11405   -107.68493   0.24440487   -107.44053   -5753.0329    4.3565953    4.3565953    4.3565953   -5753.0329   -5547.1729   -1659.4948   -10052.431    -84.24825    10187.918     714.2097    82.687844 
   84500    367.59935   -107.76935   0.33261162   -107.43674    1662.1274    4.3559437    4.3559437    4.3559437    1662.1274    4359.0526    -11327.34    11954.669   -1164.5175   -2851.1778   -1229.5977    82.650744 
   84600    263.68861    -107.6763   0.23859099   -107.43771   -1932.1585     4.355996     4.355996     4.355996   -1932.1585    645.89692   -6182.1078   -260.26468     770.9295    6021.3911    955.33763    82.653724 
   84700     274.0352   -107.68549   0.24795281   -107.43754    -1615.825    4.3566228    4.3566228    4.3566228    -1615.825   -5081.7577   -5619.2905    5853.5731   -2169.3737    6822.7521   -412.87377    82.689409 
   84800    321.82642   -107.72686   0.29119531   -107.43567    3196.7165     4.355333     4.355333     4.355333    3196.7165    7519.8919   -9185.9781    11256.236    544.65655   -3861.8297    76.714415    82.615987 
   84900    323.87183    -107.7307   0.29304603   -107.43765   -10274.611    4.3569706    4.3569706    4.3569706   -10274.611   -10946.078   -8164.1135    -11713.64   -98.233735    12523.677    540.90384    82.709215 
   85000     224.9038   -107.64115   0.20349769   -107.43765    6667.1618    4.3552783    4.3552783    4.3552783    6667.1618    7638.3008    -5524.989    17888.174    -951.8788    838.66492   -938.46223    82.612876 
   85100    439.56746   -107.83376   0.39772988   -107.43603   -8835.6359    4.3579968    4.3579968    4.3579968   -8835.6359   -7871.9491   -13510.512   -5124.4467    1751.9248     3268.894   -577.86343    82.767668 
   85200    96.627978   -107.52772  0.087431025   -107.44029    7735.8164    4.3528934    4.3528934    4.3528934    7735.8164     7035.338    -2556.184    18728.295   -1164.2613    9868.6723   -606.33506    82.477235 
   85300    452.39581   -107.84833   0.40933724   -107.43899   -5272.7397    4.3583215    4.3583215    4.3583215   -5272.7397    191.10228   -11301.896   -4707.4253    2200.2428   -3407.2302   -275.44385     82.78617 
   85400    260.43495   -107.67771   0.23564702   -107.44206    1238.1178    4.3543593    4.3543593    4.3543593    1238.1178    3326.2156   -7812.1582    8200.2961   -631.32191    5509.2665    1406.5582    82.560589 
   85500    280.97683   -107.69612   0.25423374   -107.44188   -1520.7612    4.3564736    4.3564736    4.3564736   -1520.7612    6592.1173   -5116.2655   -6038.1354    753.91702     5441.636   -209.87332    82.680913 
   85600    373.84518   -107.77672   0.33826297   -107.43845     1610.236    4.3560242    4.3560242    4.3560242     1610.236     1605.419   -10608.295    13833.584      227.138   -4142.9085    584.51848     82.65533 
   85700    195.27193   -107.61592   0.17668614   -107.43923    3835.1044    4.3546958    4.3546958    4.3546958    3835.1044    12356.024   -4437.3505    3586.6399   -601.79449    7508.9107    694.30685     82.57973 
   85800     366.2204    -107.7682   0.33136392   -107.43684   -3476.7374    4.3581687    4.3581687    4.3581687   -3476.7374    1105.7334   -11044.758   -491.18789   -695.17392    1258.0967   -1274.7136    82.777464 
   85900    298.95698   -107.70685   0.27050256   -107.43634    4748.5012    4.3543376    4.3543376    4.3543376    4748.5012    12960.803   -6398.0504    7682.7505    218.93766    381.78653    2343.2329    82.559354 
   86000    296.85449     -107.706   0.26860018    -107.4374   -6407.2073    4.3572215    4.3572215    4.3572215   -6407.2073    80.909481   -8912.8629   -10389.668   -897.95481     8843.003   -1455.1439      82.7235 
   86100    288.69499   -107.69753   0.26121729   -107.43631    2885.6558    4.3559022    4.3559022    4.3559022    2885.6558    3706.2478   -8949.3997    13900.119    956.69843   -1979.0822    1874.6443    82.648382 
   86200    316.39235   -107.72295   0.28627844   -107.43667   -1684.1292     4.355592     4.355592     4.355592   -1684.1292    9793.0138   -9366.8759   -5478.5253   -359.55263    4694.0801     1655.443    82.630725 
   86300    256.46568   -107.66945   0.23205554    -107.4374   -2734.8208    4.3578408    4.3578408    4.3578408   -2734.8208   -3483.1456   -7922.6321    3201.3154    1346.1444     4306.842   -838.35872    82.758779 
   86400    377.57079   -107.77805   0.34163399   -107.43642    1168.3156    4.3534929    4.3534929    4.3534929    1168.3156     16151.07   -9808.7125   -2837.4109    99.539302   -1347.6528    3078.0952    82.511317 
   86500    261.70347   -107.67697    0.2367948   -107.44017   -5119.8487    4.3579283    4.3579283    4.3579283   -5119.8487   -9172.0252   -7654.4008    1466.8799    601.40341    6372.2921   -1170.2404    82.763765 
   86600    268.81098    -107.6843   0.24322582   -107.44107    1271.3212    4.3538335    4.3538335    4.3538335    1271.3212    10027.759   -9984.0445     3770.249   -1714.9469    294.79395    1599.3895    82.530686 
   86700    334.01667   -107.74209    0.3022253   -107.43986   -4345.9224    4.3593152    4.3593152    4.3593152   -4345.9224    -4579.818   -13558.464    5100.5143    1055.2315   -865.85017   -137.99588    82.842809 
   86800    236.32389   -107.65417   0.21383082   -107.44034    -295.9631    4.3517484    4.3517484    4.3517484    -295.9631     5536.624   -3714.0931   -2710.4202   -2486.9159    7817.3949   -7.6192252    82.412168 
   86900    369.53782    -107.7719   0.33436559   -107.43753   -4947.4713    4.3607075    4.3607075    4.3607075   -4947.4713   -2043.2163   -15187.184    2387.9868   -316.54231   -1367.3671    554.29422    82.922211 
   87000     281.7189   -107.69217   0.25490518   -107.43727    3091.1672    4.3524541    4.3524541    4.3524541    3091.1672    11646.321   -6577.0549    4204.2351     434.5691    3465.9668   -1762.4953    82.452265 
   87100    251.32111   -107.66533   0.22740062   -107.43793   -1866.3835    4.3577296    4.3577296    4.3577296   -1866.3835   -3030.8233   -7174.9477    4606.6203   -2242.8581    5573.0296    722.38185    82.752447 
   87200    363.81008   -107.76478     0.329183    -107.4356    1404.9873    4.3573057    4.3573057    4.3573057    1404.9873    8078.3058   -14486.009    10622.665    1932.2696   -2980.4903    -1635.014    82.728296 
   87300    244.84669   -107.65855   0.22154243   -107.43701      1446.84    4.3526585    4.3526585    4.3526585      1446.84    7160.3013   -449.49137     -2370.29   -1219.0466    8484.8605     303.6763    82.463886 
   87400    342.77631   -107.74662   0.31015121   -107.43647   -4935.3486    4.3601879    4.3601879    4.3601879   -4935.3486   -3049.2569   -13743.814    1987.0252     1633.579    1713.9518   -407.76563    82.892572 
   87500    313.29602   -107.71889   0.28347682   -107.43541    4810.0539    4.3543073    4.3543073    4.3543073    4810.0539    21756.606   -8480.6434    1154.1989    820.13399    2161.4937   -264.29858    82.557632 
   87600    246.37792   -107.66126   0.22292792   -107.43833    1437.8495    4.3546697    4.3546697    4.3546697    1437.8495   -929.73436   -4284.4607    9527.7434    312.65332    6409.5849    981.23698    82.578245 
   87700    358.76676   -107.76362   0.32461971     -107.439   -507.23542    4.3586829    4.3586829    4.3586829   -507.23542    12231.047   -14159.243    406.49048    1701.5555    -1559.365   -807.95909    82.806768 
   87800     264.2743   -107.67976   0.23912094   -107.44064    8648.7433     4.351185     4.351185     4.351185    8648.7433    14102.165   -2772.7111    14616.776   -789.69043     3498.286    2260.6974    82.380165 
   87900    334.66074   -107.74346   0.30280807   -107.44065    -10113.84    4.3618285    4.3618285    4.3618285    -10113.84   -7428.8975   -11833.704   -11078.918   -523.46402    4076.0606   -5.1728549    82.986178 
   88000    287.92908   -107.69901   0.26052428   -107.43848    11359.483    4.3495016    4.3495016    4.3495016    11359.483    23943.832   -1795.2493    11929.868   -19.999895   -2114.2999    779.18062    82.284587 
   88100    328.21076   -107.73529   0.29697199   -107.43831   -7612.4321    4.3613796    4.3613796    4.3613796   -7612.4321   -9031.8068   -12584.254   -1221.2351   -2097.6156    4111.4917    1414.5442    82.960559 
   88200    222.75858   -107.63982   0.20155665   -107.43827    6259.1283    4.3524593    4.3524593    4.3524593    6259.1283    12711.708   -186.86689    6252.5435    383.18675    2230.1955    237.23338     82.45256 
   88300    388.32421   -107.78761    0.3513639   -107.43625   -1521.1393    4.3571564    4.3571564    4.3571564   -1521.1393    1802.2881   -12854.394    6488.6882   -1510.1667   -521.06383    1748.5553    82.719796 
   88400    234.25634    -107.6501   0.21196006   -107.43814   -2979.8374    4.3579543    4.3579543    4.3579543   -2979.8374   -2818.3984   -4677.4613   -1443.6525    1152.9888    6187.7545    640.95332    82.765246 
   88500    326.15295   -107.73171   0.29511004    -107.4366    2658.9085    4.3525857    4.3525857    4.3525857    2658.9085    8813.4146   -4764.6892    3927.9999    -756.7066    1282.5749    432.91405    82.459747 
   88600    362.82863   -107.76448   0.32829497   -107.43618   -4711.4644     4.360108     4.360108     4.360108   -4711.4644   -7183.8696   -12507.782    5557.2585    1214.7423    1627.9046    471.46886    82.888016 
   88700    147.23563   -107.57231   0.13322189   -107.43909    4639.2142    4.3524516    4.3524516    4.3524516    4639.2142     11168.37   -121.43062    2870.7034     354.1322    5843.5903   -507.77676    82.452127 
   88800    450.75521   -107.84496   0.40785278   -107.43711    -5922.094    4.3591246    4.3591246    4.3591246    -5922.094   -7039.7028   -13480.368    2753.7889    571.79131   -450.92525   -232.74927    82.831946 
   88900    200.73187   -107.62305   0.18162641   -107.44143    5264.8252    4.3524669    4.3524669    4.3524669    5264.8252    15382.909   -2029.3189    2440.8854    257.23561    7215.9377    -309.6239    82.452996 
   89000    332.99238   -107.74331    0.3012985   -107.44202   -6402.1116    4.3575925    4.3575925    4.3575925   -6402.1116   -4261.8419   -8600.9246   -6343.5683   -876.63915    2112.4135    -855.8688    82.744638 
   89100    334.67166   -107.74196   0.30281795   -107.43914    3577.5083    4.3572449    4.3572449    4.3572449    3577.5083    11682.094   -9622.2507     8672.682    823.16835   -169.93925   -63.868301    82.724832 
   89200    230.87762   -107.64869   0.20890292   -107.43979    1390.0477    4.3519027    4.3519027    4.3519027    1390.0477    4478.7966   -2925.3052    2616.6516   -1769.9451    4824.4682     160.7984    82.420932 
   89300    329.43455   -107.73621    0.2980793   -107.43814   -3623.2964    4.3608861    4.3608861    4.3608861   -3623.2964    5030.4005   -13785.037   -2115.2526    634.24494   -875.55178   -1430.4582    82.932398 
   89400    322.45975   -107.72908   0.29176836   -107.43731    6209.2489    4.3520225    4.3520225    4.3520225    6209.2489    12119.184   -2668.1739    9176.7365   -299.15568    1035.4322      1544.47    82.427739 
   89500    282.90714   -107.69536   0.25598033   -107.43938   -6516.8326    4.3568749    4.3568749    4.3568749   -6516.8326   -475.38362    -10318.44   -8756.6736    70.721197    3501.0698    -1952.556    82.703764 
   89600    296.66989   -107.70599   0.26843315   -107.43756    2906.6132     4.359607     4.359607     4.359607    2906.6132    6268.2623   -10033.497    12485.074    750.49933   -1601.9737    1676.3659    82.859444 
   89700    343.05978    -107.7471    0.3104077    -107.4367    1902.8283    4.3500375    4.3500375    4.3500375    1902.8283    2819.5637   -3296.3249    6185.2461    497.52515    3300.7083    686.46154    82.315006 
   89800    201.28326   -107.62058   0.18212533   -107.43845   -3996.4211    4.3625191    4.3625191    4.3625191   -3996.4211    1142.3532   -14158.591    1026.9749    374.34153    2615.6614   -781.81636    83.025599 
   89900    443.85451    -107.8367   0.40160889   -107.43509    4652.8477    4.3506825    4.3506825    4.3506825    4652.8477    6981.6685   -5359.7434    12336.618    1192.1384    1431.4645    3487.8978    82.351626 
   90000    217.99583   -107.63678   0.19724721   -107.43954   -4569.4489    4.3601019    4.3601019    4.3601019   -4569.4489    1800.0484   -11544.737   -3963.6584    -1504.309    3914.1834   -2278.1539    82.887668 
   90100    308.07208   -107.71898   0.27875009   -107.44023    1583.7418    4.3530169    4.3530169    4.3530169    1583.7418    1294.5817   -9834.6953    13291.339    2042.0043     1460.796    2221.6462    82.484256 
   90200    384.91755   -107.78704   0.34828149   -107.43876   -1024.7507    4.3576813    4.3576813    4.3576813   -1024.7507   -285.30942   -9273.8446    6484.9018   -1466.5997     832.0688   -231.15039    82.749692 
   90300    151.94899   -107.57839   0.13748664   -107.44091   -618.33062    4.3549538    4.3549538    4.3549538   -618.33062   -1737.9268   -9921.7083    9804.6433    640.86086    3227.9981   -1644.0249     82.59441 
   90400    470.99789   -107.86361   0.42616879   -107.43744   -6647.5642    4.3574786    4.3574786    4.3574786   -6647.5642   -7769.9064   -12744.825    572.03888   -933.45795   -240.83783    2398.4644    82.738147 
   90500    178.67828   -107.60163   0.16167186   -107.43996    8366.6414    4.3543298    4.3543298    4.3543298    8366.6414    13823.708   -5661.8398    16938.056    406.59608   -969.26066   -3665.4732    82.558913 
   90600     341.4324   -107.74986   0.30893521   -107.44093   -12783.895     4.358272     4.358272     4.358272   -12783.895   -15820.796   -15451.845   -7079.0436   -1060.2076    3355.0402    1249.2888    82.783348 
   90700     297.3614   -107.70755   0.26905884   -107.43849     10946.52    4.3536393    4.3536393    4.3536393     10946.52    18177.029    -5382.098    20044.628    234.32771   -3168.0609   -2517.0812    82.519644 
   90800    305.30465   -107.71528   0.27624606   -107.43903   -12193.769    4.3599127    4.3599127    4.3599127   -12193.769    -15121.04   -14382.255   -7078.0111    491.59533    5071.6225   -2153.3781    82.876878 
   90900    248.10596    -107.6624   0.22449149   -107.43791    3012.7644    4.3521912    4.3521912    4.3521912    3012.7644    6574.5442   -4923.2864    7387.0355    666.06788    1418.7778    1186.2362    82.437324 
   91000     397.0334   -107.79444   0.35924417   -107.43519   -4318.7076    4.3608865    4.3608865    4.3608865   -4318.7076   -115.49249   -14970.875    2130.2445    1292.3298   -1083.8169   -3189.6088    82.932421 
   91100    185.78188   -107.60691   0.16809935   -107.43881   -716.66452    4.3515073    4.3515073    4.3515073   -716.66452    -1889.684   -2764.5292    2504.2197    572.40218     5265.606     2368.823    82.398472 
   91200    324.45079   -107.73189    0.2935699   -107.43832   -964.44708    4.3604103    4.3604103    4.3604103   -964.44708    9282.3728   -14771.442    2595.7276    1272.0423    -339.2152   -1340.9561    82.905258 
   91300    386.12207   -107.78787   0.34937136    -107.4385   -3056.8125    4.3532472    4.3532472    4.3532472   -3056.8125   -1156.0206   -6354.6305   -1659.7865    -852.4099    1378.1077   -60.767046     82.49735 
   91400    112.07734   -107.54249   0.10140994   -107.44108    176.41884     4.357732     4.357732     4.357732    176.41884    12248.622   -9436.5686   -2282.7972     256.2268    783.72077    748.55306    82.752579 
   91500    537.15031   -107.92264   0.48602489   -107.43662   -4453.3923    4.3550743    4.3550743    4.3550743   -4453.3923    -3438.572   -11856.405       1934.8   -702.12443   -588.12198   -934.03023    82.601269 
   91600    78.692818   -107.51335  0.071202916   -107.44214    5206.0378    4.3564908    4.3564908    4.3564908    5206.0378    15194.588   -9459.5018    9883.0273   -1377.8073   -3970.6756    2089.0722    82.681894 
   91700    387.98308   -107.79325   0.35105524   -107.44219   -6613.2217    4.3545881    4.3545881    4.3545881   -6613.2217   -7830.5822   -8842.2663   -3166.8165    750.26399     4660.726   -201.80653    82.573607 
   91800    310.61484   -107.72239   0.28105083   -107.44134    2610.2864    4.3584981    4.3584981    4.3584981    2610.2864    11858.001   -13831.955    9804.8127   -692.51446   -2973.9076    1468.6329    82.796233 
   91900    244.58371   -107.66338   0.22130448   -107.44208   -3941.4961    4.3529892    4.3529892    4.3529892   -3941.4961   -3701.7686   -4097.4225    -4025.297    26.314256    3897.3925    -1033.329    82.482681 
   92000    321.11948   -107.72946   0.29055566    -107.4389   -1139.9498    4.3596387    4.3596387    4.3596387   -1139.9498    -1867.214   -14443.401    12890.766     2453.375    2289.6398   -257.51537    82.861255 
   92100    312.96199   -107.72021   0.28317459   -107.43703    702.62414     4.354417     4.354417     4.354417    702.62414    5062.3073   -7319.1851    4364.7502    -1627.137   -1591.9438   -281.72685    82.563869 
   92200    243.33073   -107.65847   0.22017076    -107.4383   -5741.6366    4.3566351    4.3566351    4.3566351   -5741.6366   -11316.186   -11649.034    5740.3102    3588.2422     5914.153   -1421.0683    82.690109 
   92300    339.52342   -107.74274   0.30720793   -107.43553    3749.6664    4.3577412    4.3577412    4.3577412    3749.6664    11375.341   -8783.4879     8657.146   -168.52838   -632.15564    138.49391    82.753107 
   92400    350.95593   -107.75432    0.3175523   -107.43676   -6995.0524    4.3551308    4.3551308    4.3551308   -6995.0524   -8222.2288   -14214.312    1451.3836    734.31649    446.38028   -755.78474    82.604481 
   92500    161.48118   -107.58505   0.14611157   -107.43894    5133.3553    4.3565154    4.3565154    4.3565154    5133.3553    6983.1611   -6808.6483    15225.553    1851.4668    4472.9674   -1753.0952    82.683291 
   92600    483.06731   -107.87308   0.43708946   -107.43599   -7076.6268    4.3584856    4.3584856    4.3584856   -7076.6268   -4275.4414   -14939.761   -2014.6785   -1177.6561   -2385.9608   -76.184871     82.79552 
   92700     146.7108   -107.57295   0.13274701    -107.4402    5355.8684    4.3514173    4.3514173    4.3514173    5355.8684    3912.0665   -6817.8341    18973.373    717.48962    1803.9873   -2154.5873    82.393355 
   92800    392.55364   -107.79482   0.35519078   -107.43963   -7484.5831    4.3622474    4.3622474    4.3622474   -7484.5831   -2071.3564   -11951.496    -8430.897   -882.31424    2955.0995   -705.46977    83.010089 
   92900    317.25233   -107.72657   0.28705658   -107.43952    6467.8386    4.3503967    4.3503967    4.3503967    6467.8386    6020.9532   -7246.7895    20629.352    279.01774   -2497.8949    604.06047    82.335396 
   93000    193.92512   -107.61726   0.17546752   -107.44179   -1855.3651    4.3601958    4.3601958    4.3601958   -1855.3651    7422.5859   -9527.9493    -3460.732   -544.60882    3409.1823   -838.96218    82.893024 
   93100    411.03989   -107.80969   0.37191753   -107.43777    1929.5257    4.3541029    4.3541029    4.3541029    1929.5257    2347.5795   -6699.9661    10140.964     -377.126    2696.2561    1461.7696    82.546009 
   93200    224.83411   -107.64236   0.20343463   -107.43892     4071.826    4.3557711    4.3557711    4.3557711     4071.826    13618.538   -8299.3349     6896.275  -0.13917894   -1351.2341    134.83941     82.64092 
   93300    346.26024   -107.75176   0.31330354   -107.43846   -6624.0425     4.358394     4.358394     4.358394   -6624.0425   -5610.3101    -10167.97   -4093.8476    1420.7771    6280.5529   -683.73593    82.790304 
   93400    275.82675   -107.68657   0.24957384     -107.437    9030.4875    4.3538629    4.3538629    4.3538629    9030.4875    13477.116    -6180.289    19794.636   -908.50245   -1592.2806    1547.4803    82.532356 
   93500    322.83097   -107.73038   0.29210425   -107.43828   -7747.1059    4.3587979    4.3587979    4.3587979   -7747.1059   -2244.5973   -13144.667   -7852.0533    1585.4743    1177.5852   -815.04236    82.813319 
   93600    256.40844   -107.66996   0.23200374   -107.43795    5346.2211    4.3537902    4.3537902    4.3537902    5346.2211    7998.1301    -4585.386    12625.919    -7.876423    4213.8491    2209.9688    82.528224 
   93700     387.9938   -107.78733   0.35106494   -107.43627   -2241.0171    4.3584014    4.3584014    4.3584014   -2241.0171    9822.9917   -10798.559   -5747.4836    372.82174   -2266.5668    629.82192    82.790724 
   93800    240.97404    -107.6563   0.21803838   -107.43826   -3225.5694    4.3564867    4.3564867    4.3564867   -3225.5694   -4107.5679   -9241.4546    3672.3143   -616.68655     4342.698    -1178.986    82.681657 
   93900    266.01733   -107.67866   0.24069807   -107.43796    7120.0135    4.3535628    4.3535628    4.3535628    7120.0135        20239   -2968.1857    4089.2257   -289.55602    1078.4119     1435.038    82.515293 
   94000    388.79168   -107.79123   0.35178688   -107.43945   -10735.869    4.3606827    4.3606827    4.3606827   -10735.869   -14295.226   -15504.254   -2408.1281   -2142.3757    471.48855   -2787.2867    82.920793 
   94100    168.88207   -107.59566   0.15280805   -107.44286    5893.8354    4.3495519    4.3495519    4.3495519    5893.8354     13068.08   -1837.2341    6450.6608     3080.597    8116.6517    604.96872    82.287439 
   94200    425.55992    -107.8255   0.38505556   -107.44045   -10119.939    4.3641165    4.3641165    4.3641165   -10119.939   -2788.8207   -17566.919   -10004.078   -2737.5291   -1127.6057   -247.60673    83.116837 
   94300    217.23871   -107.63773   0.19656215   -107.44117    5275.6616    4.3485157    4.3485157    4.3485157    5275.6616    5786.3011   -3875.4689    13916.152    2514.1038    3789.0759   -1299.8202    82.228646 
   94400    295.71763   -107.70733   0.26757153   -107.43976   -9354.8896    4.3630077    4.3630077    4.3630077   -9354.8896    2075.7056   -14932.656   -15207.718   -294.98986    5296.0798    981.20425    83.053498 
   94500    372.62916   -107.77442   0.33716269   -107.43726    6105.3652    4.3502575    4.3502575    4.3502575    6105.3652    5672.3896   -7187.7498    19831.456   -665.23809   -2517.3804   -2300.0077    82.327491 
   94600    210.57062   -107.62978   0.19052872   -107.43925   -6896.3985    4.3620669    4.3620669    4.3620669   -6896.3985    3750.8997   -13615.939   -10824.156     657.9675    6915.5889    -163.2552    82.999785 
   94700     376.8062   -107.77805   0.34094217    -107.4371    2709.2551    4.3518735    4.3518735    4.3518735    2709.2551    6729.3833   -6661.7188    8060.1008   -562.23639    2351.6838    -418.4898    82.419277 
   94800    273.89304   -107.68504   0.24782418   -107.43722    1124.6256    4.3591323    4.3591323    4.3591323    1124.6256    9971.0162   -10989.543    4392.4036   -323.59124   -1671.4958   -87.999934    82.832381 
   94900    268.97663   -107.68107   0.24337571   -107.43769   -2380.3602    4.3554361    4.3554361    4.3554361   -2380.3602    3379.7629   -6497.0661   -4023.7772    -146.0514    6212.4935    1363.1689    82.621857 
   95000    336.20887   -107.73992   0.30420885   -107.43571    3292.8307    4.3560213    4.3560213    4.3560213    3292.8307    7195.7146   -9024.9962    11707.774   -2071.3793   -815.38236    973.31965    82.655162 
   95100    256.19867   -107.66934   0.23181394   -107.43753   -745.00062    4.3577835    4.3577835    4.3577835   -745.00062    14233.578    -9637.058   -6831.5217   -1054.3112    1366.3838   -112.02002    82.755519 
   95200    314.76526   -107.72406   0.28480622   -107.43926   -2920.9033    4.3546431    4.3546431    4.3546431   -2920.9033   -6014.6943   -7991.3892    5243.3736    254.01537    4630.1393    901.01457    82.576732 
   95300    318.04191   -107.72733   0.28777101   -107.43956    5746.3155    4.3560806    4.3560806    4.3560806    5746.3155    24075.178   -10046.672    3210.4405    421.07505   -1136.7042   -1014.2632    82.658538 
   95400    297.98956   -107.71073   0.26962721    -107.4411   -7520.2165    4.3583751    4.3583751    4.3583751   -7520.2165   -12620.508   -11627.789    1687.6474    602.72562    4558.3003    895.81031    82.789225 
   95500    260.06015   -107.67547   0.23530789   -107.44016    5920.5379    4.3527811    4.3527811    4.3527811    5920.5379    17673.338   -7558.7369    7647.0124    928.97184     5135.825    850.76774     82.47085 
   95600     388.2823   -107.79037   0.35132598   -107.43904   -6623.5088    4.3598346    4.3598346    4.3598346   -6623.5088   -3671.3281   -13423.092   -2776.1064   -741.09798   -729.26248   -210.84305    82.872424 
   95700    234.72949   -107.65361   0.21238817   -107.44122   -1352.5303    4.3533878    4.3533878    4.3533878   -1352.5303     262.2505   -7071.1593    2751.3181    327.70368    8354.2272    2385.9421    82.505342 
   95800    329.12536   -107.73727   0.29779954   -107.43947     607.9491    4.3579745    4.3579745    4.3579745     607.9491    9416.8326    -9719.623    2126.6377   -1587.2797    134.76934   -1219.1093    82.766397 
   95900    322.79875   -107.73123   0.29207509   -107.43915   -2946.9991     4.355801     4.355801     4.355801   -2946.9991   -5285.0112   -9102.2634    5546.2771   -463.93914     2477.905    792.98802    82.642621 
   96000    181.29687   -107.60312   0.16404122   -107.43908    3759.3977    4.3565027    4.3565027    4.3565027    3759.3977    10514.528   -4851.3349    5615.0003    1172.0818    7146.5935   -363.78228    82.682568 
   96100    446.03403   -107.83925   0.40358096   -107.43567   -3691.7739    4.3569874    4.3569874    4.3569874   -3691.7739     259.5535   -12092.144    757.26836   -2824.3079    -2566.868   -609.67969     82.71017 
   96200    183.52768    -107.6049    0.1660597   -107.43884     2688.998    4.3547419    4.3547419    4.3547419     2688.998    5203.1255   -4999.3845    7863.2528    1307.4405     4944.449    2188.0669    82.582353 
   96300    367.08971   -107.77029   0.33215048   -107.43814    -5270.263    4.3584622    4.3584622    4.3584622    -5270.263    2179.3577   -12695.496   -5294.6505   -1953.8866    2055.6233    -1266.971    82.794188 
   96400    296.51925   -107.70571   0.26829685   -107.43741    4095.1438    4.3549102    4.3549102    4.3549102    4095.1438    8347.3897   -9952.4213    13890.463    325.96095    467.35687    468.98702    82.591929 
   96500    247.91463   -107.66315   0.22431837   -107.43883   -3748.8519     4.357068     4.357068     4.357068   -3748.8519    3689.5702   -7417.7586   -7518.3672     630.1647    4915.1012   -596.41173    82.714757 
   96600    375.58717   -107.77651   0.33983917   -107.43667    1169.9937     4.355845     4.355845     4.355845    1169.9937    6838.8537   -11760.608    8431.7358    -563.1786    1690.6025   -1585.9268    82.645125 
   96700    250.82385   -107.66456   0.22695069   -107.43761    1417.0082    4.3573967    4.3573967    4.3573967    1417.0082    9458.9451   -8711.8585     3503.938    1698.4601    298.83118    2378.3166     82.73348 
   96800    324.87935   -107.73183   0.29395766   -107.43787   -3118.8396    4.3548389    4.3548389    4.3548389   -3118.8396    -3108.513   -5611.6572   -636.34854    350.44214    7647.0331   -1926.5814    82.587872 
   96900    267.26244    -107.6789   0.24182467   -107.43707     5940.309    4.3583682    4.3583682    4.3583682     5940.309    15058.848   -11794.847    14556.925     -786.439   -2099.8848    2347.4196    82.788833 
   97000     360.1208   -107.76391   0.32584487   -107.43806   -5867.3205    4.3545076    4.3545076    4.3545076   -5867.3205   -5908.5003   -4358.6483   -7334.8129    -48.87542    5164.1333   -123.09224    82.569023 
   97100    181.52118   -107.60365   0.16424418   -107.43941    5701.1146    4.3570911    4.3570911    4.3570911    5701.1146    12112.181    -9183.021    14174.184   -1775.6091    3938.0695   -2044.6802    82.716076 
   97200    456.86623   -107.85046   0.41338216   -107.43708    -4896.316    4.3565386    4.3565386    4.3565386    -4896.316   -1479.4678   -12435.486   -773.99478   -1279.7084   -3526.9004    2539.2671    82.684612 
   97300     159.7549   -107.58445   0.14454959    -107.4399    1855.3534    4.3562001    4.3562001    4.3562001    1855.3534    2883.8325   -7070.5984    9752.8262     88.09712    6838.4213    -3653.544    82.665339 
   97400    374.27437   -107.77622   0.33865131   -107.43757   -2055.6149    4.3559804    4.3559804    4.3559804   -2055.6149    391.03266   -9951.2291    3393.3517   -2654.8382    1202.5417    1573.9695    82.652833 
   97500    335.62954    -107.7409   0.30368467   -107.43721   -3342.6303    4.3578039    4.3578039    4.3578039   -3342.6303   -1985.8927    -13955.53     5913.532    275.36696   -304.99232   -665.62802    82.756678 
   97600    193.47384   -107.61364   0.17505919   -107.43858    1703.6012    4.3543082    4.3543082    4.3543082    1703.6012      2327.92   -3343.8338    6126.7174   -1199.9556    8498.2957   -2366.6192    82.557683 
   97700    434.00269    -107.8285   0.39269476   -107.43581   -6522.1656     4.359915     4.359915     4.359915   -6522.1656   -6927.5095    -14757.22    2118.2331    76.916482   -1323.9939    642.87106    82.877008 
   97800    171.19548    -107.5929   0.15490127     -107.438    7711.3149    4.3527844    4.3527844    4.3527844    7711.3149    8533.7677   -4494.6216    19094.799    126.41934    5476.7881   -3061.5793     82.47104 
   97900    367.12562   -107.77027   0.33218298   -107.43808   -10069.419    4.3590343    4.3590343    4.3590343   -10069.419   -13601.845   -6841.9337   -9764.4791    742.71651    7406.8026    67.280811    82.826796 
   98000     254.6821   -107.66794   0.23044172    -107.4375    7961.8437    4.3551688    4.3551688    4.3551688    7961.8437    10413.133   -11992.242     25464.64   -809.42528   -1831.7576    1135.2623    82.606643 
   98100     342.0205   -107.74764   0.30946734   -107.43817    -8609.624    4.3570993    4.3570993    4.3570993    -8609.624   -13421.872   -5788.5593   -6618.4406    1802.0549    7256.3352   -729.50447    82.716545 
   98200    228.28778   -107.64522   0.20655958   -107.43867    4204.8689    4.3558375    4.3558375    4.3558375    4204.8689    3978.2638   -9506.6779    18143.021   -1616.7303    1207.4961    2004.8345    82.644701 
   98300    407.54472   -107.80597   0.36875503   -107.43721   -3628.1099    4.3570381    4.3570381    4.3570381   -3628.1099    -5596.502   -11780.346    6492.5187   -649.61381   -69.034392   -170.80014    82.713059 
   98400    215.51263   -107.63504   0.19500035   -107.44004    951.49273    4.3546678    4.3546678    4.3546678    951.49273    820.40669   -4722.0022    6756.0737    158.36175    7626.6981    -760.7434    82.578141 
   98500    340.74829   -107.74683   0.30831622   -107.43851   -939.94428    4.3593821    4.3593821    4.3593821   -939.94428   -1153.8533   -13911.956    12245.977   -2338.0981   -3297.7038    1897.1723    82.846622 
   98600    323.49849   -107.73101   0.29270823   -107.43831    705.11702      4.35337      4.35337      4.35337    705.11702    3040.2693   -5531.3294    4606.4112    1374.5371    7144.3586   -806.09179     82.50433 
   98700      220.397   -107.63891   0.19941984   -107.43949   -887.05425    4.3577599    4.3577599    4.3577599   -887.05425   -6413.6139   -6250.5654    10003.017   -1534.9999    4732.6437    945.59014    82.754171 
   98800    396.92844   -107.79581   0.35914919   -107.43666   -2197.5045    4.3577902    4.3577902    4.3577902   -2197.5045   -142.52195   -10461.178     4011.186   -395.25152    230.73414    129.23756    82.755899 
   98900     234.3962   -107.65024   0.21208661   -107.43816    4124.3734    4.3525043    4.3525043    4.3525043    4124.3734    1939.1694   -1678.3872    12112.338    257.50102     8872.763   -151.31677    82.455117 
   99000    295.76824    -107.7059   0.26761732   -107.43829   -3583.1468    4.3616458    4.3616458    4.3616458   -3583.1468   -8385.1725   -10949.776    8585.5076   -1985.4773     14.24406   -378.75222    82.975749 
   99100    328.28594   -107.73419   0.29704002   -107.43715    7710.7186    4.3511115    4.3511115    4.3511115    7710.7186    13369.459   -3772.2577    13534.954    383.14865    3170.7171    1031.6807    82.375989 
   99200    310.05587   -107.71924   0.28054506   -107.43869   -5855.5308     4.359443     4.359443     4.359443   -5855.5308   -12840.132   -8494.6931    3768.2327    217.47012    4420.4374   -28.727152    82.850096 
   99300    255.80032   -107.66965   0.23145351    -107.4382    4637.5895    4.3564589    4.3564589    4.3564589    4637.5895    12593.598   -8884.9212    10204.091   -2067.4809   -48.689751    2364.5222    82.680078 
   99400    422.42686   -107.81877    0.3822207   -107.43655   -2191.1866    4.3540762    4.3540762    4.3540762   -2191.1866   -6990.9956   -6798.9681     7216.404    2154.5354    554.12036   -1255.5356    82.544486 
   99500    123.81192   -107.55209   0.11202763   -107.44006     3163.831    4.3597083    4.3597083    4.3597083     3163.831    7916.6926   -8580.9519    10155.752   -3371.6268     2975.634   -399.92961    82.865221 
   99600    459.13741   -107.85404   0.41543718    -107.4386   -2022.5084    4.3518509    4.3518509    4.3518509   -2022.5084   -2034.0884   -5303.4255    1269.9886    150.11154   -4107.1055    -1591.897    82.417989 
   99700    196.53751   -107.61843   0.17783127    -107.4406    3839.0257    4.3610328    4.3610328    4.3610328    3839.0257     5358.607   -9456.7841    15615.254   -712.42947    8311.9689    378.45115    82.940769 
   99800    345.44088   -107.75231   0.31256217   -107.43975   -4360.5881     4.353332     4.353332     4.353332   -4360.5881   -5492.1294    -3612.606   -3977.0289   -1962.8545   -1074.6795   -214.92949    82.502168 
   99900    273.06647   -107.68557   0.24707628    -107.4385    7206.1314    4.3564823    4.3564823    4.3564823    7206.1314    5746.2564   -6493.3684    22365.506    1299.2927    1735.9891    2162.4953    82.681408 
  100000    310.82902   -107.71846   0.28124463   -107.43721   -6339.7198    4.3593947    4.3593947    4.3593947   -6339.7198   -5853.3357   -9085.8443   -4079.9793   -1974.3384    6930.4016    819.69057    82.847341 
Loop time of 21.6871 on 1 procs for 100000 steps with 8 atoms

Pair  time (%) = 6.64697 (30.6494)
Kspce time (%) = 5.32119 (24.5362)
Neigh time (%) = 0 (0)
Comm  time (%) = 1.06644 (4.91738)
Outpt time (%) = 0.0237496 (0.10951)
Other time (%) = 8.62876 (39.7875)

Nlocal:    8 ave 8 max 8 min
Histogram: 1 0 0 0 0 0 0 0 0 0
Nghost:    2189 ave 2189 max 2189 min
Histogram: 1 0 0 0 0 0 0 0 0 0
Neighs:    2056 ave 2056 max 2056 min
Histogram: 1 0 0 0 0 0 0 0 0 0

Total # of neighbors = 2056
Ave neighs/atom = 257
Neighbor list builds = 0
Dangerous builds = 0
unfix 20
unfix 21
print "seeds:8050263"
seeds:8050263
