LAMMPS (10 Feb 2015)
# ---- initialize simulations
clear
units metal
dimension 3
boundary p p p
atom_style charge
atom_modify map array
# ---- create atoms
read_data /Users/eugeneragasa/pyflamestk_git/pypospack/tests/tests_integration/workflow/WorkflowLammpsThermalExpansion/param_4537/MgO_NaCl_unit.npt.T1200/lammps.structure
  triclinic box = (0 0 0) to (4.2565 4.2565 4.2565) with tilt (0 0 0)
  1 by 1 by 1 MPI processor grid
  reading atoms ...
  8 atoms
# ---- define interatomic potential
include potential.mod
mass 1 24.305
mass 2 15.999

group Mg type 1
4 atoms in group Mg
group O type 2
4 atoms in group O

set group Mg charge 1.68595133453
  4 settings made for charge
set group O charge -1.68595133453
  4 settings made for charge

variable R_cut equal 10.0

pair_style buck/coul/long ${R_cut}
pair_style buck/coul/long 10
pair_coeff 1 1 0.0 0.5 0.0 ${R_cut}
pair_coeff 1 1 0.0 0.5 0.0 10
pair_coeff 1 2 1257.74769115 0.28905643469 0.0 ${R_cut}
pair_coeff 1 2 1257.74769115 0.28905643469 0.0 10
pair_coeff 2 2 3064.42109336 0.236064465148 18.7313535189 ${R_cut}
pair_coeff 2 2 3064.42109336 0.236064465148 18.7313535189 10

kspace_style pppm 1.0e-5

neighbor 1.0 bin
neigh_modify every 1 delay 0 check yes
# ---- define settings
compute eng all pe/atom
compute eatoms all reduce sum c_eng
# ---- run minimization
reset_timestep 0
fix 1 all box/relax iso 0.0 vmax 0.001
thermo 10
thermo_style custom step pe lx ly lz xy xz yz press pxx pyy pzz pxy pxz pyz c_eatoms
min_style cg
minimize 1e-25 1e-25 5000 10000
PPPM initialization ...
  G vector (1/distance) = 0.353047
  grid = 8 8 8
  stencil order = 5
  estimated absolute RMS force accuracy = 4.05219e-05
  estimated relative force accuracy = 2.81409e-06
  using double precision FFTs
  3d grid and FFT values/proc = 3375 512
Neighbor list info ...
  1 neighbor list requests
  update every 1 steps, delay 0 steps, check yes
  master list distance cutoff = 11
Memory usage per processor = 4.06549 Mbytes
Step PotEng Lx Ly Lz Xy Xz Yz Press Pxx Pyy Pzz Pxy Pxz Pyz eatoms 
       0   -115.66496       4.2565       4.2565       4.2565            0            0            0    45758.215    45758.215    45758.215    45758.215 1.7170796e-11 2.2312869e-10 1.3064853e-10   -115.66496 
      10   -115.69248    4.2933032    4.2933032    4.2933032            0            0            0   -6.7922673   -6.7922673   -6.7922673   -6.7922673 -6.3857142e-11 -7.0573166e-11 -5.8083176e-11   -115.69248 
      13    -115.6925     4.293297     4.293297     4.293297            0            0            0   0.20218487   0.20218487   0.20218487   0.20218487 1.6450748e-10 -9.163684e-11 -3.6202501e-11    -115.6925 
Loop time of 0.00648999 on 1 procs for 13 steps with 8 atoms

Minimization stats:
  Stopping criterion = linesearch alpha is zero
  Energy initial, next-to-last, final = 
        -115.664963059     -115.692495365     -115.692495365
  Force two-norm initial, final = 6.60751 4.45929e-05
  Force max component initial, final = 6.60751 2.97026e-05
  Final line search alpha, max atom move = 0.5 1.48513e-05
  Iterations, force evaluations = 13 19

Pair  time (%) = 0.00175571 (27.0526)
Kspce time (%) = 0.00106454 (16.4028)
Neigh time (%) = 0 (0)
Comm  time (%) = 0.000200272 (3.08585)
Outpt time (%) = 1.40667e-05 (0.216744)
Other time (%) = 0.0034554 (53.242)

Nlocal:    8 ave 8 max 8 min
Histogram: 1 0 0 0 0 0 0 0 0 0
Nghost:    2189 ave 2189 max 2189 min
Histogram: 1 0 0 0 0 0 0 0 0 0
Neighs:    2344 ave 2344 max 2344 min
Histogram: 1 0 0 0 0 0 0 0 0 0

Total # of neighbors = 2344
Ave neighs/atom = 293
Neighbor list builds = 0
Dangerous builds = 0
unfix 1
# ---- define output variables ----
variable natoms equal "count(all)"
variable tot_energy equal "c_eatoms"
variable length_x equal "lx"
variable length_y equal "ly"
variable length_z equal "lz"
variable tilt_xy equal "xy"
variable tilt_xz equal "xz"
variable tilt_yz equal "yz"
variable tot_press equal "press"
variable press_xx equal "pxx"
variable press_yy equal "pyy"
variable press_zz equal "pzz"
variable press_xy equal "pxy"
variable press_xz equal "pxz"
variable press_yz equal "pyz"

# ---- output ----
print "pypospack:output_section:begin"
pypospack:output_section:begin
print "tot_energy = ${tot_energy}"
tot_energy = -115.692495364628
print "num_atoms = ${natoms}"
num_atoms = 8
print "xx = ${length_x}"
xx = 4.29329700926666
print "yy = ${length_y}"
yy = 4.29329700926666
print "zz = ${length_z}"
zz = 4.29329700926666
print "xy = ${tilt_xy}"
xy = 0
print "xz = ${tilt_xz}"
xz = 0
print "yz = ${tilt_yz}"
yz = 0
print "tot_press = ${tot_press}"
tot_press = 0.202184869803092
print "pxx = ${press_xx}"
pxx = 0.202184869911938
print "pyy = ${press_yy}"
pyy = 0.202184869729888
print "pzz = ${press_zz}"
pzz = 0.20218486976745
print "pxy = ${press_xy}"
pxy = 1.64507477572858e-10
print "pxz = ${press_xz}"
pxz = -9.16368397176372e-11
print "pyz = ${press_yz}"
pyz = -3.62025011042311e-11
print "pypospack:output_section:done"
pypospack:output_section:done
print "pypospack:lammps_sim:done"
pypospack:lammps_sim:done
#------------------------------------------------------------------------------
# RUN THERMOSTAT
# running using an NPT Nose-Hoover style thermostat
#------------------------------------------------------------------------------
variable tempdamp equal 0.1
variable pressdamp equal 1.0
# set initial velocities
velocity all create 1200 4898459 mom yes dist gaussian loop all
# fix for Nose-Hoover style thermostat
fix 20 all npt temp 1200 1200 0.1 aniso 0.0 0.0 1.0 drag 1.0 couple xyz
variable boxx equal lx
variable boxy equal ly
variable boxz equal lz
variable boxp equal press
variable boxt equal temp
# calculate averages every 10000 steps
reset_timestep 0
fix 21 all ave/time 10 10 100 v_boxx v_boxy v_boxz v_boxp v_boxt file lattice.out
thermo_style custom step temp pe ke etotal press lx ly lz press pxx pyy pzz pxy pxz pyz vol
thermo_modify flush yes
thermo 100
run 100000
PPPM initialization ...
  G vector (1/distance) = 0.352672
  grid = 8 8 8
  stencil order = 5
  estimated absolute RMS force accuracy = 4.1232e-05
  estimated relative force accuracy = 2.8634e-06
  using double precision FFTs
  3d grid and FFT values/proc = 3375 512
Memory usage per processor = 3.06549 Mbytes
Step Temp PotEng KinEng TotEng Press Lx Ly Lz Press Pxx Pyy Pzz Pxy Pxz Pyz Volume 
       0         1200    -115.6925    1.0857852   -114.60672    14654.123     4.293297     4.293297     4.293297    14654.123    10318.579    26704.887    6938.9035    4786.4706   -4375.0775   -5649.6206    79.135764 
     100    728.46997   -115.11988   0.65913494   -114.46074    11264.632    4.3136578    4.3136578    4.3136578    11264.632    13790.335    21450.764   -1447.2023    2466.7952    1361.9025    2390.6967    80.267005 
     200    1089.1501   -115.14815   0.98548594   -114.16267   -21730.129    4.3339868    4.3339868    4.3339868   -21730.129   -31173.604   -13031.639   -20985.145    11234.629    11078.352   -602.68511    81.407185 
     300    1496.6778     -115.257    1.3542255   -113.90278    8381.4728    4.3234581    4.3234581    4.3234581    8381.4728    4140.6587    34325.795   -13322.035   -10777.802    4114.6815   -720.04413     80.81533 
     400    1572.8649   -115.12705    1.4231612   -113.70389    23603.107    4.3131579    4.3131579    4.3131579    23603.107    27662.081    37759.698    5387.5412     12783.38   -5238.1719     2767.597    80.239102 
     500    1258.7106    -114.7255    1.1389078   -113.58659    1590.4038    4.3348527    4.3348527    4.3348527    1590.4038     -20010.4    30625.205   -5843.5935    34551.218    3045.1691   -1099.5738    81.455994 
     600     1604.706   -114.95194    1.4519717   -113.49997   -17039.015    4.3490776    4.3490776    4.3490776   -17039.015   -2649.9241   -21814.481   -26652.639   -5066.6535    122.06137    7697.9787    82.260524 
     700    1643.1818   -114.96048    1.4867854    -113.4737    12186.969    4.3207032    4.3207032    4.3207032    12186.969    13684.902    10424.798    12451.208   -573.51605   -148.78454   -3377.9999    80.660944 
     800    1122.0105   -114.51112    1.0152187    -113.4959    23832.765    4.3214341    4.3214341    4.3214341    23832.765    16878.586    28805.968    25813.741    27195.161    6244.2627   -3817.5567    80.701886 
     900    1368.6967   -114.73441    1.2384256   -113.49598   -13107.213    4.3462723    4.3462723    4.3462723   -13107.213    -22659.01   -12818.644   -3843.9841    18247.227    8118.2913    3885.4933    82.101447 
    1000    1566.1038   -114.90549    1.4170436   -113.48845   -2893.2842    4.3320897    4.3320897    4.3320897   -2893.2842    6065.0119   -25438.674    10693.809    2211.2244   -14304.924    61.373641    81.300333 
    1100    1093.1678   -114.48452   0.98912115    -113.4954   -2664.6234    4.3272007    4.3272007    4.3272007   -2664.6234    8134.7545   -37238.193    21109.568    13787.222   -7604.3754    12483.225    81.025386 
    1200    919.53006   -114.33178   0.83201012   -113.49977   -376.85818     4.334401     4.334401     4.334401   -376.85818   -30598.006    15819.386    13648.045    19637.586    27565.529    819.80399    81.430533 
    1300    1366.7198   -114.72974    1.2366368    -113.4931    10848.499    4.3284039    4.3284039    4.3284039    10848.499    993.83061    15757.989    15793.677   -11498.029     5056.946   -436.33897    81.092992 
    1400     914.7815   -114.32484   0.82771352   -113.49713   -17495.748    4.3406789    4.3406789    4.3406789   -17495.748   -17937.255   -41519.569    6969.5793    18723.346   -2469.9362    5259.6851    81.784874 
    1500    697.91331   -114.12845   0.63148663   -113.49697   -21994.621    4.3352519    4.3352519    4.3352519   -21994.621    -31394.99   -37821.172    3232.2985    23103.471    17561.563     944.0716    81.478495 
    1600    1062.1999   -114.45023   0.96110078   -113.48913    31025.795    4.3162339    4.3162339    4.3162339    31025.795    4673.5887    52578.109    35825.688   -13034.252    1600.9745     16102.29    80.410898 
    1700    1000.5639   -114.40929   0.90533122   -113.50395    -7913.481    4.3387297    4.3387297    4.3387297    -7913.481   -5549.9375   -23510.225    5319.7194      13108.3   -5560.4026    2215.3215    81.674747 
    1800    430.69796   -113.89046   0.38970456   -113.50076   -21838.385    4.3441092    4.3441092    4.3441092   -21838.385   -28020.532   -36434.354   -1060.2685    17208.332    17803.729    2873.8241    81.978924 
    1900     909.3793   -114.30709    0.8228255   -113.48426    460.12215     4.319809     4.319809     4.319809    460.12215    10113.921   -2322.9485   -6410.6059   -1126.2537    28157.614   -5794.5553    80.610873 
    2000    952.39887   -114.35595   0.86175051    -113.4942    15145.784    4.3268378    4.3268378    4.3268378    15145.784    2737.1947    43003.317   -303.15911    2091.3459   -12693.128    997.81421    81.005002 
    2100    772.88733   -114.19901    0.6993247   -113.49969   -26032.385    4.3435087    4.3435087    4.3435087   -26032.385   -12017.419   -26774.529   -39305.209    10479.631    1182.0228    4522.8695     81.94493 
    2200    704.69468   -114.13493   0.63762255   -113.49731   -20599.922    4.3378115    4.3378115    4.3378115   -20599.922    2830.6134   -14678.662   -49951.718    1747.8079    20200.602   -5041.3959    81.622903 
    2300    1192.9376     -114.569     1.079395    -113.4896    289.37861    4.3294339    4.3294339    4.3294339    289.37861    11994.037    8893.8529   -20019.754    -7096.723   -3162.2783    2988.7188    81.150902 
    2400    1095.3243   -114.48396   0.99107246   -113.49289    9061.2581    4.3250098    4.3250098    4.3250098    9061.2581    20966.293    32579.979   -26362.498    11329.705    6791.6725   -10674.326    80.902376 
    2500    654.08026   -114.09913   0.59182557    -113.5073   -13244.345    4.3357011    4.3357011    4.3357011   -13244.345    5981.7632    4462.5809    -50177.38    1259.8567    25809.422     448.2515    81.503825 
    2600     1398.263    -114.7635    1.2651777   -113.49832   -21347.702    4.3371822    4.3371822    4.3371822   -21347.702    -12190.95   -22840.238   -29011.919    9582.7151   -2062.4079   -7821.9642    81.587381 
    2700     1427.632   -114.78609    1.2917514   -113.49434    24597.208     4.320406     4.320406     4.320406    24597.208    28036.617    42757.252    2997.7551     4520.505   -3034.5638   -8057.6895    80.644303 
    2800    979.41273   -114.39388   0.88619322   -113.50769    4270.0539    4.3285247    4.3285247    4.3285247    4270.0539   -1200.5419    25996.164   -11985.461   -1836.6505    24146.346    4640.7638    81.099784 
    2900    1169.9512   -114.56497    1.0585965   -113.50637   -16754.774    4.3437662    4.3437662    4.3437662   -16754.774   -31532.668   -11423.551    -7308.103    5349.7819    9193.8689   -3938.2194    81.959504 
    3000     1751.303   -115.07685    1.5846158   -113.49224    -3348.292    4.3287818    4.3287818    4.3287818    -3348.292   -2528.5537   -11741.145    4224.8227   -13934.688   -1621.5436    9316.8469    81.114234 
    3100    1118.4301   -114.50897     1.011979   -113.49699    30719.413    4.3212144    4.3212144    4.3212144    30719.413    4357.4899     46129.11    41671.638    10032.914     27250.14   -5187.3094    80.689576 
    3200    1291.7646   -114.67258    1.1688158   -113.50376   -9680.1007    4.3417451    4.3417451    4.3417451   -9680.1007   -36652.407   -12780.772    20392.877    12505.425    5336.6821    7991.2413    81.845154 
    3300    1681.5807   -115.01208    1.5215295   -113.49055   -7311.0327     4.337597     4.337597     4.337597   -7311.0327    -33451.75   -7352.1866    18870.839   -2589.0618   -14765.279    15591.281    81.610794 
    3400    1412.2468   -114.76496    1.2778306   -113.48712    16547.201    4.3212748    4.3212748    4.3212748    16547.201   -12568.498    22557.659    39652.441     4206.839    13977.975     3280.047    80.692962 
    3500    1403.8701   -114.77174    1.2702512   -113.50149   -10270.125    4.3361918    4.3361918    4.3361918   -10270.125   -47677.339    3141.6403    13725.322    12116.696    10754.378     11277.99    81.531501 
    3600    1483.1835   -114.83916    1.3420156   -113.49714    1887.6293    4.3360625    4.3360625    4.3360625    1887.6293   -23290.438    4339.8478    24613.478    10388.621   -3162.8463   -3514.5399    81.524211 
    3700     1736.448   -115.06329    1.5711746   -113.49212    5921.2348    4.3217787    4.3217787    4.3217787    5921.2348   -7662.3464    24865.024    561.02639   -4125.1518    17739.901   -832.42911    80.721194 
    3800     1406.015    -114.7763    1.2721919   -113.50411   -8332.2099    4.3335754    4.3335754    4.3335754   -8332.2099   -41693.039     1234.644    15461.766    13383.277    17409.582     1875.732    81.384007 
    3900    1654.6686   -114.99728     1.497179    -113.5001   -18088.123    4.3378326    4.3378326    4.3378326   -18088.123   -41144.192    -12009.13   -1111.0457    12977.237   -12767.924   -2792.4539    81.624091 
    4000    1673.9177    -115.0113    1.5145959    -113.4967    14072.065    4.3275183    4.3275183    4.3275183    14072.065    5784.9367    1849.6707    34581.588   -9622.9642   -8963.0587   -779.66565    81.043228 
    4100    1397.7688   -114.76952    1.2647306   -113.50479   -5696.0942     4.333956     4.333956     4.333956   -5696.0942   -20889.531   -9718.9437    13520.192    19320.863    25170.977   -4851.9658     81.40545 
    4200     1587.558   -114.93838    1.4364558   -113.50192   -7417.4476    4.3245753    4.3245753    4.3245753   -7417.4476   -12599.054   -15766.314    6113.0244    25493.089    7271.7406    1487.7391    80.877996 
    4300    1725.5638   -115.06026    1.5613264   -113.49893    17852.924    4.3218048    4.3218048    4.3218048    17852.924    18244.023    10138.671    25176.078   -2880.7286    4354.9099   -13989.324    80.722659 
    4400    1330.4404   -114.70854    1.2038104   -113.50473   -13407.071    4.3443467    4.3443467    4.3443467   -13407.071   -21561.884   -28855.653    10196.324    842.85964    9805.0981    -266.5156    81.992371 
    4500    1326.4773   -114.70403    1.2002245   -113.50381   -11065.899    4.3271983    4.3271983    4.3271983   -11065.899   -3276.2728   -18243.456   -11677.967    12862.171   -2657.4104    15104.235    81.025251 
    4600    1373.3284   -114.73879    1.2426164   -113.49617    36484.909    4.3123065    4.3123065    4.3123065    36484.909    20083.142      62901.8    26469.785    9701.0439    4905.4367   -485.87779    80.191596 
    4700    1679.7784   -115.02874    1.5198988   -113.50884   -15553.121    4.3390193    4.3390193    4.3390193   -15553.121    -1743.176   -25284.011   -19632.176   -2380.9437    2692.1243   -9053.3248    81.691103 
    4800    1057.5549   -114.46022   0.95689787   -113.50332    10552.219    4.3359072    4.3359072    4.3359072    10552.219     1135.115    3288.7298    27232.811    8354.9231    13616.959   -1808.4616     81.51545 
    4900    1111.7365   -114.50151    1.0059226   -113.49559    14678.552    4.3264372    4.3264372    4.3264372    14678.552   -5222.9956    26475.055    22783.597    2606.2191   -5266.6032    16183.843    80.982504 
    5000     1452.332   -114.80732    1.3141005   -113.49321   -13135.591    4.3351562    4.3351562    4.3351562   -13135.591   -6886.2784    -16687.76   -15832.735   -9735.5227   -13800.919    39.066076      81.4731 
    5100    1150.7918   -114.53421    1.0412606   -113.49295    5711.1723    4.3316506    4.3316506    4.3316506    5711.1723    16386.235    6381.7771   -5634.4955    363.70279    14664.858   -12795.169    81.275614 
    5200    858.31139   -114.27575   0.77661818   -113.49913   -3942.5014    4.3358021    4.3358021    4.3358021   -3942.5014     487.1816   -20596.243     8281.557    14043.312    -5688.195    6956.9666    81.509522 
    5300    982.83275   -114.38324   0.88928773   -113.49395    -14537.51    4.3358959    4.3358959    4.3358959    -14537.51    -15978.67   -19357.636   -8276.2254    3857.3729   -7140.6776   -5526.9711    81.514816 
    5400    1040.3683    -114.4308   0.94134709   -113.48946   -14349.674    4.3291484    4.3291484    4.3291484   -14349.674   -4984.4604   -8954.3407   -29110.221    1341.2096    4073.7971   -11398.368    81.134847 
    5500    408.81233   -113.87098   0.36990198   -113.50108   -11964.737    4.3360819    4.3360819    4.3360819   -11964.737   -26144.629    30357.932   -40107.514    16401.715    -13710.17    12209.245    81.525302 
    5600    854.37139   -114.27122   0.77305318   -113.49817   -6247.9521    4.3317105    4.3317105    4.3317105   -6247.9521   -27073.382    20697.657   -12368.131    7409.9572    -6111.069    -7039.313    81.278984 
    5700    797.97401   -114.21962   0.72202365   -113.49759    12164.912    4.3316998    4.3316998    4.3316998    12164.912   -13685.205    35598.926    14581.015   -4844.4756    4377.6897    70.589592    81.278383 
    5800    758.02253   -114.18625   0.68587471   -113.50038   -19522.351    4.3379009    4.3379009    4.3379009   -19522.351   -26931.648    -1390.921   -30244.483    12500.547   -4658.1442    5814.5164    81.627949 
    5900    754.77821   -114.18388   0.68293919   -113.50094     -9575.78    4.3313812    4.3313812    4.3313812     -9575.78   -13601.573   -5640.7704   -9484.9967    21254.995   -17925.581    2528.7911    81.260448 
    6000    1185.2732   -114.56704    1.0724601   -113.49458    4998.3666    4.3311729    4.3311729    4.3311729    4998.3666    9681.4296   -26288.256    31601.926   -2736.4667   -9387.1528    12662.817    81.248725 
    6100    1130.5578    -114.5202    1.0229524   -113.49725    -8649.233    4.3390293    4.3390293    4.3390293    -8649.233     820.9873    -49170.79    22402.104   -5805.3343    -975.9244   -3263.7617    81.691666 
    6200    811.19675     -114.232   0.73398787   -113.49801   -4574.1024    4.3371304    4.3371304    4.3371304   -4574.1024   -10625.446   -33309.244    30212.383    9408.7294   -20599.203   -3872.0886     81.58446 
    6300    1147.3984   -114.53014    1.0381902   -113.49195    8543.5373    4.3273542    4.3273542    4.3273542    8543.5373   -1741.9545   -14460.935    41833.502    3857.6457   -13699.454    1670.3005    81.034011 
    6400    1492.3821   -114.84323    1.3503387   -113.49289    10788.616    4.3253056    4.3253056    4.3253056    10788.616    38653.208    -28293.71    22006.352   -2316.5595   -3494.7808    2240.4056    80.918981 
    6500    1181.2869   -114.57419    1.0688532   -113.50533   -8747.3151    4.3447956    4.3447956    4.3447956   -8747.3151   -824.61886   -39548.841    14131.515    11734.069   -15667.383    5839.8888    82.017786 
    6600    1483.0429   -114.84164    1.3418884   -113.49975   -18447.904    4.3383714    4.3383714    4.3383714   -18447.904    400.04857   -34939.747   -20804.014    6548.2615   -1059.8967   -13945.125    81.654511 
    6700    1357.1713   -114.72221    1.2279971   -113.49421    38224.428    4.3185867    4.3185867    4.3185867    38224.428      30953.4    32742.117    50977.767   -23215.634    3707.6428   -4486.2674    80.542465 
    6800    1680.4361   -115.02214    1.5204939   -113.50164   -10788.965    4.3405395    4.3405395    4.3405395   -10788.965   -14744.219   -9950.7154   -7671.9596    1529.4127     6532.385     13054.56    81.776991 
    6900    1350.8944   -114.72138    1.2223176   -113.49907    12878.926    4.3334901    4.3334901    4.3334901    12878.926   -6393.7081    3305.8235    41724.663    12077.666   -1290.8897    1291.5722    81.379203 
    7000    1247.4025   -114.62916     1.128676   -113.50049     19486.01    4.3213469    4.3213469    4.3213469     19486.01   -4800.6933    27827.241    35431.482   -15280.882    4974.0428   -15705.887       80.697 
    7100    1403.1788   -114.77393    1.2696257    -113.5043   -18608.379    4.3386586    4.3386586    4.3386586   -18608.379   -43933.599   -5598.9877   -6292.5492   -12227.903    6876.6709   -3310.2653    81.670732 
    7200    1382.7287   -114.75034     1.251122   -113.49922    8323.2869    4.3263568    4.3263568    4.3263568    8323.2869    -10500.59    2754.1449    32716.306    3075.4642   -5083.1985    5680.7173    80.977992 
    7300    1134.0466   -114.53264    1.0261092   -113.50653    2255.2835    4.3264871    4.3264871    4.3264871    2255.2835   -22438.661    5642.6265    23561.885   -14511.006    1987.4683    4397.0299    80.985311 
    7400    960.30319   -114.37548    0.8689025   -113.50658   -14034.624    4.3409671    4.3409671    4.3409671   -14034.624   -52459.139    7679.1036     2676.163    -14603.74    2155.0987   -11372.093    81.801163 
    7500     1374.005   -114.73554    1.2432286   -113.49231    8878.1335    4.3235866    4.3235866    4.3235866    8878.1335    2514.4472    3978.5576    20141.396    5934.7446    -7534.662   -7852.5042    80.822541 
    7600    1024.9647   -114.42813   0.92740958   -113.50072    1173.9254    4.3302741    4.3302741    4.3302741    1173.9254   -8605.6472   -35646.512    47773.935   -14997.729   -9433.8722    -10533.82    81.198157 
    7700     1011.166   -114.41471   0.91492425   -113.49979   -16600.214    4.3386966    4.3386966    4.3386966   -16600.214   -27118.008   -41512.035    18829.401     -21113.1    2535.9903   -5536.8583    81.672877 
    7800    1292.3413   -114.65912    1.1693376   -113.48978    27261.908    4.3206236    4.3206236    4.3206236    27261.908    719.36133    24977.284    56089.078    340.68968     3447.564   -1975.7161    80.656489 
    7900    1241.0827   -114.62451    1.1229578   -113.50155   -13661.867    4.3346543    4.3346543    4.3346543   -13661.867   -3675.2503   -43214.279    5903.9286   -9753.9275    5423.3477   -10443.506    81.444805 
    8000    1017.4436   -114.42293   0.92060435   -113.50233   -12144.595    4.3318481    4.3318481    4.3318481   -12144.595   -5610.3455   -49613.523    18790.084   -15153.892   -3470.3425   -7085.6228    81.286733 
    8100    1322.6268   -114.69164    1.1967405    -113.4949     20390.47    4.3197198    4.3197198    4.3197198     20390.47    11599.811   -22222.769    71794.369   -534.09819    3172.2491    10469.001     80.60588 
    8200    1250.1267   -114.63147    1.1311409   -113.50033   -10028.325    4.3399813    4.3399813    4.3399813   -10028.325    1894.3001   -35881.264    3901.9896   -2323.4355    7691.4517   -3821.8701    81.745447 
    8300    915.88577   -114.32979   0.82871269   -113.50108    8378.8056    4.3282379    4.3282379    4.3282379    8378.8056    14695.553   -10048.995    20489.859     -14029.5    1159.5708   -8123.7474    81.083666 
    8400    1064.9143   -114.45848   0.96355685   -113.49493      24463.1    4.3180615    4.3180615    4.3180615      24463.1    59400.836   -30091.633    44080.096   -3773.7369    15849.528    6874.8725    80.513088 
    8500     986.7833   -114.39528   0.89286227   -113.50242    1781.2155    4.3397034    4.3397034    4.3397034    1781.2155    22844.363   -25912.243    8411.5266   -943.92629     7188.012     400.5521    81.729744 
    8600    925.67471   -114.32921   0.83756993   -113.49164     3384.639    4.3389704    4.3389704    4.3389704     3384.639    38246.406   -26540.612   -1551.8771   -20979.375    4789.7682    4642.1851    81.688339 
    8700    1026.0046   -114.41588   0.92835053   -113.48753     8224.958    4.3329642    4.3329642    4.3329642     8224.958    24831.617    13451.182   -13607.925   -10945.335    3396.4083   -4146.7562    81.349576 
    8800    1127.5102   -114.51194     1.020195   -113.49174     2636.928    4.3296297    4.3296297    4.3296297     2636.928   -5219.3181    19098.885   -5968.7835    11173.582    13195.983    3484.3886    81.161911 
    8900    973.63191   -114.37727   0.88096261    -113.4963    22466.283    4.3254857    4.3254857    4.3254857    22466.283    15952.339    55505.419    -4058.908   -10350.442    12145.328    6528.5668    80.929086 
    9000    1209.6859   -114.59466    1.0945492   -113.50011   -16840.174     4.342818     4.342818     4.342818   -16840.174   -22334.835    14773.316   -42959.004    -25353.61   -773.27567    254.03883    81.905845 
    9100    1322.7125    -114.6855    1.1968181   -113.48868   -4224.4966    4.3349297    4.3349297    4.3349297   -4224.4966    -28888.67    34788.192   -18573.011   -6329.1823    7874.5394     16454.49    81.460331 
    9200    1245.3297      -114.61    1.1268005    -113.4832    32197.186    4.3136399    4.3136399    4.3136399    32197.186    4232.1323    67883.865    24475.562    2249.8554    13555.079    6748.8791    80.266009 
    9300    1245.8793   -114.62845    1.1272978   -113.50115    -4739.584    4.3352737    4.3352737    4.3352737    -4739.584   -23664.047   -5005.3249     14450.62    -13110.32   -5036.1825   -13278.966    81.479725 
    9400    1427.7306   -114.78003    1.2918406   -113.48818   -19464.933    4.3418184    4.3418184    4.3418184   -19464.933   -29885.829   -10515.678   -17993.291   -8759.5633    5251.4278    708.58539      81.8493 
    9500     1301.285   -114.66143      1.17743     -113.484    3145.3294    4.3206881    4.3206881    4.3206881    3145.3294   -1057.4404   -6074.6037    16568.032    10104.738     16376.69   -221.31819    80.660096 
    9600    974.45674   -114.37993   0.88170894   -113.49822   -8527.9325    4.3235643    4.3235643    4.3235643   -8527.9325   -6344.7554   -34358.708    15119.666   -17751.285    244.03012    3158.0742    80.821288 
    9700    1093.4677     -114.485   0.98939258   -113.49561   -6487.0981    4.3338965    4.3338965    4.3338965   -6487.0981    7021.5603   -33602.723    7119.8686   -10182.249    2367.1909   -5623.2205    81.402102 
    9800    1093.7377   -114.48154   0.98963688    -113.4919   -11293.207    4.3354023    4.3354023    4.3354023   -11293.207    453.84774    -39105.04    4771.5713    19186.568    8040.9776   -7345.2222    81.486978 
    9900    616.76138   -114.05411   0.55805866   -113.49605   -18133.498    4.3298121    4.3298121    4.3298121   -18133.498    8160.0942   -76219.212    13658.623    -5432.987   -2084.1545   -4011.4356    81.172168 
   10000    796.75081   -114.21613   0.72091687   -113.49521    6768.2911    4.3194255    4.3194255    4.3194255    6768.2911    26329.339   -19290.433    13265.967   -13634.229   -7017.7461   -10026.364    80.589408 
   10100    1063.3645   -114.45992   0.96215459   -113.49777    7858.3614    4.3283076    4.3283076    4.3283076    7858.3614    7405.7481   -5454.5696    21623.906    8426.7061    -1346.269    12294.981     81.08758 
   10200    930.15677   -114.34081   0.84162539   -113.49918   -9828.9466    4.3356796    4.3356796    4.3356796   -9828.9466    8704.7104   -31509.905   -6681.6449    13484.956    4149.0893    1445.4991    81.502616 
   10300    735.93239   -114.16498   0.66588709    -113.4991    10099.547    4.3259881    4.3259881    4.3259881    10099.547    10145.749    8509.4042    11643.488   -9451.6448   -2529.4148    -14306.54     80.95729 
   10400    1226.8468   -114.60925    1.1100768   -113.49917    7225.1071    4.3243974    4.3243974    4.3243974    7225.1071    1715.4683   -7704.7277    27664.581   -13156.947   -8961.1122     323.5576    80.868016 
   10500    1285.3315   -114.66161     1.162995   -113.49862    15817.298     4.331493     4.331493     4.331493    15817.298    17060.829    29982.708    408.35712    8681.5616    2908.2351    6152.2713    81.266742 
   10600    1316.9963   -114.69155     1.191646    -113.4999   -11100.645    4.3380222    4.3380222    4.3380222   -11100.645   -1291.7371   -22996.386   -9013.8108   -8094.0182    2298.0203     3999.468    81.634795 
   10700    1333.3054   -114.70254    1.2064028   -113.49614    8983.0697    4.3297555    4.3297555    4.3297555    8983.0697    5859.5661   -2698.2918    23787.935   -15811.834    -11262.57    3294.3489    81.168987 
   10800    1633.8928   -114.96732    1.4783805   -113.48894    15079.474    4.3283224    4.3283224    4.3283224    15079.474    12056.461    38133.759   -4951.7982    5994.8881   -4354.6687    44.114023    81.088416 
   10900    1767.3266   -115.09151    1.5991143   -113.49239   -11128.694    4.3339551    4.3339551    4.3339551   -11128.694   -34520.172    6380.5958   -5246.5074   -10327.191    4260.5994   -6109.8175    81.405402 
   11000    1387.3494   -114.75449    1.2553029   -113.49919    3360.1979    4.3296842    4.3296842    4.3296842    3360.1979   -236.25038    592.37097    9724.4732   -8657.3277   -9785.0692   -7073.3031    81.164974 
   11100    1468.2152   -114.82668     1.328472    -113.4982    10924.475    4.3285275    4.3285275    4.3285275    10924.475    18017.469    18123.091   -3367.1339    12984.943   -16838.877    10129.968     81.09994 
   11200     1651.951   -114.98953      1.49472   -113.49481    665.49678    4.3293884    4.3293884    4.3293884    665.49678   -6088.4127    13791.422   -5706.5187   -8314.2502    1086.1348    7886.6436    81.148343 
   11300    921.89635   -114.33379   0.83415119   -113.49964    6374.4768    4.3306628    4.3306628    4.3306628    6374.4768    26572.797   -17744.249    10294.882   -9588.4808    -4583.874   -7747.6064    81.220022 
   11400     942.5934   -114.35014   0.85287831   -113.49726    2204.9191    4.3315713    4.3315713    4.3315713    2204.9191   -4598.4185    6598.2268    4614.9491    2120.5613   -10010.118    4815.5605    81.271148 
   11500    1192.2622   -114.56636    1.0787839   -113.48757    8053.0223    4.3331085    4.3331085    4.3331085    8053.0223     14114.45       2617.5    7427.1168    4619.0901    23.135715    7766.2866    81.357706 
   11600    687.09771   -114.11331   0.62170045   -113.49161   -8583.3589    4.3360957    4.3360957    4.3360957   -8583.3589    5826.7406   -50415.908    18839.091   -2914.9149   -8567.7124   -4482.0477    81.526081 
   11700    468.75317    -113.9159   0.42413772   -113.49176    2040.6138    4.3305083    4.3305083    4.3305083    2040.6138   -14060.779   -8467.5474    28650.168   -10344.794   -8551.1155    9748.0746    81.211331 
   11800    1120.8874   -114.49926    1.0142025   -113.48506      14655.7    4.3281327    4.3281327    4.3281327      14655.7    15774.215   -4273.3092    32466.193    9342.3767   -1252.0955    5344.4106    81.077752 
   11900    803.96438   -114.22249   0.72744387   -113.49504   -15734.435      4.33716      4.33716      4.33716   -15734.435    970.47631    -58652.86    10479.079   -2630.7649    -5912.955   -9462.1626    81.586132 
   12000    627.42971   -114.06618   0.56771159   -113.49847   -5100.1178    4.3213832    4.3213832    4.3213832   -5100.1178   -12144.796   -35482.488    32326.931   -19375.161    -13557.08   -551.33811    80.699037 
   12100    1224.8229   -114.60815    1.1082455   -113.49991    16958.973    4.3203344    4.3203344    4.3203344    16958.973    12628.477    25389.972     12858.47    2542.8203   -6080.8839    10217.126    80.640289 
   12200    1398.5832   -114.76371    1.2654674   -113.49824    -7316.273    4.3432381    4.3432381    4.3432381    -7316.273   -7405.3319   -20003.106    5459.6192   -7097.2948    3518.5844   -2934.6543    81.929615 
   12300    1127.0526   -114.51532    1.0197808   -113.49554    2270.1333    4.3318229    4.3318229    4.3318229    2270.1333     2568.215   -654.67537    4896.8602    -24322.09   -11802.303    -5584.835     81.28531 
   12400    1584.0449   -114.92183    1.4332771   -113.48856     14364.41    4.3206152    4.3206152    4.3206152     14364.41    8223.3491    33575.531    1294.3482    2363.6468   -10182.545   -6499.4971    80.656017 
   12500     1852.734   -115.16581    1.6763927   -113.48941   -1434.5323    4.3359883    4.3359883    4.3359883   -1434.5323   -4527.0903    10172.918   -9949.4244    11562.759   -2869.4595    8592.7975    81.520026 
   12600    1332.3218   -114.69874    1.2055127   -113.49322    18014.315    4.3282238    4.3282238    4.3282238    18014.315   -1818.1784    51316.267    4544.8567   -14145.507   -14035.565    8289.1339    81.082875 
   12700    1501.8933   -114.85608    1.3589446   -113.49714    1212.5393    4.3258004    4.3258004    4.3258004    1212.5393   -5115.3882    10588.413   -1835.4069   -21302.687   -2253.9931   -12913.012    80.946752 
   12800    1751.6443   -115.07899    1.5849245   -113.49406   -12974.071    4.3338997    4.3338997    4.3338997   -12974.071   -14116.128   -8417.1181   -16388.968    18032.529    10372.347    11097.651     81.40228 
   12900    1347.7452   -114.71282    1.2194682   -113.49335    2181.0844    4.3267062    4.3267062    4.3267062    2181.0844   -4169.6444    7118.3405    3594.5571     7441.261   -10891.663    9745.4966    80.997612 
   13000    1247.2494   -114.62513    1.1285375   -113.49659   -11115.784    4.3317246    4.3317246    4.3317246   -11115.784   -11575.337   -15829.301   -5942.7143   -13979.472   -14134.376    -9166.598    81.279778 
   13100    1359.5242   -114.72152     1.230126   -113.49139   -3950.7419    4.3320812    4.3320812    4.3320812   -3950.7419   -5469.5566    1062.2869   -7444.9561    14332.828    -6846.367    1253.1333    81.299855 
   13200    1141.9501   -114.52945    1.0332604   -113.49619    6785.1701    4.3233693    4.3233693    4.3233693    6785.1701   -11661.443    6059.1159    25957.837     7065.624    -3764.957    3022.1696    80.810352 
   13300    1013.8197   -114.42812   0.91732536    -113.5108   -8274.2141    4.3268103    4.3268103    4.3268103   -8274.2141   -16516.375   -1974.7145   -6331.5528   -6114.5238   -8827.7854    4269.5382     81.00346 
   13400    1117.4524   -114.51988    1.0110944   -113.50878      12646.8     4.330235     4.330235     4.330235      12646.8     977.2324    31881.668       5081.5   -871.46838    1002.1357   -8745.3254    81.195956 
   13500    985.30104   -114.39711   0.89152109   -113.50559   -4673.3222     4.339797     4.339797     4.339797   -4673.3222   -17952.718   -10279.566    14212.317    10994.913     492.2155    1444.7024    81.735031 
   13600    866.70965   -114.28271   0.78421711   -113.49849   -12746.305      4.32686      4.32686      4.32686   -12746.305   -905.06481   -49271.346    11937.496   -4837.8782   -24175.487    1663.7419    81.006249 
   13700    851.77343   -114.26289    0.7707025   -113.49219    23220.772    4.3146741    4.3146741    4.3146741    23220.772     20803.65    10196.478    38662.188   -8897.7575   -2330.9797   -11801.752    80.323755 
   13800    913.94479    -114.3235   0.82695645   -113.49654   -2399.5333     4.340951     4.340951     4.340951   -2399.5333   -7676.6979   -14514.403    14992.501    6350.2886     5119.004   -754.73411    81.800254 
   13900     661.8641   -114.09274   0.59886855   -113.49387   -13713.712    4.3394973    4.3394973    4.3394973   -13713.712   -2526.7249   -31546.257   -7068.1529    1969.9894   -19038.673    8626.5183      81.7181 
   14000    658.40603   -114.08165   0.59573962   -113.48591    15862.891    4.3151437    4.3151437    4.3151437    15862.891    23705.708   -4696.8379    28579.805   -12105.152   -757.57936   -6368.7731    80.349981 
   14100    765.87163   -114.19117   0.69297674   -113.49819    20032.896     4.326637     4.326637     4.326637    20032.896    4173.2178    17180.679    38744.791   -9580.4853   -655.33508   -10642.245    80.993724 
   14200    785.73563   -114.21106   0.71095011    -113.5001    2037.0346    4.3401286    4.3401286    4.3401286    2037.0346    904.79936    23349.897   -18143.593   -3508.3989   -17644.044   -5721.3717    81.753772 
   14300     574.7209   -114.01965   0.52001955   -113.49963    3478.8731    4.3347609    4.3347609    4.3347609    3478.8731    4997.9185   -4358.7579    9797.4586   -12977.524   -2956.2981   -5944.8054    81.450816 
   14400    856.57981    -114.2714   0.77505141   -113.49635     6394.405     4.323545     4.323545     4.323545     6394.405     14212.01   -4911.6506    9882.8556   -6534.3086   -3253.4247   -3803.0038    80.820206 
   14500    831.61212   -114.25347   0.75246012   -113.50101    27348.073    4.3183927    4.3183927    4.3183927    27348.073    23236.739     35242.04    23565.442   -1190.3738   -16027.986    2778.8657    80.531615 
   14600    1097.3692   -114.50016   0.99292271   -113.50724   -21428.094    4.3410528    4.3410528    4.3410528   -21428.094   -27695.786   -30820.495    -5768.002   -4283.1908   -9417.2224    5478.0518    81.806009 
   14700    992.06199   -114.39861   0.89763854   -113.50097   -26370.354    4.3398252    4.3398252    4.3398252   -26370.354   -7455.3937   -48979.551   -22676.117   -19158.092    6790.8875   -706.03533    81.736627 
   14800    815.21447    -114.2315   0.73762318   -113.49388    29078.378    4.3115737    4.3115737    4.3115737    29078.378    55475.271    11732.668    20027.195   -1608.9263   -9269.1176    6332.1352    80.150721 
   14900     1356.489   -114.73083    1.2273798   -113.50345     -2446.05     4.328601     4.328601     4.328601     -2446.05   -12829.342   -2461.5237    7952.7155     7780.321   -17173.383    98.709328    81.104073 
   15000    1177.4719   -114.56019    1.0654013   -113.49479   -24941.881    4.3485225    4.3485225    4.3485225   -24941.881   -12452.188   -33427.932   -28945.522   -1323.8138    5736.7829    7459.5716    82.229028 
   15100    1031.4295   -114.42651   0.93325907   -113.49325    -1814.043    4.3218146    4.3218146    4.3218146    -1814.043   -1069.5025   -9145.6465      4773.02   -4606.6141   -16479.147    15230.983    80.723204 
   15200    1155.4377   -114.54384    1.0454643   -113.49838     23886.77     4.311181     4.311181     4.311181     23886.77    24678.749    40432.963    6548.5985   -4157.2123   -17853.871   -8271.1746    80.128823 
   15300    1582.2718   -114.93575    1.4316727   -113.50408   -2825.8714    4.3310222    4.3310222    4.3310222   -2825.8714   -21300.447      15848.3   -3025.4672    7032.7619     10058.95   -4741.4501    81.240245 
   15400    1282.2659   -114.66434    1.1602212   -113.50412   -13560.016    4.3366292    4.3366292    4.3366292   -13560.016   -38784.459    -10094.07    8198.4798    6047.7333   -9405.4679    13142.994     81.55618 
   15500    1065.3718   -114.46993    0.9639708   -113.50596     -12663.1    4.3280734    4.3280734    4.3280734     -12663.1   -10724.379    16298.372   -43563.293    5310.9037   -20969.735    3234.7967     81.07442 
   15600    1416.9496   -114.78138    1.2820857   -113.49929     16419.72    4.3199586    4.3199586    4.3199586     16419.72    29809.904    31491.235   -12041.979    5535.1746    8567.8922   -5195.0697     80.61925 
   15700    1889.8528   -115.20709    1.7099785   -113.49711   -12871.526    4.3268882    4.3268882    4.3268882   -12871.526   -29114.132   -1380.3565     -8120.09   -8408.7656   -76.584108   -4146.7764    81.007837 
   15800    1195.4497   -114.58798     1.081668   -113.50632   -15195.907    4.3349202    4.3349202    4.3349202   -15195.907   -20519.451    8347.0741   -33415.343    667.81935   -19055.522    -3599.605    81.459796 
   15900     1351.085   -114.72701    1.2224901   -113.50452   -371.50485     4.323461     4.323461     4.323461   -371.50485    19578.207    2994.0618   -23686.784    2558.9607   -3710.6823   -6272.3239    80.815493 
   16000    1630.4539   -114.97856     1.475269   -113.50329    15069.026    4.3210243    4.3210243    4.3210243    15069.026    24435.878    2367.0976    18404.102    5966.0808    10549.084   -2391.2921    80.678928 
   16100    1628.7566   -114.97782    1.4737332   -113.50409   -4998.1868    4.3308902    4.3308902    4.3308902   -4998.1868   -12118.981    6411.5188   -9287.0981    10598.311   -9087.5248   -866.02644    81.232817 
   16200    1246.9074   -114.63391     1.128228   -113.50569    9008.5209    4.3281971    4.3281971    4.3281971    9008.5209    9919.1876   -499.79755    17606.173   -860.89289   -11759.988     -17448.6     81.08137 
   16300    1389.0169    -114.7622    1.2568117   -113.50539    4335.5478    4.3258549    4.3258549    4.3258549    4335.5478    10541.912   -24040.978     26505.71   -9588.8856    16527.743   -11094.655    80.949811 
   16400    1568.0857    -114.9214    1.4188369   -113.50257    11544.644    4.3247452    4.3247452    4.3247452    11544.644    29312.144    2533.1927    2788.5962   -6357.3043   -2672.9866    9288.1954    80.887529 
   16500     1675.745   -115.01885    1.5162493    -113.5026    3919.1632    4.3271204    4.3271204    4.3271204    3919.1632    487.34113   -8662.7153    19932.864    4534.2181   -25479.998   -8286.0916    81.020878 
   16600     1235.327   -114.62556    1.1177498   -113.50781   -15840.083    4.3313574    4.3313574    4.3313574   -15840.083     10699.03   -42680.987   -15538.292    5370.4776    4492.9826   -20636.559    81.259112 
   16700    1375.5131   -114.75063    1.2445932   -113.50604   -2296.2611    4.3171947    4.3171947    4.3171947   -2296.2611    11837.886   -5340.6433   -13386.026    1711.5686    21683.604    6843.6405    80.464608 
   16800    1582.9363   -114.93918     1.432274    -113.5069    19943.296    4.3232958    4.3232958    4.3232958    19943.296    20044.536    -12879.74     52665.09   -183.18957    3036.3744    2588.4559    80.806233 
   16900    1738.4689   -115.07822    1.5730032   -113.50522   -26779.082    4.3380245    4.3380245    4.3380245   -26779.082   -12545.167   -44345.386   -23446.694   -7488.0765    866.76154   -13527.222    81.634926 
   17000    926.81392   -114.34727   0.83860071   -113.50867    19477.482     4.317517     4.317517     4.317517    19477.482    22039.217    -4146.632    40539.861   -8543.9609    12054.393   -1994.9147    80.482629 
   17100    1521.7977   -114.88645    1.3769545    -113.5095    1481.1214    4.3188902    4.3188902    4.3188902    1481.1214    14058.654   -28073.826    18458.536   -286.92988    12936.614     17830.24     80.55945 
   17200    1745.0444    -115.0825    1.5789529   -113.50355   -4468.3478    4.3322799    4.3322799    4.3322799   -4468.3478     6349.174   -33215.554    13461.337    4037.9498    5235.9027    4817.0906    81.311041 
   17300    1282.5963   -114.66682    1.1605201    -113.5063    9533.1634    4.3248541    4.3248541    4.3248541    9533.1634    1656.2689   -13103.851    40047.072    5966.9587    4180.1029   -11137.407    80.893643 
   17400    1103.8303   -114.50808   0.99876883   -113.50931    -9617.674    4.3293176    4.3293176    4.3293176    -9617.674    28965.538   -34601.355   -23217.205   -8045.4677    3719.4932    20542.003    81.144362 
   17500    1526.5839   -114.88251    1.3812852   -113.50122    3190.8203    4.3234957    4.3234957    4.3234957    3190.8203    20205.814   -31947.457    21314.103   -8018.0764   -4370.3911     9831.614    80.817439 
   17600     1580.517   -114.93072     1.430085   -113.50063    3897.0096    4.3207089    4.3207089    4.3207089    3897.0096    3684.0172   -706.34766    8713.3593   -1525.5241    14886.177   -8809.2613    80.661265 
   17700    1051.5126   -114.46255   0.95143074   -113.51112   -23613.865    4.3351098    4.3351098    4.3351098   -23613.865   -2077.1689   -45919.349   -22845.077   -6013.9467    13310.811    20822.316    81.470486 
   17800    1046.3796   -114.45297   0.94678625   -113.50618    7087.2651    4.3243749    4.3243749    4.3243749    7087.2651    40684.599   -30731.461    11308.657   -860.40829   -17655.427    15487.669    80.866753 
   17900    1457.7803   -114.81804    1.3190302   -113.49901    9641.0964    4.3192509    4.3192509    4.3192509    9641.0964    10412.947    6004.7497    12505.592    2813.3733   -7172.7137   -9478.8449    80.579634 
   18000    1163.5676   -114.55517    1.0528204   -113.50235   -21218.222    4.3331639    4.3331639    4.3331639   -21218.222   -26460.921   -26479.414   -10714.332   -938.23091    6036.7782     8551.847    81.360827 
   18100     975.1467   -114.38317   0.88233323   -113.50083   -9472.7818    4.3264154    4.3264154    4.3264154   -9472.7818    1269.3345   -25280.022   -4407.6575   -4359.7345    2458.5213    20717.762     80.98128 
   18200    1107.2751   -114.50286    1.0018858   -113.50098    9499.9684    4.3260699    4.3260699    4.3260699    9499.9684    6031.8466    7838.7046    14629.354     1306.249   -8445.0901   -324.85009    80.961881 
   18300    1169.6492   -114.55664    1.0583232   -113.49832   -20719.921    4.3330016    4.3330016    4.3330016   -20719.921   -31676.404   -22132.163    -8351.197    10280.867   -11482.402    5669.6754    81.351684 
   18400     957.4721   -114.36452   0.86634087   -113.49818   -7645.2662    4.3168315    4.3168315    4.3168315   -7645.2662   -19474.233   -4735.7869    1274.2215   -744.34954    11629.514     24161.32    80.444304 
   18500    932.25222   -114.35293    0.8435214   -113.50941   -9085.7873    4.3241431    4.3241431    4.3241431   -9085.7873   -41877.697    687.84385    13932.492    3270.8215   -5549.3763   -724.00474    80.853753 
   18600    744.28025   -114.17887   0.67344041   -113.50543   -7220.9573    4.3361122    4.3361122    4.3361122   -7220.9573    -23271.31   -14787.995    16396.432    6457.3672   -11964.873   -10027.479    81.527011 
   18700    1063.7057   -114.46051    0.9624633   -113.49804   -6224.0374    4.3201417    4.3201417    4.3201417   -6224.0374   -12625.999   -2973.5414   -3072.5713    6238.7272    15192.796    11683.771    80.629502 
   18800    780.18621    -114.2093   0.70592888   -113.50337   -8732.1146    4.3229711    4.3229711    4.3229711   -8732.1146   -36186.363    16713.722   -6723.7024   -3812.0039   -9083.8019    11707.819    80.788026 
   18900    744.30509   -114.17841   0.67346288   -113.50494   -6141.6769    4.3297404    4.3297404    4.3297404   -6141.6769   -27102.421   -20364.161    29041.552    3206.2537   -1622.9305   -5144.8887    81.168136 
   19000    832.48353   -114.25689   0.75324859   -113.50364    7585.2387    4.3258368    4.3258368    4.3258368    7585.2387    34847.901   -12293.194    201.00939    9403.8547    1073.9484   -10346.652    80.948798 
   19100     915.0643   -114.33034   0.82796941   -113.50237   -8322.8483    4.3275845    4.3275845    4.3275845   -8322.8483   -17423.105    6401.3373   -13946.777   -6739.5394    11278.957    1814.7317    81.046949 
   19200    972.77991   -114.38372    0.8801917   -113.50353   -15742.775    4.3240258    4.3240258    4.3240258   -15742.775   -37136.517   -4237.3839   -5854.4233    275.97162     3654.066   -1189.9357    80.847172 
   19300    790.18991   -114.22461   0.71498044   -113.50963    4182.5219    4.3208408    4.3208408    4.3208408    4182.5219    15314.701   -24044.275     21277.14    8781.7382   -10828.984   -19673.036    80.668653 
   19400    924.09222   -114.34772   0.83613806   -113.51158   -14930.608    4.3309861    4.3309861    4.3309861   -14930.608   -3355.1345   -1477.3739   -39959.315   -1879.9443    26754.207    1380.3215    81.238212 
   19500    1035.5724   -114.43966   0.93700771   -113.50265   -17875.431     4.332698     4.332698     4.332698   -17875.431   -21927.424   -355.41102   -31343.458    1210.5394    14092.196    8985.7215    81.334585 
   19600    805.74635   -114.22712   0.72905623   -113.49807    20039.476    4.3194974    4.3194974    4.3194974    20039.476    38068.034   -7383.3284    29433.724    8928.2875   -9423.1642   -16373.932     80.59343 
   19700     952.5068   -114.36284   0.86184817   -113.50099   -8909.3677    4.3254938    4.3254938    4.3254938   -8909.3677     674.1837   -7081.0003   -20321.286    1693.3803    6211.2971   -6475.9321    80.929544 
   19800     993.8618    -114.4055   0.89926704   -113.50624    -22302.16    4.3346748    4.3346748    4.3346748    -22302.16    -14534.87    4022.8694   -56394.478   -1366.3784    33057.157   -2107.7348    81.445962 
   19900    1141.2952   -114.53409    1.0326679   -113.50142    6632.6455    4.3225162    4.3225162    4.3225162    6632.6455     26277.52    -10237.58    3857.9974   -5.9079331    3103.6513   -3912.2108    80.762525 
   20000     932.3802   -114.34757    0.8436372   -113.50393   -700.61652     4.322338     4.322338     4.322338   -700.61652    3487.2786   -22321.206    16732.078    7134.6658   -12800.123   -4358.3187    80.752537 
   20100    831.41798   -114.26406   0.75228446   -113.51178   -29137.434     4.327873     4.327873     4.327873   -29137.434    -20694.58   -1780.2446   -64937.477    261.89563    33749.557   -5783.2496    81.063159 
   20200    1175.7866   -114.57392    1.0638765   -113.51004    6305.1699    4.3238949    4.3238949    4.3238949    6305.1699    52020.952   -9264.4531    -23840.99    438.44087    13379.759    3607.8043    80.839827 
   20300    1495.3507   -114.86135    1.3530248   -113.50833    153.67538    4.3294146    4.3294146    4.3294146    153.67538    22554.075   -31015.049    8921.9998    1228.7338   -2696.0126   -9153.7458    81.149817 
   20400    1143.5068   -114.54696     1.034669   -113.51229   -472.06044    4.3241169    4.3241169    4.3241169   -472.06044    32761.536   -2513.8664   -31663.851    1757.3918    23776.123   -6553.1939    80.852283 
   20500    1362.0583   -114.74449     1.232419   -113.51208   -826.61869    4.3288907    4.3288907    4.3288907   -826.61869    13968.551   -9212.1825   -7236.2242   -4008.4635    22726.883    9688.7127    81.120357 
   20600    1836.5491   -115.15773    1.6617482   -113.49598   -9446.4942    4.3366488    4.3366488    4.3366488   -9446.4942    12993.476   -42066.362    733.40309   -4630.0959    -6008.079   -2274.4871    81.557285 
   20700     1504.706   -114.86001    1.3614896   -113.49852    12014.913    4.3206891    4.3206891    4.3206891    12014.913    26169.235    -14100.85    23976.352    3548.2246    23113.921   -9359.7763    80.660154 
   20800    1385.2854   -114.76141    1.2534353   -113.50798    7198.3981    4.3204341    4.3204341    4.3204341    7198.3981   -15340.508    5993.2342    30942.469   -4478.3447    15166.011    1711.4805    80.645874 
   20900    1627.0048   -114.97559    1.4721482   -113.50344   -3524.0118    4.3346506    4.3346506    4.3346506   -3524.0118    16747.047   -33224.512    5905.4296   -588.50183   -12871.086   -229.71711    81.444601 
   21000    1797.0301   -115.12336    1.6259906   -113.49737   -1737.7784    4.3274383    4.3274383    4.3274383   -1737.7784    14868.963    -25975.83     5893.532   -4086.5541    11248.722   -5549.7353    81.038734 
   21100    1209.8091    -114.5998    1.0946607   -113.50514    15716.706    4.3232346    4.3232346    4.3232346    15716.706    18346.463     2035.044    26768.613    3569.1731    20727.094     3214.659    80.802802 
   21200    1502.3187    -114.8666    1.3593295   -113.50727    175.48019    4.3329237    4.3329237    4.3329237    175.48019     27750.96   -13365.137   -13859.383   -5788.1491    7787.1278    9971.8965    81.347299 
   21300     1476.004   -114.83975    1.3355195   -113.50423    2876.5212    4.3336734    4.3336734    4.3336734    2876.5212    7499.8295   -15220.595     16350.33   -495.70465   -8881.2662    1302.8427    81.389527 
   21400    1244.7221   -114.62707    1.1262507   -113.50082    17838.113    4.3148455    4.3148455    4.3148455    17838.113    34256.974    13142.823    6114.5425    2087.2554     24379.37    2618.4233    80.333325 
   21500    1070.9746   -114.47734    0.9690403    -113.5083    233.55303    4.3218237    4.3218237    4.3218237    233.55303     33492.21    6165.5165   -38957.068    2544.3596    5426.2594    5317.7708    80.723713 
   21600    998.15771    -114.4091   0.90315408   -113.50595   -15026.686    4.3396349    4.3396349    4.3396349   -15026.686   -1327.1924   -24253.685   -19499.182    2807.1278   -4844.4863    2371.7882    81.725873 
   21700    1074.6426   -114.46812   0.97235921   -113.49577    10416.388    4.3275081    4.3275081    4.3275081    10416.388    5937.3456   -4335.4726    29647.292   -11644.749    12434.233   -5073.9413    81.042658 
   21800    816.72233   -114.23828   0.73898753    -113.4993   -1381.1334    4.3247631    4.3247631    4.3247631   -1381.1334    31633.311    3404.2093   -39180.921     10122.58    8791.1839    4014.9524    80.888537 
   21900    876.78449   -114.29429   0.79333304   -113.50096   -16540.566        4.326        4.326        4.326   -16540.566   -11282.638   -4980.1143   -33358.945    2585.7356     -6082.87    14115.695    80.957956 
   22000    909.53595   -114.32718   0.82296724   -113.50421    2743.4057    4.3290198    4.3290198    4.3290198    2743.4057   -16369.855   -709.59859    25309.671   -10161.617   -18305.898    -409.6899    81.127616 
   22100    955.23557   -114.37193   0.86431722   -113.50761   -15713.793    4.3368344    4.3368344    4.3368344   -15713.793   -19935.129   -7080.1927   -20126.058    7539.6195     22448.37    -4785.068    81.567755 
   22200    552.78435   -114.01206    0.5001709   -113.51189    10795.735    4.3227675    4.3227675    4.3227675    10795.735    3002.8817    4009.4916    25374.832     14027.13    6759.9869    10211.267    80.776611 
   22300    1165.0445   -114.56078    1.0541568   -113.50662    6967.9538    4.3158883    4.3158883    4.3158883    6967.9538   -3781.5554    9378.5373    15306.879    4802.8482    -11306.22   -4291.3639    80.391585 
   22400    786.24225   -114.22496   0.71140851   -113.51356    1268.7331    4.3359119    4.3359119    4.3359119    1268.7331   -23685.835   -9807.9787    37300.013   -5124.7842    -8080.666   -1558.4051    81.515718 
   22500    833.97616   -114.26343   0.75459916   -113.50883   -21565.212    4.3361278    4.3361278    4.3361278   -21565.212   -30015.507   -9387.9311   -25292.197    11441.094    16683.754    4479.7965    81.527896 
   22600    870.91321   -114.28774   0.78802057   -113.49972    17381.662    4.3207415    4.3207415    4.3207415    17381.662    38856.646    5740.1314    7548.2075    7715.3954   -4519.4143     4676.953    80.663087 
   22700    960.93185   -114.37163   0.86947133   -113.50216    -4221.525    4.3342816    4.3342816    4.3342816    -4221.525   -27680.681   -9371.4496    24387.556   -12242.972   -14069.031   -11372.315    81.423799 
   22800    984.66513   -114.39378   0.89094571   -113.50284   -17158.029    4.3286022    4.3286022    4.3286022   -17158.029   -37098.193   -9388.2473   -4987.6472    10402.978    12853.585     -7292.75    81.104143 
   22900    874.33263   -114.29724   0.79111454   -113.50612    5167.2615    4.3187486    4.3187486    4.3187486    5167.2615   -14131.151    11736.975     17895.96    18808.133    2754.8639    3321.8673    80.551528 
   23000    1232.3793   -114.62009    1.1150827   -113.50501    -1414.508    4.3314016    4.3314016    4.3314016    -1414.508    9399.2712   -7147.9028   -6494.8924    1788.8784   -12268.647   -3003.2566    81.261599 
   23100    1035.6594   -114.44002   0.93708642   -113.50293    8372.8329    4.3308609    4.3308609    4.3308609    8372.8329    -18601.45   -7642.0862    51362.035   -2945.3669   -8926.6498   -1910.5017     81.23117 
   23200     865.6479   -114.28785   0.78325641   -113.50459   -7960.8329     4.331482     4.331482     4.331482   -7960.8329   -34196.849    12237.347   -1922.9964     12403.96    8087.5167   -1568.8679    81.266122 
   23300    1272.7157   -114.64982    1.1515799   -113.49824    -7853.653    4.3300609    4.3300609    4.3300609    -7853.653   -33971.938   -10056.626    20467.605    15457.723    6694.3668    7335.1658    81.186162 
   23400    1461.7342   -114.82023    1.3226078   -113.49763    16718.855     4.321579     4.321579     4.321579    16718.855    24588.151    6109.2708    19459.145    1003.6982   -13127.063   -5419.0944    80.710002 
   23500    947.94441   -114.36829   0.85772002   -113.51057   -1733.6326    4.3317138    4.3317138    4.3317138   -1733.6326     -17983.5    8880.6496    3901.9522    16741.678    10375.275    -15670.69    81.279168 
   23600    1053.1627   -114.46149   0.95292371   -113.50857   -14326.616     4.335157     4.335157     4.335157   -14326.616   -30801.154    -27781.24    15602.547    17147.437    4419.9237    13040.002    81.473148 
   23700    1725.1641   -115.05564    1.5609647   -113.49467     8045.254    4.3225484    4.3225484    4.3225484     8045.254    973.38966   -2043.0673     25205.44   -15137.759    -243.1171    -4532.772    80.764331 
   23800    1424.4474   -114.79039    1.2888699   -113.50152      10356.2    4.3275552    4.3275552    4.3275552      10356.2    14236.544    16114.905    717.15075     3370.309    13815.049   -4780.6455    81.045302 
   23900    1092.3831   -114.49643   0.98841121   -113.50802   -11058.268    4.3356392    4.3356392    4.3356392   -11058.268   -26919.641   -30330.052    24074.891    18248.506    7515.3656    2675.5872    81.500336 
   24000    1506.9751   -114.86668    1.3635427   -113.50314    770.75563    4.3263463    4.3263463    4.3263463    770.75563   -632.77286   -15375.532    18320.572   -5474.6042   -5268.1827   -4395.1025    80.977403 
   24100     1864.462   -115.18709    1.6870044   -113.50008    2163.7939     4.324982     4.324982     4.324982    2163.7939    16085.851    6163.5532   -15758.022    1517.1572   -5110.8463    12665.626    80.900817 
   24200    1290.7041   -114.67603    1.1678562   -113.50818    3920.1208    4.3326963    4.3326963    4.3326963    3920.1208    -17184.92   -10945.256    39890.538     14911.85    7511.7894   -6945.3648    81.334488 
   24300    1483.4982    -114.8468    1.3423003    -113.5045   -19316.544    4.3344281    4.3344281    4.3344281   -19316.544   -10422.598   -30552.509   -16974.526   -8731.8403    14404.496    5740.9967    81.432056 
   24400    1618.7933   -114.96471    1.4647182   -113.49999   -5274.5076    4.3258688    4.3258688    4.3258688   -5274.5076    4230.6606    1806.4023   -21860.586    2348.6565   -14735.457    18100.763     80.95059 
   24500    1628.6865   -114.97648    1.4736698   -113.50281    5102.4035    4.3202542    4.3202542    4.3202542    5102.4035    3654.0629    831.08533    10822.062    16469.326    -9179.521   -1538.2333    80.635801 
   24600    1486.5495   -114.85342    1.3450612   -113.50836   -14542.707    4.3327557    4.3327557    4.3327557   -14542.707   -25492.724   -22900.837    4765.4391    7063.8706    9205.2888    6678.7216    81.337835 
   24700    1429.0562   -114.80032      1.29304   -113.50728   -15313.861     4.334722     4.334722     4.334722   -15313.861   -22660.301    7313.4999   -30594.782   -10304.155   -5486.2739    555.77565    81.448624 
   24800    1413.2315   -114.77934    1.2787216   -113.50062    8072.9696    4.3257116    4.3257116    4.3257116    8072.9696   -11280.394    22015.178    13484.124    2794.0871   -9218.1523    1790.3189    80.941767 
   24900    1529.6341   -114.87867    1.3840451   -113.49463    17699.578    4.3262602    4.3262602    4.3262602    17699.578    23167.827    -4662.151    34593.057    11499.266   -3193.8761    6811.6375     80.97257 
   25000    1367.9483   -114.73951    1.2377484   -113.50176   -3516.5122    4.3307685    4.3307685    4.3307685   -3516.5122   -31256.035    13319.682    7386.8162    -9371.552   -10956.942    19989.714     81.22597 
   25100    992.24095   -114.40508   0.89780046   -113.50728    3117.4245     4.336251     4.336251     4.336251    3117.4245   -37709.476    9265.3994     37796.35    83.680491   -16691.258     12562.95    81.534843 
   25200    1596.3116   -114.93973    1.4443762   -113.49536    3460.6416    4.3312123    4.3312123    4.3312123    3460.6416    -16947.08    16775.968    10553.037    12437.614   -5341.4452   -16476.681    81.250943 
   25300     1262.324   -114.64047    1.1421773   -113.49829    38296.288     4.315536     4.315536     4.315536    38296.288    40225.127    30166.498    44497.238   -5303.0927    7232.2077     5.132084    80.371898 
   25400    998.97126    -114.4188   0.90389019   -113.51491   -14529.967     4.330553     4.330553     4.330553   -14529.967   -5553.3249   -12054.929   -25981.647    701.86377   -19418.488    20376.487    81.213845 
   25500    1068.6529   -114.47663   0.96693961   -113.50969   -16096.375    4.3387927    4.3387927    4.3387927   -16096.375   -33100.131    6631.5011   -21820.496   -3169.7809   -19645.104   -2942.4847    81.678301 
   25600    1344.9735   -114.71396    1.2169603     -113.497     18939.24    4.3234336    4.3234336    4.3234336     18939.24    20796.768    29601.796    6419.1549    7943.5752    12263.193   -5089.1535    80.813957 
   25700    1037.3788   -114.44175   0.93864213    -113.5031   -18691.069    4.3316804    4.3316804    4.3316804   -18691.069   -15729.277   -5801.9649   -34541.965   -4751.4909   -4288.9733    5077.8076    81.277293 
   25800    910.05654   -114.32035   0.82343828   -113.49691   -24395.419    4.3354979    4.3354979    4.3354979   -24395.419   -36431.545    9219.9917   -45974.703   -8869.9654   -23680.583    10171.137    81.492367 
   25900    1276.2732   -114.64153    1.1547988   -113.48673    14166.188    4.3233062    4.3233062    4.3233062    14166.188    13570.069    21007.392    7921.1024    16198.663    2014.7284    629.63705    80.806815 
   26000    1169.7685   -114.55588    1.0584311   -113.49745   -10310.074    4.3333896    4.3333896    4.3333896   -10310.074    2972.7144   -4496.3958   -29406.542    -6282.999   -12568.799   -69.216309    81.373541 
   26100    695.59559   -114.13441   0.62938951   -113.50502   -26985.398    4.3341088    4.3341088    4.3341088   -26985.398   -15057.088   -6939.0824   -58960.022   -8401.6019   -29896.868    14625.263    81.414065 
   26200    1122.0649   -114.51244    1.0152679   -113.49717   -3711.5575    4.3180912    4.3180912    4.3180912   -3711.5575    11809.644   -5516.6464    -17427.67   -2169.8413   -241.99355   -10130.124    80.514749 
   26300    1224.6619   -114.61546    1.1080999   -113.50736    3476.8986    4.3306863    4.3306863    4.3306863    3476.8986    32832.996    -9851.786   -12550.515    3999.0549    3546.6977   -1913.2972    81.221347 
   26400    537.37186   -113.99404   0.48622536   -113.50782   -1061.4402    4.3387864    4.3387864    4.3387864   -1061.4402    40368.441   -7983.0425   -35569.719    22.140272   -27657.511    23287.629    81.677946 
   26500    991.20998   -114.38999   0.89686762   -113.49312   -6483.6307    4.3228623    4.3228623    4.3228623   -6483.6307     8274.404   -5581.8628   -22143.433   -15550.662   -7986.0778   -5784.8217    80.781928 
   26600    1155.8453   -114.53947    1.0458331   -113.49364   -15118.699    4.3326536    4.3326536    4.3326536   -15118.699    23262.979   -39685.665   -28933.412    7162.6662    5941.8445    5111.6819    81.332087 
   26700     716.9213   -114.14603   0.64868546   -113.49735   -4791.7795    4.3323663    4.3323663    4.3323663   -4791.7795    45388.137   -15427.439   -44336.036   -5159.6564   -15199.524    20646.172    81.315905 
   26800    696.59341   -114.13104   0.63029236   -113.50075    7014.6488    4.3216055    4.3216055    4.3216055    7014.6488    19099.929   -3195.2281    5139.2459    -3618.923   -22585.703   -1145.0512    80.711486 
   26900    978.66483   -114.39001    0.8855165   -113.50449   -15727.712    4.3336676    4.3336676    4.3336676   -15727.712    24638.561   -47609.301   -24212.397   -4265.6468     6281.304    3938.5715    81.389203 
   27000    1000.6532   -114.40707   0.90541208   -113.50165   -16824.702    4.3299081    4.3299081    4.3299081   -16824.702    34560.307   -32002.444   -53031.969   -3031.0505    754.84252    17907.951    81.177568 
   27100    643.60468   -114.08723   0.58234704   -113.50488    1570.8214    4.3240859    4.3240859    4.3240859    1570.8214    34008.427     -3307.55   -25988.413   -9937.0273   -15112.932     4889.039    80.850543 
   27200    1004.3013    -114.4115   0.90871292   -113.50279   -21067.069    4.3368428    4.3368428    4.3368428   -21067.069   -17715.859   -16538.846   -28946.501   -13521.872    1805.3614    -148.6279     81.56823 
   27300    1194.9805   -114.57447    1.0812434   -113.49323    -13459.45     4.332236     4.332236     4.332236    -13459.45    31408.532   -38465.691   -33321.192    5605.9568   -2694.2439    16881.772    81.308572 
   27400    1091.8414   -114.48475   0.98792108   -113.49683    -9567.051    4.3264989    4.3264989    4.3264989    -9567.051    27184.214    -22544.92   -33340.446   -10150.756   -16425.696    2499.1106     80.98597 
   27500    1210.6849   -114.60068    1.0954531   -113.50523   -11851.106    4.3337051    4.3337051    4.3337051   -11851.106   -3704.2504    5625.5985   -37474.665    559.35462   -6505.7857   -3956.1532    81.391314 
   27600    1452.3821   -114.82063    1.3141458   -113.50649   -3405.6622    4.3301775    4.3301775    4.3301775   -3405.6622    43455.411   -12643.241   -41029.156   -4344.2242    6788.0647    20344.249    81.192722 
   27700    1363.6936   -114.74303    1.2338986   -113.50913    26161.302    4.3191258    4.3191258    4.3191258    26161.302    57564.549    41806.381   -20887.023    6293.7581   -11327.145    9233.5038    80.572636 
   27800    1475.0496   -114.85368    1.3346559   -113.51902    -1510.472    4.3339919    4.3339919    4.3339919    -1510.472    104.21769    21705.562   -26341.196    7607.3614   -9064.5167   -5746.6519    81.407475 
   27900    1330.8361   -114.71232    1.2041684   -113.50815   -10340.392    4.3428765    4.3428765    4.3428765   -10340.392   -12824.233    39214.874   -57411.817    3980.4763    15331.281   -576.93255    81.909155 
   28000    1733.9343    -115.0597    1.5689002    -113.4908     12360.02    4.3201963    4.3201963    4.3201963     12360.02    23542.782    32908.626   -19371.349   -6828.7739    10105.421    6720.4343    80.632558 
   28100    1522.1922    -114.8802    1.3773115   -113.50289    -3136.311    4.3255727    4.3255727    4.3255727    -3136.311   -3689.1361    16445.286   -22165.082   -2849.1239   -19472.142    5383.9017    80.933968 
   28200    1436.4474   -114.80202    1.2997278   -113.50229   -24050.469    4.3412128    4.3412128    4.3412128   -24050.469   -47168.226    27309.742   -52292.924   -5775.9188   -4367.1074   -1230.2531    81.815053 
   28300    1824.0047   -115.14212    1.6503978   -113.49172   -5070.5453    4.3360536    4.3360536    4.3360536   -5070.5453    8437.6788    3231.0453    -26880.36    8793.5524    6718.3143     11245.36    81.523709 
   28400    1493.5478   -114.84892    1.3513934   -113.49753    631.25313     4.328809     4.328809     4.328809    631.25313    21455.958    3463.9996   -23026.198    7894.1765   -1925.8376   -3185.9954    81.115764 
   28500    1407.3021   -114.78051    1.2733565   -113.50715    7189.2449    4.3270645    4.3270645    4.3270645    7189.2449    21385.213    8623.3535   -8440.8318   -16008.072   -521.37605   -9761.2498    81.017738 
   28600    1754.5665   -115.09254    1.5875686   -113.50498   -9549.9326    4.3474516    4.3474516    4.3474516   -9549.9326    20578.721   -10427.673   -38800.846    7576.1109    1023.7188    9314.4244    82.168291 
   28700    1532.0215   -114.88532    1.3862053   -113.49911   -18059.058      4.34226      4.34226      4.34226   -18059.058    247.14397    -32590.21   -21834.107    14353.232    3055.6335     4831.946    81.874275 
   28800    1109.2369   -114.49331    1.0036608   -113.48965    12858.591    4.3191221    4.3191221    4.3191221    12858.591    26165.726    2526.5984    9883.4483    804.35276   -6020.0746   -2614.5783    80.572428 
   28900    1484.9998   -114.84021    1.3436591   -113.49656    10765.134    4.3360117    4.3360117    4.3360117    10765.134    34819.275    10870.676   -13394.549    -6531.573   -4656.1027    4828.8684    81.521348 
   29000    1269.5975   -114.63855    1.1487585   -113.48979    3026.5105    4.3406772    4.3406772    4.3406772    3026.5105    43582.243   -27117.782   -7384.9294    7605.8033   -4193.0133   -3150.5234    81.784776 
   29100    851.58118    -114.2622   0.77052854   -113.49167    6527.0173    4.3238957    4.3238957    4.3238957    6527.0173    25494.528   -20092.312    14178.836    16764.169   -11603.444    1317.5999    80.839876 
   29200    1060.8338   -114.45564   0.95986475   -113.49578   -2665.6781    4.3356405    4.3356405    4.3356405   -2665.6781    33296.795   -15767.488   -25526.341   -13595.458   -1841.7036    5685.6991    81.500407 
   29300    1304.9317   -114.67173    1.1807296     -113.491   -21473.575     4.340863     4.340863     4.340863   -21473.575    1558.3323   -35438.114   -30540.942    4309.5508     7228.091    4285.0298     81.79528 
   29400    803.55823   -114.22071   0.72707638   -113.49363    3975.9628    4.3264907    4.3264907    4.3264907    3975.9628    5301.1104    -14706.64    21333.418    10538.027   -7198.6207    4476.6928    80.985509 
   29500    893.13168   -114.30416   0.80812431   -113.49604   -4210.3889    4.3324592    4.3324592    4.3324592   -4210.3889    25847.012   -16443.938    -22034.24   -9250.2654   -14810.742   -560.77566    81.321136 
   29600    852.22128   -114.26737   0.77110772   -113.49627   -4313.4459    4.3384325    4.3384325    4.3384325   -4313.4459    70557.452   -42004.404   -41493.385     4869.432    -4297.924     5088.919    81.657964 
   29700    905.81161    -114.3192   0.81959738   -113.49961    271.43905    4.3304459    4.3304459    4.3304459    271.43905    25639.473   -13338.566    -11486.59   -1603.0646    5828.3485    4474.9091    81.207822 
   29800    909.73288   -114.32443   0.82314543   -113.50128   -1618.0863    4.3370603    4.3370603    4.3370603   -1618.0863    10716.809   -5988.0052   -9583.0624   -4728.6506   -11341.301    3203.2373    81.580506 
   29900    1285.4361   -114.65534    1.1630896   -113.49225   -18779.174    4.3377659    4.3377659    4.3377659   -18779.174   -20436.544   -6753.1676   -29147.811    1113.1922   -2364.9109    19746.586    81.620328 
   30000    1092.2245   -114.47928   0.98826767   -113.49101    24851.848    4.3194719    4.3194719    4.3194719    24851.848     48965.87    14507.133    11082.542    10974.912     7982.228    2891.1213    80.592002 
   30100     1223.699   -114.60734    1.1072286   -113.50011   -2166.2491    4.3319597    4.3319597    4.3319597   -2166.2491   -5724.6008    5126.6764    -5900.823    5526.2725    -20253.37    -1919.296    81.293014 
   30200    1153.1361   -114.53964    1.0433818   -113.49626   -3887.2411    4.3420415    4.3420415    4.3420415   -3887.2411    25727.184   -10484.049   -26904.858   -688.21841   -17623.313    11917.941    81.861916 
   30300     1344.196   -114.70721    1.2162567   -113.49096    8953.2791    4.3284527    4.3284527    4.3284527    8953.2791     20037.62   -2501.5298    9323.7472    26470.343     7141.365    8217.5481    81.095735 
   30400    1356.1913   -114.72305    1.2271104   -113.49594    15824.234    4.3223612    4.3223612    4.3223612    15824.234    8140.9488    14077.476    25254.277    9890.0839    2708.8215    481.04634    80.753835 
   30500    1325.1768   -114.70192    1.1990478   -113.50287     -8772.84    4.3352733    4.3352733    4.3352733     -8772.84   -25552.382    6634.1119     -7400.25   -3709.3464   -23442.526    17852.555    81.479704 
   30600    1284.1539   -114.66043    1.1619294    -113.4985    5.2516286    4.3365644    4.3365644    4.3365644    5.2516286   -21989.904   -3770.2542    25775.913    9124.8317    -3588.061    10325.619    81.552524 
   30700     1423.923   -114.78263    1.2883954   -113.49424    13895.754    4.3245345    4.3245345    4.3245345    13895.754    3671.3767    9699.1213    28316.765    7006.6038    7329.7133   -4398.6961    80.875711 
   30800      1266.36   -114.64386    1.1458292   -113.49804    4892.0166    4.3274009    4.3274009    4.3274009    4892.0166    5807.3175   -3431.0949    12299.827   -2401.6961   -1594.2207    9299.1677    81.036632 
   30900    1007.1791   -114.41211    0.9113168   -113.50079   -902.65525    4.3389048    4.3389048    4.3389048   -902.65525    9062.2033   -29459.365    17689.196     2263.723    2884.1187    13243.716    81.684635 
   31000    1375.3744   -114.73385    1.2444676   -113.48938    4842.8102    4.3333115    4.3333115    4.3333115    4842.8102    5575.2863   -4400.6549    13353.799    2702.8986    714.21585    2968.5894    81.369142 
   31100    1207.1294   -114.57978    1.0922361   -113.48755    3597.9103     4.336064     4.336064     4.336064    3597.9103    16051.753     3858.143   -9116.1647   -13442.011   -13707.644    2366.9086    81.524297 
   31200    1103.1142   -114.48429   0.99812095   -113.48617     -17146.9    4.3414625    4.3414625    4.3414625     -17146.9   -10036.973   -17181.162   -24222.566    2384.3379   -14381.779      12600.6    81.829175 
   31300    1431.9663   -114.77499    1.2956732   -113.47932    4565.9454    4.3272752    4.3272752    4.3272752    4565.9454     7424.088    2775.6139    3498.1344    6736.7085    11020.973    1957.3049    81.029575 
   31400    1459.2641   -114.81156    1.3203728   -113.49119   -6034.8564    4.3299048    4.3299048    4.3299048   -6034.8564    4419.5152   -3939.5671   -18584.517   -543.29609   -7812.4102    3481.7028    81.177384 
   31500    1156.7629   -114.54662    1.0466634   -113.49996   -19952.401    4.3345476    4.3345476    4.3345476   -19952.401   -10456.735   -4958.5294    -44441.94   -2515.0003   -26115.814    8914.4338    81.438792 
   31600    1233.4891   -114.61185    1.1160868   -113.49576    10603.752    4.3290755    4.3290755    4.3290755    10603.752    22868.755    24320.577   -15378.078    10818.469    -6808.977    887.76097    81.130749 
   31700    1386.7744   -114.74498    1.2547826    -113.4902   -9369.3757    4.3441207    4.3441207    4.3441207   -9369.3757   -5244.3961   -12178.401    -10685.33   -3277.3056   -6963.3583   -6389.3214    81.979571 
   31800    1037.3756   -114.42958   0.93863928   -113.49094   -17185.247     4.333523     4.333523     4.333523   -17185.247   -11820.996   -1284.9866    -38449.76   -8544.2355   -16398.282    6097.6914    81.381056 
   31900    893.30174   -114.29847   0.80827818   -113.49019    17692.587    4.3200904    4.3200904    4.3200904    17692.587    16921.141    29944.305    6212.3156    21454.787   -9985.5736    9759.3316    80.626632 
   32000    1324.4052   -114.69041    1.1983497   -113.49206    2133.0274    4.3378145    4.3378145    4.3378145    2133.0274   -9432.8389    2927.7733    12904.148    5001.1818    3771.7912   -9901.1951    81.623068 
   32100    922.14871   -114.32692   0.83437953   -113.49254    2360.0428    4.3341259    4.3341259    4.3341259    2360.0428    10834.695   -7400.3987    3645.8317   -4558.4826     -9533.79    7632.1964    81.415028 
   32200    573.84018   -114.01263   0.51922266   -113.49341    13930.348    4.3231093    4.3231093    4.3231093    13930.348    4557.5339    26188.185    11045.326    11501.161   -12463.368     12519.05    80.795775 
   32300    1248.7504   -114.62307    1.1298956   -113.49318   -8965.6252    4.3329094    4.3329094    4.3329094   -8965.6252   -39329.456   -9779.0923    22211.673   -1598.0215    4896.9312   -7610.2252    81.346491 
   32400    1096.6985   -114.48386   0.99231587   -113.49154    280.83767    4.3312596    4.3312596    4.3312596    280.83767    8171.2492   -16705.651    9376.9143   -886.40321   -5291.6093    20076.023    81.253604 
   32500    680.65167   -114.11203   0.61586794   -113.49616     9022.661    4.3236958    4.3236958    4.3236958     9022.661    12586.291    12650.085    1831.6075    11968.349   -13790.539    22073.196    80.828663 
   32600    1276.0577   -114.65068    1.1546038   -113.49608   -8044.6829    4.3311439    4.3311439    4.3311439   -8044.6829   -28081.783    4225.2671   -277.53293   -7.5593516    3149.9299   -9077.9738    81.247094 
   32700    1421.9313    -114.7796    1.2865933     -113.493   -12403.643    4.3328039    4.3328039    4.3328039   -12403.643    2300.9054   -30825.873   -8685.9609    344.22124     10386.73    10162.433    81.340547 
   32800    946.12037   -114.36106   0.85606959   -113.50499    -1314.378    4.3209819    4.3209819    4.3209819    -1314.378   -4401.5055    441.24366    17.127833    33.770861   -24896.021    25267.354    80.676552 
   32900     1323.785   -114.70744    1.1977884   -113.50965   -328.26993    4.3240644    4.3240644    4.3240644   -328.26993   -21914.142   -4674.5167    25603.849     10602.81   -20682.826    2962.8043    80.849334 
   33000    1588.1616    -114.9382     1.437002    -113.5012    2205.6407    4.3359909    4.3359909    4.3359909    2205.6407   -7670.4037   -5065.8434    19353.169      5756.71    10374.629    -350.6379    81.520173 
   33100    1349.4106   -114.72085     1.220975   -113.49987   -3598.1962    4.3292403    4.3292403    4.3292403   -3598.1962   -18827.281    1437.4981    6595.1944   -9715.3287   -337.52773     13286.61    81.140016 
   33200    1358.2322   -114.72952     1.228957   -113.50056   -2437.5369    4.3260053    4.3260053    4.3260053   -2437.5369   -24060.286    258.34817    16489.327    8517.3277   -29423.086    1439.4859    80.958255 
   33300    2065.4933   -115.36434    1.8689017   -113.49544    782.70885    4.3234901    4.3234901    4.3234901    782.70885    525.86769   -14669.468    16491.727    1532.9022   -6633.4282    -11462.29    80.817124 
   33400    1543.6054   -114.90318    1.3966866   -113.50649    5545.2612    4.3314732    4.3314732    4.3314732    5545.2612   -5542.5158     4658.739     17519.56   -3995.8133   -6042.8991    13057.695    81.265628 
   33500    1245.6938   -114.63334    1.1271299   -113.50621   -27715.501    4.3399579    4.3399579    4.3399579   -27715.501   -45112.342   -13493.931    -24540.23    11529.229   -23772.319    19538.078    81.744123 
   33600     1769.685   -115.08953    1.6012482   -113.48828     5209.288    4.3212889    4.3212889    4.3212889     5209.288    -10216.72   -1939.6309    27784.215   -1710.1775    8317.9777   -8764.8054    80.693752 
   33700     1310.076   -114.67949    1.1853843    -113.4941    12574.511    4.3280865    4.3280865    4.3280865    12574.511   -1584.3411    6532.2655    32775.607   -3932.4509   -2781.1718    9734.2216    81.075158 
   33800    715.37732   -114.14101   0.64728843   -113.49372   -31122.433    4.3446361    4.3446361    4.3446361   -31122.433   -53396.617    -500.5224    -39470.16    3679.2174    -34760.68    12955.961    82.008755 
   33900    1195.1803   -114.56448    1.0814242   -113.48306   -384.37116    4.3203512    4.3203512    4.3203512   -384.37116   -30064.713    12217.265    16694.335    5821.0099   -5014.1361   -6583.2594    80.641231 
   34000    1143.9648   -114.52667    1.0350834   -113.49158    13830.122    4.3196027    4.3196027    4.3196027    13830.122   -8406.4789    21883.734    28013.111   -8430.0353    11998.535    14975.105    80.599324 
   34100    515.83618   -113.97319   0.46673942   -113.50645    -32041.62    4.3420135    4.3420135    4.3420135    -32041.62   -57913.887   -6890.7664   -31320.207    737.22113   -19080.399    24023.486    81.860334 
   34200    834.56321    -114.2517   0.75513033   -113.49657   -11109.357    4.3286287    4.3286287    4.3286287   -11109.357   -38627.258     4980.251    318.93706    8964.0494   -10203.882    10253.277    81.105629 
   34300    1081.4098   -114.46853   0.97848232   -113.49005    3086.5368    4.3226867    4.3226867    4.3226867    3086.5368   -15729.714     17062.96    7926.3649    -15837.39    9362.1143    -11822.16    80.772083 
   34400    704.49348   -114.13919    0.6374405   -113.50175   -17914.952    4.3258675    4.3258675    4.3258675   -17914.952   -39013.897     17465.29   -32196.248    2336.3436   -12761.795    19884.741    80.950522 
   34500    691.00201   -114.13299   0.62523314   -113.50776    6103.1771    4.3247373    4.3247373    4.3247373    6103.1771   -858.05588    10377.617    8789.9703     -462.324   -20089.848    17531.461    80.887085 
   34600    1181.9004   -114.57223    1.0694083   -113.50282   -1846.9182    4.3388442    4.3388442    4.3388442   -1846.9182   -16846.083     11174.42    130.90882   -6028.5655    486.11579   -9610.3514    81.681214 
   34700    1437.6352   -114.79759    1.3008026   -113.49679    1891.8425    4.3235676    4.3235676    4.3235676    1891.8425   -12252.536    20767.594   -2839.5305    1372.8837    615.93805    3727.8727    80.821473 
   34800    820.99738   -114.24664   0.74285569   -113.50379     30511.78    4.3203631    4.3203631    4.3203631     30511.78    17467.256    35604.811    38463.274   -3812.9469    -27189.98    8405.7135      80.6419 
   34900     1486.216   -114.83841    1.3447595   -113.49365   -8476.5228    4.3446338    4.3446338    4.3446338   -8476.5228    13527.173   -18398.771    -20557.97     313.6202   -5463.9525    589.00208    82.008623 
   35000    1811.8283   -115.12696    1.6393804   -113.48758    14495.943    4.3241367    4.3241367    4.3241367    14495.943    29551.677    8055.2958     5880.858   -3008.7907    4605.4615    2649.5533    80.853394 
   35100    1292.2904   -114.66354    1.1692915   -113.49424    30710.988    4.3134067    4.3134067    4.3134067    30710.988    64816.002    17613.099    9703.8623   -3487.9946   -13901.117    15890.818    80.252993 
   35200    1417.2786   -114.77999    1.2823835   -113.49761   -18487.817    4.3439433    4.3439433    4.3439433   -18487.817    2997.6245   -22499.621   -35961.456    3765.0695   -3389.3592    11817.916    81.969529 
   35300    1965.0966   -115.26659    1.7780607   -113.48853    3094.8273    4.3249243    4.3249243    4.3249243    3094.8273    16939.796   -14643.257    6987.9429    3185.8218    5702.2809   -18213.817     80.89758 
   35400    1372.4516   -114.73656    1.2418231   -113.49474    17934.284    4.3138215    4.3138215    4.3138215    17934.284     20476.91    38272.143    -4946.203   -3967.1084   -26953.303    13034.102    80.276144 
   35500    1291.7443   -114.67434    1.1687974   -113.50555   -20165.445    4.3323441    4.3323441    4.3323441   -20165.445    5445.2203   -25028.824   -40912.732    -3854.852   -17880.466    28055.736    81.314659 
   35600    1517.9066   -114.86753    1.3734338   -113.49409    7623.3766    4.3259701    4.3259701    4.3259701    7623.3766   -4070.2167    17742.053     9198.294    11392.245    11046.369   -6778.8894    80.956279 
   35700    1249.8275   -114.62982    1.1308702   -113.49895   -6979.2098    4.3317861    4.3317861    4.3317861   -6979.2098   -35948.341     22779.86   -7769.1485   -46.618536   -1560.0271    6718.2492    81.283243 
   35800      1018.87   -114.41813   0.92189497   -113.49623    -19516.41    4.3357725    4.3357725    4.3357725    -19516.41   -38136.334    5747.8697   -26160.765    6000.4899   -14841.634    12268.159    81.507856 
   35900     1205.311   -114.57751    1.0905908   -113.48692    16037.442    4.3185996    4.3185996    4.3185996    16037.442   -3517.9981     42153.68    9476.6428    19668.918    123.10723   -1959.4298    80.543188 
   36000    1175.6554    -114.5608    1.0637577   -113.49704    -21752.72    4.3345245    4.3345245    4.3345245    -21752.72   -51633.905   -2372.3991   -11251.855   -332.16261    471.18267     2235.622    81.437489 
   36100    798.16066   -114.21752   0.72219254   -113.49533    -32206.09    4.3473481    4.3473481    4.3473481    -32206.09   -63931.762    18591.786   -51278.292    2967.5537   -11526.192    9485.3838    82.162424 
   36200    1196.2758    -114.5666    1.0824154   -113.48419   -8165.1584    4.3294336    4.3294336    4.3294336   -8165.1584   -33352.851    15483.099   -6625.7228    8534.2531    3274.8017    904.34489    81.150883 
   36300    1019.0522   -114.40509   0.92205982   -113.48303    9211.3466    4.3225155    4.3225155    4.3225155    9211.3466   -20492.757    37642.096    10484.701    3667.1109   -126.15458    641.27749    80.762488 
   36400    753.91581   -114.17771   0.68215887   -113.49555   -28505.825    4.3429528    4.3429528    4.3429528   -28505.825   -51027.017    10866.147   -45356.606   -12877.549   -12505.467    11421.294    81.913471 
   36500    1304.9462   -114.66649    1.1807427   -113.48575   -22764.638    4.3399628    4.3399628    4.3399628   -22764.638   -25734.802   -943.81358   -41615.298    7824.5424   -12627.366     335.4671    81.744403 
   36600    1210.0801   -114.57584    1.0949059   -113.48094    23946.046    4.3187489    4.3187489    4.3187489    23946.046    39151.138    19398.535    13288.465   -742.45413    2603.7654   -2628.0528    80.551545 
   36700    904.82076   -114.31699   0.81870084   -113.49829    136.47635    4.3278702    4.3278702    4.3278702    136.47635    3134.5053    3814.9136   -6539.9899    -16439.45   -18307.372    5815.0903    81.063003 
   36800    1253.7091   -114.62954    1.1343824   -113.49516   -16487.901    4.3388138    4.3388138    4.3388138   -16487.901    -3405.711   -10413.651    -35644.34   -2489.3837   -9271.8291   -273.94408    81.679491 
   36900    1399.8647    -114.7531     1.266627   -113.48647    1760.2428    4.3353959    4.3353959    4.3353959    1760.2428    9272.6021   -7900.6281    3908.7544   -10784.988    9416.1228   -14151.593    81.486614 
   37000    1048.5753   -114.43698   0.94877294   -113.48821    8400.6673    4.3336004    4.3336004    4.3336004    8400.6673    22810.622    11004.884   -8613.5037   -5971.1824   -11701.243    14664.078    81.385418 
   37100     1236.536   -114.60563    1.1188438   -113.48679    5012.1997    4.3265539    4.3265539    4.3265539    5012.1997    12698.047    21281.643   -18943.091    -7896.367   -7078.4126    5661.7849    80.989059 
   37200     1227.652   -114.60538    1.1108054   -113.49457    14611.505    4.3323417    4.3323417    4.3323417    14611.505    22491.016    10001.794    11341.703   -13592.016    6170.7101   -11837.069    81.314521 
   37300    1055.3374   -114.44887   0.95489143   -113.49398    -6453.971    4.3473697    4.3473697    4.3473697    -6453.971    6337.3678   -16839.181   -8860.0996   -11482.801    416.43508    17545.355    82.163651 
   37400    1055.2553   -114.44614   0.95481717   -113.49132      10303.8    4.3278755    4.3278755    4.3278755      10303.8     18684.64    21257.098   -9030.3389   -12444.801   -5051.0411    13746.886      81.0633 
   37500    980.25269   -114.37325   0.88695323    -113.4863    35466.372    4.3172073    4.3172073    4.3172073    35466.372    61772.301   -603.92967    45230.744   -1334.9141    11740.627   -7080.1555    80.465316 
   37600    1049.1153   -114.44789    0.9492616   -113.49863   -10579.138    4.3420936    4.3420936    4.3420936   -10579.138    16405.026   -41668.894   -6473.5456   -7316.1779   -514.05591     15344.92    81.864862 
   37700    1015.8635   -114.40994   0.91917466   -113.49077   -7914.0147    4.3411492    4.3411492    4.3411492   -7914.0147    17729.725   -33430.418   -8041.3509    374.89999   -10133.306    12979.973    81.811457 
   37800    1163.3421   -114.53104    1.0526164   -113.47842    36297.644    4.3135382    4.3135382    4.3135382    36297.644    38818.811    16591.765    53482.356   -6027.4964    16625.985   -11764.085    80.260331 
   37900    972.00992   -114.37893     0.879495   -113.49944    11130.788    4.3250727    4.3250727    4.3250727    11130.788    75150.447   -22359.685   -19398.399   -13172.132    5792.7733    16461.991    80.905906 
   38000    1142.0101   -114.52698    1.0333147   -113.49366   -13859.177    4.3444338    4.3444338    4.3444338   -13859.177    18926.142   -42531.826   -17971.848   -5778.9402    4139.9784    26091.497    81.997302 
   38100    1506.6963   -114.84455    1.3632905   -113.48126    13847.349    4.3276384    4.3276384    4.3276384    13847.349    9405.2152   -4535.4114    36672.242   -6746.5526    3246.2015   -8480.2801    81.049978 
   38200    1108.8323   -114.49459    1.0032948    -113.4913     9032.568    4.3229577    4.3229577    4.3229577     9032.568     57752.32   -4741.0674   -25913.549   -2214.5202    6255.4141    5824.1592    80.787277 
   38300    1153.5002   -114.54025    1.0437112   -113.49654   -3570.3706    4.3326303    4.3326303    4.3326303   -3570.3706    30300.413   -14576.622   -26434.902   -592.89459    14932.564    27768.889    81.330773 
   38400    1749.8565   -115.07228    1.5833069   -113.48898    9448.8966    4.3322898    4.3322898    4.3322898    9448.8966   -11649.016    12201.021    27794.685   -2179.3446    716.55297    3393.5412      81.3116 
   38500    1218.1143   -114.60054    1.1021755   -113.49837   -2011.4863    4.3371368    4.3371368    4.3371368   -2011.4863    967.34812    -15868.47    8866.6629   -13762.296    11016.918    21620.692    81.584822 
   38600    942.91426   -114.35257   0.85316864    -113.4994    10801.116    4.3279746    4.3279746    4.3279746    10801.116    20204.726   -7702.6892    19901.312   -3843.3877    123.43455    26166.016    81.068867 
   38700    1384.7177   -114.74414    1.2529217   -113.49122     24922.92    4.3263566    4.3263566    4.3263566     24922.92    7415.4261    29834.479    37518.856    516.72065    9985.0377    1000.9362    80.977979 
   38800     1287.803    -114.6578    1.1652312   -113.49257   -10575.113    4.3405408    4.3405408    4.3405408   -10575.113   -29687.694    5657.2035   -7694.8495     3682.626     6251.123    30044.015    81.777066 
   38900    664.74334   -114.09568   0.60147374    -113.4942    700.42342    4.3338621    4.3338621    4.3338621    700.42342   -2611.6181    13088.854   -8375.9658    536.12942    -6095.836    27067.703    81.400164 
   39000     1317.169   -114.67615    1.1918022   -113.48435   -839.80961    4.3212026    4.3212026    4.3212026   -839.80961   -17008.057    2782.9096    11705.718   -8169.5559    14304.498   -20660.112    80.688916 
   39100    975.16374   -114.37739   0.88234865   -113.49504     1597.179    4.3294747    4.3294747    4.3294747     1597.179    13149.085   -13453.512    5095.9645   -985.41445   -1881.1397     23552.31    81.153195 
   39200    897.70887   -114.30814   0.81226585   -113.49587   -22029.537    4.3380083    4.3380083    4.3380083   -22029.537    2436.3175   -43692.488   -24832.441   -5021.7657   -6483.4826    32800.475     81.63401 
   39300    1103.5695    -114.4861   0.99853286   -113.48756   -15093.096     4.333262     4.333262     4.333262   -15093.096   -14721.083   -30787.175    228.97118   -7218.5998    13501.995   -18068.789    81.366354 
   39400    1052.9063   -114.43926   0.95269176   -113.48657   -15894.527    4.3275127    4.3275127    4.3275127   -15894.527   -9315.7421   -35976.046   -2391.7925    191.83768    -9303.036    6964.6659    81.042914 
   39500    751.34929   -114.17529   0.67983663   -113.49545   -13851.565    4.3305651    4.3305651    4.3305651   -13851.565     8265.419   -21696.564   -28123.551   -9045.5259   -1384.0271    20960.897    81.214529 
   39600    1223.9872   -114.59796    1.1074893   -113.49047   -10107.096    4.3289426    4.3289426    4.3289426   -10107.096    11611.822   -37849.529   -4083.5791    -6203.553    9558.4522   -7527.5362    81.123276 
   39700     1072.094   -114.46252   0.97005321   -113.49247   -4258.3147    4.3271582    4.3271582    4.3271582   -4258.3147   -9068.2797     11077.83   -14784.495   -5916.9401   -5672.5099     2562.177    81.022999 
   39800     723.6825   -114.15629   0.65480313   -113.50149   -30999.269    4.3368938    4.3368938    4.3368938   -30999.269   -10858.075   -29862.786   -52276.945    1350.7624   -3272.6486    27718.718    81.571109 
   39900    1184.8497   -114.56367    1.0720769   -113.49159   -8939.7873    4.3299897    4.3299897    4.3299897   -8939.7873    5235.2243   -12212.459   -19842.127   -6416.8784    6458.7182   -7014.0663    81.182157 
   40000    1185.6621   -114.56108     1.072812   -113.48827   -3989.9081    4.3299028    4.3299028    4.3299028   -3989.9081    2177.6657    4581.4635   -18728.853   -7858.2224    5820.0424    1428.0677    81.177268 
   40100    609.37718   -114.04756   0.55137728   -113.49618   -34283.622    4.3393297    4.3393297    4.3393297   -34283.622   -7772.5221   -40048.169   -55030.174    2859.0806   -9861.5468    35305.422    81.708633 
   40200    1204.9358   -114.57946    1.0902513   -113.48921    2843.5494    4.3230913    4.3230913    4.3230913    2843.5494    4777.8746    22180.227   -18427.453   -7089.8759    7834.1536    574.01925    80.794765 
   40300    1145.2305   -114.52707    1.0362286   -113.49085    15185.526    4.3279735    4.3279735    4.3279735    15185.526    46516.349    18479.759   -19439.529    6325.7552    1678.8087    2473.1146    81.068809 
   40400    900.83096   -114.31544   0.81509078   -113.50034   -17285.399    4.3354761    4.3354761    4.3354761   -17285.399    10011.878   -14334.474   -47533.601    4289.1107    879.09268    26102.614     81.49114 
   40500    1027.1728   -114.42423   0.92940753   -113.49482    24063.183    4.3264801    4.3264801    4.3264801    24063.183    31124.661     34460.31    6604.5782    14709.554   -3499.2888   -8667.0043    80.984916 
   40600    1375.5761    -114.7359    1.2446502   -113.49125    9782.6059    4.3326281    4.3326281    4.3326281    9782.6059    8725.8194    28105.062   -7483.0635    15813.681    2673.5108   -2270.1577    81.330649 
   40700    944.97878   -114.34828   0.85503666   -113.49325    13137.178    4.3330698    4.3330698    4.3330698    13137.178    50523.774    17838.174   -28950.413    9286.8285     11913.07    27622.212    81.355524 
   40800    1366.6094     -114.727    1.2365369   -113.49046    10813.323    4.3268608    4.3268608    4.3268608    10813.323    6227.2125    29499.738   -3286.9811     6466.023   -7356.2218   -4282.2906    81.006296 
   40900    1489.3794   -114.83908    1.3476218   -113.49146   -1876.9104    4.3289768    4.3289768    4.3289768   -1876.9104   -22520.423    19270.936   -2381.2448   -6198.6007   -544.99683   -11406.827    81.125198 
   41000    1233.7774    -114.6111    1.1163477   -113.49476    3565.8527      4.32619      4.32619      4.32619    3565.8527    22632.122    3082.2575   -15016.822    5720.0063   -663.60225    30921.653    80.968627 
   41100    1567.9788   -114.91264    1.4187401    -113.4939    3875.4316     4.325504     4.325504     4.325504    3875.4316    10819.507   -5210.3658    6017.1534        17805   -251.92548    13351.987    80.930115 
   41200    1572.4517   -114.91775    1.4227873   -113.49496   -11343.999    4.3318077    4.3318077    4.3318077   -11343.999   -28131.813   -5096.6013    -803.5836    -3483.616   -5133.5316   -2715.3747    81.284457 
   41300     1245.626   -114.62819    1.1270685   -113.50113   -11913.865    4.3256082    4.3256082    4.3256082   -11913.865    20705.833   -29945.622   -26501.805   -6730.8666   -7550.3033    37465.575    80.935963 
   41400    1638.4474   -114.98015    1.4825017   -113.49765    5986.1485    4.3169493    4.3169493    4.3169493    5986.1485    12876.651    5353.7001   -271.90523   -5109.4693    5447.3532    9542.7217    80.450886 
   41500    1270.8072   -114.65155     1.149853    -113.5017    8557.4708    4.3317085    4.3317085    4.3317085    8557.4708    7770.4364    23142.562   -5240.5865    9898.4885   -9117.2272    354.55732    81.278871 
   41600    991.20668   -114.39418   0.89686463   -113.49731   -7654.0292    4.3370422    4.3370422    4.3370422   -7654.0292    5363.5562    8268.3178   -36593.962    2555.8008   -7750.8711     36901.03    81.579481 
   41700    1214.0701   -114.58436    1.0985162   -113.48584    11929.243    4.3268478    4.3268478    4.3268478    11929.243    18550.736    28501.519   -11264.526    9807.4503    4973.0174    9829.1054    81.005565 
   41800    1198.2328   -114.57313    1.0841862   -113.48894    6774.8154      4.32618      4.32618      4.32618    6774.8154    9261.8001    24413.774   -13351.128    18825.393   -6373.3853   -1163.1005    80.968065 
   41900      787.296   -114.20818   0.71236197   -113.49582   -8477.7932    4.3338188    4.3338188    4.3338188   -8477.7932    26706.378   -8786.3728   -43353.384    5793.7426   -6605.1532    30624.273    81.397724 
   42000    1214.9232   -114.58662     1.099288   -113.48734   -27396.348    4.3393347    4.3393347    4.3393347   -27396.348    14504.526   -50342.047   -46351.523    6578.3984    2544.3525    8081.8895    81.708917 
   42100    1092.9477   -114.47344   0.98892205   -113.48452    -10814.57    4.3308337    4.3308337    4.3308337    -10814.57    20082.965   -28559.059   -23967.617    13341.367    3333.9717   -199.59598    81.229641 
   42200    773.01578   -114.19136   0.69944092   -113.49192   -9354.6014    4.3286995    4.3286995    4.3286995   -9354.6014    15170.473   -20116.681   -23117.596    5580.6318    -9735.106    30089.657    81.109609 
   42300    987.21014   -114.38917   0.89324848   -113.49592   -17845.891    4.3345529    4.3345529    4.3345529   -17845.891    8679.5032   -23508.321   -38708.855    -3698.628      3909.73     9691.647    81.439094 
   42400    1132.3656     -114.515    1.0245882   -113.49041   -3692.0786    4.3300762    4.3300762    4.3300762   -3692.0786      492.235    13348.608   -24917.079    1221.8323     9570.063   -4843.9976    81.187026 
   42500    678.28268    -114.1139   0.61372442   -113.50017     624.9376    4.3317168    4.3317168    4.3317168     624.9376    9201.4446     22636.51   -29963.142    3329.2335    -3844.759    19176.086    81.279342 
   42600    1022.0209   -114.42461     0.924746   -113.49986   -5796.7188    4.3317898    4.3317898    4.3317898   -5796.7188    4839.3328   -5846.0779   -16383.411   -3404.4274    3785.0432    10708.596    81.283448 
   42700    1359.8946   -114.71734    1.2304612   -113.48688    8268.3674    4.3266221    4.3266221    4.3266221    8268.3674   -597.02695    14209.417    11192.712   -13180.912    8918.9923   -2973.4761    80.992887 
   42800    1163.0189   -114.54445     1.052324   -113.49212   -11936.327    4.3335439    4.3335439    4.3335439   -11936.327    327.13844   -12322.561   -23813.559   -465.07908   -8451.8692    23448.411    81.382235 
   42900    1366.5306   -114.72815    1.2364656   -113.49168   -4119.2169    4.3285884    4.3285884    4.3285884   -4119.2169   -5506.7747   -73.882318   -6776.9938   -286.76217   -8899.8224    6451.8342    81.103365 
   43000    1749.3552   -115.07013    1.5828534   -113.48728    14695.591    4.3204563    4.3204563    4.3204563    14695.591   -13420.738    23447.321    34060.189    -9658.353    11555.764    -20207.17     80.64712 
   43100    1450.5505   -114.81252    1.3124885   -113.50003   -12223.192    4.3339596    4.3339596    4.3339596   -12223.192    951.54636   -23470.544   -14150.577    4000.9347    6039.0301    21979.114    81.405658 
   43200     1411.585   -114.77575    1.2772317   -113.49852   -4040.1426    4.3309849    4.3309849    4.3309849   -4040.1426   -9977.2762   -17062.502     14919.35   -5714.4913   -13574.256    27810.139     81.23815 
   43300    1712.6952    -115.0408    1.5496826   -113.49112    14874.868    4.3251857    4.3251857    4.3251857    14874.868   -23757.278    47877.759    20504.123   -8114.0591    7256.2395   -8654.0545    80.912249 
   43400    1514.6385    -114.8653    1.3704767   -113.49482    5681.0627    4.3270115    4.3270115    4.3270115    5681.0627   -5510.0026     45563.51   -23010.319   -6779.0266    8563.7141    12979.201    81.014759 
   43500    1146.5472   -114.53645      1.03742   -113.49903    15435.229    4.3286708    4.3286708    4.3286708    15435.229    3455.8805    55296.727   -12446.921    3493.2172    -14226.35    25395.325    81.107998 
   43600    1447.6531   -114.80407     1.309867   -113.49421   -10204.855    4.3388462    4.3388462    4.3388462   -10204.855   -44471.482    44412.994   -30556.077    12471.462    13238.087    8402.8186    81.681324 
   43700    1329.0737   -114.69338    1.2025738   -113.49081     14090.88    4.3230485    4.3230485    4.3230485     14090.88    7278.9242    55001.001   -20007.284    356.56398    13266.081    10254.686    80.792365 
   43800    1261.6107   -114.64035    1.1415319   -113.49882    9805.6485    4.3160581    4.3160581    4.3160581    9805.6485    13277.176    22844.619   -6704.8498    419.90024   -14350.881    21416.152    80.401072 
   43900     1316.974    -114.6947    1.1916258   -113.50308   -18615.238    4.3370312    4.3370312    4.3370312   -18615.238   -27256.397    5008.9136   -33598.231    1817.0164   -836.50845   -2488.9384    81.578862 
   44000    1463.5233   -114.81943    1.3242267    -113.4952   -1342.1933    4.3294082    4.3294082    4.3294082   -1342.1933    6801.6685     20536.27   -31364.519    6677.4389    8154.5282   -5949.2759    81.149455 
   44100     988.4356   -114.39171    0.8943573   -113.49736    18736.031    4.3186022    4.3186022    4.3186022    18736.031    12768.291    46385.363   -2945.5592    5929.5194   -5977.5817     20227.45    80.543332 
   44200    1092.4024    -114.4901   0.98842861   -113.50167   -5707.8405    4.3284709    4.3284709    4.3284709   -5707.8405   -20992.116    14254.022   -10385.427    3411.3062   -7967.8262   -656.33107    81.096758 
   44300    1203.4073   -114.58308    1.0888682   -113.49422    17298.502    4.3254942    4.3254942    4.3254942    17298.502    17199.183    47383.233   -12686.909    11831.848    2019.3425   -15160.083    80.929567 
   44400    1140.1772   -114.53141    1.0316563   -113.49976   -2593.9609    4.3265189    4.3265189    4.3265189   -2593.9609    17829.884   -12077.207   -13534.559   -19108.655   -5035.5447    17936.496    80.987093 
   44500    919.04093   -114.33302   0.83156755   -113.50145   -21146.356    4.3278344    4.3278344    4.3278344   -21146.356   -6323.7323   -31735.025   -25380.309   -4610.3904   -13515.329    3584.5088     81.06099 
   44600     1433.539   -114.79112    1.2970962   -113.49403    6637.9552    4.3185763    4.3185763    4.3185763    6637.9552    18321.853    -4293.974     5885.987    7846.0345    1002.3555    -16711.88    80.541883 
   44700    1271.8307   -114.65102    1.1507791   -113.50024   -8014.2159    4.3325611    4.3325611    4.3325611   -8014.2159    9087.6627   -21044.281   -12086.029    -1203.427   -4561.7644    26613.332    81.326874 
   44800    1045.9727   -114.45201    0.9464181   -113.50559   -21423.354    4.3241102    4.3241102    4.3241102   -21423.354    6198.1915   -43784.023   -26684.231   -9661.6455   -15377.799     19931.77    80.851904 
   44900     1243.364    -114.6262    1.1250219   -113.50118    28300.008    4.3112432    4.3112432    4.3112432    28300.008    34103.549    58015.818   -7219.3433   -5323.9983   -3669.3737   -16750.929     80.13229 
   45000    1616.1542    -114.9639    1.4623303   -113.50157   -14384.449    4.3353343    4.3353343    4.3353343   -14384.449   -6271.6186   -23123.412   -13758.317    13233.267   -139.54092   -2002.3645    81.483143 
   45100    1275.2785   -114.65483    1.1538988   -113.50093   -7237.9796    4.3266775    4.3266775    4.3266775   -7237.9796   -4852.4685    6723.8722   -23585.343    8114.0887   -12922.633    20341.411    80.996001 
   45200    1340.3947   -114.70653    1.2128173   -113.49372    22226.588    4.3163396    4.3163396    4.3163396    22226.588    32084.991    29438.933    5155.8391   -2919.0099   -7491.6401   -8209.7853    80.416809 
   45300     1824.548   -115.14463    1.6508894   -113.49374   -22668.369    4.3354751    4.3354751    4.3354751   -22668.369   -4088.5389   -41332.189   -22584.379    4522.3718   -16.174975    -19350.83    81.491084 
   45400    1250.6375   -114.62519    1.1316031   -113.49358   -12470.129     4.332328     4.332328     4.332328   -12470.129   -7229.8533    664.04419   -30844.579     1567.103   -10484.663    13866.432    81.313747 
   45500     1360.879    -114.7198    1.2313519   -113.48845   -722.12321    4.3256939    4.3256939    4.3256939   -722.12321   -701.09175    16588.001   -18053.279   0.40815622   -12283.403    1639.3518    80.940774 
   45600    1432.2446   -114.78048     1.295925   -113.48456   -9567.0632    4.3355851    4.3355851    4.3355851   -9567.0632     -17838.2    5724.0547   -16587.044    7135.1921    806.40118   -15809.659    81.497286 
   45700    825.19896   -114.23789   0.74665736   -113.49123   -8713.5037    4.3321468    4.3321468    4.3321468   -8713.5037   -44654.314    37325.766   -18811.963    2959.6841   -12950.463    7538.3787    81.303545 
   45800    834.27146   -114.24982   0.75486635   -113.49496    3442.3915    4.3264781    4.3264781    4.3264781    3442.3915   -14684.997    45278.936   -20266.765    494.30864   -13092.415    17670.705    80.984802 
   45900    1276.9571   -114.64416    1.1554176   -113.48874    2473.6853    4.3313716    4.3313716    4.3313716    2473.6853   -16607.276    30333.191   -6304.8588   -2434.1876    3278.8782   -9985.4371    81.259907 
   46000    810.07709   -114.22623   0.73297477   -113.49326    2766.8142    4.3322742    4.3322742    4.3322742    2766.8142   -54597.177    23151.215    39746.404    9382.3016   -13942.515    11057.678    81.310718 
   46100    728.61617   -114.15719   0.65926722   -113.49792   -10020.489    4.3350878    4.3350878    4.3350878   -10020.489   -49403.433    4917.1737    14424.793    3263.6549   -5939.6196    20144.768    81.469246 
   46200    1336.4428    -114.6947    1.2092415   -113.48546     492.3127    4.3320367    4.3320367    4.3320367     492.3127   -28029.166    16457.335    13048.769    2184.8269    12380.897   -2603.7746    81.297346 
   46300    1318.5125   -114.67766    1.1930178   -113.48464    -2077.669     4.322218     4.322218     4.322218    -2077.669   -35554.564    3242.5251    26079.032    15750.571   -9065.6724    10181.256    80.745814 
   46400    861.62604   -114.28184   0.77961735   -113.50222   -8629.7531    4.3228253    4.3228253    4.3228253   -8629.7531   -37078.242     11704.95   -515.96714    991.17243   -23053.294     23623.05    80.779849 
   46500    1382.1015   -114.75179    1.2505545   -113.50124   -5022.9921    4.3268623    4.3268623    4.3268623   -5022.9921   -14170.795    2630.1877   -3528.3691   -3112.7669   -8920.4021    5997.5855    81.006377 
   46600    1449.6139    -114.8112    1.3116411   -113.49956     4345.796     4.329368     4.329368     4.329368     4345.796   -20138.587   -8459.6736    41635.648     13191.62    5410.2637   -5173.9694    81.147194 
   46700     1229.925   -114.61441     1.112862   -113.50155    8675.7922    4.3238883    4.3238883    4.3238883    8675.7922    -3062.021    1831.7546    27257.643    6898.0406   -1259.6069    21975.166     80.83946 
   46800    1549.0272   -114.89749    1.4015923   -113.49589    10098.714    4.3275293    4.3275293    4.3275293    10098.714    5074.3015    9175.3754    16046.464   -2449.5006    2205.8026    17652.677    81.043848 
   46900    1475.0648   -114.82956    1.3346697   -113.49489   -2003.4201    4.3357006    4.3357006    4.3357006   -2003.4201   -23007.696   -8817.2678    25814.704    8379.3189     2699.153   -11282.265    81.503798 
   47000    1391.7407   -114.75626    1.2592763   -113.49699    5581.1352    4.3212253    4.3212253    4.3212253    5581.1352   -699.79578     5269.126    12174.075    17189.328    -6648.184    2063.3928    80.690187 
   47100    1689.6735   -115.02714    1.5288521   -113.49828     17546.37    4.3211288    4.3211288    4.3211288     17546.37    32208.282    17039.613    3391.2143    -4480.246   -16083.476    15764.969    80.684784 
   47200    1684.7601   -115.02242    1.5244063   -113.49802   -6920.0793    4.3391387    4.3391387    4.3391387   -6920.0793    -18608.16    260.80979   -2412.8874   -1605.5231    8147.2844    2084.3805    81.697843 
   47300    1404.8507   -114.76802    1.2711385   -113.49688   -3324.0789    4.3273756    4.3273756    4.3273756   -3324.0789    15442.111     -22543.6    -2870.748    14203.886    10359.189   -5471.3953    81.035212 
   47400    1580.9229   -114.92188    1.4304523   -113.49143    16461.391    4.3184958    4.3184958    4.3184958    16461.391     40374.87    7982.8258    1026.4759   -11737.628   -8760.3063    2763.5444    80.537381 
   47500    1738.2695   -115.06803    1.5728228   -113.49521   -11744.712     4.331372     4.331372     4.331372   -11744.712   -20722.273   -17743.423    3231.5586    16132.943    4315.8356    2042.7612    81.259929 
   47600    1258.2462   -114.64157    1.1384876   -113.50309    2233.0808    4.3242609    4.3242609    4.3242609    2233.0808    17104.671   -26166.734    15761.305    21254.874    2376.3283   -4213.1205    80.860361 
   47700    1426.6259   -114.79151    1.2908411   -113.50067    8549.4411    4.3243337    4.3243337    4.3243337    8549.4411    23668.093   -8458.1201     10438.35   -3907.4118   -3662.1661   -9844.6199    80.864443 
   47800    1418.7102   -114.77825    1.2836788   -113.49457   -14079.055    4.3363193    4.3363193    4.3363193   -14079.055   -41191.391   -2473.5879    1427.8135    639.95452    7042.0115   -7395.1511    81.538696 
   47900    976.42194    -114.3791   0.88348709   -113.49562   -4547.9617    4.3231698    4.3231698    4.3231698   -4547.9617   -21516.082   -8936.1155    16808.312    19745.745    5453.2199    -3899.984    80.799165 
   48000    1018.5584   -114.41483   0.92161306   -113.49321    11518.948    4.3234133    4.3234133    4.3234133    11518.948   -9158.2944    28897.724    14817.415    6994.1419   -2986.1108   -20534.438     80.81282 
   48100    1176.3863   -114.55491     1.064419   -113.49049   -11723.076    4.3357907    4.3357907    4.3357907   -11723.076   -37915.443    1269.7013    1476.5119    3885.0887    1017.9047   -8664.7618    81.508878 
   48200    697.67683   -114.12462   0.63127266   -113.49335     1325.244    4.3263613    4.3263613    4.3263613     1325.244   -40955.014    29427.747    15502.999    21082.701    6491.6857    3904.4011    80.978242 
   48300    940.38941   -114.34144    0.8508841   -113.49056    2146.3933    4.3265012    4.3265012    4.3265012    2146.3933   -19488.377    16077.548    9850.0094    7858.6851   -3906.8444   -10557.893    80.986103 
   48400    1107.3025   -114.49245    1.0019106   -113.49054   -9734.1947    4.3314813    4.3314813    4.3314813   -9734.1947   -18058.181    8832.3856   -19976.788    -3186.861   -1676.6004   -10163.866    81.266083 
   48500    762.52917   -114.18535   0.68995242    -113.4954    8764.3787    4.3233628    4.3233628    4.3233628    8764.3787   -19664.537    12424.868    33532.805    19025.102    15747.355    5966.5113     80.80999 
   48600    1088.0374   -114.48315   0.98447909   -113.49867   -11128.358    4.3336558    4.3336558    4.3336558   -11128.358   -13187.875   -25289.386    5092.1881     53.08636    866.94316    10397.681    81.388539 
   48700    1313.4819   -114.67721     1.188466   -113.48875   -146.47853    4.3355473    4.3355473    4.3355473   -146.47853   -2336.3226    12608.932   -10712.045   -5168.7398    3063.3027   -2668.0106    81.495152 
   48800    1042.6117   -114.43567   0.94337695   -113.49229    16420.413    4.3225801    4.3225801    4.3225801    16420.413    8146.7633    17929.669    23184.808    21735.592    11314.725    3213.3946    80.766108 
   48900    1141.7994   -114.53212    1.0331241   -113.49899    8534.1394    4.3283751    4.3283751    4.3283751    8534.1394   -2003.1059    5651.4198    21954.104    4806.8366    4463.8916    14401.591    81.091377 
   49000    1574.4102   -114.91364    1.4245594   -113.48908    13985.539    4.3330232    4.3330232    4.3330232    13985.539    1555.7174     44480.62    -4079.722   -12212.725    1665.5352    3556.8648    81.352898 
   49100    1358.2468   -114.72642    1.2289702   -113.49745   -5428.1721    4.3311523    4.3311523    4.3311523   -5428.1721   -2776.0522   -16333.751    2825.2867    16051.148     5178.455   -2800.2106    81.247566 
   49200    1009.0882   -114.41385   0.91304422   -113.50081    1696.6298    4.3268122    4.3268122    4.3268122    1696.6298    -9375.613   -13448.977    27914.479    27042.746    8076.1721    -1402.475    81.003567 
   49300     1596.651   -114.93998    1.4446834    -113.4953     6461.149    4.3213817    4.3213817    4.3213817     6461.149   -7714.8534    1273.2709     25825.03   -8471.4371   -5799.7543    4528.1794    80.698948 
   49400    1188.6617   -114.57889    1.0755261   -113.50336    -830.1709    4.3268473    4.3268473    4.3268473    -830.1709   -24927.162   -294.68793    22731.337    8619.3143    2934.2189   -7345.8112    81.005535 
   49500    755.58517   -114.19198   0.68366934   -113.50831   -15610.339    4.3359456    4.3359456    4.3359456   -15610.339   -58537.811    1211.7321    10495.062    26260.521     11205.31   -10394.526    81.517616 
   49600     943.6792   -114.35015   0.85386077   -113.49629    11075.172    4.3287863    4.3287863    4.3287863    11075.172   -31805.492    52766.083    12264.923   -9324.0615   -4731.1259    995.57131    81.114487 
   49700     1110.284    -114.4994    1.0046083   -113.49479    6910.6082    4.3181511    4.3181511    4.3181511    6910.6082    -30861.55    37555.632    14037.743    10820.239    5619.3647    -2187.019      80.5181 
   49800    630.26378   -114.07857   0.57027591    -113.5083    -11372.21    4.3311293    4.3311293    4.3311293    -11372.21   -82351.095    30666.611    17567.854    24977.377    7519.3906   -1474.4336    81.246271 
   49900    1094.9355    -114.4885   0.99072066   -113.49778   -20625.401    4.3362312    4.3362312    4.3362312   -20625.401   -68004.696     16603.57   -10475.079   -526.69488    7170.8676   -13696.404    81.533726 
   50000    1224.7771   -114.59976    1.1082041   -113.49156    9675.5718     4.317993     4.317993     4.317993    9675.5718   -8646.6857    12377.973    25295.428   -449.12055   -3301.9041    12174.379    80.509251 
   50100    982.91038   -114.38986   0.88935797    -113.5005   -1114.4455     4.321619     4.321619     4.321619   -1114.4455   -46225.145    22081.642    20800.166    25076.859    5321.3645    4314.1062    80.712243 
   50200    1274.3498   -114.65119    1.1530585   -113.49813   -15352.334    4.3391533    4.3391533    4.3391533   -15352.334   -52366.031    3607.7861    2701.2424    1801.6737    9548.3337   -2617.9929    81.698668 
   50300    1597.2223   -114.93609    1.4452003   -113.49089    9919.5752    4.3230757    4.3230757    4.3230757    9919.5752    2643.1931     24758.27    2357.2625   -1537.6916   -6685.3562    15371.565    80.793888 
   50400    1160.6862   -114.55054    1.0502132   -113.50032    10908.728    4.3159099    4.3159099    4.3159099    10908.728   -9895.9859    28892.195    13729.975    25674.856    9392.8117    5459.4345     80.39279 
   50500     1358.632   -114.73456    1.2293188   -113.50524    -17732.64    4.3345772    4.3345772    4.3345772    -17732.64   -26193.948   -7979.7421   -19024.229    20104.337    15789.358    4217.0941    81.440461 
   50600     1907.313   -115.21687    1.7257769   -113.49109    5566.1489    4.3277237    4.3277237    4.3277237    5566.1489     14340.39    5442.6062   -3084.5493   -10445.614   -524.98979   -2144.3284    81.054768 
   50700    1280.2746   -114.65674    1.1584193   -113.49832    3065.5714    4.3261011    4.3261011    4.3261011    3065.5714    2310.5216    5498.2533    1387.9391    17467.658    8309.0388    6871.2245    80.963635 
   50800    1311.1842   -114.68659     1.186387   -113.50021   -24712.131    4.3279098    4.3279098    4.3279098   -24712.131   -28384.041   -28019.963   -17732.388    21367.771    13369.759   -743.32445    81.065227 
   50900    1774.9122   -115.09754    1.6059778   -113.49156    9232.4459    4.3162807    4.3162807    4.3162807    9232.4459    12607.616    18788.815   -3699.0932   -11331.964    225.66058    806.92433    80.413516 
   51000    1216.2654   -114.60661    1.1005025   -113.50611   -8596.2611    4.3317123    4.3317123    4.3317123   -8596.2611   -19988.839    1374.9486   -7174.8933     15549.79    2762.4363     4625.328    81.279089 
   51100    745.33146   -114.18105   0.67439157   -113.50666   -10074.198     4.332472     4.332472     4.332472   -10074.198   -40771.461    16883.946   -6335.0784    27000.609    17909.329   -623.65146     81.32186 
   51200    1398.9925   -114.75492    1.2658378   -113.48908    20099.961    4.3139623    4.3139623    4.3139623    20099.961    4459.2572    43052.353    12788.272   -7761.7772    12146.607   -3380.8485    80.284005 
   51300    1277.4328    -114.6535    1.1558481   -113.49765     -8732.77     4.326381     4.326381     4.326381     -8732.77   -30067.432    -6067.918    9937.0399     17803.79   -9232.6715   -6689.1971    80.979353 
   51400    719.38865   -114.15366   0.65091797   -113.50275   -18263.289    4.3317172    4.3317172    4.3317172   -18263.289   -57352.601    7535.3442   -4972.6096    24324.685    13383.419    10732.331    81.279362 
   51500    1268.0465    -114.6412    1.1473551   -113.49385    7856.9316    4.3202011    4.3202011    4.3202011    7856.9316   -21680.124    12172.156    33078.762    2671.9548    15540.372   -325.34048    80.632826 
   51600    1425.4556    -114.7862    1.2897822   -113.49642    7090.4207    4.3240499    4.3240499    4.3240499    7090.4207   -6934.0185    2681.0387    25524.242    4234.2214   -10778.444    -173.1458    80.848521 
   51700     1078.766   -114.47868   0.97609013   -113.50259    -6459.098    4.3253019    4.3253019    4.3253019    -6459.098   -36499.275   -10969.524    28091.505    22420.862    16321.456   -1196.8627    80.918768 
   51800    1034.4977   -114.44403   0.93603526     -113.508    1818.9189    4.3277198    4.3277198    4.3277198    1818.9189   -37863.374    22824.495    20495.636    6606.6392    10209.007     6782.019    81.054551 
   51900    1683.2353   -115.02055    1.5230266   -113.49753   -4455.6648    4.3271143    4.3271143    4.3271143   -4455.6648   -16818.408    -6044.347    9495.7609   -10167.026   -8605.2192    10941.299    81.020537 
   52000    1096.2275   -114.49125   0.99188964   -113.49936    28337.071    4.3168577    4.3168577    4.3168577    28337.071    16550.896    34736.195    33724.122    24960.279    12754.648   -4719.1398    80.445767 
   52100    1044.7402   -114.45653   0.94530286   -113.51123   -371.53103    4.3292684    4.3292684    4.3292684   -371.53103   -30068.574    13121.686    15832.294    8641.3819    14722.964    3028.3841    81.141594 
   52200    1651.4492   -114.99076    1.4942659   -113.49649    195.26592    4.3298016    4.3298016    4.3298016    195.26592   -5913.4694    10981.518   -4482.2509   -8795.7632    -1010.728   -5887.5197    81.171577 
   52300    1392.6006   -114.75922    1.2600543   -113.49916    20845.005    4.3154715    4.3154715    4.3154715    20845.005    21868.542    41134.468    -467.9952    13085.329   -4565.7022   -3114.6821    80.368297 
   52400    1198.5001   -114.59412    1.0844281   -113.50969   -19840.716    4.3271414    4.3271414    4.3271414   -19840.716   -22364.442   -11058.747    -26098.96    22280.004    27563.687    869.03877    81.022054 
   52500    1509.2315   -114.86423    1.3655844   -113.49864    -10135.84    4.3327013    4.3327013    4.3327013    -10135.84    -2151.524   -13065.479   -15190.517    9512.3976    12470.222   -5028.5667    81.334772 
   52600    1681.3104   -115.01321     1.521285   -113.49193    -3025.799    4.3243241    4.3243241    4.3243241    -3025.799    23072.933   -23008.205    -9142.125     -2592.83   -11698.109   -82.206484    80.863903 
   52700     1044.109   -114.44434   0.94473179    -113.4996   -19112.385    4.3260986    4.3260986    4.3260986   -19112.385   -19324.355   -3579.5347   -34433.264    31228.122    21394.933    -9257.333    80.963493 
   52800    1392.9282   -114.75735    1.2603507     -113.497   -21995.229    4.3265911    4.3265911    4.3265911   -21995.229   -18707.343   -17922.853   -29355.489     13175.07    6184.5791     7172.899    80.991149 
   52900    1474.7042    -114.8268    1.3343433   -113.49246   -383.51309    4.3292942    4.3292942    4.3292942   -383.51309    4130.2799   -4815.4808   -465.33832   -4217.1763   -14273.245    1736.6726    81.143045 
   53000     878.7809   -114.29334   0.79513943    -113.4982   -13417.816    4.3320519    4.3320519    4.3320519   -13417.816     -33931.8     18772.73    -25094.38     14332.93    31721.831   -6020.8247    81.298206 
   53100    860.64685   -114.27849   0.77873135   -113.49976   -257.08797    4.3208774    4.3208774    4.3208774   -257.08797   -35788.314     52891.37    -17874.32    10924.603    18172.777    1124.7307    80.670699 
   53200    1323.0765   -114.69332    1.1971474   -113.49617    8729.4251     4.321057     4.321057     4.321057    8729.4251   -15582.746    51178.594   -9407.5728   -1469.4276   -11451.639   -802.46557    80.680763 
   53300    904.22949   -114.32483   0.81816584   -113.50666   -4697.3487     4.330084     4.330084     4.330084   -4697.3487   -40712.847    31519.163   -4898.3616    1105.1855    18986.632    2062.3005    81.187463 
   53400    573.22871   -114.02347   0.51866938    -113.5048    5458.1734    4.3292054    4.3292054    4.3292054    5458.1734   -49242.147    41909.882    23706.785     22684.35    22076.559   -1504.6706    81.138053 
   53500    1458.5662   -114.80989    1.3197414   -113.49015   -6899.7625    4.3237859    4.3237859    4.3237859   -6899.7625   -37876.604    11254.201    5923.1152   -9714.6457   -6720.4511    9921.5189    80.833718 
   53600    897.06382   -114.30949   0.81168219   -113.49781    7594.7628    4.3205181    4.3205181    4.3205181    7594.7628   -29601.491    49701.332    2684.4477    950.22017    14550.587   -6116.1216    80.650579 
   53700    918.02796   -114.33674   0.83065099   -113.50609    -15143.14     4.326964     4.326964     4.326964    -15143.14   -50231.874    8336.2228   -3533.7689    21125.048    26487.282    4431.6073    81.012094 
   53800    1257.2949   -114.63539    1.1376268   -113.49777    4307.0544    4.3302817    4.3302817    4.3302817    4307.0544   -36946.412    32422.789    17444.785    10401.449   -7542.7795   -5990.4602    81.198585 
   53900    1312.5452    -114.6825    1.1876185   -113.49488   -3383.8769    4.3232563    4.3232563    4.3232563   -3383.8769   -41494.424    37688.117   -6345.3231   -172.24527    13194.796   -926.60241    80.804016 
   54000    887.15836   -114.30591   0.80271953   -113.50319    8154.4381    4.3209184    4.3209184    4.3209184    8154.4381    -28629.43    53530.772   -438.02704    4912.3396    30403.999    1839.0218    80.672996 
   54100    1687.5372    -115.0228    1.5269191   -113.49588   -6081.7239    4.3273699    4.3273699    4.3273699   -6081.7239   -25246.083    2840.1418    4160.7695    17282.549   -13282.136   -14225.671    81.034891 
   54200    1241.7566    -114.6218    1.1235675   -113.49823    6695.0311    4.3266162    4.3266162    4.3266162    6695.0311   -29091.029    47636.557    1539.5649   -6797.1607    10808.986    12469.511    80.992557 
   54300    1246.1587   -114.62938    1.1275506   -113.50183   -347.07348    4.3226344    4.3226344    4.3226344   -347.07348   -19356.679    32665.415   -14349.957    4419.4567    34014.141   -11237.473    80.769152 
   54400    1920.6091   -115.23169    1.7378075   -113.49388    4383.7002     4.325594     4.325594     4.325594    4383.7002   -3507.3038    14450.953    2207.4517     4666.651   -4271.4295    2765.3925    80.935165 
   54500    1583.8539    -114.9299    1.4331043    -113.4968   -3630.1528    4.3296804    4.3296804    4.3296804   -3630.1528   -7745.0802    7195.1248   -10340.503    4131.2189     24728.59    726.82616    81.164761 
   54600    1283.4041   -114.66162     1.161251   -113.50037   -3809.9475    4.3264432    4.3264432    4.3264432   -3809.9475   -7058.4595    21367.661   -25739.044   -834.30108     21289.74   -9679.3467    80.982846 
   54700    1977.4704   -115.28171    1.7892568   -113.49246     4433.565    4.3267865    4.3267865    4.3267865     4433.565    989.74699    14443.827   -2132.8787   -2858.6278   -20806.006    13474.449    81.002124 
   54800     1723.874   -115.05423    1.5597975   -113.49443   -5627.8696    4.3286642    4.3286642    4.3286642   -5627.8696   -14658.556    10358.683   -12583.736   -1223.2814    22250.146   -4679.8902    81.107625 
   54900     1202.676   -114.58914    1.0882065   -113.50093    1094.7659    4.3233336    4.3233336    4.3233336    1094.7659   -18008.544    37397.492   -16104.651   -10323.114    27701.167    4782.9513    80.808349 
   55000    1785.8158   -115.11535    1.6158437   -113.49951   -1821.0498    4.3255155    4.3255155    4.3255155   -1821.0498   -11314.482    16404.135   -10552.802    6226.6373   -15620.598   -9924.3908    80.930758 
   55100    1436.4378   -114.79975    1.2997191   -113.50003    11920.327    4.3283058    4.3283058    4.3283058    11920.327   -11831.933    47739.258   -146.34394   -3754.0192    13240.604   -1049.6433    81.087478 
   55200    1257.0504   -114.63826    1.1374056   -113.50086   -8733.0788     4.328421     4.328421     4.328421   -8733.0788   -41606.877    33125.125   -17717.484    398.62238    14494.439     3051.764    81.093956 
   55300    1101.5472   -114.49513    0.9967031   -113.49843    3020.3349    4.3308557    4.3308557    4.3308557    3020.3349   -28072.488    46030.047   -8896.5545   -991.17564   -23981.307     -5497.99    81.230874 
   55400    1363.3635   -114.72672    1.2335999   -113.49312    10971.176    4.3225384    4.3225384    4.3225384    10971.176   -13245.327     34882.04    11276.816    8636.5572    10558.967    11446.567     80.76377 
   55500    971.07829   -114.38025   0.87865204   -113.50159     17543.22    4.3258099    4.3258099    4.3258099     17543.22   -4231.7234    64282.994   -7421.6094    8873.9857    29064.707   -4268.2113    80.947287 
   55600    973.56874   -114.38062   0.88090545   -113.49971   -8254.3444     4.338019     4.338019     4.338019   -8254.3444   -27735.834    12446.501    -9473.701   -8175.7476    -16753.04    2771.4933    81.634614 
   55700    986.61202   -114.38469   0.89270728   -113.49198    8118.2954    4.3270435    4.3270435    4.3270435    8118.2954   -14530.945    33588.008    5297.8228    9462.0702    -7134.788   -5631.7197    81.016558 
   55800    921.11323   -114.32828    0.8334426   -113.49484    18444.652    4.3231074    4.3231074    4.3231074    18444.652   -5025.2798    51822.843    8536.3926    3887.3722    22126.457     2460.145    80.795671 
   55900    1077.2394   -114.47021   0.97470885    -113.4955   -7349.2338    4.3327294    4.3327294    4.3327294   -7349.2338   -33939.254    18555.372    -6663.819    137.89937    -7361.349   -1028.7172    81.336354 
   56000    931.62356   -114.33843   0.84295258   -113.49548   -3506.1959    4.3344541    4.3344541    4.3344541   -3506.1959   -30003.337    18372.993    1111.7565   -1609.2786   -2924.0699   -5852.0068    81.433525 
   56100    1195.2793   -114.57235    1.0815139   -113.49083   -17775.236    4.3333619    4.3333619    4.3333619   -17775.236    -39870.26   -909.93667   -12545.511    10661.592    19277.719    7049.7326    81.371979 
   56200    1075.0983   -114.46278   0.97277158   -113.49001    24138.128    4.3167378    4.3167378    4.3167378    24138.128   -8071.7384    46301.087    34185.035   -8850.8441   -9688.9736   -5951.1422    80.439066 
   56300    1171.2795   -114.55789    1.0597983   -113.49809   -4068.9608    4.3271047    4.3271047    4.3271047   -4068.9608   -10628.568   -6135.4805    4557.1659   -10237.717   -8235.2212    959.04035    81.019993 
   56400    1182.5208    -114.5619    1.0699697   -113.49193    -29734.35    4.3449542    4.3449542    4.3449542    -29734.35   -40039.432   -33817.181   -15346.438    15575.344    11496.674      1353.53    82.026772 
   56500    1366.9643   -114.72275     1.236858   -113.48589    12437.406    4.3155434    4.3155434    4.3155434    12437.406   -8371.5711    29368.778    16315.012   -4281.4161   -6915.8433   -6678.4485    80.372311 
   56600     1118.925   -114.50773    1.0124269   -113.49531    27812.297    4.3091639    4.3091639    4.3091639    27812.297    19856.307     56132.83    7447.7528   -12252.317   -14367.559   -11864.925    80.016404 
   56700    1142.7594   -114.53434    1.0339928   -113.50034   -19782.193    4.3405332    4.3405332    4.3405332   -19782.193   -20614.678   -33056.573   -5675.3269    10207.638    6666.5501   -1206.8046    81.776635 
   56800    1388.0072   -114.74503    1.2558981   -113.48914   -903.19938    4.3318766    4.3318766    4.3318766   -903.19938   -5702.2207   -8203.8191    11196.442     9149.355   -233.26151   -991.73176    81.288335 
   56900    1137.0433   -114.51809    1.0288207   -113.48927    13154.332    4.3222934    4.3222934    4.3222934    13154.332    25304.136    25313.234   -11154.374    -15672.29   -11729.939   -11771.184    80.750037 
   57000    1253.5238    -114.6283    1.1342147   -113.49408   -13137.985    4.3256353    4.3256353    4.3256353   -13137.985   -2055.1835   -38106.154    747.38099    22980.954   -2858.0461   -5329.5795    80.937487 
   57100     1456.499   -114.81046    1.3178709   -113.49259    3400.8077    4.3201072    4.3201072    4.3201072    3400.8077    8405.5204   -24179.133    25976.035    9150.8425   -11519.181    167.24591    80.627571 
   57200    1166.0373   -114.55865     1.055055   -113.50359   -14155.371    4.3383089    4.3383089    4.3383089   -14155.371   -793.01838    -20140.28   -21532.816   -7015.3983   -18333.223    1627.6486    81.650982 
   57300    1024.2197   -114.43078   0.92673548   -113.50405   -11166.495    4.3292412    4.3292412    4.3292412   -11166.495   -12082.971   -20544.773   -871.73989    18064.744    109.75435   -4860.1019    81.140065 
   57400    1197.9024   -114.57301    1.0838873   -113.48912    28352.566    4.3062474    4.3062474    4.3062474    28352.566   -1609.2615    45262.242    41404.716    14979.717     3023.467   -112.94892    79.854048 
   57500    963.61831    -114.3771    0.8719021    -113.5052   -7888.9926    4.3359941    4.3359941    4.3359941   -7888.9926   -24329.915    2777.0224   -2114.0854   -4261.3677   -12416.716    12372.832    81.520351 
   57600    903.59915   -114.30838    0.8175955   -113.49078   -16202.619    4.3424862    4.3424862    4.3424862   -16202.619   -43175.653   -1794.6147   -3637.5899   -3997.1842   -10436.597    970.36606    81.887071 
   57700    961.57597   -114.35453   0.87005414   -113.48447     23941.96    4.3147598    4.3147598    4.3147598     23941.96   -10533.819    28701.294    53658.406    16740.152   -692.37185   -557.51418    80.328538 
   57800    913.85206   -114.32116   0.82687255   -113.49429    11015.218    4.3151565    4.3151565    4.3151565    11015.218   -18110.897    16970.362    34186.189   -11084.233   -7759.2886    6690.1343    80.350697 
   57900    888.58146   -114.31045   0.80400718   -113.50644   -18802.631    4.3419103    4.3419103    4.3419103   -18802.631   -65530.164   -15186.171    24308.441    -3696.277   -10716.938    6681.7848    81.854495 
   58000    1033.6292   -114.42859   0.93524946   -113.49334   -16358.222    4.3457802    4.3457802    4.3457802   -16358.222   -61862.302   -3408.8834    16196.519    10369.522    4383.6469   -12737.829    82.073562 
   58100    1290.4876   -114.65595    1.1676603   -113.48829    26566.195    4.3044753    4.3044753    4.3044753    26566.195    335.05046    39918.438    39445.097   -4991.7917   -1746.2869   -9796.8561    79.755502 
   58200    960.64603   -114.37394   0.86921271   -113.50473    31178.805    4.3048845    4.3048845    4.3048845    31178.805   -11075.418     77729.82    26882.013   -9298.5671   -15567.015    6874.7309    79.778249 
   58300    1293.0981   -114.66843    1.1700223   -113.49841   -36530.179    4.3502834    4.3502834    4.3502834   -36530.179    -58115.48   -24982.593   -26492.463    93.724205     -2505.97   -5871.4446    82.328961 
   58400    1533.1205   -114.87475    1.3871997   -113.48755    5815.8548    4.3281432    4.3281432    4.3281432    5815.8548    -10685.32    29001.143   -868.25871    7103.8158    967.65403   -8550.7483    81.078341 
   58500    1569.2801   -114.89756    1.4199177   -113.47764    17143.462      4.30184      4.30184      4.30184    17143.462    11103.144    35703.023    4624.2199   -6270.8694   -982.05466    16614.502    79.609108 
   58600    1315.8638   -114.68969    1.1906212   -113.49907   -10917.123    4.3234673    4.3234673    4.3234673   -10917.123    1633.2752   -20151.508   -14233.135   -571.31012    -3807.544    14340.007     80.81585 
   58700    1840.6718   -115.15641    1.6654785   -113.49093   -8976.7699    4.3292499    4.3292499    4.3292499   -8976.7699   -2996.8074   -6474.1886   -17459.314    7177.8781   -984.28903   -9582.8241    81.140555 
   58800    1608.5187     -114.949    1.4554216   -113.49358   -22999.135    4.3342211    4.3342211    4.3342211   -22999.135   -21449.277   -9220.6943   -38327.432   -6492.5782   -3234.0837    2563.0774    81.420392 
   58900    1370.7089   -114.73928    1.2402462   -113.49903   -19774.806    4.3216449    4.3216449    4.3216449   -19774.806    1188.3134    -38181.25   -22331.481   -6556.7278   -7888.3364    26519.189    80.713694 
   59000    1746.1017   -115.07005    1.5799095   -113.49014    27339.189     4.299766     4.299766     4.299766    27339.189    33209.704     31417.05    17390.813   -390.16053    15616.544    5412.3681    79.494022 
   59100    1445.3911   -114.81994    1.3078202   -113.51212   -19605.774    4.3356315    4.3356315    4.3356315   -19605.774   -30828.209    10737.151   -38726.263    3879.0513    13600.537   -2994.8803    81.499903 
   59200     1282.464   -114.65643    1.1604003   -113.49603   -30203.653    4.3405191    4.3405191    4.3405191   -30203.653   -13998.238   -39364.755   -37247.965   -3616.1251   -7932.1218    3067.8262    81.775843 
   59300     1665.314   -114.98418    1.5068111   -113.47737     21831.59    4.3019398    4.3019398    4.3019398     21831.59    26460.548    15751.585    23282.636   -14355.168    3634.0085    3289.0948     79.61465 
   59400    1250.0839   -114.63179    1.1311021   -113.50069    8874.7965    4.3180625    4.3180625    4.3180625    8874.7965    2674.6931     37939.92   -13990.224    2331.9435    9960.5092   -3486.4192     80.51314 
   59500    1212.1403   -114.59282      1.09677   -113.49605   -13774.228    4.3401689    4.3401689    4.3401689   -13774.228    15470.164   -22824.317    -33968.53   -5230.2194    6678.8462   -2480.0262     81.75605 
   59600     1410.978   -114.75959    1.2766826    -113.4829    8962.1566    4.3308316    4.3308316    4.3308316    8962.1566    46158.051   -14290.734   -4980.8469   -14712.166   -4703.9733    5636.4685    81.229522 
   59700    976.74056   -114.37202   0.88377538   -113.48825   -130.03305    4.3193541    4.3193541    4.3193541   -130.03305   -2902.0919    6440.6417    -3928.649    5100.5207    15378.407    939.05789    80.585409 
   59800    911.36068   -114.31972   0.82461829    -113.4951    4467.3159    4.3169059    4.3169059    4.3169059    4467.3159    14732.508    5830.7363   -7161.2963    -5695.786    5322.7268   -11419.964    80.448464 
   59900    1381.9873   -114.74707    1.2504511   -113.49662    946.21787    4.3305434    4.3305434    4.3305434    946.21787     12165.97   -5439.4631   -3887.8537   -8596.2843   -13317.204   -338.21923    81.213304 
   60000     930.2481   -114.34342   0.84170803   -113.50171   -17264.741    4.3328331    4.3328331    4.3328331   -17264.741    -33460.07   -12006.761   -6327.3912   -1984.9776    19077.304    4718.1677    81.342192 
   60100    765.38301   -114.18831   0.69253464   -113.49578   -3114.0872    4.3136637    4.3136637    4.3136637   -3114.0872   -926.60067   -1884.1309   -6531.5301    857.45669    13471.232   -10587.443    80.267339 
   60200    1066.3144   -114.46477   0.96482369   -113.49995    16480.898    4.3220378    4.3220378    4.3220378    16480.898      24850.2    18540.881    6051.6118    2631.0275   -13811.954   -148.83792    80.735715 
   60300    907.90917   -114.32196    0.8214953   -113.50046    1127.3062    4.3295798    4.3295798    4.3295798    1127.3062    13598.442   -7942.3788   -2274.1449   -4343.8734    16509.739    1459.5935    81.159104 
   60400    459.12279   -113.91588   0.41542395   -113.50046    5311.4368    4.3217796    4.3217796    4.3217796    5311.4368    40519.337   -9885.1608   -14699.866      5558.95    24544.519   -12960.863    80.721242 
   60500    930.34993   -114.33972   0.84180017   -113.49792   -7312.6428    4.3228971    4.3228971    4.3228971   -7312.6428   -14684.256    10045.377    -17299.05   -2558.8664   -20512.408   -3301.8726    80.783877 
   60600    936.58867   -114.34763   0.84744511   -113.50019    8766.5665    4.3153088    4.3153088    4.3153088    8766.5665    2786.8889    14198.131    9314.6799    -1489.275    8195.3573    7674.9694    80.359207 
   60700    476.15882    -113.9432    0.4308385   -113.51236   -4357.9458     4.328621     4.328621     4.328621   -4357.9458   -21207.663     11187.35   -3053.5244    1980.4319    28371.681   -6930.5279    81.105196 
   60800    877.95936   -114.29334   0.79439608   -113.49894   -30271.971    4.3366858    4.3366858    4.3366858   -30271.971   -38295.065   -28796.852   -23723.996    2224.6827   -10535.335   -21739.662    81.559372 
   60900    1096.3683   -114.48071   0.99201707    -113.4887    10961.701    4.3078884    4.3078884    4.3078884    10961.701   -16665.518    23860.341    25690.281    2544.8959    3066.5652    6009.9146    79.945372 
   61000     637.3348   -114.08294   0.57667392   -113.50627    859.02398    4.3166577    4.3166577    4.3166577    859.02398   -13777.251    18698.882   -2344.5595   -6832.6346    23457.669    -1301.178    80.434585 
   61100     847.0532   -114.26696   0.76643154   -113.50052    -31800.03    4.3374568    4.3374568    4.3374568    -31800.03   -15774.977   -60598.389   -19026.725    5843.5928   -274.56233    -25363.07    81.602878 
   61200    1267.9001   -114.63647    1.1472226   -113.48924   -1888.1554     4.321707     4.321707     4.321707   -1888.1554   -18396.425   -2926.6637    15658.622    3065.5457    6757.2027   -1863.5886    80.717173 
   61300    1018.3086   -114.41576   0.92138701   -113.49437   -106.49263    4.3197305    4.3197305    4.3197305   -106.49263   -12684.741    14732.944   -2367.6809     102.1452    29390.666    8866.8957    80.606478 
   61400    921.87891   -114.33632   0.83413541   -113.50218    -8561.879    4.3254496    4.3254496    4.3254496    -8561.879    8847.2232     -21957.9    -12574.96   -3195.8515    4369.1422   -3458.8027     80.92706 
   61500    1345.8503   -114.71611    1.2177536   -113.49835    749.31697    4.3275223    4.3275223    4.3275223    749.31697    14737.136   -28609.726    16120.541    4206.6681   -1374.6715   -19410.966    81.043457 
   61600    1496.7981   -114.84876    1.3543344   -113.49443   -8545.0858    4.3307646    4.3307646    4.3307646   -8545.0858   -7163.3329   -11471.318   -7000.6068   -329.24935    18733.146    8614.9979    81.225749 
   61700     1069.482   -114.46514   0.96768978   -113.49745    20633.565    4.3145039    4.3145039    4.3145039    20633.565     29464.35    26760.078    5676.2685   -1869.0936    11724.024   -6705.5121     80.31425 
   61800    1310.9673   -114.69033    1.1861908   -113.50414    9121.7853    4.3206499    4.3206499    4.3206499    9121.7853    38955.458   -34768.104    23178.002   -4022.7601   -3189.5302   -15201.563    80.657962 
   61900    1554.9523   -114.90254    1.4069535   -113.49559   -13435.138    4.3406593    4.3406593    4.3406593   -13435.138   -17141.613    -10192.37   -12971.432   -3685.5801    4305.7622    12583.075    81.783762 
   62000    1476.5463   -114.83206    1.3360102   -113.49605     10864.53    4.3151693    4.3151693    4.3151693     10864.53    12875.165    1743.8008    17974.625    6334.5774    7560.4592   -17313.239    80.351415 
   62100    1159.7006   -114.55241    1.0493215   -113.50308    17408.059    4.3068357    4.3068357    4.3068357    17408.059    53220.735   -5809.6604    4813.1023   -709.47094   -2370.4935   -36023.447    79.886781 
   62200    1468.4166   -114.83354    1.3286542   -113.50488   -15155.937    4.3334765    4.3334765    4.3334765   -15155.937   -9654.2988   -12350.846   -23462.666   -9742.6031   -11645.032    4674.0309    81.378437 
   62300    1639.0796   -114.97509    1.4830737   -113.49201   -14885.125    4.3312383    4.3312383    4.3312383   -14885.125   -17758.081       -19028   -7869.2932   -11511.392   -2544.7164    1229.3731    81.252405 
   62400    1122.2521    -114.5115    1.0154373   -113.49606    72.405281    4.3173774    4.3173774    4.3173774    72.405281    19253.592    4119.1256   -23155.502    2316.0532    4734.6583   -30058.107    80.474824 
   62500    1531.7833   -114.88571    1.3859898   -113.49972    -8367.732    4.3171275    4.3171275    4.3171275    -8367.732   -4984.7472    7172.8189   -27291.268    9546.3972   -15114.115    262.74507     80.46085 
   62600    1609.0563    -114.9588    1.4559079   -113.50289   -7068.0796    4.3256549    4.3256549    4.3256549   -7068.0796   -18735.395    17087.062   -19555.906   -3339.2202   -7759.7291   -4645.4198    80.938582 
   62700    1318.9537   -114.69671     1.193417   -113.50329   -17738.071    4.3324637    4.3324637    4.3324637   -17738.071   -4018.9717   -13715.334   -35479.908    -6132.245    4044.7324   -40794.742     81.32139 
   62800    1679.3633   -115.01607    1.5195232   -113.49655   -1925.4064    4.3169585    4.3169585    4.3169585   -1925.4064    225.19685    14859.908   -20861.324   -8427.8019   -12137.531    1365.2314    80.451404 
   62900    1548.7708    -114.9013    1.4013604   -113.49994    18194.308    4.3139024    4.3139024    4.3139024    18194.308   -8991.9408    43129.305    20445.561    4699.4365     -15023.5    13568.945     80.28066 
   63000    1487.7973   -114.85294    1.3461902   -113.50675    -11633.25    4.3300811    4.3300811    4.3300811    -11633.25    3222.9015   -12849.293   -25273.357     6319.646   -3156.2781   -33544.313    81.187298 
   63100    1706.0243   -115.04371    1.5436467   -113.50006    4425.9346    4.3264882    4.3264882    4.3264882    4425.9346    8254.7189    4379.6545    643.43047    4395.4668    8397.9737   -15737.114    80.985372 
   63200    1617.3596   -114.96042     1.463421     -113.497    15423.112     4.315857     4.315857     4.315857    15423.112   -14743.634    32559.607    28453.362   -2633.9455   -6245.6279    14956.997    80.389833 
   63300    1381.8457   -114.75625     1.250323   -113.50593   -1600.8338    4.3193665    4.3193665    4.3193665   -1600.8338    17783.324   -1374.7181   -21211.107   -10475.128   -18829.508   -20350.568    80.586105 
   63400     1456.444   -114.82402    1.3178212    -113.5062    12416.956    4.3236243    4.3236243    4.3236243    12416.956    10056.039    2846.6289      24348.2    4331.6953    5075.2933   -16797.223    80.824655 
   63500    1716.0612   -115.05258    1.5527283   -113.49986   -10063.492    4.3271134    4.3271134    4.3271134   -10063.492   -22383.934   -2557.4832   -5249.0593    5359.9012    8028.0306    2522.1676    81.020481 
   63600    1249.0956   -114.63597     1.130208   -113.50576   -9575.0632    4.3217261    4.3217261    4.3217261   -9575.0632    4358.8833   -2798.9397   -30285.133   -2528.3242   -10296.962   -4532.1739    80.718244 
   63700    1334.2472    -114.7109    1.2072549   -113.50364    13465.869    4.3139012    4.3139012    4.3139012    13465.869    16336.772    7574.1996    16486.635   -5846.9634   -7064.1059   -5069.6277    80.280598 
   63800    1556.1844   -114.91162    1.4080683   -113.50355   -12660.312    4.3290635    4.3290635    4.3290635   -12660.312   -19932.675   -9647.8318   -8400.4298   -4004.2164    15690.964    -2264.297    81.130071 
   63900    1128.4834   -114.52421    1.0210755   -113.50314   -15416.036    4.3304098    4.3304098    4.3304098   -15416.036   -18871.682    241.91364   -27618.339    4830.5312   -1261.2829    399.16015    81.205787 
   64000    1202.2614   -114.58402    1.0878313   -113.49619    3075.7749    4.3166329    4.3166329    4.3166329    3075.7749   -1248.5528   -222.98918    10698.867   -3496.0258   -21708.645   -17635.627    80.433203 
   64100    1357.1212   -114.72618    1.2279518   -113.49823   -1567.3069    4.3254341    4.3254341    4.3254341   -1567.3069   -1168.7247   -6689.3436    3156.1475   -4652.3503    16617.337   -5612.4628    80.926191 
   64200    903.41152   -114.31779   0.81742573   -113.50037   -6869.9934     4.331539     4.331539     4.331539   -6869.9934   -26236.176    22605.399   -16979.203    3435.8786    9056.1627    10895.231    81.269332 
   64300    906.20231   -114.31745   0.81995089    -113.4975   -3733.3338    4.3205037    4.3205037    4.3205037   -3733.3338   -23053.075    9843.9436    2009.1294   -6512.7601   -34587.128   -12393.422    80.649775 
   64400    1209.8431   -114.58922    1.0946915   -113.49453    2961.5641    4.3222825    4.3222825    4.3222825    2961.5641    17907.909   -20469.888    11446.671    207.31782   -288.07039   -5865.4176    80.749427 
   64500    855.86878   -114.27512   0.77440806   -113.50071    -1508.211    4.3293623    4.3293623    4.3293623    -1508.211   -9115.9895    8393.5763     -3802.22    1628.5061    11081.916    6357.9877    81.146875 
   64600    571.60536   -114.01886   0.51720054   -113.50166   -3445.4019    4.3259712    4.3259712    4.3259712   -3445.4019   -26304.138    23049.907   -7081.9749   -10232.698   -25418.263   -11824.008    80.956342 
   64700    919.36255   -114.32652   0.83185855   -113.49466   -1318.3535    4.3256791    4.3256791    4.3256791   -1318.3535    5127.2315   -25745.644    16663.352   -6435.5434   -8559.6173    -2691.601    80.939943 
   64800    1041.2949   -114.43761   0.94218555   -113.49542   -8743.5566    4.3249099    4.3249099    4.3249099   -8743.5566   -10603.161   -24095.867    8468.3584   -367.79208     779.0554    2162.6884    80.896771 
   64900    396.16629    -113.8664   0.35845958   -113.50794    -1406.202    4.3222643    4.3222643    4.3222643    -1406.202   -16021.171    8516.1219    3286.4437   -185.57073   -26867.451    -2912.161    80.748409 
   65000     828.3194    -114.2547    0.7494808   -113.50522   -9556.3631    4.3248496    4.3248496    4.3248496   -9556.3631   -46327.845    6327.9625    11330.793   -2393.7025   -10903.754   -519.36713    80.893388 
   65100    1212.8031   -114.59428    1.0973698   -113.49691   -10906.105    4.3244661    4.3244661    4.3244661   -10906.105   -31283.421   -28536.243    27101.349   -10274.393    7766.8662   -2979.9121    80.871869 
   65200    490.85441   -113.94965   0.44413539   -113.50552   -8876.6047    4.3233354    4.3233354    4.3233354   -8876.6047   -38577.554   -4881.7033    16829.443   -3912.9238    -27240.09    2630.7823    80.808452 
   65300    736.22472   -114.17093    0.6661516   -113.50478   -12038.187    4.3259114    4.3259114    4.3259114   -12038.187   -18284.034   -2661.0474   -15169.479    1020.7841   -14218.622   -3945.9782    80.952983 
   65400    1230.3197   -114.60669    1.1132191   -113.49348   -9573.9329    4.3277919    4.3277919    4.3277919   -9573.9329   -34399.296   -20315.471    25992.968   -7906.9064     11591.42   -7441.4307      81.0586 
   65500    708.67707   -114.13841   0.64122591   -113.49719   -18292.199    4.3291938    4.3291938    4.3291938   -18292.199   -48301.107   -14115.808    7540.3197   -4417.4644   -27867.483    8592.3552      81.1374 
   65600    859.33471   -114.27534    0.7775441    -113.4978   -19375.104     4.323009     4.323009     4.323009   -19375.104   -26857.069   -6009.6444   -25258.598    1697.1267   -22684.434   -1545.6008    80.790153 
   65700     1191.796   -114.57379    1.0783621   -113.49543    11065.577    4.3180162    4.3180162    4.3180162    11065.577    24774.184   -25897.855    34320.402   -2264.4119    12667.588   -3559.3068     80.51055 
   65800    999.83615   -114.40563   0.90467276   -113.50095   -5966.8484    4.3311464    4.3311464    4.3311464   -5966.8484   -11355.347   -15349.383    8804.1853   -3534.7956   -18337.239    1010.7824    81.247235 
   65900    974.67379    -114.3784   0.88190533    -113.4965   -22092.913    4.3358505    4.3358505    4.3358505   -22092.913   -33917.973   -3356.3645   -29004.402     4250.285    -19750.97    -3394.419    81.512252 
   66000    1208.6165   -114.58371    1.0935816   -113.49012    7371.4068     4.317117     4.317117     4.317117    7371.4068    16337.942   -18301.707    24077.986   -9612.9344     20500.08    2532.5472    80.460265 
   66100    1298.9265   -114.67031     1.175296   -113.49502    2291.7512    4.3172864    4.3172864    4.3172864    2291.7512    13293.618   -22407.427    15989.062   -9029.7012   -13347.091    217.19325    80.469735 
   66200    1144.1212   -114.53396    1.0352249   -113.49873   -15345.962    4.3366092    4.3366092    4.3366092   -15345.962   -11188.152   -20913.844    -13935.89     8467.608   -26102.785    6462.1055    81.555049 
   66300    1316.4511    -114.6818    1.1911526   -113.49065   -2300.0212    4.3301527    4.3301527    4.3301527   -2300.0212   -5874.2261    -15832.44    14806.602   -3991.3753     14818.47    8535.0952    81.191327 
   66400    1554.0873   -114.89546    1.4061709   -113.48929    2192.4709    4.3144947    4.3144947    4.3144947    2192.4709     4908.598   -15138.998    16807.813   -13208.429    8207.2672   -5215.0493    80.313737 
   66500     1353.856   -114.72791    1.2249973   -113.50291   -2448.3455    4.3233068    4.3233068    4.3233068   -2448.3455    6775.9322   -11817.787   -2303.1818     2456.429   -10632.691      12985.3    80.806849 
   66600    1459.8752   -114.81936    1.3209257   -113.49843   -14083.904    4.3379509    4.3379509    4.3379509   -14083.904   -13330.342   -18973.224   -9948.1448    2585.8876    5032.1351    12519.035    81.630773 
   66700    1640.3064    -114.9721    1.4841837   -113.48791    1845.4885    4.3280531    4.3280531    4.3280531    1845.4885   -6914.1852    3824.2927    8626.3579   -9404.2411    11281.691   -2215.5533    81.073279 
   66800    1581.1696   -114.91648    1.4306754   -113.48581    7053.3819    4.3206201    4.3206201    4.3206201    7053.3819    11684.466    13309.786   -3834.1063   -2304.0359   -11474.381    14674.818    80.656289 
   66900    1398.4588   -114.76262    1.2653549   -113.49726   -1549.7211    4.3253944    4.3253944    4.3253944   -1549.7211   -13230.131    33857.799   -25276.831    1768.5231   -1381.8381    14059.403    80.923962 
   67000    1782.8142   -115.10859    1.6131278   -113.49546    5066.7642    4.3235151    4.3235151    4.3235151    5066.7642   -11762.312    17456.675      9505.93   -12185.133    14423.893    5031.3151    80.818526 
   67100    1566.1468   -114.91603    1.4170826   -113.49895     24293.63    4.3246334    4.3246334    4.3246334     24293.63    2887.1366    66146.638    3847.1158   -11689.022   -3408.6098    -7282.595    80.881258 
   67200    1405.6574    -114.7763    1.2718683   -113.50443   -13215.822     4.332453     4.332453     4.332453   -13215.822    -13117.62    9876.5508   -36406.396    5623.2374   -5736.2497    20483.278     81.32079 
   67300    1515.9801   -114.86814    1.3716907   -113.49645    9965.3804     4.320079     4.320079     4.320079    9965.3804   -8442.7689    25077.047    13261.863   -56.312498     6175.087    12625.801    80.625989 
   67400    1799.0023   -115.11918    1.6277751    -113.4914    5850.9524    4.3249866    4.3249866    4.3249866    5850.9524    4098.6241    17630.595   -4176.3614   -4212.8134    7270.4353   -13594.383    80.901077 
   67500    917.07405   -114.32843   0.82978787   -113.49864   -32632.856    4.3417402    4.3417402    4.3417402   -32632.856   -12929.049   -53346.784   -31622.736    9142.3641   -2948.6759    9172.2092    81.844878 
   67600    1063.0111   -114.45591   0.96183476   -113.49408   -7535.9574    4.3176129    4.3176129    4.3176129   -7535.9574   -662.50363   -20147.417   -1797.9521    4164.6795   -5425.1188     11612.35    80.487992 
   67700    1626.9928   -114.95831    1.4721373   -113.48618    29005.133    4.3066032    4.3066032    4.3066032    29005.133    12018.466    48885.407    26111.527   -7498.7534    2733.7018   -6822.3982    79.873844 
   67800    842.06726   -114.26995   0.76192015   -113.50803   -27914.244    4.3350282    4.3350282    4.3350282   -27914.244   -14368.033   -65163.386   -4211.3142    5975.5214    1969.3445   -2406.6263    81.465884 
   67900    586.53332    -114.0363   0.53070768   -113.50559   -15476.313    4.3293649    4.3293649    4.3293649   -15476.313     10132.29   -44422.952   -12138.276    13424.949   -3077.0291    15506.414    81.147018 
   68000    1288.0335   -114.65418    1.1654398   -113.48874    19697.369    4.3200155    4.3200155    4.3200155    19697.369    5397.0607    28336.795    25358.252   -9048.6918    2953.4984    4993.3965    80.622437 
   68100    941.77772   -114.34531   0.85214028   -113.49317   -7927.3673    4.3306749    4.3306749    4.3306749   -7927.3673   -26405.117    842.72434    1780.2905    -5312.142    9355.2459    5829.6373    81.220706 
   68200     612.9553   -114.04973   0.55461484   -113.49511   -658.67799    4.3230972    4.3230972    4.3230972   -658.67799   -3022.5953    5527.2013   -4480.6399    9218.0116   -4026.8207    18886.973    80.795094 
   68300    1104.2636   -114.49308   0.99916089   -113.49392   -157.27482    4.3227214    4.3227214    4.3227214   -157.27482   -14728.871   -18249.195    32506.241   -5037.9643    276.66555    1284.7416    80.774029 
   68400    904.46191   -114.31769   0.81837614   -113.49931   -6626.8014    4.3288486    4.3288486    4.3288486   -6626.8014   -23437.612   -8044.6303    11601.838   -13857.963    17609.578    4082.0379    81.117993 
   68500    783.50333   -114.20912   0.70893027   -113.50019    5305.7619    4.3196919    4.3196919    4.3196919    5305.7619   -18288.235      14054.3     20151.22     8047.968    3304.6169    22462.388    80.604317 
   68600    1110.2276   -114.50382    1.0045573   -113.49927   -10087.573    4.3274477    4.3274477    4.3274477   -10087.573   -31568.833   -22147.738    23453.851    2790.7348   -8300.2182   -1084.1158    81.039266 
   68700    1012.7738   -114.41296   0.91637903   -113.49658   -31450.942    4.3338908    4.3338908    4.3338908   -31450.942   -71867.581   -21108.023   -1377.2217   -11317.107    23824.891   -8002.8416    81.401776 
   68800    922.98953   -114.32977   0.83514032   -113.49462     14059.96    4.3120123    4.3120123    4.3120123     14059.96    9185.2978    19572.564    13422.017    1083.0407    17655.798    12274.052    80.175186 
   68900    1381.1978   -114.74666    1.2497368   -113.49693   -2808.6355    4.3203023    4.3203023    4.3203023   -2808.6355    -10522.74   -938.37633    3035.2096     107.6121   -10006.725    21336.721    80.638495 
   69000    1098.2278   -114.49249   0.99369961   -113.49879   -36555.775    4.3367908    4.3367908    4.3367908   -36555.775   -67758.715   -17514.848   -24393.763   -15311.037    25326.852   -1087.2572    81.565296 
   69100    1068.0411   -114.46606     0.966386   -113.49968   -3949.2013    4.3111088    4.3111088    4.3111088   -3949.2013   -26314.135    24127.926   -9661.3944   -4706.4048    29179.275   -2976.1791    80.124799 
   69200    1453.1977   -114.81731    1.3148838   -113.50242    25579.544    4.3143114    4.3143114    4.3143114    25579.544    44326.836    15177.315     17234.48    11776.412   -12331.144    8023.0892    80.303497 
   69300    1525.6287   -114.87741    1.3804209   -113.49699   -26057.346    4.3368952    4.3368952    4.3368952   -26057.346   -33561.969   -12598.292   -32011.779   -6858.1722    15058.913   -1833.5626    81.571187 
   69400    1102.1475    -114.4977    0.9972462   -113.50046     156.9688    4.3171773    4.3171773    4.3171773     156.9688   -21821.213    27785.455    -5493.336   -15785.011    31940.314    8741.4502    80.463639 
   69500    1654.6597   -114.99571    1.4971709   -113.49854     8787.099    4.3187291    4.3187291    4.3187291     8787.099    3270.4943    13788.382    9302.4209    4166.8404   -5170.1553    11547.471    80.550434 
   69600    1776.2403   -115.10289    1.6071796   -113.49571     -7258.03    4.3287541    4.3287541    4.3287541     -7258.03    10725.572   -3644.4051   -28855.257    4385.4186    4917.1759   -1408.8631    81.112679 
   69700    1303.4475   -114.68083    1.1793867   -113.50144    17968.345    4.3117489    4.3117489    4.3117489    17968.345    1901.2161    45576.116    6427.7034   -8587.4945    27543.021   -8740.4982    80.160493 
   69800    1476.1436   -114.84502    1.3356458   -113.50938    9784.6334    4.3279804    4.3279804    4.3279804    9784.6334    6350.7849    21538.514    1464.6014   -4114.6687    5.6145694    6201.5135    81.069195 
   69900    2064.8569   -115.36095    1.8683259   -113.49263   -12698.402     4.332587     4.332587     4.332587   -12698.402    5234.9537   -17561.298   -25768.862    6424.6977   -2005.3058    6261.0133    81.328336 
   70000     1192.443   -114.57748    1.0789475   -113.49853    35559.051    4.3073619    4.3073619    4.3073619    35559.051     28832.58    58179.218    19665.356   -6948.3423    31406.156   -5279.3808    79.916063 
   70100    1521.5253   -114.88733    1.3767081   -113.51062    -4455.924    4.3231646    4.3231646    4.3231646    -4455.924   -10279.174    6169.3852   -9257.9832   -15842.249    12586.843   -1360.5729    80.798872 
   70200    1921.9428    -115.2343    1.7390142   -113.49529   -2424.2291    4.3315163    4.3315163    4.3315163   -2424.2291    15450.905   -18603.277   -4120.3155   -2843.3569    -8035.031   -7259.4329    81.268051 
   70300    1496.6308   -114.85015     1.354183   -113.49597    10876.732    4.3195274    4.3195274    4.3195274    10876.732   -10599.986    33842.244    9387.9388   -3346.9131    29988.084   -3797.0309    80.595109 
   70400    1265.6568   -114.64589    1.1451929    -113.5007   -18547.882    4.3284631    4.3284631    4.3284631   -18547.882   -44567.572    975.29183   -12051.367   -25709.947    21887.797    3447.9235     81.09632 
   70500    1839.7052   -115.15366     1.664604   -113.48906   -7504.8015    4.3261572    4.3261572    4.3261572   -7504.8015   -24248.242   -15085.278    16819.115   -8936.4143   -6526.7419   -5980.6272    80.966786 
   70600     1476.204   -114.82888    1.3357004   -113.49318    7315.9328    4.3220542    4.3220542    4.3220542    7315.9328   -3253.5537     10257.19    14944.162    5557.9169    21480.231    -10904.82    80.736631 
   70700    950.21754   -114.36235    0.8597768   -113.50258   -16490.895    4.3292418    4.3292418    4.3292418   -16490.895    -59348.74   -13159.387    23035.441   -29023.911    20882.018    -8178.105    81.140096 
   70800     1465.188   -114.81785    1.3257329   -113.49212   -8220.0098    4.3303796    4.3303796    4.3303796   -8220.0098   -35420.623   -20244.988    31005.582   -14375.049   -9318.2133    2352.8553    81.204091 
   70900      1425.95   -114.77829    1.2902295   -113.48806   -11847.065     4.333589     4.333589     4.333589   -11847.065   -39067.255   -20105.812    23631.871     3800.641    6293.8719    32.075856    81.384773 
   71000    802.32915   -114.22265   0.72596428   -113.49669   -1072.2165    4.3247912    4.3247912    4.3247912   -1072.2165   -29270.031    -20742.25    46795.632   -25044.111    16172.982   -9348.8971    80.890111 
   71100      1205.33   -114.58871    1.0906079   -113.49811    15250.161    4.3233753    4.3233753    4.3233753    15250.161    2733.0159   -6120.5312    49137.999   -12550.686   -6978.0703   -4607.5813    80.810692 
   71200    1609.2736   -114.94721    1.4561045    -113.4911    147.60702    4.3344463    4.3344463    4.3344463    147.60702   -823.57801   -23524.743    24791.142    6000.0964   -9802.1672    1791.3411    81.433084 
   71300    965.85153    -114.3727   0.87392276   -113.49878    241.94079    4.3276955    4.3276955    4.3276955    241.94079   -3676.2824    -26682.87    31084.975   -29653.092    6407.9324   -204.67859    81.053184 
   71400    1108.0951   -114.49874    1.0026277   -113.49612    9821.7366     4.323381     4.323381     4.323381    9821.7366    5522.7977   -6275.6596    30218.072    -21536.86    870.15966    -693.7998    80.811007 
   71500    1805.8419   -115.12303    1.6339637   -113.48906    18972.779    4.3234848    4.3234848    4.3234848    18972.779    30731.128   -5139.8271    31327.036    6559.4569   -7192.2337    2204.5941    80.816828 
   71600    1266.8733   -114.65161    1.1462936   -113.50532     6013.454    4.3270881    4.3270881    4.3270881     6013.454   -13807.075    1748.3324    30099.105   -15448.441    7240.2275   -11152.424    81.019062 
   71700    929.27907   -114.34711   0.84083123   -113.50628   -9348.7229    4.3300621    4.3300621    4.3300621   -9348.7229   -33258.547    671.52951    4540.8488   -23411.743    18770.323   -5114.9922     81.18623 
   71800    1650.7255   -114.98673    1.4936111   -113.49312    6551.8291    4.3222479    4.3222479    4.3222479    6551.8291    15388.261   -3759.8306    8027.0572    4849.0337   -9327.2744   -3815.8089    80.747488 
   71900    1385.1031   -114.75525    1.2532704   -113.50198    12597.706    4.3246384    4.3246384    4.3246384    12597.706   -11903.364    23506.003    26190.478   -4233.2535   -1172.4635   -2411.1661    80.881538 
   72000    816.77161   -114.24671   0.73903211   -113.50768    -12146.56    4.3315778    4.3315778    4.3315778    -12146.56   -35505.231    -6447.034    5512.5848   -30985.799     26105.48   -8311.9409    81.271515 
   72100    1201.7998   -114.58154    1.0874137   -113.49413    1457.0898    4.3236622    4.3236622    4.3236622    1457.0898     15372.86    5360.4884   -16362.079    8106.1011      8429.88    -8014.748    80.826777 
   72200    1410.0118   -114.76781    1.2758083     -113.492   -11187.318    4.3261818    4.3261818    4.3261818   -11187.318   -7309.1033   -7474.0642   -18778.785   -7214.2594   -5177.6505    13369.293    80.968166 
   72300    665.49824   -114.10583   0.60215679   -113.50368   -12016.018    4.3242101    4.3242101    4.3242101   -12016.018   -29867.635   -5189.8733   -990.54689   -30533.233    13473.501   -4535.2509    80.857512 
   72400    1015.5642   -114.42158   0.91890386   -113.50268    1613.7473    4.3182454    4.3182454    4.3182454    1613.7473    17063.532    11592.379   -23814.669    20.476447    26391.399   -6974.1404    80.523371 
   72500    1318.3481   -114.69419    1.1928691   -113.50132     -13363.1    4.3361217    4.3361217    4.3361217     -13363.1    -13247.87   -5743.3477   -21098.082   -696.76484   -9605.4821    1871.3179    81.527548 
   72600    978.20724   -114.39133   0.88510246   -113.50623   -13203.109    4.3235686    4.3235686    4.3235686   -13203.109   -16758.031   -2781.3262    -20069.97   -19877.164    11843.252    11776.123    80.821528 
   72700     667.0018   -114.10586   0.60351724   -113.50234    22893.645    4.3088587    4.3088587    4.3088587    22893.645   -15737.339    41004.403     43413.87   -10496.095    31489.703     1170.232    79.999405 
   72800    1539.1083   -114.89556    1.3926175   -113.50294   -15405.202    4.3350975    4.3350975    4.3350975   -15405.202   -25552.852     265.4083   -20928.164    7005.7905    -2402.445   -13289.916    81.469793 
   72900    1230.9185   -114.61575     1.113761   -113.50199    12233.518     4.327064     4.327064     4.327064    12233.518   -7192.2921     3930.034    39962.813   -15104.363    2742.6778   -5334.6999    81.017707 
   73000    857.37676   -114.28067   0.77577251    -113.5049    9181.8097      4.31853      4.31853      4.31853    9181.8097   -25728.046    22749.747    30523.728   -15916.774    32304.989    7040.0256    80.539295 
   73100    1342.0871   -114.71693    1.2143486   -113.50258    -18316.98     4.330992     4.330992     4.330992    -18316.98   -30857.616    1539.9799   -25633.305    6842.0285    15284.205    7226.0149    81.238548 
   73200    1390.7406   -114.75479    1.2583713   -113.49642    9667.0599    4.3222905    4.3222905    4.3222905    9667.0599   -4566.6277      5738.25    27829.557   -5723.5774   -11696.464    -14325.43    80.749876 
   73300    678.66325   -114.12093   0.61406877   -113.50686   -5828.2325    4.3326787    4.3326787    4.3326787   -5828.2325   -30273.166    552.12612    12236.343   -19630.778    34303.306   -4754.4061    81.333499 
   73400    1246.2749   -114.62498    1.1276557   -113.49732   -13159.796    4.3309785    4.3309785    4.3309785   -13159.796   -20931.702    -11618.38   -6929.3062    562.65169     8403.359   -3566.1684    81.237788 
   73500    1252.1216   -114.62349     1.132946   -113.49055    6486.5395     4.321417     4.321417     4.321417    6486.5395    6414.7729   -28503.224    41548.069   -11501.283   -10721.792   -474.93341    80.700926 
   73600    652.20822   -114.09454    0.5901317   -113.50441   -24232.839    4.3304066    4.3304066    4.3304066   -24232.839    -47594.16   -8579.0903   -16525.268   -18523.407    40864.082   -8465.6918    81.205607 
   73700    934.32301   -114.34863    0.8453951   -113.50324   -2357.7914    4.3199787    4.3199787    4.3199787   -2357.7914   -12086.635   -9716.3252    14729.586    904.83629    29110.143   -13417.135    80.620378 
   73800    1361.2644   -114.73117    1.2317006   -113.49947   -2382.0964      4.32331      4.32331      4.32331   -2382.0964    12177.474   -46374.669    27050.905    4125.2523   -14178.406     2249.257    80.807027 
   73900    709.12745   -114.14787   0.64163342   -113.50624    -24092.52     4.334894     4.334894     4.334894    -24092.52   -32580.272   -38664.884   -1032.4032   -8965.7483    22722.427   -3468.2724    81.458318 
   74000    587.20126   -114.03549   0.53131204   -113.50418     4689.827    4.3239892    4.3239892    4.3239892     4689.827   -4454.4838   -15596.704    34120.669   -4659.5752    37773.885    4368.1302    80.845118 
   74100    1431.6649   -114.78827    1.2954005   -113.49287   -275.31267     4.320243     4.320243     4.320243   -275.31267    20151.266   -39852.461    18875.257    9352.9173   -10817.116     1394.031    80.635173 
   74200    631.12957   -114.07315    0.5710593   -113.50209   -3747.7467     4.327472     4.327472     4.327472   -3747.7467    6168.0377   -44618.999    27207.721   -8901.9308    20685.861   -751.96866    81.040628 
   74300    661.55497   -114.10487   0.59858884   -113.50628   -20662.627    4.3300966    4.3300966    4.3300966   -20662.627   -8697.1974   -31532.337   -21758.347    -6336.245    36475.583   -3816.3241    81.188173 
   74400       1250.9    -114.6307    1.1318407   -113.49886    10024.399    4.3234123    4.3234123    4.3234123    10024.399    21583.865   -28679.798     37169.13     6106.959   -5105.8586     6581.052    80.812763 
   74500    1094.2102   -114.49387   0.99006436   -113.50381    2730.9293    4.3231307    4.3231307    4.3231307    2730.9293    9535.8731   -17036.874    15693.789    2277.0326    8116.4032    1628.1593    80.796976 
   74600    712.71601   -114.15541   0.64488043   -113.51053   -6058.9732    4.3291105    4.3291105    4.3291105   -6058.9732   -2751.8121   -18556.128    3131.0203   -8279.8947    38669.544     6117.002    81.132717 
   74700    1216.0914    -114.5985     1.100345   -113.49816   -2101.6619    4.3336386    4.3336386    4.3336386   -2101.6619   -14113.672   -40512.693     48321.38    302.45293   -4337.7008   -2791.1383    81.387571 
   74800    1458.5377   -114.81454    1.3197155   -113.49482    1509.7386    4.3188806    4.3188806    4.3188806    1509.7386    8658.4911   -2625.0458   -1504.2294    10767.428   -8393.0789   -2785.7015    80.558914 
   74900    814.42598   -114.24229   0.73690975   -113.50538    15522.496     4.312561     4.312561     4.312561    15522.496   -13480.618    29423.212    30624.892   -2687.3718    48960.429   -196.44328    80.205796 
   75000    1270.6261   -114.65803    1.1496892   -113.50834   -15447.636    4.3322308    4.3322308    4.3322308   -15447.636   -46634.593   -5949.8878    6241.5713   -6495.9898    11046.393   -2317.7458    81.308278 
   75100    1346.1224   -114.71502    1.2179999   -113.49702    1060.0367    4.3311651    4.3311651    4.3311651    1060.0367   -9884.0072   -23520.934    36585.052    8208.8995   -7160.2623    1576.2518     81.24829 
   75200    1082.1231   -114.47916   0.97912772   -113.50004   -6447.0302    4.3186964    4.3186964    4.3186964   -6447.0302   -22398.362    22482.582    -19425.31   -6471.5297    33597.822   -4991.0138    80.548605 
   75300    1000.2684   -114.41202    0.9050639   -113.50696    5751.3215    4.3209609    4.3209609    4.3209609    5751.3215   -30435.981    13111.164    34578.781     -16972.2    20365.151    5907.1944    80.675376 
   75400    1593.9441   -114.94334    1.4422341    -113.5011     4017.499    4.3241148    4.3241148    4.3241148     4017.499   -7415.5674   -1624.7436    21092.808    6790.0637   -9361.7965    1387.2828    80.852162 
   75500    1118.3401   -114.51681    1.0118976   -113.50491    5311.5233    4.3242096    4.3242096    4.3242096    5311.5233   -24268.346    14674.485    25528.431    6167.9061    21998.272   -6009.0165     80.85748 
   75600    960.05459   -114.37477   0.86867757   -113.50609   -27025.966    4.3336662    4.3336662    4.3336662   -27025.966    -54841.62    1318.2218   -27554.499    -12159.43    31754.295   -6264.4289    81.389122 
   75700    1286.8778   -114.66335    1.1643941   -113.49896    17859.651    4.3149121    4.3149121    4.3149121    17859.651    19827.885    7287.3427    26463.726   -4308.9164   -10696.881   -5281.3309    80.337044 
   75800    1407.7394   -114.77529    1.2737522   -113.50154   -691.11877    4.3155197    4.3155197    4.3155197   -691.11877   -1998.8483    16526.001   -16600.509   -2193.6609    19559.249     15496.88     80.37099 
   75900    842.04782   -114.26787   0.76190256   -113.50597   -41844.278    4.3410388    4.3410388    4.3410388   -41844.278    -53264.23   -6814.0942    -65454.51   -4731.3051    37064.347    2832.0792    81.805218 
   76000    1480.7168   -114.83495    1.3397837   -113.49517    176.92976    4.3155755    4.3155755    4.3155755    176.92976   -334.15207   -6398.8781    7263.8194   -9639.1822   -12904.733   -7519.7141    80.374105 
   76100    1252.0445     -114.631    1.1328761   -113.49812    24564.628    4.3127773    4.3127773    4.3127773    24564.628    15094.359    27702.153    30897.373    1762.3237    7509.3018   -5464.1735    80.217863 
   76200    1197.0997   -114.58431     1.083161   -113.50115   -35357.836    4.3376946    4.3376946    4.3376946   -35357.836   -44675.186   -8724.0516   -52674.271    3369.2822    43518.382   -2549.6835      81.6163 
   76300    1448.8007   -114.80504    1.3109053   -113.49414    3773.3984    4.3200333    4.3200333    4.3200333    3773.3984     3790.695   -10567.363    18096.863   -20293.416   -8834.9575    3843.9749    80.623433 
   76400    1533.6172   -114.88625    1.3876491    -113.4986    9921.6207     4.320015     4.320015     4.320015    9921.6207   -8651.4994    14424.907    23991.454   -4597.6712   -7950.5061    1394.9589    80.622409 
   76500    1479.9549   -114.83744    1.3390943   -113.49835   -14171.581    4.3340267    4.3340267    4.3340267   -14171.581   -18444.793   -292.12587   -23777.823    11019.684    31936.933    4793.4945    81.409435 
   76600    1604.8349   -114.94622    1.4520884   -113.49414    6370.7416    4.3205976    4.3205976    4.3205976    6370.7416   -6757.4647   -7625.0062    33494.696   -16907.193    6723.4681   -8385.1034    80.655033 
   76700    1585.9577   -114.93501    1.4350079       -113.5   -1222.1363    4.3264052    4.3264052    4.3264052   -1222.1363   -5199.6589    118.68742    1414.5625    -7281.019   -4376.3135   -3893.3419    80.980708 
   76800    1475.6349    -114.8357    1.3351855   -113.50051   -6264.9605    4.3315055    4.3315055    4.3315055   -6264.9605   -27251.923     8973.627   -516.58528    7171.1281    6810.4239   -2737.8265    81.267447 
   76900    1506.9567   -114.86124    1.3635261   -113.49772    6385.3368    4.3207044    4.3207044    4.3207044    6385.3368   -2045.6364    1086.8205    20114.826   -21991.693    16052.628    -6622.365    80.661009 
   77000    1475.4534   -114.83682    1.3350213    -113.5018    1404.6939    4.3275778    4.3275778    4.3275778    1404.6939   -2937.3353    -8792.979    15944.396   -11676.457   -1896.1237   -5370.4373    81.046572 
   77100    1475.0116   -114.83098    1.3346215   -113.49636     -178.686    4.3295284    4.3295284    4.3295284     -178.686    3589.6592    6296.6732    -10422.39    12568.232     -4489.83   -7752.0641    81.156216 
   77200      1329.57   -114.69994    1.2030229   -113.49691    2860.2176    4.3226558    4.3226558    4.3226558    2860.2176   -7246.4914    7075.4548    8751.6893   -5669.7873    16089.336    3957.1682    80.770348 
   77300    1221.1779   -114.60629    1.1049475   -113.50134   -4752.3579    4.3275289    4.3275289    4.3275289   -4752.3579   -11458.762   -23770.774    20972.462   -21146.802   -1529.6237   -4645.4676    81.043828 
   77400    1444.8336   -114.80259    1.3073158   -113.49527    5279.7049    4.3223264    4.3223264    4.3223264    5279.7049    -739.9275    9995.3672    6583.6749   -264.45324   -6219.8747    -9529.571    80.751885 
   77500    1026.5388   -114.42923   0.92883384    -113.5004    12882.752    4.3236882    4.3236882    4.3236882    12882.752    37928.602    3082.4613   -2362.8077   -3857.0586    3188.4729   -163.10451    80.828239 
   77600    1008.9197   -114.41392   0.91289178   -113.50103   -15298.473    4.3336817    4.3336817    4.3336817   -15298.473   -28758.724    -22338.57    5201.8735   -19874.278    3283.4299    805.10642    81.389994 
   77700    1281.5836   -114.64909    1.1596038   -113.48948    14400.872    4.3191548    4.3191548    4.3191548    14400.872      10230.2    10203.253    22769.164   -1107.3236   -4813.1097    1438.4524    80.574255 
   77800    1048.0668   -114.44905   0.94831283   -113.50074    8884.3279    4.3227115    4.3227115    4.3227115    8884.3279    14419.716    11158.686    1074.5815    627.55667   -9181.4729    4030.5742    80.773472 
   77900    838.75544   -114.26074   0.75892355   -113.50182    -8822.989    4.3357262    4.3357262    4.3357262    -8822.989    9198.7921   -4234.2274   -31433.532   -18663.433    15017.919    3454.9966    81.505245 
   78000     1468.536   -114.81782    1.3287623   -113.48906   -4171.9988    4.3217744    4.3217744    4.3217744   -4171.9988    7248.7358   -10007.508   -9757.2239    913.53941   -6784.8663   -9808.0425    80.720954 
   78100    1065.4122   -114.46232   0.96400733   -113.49832   -2248.7712    4.3236259    4.3236259    4.3236259   -2248.7712   -10358.053   -2168.4762    5780.2155    24204.294    -9642.149    1565.4509    80.824745 
   78200    1045.0775   -114.44442   0.94560807   -113.49881   -15838.311    4.3298358    4.3298358    4.3298358   -15838.311   -6453.3316   -1452.5943   -39609.007   -9241.4278    24487.717    1125.9584    81.173504 
   78300    1465.6043   -114.81739    1.3261096   -113.49128    1258.3027    4.3193624    4.3193624    4.3193624    1258.3027    26283.944   -5924.1522   -16584.883   -9780.7402    5636.6752    335.57708    80.585874 
   78400    1140.3131   -114.53233    1.0317792   -113.50055   -15722.538    4.3275409    4.3275409    4.3275409   -15722.538   -5838.4759   -11149.358   -30179.781    26387.486   -2204.1542    3524.7272    81.044499 
   78500     1225.284   -114.60753    1.1086627   -113.49887   -17126.894    4.3285973    4.3285973    4.3285973   -17126.894   -9206.2822    3557.6762   -45732.077   -3474.2881    16169.968   -3046.8382    81.103865 
   78600     1262.863   -114.63775     1.142665   -113.49508    4928.2603    4.3264721    4.3264721    4.3264721    4928.2603    41970.997   -11434.372   -15751.844    5476.2033    1753.8673      4744.51    80.984464 
   78700    1458.2771   -114.81554    1.3194797   -113.49606   -19064.313    4.3258253    4.3258253    4.3258253   -19064.313   -4613.3735   -24952.755   -27626.812    38082.459   -1177.2287   -2388.7251    80.948151 
   78800    1094.9627   -114.49442   0.99074528   -113.50368    6908.3597    4.3221975    4.3221975    4.3221975    6908.3597    51047.332      14847.2   -45169.453    -6124.713    6927.9698    1778.3509     80.74466 
   78900    1299.2476   -114.68224    1.1755865   -113.50665   -19684.389    4.3305371    4.3305371    4.3305371   -19684.389   -11787.139   -1168.5016   -46097.527   -1480.1093    14880.412     3968.523    81.212952 
   79000    1269.2377   -114.64823    1.1484329    -113.4998   -1556.3339    4.3257747    4.3257747    4.3257747   -1556.3339    14203.251   -11520.651   -7351.6014     20838.23   -8820.5413   -3388.3535    80.945309 
   79100    1202.4512   -114.58724    1.0880032   -113.49924   -4539.8582    4.3299816    4.3299816    4.3299816   -4539.8582     20102.57    187.57467   -33909.719    3404.3666    9464.0134   -267.93609    81.181704 
   79200    1187.2976   -114.56957    1.0742918   -113.49528   -12447.014     4.326981     4.326981     4.326981   -12447.014   -4167.6618    13943.865   -47117.246    7353.8077    25755.344   -1006.5639    81.013045 
   79300    1156.4811   -114.54144    1.0464084   -113.49503    4452.8627    4.3185271    4.3185271    4.3185271    4452.8627    7326.0694    3054.9933    2977.5255    21447.275   -7889.1564    6522.7676    80.539133 
   79400    1103.9717   -114.49924   0.99889675   -113.50034   -20084.042    4.3391608    4.3391608    4.3391608   -20084.042   -21945.706   -19157.918   -19148.502    12638.274    3326.2611    3779.4068     81.69909 
   79500    1070.5711   -114.46498   0.96867519   -113.49631   -3779.4246    4.3257967    4.3257967    4.3257967   -3779.4246    -1311.775     14892.22   -24918.718   -4331.5915    36417.306   -4903.0196    80.946545 
   79600    1158.7274   -114.53967    1.0484409   -113.49123    11098.722     4.310404     4.310404     4.310404    11098.722    3105.7671    19340.593    10849.806    7118.0314    8202.2306    2167.2625    80.085506 
   79700    999.39124   -114.40558    0.9042702   -113.50131   -27168.369    4.3382453    4.3382453    4.3382453   -27168.369   -46835.398   -25299.565   -9370.1456    28318.252   -1719.3969   -6846.9863    81.647391 
   79800    1208.7041   -114.59076    1.0936609    -113.4971   -9695.1049    4.3266302    4.3266302    4.3266302   -9695.1049   -5704.4458    1232.7668   -24613.636   -6786.8152    19840.291   -6580.0889    80.993343 
   79900    1112.5776   -114.50458    1.0066836   -113.49789    19315.867    4.3116859    4.3116859    4.3116859    19315.867    24161.851    12964.819    20820.932    4959.4601    15820.462    3443.3541    80.156977 
   80000    1029.7214   -114.44103   0.93171358   -113.50931   -15091.431    4.3321275    4.3321275    4.3321275   -15091.431   -29896.719   -19579.814     4202.239    20381.706    -23329.91    1976.9499     81.30246 
   80100    1234.2897   -114.61593    1.1168113   -113.49911    -4541.975    4.3296005    4.3296005    4.3296005    -4541.975   -1288.4298   -723.40799   -11614.087    -643.0351    7559.6067   -1941.4701    81.160271 
   80200    1217.1441   -114.59593    1.1012976   -113.49464    23945.822    4.3213847    4.3213847    4.3213847    23945.822    12946.898    18897.939    39992.628    -6192.068    15426.208   -7589.5513    80.699116 
   80300    1021.3759   -114.42436   0.92416237    -113.5002     7803.004    4.3264948    4.3264948    4.3264948     7803.004     28473.45   -22893.826    17829.387    20717.342    -12585.16   -3373.6288    80.985742 
   80400    1322.8094   -114.69578    1.1969058   -113.49887   -4493.7893    4.3283779    4.3283779    4.3283779   -4493.7893    1563.6866   -22783.949    7738.8946    12158.027    6458.2165    4840.7251    81.091536 
   80500    1320.9531   -114.69234    1.1952261   -113.49711    19073.802    4.3281198    4.3281198    4.3281198    19073.802    23637.956    6311.1771    27272.272   -749.81103     17099.16   -7027.8697    81.077026 
   80600    1243.9436   -114.62427    1.1255463   -113.49872    9235.7206    4.3281376    4.3281376    4.3281376    9235.7206    28729.703   -9005.5742    7983.0326    14555.575   -8550.6269   -3987.3242     81.07803 
   80700      1195.61   -114.58207    1.0818131   -113.50026    1237.7588    4.3306212    4.3306212    4.3306212    1237.7588    18533.025   -11620.346   -3199.4021   -1520.2738    -12165.66    2083.4081    81.217684 
   80800    1522.3297   -114.86829    1.3774359   -113.49086    17839.446    4.3292303    4.3292303    4.3292303    17839.446    35789.128    6952.5251    10776.686   -3812.4624    1538.8884   -3008.9122    81.139452 
   80900    1500.3299   -114.84995      1.35753   -113.49242    18646.562    4.3234947    4.3234947    4.3234947    18646.562     23864.35    17658.872    14416.463    22949.875    5532.6593    -5523.314    80.817383 
   81000    1108.9071   -114.50708    1.0033624   -113.50372    566.84126    4.3291288    4.3291288    4.3291288    566.84126    29780.691   -3992.8039   -24087.363    7225.8525   -4123.8378    4699.6813    81.133744 
   81100    1375.9249   -114.74211    1.2449657   -113.49714   -153.40184    4.3296347    4.3296347    4.3296347   -153.40184    36772.406   -12335.716   -24896.896   -3296.5704   -17337.666    19497.624    81.162191 
   81200    1608.5763   -114.94745    1.4554736   -113.49198    19753.776    4.3181009    4.3181009    4.3181009    19753.776    30244.536     16389.51    12627.283   -6867.7207   -2293.9485   -7324.4806    80.515289 
   81300    1298.0739   -114.67773    1.1745245    -113.5032   -9931.3395    4.3322314    4.3322314    4.3322314   -9931.3395   -3331.0368   -20652.139   -5810.8429      18392.3   -6431.0624   -1190.8982    81.308313 
   81400    1348.1886    -114.7168    1.2198694   -113.49693   -12364.011    4.3337586    4.3337586    4.3337586   -12364.011    5079.1931   -17891.004   -24280.222    7352.3356   -12548.371    10412.378    81.394328 
   81500    1489.0281   -114.83615    1.3473039   -113.48885    14372.464    4.3178059    4.3178059    4.3178059    14372.464    21090.182    11305.487    10721.724   -7866.3707    10527.229   -1065.9359    80.498787 
   81600    1399.0149   -114.76492    1.2658581   -113.49906   -12654.546    4.3297531    4.3297531    4.3297531   -12654.546   -21410.316   -22244.934    5691.6127    12107.682   -1373.5818    10844.341    81.168851 
   81700    1415.9041   -114.77513    1.2811398   -113.49399   -9636.0239    4.3324962    4.3324962    4.3324962   -9636.0239    426.70528   -15733.911   -13600.865    1348.2317   -10540.617    21921.442     81.32322 
   81800    1455.4926   -114.80586    1.3169602    -113.4889    8364.1195    4.3186834    4.3186834    4.3186834    8364.1195    11151.649    4029.8032    9910.9065   -1949.8451    1751.1944    11235.073    80.547875 
   81900    990.03188   -114.40043   0.89580165   -113.50463    1398.4923     4.329332     4.329332     4.329332    1398.4923   -20632.224    15985.236    8842.4659    8960.9429    6825.2824   -3414.1086    81.145169 
   82000    1343.9867   -114.71231    1.2160674   -113.49625   -11545.554    4.3308728    4.3308728    4.3308728   -11545.554   -11500.504    -23930.14    793.98356   -2809.5454    -805.9237    11030.968    81.231841 
   82100    1268.6334   -114.64033    1.1478862   -113.49244    12424.871    4.3194627    4.3194627    4.3194627    12424.871    7513.8955    15178.262    14582.457    7342.8309   -3879.8628     20458.73     80.59149 
   82200    910.33735   -114.32695   0.82369237   -113.50326   -1864.5944    4.3277417    4.3277417    4.3277417   -1864.5944   -29415.486    1539.6987    22282.004    8799.3687    7790.3599    9204.0929    81.055784 
   82300    880.72444   -114.29465   0.79689798   -113.49776   -3505.2503    4.3327998    4.3327998    4.3327998   -3505.2503   -13488.172    -13560.94    16533.361   -8007.9966   -8524.9718    5068.4082     81.34032 
   82400    984.78791   -114.37913    0.8910568   -113.48807    16265.765    4.3283603    4.3283603    4.3283603    16265.765    18095.928    9350.3752     21350.99    5329.4358   -8787.4157    14663.722    81.090544 
   82500    954.93039   -114.35352   0.86404109   -113.48947   -7635.3581    4.3297002    4.3297002    4.3297002   -7635.3581   -11983.122    -41665.06    30742.108    10306.967    2372.0491    3180.6879    81.165878 
   82600    739.93625   -114.16463   0.66950987   -113.49512    1362.4318    4.3203581    4.3203581    4.3203581    1362.4318    4781.5208    -43102.72    42408.495   -1443.3513    -9302.747     812.8494    80.641619 
   82700    681.17362   -114.12186   0.61634021   -113.50552    23099.779    4.3220201    4.3220201    4.3220201    23099.779    37312.774    16412.903    15573.661   -14.838481   -16541.919     17709.84    80.734719 
   82800    1165.1344   -114.55638    1.0542381   -113.50214   -8088.6206    4.3375833    4.3375833    4.3375833   -8088.6206    8346.7785   -37644.334    5031.6932    2059.4279   -3333.9292     703.3378    81.610017 
   82900    1157.1664   -114.54001    1.0470285   -113.49298   -105.56989    4.3298595    4.3298595    4.3298595   -105.56989    10378.303    -38417.13    27722.117   -6372.9978    4012.6213   -2415.6084    81.174835 
   83000    1095.8272   -114.48291    0.9915275   -113.49138    9588.9027    4.3197875    4.3197875    4.3197875    9588.9027    6796.9311    16448.302    5521.4746   -7314.0553   -12856.519     18140.08    80.609671 
   83100    1412.4513   -114.77044    1.2780156   -113.49242   -10407.172    4.3303469    4.3303469    4.3303469   -10407.172   -9365.7187   -3983.5823   -17872.214     7689.499   -3356.6121    13015.302    81.202253 
   83200    1546.7734   -114.89105    1.3995531    -113.4915   -3715.3067    4.3260058    4.3260058    4.3260058   -3715.3067    3156.1496   -17283.077    2981.0069   -4283.6213    7223.9469   -228.96137    80.958285 
   83300    1430.8844   -114.79133    1.2946943   -113.49663   -869.73715     4.321357     4.321357     4.321357   -869.73715    -13163.07    1411.9045    9141.9543   -13596.112   -5032.8058   -3264.0178    80.697567 
   83400    1201.2661   -114.58925    1.0869308   -113.50232   -18030.027    4.3305271    4.3305271    4.3305271   -18030.027   -11580.139   -6293.9617   -36215.981    1319.6159     3822.576    14346.488    81.212389 
   83500    1485.6904    -114.8397    1.3442839   -113.49542   -5310.8485    4.3233257    4.3233257    4.3233257   -5310.8485   -4664.9706   -6739.7577   -4527.8171   -13810.669    4289.2693    4100.0679    80.807905 
   83600    1337.8369   -114.71019     1.210503   -113.49969    4965.7006    4.3249318    4.3249318    4.3249318    4965.7006    852.96936   -3373.6105    17417.743   -17929.456   -4466.6554   -1686.7895    80.898001 
   83700    1098.8491   -114.49817   0.99426177   -113.50391   -12288.049    4.3321045    4.3321045    4.3321045   -12288.049   -130.69662   -7301.9349   -29431.517    6005.8809    -9627.147    17615.996    81.301166 
   83800    1113.7891   -114.50344    1.0077798   -113.49566    5608.8135    4.3229007    4.3229007    4.3229007    5608.8135     28335.14    4703.4536   -16212.153   -5171.5401    2855.0154    7099.8394    80.784081 
   83900    1255.9999   -114.62898    1.1364551   -113.49253    832.95306    4.3220998    4.3220998    4.3220998    832.95306   -25759.995   -5380.1113    33638.966   -26711.353    4602.7352   -7158.6306    80.739189 
   84000    991.15267    -114.3935   0.89681576   -113.49669   -9470.7424    4.3306609    4.3306609    4.3306609   -9470.7424   -9583.4254   -10073.343   -8755.4588    675.22656    -19312.27     14541.28    81.219918 
   84100    984.59525   -114.38451   0.89088248   -113.49363   -3443.3101    4.3302854    4.3302854    4.3302854   -3443.3101    20047.851   -2756.9862   -27620.795    6047.4307    -6252.736    15392.686     81.19879 
   84200    1429.2332   -114.78004    1.2932003   -113.48684    6650.0219    4.3203053    4.3203053    4.3203053    6650.0219   -13153.316    10303.081    22800.301   -10944.461    14486.912   -11986.848    80.638661 
   84300    1090.4509   -114.48305   0.98666292   -113.49638   -6460.2301     4.324571     4.324571     4.324571   -6460.2301   -4815.4919   -18019.675    3454.4765   -2926.0564   -4409.7846    6513.8548    80.877758 
   84400    825.78826   -114.25062   0.74719057   -113.50343   -23132.582    4.3347675    4.3347675    4.3347675   -23132.582   -8195.1695   -21507.268   -39695.308    681.45815   -5436.7455    25003.741    81.451189 
   84500    1265.8795   -114.63896    1.1453944   -113.49357    4166.4126    4.3268217    4.3268217    4.3268217    4166.4126    107.84008    4797.6016    7593.7961    546.74604    4346.1299   -5390.8129    81.004101 
   84600     1123.903   -114.51115    1.0169311   -113.49422   -2630.3548     4.328962     4.328962     4.328962   -2630.3548     36168.45   -29887.757   -14171.757    5458.4502     6212.521    2848.4007    81.124366 
   84700    625.34965   -114.06546    0.5658295   -113.49963   -13546.722     4.333684     4.333684     4.333684   -13546.722    46759.471   -42094.735     -45304.9    9193.2443   -6056.7998    19292.595    81.390123 
   84800    917.53875   -114.32436   0.83020834   -113.49415    10502.398    4.3220146    4.3220146    4.3220146    10502.398    31602.558    6004.6437   -6100.0073    6582.4136    541.02186   -2034.4639    80.734415 
   84900     1048.097   -114.44381   0.94834023   -113.49547    11323.099    4.3237989    4.3237989    4.3237989    11323.099    49345.617    -5138.235   -10238.084   -4679.4478    18531.114   -4101.6751    80.834444 
   85000    822.30489   -114.24357   0.74403874   -113.49953   -20592.556     4.335587     4.335587     4.335587   -20592.556    39367.023   -39357.041    -61787.65   -654.14236   -5587.1915    21038.595    81.497393 
   85100    962.88567   -114.36504   0.87123919    -113.4938   -10480.149    4.3282704    4.3282704    4.3282704   -10480.149    4130.8103    4117.9657   -39689.223    2810.4105   -20000.584    794.66646    81.085493 
   85200     1032.176   -114.42484   0.93393453    -113.4909    19943.547    4.3180976    4.3180976    4.3180976    19943.547    47365.909    16818.495   -4353.7643    -5371.588    2495.6589   -11977.012    80.515107 
   85300     1324.387   -114.69392    1.1983331   -113.49559   -4086.1748    4.3280621    4.3280621    4.3280621   -4086.1748    38560.538   -25243.143   -25575.919   -142.80992    13378.939    13901.409    81.073785 
   85400     1443.875   -114.80026    1.3064485   -113.49381   -15918.562    4.3352807    4.3352807    4.3352807   -15918.562   -1802.7619   -17084.756   -28868.167    10506.426   -14443.986    525.87786    81.480122 
   85500    1284.4128   -114.65825    1.1621637   -113.49609    10799.813    4.3199257    4.3199257    4.3199257    10799.813      13077.7    15460.805    3860.9347   -1519.8603    -10386.32   -10331.005     80.61741 
   85600    1551.2712   -114.90183    1.4036227   -113.49821    3800.4262    4.3150548    4.3150548    4.3150548    3800.4262    18795.484   -7437.6456    43.439993   -13119.382    7612.1823    14405.666    80.345018 
   85700    1755.3831   -115.09355    1.5883076   -113.50524   -11487.781    4.3321326    4.3321326    4.3321326   -11487.781   -5116.0071   -24245.925    -5101.412    2148.2021    -23687.73    5378.5784    81.302749 
   85800    1606.7978   -114.94972    1.4538644   -113.49586    1263.6365    4.3352076    4.3352076    4.3352076    1263.6365   -4746.2441    9978.2072   -1441.0536   -1148.4225   -17662.876   -15445.861    81.475998 
   85900    1428.5211    -114.7832    1.2925559   -113.49064   -939.13682    4.3254326    4.3254326    4.3254326   -939.13682    15085.774   -11531.073   -6372.1116   -5461.9011    14283.814    4243.5868    80.926105 
   86000    1680.4775   -115.01061    1.5205314   -113.49008   -10096.798    4.3248259    4.3248259    4.3248259   -10096.798   -7405.5884   -20679.548   -2205.2591    9259.1469    8173.2034    7380.8791    80.892059 
   86100    1627.4178   -114.96601    1.4725218   -113.49348    15665.104    4.3250345    4.3250345    4.3250345    15665.104    18976.562    22623.647    5395.1033    3459.1142   -13378.894   -11494.358    80.903766 
   86200    1367.2005   -114.73676    1.2370717   -113.49969   -12530.734    4.3301816    4.3301816    4.3301816   -12530.734   -15224.495    -10514.86   -11852.847    -21719.45   -5948.6979    2966.2437    81.192952 
   86300    976.15301   -114.38681   0.88324376   -113.50357   -8751.9649    4.3279015    4.3279015    4.3279015   -8751.9649   -16777.655   -4144.1615   -5334.0778   -3952.7518    9490.2786    15568.479    81.064759 
   86400    1392.9609   -114.75305    1.2603803   -113.49267    10240.201    4.3259265    4.3259265    4.3259265    10240.201    18381.563    15907.041   -3568.0023    21180.272   -6886.3757   -7795.1436     80.95383 
   86500    1060.9416   -114.45253   0.95996228   -113.49256   -9355.0603    4.3340799    4.3340799    4.3340799   -9355.0603    7599.4905   -387.86285   -35276.808   -22432.991   -727.24034    4987.7917    81.412435 
   86600    559.27439   -114.00663   0.50604322   -113.50059   -1882.7865    4.3242184    4.3242184    4.3242184   -1882.7865    21088.146     7665.752   -34402.258   -22826.033    7617.2198    18892.328    80.857977 
   86700    1106.3357   -114.49717    1.0010358   -113.49613    5068.5244    4.3193283    4.3193283    4.3193283    5068.5244    13574.131    22064.582    -20433.14    7359.4639   -870.64244   -2312.9825    80.583968 
   86800    993.20381    -114.3996   0.89867168   -113.50093    12325.799    4.3293571    4.3293571    4.3293571    12325.799    32342.969    35579.039    -30944.61   -3245.0815   -6771.4173   -8610.7833    81.146581 
   86900    693.79813   -114.13199   0.62776313   -113.50423    7702.1924    4.3302064    4.3302064    4.3302064    7702.1924    12763.355    40918.699   -30575.477   -34394.538     3390.464    13240.225    81.194345 
   87000    970.44782   -114.37515   0.87808158   -113.49707      5913.69    4.3290341    4.3290341    4.3290341      5913.69   -10954.192    38131.499   -9436.2368   -6001.4339    2306.2617    4151.0353    81.128421 
   87100    1444.1549   -114.79703    1.3067017   -113.49033   -1225.4668    4.3264131    4.3264131    4.3264131   -1225.4668   -6118.1395    9017.6904   -6575.9513    16132.635    -6542.976   -5620.0399    80.981153 
   87200    1008.8099   -114.41188   0.91279238   -113.49909   -2625.3741    4.3247911    4.3247911    4.3247911   -2625.3741    17871.488   -13804.638   -11942.972   -26119.984    6776.4889    11776.435    80.890104 
   87300    1078.9451   -114.48178   0.97625224   -113.50553   -13279.517    4.3326635    4.3326635    4.3326635   -13279.517   -2516.3571   -27303.822   -10018.371   -15919.032     593.0638    6958.4066    81.332645 
   87400    1700.6656   -115.03169     1.538798    -113.4929     1539.204    4.3292798    4.3292798    4.3292798     1539.204     11355.82   -17842.992    11104.784    14924.954   -13316.617   -4874.6278    81.142233 
   87500    1318.5172   -114.68803    1.1930221     -113.495    20709.329    4.3215743    4.3215743    4.3215743    20709.329    10088.801    44567.345    7471.8404   -10130.095    9062.2242    1559.2053    80.709742 
   87600     986.7013   -114.39703   0.89278808   -113.50424    -18108.89     4.338197     4.338197     4.338197    -18108.89   -24546.257   -29006.582   -773.83067   -16663.412    9134.7648    20948.088    81.644663 
   87700    1745.7721   -115.07442    1.5796112   -113.49481    805.65263    4.3229237    4.3229237    4.3229237    805.65263   -421.88073   -5298.5736    8137.4122    4826.6711   -2307.9476    8047.0426    80.785368 
   87800     1666.303    -115.0036     1.507706   -113.49589    31526.282    4.3051676    4.3051676    4.3051676    31526.282    20281.471    47144.609    27152.766    409.98046    1540.1791   -12728.692    79.793993 
   87900    1019.2059   -114.43746   0.92219896   -113.51526   -29394.688     4.330376     4.330376     4.330376   -29394.688   -48105.008   -33944.491   -6134.5656   -33531.206    12325.521    12372.779    81.203885 
   88000    1339.8876   -114.71516    1.2123585    -113.5028   -10190.791    4.3277599    4.3277599    4.3277599   -10190.791   -11055.878   -18211.293   -1305.2009   -5271.4765    6095.9529      2937.61    81.056803 
   88100    1517.1866   -114.86461    1.3727823   -113.49183    7593.4445     4.323357     4.323357     4.323357    7593.4445     17972.03    20041.039   -15232.736    7511.4444    225.17768   -6325.3573    80.809662 
   88200     1073.761   -114.47189   0.97156153   -113.50033   -30718.911    4.3264907    4.3264907    4.3264907   -30718.911   -39552.482   -14659.331   -37944.919   -31855.563    5721.9372    13468.657    80.985509 
   88300    796.43405   -114.22317   0.72063026   -113.50254    16242.086    4.3084228    4.3084228    4.3084228    16242.086    36060.863    27432.237   -14766.842   -17993.913    2275.6982    7690.5884    79.975127 
   88400    1182.9353   -114.58094    1.0703447   -113.51059    3145.0366    4.3279557    4.3279557    4.3279557    3145.0366    4079.3075    8672.6416   -3316.8393    11809.451    3199.7867   -8826.3589    81.067807 
   88500    1031.5525   -114.43955   0.93337038   -113.50618   -17851.138    4.3316586    4.3316586    4.3316586   -17851.138   -11790.303    2128.5782    -43891.69   -5464.2648   -4731.2848   -9541.7563    81.276061 
   88600    755.70487   -114.18255   0.68377765   -113.49877    17254.451     4.303262     4.303262     4.303262    17254.451    42920.855     22962.94   -14120.442   -20194.241    7991.8366    15457.001    79.688081 
   88700    871.87173    -114.2985   0.78888786   -113.50962    508.14974    4.3221816    4.3221816    4.3221816    508.14974    8952.3208    1020.2142   -8448.0858    872.09199    9589.5845    3969.0296    80.743774 
   88800    1097.8068   -114.49047   0.99331868   -113.49715   -6556.3049     4.333631     4.333631     4.333631   -6556.3049    17121.559    -17498.81   -19291.663     11614.27   -6313.0551   -13397.349    81.387137 
   88900     895.2024   -114.30379   0.80999794   -113.49379    7528.4561    4.3231196    4.3231196    4.3231196    7528.4561    15782.299    1947.3898    4855.6792   -13254.579    9935.0321    6073.1627    80.796353 
   89000    948.56701    -114.3572   0.85828336   -113.49891   -9214.7709    4.3206915    4.3206915    4.3206915   -9214.7709    8874.7023   -23086.935    -13432.08   -12899.947    6994.7212    18709.283    80.660289 
   89100    1208.6839   -114.59409    1.0936426   -113.50045    6749.5394    4.3128366    4.3128366    4.3128366    6749.5394    38276.213   -4792.1241   -13235.471    18263.643   -8778.0871   -2301.4053    80.221171 
   89200    1190.5732   -114.58974    1.0772557   -113.51248    -3623.818    4.3297596    4.3297596    4.3297596    -3623.818    -3698.893   -16980.674    9808.1128    2615.9127    134.49417   -8621.8512    81.169218 
   89300    1021.0564   -114.42641   0.92387325   -113.50254   -21119.972    4.3400454    4.3400454    4.3400454   -21119.972   -10395.896   -31576.624   -21387.395   -14325.347    12885.228    24070.689    81.749071 
   89400    1344.9715   -114.71225    1.2169584   -113.49529    15746.324    4.3045284    4.3045284    4.3045284    15746.324     29119.99   -4882.6615    23001.645    8092.8141    3296.2812    15738.655    79.758455 
   89500    1443.1867   -114.81519    1.3058256   -113.50937    18786.166     4.310887     4.310887     4.310887    18786.166    9546.1048    8252.9559    38559.438     12598.71   -10806.462   -11230.068    80.112434 
   89600    1318.1986   -114.69428    1.1927338   -113.50155   -29647.919    4.3459163    4.3459163    4.3459163   -29647.919   -27024.741   -36942.321   -24976.694   -10507.354   -6799.3427    11743.965     82.08127 
   89700    1217.7688   -114.59548    1.1018628   -113.49362   -877.71924    4.3261099    4.3261099    4.3261099   -877.71924   -15511.347   -2569.4147    15447.604    4932.2723    5224.8161    26642.733    80.964128 
   89800    1710.3262   -115.03227    1.5475391   -113.48473     6227.987    4.3116997    4.3116997    4.3116997     6227.987   -12749.007   -2991.3811    34424.349     18966.55    3006.0816   -6072.7186    80.157751 
   89900    1570.2527   -114.91722    1.4207976   -113.49642   -99.554667    4.3275385    4.3275385    4.3275385   -99.554667   -15242.414   -7191.0415    22134.792   -2995.6002   -4371.1697    1400.3565    81.044365 
   90000    1216.8595   -114.60368      1.10104   -113.50264   -3273.9558    4.3340595    4.3340595    4.3340595   -3273.9558   -24760.365    5120.8138    9817.6835    2264.3419   -5791.2234    21889.591    81.411286 
   90100    1292.6699   -114.66837    1.1696349   -113.49873    -6421.006    4.3322026    4.3322026    4.3322026    -6421.006   -44273.258   -10900.111    35910.352    24696.434   -6204.7099    12221.931    81.306689 
   90200    1819.6489   -115.14183    1.6464566   -113.49538    12700.415    4.3132522    4.3132522    4.3132522    12700.415   -15710.378    4288.2267    49523.395    4310.0942     -4096.99     6427.499    80.244368 
   90300    1376.4665   -114.75323    1.2454558   -113.50777    30513.576     4.309653     4.309653     4.309653    30513.576    4333.8985    42496.458    44710.372   -7335.8977    9661.0324    46.862459    80.043657 
   90400    836.04494   -114.27274   0.75647103   -113.51627   -36173.456    4.3442543    4.3442543    4.3442543   -36173.456   -59326.321   -36806.399   -12387.649    34326.565   -1350.0449    13946.459    81.987134 
   90500    1466.2343   -114.83124    1.3266796   -113.50456   -10300.399    4.3235955    4.3235955    4.3235955   -10300.399   -35322.159   -14709.472    19130.433    22301.654   -3359.8325   -7016.6479    80.823035 
   90600    1603.8766   -114.93532    1.4512213    -113.4841    37544.621    4.2965014    4.2965014    4.2965014    37544.621     26655.49    51246.317    34732.056   -12090.561    -5020.005    5220.4196    79.313092 
   90700    875.83241   -114.30805   0.79247157   -113.51558   -40961.788    4.3314196    4.3314196    4.3314196   -40961.788   -42567.919    -51246.11   -29071.333    30322.474    1179.4913    31599.744    81.262612 
   90800    856.34111   -114.28371   0.77483543   -113.50887   -21256.628    4.3294822    4.3294822    4.3294822   -21256.628   -35544.386   -41233.845    13008.346    29984.197    9747.6432   -5556.1893    81.153617 
   90900     1573.551   -114.91568     1.423782   -113.49189    21046.259    4.3142826    4.3142826    4.3142826    21046.259    15968.851     22313.87    24856.056   -12068.717   -8368.3775   -3531.0476     80.30189 
   91000    1137.7566   -114.53393    1.0294661   -113.50446   -15785.269    4.3267222    4.3267222    4.3267222   -15785.269   -18227.573   -9501.8311   -19626.402     22586.83    1426.3882    12956.594    80.998513 
   91100    890.48088   -114.31074   0.80572582   -113.50502   -10807.678    4.3179267    4.3179267    4.3179267   -10807.678   -25883.604   -11633.929    5094.4989    42889.204   -2483.0992     14492.97    80.505547 
   91200    1166.5985   -114.56076    1.0555628    -113.5052    22992.889    4.3236339    4.3236339    4.3236339    22992.889    14172.102    25011.557    29795.008    -6884.797   -5145.1743   -5189.3027    80.825193 
   91300     1497.282   -114.85165    1.3547723   -113.49688   -17349.863    4.3335072    4.3335072    4.3335072   -17349.863   -23888.818   -7742.4422    -20418.33   -1962.5245    6112.6202   -8407.5718    81.380166 
   91400    1145.9309   -114.53524    1.0368624   -113.49838    20396.813    4.3064448    4.3064448    4.3064448    20396.813    7933.6521    40925.848    12330.938    27448.033    2535.4416    8445.8851    79.865029 
   91500    1149.6464   -114.55345    1.0402243   -113.51323    20803.417    4.3181669    4.3181669    4.3181669    20803.417    14426.687    31321.832    16661.732   -2810.2766   -9190.5675   -4338.5579    80.518983 
   91600    1498.2075   -114.85248    1.3556096   -113.49687   -5984.3482    4.3362897    4.3362897    4.3362897   -5984.3482   -24219.886    13510.302   -7243.4601   -2351.0741   -3514.4533   -8917.5636    81.537025 
   91700    1517.7859   -114.86879    1.3733246   -113.49546    23625.276    4.3111237    4.3111237    4.3111237    23625.276    35874.451    20834.976    14166.401    29190.431    6072.3468    14056.288     80.12563 
   91800    1360.4958   -114.73731    1.2310052    -113.5063    187.25141    4.3172388    4.3172388    4.3172388    187.25141   -12907.447     20735.53   -7266.3295    4545.9659   -18837.917    1683.8081    80.467074 
   91900    1362.6126   -114.73864    1.2329205   -113.50572    -7972.208    4.3270441    4.3270441    4.3270441    -7972.208   -16880.891    14837.938   -21873.671   -5831.2603    -23295.89    1019.5779    81.016591 
   92000    1576.6374   -114.92794    1.4265747   -113.50136    19501.355    4.3190658    4.3190658    4.3190658    19501.355    19956.919    22956.566    15590.581    13202.793    15204.579   -7748.3085    80.569275 
   92100    1558.2017   -114.91121    1.4098937   -113.50131    -27922.74    4.3317384    4.3317384    4.3317384    -27922.74   -43844.073   -21529.603   -18394.544    26236.403   -16037.098    999.33455    81.280555 
   92200    1130.0477   -114.52519    1.0224909    -113.5027   -14056.109    4.3225206    4.3225206    4.3225206   -14056.109   -24820.627   -706.61207   -16641.087    -2558.758   -33204.222    4947.9408    80.762771 
   92300    1462.4007   -114.82347    1.3232109   -113.50026    11047.017    4.3137508    4.3137508    4.3137508    11047.017    12130.454     17140.89    3869.7066   -9328.1052    14638.652   -9584.8834      80.2722 
   92400    1385.8584   -114.75836    1.2539538    -113.5044   -14682.505    4.3304561    4.3304561    4.3304561   -14682.505   -22344.858   -14223.726   -7478.9296    19758.686    5398.1981    3336.6592    81.208396 
   92500    1103.6459   -114.50389   0.99860201   -113.50529   -13389.019    4.3252597    4.3252597    4.3252597   -13389.019   -6938.7179   -15988.626   -17239.712    8288.8336    -33409.61    3685.4737    80.916404 
   92600    946.35608   -114.35773   0.85628287   -113.50144    11557.559    4.3230671    4.3230671    4.3230671    11557.559    51654.422   -13942.206   -3039.5389   -3019.5729   -5386.3169    376.27976    80.793408 
   92700    1209.3178   -114.59086    1.0942162   -113.49664   -3905.1315    4.3296549    4.3296549    4.3296549   -3905.1315    25318.815   -29193.199   -7841.0108   -175.20204    16084.925    1521.6046    81.163329 
   92800    733.15249   -114.16444   0.66337178   -113.50107    12513.999    4.3214665    4.3214665    4.3214665    12513.999    35360.294    756.37782    1425.3258   -112.49263   -26358.518   -3134.4434    80.703699 
   92900    939.18089    -114.3517   0.84979061   -113.50191   -11238.932    4.3245356    4.3245356    4.3245356   -11238.932    10299.866   -39561.999   -4454.6627   -3330.2872    -28510.54     3924.036    80.875768 
   93000    1176.8814   -114.56151     1.064867   -113.49664   -16399.122    4.3308682    4.3308682    4.3308682   -16399.122    10675.311   -70589.553    10716.875   -10742.822    16817.707   -1803.3555    81.231579 
   93100    994.37267   -114.39867   0.89972929   -113.49894   -22487.241    4.3254808    4.3254808    4.3254808   -22487.241   -19565.065   -28631.638   -19265.021    5822.6541   -12491.114   -2523.0887    80.928813 
   93200    575.95306   -114.02582   0.52113443   -113.50469    12050.324    4.3153308    4.3153308    4.3153308    12050.324    14031.227    10915.041    11204.703    5947.7686    -33687.53     564.0103    80.360436 
   93300    1040.4939   -114.44883   0.94146071   -113.50737   -5709.4582    4.3250483    4.3250483    4.3250483   -5709.4582    43942.935   -69261.427    8190.1177   -17045.863    4999.1922   -13299.609    80.904537 
   93400    941.60083   -114.35105   0.85198022   -113.49907   -1313.3347     4.329669     4.329669     4.329669   -1313.3347    51703.082   -49166.539   -6476.5473   -1218.1177    2218.1536    981.77564    81.164121 
   93500    742.13809   -114.17314   0.67150214   -113.50164    -10481.71    4.3236176    4.3236176    4.3236176    -10481.71    14533.955   -25614.792   -20364.294    -1719.972   -36877.959    2233.6652    80.824275 
   93600    732.08487   -114.16739   0.66240577   -113.50498    11139.055    4.3176432    4.3176432    4.3176432    11139.055    22063.611    3157.1573     8196.398   -19054.631   -556.50986   -5690.9985    80.489687 
   93700    1369.3092   -114.74088    1.2389798    -113.5019    -1438.951     4.316457     4.316457     4.316457    -1438.951    14181.491   -24390.489    5892.1444    4344.6743    4853.6123    2152.6041    80.423369 
   93800    1019.7298   -114.43208   0.92267298    -113.5094   -22878.603    4.3284826    4.3284826    4.3284826   -22878.603    -26939.47   -20544.771   -21151.569    6060.9271   -33586.024   -4334.8304    81.097418 
   93900    1126.2834   -114.52628    1.0190849    -113.5072   -15781.293    4.3227302    4.3227302    4.3227302   -15781.293   -10874.989   -26660.333   -9808.5566   -6757.7195    -14137.75   -2097.9527     80.77452 
   94000    1273.2786   -114.65666    1.1520892   -113.50457    22608.953    4.3155829    4.3155829    4.3155829    22608.953    60146.292   -2392.3082    10072.874   -6923.8858    10359.424    3389.3582    80.374521 
   94100    1176.3822    -114.5703    1.0644153   -113.50588    13870.939    4.3254558    4.3254558    4.3254558    13870.939    19011.745      14506.7    8094.3734    455.21034   -21052.045    3167.3061     80.92741 
   94200    1315.0691     -114.689    1.1899022    -113.4991    6406.8205    4.3287069    4.3287069    4.3287069    6406.8205    46496.274   -3621.3038   -23654.509    9734.2753   -18795.086    6849.5365    81.110026 
   94300     1484.541   -114.83853    1.3432439   -113.49529   -3217.6364    4.3266722    4.3266722    4.3266722   -3217.6364    8129.7381   -5228.0313   -12554.616   -7939.3629    13828.191   -788.50983    80.995702 
   94400    1526.4906   -114.88091    1.3812008   -113.49971    -2417.379    4.3167981    4.3167981    4.3167981    -2417.379   -16614.961    1284.3076    8078.5163   -9061.2849   -6381.0498    842.89707    80.442436 
   94500    1478.3581   -114.84193    1.3376494   -113.50428    13776.514    4.3239339    4.3239339    4.3239339    13776.514    1544.9251     33734.46    6050.1562    3622.0031   -19540.603   -2691.2718    80.842015 
   94600    1599.1127   -114.94521    1.4469108    -113.4983   -10340.644    4.3390718    4.3390718    4.3390718   -10340.644     1375.391     12405.33   -44802.654   -6482.1255    18444.766   -5796.7021    81.694064 
   94700    1269.2887   -114.64753    1.1484791   -113.49905     13949.15    4.3224883    4.3224883    4.3224883     13949.15    34558.976    17891.672   -10603.198   -8626.3906    19536.752    6728.3038    80.760959 
   94800     1510.978   -114.86738    1.3671647   -113.50021    16309.934    4.3104535    4.3104535    4.3104535    16309.934    33866.254    22425.728   -7362.1796    -5900.285    -25860.25    397.11285    80.088264 
   94900    1300.3426   -114.68614    1.1765773   -113.50957   -942.81285    4.3270778    4.3270778    4.3270778   -942.81285   -15385.973    35050.831   -22493.297   -8468.9474    7099.2213    6658.8416    81.018484 
   95000     1369.844   -114.74127    1.2394637    -113.5018    -11145.91    4.3358821    4.3358821    4.3358821    -11145.91   -31021.979    22592.231   -25007.983    2993.0565    38141.867    8714.8822    81.514038 
   95100    1714.9271   -115.04215    1.5517021   -113.49045   -10902.739    4.3286921    4.3286921    4.3286921   -10902.739   -5683.4522   -10792.639   -16232.126    5651.7827   -16994.115    1200.3242    81.109192 
   95200     1210.665   -114.59212    1.0954351   -113.49669    8671.3611    4.3089554    4.3089554    4.3089554    8671.3611    7863.5172    28848.943   -10698.377   -3489.6672    8831.8383    712.66422    80.004792 
   95300    984.13084   -114.40422   0.89046227   -113.51376    13413.685    4.3175911    4.3175911    4.3175911    13413.685    41429.539    34582.168    -35770.65    2985.9532    45286.787    3755.6883    80.486775 
   95400    1675.1933   -115.01202    1.5157501   -113.49627     -14098.6    4.3427448    4.3427448    4.3427448     -14098.6    8072.1593    -28747.63    -21620.33    2271.2994    -8758.201    10064.334    81.901702 
   95500    1315.4686   -114.68661    1.1902636   -113.49634     8256.397    4.3194439    4.3194439    4.3194439     8256.397    29074.639    9771.2037   -14076.652    9451.1047    16796.316    466.25142    80.590435 
   95600    835.89019   -114.25489   0.75633101   -113.49856   -4855.4709    4.3107579    4.3107579    4.3107579   -4855.4709   -11873.756    21263.295   -23955.953    1059.6567    50697.425    5623.4397    80.105235 
   95700    1528.6248   -114.88074    1.3831318   -113.49761   -24224.195    4.3296454    4.3296454    4.3296454   -24224.195   -7972.2606   -39096.849   -25603.475    3887.7492   -8156.0339    5625.8529    81.162795 
   95800    1338.5353   -114.70511    1.2111349   -113.49398   -13250.844     4.333349     4.333349     4.333349   -13250.844    5422.1133   -37892.498   -7282.1456    15083.163    12157.318   -1473.5805    81.371253 
   95900    821.79954   -114.24052    0.7435815   -113.49694   -12639.931     4.326413     4.326413     4.326413   -12639.931   -12828.731    10267.229   -35358.291   -1206.2237    44135.521    5214.3941    80.981147 
   96000    1086.4543   -114.47692   0.98304665   -113.49387     3328.108    4.3160279    4.3160279    4.3160279     3328.108    32011.147   -21696.571   -330.25133    385.04202   -8615.6641    7368.4947    80.399387 
   96100     1042.242   -114.44255   0.94304248    -113.4995    854.32001    4.3211319    4.3211319    4.3211319    854.32001    50586.991   -55259.622    7235.5915   -6997.0753   -9106.3253   -2177.8889    80.684959 
   96200    848.43317   -114.26925   0.76768016   -113.50157   -15812.743    4.3337778    4.3337778    4.3337778   -15812.743    12176.341   -38440.697   -21173.873    4048.0173    31684.311   -6794.4522    81.395409 
   96300    852.56875   -114.26701   0.77142212   -113.49559   -12534.386    4.3325279    4.3325279    4.3325279   -12534.386    6225.5227   -15637.452   -28191.228    10944.596   -2647.0852    5614.2621    81.325008 
   96400    1053.5826   -114.44578   0.95330372   -113.49247    11557.515    4.3098976    4.3098976    4.3098976    11557.515    26685.803    -16237.46    24224.202   -12324.302   -21552.625     5086.243    80.057285 
   96500    941.29345   -114.35556    0.8517021   -113.50386    2128.9538    4.3163297    4.3163297    4.3163297    2128.9538    7133.0055   -10865.873    10119.729   -11794.222    17517.736   -8439.9279    80.416252 
   96600     1056.618    -114.4573   0.95605016   -113.50125    -34256.95    4.3371022    4.3371022    4.3371022    -34256.95   -28221.278   -35992.538   -38557.035    8577.3166    15986.738    12759.192    81.582868 
   96700    1019.7307   -114.42388   0.92267373   -113.50121     10542.57    4.3122636    4.3122636    4.3122636     10542.57    13710.826    8469.0796    9447.8038    3933.0182   -14943.032    6843.1837    80.189202 
   96800    1104.2063    -114.5006   0.99910904   -113.50149    13125.846    4.3087144    4.3087144    4.3087144    13125.846    16679.099    23831.676   -1133.2368   -16525.281   -2179.3176   -13384.634    79.991368 
   96900    1048.7411   -114.45418   0.94892303   -113.50526   -24497.597    4.3305032    4.3305032    4.3305032   -24497.597   -13676.594   -31907.739   -27908.458    5495.8552    10542.913   -1885.0739    81.211043 
   97000    974.12304   -114.38311     0.881407   -113.50171    6347.5158     4.318423     4.318423     4.318423    6347.5158    27455.096    2940.1188   -11352.668    21794.078     139.9529      5444.51    80.533306 
   97100    1054.0832   -114.45724   0.95375667   -113.50348   -878.09538    4.3197818    4.3197818    4.3197818   -878.09538    8696.3566    17282.961   -28613.604   -12601.638   -5457.4398   -10343.557    80.609353 
   97200     957.5923   -114.37141   0.86644964   -113.50496   -12826.404    4.3225323    4.3225323    4.3225323   -12826.404   -2595.8547     2006.392    -37889.75   -5559.1774   -1608.4615   -14891.145    80.763426 
   97300    939.44583   -114.35362   0.85003033   -113.50359    9452.5645    4.3097054    4.3097054    4.3097054    9452.5645    13504.362    19940.782   -5087.4507    30988.603    8827.1046     10088.76    80.046575 
   97400    983.43893   -114.39957   0.88983621   -113.50973    -21802.08    4.3287206    4.3287206    4.3287206    -21802.08   -8731.2773   -18493.054   -38181.908    1145.0692   -914.91707   -4631.5915    81.110794 
   97500    873.73591   -114.29604   0.79057461   -113.50546   -13451.576    4.3252428    4.3252428    4.3252428   -13451.576    2817.6882   -2095.5808   -41076.835   -16472.567   -9215.4623   -22910.322    80.915454 
   97600    818.99259   -114.23938   0.74104171   -113.49834    11788.863    4.3053654    4.3053654    4.3053654    11788.863   -4715.2868    36977.758    3104.1168    22308.315    1346.9861     4351.187    79.804988 
   97700    726.01717   -114.16654    0.6569156   -113.50962   -22954.496    4.3282088    4.3282088    4.3282088   -22954.496   -12243.405   -11319.667   -45300.417    19914.855    11634.211    334.52271    81.082031 
   97800    911.74087   -114.32862    0.8249623   -113.50366   -16016.236    4.3253922    4.3253922    4.3253922   -16016.236    15065.423   -3522.0354   -59592.097   -7304.4017     8293.466   -31414.235    80.923839 
   97900    877.61981   -114.29554   0.79408885   -113.50145    25403.942    4.3086336    4.3086336    4.3086336    25403.942    17482.034     49026.07    9703.7239    9517.9513     -11770.7    1265.2658    79.986866 
   98000    840.87952   -114.26806   0.76084546   -113.50721   -16487.651    4.3252427    4.3252427    4.3252427   -16487.651   -24511.238   -2311.3592   -22640.356    18219.857    2934.9013    1105.4023    80.915449 
   98100    838.05551   -114.26456   0.75829024   -113.50627   -2654.8308    4.3218835    4.3218835    4.3218835   -2654.8308    14051.596    23610.153   -45626.241    970.17072    15809.475   -31847.977    80.727069 
   98200    1100.6762   -114.49497   0.99591499   -113.49905    23597.488    4.3219756    4.3219756    4.3219756    23597.488    25404.493    39056.939    6331.0298    4543.6038   -333.20226   -4929.7728    80.732228 
   98300    1217.7768   -114.59886    1.1018701   -113.49699   -7020.4597    4.3263874    4.3263874    4.3263874   -7020.4597   -29933.571   -2184.4813    11056.673    20798.804   -4889.0842    10151.761     80.97971 
   98400    753.43848   -114.18534   0.68172697   -113.50361    17269.101    4.3086482    4.3086482    4.3086482    17269.101    10134.271    37323.184    4349.8477    5018.6741    3632.1201   -22244.884    79.987683 
   98500    1102.2899   -114.51098    0.9973751   -113.51361   -1823.5731    4.3217476    4.3217476    4.3217476   -1823.5731    6401.2652   -15391.587     3519.602    -7347.855    18509.568   -26511.704     80.71945 
   98600    1358.1095   -114.73115     1.228846    -113.5023    2299.4934    4.3291369    4.3291369    4.3291369    2299.4934   -14501.258    -7778.256    29177.994    460.11964   -3232.6672    8438.2295      81.1342 
   98700    1007.4264   -114.41709   0.91154062   -113.50554     10365.17    4.3123704    4.3123704    4.3123704     10365.17    7034.5746    9782.9566     14277.98    8139.7269   -8085.4016   -14764.841    80.195161 
   98800    749.63621    -114.1905   0.67828659   -113.51222   -6839.3103     4.319533     4.319533     4.319533   -6839.3103    12733.261   -27342.716   -5908.4761   -1063.0298    18865.473   -31520.842    80.595424 
   98900    1411.1133   -114.77445    1.2768049   -113.49764   -14100.268    4.3314727    4.3314727    4.3314727   -14100.268   -21879.169   -26551.724    6130.0878   -7068.6875    2634.3237    2465.4797      81.2656 
   99000    1166.8459   -114.55092    1.0557867   -113.49513   -9727.2209     4.327858     4.327858     4.327858   -9727.2209    -12884.99    -26843.48    10546.807    7336.6898   -19857.065   -13497.469    81.062317 
   99100    653.63948   -114.09374   0.59142673   -113.50231   -8564.5656    4.3145913    4.3145913    4.3145913   -8564.5656    13700.362   -34647.558   -4746.5004    6924.7444    8306.2643   -34551.282    80.319129 
   99200    882.52192   -114.30953   0.79852438   -113.51101   -239.19872    4.3168328    4.3168328    4.3168328   -239.19872   -20622.734   -7930.0324     27835.17    -2646.429    22727.692   -5255.0131    80.444376 
   99300    1309.0849   -114.68816    1.1844875   -113.50367    913.82442    4.3275523    4.3275523    4.3275523    913.82442   -22062.427   -4230.4153    29034.316    3258.3929   -1876.6707    11382.151    81.045138 
   99400     884.9556   -114.30727   0.80072642   -113.50655    12441.434    4.3191718    4.3191718    4.3191718    12441.434    11754.585    -7212.022    32781.739    5362.5715   -340.38846   -16290.129    80.575209 
   99500    466.48184   -113.93374   0.42208257   -113.51166   -1644.5802    4.3239086    4.3239086    4.3239086   -1644.5802   -7065.7609    13035.581   -10903.561    1584.3651    17806.995   -15617.782    80.840597 
   99600    1134.2146   -114.52459    1.0262612   -113.49832   -2984.5769    4.3267477    4.3267477    4.3267477   -2984.5769   -19007.211    2155.2287    7898.2519   -4551.8743   -1041.7373    18647.392    80.999945 
   99700    1213.4496   -114.59096    1.0979547   -113.49301    9006.7951    4.3166187    4.3166187    4.3166187    9006.7951    255.43039     21780.94    4984.0148     8452.076   -180.89966   -6115.8584    80.432409 
   99800    669.54839   -114.11717   0.60582146   -113.51135   -23453.108    4.3209818    4.3209818    4.3209818   -23453.108    -15861.44   -30983.523    -23514.36    4196.5124    32412.365   -31298.251    80.676547 
   99900    947.92065   -114.36862   0.85769853   -113.51092   -2190.9262    4.3153947    4.3153947    4.3153947   -2190.9262   -3483.7454   -15144.357    12055.324    -7053.421    12243.299   -5689.1375    80.364005 
  100000    1423.6011   -114.79359    1.2881042   -113.50549    6161.1957    4.3213541    4.3213541    4.3213541    6161.1957    10749.895   -7395.1455    15128.838    -2254.517   -16985.359    6680.5594    80.697404 
Loop time of 22.3494 on 1 procs for 100000 steps with 8 atoms

Pair  time (%) = 7.0484 (31.5373)
Kspce time (%) = 5.37172 (24.0352)
Neigh time (%) = 0 (0)
Comm  time (%) = 1.08497 (4.85457)
Outpt time (%) = 0.0269239 (0.120468)
Other time (%) = 8.8174 (39.4525)

Nlocal:    8 ave 8 max 8 min
Histogram: 1 0 0 0 0 0 0 0 0 0
Nghost:    2189 ave 2189 max 2189 min
Histogram: 1 0 0 0 0 0 0 0 0 0
Neighs:    2344 ave 2344 max 2344 min
Histogram: 1 0 0 0 0 0 0 0 0 0

Total # of neighbors = 2344
Ave neighs/atom = 293
Neighbor list builds = 0
Dangerous builds = 0
unfix 20
unfix 21
print "seeds:4898459"
seeds:4898459
