LAMMPS (10 Feb 2015)
# ---- initialize simulations
clear
units metal
dimension 3
boundary p p p
atom_style charge
atom_modify map array
# ---- create atoms
read_data /Users/eugeneragasa/pyflamestk_git/pypospack/tests/tests_integration/workflow/WorkflowLammpsThermalExpansion/param_8221/MgO_NaCl_unit.npt.T1700/lammps.structure
  triclinic box = (0 0 0) to (4.2565 4.2565 4.2565) with tilt (0 0 0)
  1 by 1 by 1 MPI processor grid
  reading atoms ...
  8 atoms
# ---- define interatomic potential
include potential.mod
mass 1 24.305
mass 2 15.999

group Mg type 1
4 atoms in group Mg
group O type 2
4 atoms in group O

set group Mg charge 1.65389423724
  4 settings made for charge
set group O charge -1.65389423724
  4 settings made for charge

variable R_cut equal 10.0

pair_style buck/coul/long ${R_cut}
pair_style buck/coul/long 10
pair_coeff 1 1 0.0 0.5 0.0 ${R_cut}
pair_coeff 1 1 0.0 0.5 0.0 10
pair_coeff 1 2 1300.0678519 0.288744572517 0.0 ${R_cut}
pair_coeff 1 2 1300.0678519 0.288744572517 0.0 10
pair_coeff 2 2 40472.9144105 0.202420171096 26.2679081719 ${R_cut}
pair_coeff 2 2 40472.9144105 0.202420171096 26.2679081719 10

kspace_style pppm 1.0e-5

neighbor 1.0 bin
neigh_modify every 1 delay 0 check yes
# ---- define settings
compute eng all pe/atom
compute eatoms all reduce sum c_eng
# ---- run minimization
reset_timestep 0
fix 1 all box/relax iso 0.0 vmax 0.001
thermo 10
thermo_style custom step pe lx ly lz xy xz yz press pxx pyy pzz pxy pxz pyz c_eatoms
min_style cg
minimize 1e-25 1e-25 5000 10000
PPPM initialization ...
  G vector (1/distance) = 0.352799
  grid = 8 8 8
  stencil order = 5
  estimated absolute RMS force accuracy = 3.93787e-05
  estimated relative force accuracy = 2.7347e-06
  using double precision FFTs
  3d grid and FFT values/proc = 3375 512
Neighbor list info ...
  1 neighbor list requests
  update every 1 steps, delay 0 steps, check yes
  master list distance cutoff = 11
Memory usage per processor = 4.06549 Mbytes
Step PotEng Lx Ly Lz Xy Xz Yz Press Pxx Pyy Pzz Pxy Pxz Pyz eatoms 
       0   -110.27609       4.2565       4.2565       4.2565            0            0            0    110960.29    110960.29    110960.29    110960.29 9.3314123e-11 1.6239754e-10 5.8891323e-11   -110.27609 
      10   -110.39349     4.299065     4.299065     4.299065            0            0            0    52923.265    52923.265    52923.265    52923.265 1.8718586e-11 -3.674075e-11 -9.001309e-11   -110.39349 
      20   -110.43343      4.34163      4.34163      4.34163            0            0            0    2089.5567    2089.5567    2089.5567    2089.5567 6.9298069e-11 -1.296578e-10 -9.997383e-11   -110.43343 
      22   -110.43352     4.343513     4.343513     4.343513            0            0            0   -5.7193123   -5.7193123   -5.7193123   -5.7193123 4.586585e-11 9.062077e-11 2.6249224e-10   -110.43352 
Loop time of 0.0140922 on 1 procs for 22 steps with 8 atoms

Minimization stats:
  Stopping criterion = linesearch alpha is zero
  Energy initial, next-to-last, final = 
        -110.276087498     -110.433524975     -110.433524975
  Force two-norm initial, final = 16.0227 0.00180648
  Force max component initial, final = 16.0227 0.000859982
  Final line search alpha, max atom move = 0.00390625 3.35931e-06
  Iterations, force evaluations = 22 39

Pair  time (%) = 0.00390697 (27.7243)
Kspce time (%) = 0.0022018 (15.6242)
Neigh time (%) = 0 (0)
Comm  time (%) = 0.000432253 (3.06732)
Outpt time (%) = 4.50611e-05 (0.319759)
Other time (%) = 0.00750613 (53.2644)

Nlocal:    8 ave 8 max 8 min
Histogram: 1 0 0 0 0 0 0 0 0 0
Nghost:    2189 ave 2189 max 2189 min
Histogram: 1 0 0 0 0 0 0 0 0 0
Neighs:    2344 ave 2344 max 2344 min
Histogram: 1 0 0 0 0 0 0 0 0 0

Total # of neighbors = 2344
Ave neighs/atom = 293
Neighbor list builds = 0
Dangerous builds = 0
unfix 1
# ---- define output variables ----
variable natoms equal "count(all)"
variable tot_energy equal "c_eatoms"
variable length_x equal "lx"
variable length_y equal "ly"
variable length_z equal "lz"
variable tilt_xy equal "xy"
variable tilt_xz equal "xz"
variable tilt_yz equal "yz"
variable tot_press equal "press"
variable press_xx equal "pxx"
variable press_yy equal "pyy"
variable press_zz equal "pzz"
variable press_xy equal "pxy"
variable press_xz equal "pxz"
variable press_yz equal "pyz"

# ---- output ----
print "pypospack:output_section:begin"
pypospack:output_section:begin
print "tot_energy = ${tot_energy}"
tot_energy = -110.433524975286
print "num_atoms = ${natoms}"
num_atoms = 8
print "xx = ${length_x}"
xx = 4.34351296178449
print "yy = ${length_y}"
yy = 4.34351296178449
print "zz = ${length_z}"
zz = 4.34351296178449
print "xy = ${tilt_xy}"
xy = 0
print "xz = ${tilt_xz}"
xz = 0
print "yz = ${tilt_yz}"
yz = 0
print "tot_press = ${tot_press}"
tot_press = -5.71931225965551
print "pxx = ${press_xx}"
pxx = -5.71931225981032
print "pyy = ${press_yy}"
pyy = -5.71931225968463
print "pzz = ${press_zz}"
pzz = -5.71931225947158
print "pxy = ${press_xy}"
pxy = 4.5865850341772e-11
print "pxz = ${press_xz}"
pxz = 9.06207702771322e-11
print "pyz = ${press_yz}"
pyz = 2.62492238241466e-10
print "pypospack:output_section:done"
pypospack:output_section:done
print "pypospack:lammps_sim:done"
pypospack:lammps_sim:done
#------------------------------------------------------------------------------
# RUN THERMOSTAT
# running using an NPT Nose-Hoover style thermostat
#------------------------------------------------------------------------------
variable tempdamp equal 0.1
variable pressdamp equal 1.0
# set initial velocities
velocity all create 1700 2527231 mom yes dist gaussian loop all
# fix for Nose-Hoover style thermostat
fix 20 all npt temp 1700 1700 0.1 aniso 0.0 0.0 1.0 drag 1.0 couple xyz
variable boxx equal lx
variable boxy equal ly
variable boxz equal lz
variable boxp equal press
variable boxt equal temp
# calculate averages every 10000 steps
reset_timestep 0
fix 21 all ave/time 10 10 100 v_boxx v_boxy v_boxz v_boxp v_boxt file lattice.out
thermo_style custom step temp pe ke etotal press lx ly lz press pxx pyy pzz pxy pxz pyz vol
thermo_modify flush yes
thermo 100
run 100000
PPPM initialization ...
  G vector (1/distance) = 0.351923
  grid = 8 8 8
  stencil order = 5
  estimated absolute RMS force accuracy = 4.10067e-05
  estimated relative force accuracy = 2.84776e-06
  using double precision FFTs
  3d grid and FFT values/proc = 3375 512
Memory usage per processor = 3.06549 Mbytes
Step Temp PotEng KinEng TotEng Press Lx Ly Lz Press Pxx Pyy Pzz Pxy Pxz Pyz Volume 
       0         1700   -110.43354    1.5381957   -108.89534     20041.88     4.343513     4.343513     4.343513     20041.88    4348.6432    37979.768    17797.231   -4090.5187    -6907.077   -243.55657    81.945171 
     100    1156.2504   -109.75609    1.0461997   -108.70989    3766.4504    4.3763865    4.3763865    4.3763865    3766.4504   -11585.603    28430.502   -5545.5479    1891.3734   -1543.3539        12998    83.819874 
     200    986.06107    -109.1883   0.89220878   -108.29609   -35683.898    4.4297688    4.4297688    4.4297688   -35683.898   -57446.424    -2606.386   -46998.884    11916.765    537.83458     17481.41    86.924699 
     300    1063.0758    -108.8716   0.96189334   -107.90971    2830.9043    4.4320971    4.4320971    4.4320971    2830.9043   -50483.197    90419.219   -31443.309   -370.36367   -2268.3747    -11995.65    87.061829 
     400    949.35461    -108.4919     0.858996    -107.6329    29036.958    4.4012248    4.4012248    4.4012248    29036.958   -1311.2547     92951.43   -4529.3009    6373.2533   -1154.1575    16916.856    85.255156 
     500     1814.823   -109.10362      1.64209   -107.46153    12619.445    4.3979499    4.3979499    4.3979499    12619.445   -16467.862    33929.244    20396.952    901.33009    10568.242    9441.2611    85.064986 
     600    2170.7119   -109.36767    1.9641058   -107.40357   -5210.9303    4.4245595    4.4245595    4.4245595   -5210.9303   -54224.776   -8841.5941    47433.579   -7001.9975   -8287.9897    9957.7719    86.618391 
     700    1635.8102   -108.84274    1.4801154   -107.36263   -38859.021    4.4420455    4.4420455    4.4420455   -38859.021   -51741.934   -44979.044   -19856.084    2309.8178    193.73252    35881.919    87.649411 
     800    1627.5575   -108.80369    1.4726482   -107.33104    3871.7631    4.4323977    4.4323977    4.4323977    3871.7631   -72744.235    4480.3384    79879.186    10312.428   -9183.6281   -18903.801     87.07955 
     900    1756.2615   -108.93969    1.5891023   -107.35059     15172.18    4.4207844    4.4207844    4.4207844     15172.18   -54929.368    112259.92   -11814.016   -1762.4179    7636.8053    6176.9554    86.396872 
    1000     1377.946   -108.63756    1.2467945   -107.39077    5105.7052    4.4185927    4.4185927    4.4185927    5105.7052   -55410.375    19207.301     51520.19     2202.316     4731.566   -5473.0536    86.268431 
    1100    1026.2957   -108.33815   0.92861389   -107.40954    65443.984    4.4258826    4.4258826    4.4258826    65443.984   -44892.874    160587.53    80637.299   -11180.522    4688.0688    12489.772    86.696121 
    1200    1274.2681   -108.54442    1.1529845   -107.39144    11718.919    4.4398038    4.4398038    4.4398038    11718.919   -67550.079    119202.91   -16496.077    6251.9163   -5379.5608   -42629.085     87.51678 
    1300    802.23806   -108.11637   0.72588185   -107.39049   -3316.1697    4.4224359    4.4224359    4.4224359   -3316.1697   -35451.911    5501.1115     20002.29    5408.2296   -3301.6103    6437.2674    86.493734 
    1400    1601.6419   -108.81839    1.4491992   -107.36919    45028.252    4.3992075    4.3992075    4.3992075    45028.252   -42753.622    169253.33    8585.0516    2945.3316   -1250.7947   -8698.6697    85.137982 
    1500    950.81032   -108.27366   0.86031316   -107.41335    32908.042    4.4040423    4.4040423    4.4040423    32908.042   -17177.056    52199.782      63701.4   -9335.9365    -14000.82   -359.21065    85.418995 
    1600    1463.6689     -108.744    1.3243584   -107.41964    -7619.664    4.4303831    4.4303831    4.4303831    -7619.664   -37434.195   -5433.1753    20008.378    176.22471   -575.59672   -8542.6377    86.960863 
    1700    2099.8858   -109.25651    1.9000208   -107.35649   -34383.878    4.4420287    4.4420287    4.4420287   -34383.878   -55628.264   -10933.438   -36589.932    2812.2376   -6036.7602    1369.7027    87.648415 
    1800    1347.5873   -108.54243    1.2193253   -107.32311    25133.919    4.4167192    4.4167192    4.4167192    25133.919   -19331.043    18974.102    75758.698   -9773.0697    12814.908   -21071.502    86.158745 
    1900    2063.9457   -109.19131    1.8675015   -107.32381    3281.3721     4.406844     4.406844     4.406844    3281.3721    -33336.42    69858.481   -26677.945    10744.089   -18333.086    18687.685    85.582119 
    2000    1418.5285   -108.64073    1.2835144   -107.35722     28280.61    4.4059584    4.4059584    4.4059584     28280.61   -29584.303    90280.983    24145.152    4809.7193   -6132.8577   -7956.7197    85.530533 
    2100    1708.8545    -108.9265    1.5462074    -107.3803   -25597.844    4.4203239    4.4203239    4.4203239   -25597.844    -13857.97   -43522.313   -19413.248    298.03062    8689.9707   -10452.087    86.369872 
    2200    2126.8932   -109.28839    1.9244577   -107.36394   -61456.284    4.4402528    4.4402528    4.4402528   -61456.284   -75586.986   -47432.662   -61349.203   -11007.314   -11713.705    12020.351    87.543335 
    2300    1441.6975   -108.64989    1.3044782   -107.34542    26956.165     4.416659     4.416659     4.416659    26956.165   -24063.348    73323.144      31608.7    8331.3291   -4613.7265    -27107.82    86.155221 
    2400    1982.9613   -109.16387     1.794225   -107.36965    6331.4893    4.4089993    4.4089993    4.4089993    6331.4893    6941.0499    33696.601   -21643.183   -1251.4959    -710.3865    11970.646    85.707746 
    2500    1287.6012    -108.5473    1.1650486   -107.38225     3076.505    4.4231494    4.4231494    4.4231494     3076.505   -22898.535    75008.623   -42880.573   -7225.6861    20774.469    13424.599    86.535605 
    2600    1507.4733   -108.72739    1.3639935   -107.36339    10091.901    4.4197986    4.4197986    4.4197986    10091.901   -17697.628    62496.488   -14523.155    11645.428    1764.9532   -39107.334    86.339085 
    2700     2093.879   -109.23536    1.8945857   -107.34077   -43584.354    4.4278989    4.4278989    4.4278989   -43584.354   -59363.067   -16837.765   -54552.231   -2373.5168     -3996.96    30495.782    86.814666 
    2800    1365.4307   -108.56324    1.2354704   -107.32777   -28980.235    4.4213993    4.4213993    4.4213993   -28980.235   -51950.028   -24773.257    -10217.42    15540.831    18191.031   -15333.019    86.432929 
    2900    1892.3911   -109.01201    1.7122752   -107.29973    36685.231    4.4010267    4.4010267    4.4010267    36685.231     29176.42    42798.469    38080.804   -15246.051    3002.9526    4584.0011    85.243644 
    3000    1600.2368   -108.77235    1.4479279   -107.32442   -17121.335    4.4220542    4.4220542    4.4220542   -17121.335   -31488.426    8540.7093   -28416.289    5282.5655    13435.757    1847.1908    86.471337 
    3100    2034.0819   -109.13786      1.84048   -107.29738   -20818.632    4.4286066    4.4286066    4.4286066   -20818.632   -23659.451   -22156.059   -16640.384    21022.516   -2444.7369    5583.6678    86.856295 
    3200    1830.2618   -108.93594    1.6560593   -107.27988    21572.277     4.412665     4.412665     4.412665    21572.277    12268.851    34062.792    18385.189   -5462.0269   -9148.5572    6902.3383    85.921704 
    3300    1255.4323   -108.44889    1.1359415   -107.31295   -33053.666    4.4207366    4.4207366    4.4207366   -33053.666   -61468.489    2935.0696   -40627.578     6277.184    20777.263    235.50499    86.394066 
    3400    1592.8516   -108.73253    1.4412456   -107.29128    36073.841    4.4072082    4.4072082    4.4072082    36073.841    23171.114   -9000.8853    94051.295    7125.7895    12953.156   -15034.417    85.603337 
    3500    1520.7166   -108.69891    1.3759764   -107.32294     11429.42    4.4189131    4.4189131    4.4189131     11429.42   -14327.653    35486.528    13129.386   -6837.2746   -6722.4013    2624.4483      86.2872 
    3600    1982.2529   -109.09025    1.7935841   -107.29667   -39345.472    4.4436467    4.4436467    4.4436467   -39345.472   -44610.853   -54297.574   -19127.989    11115.014    14138.533    1271.6025     87.74423 
    3700    1808.0258   -108.90846    1.6359398   -107.27252    20182.888    4.4079808    4.4079808    4.4079808    20182.888   -778.34401     22920.06    38406.947    6789.2167   -9749.3809   -187.47227    85.648368 
    3800    1062.0746   -108.25505   0.96098746   -107.29406     55663.27    4.3973284    4.3973284    4.3973284     55663.27   -5396.1851     99532.13    72853.866   -6890.9108    8574.3338    587.11234    85.028926 
    3900    1824.5806   -108.95371    1.6509189   -107.30279    23038.115    4.4282949    4.4282949    4.4282949    23038.115   -1473.3279     3529.228    67058.444    2515.2657    14277.712    8837.4875    86.837959 
    4000    1747.9494   -108.88369    1.5815814   -107.30211   -20022.775    4.4373931    4.4373931    4.4373931   -20022.775    6546.2943   -61142.775   -5471.8443    7066.1052   -7607.6253   -5227.5093      87.3743 
    4100    1625.9906   -108.75976    1.4712305   -107.28853   -4088.4579    4.4332146    4.4332146    4.4332146   -4088.4579   -4649.1039    -15683.34    8067.0701    12207.736    17622.559    10679.519    87.127704 
    4200    1920.2978   -109.01611    1.7375258   -107.27858    7524.1588    4.4030305    4.4030305    4.4030305    7524.1588    -9387.937   -6455.3104    38415.724     6491.927    3607.9251   -16035.371    85.360134 
    4300    1464.2194   -108.61965    1.3248565   -107.29479    9879.8336    4.3927485    4.3927485    4.3927485    9879.8336   -469.36146    10209.489    19899.373   -6793.5139   -1437.5552    24987.114    84.763527 
    4400    1863.2119   -109.00812    1.6858732   -107.32225   -23160.142    4.4256739    4.4256739    4.4256739   -23160.142   -47087.596   -35361.303    12968.472    14042.214   -10020.624   -8307.4298    86.683857 
    4500    1558.5463   -108.70903    1.4102055   -107.29883   -4829.1146    4.4370246    4.4370246    4.4370246   -4829.1146   -32283.267   -5607.7353    23403.658   -8058.6348    4335.8242    -13177.09    87.352532 
    4600    2092.3502   -109.17591    1.8932024    -107.2827   -24398.414    4.4214506    4.4214506    4.4214506   -24398.414   -13683.452   -25464.567   -34047.223   -3497.4791    11417.013    15910.637    86.435935 
    4700    1649.3072   -108.76956    1.4923279   -107.27723    14227.529    4.4114484    4.4114484    4.4114484    14227.529   -16017.532    32507.836    26192.282    -1411.938   -15575.108   -8176.5411    85.850652 
    4800    2031.1338    -109.1317    1.8378126   -107.29389   -26720.894    4.4256084    4.4256084    4.4256084   -26720.894   -60773.945    5561.1584   -24949.895    -18678.13    13704.771    5764.1448     86.68001 
    4900     1345.615   -108.51938    1.2175407   -107.30184    4179.1359    4.4418542    4.4418542    4.4418542    4179.1359    4255.5939    24566.517   -16284.703    16062.853   -1815.4448   -4946.3882    87.638091 
    5000    2438.1207   -109.48726    2.2060629    -107.2812   -19572.434    4.4377692    4.4377692    4.4377692   -19572.434     2271.174   -44767.395   -16221.081   -199.21448    -9067.656    11966.048    87.396522 
    5100    1585.1811   -108.71727    1.4343052   -107.28296    5684.2217    4.4164681    4.4164681    4.4164681    5684.2217   -23610.955    56577.744   -15914.124    18559.297    7352.6679   -14932.423    86.144052 
    5200    1970.0807    -109.0812    1.7825704   -107.29863   -20343.328     4.408495     4.408495     4.408495   -20343.328   -51232.074    -32565.49    22767.581     11080.51   -14629.985    17163.155    85.678344 
    5300    1549.4996   -108.72038    1.4020198   -107.31836    1848.7512    4.4218319    4.4218319    4.4218319    1848.7512   -66228.922     19877.81    51897.366   -999.97685    7753.8538    3601.4049    86.458299 
    5400    1350.5282   -108.53707    1.2219863   -107.31508   -13446.891     4.428092     4.428092     4.428092   -13446.891    -61539.03    24187.534   -2989.1778    21296.391    13307.934   -8941.0804    86.826025 
    5500    2051.0618   -109.15568    1.8558438   -107.29983    -937.2898    4.4214698    4.4214698    4.4214698    -937.2898   -7188.0326   -3681.7304    8057.8935    1964.0953    -13139.24    23422.913    86.437061 
    5600     2179.783   -109.27689    1.9723135   -107.30457   -23927.432    4.4235302    4.4235302    4.4235302   -23927.432    -60882.31   -27540.031    16640.047    21865.015     18533.25    2040.9908    86.557954 
    5700    1568.6073   -108.71578    1.4193088   -107.29647    2390.6863    4.4162735    4.4162735    4.4162735    2390.6863   -60326.292    19520.021     47978.33    6589.1211   -4388.3256    -2048.175    86.132663 
    5800    1636.8608   -108.78485     1.481066   -107.30379   -8211.8376     4.407171     4.407171     4.407171   -8211.8376   -18145.153   -11213.002    4722.6429   -539.05687   -458.01871    16932.617     85.60117 
    5900    1453.9654   -108.63279    1.3155785   -107.31721    20196.144     4.417912     4.417912     4.417912    20196.144    1514.2972    28459.166    30614.968    4529.6253    11842.036   -5002.0018    86.228567 
    6000    2216.0491    -109.3037    2.0051278   -107.29858   -44914.058    4.4362795    4.4362795    4.4362795   -44914.058   -30369.651   -38535.224   -65837.298    6401.1831   -13503.007    15651.516    87.308534 
    6100    1361.0364   -108.52692    1.2314943   -107.29543    6546.4035    4.4234056    4.4234056    4.4234056    6546.4035    47113.047   -64816.598    37342.762    25979.213   -16234.644   -2141.9699    86.550639 
    6200    1987.6477   -109.08393    1.7984654   -107.28546   -3231.5962    4.4029673    4.4029673    4.4029673   -3231.5962   -40282.655    -19304.25    49892.117   -8007.2139   -6750.5582   -15739.968    85.356457 
    6300    1721.5669   -108.85661    1.5577099    -107.2989   -9459.4381     4.400957     4.400957     4.400957   -9459.4381   -23634.084   -34830.817    30086.587    4302.7042    2131.0718    7028.4766    85.239597 
    6400    1276.3028   -108.47934    1.1548256   -107.32451   -4672.8729     4.430696     4.430696     4.430696   -4672.8729   -11474.454   -85287.394    82743.229    30571.964    -21822.12   -1341.0822    86.979293 
    6500    1957.0043   -109.05674    1.7707386     -107.286   -17986.877    4.4310381    4.4310381    4.4310381   -17986.877   -50791.321   -4236.9062    1067.5948   -323.13289   -35167.137   -8830.7624    86.999437 
    6600    1581.1471   -108.70912    1.4306551   -107.27846   -1774.1632    4.4052998    4.4052998    4.4052998   -1774.1632    27726.053    11919.446   -44967.988    1753.0874   -15564.219    10770.929    85.492185 
    6700    1588.4359   -108.74177    1.4372502   -107.30452    23122.533    4.4073518    4.4073518    4.4073518    23122.533    33573.713   -26536.655     62330.54    10966.081    12813.056   -17879.479    85.611706 
    6800    1551.1544   -108.71061    1.4035171    -107.3071    16368.258    4.4270224    4.4270224    4.4270224    16368.258    13332.779    17738.326    18033.669    8817.3363   -10324.819   -5856.7076    86.763118 
    6900    1298.3012   -108.47003    1.1747303    -107.2953    37082.713    4.4338626    4.4338626    4.4338626    37082.713        12826    51560.182    46861.955    9301.6302   -6224.4137   -19406.355    87.165914 
    7000    1966.2648   -109.05653    1.7791177   -107.27741   -772.86373    4.4397069    4.4397069    4.4397069   -772.86373   -31084.158    277.53405    28488.033    3947.9739      10229.3   -16959.179    87.511049 
    7100    1871.6399   -108.94801    1.6934991   -107.25451    16041.924    4.4248965    4.4248965    4.4248965    16041.924   -36673.821    66693.256    18106.336    1281.0945   -14617.038    9604.5208    86.638184 
    7200    1505.4835   -108.62759    1.3621931    -107.2654    11880.632    4.4089607    4.4089607    4.4089607    11880.632   -10115.931    51110.638   -5352.8101   -14179.899    16491.991   -12649.096      85.7055 
    7300     1198.328   -108.38808    1.0842723    -107.3038    6012.2042    4.4193335    4.4193335    4.4193335    6012.2042    -43543.05    1972.8148    59606.848    102.40929     8908.407   -9872.7924    86.311833 
    7400    1713.0234    -108.8513    1.5499795   -107.30132    24816.353    4.4204453    4.4204453    4.4204453    24816.353    -16710.64    2716.0454    88443.654     1436.111   -11751.542    2126.4039    86.376988 
    7500    1367.6408    -108.5704    1.2374701   -107.33293    8171.1031    4.4244699    4.4244699    4.4244699    8171.1031    1508.5823    152.73281    22851.994    3216.5593   -1489.2057   -24440.452    86.613133 
    7600    2378.4445   -109.45631    2.1520666   -107.30424   -2126.8039    4.4222404    4.4222404    4.4222404   -2126.8039   -42244.342   -8594.2706    44458.201   -4940.2155    1922.3836   -3983.6536    86.482265 
    7700     1830.236   -108.95897     1.656036   -107.30294      8855.82    4.4006862    4.4006862    4.4006862      8855.82   -57920.377    64637.164    19850.673   -2715.3591    20346.926   -11210.433    85.223863 
    7800    1433.6465   -108.63409    1.2971934   -107.33689    -20600.15    4.4078926    4.4078926    4.4078926    -20600.15   -35943.745   -9843.5737   -16013.131    3860.5781   -319.47269      27292.6    85.643224 
    7900    1330.4357   -108.54536    1.2038062   -107.34155    -8142.845    4.4305161    4.4305161    4.4305161    -8142.845   -62974.633     2121.814    36424.284    -10222.71   -13789.683    14613.683    86.968696 
    8000    1769.4849   -108.90567    1.6010671    -107.3046   -4948.4741     4.442884     4.442884     4.442884   -4948.4741   -63606.607    6835.4362    41925.749   -2534.1976    12040.319    1240.5238    87.699057 
    8100    1389.2977   -108.55509    1.2570658   -107.29803   -9044.8194    4.4351073    4.4351073    4.4351073   -9044.8194   -43868.572   -29936.392    46670.506    1421.5315     -18212.8    13621.797    87.239346 
    8200    1750.7374    -108.8713     1.584104   -107.28719    29050.095    4.4139884    4.4139884    4.4139884    29050.095   -49307.709    75221.587    61236.406    16191.372    7752.4893   -2205.4672    85.999031 
    8300    1864.7273   -108.98531    1.6872444   -107.29807    357.59638     4.414153     4.414153     4.414153    357.59638   -35906.814    36715.358    264.24511    4765.2643    891.22373    -24901.79    86.008654 
    8400    1348.8015   -108.54656    1.2204239   -107.32614   -22251.589    4.4233799    4.4233799    4.4233799   -22251.589   -35945.574    36853.007   -67662.201    12365.223   -4681.5578   -78.801706    86.549133 
    8500    1953.4897   -109.07902    1.7675586   -107.31146   -19497.145    4.4164574    4.4164574    4.4164574   -19497.145   -37932.281    3953.7504   -24512.905     9310.663    3930.8223   -390.48829    86.143424 
    8600    1528.9802   -108.68961    1.3834535   -107.30616     18000.73    4.4131876    4.4131876    4.4131876     18000.73   -53745.366    90670.311    17077.246   -14925.273   -29595.207   -25062.716    85.952232 
    8700    1728.9653   -108.89005    1.5644042   -107.32565   -35685.903    4.4302524    4.4302524    4.4302524   -35685.903   -60119.233   -29610.445   -17328.032     16912.56   -6721.4131    14737.217    86.953168 
    8800    2095.1268   -109.19819    1.8957147   -107.30247   -13163.336    4.4363825    4.4363825    4.4363825   -13163.336    -40094.23   -21572.353    22176.573    21720.819    7023.4051   -14883.853    87.314618 
    8900    1369.1041   -108.52245    1.2387941   -107.28365   -9963.8634    4.4392413    4.4392413    4.4392413   -9963.8634    -20569.93   -27751.304    18429.644    4907.7317   -4067.3641   -15528.049     87.48352 
    9000    1397.4006   -108.54847    1.2643974   -107.28407   -21135.043    4.4314063    4.4314063    4.4314063   -21135.043   -55747.067    40991.976   -48650.037     5567.584    11732.391    14104.286    87.021128 
    9100    2387.8757   -109.45067    2.1606001   -107.29007   -12507.286    4.4155446    4.4155446    4.4155446   -12507.286   -12548.104   -479.22907   -24494.525     19548.16   -18566.828   -6970.7359    86.090026 
    9200     1519.287   -108.68889    1.3746828   -107.31421    41213.677    4.4130853    4.4130853    4.4130853    41213.677    23874.412    70088.207    29678.411   -14508.953    3175.1749    1976.8571    85.946255 
    9300    1816.3656   -108.96628    1.6434858   -107.32279   -17270.578    4.4372561    4.4372561    4.4372561   -17270.578    41880.349   -71708.838   -21983.247   -11304.522   -3057.2602    10587.445    87.366206 
    9400    1886.9583   -108.99476    1.7073595    -107.2874   -6439.6188    4.4332414    4.4332414    4.4332414   -6439.6188   -15955.886    43016.329     -46379.3     4283.456    16262.981   -17700.204    87.129285 
    9500    1282.8395   -108.43806    1.1607401   -107.27732    26452.188    4.4185643    4.4185643    4.4185643    26452.188    10795.312    18185.465    50375.787    -15631.09    30363.704    14204.668    86.266771 
    9600    1724.1141     -108.845    1.5600147   -107.28499    -13102.38    4.4354214    4.4354214    4.4354214    -13102.38   -9763.3511   -22332.929   -7210.8604    5127.1675   -3916.3852   -25610.323    87.257883 
    9700    1605.9754   -108.73213    1.4531203   -107.27901    -13762.38    4.4315829    4.4315829    4.4315829    -13762.38   -27711.324   -7877.7924   -5698.0232   -1053.6188    32455.574    20019.462    87.031531 
    9800    2074.8854   -109.14217    1.8773999   -107.26477   -13611.852    4.4172828    4.4172828    4.4172828   -13611.852   -1146.2804   -34105.595   -5583.6808   -4218.0176    3894.0804   -9012.7872    86.191735 
    9900      1969.43   -109.05577    1.7819817   -107.27379   -19223.051    4.4164492    4.4164492    4.4164492   -19223.051   -23058.233    10179.307   -44790.229    19048.917   -26.734742   -26275.992    86.142945 
   10000    1393.7867    -108.5541    1.2611275   -107.29297   -12061.384    4.4163478    4.4163478    4.4163478   -12061.384   -9367.9474   -11770.852   -15045.353   -2226.7296    12572.744    5530.1932    86.137014 
   10100    1305.5031   -108.48848    1.1812466   -107.30724   -9209.8466    4.4187146    4.4187146    4.4187146   -9209.8466   -28200.329   -27075.165    27645.954   -22021.755   -964.46067   -38373.183    86.275576 
   10200    1610.1093   -108.76425    1.4568608   -107.30739    1685.3081    4.4190599    4.4190599    4.4190599    1685.3081   -46491.139    31209.179    20337.884   -6865.1991    23832.755    1528.9208    86.295804 
   10300    2227.5231   -109.32405    2.0155097   -107.30854   -13937.374    4.4230443    4.4230443    4.4230443   -13937.374    -36365.09   -42250.392    36803.361   -3083.3741   -1044.1651    3886.2866    86.529436 
   10400    1229.9195   -108.42574     1.112857   -107.31289     2309.044    4.4228297    4.4228297    4.4228297     2309.044   -18979.241    12996.863    12909.511    11342.024    16836.029   -45035.189    86.516839 
   10500    1756.6248   -108.87883     1.589431    -107.2894     6623.577    4.4083053    4.4083053    4.4083053     6623.577   -14099.835    42145.376   -8174.8097   -16179.151    18241.216    17298.811    85.667281 
   10600    985.87158   -108.20154   0.89203733    -107.3095    19694.243    4.4176526    4.4176526    4.4176526    19694.243     49601.34    21063.066   -11581.675    1323.2087   -27476.821   -40561.708    86.213383 
   10700    1727.7402    -108.8633    1.5632956   -107.30001   -25811.065    4.4300254    4.4300254    4.4300254   -25811.065   -2169.3202   -58572.023   -16691.852   -5757.5609    15492.149   -32672.081    86.939805 
   10800    1790.5329   -108.90378    1.6201118   -107.28367    9954.1625    4.4196269    4.4196269    4.4196269    9954.1625   -39877.551    31886.768    37853.271    6026.2289    2234.0071    17122.908    86.329025 
   10900    1597.6986   -108.73226    1.4456313   -107.28663   -8825.0754    4.4098682    4.4098682    4.4098682   -8825.0754   -9563.9108   -26823.013    9911.6976    6304.6736   -16698.282   -27162.278    85.758432 
   11000    1527.8611   -108.67905    1.3824408   -107.29661    16384.217    4.4181379    4.4181379    4.4181379    16384.217   -30415.413    32759.505     46808.56    2121.1882    7495.8977    5015.1411      86.2418 
   11100    1429.5265   -108.60765    1.2934656   -107.31418   -32710.786    4.4288821    4.4288821    4.4288821   -32710.786   -39878.682    -18530.96   -39722.717     11680.68   -1252.6592    1520.0974    86.872505 
   11200    1516.8713    -108.6872    1.3724971   -107.31471    -20174.65    4.4147383    4.4147383    4.4147383    -20174.65    32157.327   -44071.178   -48610.097    4317.5396   -4000.6464   -24763.516     86.04287 
   11300    2312.8781   -109.39081    2.0927407   -107.29807    19706.972     4.393786     4.393786     4.393786    19706.972   -22941.316    57482.859    24579.373   -1738.3658   -5021.6815    426.76218    84.823599 
   11400    1471.0489   -108.66891    1.3310359   -107.33788   -27370.327    4.4107609    4.4107609    4.4107609   -27370.327   -26331.298   -18239.673   -37540.009    14035.789   -6615.8643   -22886.841    85.810521 
   11500    1563.5728   -108.73894    1.4147536   -107.32418   -42369.853     4.427155     4.427155     4.427155   -42369.853   -30558.011   -36502.339   -60049.209   -10740.476   -6969.6822   -4742.4002    86.770914 
   11600    1639.1353   -108.78453     1.483124   -107.30141    4180.9054    4.4204671    4.4204671    4.4204671    4180.9054   -45371.389    60144.897   -2230.7915    3392.9333    946.48798    9974.6036    86.378267 
   11700    1604.2205     -108.759    1.4515324   -107.30747   -22796.555    4.4196843    4.4196843    4.4196843   -22796.555    4757.2485   -51874.149   -21272.763   -7277.8143   -15259.472   -33744.415    86.332387 
   11800      1601.88   -108.75735    1.4494147   -107.30794    8957.5888     4.412908     4.412908     4.412908    8957.5888    20575.073   -6974.9034    13272.597   -22166.372   -3676.9101    755.49263    85.935898 
   11900    2098.7876    -109.2069    1.8990271   -107.30787     7457.431    4.4117546    4.4117546    4.4117546     7457.431    25156.361   -16470.158     13686.09    1146.1377    8043.6804   -19796.999    85.868532 
   12000    859.82215   -108.09606   0.77798515   -107.31807   -8252.3413    4.4383982    4.4383982    4.4383982   -8252.3413    41474.351    -17422.77   -48808.605    419.14677   -12046.028   -1779.4798    87.433684 
   12100    2089.5626   -109.17506    1.8906801   -107.28438   -30132.136    4.4273881    4.4273881    4.4273881   -30132.136   -44051.875   -38808.789   -7535.7453    5165.9158    11939.538    24022.716    86.784624 
   12200     1561.136   -108.68196    1.4125487   -107.26941     61171.35    4.3933409    4.3933409    4.3933409     61171.35    27045.199    119674.21     36794.64   -1670.1989    3048.5207   -38674.752    84.797825 
   12300    2081.3609   -109.19361    1.8832591   -107.31035   -5613.9252    4.4085644    4.4085644    4.4085644   -5613.9252    -9587.812   -21382.365    14128.402    12068.881    28358.486    16961.369    85.682392 
   12400    2006.5274   -109.11963    1.8155481   -107.30408   -25719.982    4.4343969    4.4343969    4.4343969   -25719.982   -44095.475    414.63466   -33479.105    9196.0619    14981.807    7134.6648    87.197429 
   12500    1747.3241   -108.86426    1.5810156   -107.28325    -13931.27    4.4262808    4.4262808    4.4262808    -13931.27   -40445.908     419.8054   -1767.7082    8655.0782   -5150.4269   -17223.606    86.719522 
   12600    1985.7761   -109.06589     1.796772   -107.26912   -14781.356    4.4157655    4.4157655    4.4157655   -14781.356    -38321.12    2773.9302    -8796.878     4859.746    18213.939    18614.741    86.102945 
   12700    1911.2185   -109.02168    1.7293107   -107.29237    9562.4709    4.4160587    4.4160587    4.4160587    9562.4709   -9862.5646    52845.236   -14295.259    -20007.32   -1298.8852    2282.3172    86.120096 
   12800    1288.1867   -108.48599    1.1655784   -107.32041   -4294.5168    4.4184455    4.4184455    4.4184455   -4294.5168   -25690.514    31944.196   -19137.232   -1863.4356    41158.755   -5610.7426    86.259813 
   12900    2164.8693   -109.26218    1.9588192   -107.30336    6342.9992    4.4162203    4.4162203    4.4162203    6342.9992   -7187.9268    23144.522    3072.4026   -10346.116    5108.9059    18713.734    86.129554 
   13000    1317.1489   -108.51835     1.191784   -107.32657   -2683.8941     4.427235     4.427235     4.427235   -2683.8941   -53997.644    93494.787   -47548.825   -24.795998    16687.112   -13350.972    86.775618 
   13100    2215.4713   -109.31933     2.004605   -107.31473   -8564.1809    4.4405179    4.4405179    4.4405179   -8564.1809   -40046.384    63473.455   -49119.614   -972.97523   -11864.673   -7467.6452    87.559017 
   13200    1730.8755   -108.85613    1.5661326   -107.28999   -8688.1714    4.4439567    4.4439567    4.4439567   -8688.1714   -29085.279    47988.149   -44967.384   -27408.681    5301.7214    -9610.263    87.762597 
   13300    1384.1811   -108.54184    1.2524361    -107.2894    -35943.17    4.4245822    4.4245822    4.4245822    -35943.17   -24506.924   -44689.883   -38632.703      10380.8    13991.517   -27294.474    86.619728 
   13400     1581.358   -108.73484     1.430846   -107.30399    25375.474    4.4031173    4.4031173    4.4031173    25375.474   -25837.617    79109.587    22854.453    29250.102    -929.2803   -4010.8716     85.36518 
   13500    1640.5637   -108.84833    1.4844165   -107.36391   -5856.8174    4.4259681    4.4259681    4.4259681   -5856.8174   -17962.466     29903.91   -29511.896   -20318.455   -1266.4134   -13478.949    86.701144 
   13600    1779.7023   -108.93124     1.610312   -107.32092   -43179.199    4.4572961    4.4572961    4.4572961   -43179.199   -64608.602   -8860.9967   -56067.998    19483.993     -9819.76   -13006.828    88.555281 
   13700    1863.1214   -108.94891    1.6857914   -107.26312   -29784.846    4.4547659    4.4547659    4.4547659   -29784.846   -6305.5074   -31693.091   -51355.939    7832.1426    20248.177   -5187.5691    88.404556 
   13800    1421.3746   -108.51202    1.2860896   -107.22593     9655.287    4.4373311    4.4373311    4.4373311     9655.287    37824.474    37105.062   -45963.674   -7599.0231    20905.449   -1895.1594    87.370641 
   13900    1576.6357   -108.66623    1.4265731   -107.23966   -2221.0113    4.4287018    4.4287018    4.4287018   -2221.0113    -27063.91    4428.7613    15972.115    38961.444   -1180.0312    951.05362    86.861898 
   14000     1529.217   -108.65409    1.3836677   -107.27042    12089.032    4.4258752    4.4258752    4.4258752    12089.032   -18346.241    84537.566   -29924.231    12789.957    24440.238   -6701.1865    86.695689 
   14100    2172.6333    -109.2462    1.9658443   -107.28036   -9379.5853    4.4361141    4.4361141    4.4361141   -9379.5853    9384.6521   -9851.2438   -27672.164    3326.9576   -4231.0064   -9412.6958    87.298772 
   14200    1519.1943   -108.66322    1.3745989   -107.28862   -4595.5997    4.4412494    4.4412494    4.4412494   -4595.5997   -45383.341    44460.081   -12863.539    1647.8274    30002.731    5177.9121    87.602295 
   14300    1762.7252    -108.8779    1.5949508   -107.28295    11514.652    4.4281603    4.4281603    4.4281603    11514.652    27088.484   -4721.2479    12176.719    2575.7016   -154.52612   -21823.743     86.83004 
   14400    1052.6675   -108.24537   0.95247571    -107.2929     44912.19    4.4318718    4.4318718    4.4318718     44912.19     70426.82    78184.576   -13874.826     4881.142     11415.05   -610.25037    87.048556 
   14500    1775.3422   -108.89016    1.6063669    -107.2838    -17610.82    4.4515411    4.4515411    4.4515411    -17610.82   -7080.3069   -10180.728   -35571.426    2322.1983    14996.674   -7990.0297     88.21271 
   14600    1951.1871   -109.02985    1.7654751   -107.26438   -20567.141    4.4491192    4.4491192    4.4491192   -20567.141   -61175.391    14378.682   -14904.714    20941.634    328.36827    10661.044    88.068808 
   14700    1847.3309   -108.93737    1.6715038   -107.26587   -20881.979    4.4313981    4.4313981    4.4313981   -20881.979   -19625.382    -8426.316   -34594.239     2211.476     29487.05   -44.234113    87.020647 
   14800    1454.6328   -108.58385    1.3161823   -107.26767    26592.156     4.414495     4.414495     4.414495    26592.156    70903.214    32186.256   -23313.004   -26948.065   -15019.008   -9103.8074    86.028646 
   14900     1847.359   -108.98561    1.6715292   -107.31408    11427.578    4.4217397    4.4217397    4.4217397    11427.578   -3038.1371    7946.7836    29374.089    19019.656     19789.11    13290.268    86.452891 
   15000    1853.4398   -108.99218    1.6770312   -107.31515   -27690.839    4.4613991    4.4613991    4.4613991   -27690.839   -16657.912   -29177.468   -37237.137    -3419.009    7173.6806    7896.4169    88.800052 
   15100    1530.6843   -108.63428    1.3849953   -107.24929   -17024.655    4.4584397    4.4584397    4.4584397   -17024.655   -67093.565    48870.522   -32850.923   -12779.547   -5122.4618   -7924.1652    88.623455 
   15200    1456.7027   -108.53344    1.3180552   -107.21539    10688.963    4.4198383    4.4198383    4.4198383    10688.963    21815.516    11717.136   -1465.7628   -16174.287    21776.585   -6079.0621    86.341409 
   15300    2014.1535   -109.08812    1.8224484   -107.26567   -7836.1434    4.4099333    4.4099333    4.4099333   -7836.1434    10577.854    3500.3296   -37586.614    1532.9239   -35337.401   -21449.536    85.762231 
   15400    1446.7425   -108.64116     1.309043   -107.33211   -1927.3842    4.4311389    4.4311389    4.4311389   -1927.3842   -58744.922    84635.079   -31672.309    15206.048    21816.979    9981.7908    87.005375 
   15500     1696.393   -108.86155     1.534932   -107.32662   -17720.037    4.4414419    4.4414419    4.4414419   -17720.037   -25622.005    29446.042   -56984.147   -8008.7046    2458.8119   -5003.1517    87.613687 
   15600    1310.4018    -108.4831    1.1856791   -107.29742     17468.16    4.4301871    4.4301871    4.4301871     17468.16    86540.096    8648.9531    -42784.57    -22946.85   -31144.389    -10975.89    86.949325 
   15700    2160.5751   -109.23778    1.9549337   -107.28285   -18128.539    4.4391643    4.4391643    4.4391643   -18128.539   -15313.479   -8579.3374   -30492.799    8431.2282    8591.3196    4960.6665     87.47897 
   15800    1687.2833   -108.79453    1.5266894   -107.26785   -21267.616    4.4436075    4.4436075    4.4436075   -21267.616    8712.9693   -50201.288   -22314.528   -643.78507   -26630.853    13147.037    87.741906 
   15900    1415.7218   -108.54753    1.2809748   -107.26656     43528.06    4.4445694    4.4445694    4.4445694     43528.06    85559.951    67490.242   -22466.013   -43969.273   -508.94999   -4051.4155    87.798901 
   16000    2034.2175   -109.09423    1.8406027   -107.25363   -36479.971    4.4505258    4.4505258    4.4505258   -36479.971    23239.746   -49953.488    -82726.17    6243.2765   -3543.3449    15347.981    88.152362 
   16100    1105.4699   -108.26053    1.0002524   -107.26028    22583.217    4.4189688    4.4189688    4.4189688    22583.217    20614.834    42429.886    4704.9313   -21098.511    1671.1768   -10933.946    86.290463 
   16200    2231.1113   -109.30224    2.0187563   -107.28349   -195.32439    4.4076208    4.4076208    4.4076208   -195.32439    13216.171   -20412.804    6610.6606    1417.6704    9806.8383    25406.679    85.627386 
   16300    1247.1292    -108.4552    1.1284287   -107.32677   -4084.0794     4.427301     4.427301     4.427301   -4084.0794    9316.7282    6835.7677   -28404.734   -14155.593    2676.1707    38347.177    86.779499 
   16400    1831.9662   -108.96133    1.6576015   -107.30372     10825.93    4.4266056    4.4266056    4.4266056     10825.93     73911.91   -45656.402    4222.2826     8080.717   -6577.6473    -4825.939    86.738614 
   16500    1550.0015   -108.70807    1.4024739    -107.3056    10580.289    4.4317689    4.4317689    4.4317689    10580.289     15006.51   -7299.6447        24034    12747.346    3660.4525    5211.3071    87.042492 
   16600    1848.9682   -108.96035    1.6729853   -107.28737    1260.1015    4.4268321    4.4268321    4.4268321    1260.1015    16783.589    11065.952   -24069.237   -7310.8892    3245.5107    2226.6681    86.751929 
   16700    1139.9229   -108.33039    1.0314262   -107.29896   -553.73023    4.4275544    4.4275544    4.4275544   -553.73023   -26812.304     24811.33     339.7826   -11394.269    7852.2824    2826.3685      86.7944 
   16800     2007.541   -109.11442    1.8164653   -107.29796   -29918.137    4.4313937    4.4313937    4.4313937   -29918.137   -19544.857   -53660.655   -16548.897   -7735.3372   -389.96344    5574.5332    87.020386 
   16900     1659.601    -108.8145    1.5016419   -107.31285    16964.816    4.4273228    4.4273228    4.4273228    16964.816   -23246.613    18928.373    55212.689   -1837.1564    20064.687   -340.18942     86.78078 
   17000    2093.4552   -109.20737    1.8942023   -107.31317   -7363.5191    4.4280746    4.4280746    4.4280746   -7363.5191   -18811.052    6723.4382   -10002.943     3379.722   -112.38672   -10005.681    86.824999 
   17100    996.39166   -108.21597   0.90155611   -107.31441    11361.431    4.4513604    4.4513604    4.4513604    11361.431   -28387.047    14239.891    48231.448   -3532.8553    20189.344    894.26305    88.201968 
   17200    1537.7624   -108.66492    1.3913998   -107.27352   -8242.5736     4.452285     4.452285     4.452285   -8242.5736   -33943.915   -19877.977    29094.172    9239.5934    22284.372    18688.132    88.256942 
   17300    1339.4813   -108.45426    1.2119908   -107.24227    41278.106    4.4355315    4.4355315    4.4355315    41278.106    25930.558    92828.374    5075.3856   -10971.741    20392.482    11936.084    87.264377 
   17400    1868.6294   -108.95625    1.6907751   -107.26548    3366.6203    4.4464642    4.4464642    4.4464642    3366.6203    -26877.98   -3993.2048    40971.045   -18520.227    7678.7061    19017.857     87.91124 
   17500     1782.452   -108.86502       1.6128   -107.25222   -8064.6779    4.4563022    4.4563022    4.4563022   -8064.6779   -34362.769    26798.826   -16630.091   -13769.309   -15730.766    22151.817    88.496053 
   17600    1489.1823    -108.5814    1.3474435   -107.23395   -4043.7011    4.4525152    4.4525152    4.4525152   -4043.7011    24165.075     24141.67   -60437.849   -3165.7776   -2986.1011    277.79658    88.270632 
   17700    1886.6433   -108.93655    1.7070745   -107.22947   -10489.271    4.4471256    4.4471256    4.4471256   -10489.271   -25229.361    13157.464   -19395.915    6615.3059    14459.706    3008.9326    87.950476 
   17800    1593.3743   -108.69253    1.4417186   -107.25082    2606.9949    4.4361657    4.4361657    4.4361657    2606.9949    40330.173   -60926.661    28417.473    26201.513     5252.454   -14193.415    87.301816 
   17900    1516.6568   -108.64806     1.372303   -107.27576    3979.9713    4.4380344    4.4380344    4.4380344    3979.9713   -34444.831    16908.726    29476.019   -23195.965    581.35499    5436.0706    87.412189 
   18000    1689.3218   -108.81697    1.5285338   -107.28843   -14341.587    4.4394913    4.4394913    4.4394913   -14341.587   -34847.497   -4100.3039   -4076.9609    8256.0375     -10601.7    9896.1516    87.498305 
   18100    1639.9673   -108.76572    1.4838769   -107.28184   -22628.638    4.4249828    4.4249828    4.4249828   -22628.638   -56205.341   -52908.754     41228.18    16284.547    23494.647   -20041.116    86.643255 
   18200     945.9219   -108.14903   0.85589001   -107.29314    36595.035    4.4148371    4.4148371    4.4148371    36595.035   -53824.386    93680.413     69929.08    -16771.59   -5108.1435    22498.173    86.048651 
   18300    1961.2549   -109.09595    1.7745846   -107.32136    -19205.18    4.4346141    4.4346141    4.4346141    -19205.18   -30265.782   -27995.218    645.45965    11859.106   -22812.654     9431.015    87.210241 
   18400     1661.343   -108.81417    1.5032181   -107.31095    -39566.41    4.4580618    4.4580618    4.4580618    -39566.41   -96089.491    10139.891   -32749.631    -10099.11    19405.026   -1106.1167    88.600922 
   18500    1385.0988   -108.52855    1.2532665   -107.27528   -23993.383    4.4421475    4.4421475    4.4421475   -23993.383   -87249.445    12732.928     2536.368   -10089.048   -4847.9231   -11936.775     87.65545 
   18600    2137.2817    -109.1867    1.9338574   -107.25284   -5315.3006    4.4078762    4.4078762    4.4078762   -5315.3006   -38227.487    28167.674   -5886.0888    2795.1231    25777.365   -3975.7733    85.642268 
   18700    2125.4686   -109.21979    1.9231686   -107.29662   -16512.915    4.4136446    4.4136446    4.4136446   -16512.915   -27688.454    14871.171   -36721.462    -12013.01    13576.441    2598.4532     85.97894 
   18800    1421.0173   -108.61034    1.2857663   -107.32457     39.62544    4.4336132    4.4336132    4.4336132     39.62544    6170.3956   -14146.081    8094.5616   -2500.2461   -6612.1678   -3920.6872    87.151204 
   18900    1819.2374   -108.95382    1.6460842   -107.30774   -7118.4934     4.452205     4.452205     4.452205   -7118.4934   -43516.432    30301.063   -8140.1113   -10515.583    14457.317   -11118.829    88.252183 
   19000    1755.4737   -108.87142    1.5883895   -107.28303    3358.3929    4.4446374    4.4446374    4.4446374    3358.3929   -37806.524    6942.3019    40939.401   -18355.188    429.65298   -15331.525     87.80293 
   19100    1160.4406   -108.31326    1.0499911   -107.26327    49423.314    4.4099039    4.4099039    4.4099039    49423.314    11362.185    46371.038     90536.72   -6679.8703    7660.6472   -26040.554    85.760514 
   19200    1135.4314    -108.3433    1.0273622   -107.31594    45512.026    4.4248232    4.4248232    4.4248232    45512.026    5984.9136    29494.278    101056.89   -13983.494   -898.18567   -41531.939    86.633883 
   19300    1428.6078   -108.59165    1.2926344   -107.29902    8862.3304    4.4682721    4.4682721    4.4682721    8862.3304   -47895.561   -34033.872    108516.42    11012.823   -11520.855   -21577.255    89.211086 
   19400    1391.6844   -108.53205    1.2592253   -107.27282   -11116.351    4.4570333    4.4570333    4.4570333   -11116.351    -39693.96   -41693.937    48038.845    19160.178    17690.815   -4616.6242    88.539614 
   19500    1747.7067   -108.83243    1.5813617   -107.25107    230.55301    4.4079146    4.4079146    4.4079146    230.55301   -16972.292   -15488.528     33152.48   -5605.7013     8909.881    -13582.43    85.644509 
   19600    2232.1687   -109.31116    2.0197132   -107.29145    5987.9285    4.4017672    4.4017672    4.4017672    5987.9285   -25021.489    1881.7738    41103.501    2255.5098   -15813.076   -611.04361    85.286679 
   19700    1611.7393   -108.79787    1.4583356   -107.33953   -12074.162     4.448532     4.448532     4.448532   -12074.162   -34657.719    14566.192    -16130.96   -3411.8234    10126.669   -20280.496    88.033945 
   19800    1202.4844   -108.38378    1.0880332   -107.29575    -20156.28    4.4696035    4.4696035    4.4696035    -20156.28   -75977.998   -45939.756    61448.914    7260.0522    3514.6282   -3338.4509    89.290861 
   19900    2054.5811   -109.10789    1.8590282   -107.24887   -12729.548    4.4414586    4.4414586    4.4414586   -12729.548   -60185.532   -26867.365    48864.253    15426.051    15832.637    1985.1101    87.614675 
   20000    1585.9453   -108.69108    1.4349966   -107.25608     10242.89    4.4158981    4.4158981    4.4158981     10242.89   -20587.202    28306.717    23009.155    4022.2894    28723.621     -26168.3      86.1107 
   20100    1655.8799   -108.78615     1.498275   -107.28787    11892.443    4.4223161    4.4223161    4.4223161    11892.443   -23951.684    54827.932    4801.0811   -12202.422   -5559.7071   -13534.809    86.486705 
   20200    1486.9966    -108.6534    1.3454658   -107.30794    22071.501    4.4360742    4.4360742    4.4360742    22071.501   -37009.932    72363.906    30860.529   -6251.5747    23036.015    -10590.57    87.296415 
   20300    1377.8729   -108.54234    1.2467283   -107.29561    25430.875    4.4547109    4.4547109    4.4547109    25430.875    40164.122    51846.559   -15718.058     303.4057    3455.1599   -32425.497    88.401283 
   20400    1265.6363    -108.4181    1.1451743   -107.27293    8607.1174    4.4543986    4.4543986    4.4543986    8607.1174   -2965.3165    34571.905   -5785.2363    9487.4236   -7866.5717     244.9062    88.382691 
   20500      1853.46   -108.91942    1.6770495   -107.24237    11218.948    4.4294931    4.4294931    4.4294931    11218.948   -24496.494    2114.5589     56038.78   -249.90409    394.56737   -22325.385    86.908466 
   20600    1487.9634   -108.59026    1.3463406   -107.24392     39400.24    4.3991136    4.3991136    4.3991136     39400.24    43408.261    65849.755    8942.7037   -18047.191    8307.3548   -11892.708     85.13253 
   20700    1717.1993   -108.88485     1.553758   -107.33109    2835.4267    4.4230067    4.4230067    4.4230067    2835.4267   -37674.237   -20809.768    66990.285   -11276.725   -7480.0333    14777.791    86.527229 
   20800    2049.2168   -109.17335    1.8541744   -107.31917       -26992    4.4535853    4.4535853    4.4535853       -26992   -43703.245   -26943.313   -10329.443   -460.79358   -4309.5466   -17582.908    88.334289 
   20900    1228.9202   -108.41571    1.1119529   -107.30375   -33645.642    4.4434151    4.4434151    4.4434151   -33645.642   -33353.949   -48744.981   -18837.997   -13286.783   -9661.0765    11752.374    87.730513 
   21000    1354.4763   -108.50968    1.2255586   -107.28412    34078.423    4.4113082    4.4113082    4.4113082    34078.423   -38343.664   -10593.037    151171.97    15213.071    16600.034    4434.9722    85.842469 
   21100      1940.71   -109.08966    1.7559952   -107.33366    4352.8124    4.4172502    4.4172502    4.4172502    4352.8124   -24821.402   -10231.264    48111.102   -14466.743    -14883.32   -484.61124    86.189822 
   21200    1320.9545   -108.54825    1.1952274   -107.35303    -9284.617    4.4395858    4.4395858    4.4395858    -9284.617    11830.357   -24640.402   -15043.806    4752.2899    7969.3866    10367.076    87.503892 
   21300    1621.8188   -108.78646    1.4674557     -107.319   -6785.5184    4.4495253    4.4495253    4.4495253   -6785.5184   -77115.118   -10438.394    67196.956    10049.204    -744.1396   -16118.611    88.092929 
   21400    1978.5382    -109.0788     1.790223   -107.28858   -5720.9198    4.4394082    4.4394082    4.4394082   -5720.9198   -25008.739   -17455.347    25301.327   -13600.069     7046.419   -6488.4639    87.493388 
   21500    1507.6554   -108.64745    1.3641583   -107.28329     1996.926    4.4297245    4.4297245    4.4297245     1996.926   -36377.077   -15489.143    57856.998    9642.8259    9912.0778    9898.8961    86.922089 
   21600    1727.6084   -108.85952    1.5631764   -107.29634      3243.94    4.4264784    4.4264784    4.4264784      3243.94    -40200.66   -30226.655    80159.135    2327.0139      -8261.4    1251.1681    86.731138 
   21700    1505.3111   -108.69229    1.3620371   -107.33025     11933.26    4.4231813    4.4231813    4.4231813     11933.26   -52393.038   -5759.0103    93951.828   -3508.9505    21425.493    22970.087    86.537475 
   21800    1683.7208   -108.86788    1.5234659   -107.34441    4192.1571    4.4198841    4.4198841    4.4198841    4192.1571   -32418.274    6785.6072    38209.138    12991.783   -12969.719     4507.942    86.344096 
   21900    2557.1926   -109.65865    2.3138016   -107.34485   -27262.789    4.4286666    4.4286666    4.4286666   -27262.789   -42597.894   -21245.381   -17945.092   -5271.9654   -8622.7639   -30086.692    86.859827 
   22000    1470.7899   -108.68028    1.3308016   -107.34948   -12387.441    4.4438916    4.4438916    4.4438916   -12387.441   -6541.3742    -68465.46    37844.512    6410.5363    1391.5935    6232.9551    87.758735 
   22100    1579.5434   -108.74122     1.429204   -107.31201   -6719.5487    4.4379949    4.4379949    4.4379949   -6719.5487    12145.527   -31898.618   -405.55579     2633.406   -18653.739   -11808.859    87.409855 
   22200    2371.2409   -109.43245    2.1455486    -107.2869   -9071.5632    4.4312805    4.4312805    4.4312805   -9071.5632   -15742.988   -32791.664    21319.963   -272.35371   -9083.0193    14016.561    87.013716 
   22300    1874.2977   -109.00497    1.6959039   -107.30906   -23520.714    4.4194717    4.4194717    4.4194717   -23520.714    -32408.03   -64718.419    26564.308    17279.506    4853.0378    6233.5908    86.319927 
   22400      1251.36    -108.4713    1.1322568   -107.33904    46342.387    4.4010809    4.4010809    4.4010809    46342.387    5998.8937   -15157.044    148185.31   -5534.3092   -32108.971   -30883.407    85.246795 
   22500    1818.3488   -109.02107    1.6452802   -107.37579    35518.917    4.4242564    4.4242564    4.4242564    35518.917    33743.685   -26274.433    99087.499    3158.2664    15361.989    12766.723     86.60059 
   22600    1450.1555   -108.66126    1.3121312   -107.34913   -49933.763    4.4480311    4.4480311    4.4480311   -49933.763   -79757.961   -36038.374   -34004.953   -4312.8423   -7549.4851    1574.5839    88.004209 
   22700    1947.1458    -109.0662    1.7618185   -107.30439   -5211.1622    4.4180082    4.4180082    4.4180082   -5211.1622    8601.6446    -28520.14    4285.0091   -9191.9907   -18041.495   -3776.6022    86.234204 
   22800    2256.7374    -109.3311    2.0419434   -107.28916    38950.267    4.3903037    4.3903037    4.3903037    38950.267     30040.81    6054.0989    80755.892     26160.44    17615.946    22199.789    84.622081 
   22900    1312.3119   -108.53173    1.1874074   -107.34433   -1698.6875    4.4169256    4.4169256    4.4169256   -1698.6875    -9310.673    19485.269   -15270.658   -20600.539   -11503.985    3454.6256    86.170826 
   23000    1864.1916    -108.9947    1.6867597   -107.30794   -23745.108    4.4511823    4.4511823    4.4511823   -23745.108   -44881.791    19622.618    -45976.15    -1698.051   -548.64858    10862.979    88.191379 
   23100    1647.4749   -108.74116    1.4906699   -107.25049   -11668.776    4.4559057    4.4559057    4.4559057   -11668.776    24242.315   -25684.308   -33564.335   -9129.6134   -3394.2076   -9227.7908    88.472434 
   23200    1322.5876   -108.43177     1.196705   -107.23507   -1348.5034    4.4348325    4.4348325    4.4348325   -1348.5034    43294.251   -34599.362     -12740.4   -47920.091    -13532.69   -24783.855    87.223129 
   23300    1739.8165   -108.81293    1.5742225   -107.23871    32095.117    4.4125176    4.4125176    4.4125176    32095.117    78364.411    29268.801   -11347.862   -11708.198   -4760.4444    20695.826    85.913091 
   23400    1217.3847   -108.39069    1.1015153   -107.28917    40984.992    4.4152959    4.4152959    4.4152959    40984.992    71687.269    38732.389    12535.317   -32861.487     7478.376   -12465.155    86.075479 
   23500     1373.999    -108.5506    1.2432231   -107.30738   -19864.352    4.4547791    4.4547791    4.4547791   -19864.352    16097.628   -32476.396   -43214.288   -20776.605    3209.9519   -5290.4743    88.405343 
   23600    1914.6172   -108.99862    1.7323859   -107.26624   -42665.978    4.4480185    4.4480185    4.4480185   -42665.978    -31808.57    -30174.46   -66014.904    19627.531    17022.976    12279.535    88.003459 
   23700      1584.44   -108.67611    1.4336346   -107.24248    34925.672    4.3959839    4.3959839    4.3959839    34925.672    55572.899    49768.703   -564.58725   -20993.982   -4154.2688   -24285.507    84.950959 
   23800    2000.7758   -109.09005     1.810344    -107.2797    17887.076    4.3886026    4.3886026    4.3886026    17887.076   -5594.9841     34503.31    24752.901    5642.1004    32286.828    -1129.179     84.52375 
   23900    1597.1831   -108.77768    1.4451648   -107.33251     22217.71    4.4223124    4.4223124    4.4223124     22217.71    17219.458     55326.53   -5892.8591    3647.5409    7110.3187    17280.641    86.486489 
   24000    1193.0109   -108.39967    1.0794613   -107.32021    2993.3305    4.4501568    4.4501568    4.4501568    2993.3305    27310.903   -19808.951    1478.0392   -21270.978   -15768.244    -2309.056     88.13044 
   24100    1928.4087   -109.01567    1.7448647   -107.27081   -44370.617    4.4534507    4.4534507    4.4534507   -44370.617   -46965.258   -33649.298   -52497.294    27134.928    10447.273   -15902.329    88.326282 
   24200    2486.8239   -109.49012    2.2501305   -107.23999   -14450.454    4.4206456    4.4206456    4.4206456   -14450.454    -37561.34   -6692.1554    902.13319   -4927.0968   -10479.718   -10637.766     86.38873 
   24300    1807.8747   -108.88878     1.635803   -107.25298    26865.917     4.399803     4.399803     4.399803    26865.917    21608.348      45176.3    13813.104    7987.7705    11406.046   -2075.5915    85.172557 
   24400    1423.4653   -108.60559    1.2879813   -107.31761   -1592.6934     4.418505     4.418505     4.418505   -1592.6934   -45441.285    18061.263    22601.942     16580.24    6528.5711   -1021.1366    86.263296 
   24500    2011.7326   -109.11852     1.820258   -107.29826   -16574.319    4.4468945    4.4468945    4.4468945   -16574.319   -27288.858    -8951.205   -13482.894   -12052.505    -19525.67   -3501.7219    87.936761 
   24600    1178.5815   -108.33285    1.0664053   -107.26645   -7013.1744    4.4430312    4.4430312    4.4430312   -7013.1744   -4537.6202    71726.861   -88228.764    4964.1678     37623.58   -15978.119    87.707772 
   24700    1855.6479   -108.92022    1.6790293   -107.24119    9018.1614     4.416552     4.416552     4.416552    9018.1614    36845.839    648.06899   -10439.424   -8640.1497    7864.1333    9054.6961    86.148964 
   24800    2088.7571   -109.16916    1.8899514   -107.27921    481.11298    4.4269792    4.4269792    4.4269792    481.11298   -5348.4124    17535.632   -10743.881   -16475.751    15115.594    3300.1057    86.760582 
   24900    2248.4116   -109.31515      2.03441   -107.28074   -65942.792    4.4661098    4.4661098    4.4661098   -65942.792   -72099.064   -61865.413   -63863.899    1977.1402    -10342.04    11411.496    89.081636 
   25000    1856.9577   -108.90421    1.6802143     -107.224   -47025.344    4.4535706    4.4535706    4.4535706   -47025.344   -42268.127   -48752.176    -50055.73    4102.7312    30034.097    715.43309    88.333415 
   25100    2116.8366   -109.09177    1.9153583   -107.17641    13141.569    4.4161321    4.4161321    4.4161321    13141.569    28511.206   -765.19187    11678.693    2712.5799    9202.8777   -12080.479    86.124393 
   25200     1504.677   -108.61784    1.3614633   -107.25638   -6225.9163    4.4412936    4.4412936    4.4412936   -6225.9163    -50660.07   -7594.8635    39577.185    11124.444    17680.941   -22742.823    87.604908 
   25300    965.34407   -108.12888    0.8734636   -107.25541   -33680.225    4.4568173    4.4568173    4.4568173   -33680.225   -70403.683   -431.75458   -30205.238   -12829.455    51568.273     21865.24    88.526744 
   25400     2180.784   -109.18432    1.9732191    -107.2111    25041.389     4.416498     4.416498     4.416498    25041.389    4099.6259    3342.7323    67681.809    8080.3354   -12088.298   -1181.5457      86.1458 
   25500    832.70147   -108.02271   0.75344579   -107.26926    47688.389    4.4199365    4.4199365    4.4199365    47688.389   -34951.205    110432.22    67584.155   -7543.7645    28815.888   -43876.862    86.347163 
   25600    1564.2581   -108.67942    1.4153736   -107.26404   -8299.5849    4.4508446    4.4508446    4.4508446   -8299.5849   -33702.348   -28551.786     37355.38   -1894.3749   -18126.901   -15422.714    88.171312 
   25700    1920.6201   -108.98687    1.7378175   -107.24905   -16425.303    4.4315823    4.4315823    4.4315823   -16425.303   -17559.104   -14616.225   -17100.581    4636.6421    18811.351   -3544.6523    87.031501 
   25800    1566.6721   -108.66106    1.4175579    -107.2435    62227.304    4.4055275    4.4055275    4.4055275    62227.304    33402.329    118702.34    34577.237   -16579.558    12743.679   -14989.011     85.50544 
   25900     1471.905   -108.61196    1.3318106   -107.28015     29051.46    4.4173019    4.4173019    4.4173019     29051.46   -14573.985    52861.941    48866.424   -9936.1822    3501.9385    3806.7435    86.192851 
   26000    1700.1599   -108.83188    1.5383404   -107.29354   -20423.798    4.4425688    4.4425688    4.4425688   -20423.798    -25465.52   -2896.3414   -32909.533   -2211.1582    8723.1755   -22353.158    87.680394 
   26100    2497.3283     -109.513    2.2596351   -107.25336   -42441.406    4.4500017    4.4500017    4.4500017   -42441.406   -64732.012   -41800.331   -20791.875    2860.3657   -14421.061   -24925.818    88.121228 
   26200    1257.1884     -108.393    1.1375305   -107.25547   -18210.288    4.4365193    4.4365193    4.4365193   -18210.288   -50242.751   -39886.136    35498.024   -8185.8308    28708.301    13124.079    87.322693 
   26300    2382.7309   -109.41639     2.155945   -107.26045    -4038.011    4.3972817    4.3972817    4.3972817    -4038.011   -5859.0933    -4804.899   -1450.0405   -1561.9148   -12891.693   -19622.316    85.026222 
   26400    1449.9066   -108.60352     1.311906   -107.29161    67236.711    4.3804569    4.3804569    4.3804569    67236.711    14628.978    16629.689    170451.47   -6909.3249    15863.176   -2415.6729     84.05397 
   26500    1390.9733   -108.61657    1.2585819   -107.35799   -4976.2101    4.4273976    4.4273976    4.4273976   -4976.2101   -11089.745   -29947.464    26108.579   -689.76069    8078.2687     33598.54    86.785183 
   26600     2205.581   -109.29215    1.9956561   -107.29649   -55283.792    4.4583402    4.4583402    4.4583402   -55283.792   -71477.383   -82392.232   -11981.762   -174.95939   -8203.5444   -11230.084    88.617527 
   26700    1149.6006   -108.34318    1.0401827     -107.303   -42486.511    4.4322584    4.4322584    4.4322584   -42486.511   -96116.252   -255.19604   -31088.086    -3385.622    72061.744    16445.135    87.071338 
   26800    1727.3675   -108.81953    1.5629584   -107.25658    57074.693    4.3825763    4.3825763    4.3825763    57074.693      45202.9   -7047.2411    133068.42     15111.35   -12866.145   -8621.7599    84.176033 
   26900    1604.5384   -108.78842      1.45182    -107.3366     27431.76    4.3963532    4.3963532    4.3963532     27431.76   -27864.778   -9265.9802    119426.04   -10764.128    -983.3237    10088.786    84.972369 
   27000    882.38534   -108.17596    0.7984008   -107.37756   -31567.675    4.4414199    4.4414199    4.4414199   -31567.675   -82691.452    1606.7416   -13618.316   -11780.953    35098.313    12655.891    87.612384 
   27100    1910.2602   -109.02684    1.7284436    -107.2984    20621.037    4.4289588    4.4289588    4.4289588    20621.037     2352.064   -9604.0989    69115.147   -1230.5881   -2278.1731    7702.1169    86.877024 
   27200      1380.48   -108.52256    1.2490873   -107.27347     38899.07    4.4033793    4.4033793    4.4033793     38899.07   -19880.818    32067.384    104510.64   -3618.9002    45319.383    18343.493    85.380419 
   27300    1955.0023   -109.05929    1.7689272   -107.29036   -1890.8875    4.4267686    4.4267686    4.4267686   -1890.8875   -50564.639    29457.476      15434.5    9990.6783    806.41876    29222.586    86.748196 
   27400    1690.9517   -108.81264    1.5300086   -107.28263   -14579.402    4.4407242    4.4407242    4.4407242   -14579.402   -45229.192    18093.759   -16602.773   -8086.1312     25083.51   -11188.482     87.57122 
   27500    1539.5234   -108.66049    1.3929931    -107.2675    14715.725    4.4117559    4.4117559    4.4117559    14715.725    12972.953     59271.02   -28096.799     1589.308    17638.727    7580.0937    85.868608 
   27600    1605.3306   -108.72914    1.4525369   -107.27661    42941.417    4.4048622    4.4048622    4.4048622    42941.417   -28431.677    44331.866    112924.06    11832.636   -9291.7627    34308.805    85.466708 
   27700    1562.3192   -108.72848    1.4136192   -107.31486   -1145.6705    4.4172949    4.4172949    4.4172949   -1145.6705   -17409.882   -17678.062    31650.932   -11107.832     32147.33   -21909.489    86.192441 
   27800    1990.6878   -109.12566    1.8012161   -107.32445    2527.8442     4.414672     4.414672     4.414672    2527.8442   -1558.8414   -3974.4674    13116.841    8942.4173    -5637.881    19114.015    86.038992 
   27900    1469.9044   -108.66716    1.3300004   -107.33716   -20897.924    4.4370046    4.4370046    4.4370046   -20897.924   -36420.847   -42950.974    16678.051   -15016.367    12110.675   -1590.6192    87.351354 
   28000    1873.9627   -108.99405    1.6956008   -107.29845   -21571.192    4.4313574    4.4313574    4.4313574   -21571.192   -56664.416    10129.117   -18178.275    7662.7659    17466.497   -19982.751    87.018251 
   28100    1496.5887   -108.64305    1.3541449    -107.2889    2290.3689    4.3991506    4.3991506    4.3991506    2290.3689    157.36662   -38178.715    44892.455     7715.292   -8129.4936    30380.493    85.134678 
   28200    1717.5616   -108.86875    1.5540858   -107.31466    21540.875    4.4062263    4.4062263    4.4062263    21540.875    485.05575   -15517.581     79655.15   -10292.806    15058.495   -24281.583    85.546135 
   28300     1927.899     -109.052    1.7444036   -107.30759   -9917.1257    4.4243285    4.4243285    4.4243285   -9917.1257   -10433.102   -21709.321    2391.0461    10565.089   -14485.365    16573.825    86.604828 
   28400    1363.7075   -108.53988    1.2339112   -107.30597    23486.044    4.4184302    4.4184302    4.4184302    23486.044    1611.2082   -28533.398    97380.321   -10374.304    -19673.57   -1463.2399    86.258918 
   28500     1624.693   -108.77679    1.4700564   -107.30673    6180.9464     4.422431     4.422431     4.422431    6180.9464   -10627.066    27969.485    1200.4203    5072.6178    31546.312   -2471.7403    86.493443 
   28600    2113.1743     -109.218    1.9120445   -107.30595   -16633.971    4.4202193    4.4202193    4.4202193   -16633.971   -38110.725   -54444.589      42653.4    -771.1592   -8269.7555    10010.598    86.363741 
   28700    1569.7801   -108.73334      1.42037   -107.31297   -16026.923    4.4301508    4.4301508    4.4301508   -16026.923   -10053.948   -47803.888    9777.0676   -13515.816    1736.0268   -18049.202    86.947188 
   28800    1440.8896   -108.60584    1.3037472    -107.3021   -25258.086    4.4175126    4.4175126    4.4175126   -25258.086   -46835.238   -18869.857   -10069.163    23823.562    32655.909   -18137.353    86.205186 
   28900    2279.1702   -109.34248    2.0622411   -107.28024    24947.117     4.402269     4.402269     4.402269    24947.117    14537.163    21697.279    38606.909    1858.0589   -14482.464    14647.984    85.315852 
   29000    1628.8474   -108.78164    1.4738154   -107.30783   -23902.627    4.4361241    4.4361241    4.4361241   -23902.627   -31702.935    -26293.41   -13711.536    10662.521    5073.8093   -21685.056    87.299359 
   29100    1420.3944   -108.57781    1.2852027    -107.2926   -9039.3316    4.4301086    4.4301086    4.4301086   -9039.3316       -69656    89591.162   -47053.157    10805.926      9496.68    1313.8031    86.944699 
   29200    1979.6933    -109.0685    1.7912681   -107.27723    9847.6287    4.4025419    4.4025419    4.4025419    9847.6287    39954.348    15518.251   -25929.713   -11540.385   -10041.368   -2225.7402    85.331718 
   29300    1874.9822   -109.01339    1.6965233   -107.31687   -17255.746    4.4099891    4.4099891    4.4099891   -17255.746   -31509.133    1143.8592   -21401.964    -10932.75   -1488.4262   -22537.674    85.765485 
   29400    1635.4693   -108.80701     1.479807   -107.32721   -8794.5521    4.4317191    4.4317191    4.4317191   -8794.5521    10024.599    13775.614   -50183.869    15873.018   -8423.1403    7273.5289    87.039556 
   29500    1790.5606   -108.92505    1.6201368   -107.30491   -29805.921    4.4506428    4.4506428    4.4506428   -29805.921   -34859.198   -40825.126   -13733.438   -27535.093   -3552.0564   -14571.492     88.15932 
   29600     1482.208   -108.60502     1.341133   -107.26388    -8527.337    4.4431752    4.4431752    4.4431752    -8527.337    8453.3802   -8081.5233   -25953.868    19261.994    8855.6464   -13816.873    87.716302 
   29700    2170.3073   -109.19785    1.9637396   -107.23411    24561.139    4.4152255    4.4152255    4.4152255    24561.139   -6477.5783    6755.5793    73405.416   -2172.8848   -5060.7454   -7789.5406     86.07136 
   29800    1477.6314   -108.62866    1.3369919   -107.29167   -34459.976    4.4028811    4.4028811    4.4028811   -34459.976   -37250.392   -50689.197   -15440.338   -6384.1256    20510.839   -6522.8251    85.351446 
   29900    1940.1515   -109.07218    1.7554898   -107.31669    16507.329    4.3978935    4.3978935    4.3978935    16507.329    35830.139    7677.4441    6014.4035    12908.517    14733.284   -17028.666    85.061714 
   30000    1433.6398    -108.6586    1.2971874   -107.36141    19148.327    4.4393472    4.4393472    4.4393472    19148.327    30915.603   -31012.523    57541.901   -13226.281    4155.5665   -11486.619    87.489785 
   30100    1588.7244   -108.71514    1.4375113   -107.27763   -27419.671    4.4684129    4.4684129    4.4684129   -27419.671    28806.217   -59058.749    -52006.48    22517.101    21737.942    2963.2464    89.219524 
   30200     1400.539   -108.51068    1.2672371   -107.24344    3199.3839    4.4262652    4.4262652    4.4262652    3199.3839     136952.7   -64245.289   -63109.258    -6827.493   -14064.928   -20522.239    86.718609 
   30300      1969.02   -109.00287    1.7816107   -107.22126    24536.766    4.3842109    4.3842109    4.3842109    24536.766    61729.383   -12713.424     24594.34    8603.2261   -9856.5916   -10596.578    84.270255 
   30400    2110.9691   -109.22833    1.9100492   -107.31828   -17597.463     4.416337     4.416337     4.416337   -17597.463    26634.672   -62145.854   -17281.209    12481.014    6149.5877   -23317.322    86.136383 
   30500    1610.7804   -108.75282    1.4574679   -107.29535    -65557.45    4.4674297    4.4674297    4.4674297    -65557.45   -42630.365   -97058.017   -56983.968    2291.1118   -81.324301   -15834.117    89.160643 
   30600    2118.0219   -109.14091    1.9164308   -107.22448   -25911.342    4.4501507    4.4501507    4.4501507   -25911.342   -30385.204   -38135.388   -9213.4329    -6119.245   -15168.006   -11038.466    88.130081 
   30700    1760.9444   -108.79898    1.5933395   -107.20565    15001.069     4.410832     4.410832     4.410832    15001.069    27695.265   -24446.417    41754.358    4697.0908   -5025.8715   -30235.496    85.814675 
   30800    1867.3613   -108.93113    1.6896277    -107.2415    33390.353    4.3955673    4.3955673    4.3955673    33390.353    24508.169     16543.95     59118.94   -37704.468   -27635.722    23126.813    84.926811 
   30900    1532.1217   -108.69473    1.3862959   -107.30843   -5116.0156    4.4128729    4.4128729    4.4128729   -5116.0156    65713.708   -44406.046   -36655.709    -4406.646   -4262.2155   -51412.314    85.933845 
   31000    2289.6892   -109.37309    2.0717589   -107.30133   -25549.294    4.4435055    4.4435055    4.4435055   -25549.294    -17115.51   -33205.954   -26326.419   -2873.0995   -28098.529    15876.803    87.735866 
   31100    1486.9228   -108.62141     1.345399   -107.27601   -36274.065    4.4490806    4.4490806    4.4490806   -36274.065    42190.403     -48305.4    -102707.2   -9378.6135   -16639.536   -40616.977    88.066514 
   31200    1889.5328   -108.94874     1.709689   -107.23905     8293.903    4.4179924    4.4179924    4.4179924     8293.903    40969.257   -16168.552    81.004144    23446.016    1947.1038   -18641.199    86.233277 
   31300    1749.8008   -108.82669    1.5832565   -107.24344    24494.441    4.4086192    4.4086192    4.4086192    24494.441    49334.348    30252.737   -6103.7615    18803.301   -17945.856   -26783.616    85.685585 
   31400     1682.698   -108.80594    1.5225405    -107.2834    -23931.67    4.4443342    4.4443342    4.4443342    -23931.67    38576.978   -51896.799   -58475.191    13630.441   -4017.5877   -43891.349    87.784963 
   31500    2130.2497   -109.17098    1.9274947   -107.24348    -2783.145    4.4455725    4.4455725    4.4455725    -2783.145    33166.864   -24065.686   -17450.613    13320.144     11236.74    13217.756    87.858357 
   31600    1416.0327   -108.51151    1.2812561   -107.23026    26710.734    4.4064065    4.4064065    4.4064065    26710.734    42358.507    64579.964   -26806.269   -6905.1793    8098.7998   -72756.283     85.55663 
   31700    2105.7933   -109.17125     1.905366   -107.26589    4115.6215    4.4135612    4.4135612    4.4135612    4115.6215   -38314.541    43701.301    6960.1046    6550.2068   -882.97792    3662.9485    85.974066 
   31800    1597.2103   -108.72342    1.4451894   -107.27824    -30279.89     4.436977     4.436977     4.436977    -30279.89    22060.804   -46781.743    -66118.73   -11157.408    21495.859   -55836.395    87.349724 
   31900    1608.7124   -108.71053    1.4555967   -107.25494    7772.8392    4.4252472    4.4252472    4.4252472    7772.8392    -16680.18    21762.765    18235.932   -8795.5245   -3142.7306   -29465.012    86.658787 
   32000    1977.2397   -109.04218     1.789048   -107.25313   -12870.946    4.4062897    4.4062897    4.4062897   -12870.946   -12398.059   -23572.864   -2641.9141   -9075.6124   -27349.347   -13159.992    85.549828 
   32100    1026.1807   -108.22742   0.92850983   -107.29891    16943.312    4.3924391    4.3924391    4.3924391    16943.312    34856.029    13316.822    2657.0851   -1279.3854     22726.95   -71011.331    84.745615 
   32200    2521.4619   -109.59913    2.2814717   -107.31766    4413.7483    4.4104749    4.4104749    4.4104749    4413.7483   -11663.096    3562.6895    21341.652   -12157.562   -24185.888    20972.213    85.793834 
   32300    1191.5379    -108.3932    1.0781285   -107.31507   -31859.842    4.4292366    4.4292366    4.4292366   -31859.842    21098.675   -70966.572   -45711.629    3520.0538   -14241.911   -82153.167    86.893369 
   32400    1961.1999   -109.03817    1.7745349   -107.26364    2192.2932    4.4180218    4.4180218    4.4180218    2192.2932    10929.349   -23350.063    18997.593    3009.7013    10917.892    18641.323       86.235 
   32500    1079.6252   -108.24557   0.97686756   -107.26871    16071.389    4.4105322    4.4105322    4.4105322    16071.389    28010.575   -37042.653    57246.245   -20158.685   -8194.4783   -53220.775    85.797177 
   32600    2012.5547   -109.09869    1.8210018   -107.27769    14424.156    4.4016002    4.4016002    4.4016002    14424.156    9536.1033    -18109.12    51845.483    18009.011    9504.7333   -29276.896    85.276972 
   32700    1504.3342   -108.67474    1.3611532   -107.31359    13212.537    4.4208619    4.4208619    4.4208619    13212.537    32462.907    7317.0628   -142.35851    -3666.392    8366.2994    8201.6136    86.401411 
   32800    1716.4737   -108.84414    1.5531015   -107.29104   -24382.973    4.4248981    4.4248981    4.4248981   -24382.973    24663.924   -38114.756   -59698.087   -9812.7808   -784.70887   -39417.167    86.638282 
   32900    1715.8312   -108.82177    1.5525201   -107.26925    53662.065    4.3985198    4.3985198    4.3985198    53662.065    15868.237    67167.134    77950.823    29674.731    18487.612   -2199.4738    85.098058 
   33000    1492.7095   -108.65851     1.350635   -107.30787    19642.698    4.4079138    4.4079138    4.4079138    19642.698      46398.7    65481.255    -52951.86    -3465.005     15482.81   -13875.923    85.644461 
   33100    1294.9885   -108.47468    1.1717328   -107.30294    6267.7829    4.4263265    4.4263265    4.4263265    6267.7829   -32589.405    44726.996    6665.7577     21439.68   -13422.569   -1798.5669    86.722207 
   33200    1975.0254   -109.06065    1.7870445   -107.27361   -9438.1427    4.4354133    4.4354133    4.4354133   -9438.1427   -43045.761    11614.436    3116.8961    10871.909   -675.94554    3007.1298      87.2574 
   33300    1485.3006   -108.60948    1.3439312   -107.26555   -25377.247    4.4388268    4.4388268    4.4388268   -25377.247   -21146.734    -29351.67   -25633.338   -10913.099   -7820.0933     3679.865    87.459019 
   33400    1802.2389   -108.88712    1.6307036   -107.25641   -40089.476    4.4154684    4.4154684    4.4154684   -40089.476     -77394.1   -61560.852    18686.525    42029.845   -10981.161   -63.238215    86.085566 
   33500    2004.4505    -109.0651    1.8136689   -107.25143    48752.751    4.3822249    4.3822249    4.3822249    48752.751    43641.173    30235.444    72381.638   -11415.506    11177.581    932.06057    84.155784 
   33600    1522.5022   -108.69457     1.377592   -107.31698   -4089.5473     4.395246     4.395246     4.395246   -4089.5473   -832.95851   -2334.5958   -9101.0876    19926.109   -13762.223    6047.3919    84.908186 
   33700    2227.2345   -109.31853    2.0152486   -107.30328   -22561.886     4.436673     4.436673     4.436673   -22561.886   -46814.405   -39808.937    18937.684    8842.7028    11611.013   -3337.5786    87.331768 
   33800     1118.787   -108.26941     1.012302    -107.2571    1828.2307     4.448306     4.448306     4.448306    1828.2307    8079.7166    17548.335    -20143.36   -1866.8044    -5012.635    15934.972    88.020526 
   33900    1916.0253   -108.94522      1.73366   -107.21156   -4205.6558    4.4327281    4.4327281    4.4327281   -4205.6558    19297.861   -34683.575    2768.7466    13031.683   -11189.467   -12513.867    87.099022 
   34000    1357.1348   -108.44969    1.2279641   -107.22172    27509.307    4.4092708    4.4092708    4.4092708    27509.307    64925.332   -29647.709    47250.298   -14876.766   -26249.483    39566.523    85.723586 
   34100    1324.8203   -108.45641    1.1987252   -107.25768    41454.401    4.4127334    4.4127334    4.4127334    41454.401    49693.938    30195.236    44474.029      18586.5   -14559.479   -15360.037    85.925701 
   34200    2045.6895   -109.11328    1.8509828    -107.2623   -25891.074    4.4324103    4.4324103    4.4324103   -25891.074    470.30524   -23709.578   -54433.948    -8314.692   -9980.8805    40130.454     87.08029 
   34300    1608.6986   -108.70446    1.4555843   -107.24887   -6045.3346    4.4271457    4.4271457    4.4271457   -6045.3346   -20764.624   -13029.224    15657.844   -794.36454    891.37727    129.84915    86.770371 
   34400    2028.8344   -109.06997     1.835732   -107.23424    3553.9454    4.4296423    4.4296423    4.4296423    3553.9454    997.74265   -10353.873    20017.967    3495.4034   -3889.7363    7894.3116    86.917247 
   34500    1123.3017   -108.27646    1.0163869   -107.26007   -38893.026     4.420852     4.420852     4.420852   -38893.026   -12214.382   -97185.396   -7279.3014   -19693.859   -3602.9934    41562.082     86.40083 
   34600     2005.175   -109.06099    1.8143245   -107.24666    30653.579    4.3836369    4.3836369    4.3836369    30653.579    20022.601    18392.452    53545.684    4570.3684     8662.363   -29589.826    84.237162 
   34700    1486.2278   -108.64305    1.3447701   -107.29828   -22811.539    4.3955035    4.3955035    4.3955035   -22811.539    49315.534   -69208.736   -48541.415   -5068.8812   -11069.093    79814.462    84.923111 
   34800    1645.3691   -108.78838    1.4887646   -107.29961   -23654.168    4.4246645    4.4246645    4.4246645   -23654.168   -56130.427   -61133.958    46301.881   -21264.961    10041.974   -16624.991    86.624561 
   34900    1494.3299   -108.63726    1.3521011   -107.28516    11529.062     4.419067     4.419067     4.419067    11529.062    22279.803   -21363.911    33671.294   -605.47157   -9366.7715    38247.069    86.296217 
   35000    1883.9289   -108.98518    1.7046185   -107.28056   -1104.0043    4.4146581    4.4146581    4.4146581   -1104.0043    23756.145   -37111.522    10043.364   -7870.6215    12503.384    34264.462    86.038182 
   35100    2017.5943   -109.09938    1.8255618   -107.27382    5779.2237    4.4104817    4.4104817    4.4104817    5779.2237   -244.65392   -14969.913    32552.238    10828.654    10539.757   -3464.8465    85.794228 
   35200    1409.7981    -108.5548     1.275615   -107.27919    23409.692    4.4032683    4.4032683    4.4032683    23409.692    60740.224   -10435.983    19924.837    6634.3672   -8748.8384    65788.223    85.373966 
   35300    1980.2714   -109.07299    1.7917912    -107.2812    39488.689    4.4100719    4.4100719    4.4100719    39488.689   -1306.4363    41856.922    77915.582   -22494.132    4957.7812   -25917.969    85.770315 
   35400    1398.9828   -108.56169    1.2658291   -107.29586   -15407.906    4.4139544    4.4139544    4.4139544   -15407.906    26191.686   -55419.084   -16996.319    5410.4532    11352.991    59454.069    85.997043 
   35500    1886.6092   -108.99894    1.7070437    -107.2919    29135.973    4.4038422    4.4038422    4.4038422    29135.973   -18178.176    40781.111    64804.983    11298.905   -1012.6533    11443.059     85.40735 
   35600    1992.2599   -109.10963    1.8026386   -107.30699   -11462.339    4.4105712    4.4105712    4.4105712   -11462.339   -12435.042   -23261.371    1309.3949    1076.7611    3560.2307    21035.452    85.799454 
   35700    1204.2136   -108.39918    1.0895978   -107.30958   -30746.381    4.4214326    4.4214326    4.4214326   -30746.381   -6171.4304   -8416.2774   -77651.434   -8676.8542    10566.893    59741.452    86.434876 
   35800    2580.5188   -109.60324    2.3349076   -107.26833    -690.9758    4.4051455    4.4051455    4.4051455    -690.9758   -21074.348    28513.092   -9511.6714     16922.93   -12760.662   -28071.859      85.4832 
   35900    893.83825   -108.09756   0.80876364    -107.2888    18165.034    4.4030047    4.4030047    4.4030047    18165.034    95113.902    15644.843   -56263.644    2069.9449    3432.4516    82534.671    85.358632 
   36000    2379.9053   -109.43181    2.1533883   -107.27843    5520.0952    4.4247706    4.4247706    4.4247706    5520.0952   -24868.413    60896.119    -19467.42   -165.20643   -9472.7881   -16399.962    86.630789 
   36100    1463.7928   -108.60755    1.3244705   -107.28308   -3219.3709     4.419482     4.419482     4.419482   -3219.3709    60387.919   -38296.784   -31749.248    7056.7796   -2924.2277    62393.515    86.320531 
   36200    1802.4091   -108.88424    1.6308576   -107.25338    13434.301    4.4061933    4.4061933    4.4061933    13434.301     33464.54    32972.134   -26133.769    10833.309    11838.493    8205.8245    85.544213 
   36300    1793.6451   -108.88286    1.6229278   -107.25994    28829.077    4.3978672    4.3978672    4.3978672    28829.077    58428.724    24122.769    3935.7381   -6885.0139    2588.1256    17779.239    85.060184 
   36400     1593.102    -108.7341    1.4414722   -107.29263   -320.46424    4.4118652    4.4118652    4.4118652   -320.46424    48469.552   -33141.836   -16289.109    7728.3066   -3566.2424    42358.578     85.87499 
   36500    1997.6511   -109.09022    1.8075167    -107.2827   -20813.952    4.4160255    4.4160255    4.4160255   -20813.952   -16215.144   -3014.8981   -43211.814    21589.077   -6667.2961   -17468.276    86.118155 
   36600    1272.7315   -108.43409    1.1515942   -107.28249    38613.708    4.3967571    4.3967571    4.3967571    38613.708    109976.73   -16922.642    22787.032   -17999.077   -232.59541    45532.825    84.995792 
   36700    1943.1332   -109.05186    1.7581877   -107.29367    32291.318    4.3989726    4.3989726    4.3989726    32291.318    43132.442     53542.49    199.02042   -10397.926    -5382.512    -5687.129    85.124342 
   36800     1614.019     -108.758    1.4603983    -107.2976   -42836.513    4.4152619    4.4152619    4.4152619   -42836.513    7020.3111   -68415.403   -67114.448   -414.61077    16046.978     18077.65    86.073487 
   36900    2236.3541    -109.2934    2.0235002    -107.2699    10328.082    4.4058941    4.4058941    4.4058941    10328.082    41220.379    -27031.11    16794.977   -1219.1108   -10033.734    9869.8343    85.526791 
   37000    1116.9523   -108.30182    1.0106419   -107.29118   -12821.174    4.4190613    4.4190613    4.4190613   -12821.174   -14198.926    27463.604   -51728.202   -20146.523     4514.784    15616.283    86.295886 
   37100     2015.988   -109.08154    1.8241083   -107.25743   -29277.996    4.4207761    4.4207761    4.4207761   -29277.996    7936.3277   -49401.924   -46368.392    7249.2637    -1253.037    32087.798    86.396384 
   37200    1917.6616   -108.98906    1.7351405   -107.25392   -2431.3433    4.3988839    4.3988839    4.3988839   -2431.3433   -22386.928    26862.496   -11769.598    3544.3629   -19664.848   -15832.192    85.119195 
   37300    1550.0051   -108.69307    1.4024772   -107.29059   -15258.331    4.4060877    4.4060877    4.4060877   -15258.331    14623.732    18690.571   -79089.295    11007.411   -10130.828    28264.201    85.538065 
   37400    2293.5906   -109.34621     2.075289   -107.27092   -16161.623    4.4271081    4.4271081    4.4271081   -16161.623    -4466.776   -39831.676   -4186.4178    16620.798   -7443.8774    3059.3661    86.768159 
   37500     1368.152   -108.50987    1.2379327   -107.27193   -39313.924    4.4228149    4.4228149    4.4228149   -39313.924   -36007.756   -500.75618   -81433.258    6295.5615   -14154.418   -4281.0955    86.515969 
   37600    2099.8865   -109.15959    1.9000214   -107.25957    8083.4494    4.4145631    4.4145631    4.4145631    8083.4494    16195.077   -29120.096    37175.368   -12552.196   -3272.6502    7259.2309     86.03263 
   37700     1403.745   -108.55736     1.270138   -107.28722   -37500.853     4.412067     4.412067     4.412067   -37500.853   -59729.583   -16009.171   -36763.804   -7442.3077   -32819.175   -20981.516    85.886778 
   37800    1485.6734   -108.63441    1.3442686   -107.29014    16885.602    4.3961065    4.3961065    4.3961065    16885.602    26218.969    14330.246    10107.592     7780.798   -5732.1141   -8814.6621    84.958065 
   37900    2016.8213   -109.12223    1.8248623   -107.29737    8463.0748    4.4055323    4.4055323    4.4055323    8463.0748    11818.955   -29146.932    42717.201   -36783.631    5600.6148   -6575.2019    85.505723 
   38000     1235.291     -108.418    1.1177172   -107.30028   -21606.329    4.4208288    4.4208288    4.4208288   -21606.329   -60060.487    7562.1787   -12320.678     12974.74   -47309.307    8408.0123    86.399475 
   38100    1920.0814   -109.01372      1.73733   -107.27639    23895.315    4.4160818    4.4160818    4.4160818    23895.315    42170.197   -32342.399    61858.147   -23566.253     24656.16    2538.0221    86.121448 
   38200    1596.2852   -108.72638    1.4443524   -107.28202   -12823.576    4.4265869    4.4265869    4.4265869   -12823.576   -8858.0187   -9842.3919   -19770.316   -10800.895   -21100.079    6388.5938    86.737519 
   38300    1545.4488   -108.65822    1.3983546   -107.25987    15635.228    4.4248092    4.4248092    4.4248092    15635.228    40129.028   -5355.4045     12132.06    6675.4746   -3296.3267   -5193.1646     86.63306 
   38400    1613.4015    -108.7112    1.4598396   -107.25137    28478.091    4.4129713    4.4129713    4.4129713    28478.091    60120.006    25986.198   -671.93077   -12613.951   -4203.9357   -12709.939    85.939595 
   38500    1232.9525   -108.38698    1.1156013   -107.27138   -6443.3558    4.4176515    4.4176515    4.4176515   -6443.3558   -29536.269    68100.746   -57894.544    23116.347   -36075.879   -12781.806    86.213315 
   38600    1912.6571   -108.98759    1.7306123   -107.25698    3726.4719    4.4103425    4.4103425    4.4103425    3726.4719    47346.676   -2834.4722   -33332.789    736.07509     18345.52   -10637.853    85.786108 
   38700    1657.2163   -108.77399    1.4994841    -107.2745    -3967.214    4.4060956    4.4060956    4.4060956    -3967.214    -1464.542    12142.525   -22579.625    6870.0115   -26477.984    7928.7726    85.538522 
   38800    1175.9257   -108.35901    1.0640023   -107.29501    2687.9316    4.4161538    4.4161538    4.4161538    2687.9316    49781.811    6888.6778   -48606.694    14708.948    9433.1872   -12958.685    86.125664 
   38900    2044.8614   -109.13202    1.8502336   -107.28178    2848.5419    4.4244328    4.4244328    4.4244328    2848.5419    251.64259     4398.139    3895.8441    11032.317   -7230.3601    11915.928    86.610951 
   39000    1358.3202   -108.51012    1.2290367   -107.28108    3490.9711    4.4174155    4.4174155    4.4174155    3490.9711    4311.0196   -12002.876     18164.77    -2748.009   -56047.391   -11376.368    86.199504 
   39100    1687.2072   -108.78446    1.5266205   -107.25784    27819.483    4.4013795    4.4013795    4.4013795    27819.483    9793.1914    29673.986    43991.273    20479.137    27921.899    8345.2916    85.264145 
   39200    1559.0194   -108.68797    1.4106335   -107.27733    14709.056     4.403782     4.403782     4.403782    14709.056    12129.284    38962.294   -6964.4093     9445.605   -44565.236     1116.362    85.403849 
   39300    1719.5431   -108.84067    1.5558787   -107.28479    8344.4187     4.406991     4.406991     4.406991    8344.4187    59070.557    -9361.432   -24675.868    11838.555    275.88993   -10171.868    85.590685 
   39400    1402.0255    -108.5702    1.2685821   -107.30162    20550.732    4.4033232    4.4033232    4.4033232    20550.732   -4183.2948    28222.154    37613.338     24509.61    16726.193    3697.7265    85.377156 
   39500    1878.7455   -108.98739    1.6999284   -107.28746    31656.161    4.4150838    4.4150838    4.4150838    31656.161    48383.679    38312.367    8272.4362    3769.3945   -26622.068   -9360.7099    86.063071 
   39600    1287.6755   -108.45551    1.1651158   -107.29039   -20841.608     4.427395     4.427395     4.427395   -20841.608   -23847.972   -4619.0617   -34057.789   -3912.3111    20243.033   -13057.347    86.785027 
   39700    1747.1062   -108.86734    1.5808184   -107.28652   -8681.3328    4.4089152    4.4089152    4.4089152   -8681.3328   -34503.792     35449.61   -26989.816    16800.287   -4977.7796    2455.7138    85.702843 
   39800     1628.808   -108.74406    1.4737797   -107.27028    69425.853    4.3829098    4.3829098    4.3829098    69425.853    69712.646     99761.69    38803.224   -12120.735   -10205.047    -7927.382    84.195254 
   39900    1286.9152   -108.49062    1.1644279   -107.32619   -26290.631    4.4112391    4.4112391    4.4112391   -26290.631   -50402.577   -19702.154   -8767.1631   -4426.5445    21235.085     13304.18    85.838436 
   40000    1707.8446    -108.8306    1.5452937    -107.2853   -17745.695    4.4236409    4.4236409    4.4236409   -17745.695   -3102.2021    4945.9584    -55080.84    8062.4447   -590.92205    46194.697    86.564454 
   40100    1551.9908   -108.67781    1.4042739   -107.27354    633.88581    4.4068662    4.4068662    4.4068662    633.88581   -14695.764   -12103.422    28700.843   -18968.951    2.3059367     5470.783     85.58341 
   40200    2286.8557   -109.34263    2.0691951   -107.27343     -16997.4    4.4146065    4.4146065    4.4146065     -16997.4   -15067.249   -23540.771   -12384.181    13079.485    26922.156    6791.2545    86.035163 
   40300    1491.6738   -108.62403    1.3496978   -107.27433    11546.646    4.4063608    4.4063608    4.4063608    11546.646    9323.7809   -2134.7949    27450.953   -11263.317   -16877.092    22675.117    85.553968 
   40400     1523.693   -108.65591    1.3786695   -107.27724    29742.791    4.4106884    4.4106884    4.4106884    29742.791    49699.274   -19266.767    58795.865   -28000.873    15239.382   -8369.8674    85.806292 
   40500     1833.158    -108.9206    1.6586799   -107.26192   -28206.642    4.4284962    4.4284962    4.4284962   -28206.642   -18155.936    5412.1624   -71876.152    2736.1087   -25817.154   -9342.0811    86.849801 
   40600    1378.7079   -108.51003    1.2474839   -107.26255    102.28326    4.3941614    4.3941614    4.3941614    102.28326    2764.7523    1070.2615    -3528.164   -32397.084   -12102.488    26408.637    84.845346 
   40700    1863.6275   -108.96322    1.6862494   -107.27697    11556.239    4.3862659    4.3862659    4.3862659    11556.239    31118.969    -8967.718    12517.465   -11805.511     19674.37   -26859.336     84.38881 
   40800    1870.5453   -108.98334    1.6925087   -107.29083   -30026.912     4.416412     4.416412     4.416412   -30026.912   -40806.135   -26811.839   -22462.763    10009.647   -16091.896   -5244.6289    86.140769 
   40900    1754.6739   -108.86222    1.5876658   -107.27455   -19054.468    4.4136015    4.4136015    4.4136015   -19054.468   -12044.656   -58133.746    13014.997   -29222.079   -12324.732    15734.469    85.976419 
   41000    1842.1721   -108.93929     1.666836   -107.27246   -18339.604    4.4048819    4.4048819    4.4048819   -18339.604    8033.8692   -43344.262   -19708.419    3561.7413    27584.126   -32991.741    85.467858 
   41100    2108.0256   -109.18467    1.9073859   -107.27729    6155.1493    4.4150676    4.4150676    4.4150676    6155.1493   -8556.2135    13120.654    13901.007   -12511.636   -3808.2027   -326.83738    86.062125 
   41200     1145.086   -108.31676    1.0360979   -107.28067   -27032.239    4.4287014    4.4287014    4.4287014   -27032.239    70743.078   -102612.12   -49227.669    -16383.21    2480.9455   -8008.3048    86.861872 
   41300    1624.1561   -108.73938    1.4695706   -107.26981   -21880.163    4.4086623    4.4086623    4.4086623   -21880.163   -4466.3065    -48078.77   -13095.414    15508.778    15228.524   -2098.9477      85.6881 
   41400    2136.3081   -109.19875    1.9329765   -107.26578    27855.203    4.3788424    4.3788424    4.3788424    27855.203    73155.113   -4505.4842    14915.979    681.69204   -4182.1559   -6445.0886    83.961064 
   41500    1590.3885   -108.75247     1.439017   -107.31345   -11182.737    4.3791534    4.3791534    4.3791534   -11182.737     51972.57   -72146.447   -13374.334    9844.7997   -13026.041   -24759.942    83.978958 
   41600    1508.8774   -108.71319    1.3652639   -107.34793    1660.1143    4.3990345    4.3990345    4.3990345    1660.1143    32057.414   -21315.124   -5761.9473    12643.632    29048.981    18466.896    85.127936 
   41700    1997.6246    -109.1302    1.8074928    -107.3227   -41820.884    4.4284271    4.4284271    4.4284271   -41820.884   -13171.172   -74858.571   -37432.909   -16447.682    -237.1191   -26623.885    86.845735 
   41800    1356.7221   -108.53387    1.2275907   -107.30628   -4033.9295    4.4098819    4.4098819    4.4098819   -4033.9295    41269.484   -53986.237     614.9642    21388.165   -4817.1225   -9389.3367    85.759232 
   41900    1783.1172   -108.90488    1.6134019   -107.29148   -1361.4117    4.3761079    4.3761079    4.3761079   -1361.4117   -20990.598   -1943.2168    18849.579   -6570.0882    61317.923    8180.5721    83.803868 
   42000    2676.1307   -109.71902    2.4214193    -107.2976    31781.041    4.3730865    4.3730865    4.3730865    31781.041    51040.054    -10601.29    54904.359   -5302.7192    -26520.27   -9686.6209    83.630403 
   42100    967.62724   -108.22324   0.87552946   -107.34771   -8912.0174    4.4058011    4.4058011    4.4058011   -8912.0174   -25849.796    21157.271   -22043.527    21812.196    25838.493   -11803.025    85.521372 
   42200    1399.8354   -108.57896    1.2666005   -107.31236   -20926.912    4.4246112    4.4246112    4.4246112   -20926.912    2797.0255   -20102.775   -45474.985   -13990.532    22473.403   -141.82796     86.62143 
   42300    2381.9897   -109.43438    2.1552743   -107.27911    -10468.88    4.3997813    4.3997813    4.3997813    -10468.88   -22237.893   -6240.0443   -2928.7018    12995.573   -7687.0866   -3922.6966    85.171299 
   42400    1169.3915   -108.33592      1.05809   -107.27783    16273.118    4.3793046    4.3793046    4.3793046    16273.118    13429.833    4879.8226    30509.698    14486.863    41086.374    11310.064    83.987654 
   42500    2520.3627   -109.56966    2.2804772   -107.28918   -13439.516     4.397117     4.397117     4.397117   -13439.516    17916.244   -42953.678   -15281.115   -1265.7386   -26227.368   -4089.1913    85.016664 
   42600    1100.4441   -108.29714   0.99570497   -107.30143   -4174.3479    4.4215835    4.4215835    4.4215835   -4174.3479   -6292.8311    7440.2225   -13670.435    24870.391    29042.501   -9433.1105     86.44373 
   42700    2127.9174   -109.18715    1.9253844   -107.26177   -29096.993    4.4206218    4.4206218    4.4206218   -29096.993     -30183.9   -16360.861   -40746.217   -16088.511    19795.208   -6842.4754    86.387336 
   42800    1634.2377   -108.74757    1.4786926   -107.26888   -9992.8362    4.3894743    4.3894743    4.3894743   -9992.8362    3644.1046   -48322.662    14700.049    38570.353   -5377.7498   -17921.281     84.57413 
   42900    1426.5676   -108.57672    1.2907883   -107.28594    10259.416    4.3721466    4.3721466    4.3721466    10259.416   -14298.978    4281.5507    40795.674   -1978.8323    37409.694    109.20547    83.576495 
   43000     2133.451   -109.23974    1.9303913   -107.30935   -1999.3374    4.4004575    4.4004575    4.4004575   -1999.3374   -4662.0154   -49704.248    48368.251    -1405.717   -13700.193    12256.291    85.210575 
   43100    1492.4288   -108.66126    1.3503809   -107.31088   -34003.679     4.413965     4.413965     4.413965   -34003.679   -49564.806   -68567.215    16120.984    56508.537    21290.108   -21155.607    85.997666 
   43200    1949.8445   -109.06002    1.7642603   -107.29576   -3277.6484    4.3958722    4.3958722    4.3958722   -3277.6484   -15697.732   -12041.424    17906.211   -25138.989    4085.6612    9001.3651    84.944482 
   43300     1345.614   -108.53489    1.2175398   -107.31735   -7779.2687      4.38406      4.38406      4.38406   -7779.2687   -16738.007   -51135.436    44535.637    43114.779   -19455.368    27791.906    84.261553 
   43400    2057.8689   -109.18279     1.862003   -107.32079    9935.1717    4.3746756    4.3746756    4.3746756    9935.1717    13379.466   -14129.879    30555.928    31833.805     4009.742   -9263.1385    83.721608 
   43500    1618.4774   -108.81196    1.4644324   -107.34752   -11838.654    4.4038528    4.4038528    4.4038528   -11838.654   -25653.221   -22017.929    12155.189   -19565.963     4472.805   -8085.2858    85.407966 
   43600    1114.3097     -108.336    1.0082508   -107.32775   -27220.673    4.4132741    4.4132741    4.4132741   -27220.673   -67092.752   -26569.645    12000.377    54094.667   -7288.0112    27949.813    85.957289 
   43700    2349.9308   -109.41138    2.1262668   -107.28512    10446.556    4.3912691    4.3912691    4.3912691    10446.556    22512.575    26906.591   -18079.497   -18957.933   -4595.0926   -26323.851    84.677916 
   43800     1289.579   -108.46703    1.1668382    -107.3002    1858.8317    4.3921499    4.3921499    4.3921499    1858.8317    24673.664   -12146.437   -6950.7323    41352.343    4108.5051   -9343.5326    84.728882 
   43900    1220.5241   -108.41132    1.1043559   -107.30697     9548.122    4.4029121    4.4029121    4.4029121     9548.122   -41763.133    105881.04   -35473.536    30025.013   -31021.252    15223.165    85.353244 
   44000    2442.2279   -109.49666    2.2097791   -107.28688   -23631.798    4.4165508    4.4165508    4.4165508   -23631.798   -38378.951   -13752.556   -18763.886   -83.704728     10493.02   -20311.023    86.148888 
   44100    1327.1451   -108.51169    1.2008287   -107.31086   -23148.329    4.4011186    4.4011186    4.4011186   -23148.329   -56643.363   -4999.8353   -7801.7897    44837.963   -19597.933   -4757.2385    85.248984 
   44200    1770.4051   -108.89939    1.6018997   -107.29749    25620.329    4.3749156    4.3749156    4.3749156    25620.329   -15454.335    68525.695    23789.628    -6150.106   -11480.415    1815.8101    83.735389 
   44300    2209.6263   -109.31309    1.9993163   -107.31378    3400.9053    4.3940042    4.3940042    4.3940042    3400.9053   -12648.444   -12352.185    35203.344    9927.7439    5513.6873   -15129.401    84.836241 
   44400    1076.2482   -108.29554   0.97381201   -107.32172   -8146.3706    4.4191465    4.4191465    4.4191465   -8146.3706   -52202.724     14334.82    13428.792    26887.966   -31520.021    8957.3551    86.300874 
   44500    2218.9147   -109.28521    2.0077207   -107.27748   -2650.5265    4.4228672    4.4228672    4.4228672   -2650.5265    81.756779   -29063.052    21029.716   -11827.082    13694.944    6933.3132    86.519042 
   44600    1480.4694     -108.616    1.3395598   -107.27644    10622.954     4.403953     4.403953     4.403953    10622.954   -21813.931    42929.413     10753.38    7304.8234   -24142.789   -25101.326    85.413798 
   44700    1711.6773   -108.83017    1.5487616   -107.28141    4782.9096    4.3888121    4.3888121    4.3888121    4782.9096   -11531.843    21259.048    4621.5238    17853.578   -37520.896   -68.142087    84.535856 
   44800    2011.4451   -109.11623    1.8199978   -107.29623    22956.148    4.3963287    4.3963287    4.3963287    22956.148    70830.853    -7947.374    5984.9651   -18737.223    6334.3906    1720.5634     84.97095 
   44900    1053.4703   -108.27592   0.95320211   -107.32271   -26818.533    4.4292222    4.4292222    4.4292222   -26818.533   -27741.219    5238.4911   -57952.872    15270.726   -48862.283    -8994.355    86.892521 
   45000    2059.0323   -109.13075    1.8630557   -107.26769    -37037.51    4.4311249    4.4311249    4.4311249    -37037.51   -46161.345   -2342.0305   -62609.155    7144.0326    32890.563   -210.92732     87.00455 
   45100    1934.9245   -109.00719    1.7507604   -107.25643   -4421.9859    4.3861426    4.3861426    4.3861426   -4421.9859   -2006.6458    3913.5777    -15172.89    -27289.38   -14087.416    1008.7346    84.381697 
   45200    1730.0901   -108.83627    1.5654219   -107.27085   -1586.9597    4.3738422    4.3738422    4.3738422   -1586.9597   -10163.235    13057.244   -7654.8885    7365.6277   -32346.128    8654.9505    83.673771 
   45300    1652.7673    -108.8128    1.4954586   -107.31734   -20357.289    4.3983402    4.3983402    4.3983402   -20357.289   -37627.922    45277.411   -68721.357     1761.962    79048.528    10241.821    85.087633 
   45400    2458.2038   -109.51904    2.2242345   -107.29481   -20855.374    4.4197613    4.4197613    4.4197613   -20855.374   -28038.972     5617.126   -40144.275   -9395.2561   -28027.677    9639.4408    86.336898 
   45500    1056.8795   -108.25201   0.95628675   -107.29572   -27541.466    4.4264367    4.4264367    4.4264367   -27541.466   -31568.657    34861.472   -85917.212   -3098.4759     24079.22   -5727.4134    86.728685 
   45600    1621.9903   -108.74866    1.4676109   -107.28105   -8384.7233    4.3997676    4.3997676    4.3997676   -8384.7233    5830.6266    31775.735   -62760.531    10809.169    6534.1779   -4115.6417      85.1705 
   45700    2114.0347   -109.18655    1.9128231   -107.27372    48118.321    4.3690062    4.3690062    4.3690062    48118.321    77396.231    89670.579   -22711.848    7705.7755      7842.94    6297.3182    83.396532 
   45800    1563.6452   -108.75398    1.4148191   -107.33916    7088.7763    4.3943273    4.3943273    4.3943273    7088.7763    -22898.94     89536.75   -45371.481    7276.9888    32290.125   -7562.2379    84.854957 
   45900    1487.3161   -108.66243    1.3457549   -107.31667   -37926.716    4.4224583    4.4224583    4.4224583   -37926.716   -20539.486   -3577.4662   -89663.196    20427.195   -40381.697    8408.2587    86.495048 
   46000    2204.0144   -109.28949    1.9942385   -107.29525   -2657.6616    4.4027627    4.4027627    4.4027627   -2657.6616    45875.967   -6459.9121    -47389.04    5104.7754    16307.679    4911.2779    85.344558 
   46100    1590.9214   -108.73863    1.4394991   -107.29913    405.88271     4.377088     4.377088     4.377088    405.88271   -8038.4835   -18188.541    27444.673   -18935.102   -8435.0834   -7057.2136    83.860187 
   46200    882.01516   -108.13639   0.79806585   -107.33832   -7898.0926    4.3730697    4.3730697    4.3730697   -7898.0926   -6694.3799    10681.899   -27681.797    24851.451   -46368.869    11337.349    83.629444 
   46300    1846.6687   -109.02315    1.6709046   -107.35224    7587.4079    4.3938643    4.3938643    4.3938643    7587.4079    50323.774   -3326.7256   -24234.825    6267.7678     33652.41   -5867.8161    84.828138 
   46400    2148.3922   -109.27271    1.9439104    -107.3288   -20030.139    4.4089811    4.4089811    4.4089811   -20030.139   -27463.573   -38776.149    6149.3064   -18610.307   -1382.4192    10419.107    85.706689 
   46500    1556.1221    -108.7242     1.408012   -107.31618   -26176.056     4.397874     4.397874     4.397874   -26176.056   -11476.621   -3791.8759    -63259.67    16630.269     11787.96    16976.527     85.06058 
   46600    1048.2946   -108.27195   0.94851897   -107.32343   -16329.233    4.3832626    4.3832626    4.3832626   -16329.233    -1563.091    32372.681   -79797.288   -7168.1273    66012.216   -11509.395    84.215587 
   46700    2614.0284   -109.67416    2.3652278   -107.30893    4710.3709     4.381141     4.381141     4.381141    4710.3709    3458.4065    12130.088   -1457.3821   -9809.7557   -16990.963   -14858.448    84.093356 
   46800    1495.7322   -108.68634    1.3533699   -107.33297   -23830.572    4.4022963    4.4022963    4.4022963   -23830.572   -31454.923    37292.168    -77328.96    4504.2978     70593.11    12372.389    85.317438 
   46900    1568.1887   -108.73207    1.4189301   -107.31314   -15391.884     4.403458     4.403458     4.403458   -15391.884    26412.256   -19407.907   -53180.002   -4276.7163   -19535.854   -13051.321    85.384999 
   47000    1729.4957   -108.87501    1.5648841   -107.31013   -1594.2794    4.3860766    4.3860766    4.3860766   -1594.2794   -4752.8972    42640.567   -42670.508    4264.2215    15307.102   -18006.968    84.377884 
   47100    2323.8387    -109.4132    2.1026581   -107.31054    19612.214    4.3762505    4.3762505    4.3762505    19612.214    5153.3782    63561.292   -9878.0285   -14992.755    17053.015    8916.5294    83.812059 
   47200    1145.0357   -108.38216    1.0360524   -107.34611    24421.874    4.3786421    4.3786421    4.3786421    24421.874    70434.333    44234.673   -41403.384    3670.2425   -42286.975   -20815.272    83.949543 
   47300    1672.7308    -108.8622     1.513522   -107.34868   -4690.2698    4.3981828    4.3981828    4.3981828   -4690.2698    11340.199    25089.379   -50500.388   -7775.6846    8993.1668   -2095.9479    85.078501 
   47400    2013.9061   -109.15136    1.8222245   -107.32914   -17274.776    4.4011751    4.4011751    4.4011751   -17274.776   -39583.463    5697.4738   -17938.339   -9126.3625   -15597.751    15214.151    85.252265 
   47500    1741.3236   -108.89649    1.5755862    -107.3209    6773.5361    4.3839628    4.3839628    4.3839628    6773.5361    23838.191    32415.707   -35933.289    10909.625   -20643.038   -27642.992    84.255952 
   47600    1880.6847   -109.02463     1.701683   -107.32295   -8063.4756    4.3871984    4.3871984    4.3871984   -8063.4756    9938.6796   -20704.277   -13424.829   -12143.205    4662.0005    10906.927    84.442645 
   47700    1642.8021   -108.81816    1.4864419   -107.33171   -12266.455    4.3862612    4.3862612    4.3862612   -12266.455    -65898.54    37290.059   -8190.8827    8038.9562     -30701.3    21969.736    84.388541 
   47800    1170.2074   -108.40279    1.0588282   -107.34397   -4273.9571    4.3842439    4.3842439    4.3842439   -4273.9571   -16942.509    30242.738     -26122.1    9791.1014   -5552.5427   -23762.211    84.272156 
   47900    1787.7492   -108.95635     1.617593   -107.33875   -23579.229    4.3955392    4.3955392    4.3955392   -23579.229    18349.576   -32488.428   -56598.837   -1943.6581    6538.0715    27581.434    84.925177 
   48000     1738.228   -108.90451    1.5727852   -107.33172   -14607.533    4.3905041    4.3905041    4.3905041   -14607.533   -37162.316    40645.815   -47306.098   -1561.4094   -61839.626    11359.764    84.633668 
   48100    2231.8654   -109.33327    2.0194387   -107.31383    4607.7894    4.3850543    4.3850543    4.3850543    4607.7894     -6647.23    25748.006   -5277.4079    5999.4774     25880.78   -13190.208    84.318898 
   48200    1025.7051   -108.25651   0.92807951   -107.32843   -18994.029    4.4008936    4.4008936    4.4008936   -18994.029    11098.617    6598.7381   -74679.443   -10785.043   -42908.415    4027.4952    85.235914 
   48300    1637.5122    -108.7967    1.4816555   -107.31504   -5199.1556    4.4041752    4.4041752    4.4041752   -5199.1556    30406.365    33193.244   -79197.076     4693.699   -36687.998    11622.757    85.426727 
   48400    2459.2991   -109.52968    2.2252255   -107.30446    27074.369    4.3875844    4.3875844    4.3875844    27074.369    22113.802     40928.14    18181.163   -1034.2915    25065.789   -13597.292    84.464936 
   48500     906.7212   -108.16154   0.82042039   -107.34112    6746.6505    4.3799065    4.3799065    4.3799065    6746.6505    10813.627     48829.31   -39402.985    1408.7651     -70201.2    4556.2865    84.022289 
   48600    1621.8427   -108.81524    1.4674774   -107.34776     5964.066    4.3902634    4.3902634    4.3902634     5964.066    20901.375    12064.027   -15073.204    5736.9233    4942.1715   -4531.7208    84.619749 
   48700    1853.9479   -109.00978     1.677491   -107.33229    21447.806    4.3998661    4.3998661    4.3998661    21447.806    26782.056    43031.858   -5470.4974    11378.605   -3235.6129   -3265.0943    85.176221 
   48800    1293.2633   -108.48786    1.1701718   -107.31769   -8398.0171    4.4155529    4.4155529    4.4155529   -8398.0171    55739.139   -13039.517   -67893.673    4241.4607     -47795.8    23630.229    86.090508 
   48900    1826.6437   -108.93659    1.6527856    -107.2838   -7789.1643    4.4068714    4.4068714    4.4068714   -7789.1643    30776.906   -30511.648   -23632.751    -14324.19    32632.534   -8712.8578    85.583714 
   49000    1347.8037   -108.50024    1.2195211   -107.28072     22950.46    4.3779501    4.3779501    4.3779501     22950.46    19344.279    32470.289    17036.813    1792.4552   -37552.485    6974.4416    83.909751 
   49100    1872.7696   -109.00883    1.6945213   -107.31431   -17359.179    4.3838465    4.3838465    4.3838465   -17359.179   -1043.4851   -23903.574   -27130.477    3959.5631   -27281.277    34349.794    84.249246 
   49200     2132.023   -109.24779    1.9290992   -107.31869    17606.186    4.3848277    4.3848277    4.3848277    17606.186   -9537.5659     16364.12    45992.006     -23906.4     26679.24   -9932.8657    84.305828 
   49300    1369.6045   -108.58251     1.239247   -107.34326   -21917.424    4.3981436    4.3981436    4.3981436   -21917.424   -55321.935    41181.845   -51612.182    3708.4121   -41324.721    22733.747    85.076226 
   49400    1613.9996   -108.78024    1.4603808   -107.31986   -35597.747    4.4049506    4.4049506    4.4049506   -35597.747   -7562.3657   -54626.086   -44604.789   -4388.8479   -5807.2977    5052.3533    85.471854 
   49500    1830.4898   -108.95757    1.6562656   -107.30131      20636.3    4.3731765    4.3731765    4.3731765      20636.3    24778.405   -6336.1496    43466.645   -28843.079   -3728.6432   -34019.472     83.63557 
   49600    1833.0049   -108.97281    1.6585414   -107.31427    1079.3758    4.3792287    4.3792287    4.3792287    1079.3758    5025.9672    5925.0706   -7712.9104    717.82661   -30665.964     32689.13    83.983288 
   49700    1572.5527   -108.74138    1.4228787    -107.3185   -28086.253    4.3965091    4.3965091    4.3965091   -28086.253    26998.681   -84244.074   -27013.365   -14661.096   -7052.2181   -39661.236    84.981412 
   49800    1100.1565    -108.3228   0.99544469   -107.32736    20341.099    4.3876992    4.3876992    4.3876992    20341.099    24240.987   -60002.702    96785.011   -11414.919    2655.0279   -7745.2238    84.471566 
   49900    2210.9985   -109.31944    2.0005579   -107.31888   -4856.2187     4.395484     4.395484     4.395484   -4856.2187   -10591.086   -24875.371    20897.801    18187.997   -20935.234    7199.8777    84.921982 
   50000    1711.6624   -108.87539    1.5487481   -107.32664    4248.7761    4.3894559    4.3894559    4.3894559    4248.7761    37940.124   -39059.216    13865.421   -22120.056    2791.9558   -37017.615    84.573064 
   50100    1113.4182   -108.33883    1.0074442   -107.33138    10300.138    4.3785139    4.3785139    4.3785139    10300.138   -11318.398   -36884.231    79103.043   -9103.2314   -5195.0042   -1655.8063     83.94217 
   50200    2090.1344   -109.21216    1.8911975   -107.32096   -16240.731    4.3938166    4.3938166    4.3938166   -16240.731    25042.954   -42779.734   -30985.413    26968.358   -10251.672    44255.618    84.825375 
   50300    1919.4946   -109.05815    1.7367991   -107.32136    -18764.62    4.3927067    4.3927067    4.3927067    -18764.62   -22501.607   -48345.326    14553.074   -32736.731    20928.188   -7327.7664    84.761106 
   50400    1129.8481   -108.34999    1.0223103   -107.32767   -16331.523    4.3869534    4.3869534    4.3869534   -16331.523   -22807.336   -73558.915    47371.683   -1717.6364   -2508.5811    12127.344    84.428498 
   50500    1561.8285   -108.74749    1.4131753   -107.33432   -35973.062    4.3904005    4.3904005    4.3904005   -35973.062     32923.95   -93667.108    -47176.03    19991.496    10009.452    58151.414    84.627676 
   50600     2333.082   -109.42848    2.1110216   -107.31745    24546.597    4.3822997    4.3822997    4.3822997    24546.597    10984.588   -2765.8684    65421.072   -14504.773    5182.6148   -21603.475    84.160098 
   50700    1623.2125    -108.8122    1.4687168   -107.34348   -11601.593    4.3850217    4.3850217    4.3850217   -11601.593    3343.2343   -55438.981    17290.968    17558.685   -9180.1101    55409.314     84.31702 
   50800    1305.7308   -108.52881    1.1814526   -107.34735   -25524.784    4.3875872    4.3875872    4.3875872   -25524.784    13124.451   -86354.965   -3343.8383    15693.874    6868.9574   -32377.179    84.465099 
   50900    2173.9065   -109.29753    1.9669963   -107.33054    6457.6193    4.3865803    4.3865803    4.3865803    6457.6193     15418.59   -17029.502     20983.77   -14123.861   -3735.8099   -35333.019    84.406958 
   51000    1767.2467   -108.92489     1.599042   -107.32584    4486.4092    4.3963968    4.3963968    4.3963968    4486.4092    8310.7963    -43823.63    48972.061    22022.964    7128.2664    15253.083    84.974896 
   51100    1218.2828   -108.42283    1.1023278    -107.3205   -10059.146     4.397489     4.397489     4.397489   -10059.146    12022.798   -68090.655    25890.419    20996.242    8474.1234   -56535.322    85.038247 
   51200    2242.8792    -109.3218    2.0294042    -107.2924    13365.181    4.3822943    4.3822943    4.3822943    13365.181   -8488.2125     3823.033    44760.723   -38620.898   -4357.2852    9594.4376    84.159785 
   51300    1426.5746   -108.60096    1.2907946   -107.31016    5734.8425    4.3824377    4.3824377    4.3824377    5734.8425    70804.013   -52897.333   -702.15255    6881.6486    990.10403   -42941.087    84.168048 
   51400    1823.4383    -108.9583    1.6498853   -107.30842      3144.45    4.3888271    4.3888271    4.3888271      3144.45    14658.807   -17652.822    12427.365     6499.688    10644.699   -16351.491    84.536727 
   51500    1030.0239   -108.24884   0.93198725   -107.31685    34844.667    4.4005826    4.4005826    4.4005826    34844.667    94786.532   -7386.3658    17133.834   -41898.283   -11596.277   -468.21114    85.217841 
   51600    2055.6826    -109.1423    1.8600249   -107.28227   -25202.583    4.4131918    4.4131918    4.4131918   -25202.583    -643.7337   -40315.243   -34648.771    24356.965   -3037.9149   -24352.966    85.952481 
   51700    1983.1729   -109.05951    1.7944165    -107.2651    11064.178    4.3849515    4.3849515    4.3849515    11064.178    44621.613   -40777.265    29348.186    -54704.11    5884.0546     13526.26    84.312968 
   51800    1558.3846   -108.68716    1.4100592    -107.2771    34846.132    4.3773784    4.3773784    4.3773784    34846.132    58029.597    47269.192   -760.39291    4354.8876   -19583.411   -14248.614     83.87688 
   51900    1435.3896   -108.59411    1.2987706   -107.29534   -24874.301    4.3971138    4.3971138    4.3971138   -24874.301   -47387.677   -44936.465    17701.241   -28851.194    5020.7914   -12502.693    85.016478 
   52000    1944.2265   -109.04241     1.759177   -107.28323    4330.8719    4.3971852    4.3971852    4.3971852    4330.8719   -18209.429    2822.3115    28379.733   -35075.161   -7113.4927    9952.2581     85.02062 
   52100    1515.5043   -108.65583    1.3712602   -107.28457   -12167.686    4.4036545    4.4036545    4.4036545   -12167.686   -5221.9089    2695.0926   -33976.242    17699.171   -18777.944   -17950.159     85.39643 
   52200    2104.4079   -109.17075    1.9041125   -107.26663   -13767.724    4.3986634    4.3986634    4.3986634   -13767.724    2119.2006   -36922.781   -6499.5932   -36959.486    18177.208   -11913.143    85.106395 
   52300    1568.9535   -108.68949    1.4196221   -107.26987   -5167.1378    4.3856267    4.3856267    4.3856267   -5167.1378   -6191.9291    41421.182   -50730.666    4715.0683   -45850.808    29760.853    84.351924 
   52400    1697.0448   -108.82563    1.5355218   -107.29011    12248.007    4.3899673    4.3899673    4.3899673    12248.007    27341.675    7239.4355    2162.9108   -8611.1269    -2356.067   -16980.668     84.60263 
   52500    2166.5798   -109.24093    1.9603669   -107.28056   -16338.317    4.3987688    4.3987688    4.3987688   -16338.317    15944.621   -26249.017   -38710.556    2178.6853   -11306.816    32705.253    85.112511 
   52600    849.33108    -108.0771   0.76849261   -107.30861    6827.6529    4.3932885    4.3932885    4.3932885    6827.6529    3999.3694    16013.962    469.62726    840.79115   -48948.854    30286.124    84.794792 
   52700    2712.7822   -109.72869    2.4545824   -107.27411   -3879.1087    4.4015831    4.4015831    4.4015831   -3879.1087    5295.0981   -18698.134      1765.71   -3491.4528    12399.996   -10825.888    85.275977 
   52800    1162.9539   -108.36426    1.0522652   -107.31199    7144.6012    4.3805027    4.3805027    4.3805027    7144.6012    70736.683   -25163.553   -24139.327    7387.3723   -43497.046    58245.061     84.05661 
   52900    1826.1455   -108.96359    1.6523348   -107.31126    37564.405    4.3786977    4.3786977    4.3786977    37564.405    61026.166    10381.897    41285.154   -28.691768    -30132.23   -4418.3758    83.952744 
   53000    2509.6328   -109.56936    2.2707685   -107.29859    -12468.31    4.3960507    4.3960507    4.3960507    -12468.31    5243.0411   -47711.844     5063.874    13576.311    131.03066     14041.93    84.954832 
   53100     538.0437   -107.81357   0.48683325   -107.32673    38963.255    4.3895784    4.3895784    4.3895784    38963.255     106568.4   -13859.015    24180.384   -1191.1049   -64475.188    40858.119    84.580147 
   53200    2999.5392   -109.99748    2.7140461   -107.28343   -6081.4171    4.3992534    4.3992534    4.3992534   -6081.4171    3621.6592   -38881.265    17015.354    8940.9737     1292.278   -11238.566    85.140643 
   53300    839.96638   -108.08451   0.76001923   -107.32449    7686.0089    4.3828708    4.3828708    4.3828708    7686.0089    11859.755   -7315.9509    18514.222    518.89797   -31103.059    34970.748    84.193006 
   53400    1464.8931   -108.65017    1.3254661    -107.3247    4256.1772    4.3764456    4.3764456    4.3764456    4256.1772    23677.622   -4846.4971   -6062.5934    11512.759   -46554.348    27587.392    83.823271 
   53500    2359.5455   -109.44265    2.1349664   -107.30768    27610.035    4.3880109    4.3880109    4.3880109    27610.035    58976.614   -4208.3709    28061.863    -8944.608    24955.095   -12695.059    84.489567 
   53600    588.04342   -107.86669   0.53207405   -107.33462    7875.9088    4.3988145    4.3988145    4.3988145    7875.9088    69065.879    320.47283   -45758.625    1647.5262   -70371.032    37577.376    85.115164 
   53700    2855.0228   -109.87671    2.5832847   -107.29343   -17058.338    4.4021713    4.4021713    4.4021713   -17058.338    4036.4105   -47730.542   -7480.8825   -8720.5852    24015.808   -8706.1119     85.31017 
   53800    978.49391   -108.19028   0.88536185   -107.30492     40041.22    4.3780059    4.3780059    4.3780059     40041.22    115244.04    6857.4308   -1977.8108    1582.6848   -45411.382    13381.796    83.912957 
   53900    1654.7349   -108.81631    1.4972389   -107.31907    2580.1411    4.3829965    4.3829965    4.3829965    2580.1411    32261.674    260.23902    -24781.49   -556.13046   -32621.746    25850.291    84.200248 
   54000    2403.9532   -109.47535    2.1751474    -107.3002   -4996.2873    4.3972488    4.3972488    4.3972488   -4996.2873    8939.2787   -21671.077   -2257.0634    5295.2717    9316.3811   -11981.111     85.02431 
   54100    848.00741   -108.08667   0.76729493   -107.31938   -13179.707     4.404534     4.404534     4.404534   -13179.707   -13691.938     17151.85   -42999.033   -6636.7534   -66508.397    21939.783    85.447607 
   54200     2342.797   -109.39655    2.1198119   -107.27673   -15448.738    4.3975077    4.3975077    4.3975077   -15448.738   -21114.378   -29571.844    4340.0061    24261.443    13661.561    1917.5731     85.03933 
   54300     1183.799   -108.36215    1.0711262   -107.29102    18002.864    4.3829615    4.3829615    4.3829615    18002.864    23593.106    26836.731    3578.7546   -8978.4706   -22956.599    1679.0491    84.198228 
   54400    1981.9199   -109.08233    1.7932828   -107.28905    8940.6608    4.3834202    4.3834202    4.3834202    8940.6608   -5939.2511     32599.92    161.31328    5046.8475   -36543.694    4619.6111    84.224671 
   54500    1410.8554   -108.58227    1.2765716    -107.3057   -7884.9784    4.3989051    4.3989051    4.3989051   -7884.9784   -27956.576    10460.874   -6159.2323    25597.499    45700.328    192.94546    85.120423 
   54600    2149.8954   -109.23188    1.9452705    -107.2866    1137.9661    4.3950472    4.3950472    4.3950472    1137.9661   -21296.967    28808.495   -4097.6294   -27512.623   -45448.397   -12183.722    84.896662 
   54700    1571.9948   -108.71615    1.4223739   -107.29378    7477.3913    4.3961996    4.3961996    4.3961996    7477.3913   -36967.775    29564.207    29835.743    31033.335    28692.716    -1011.564    84.963465 
   54800    1180.8264   -108.37023    1.0684365    -107.3018    -22997.27    4.3963195    4.3963195    4.3963195    -22997.27   -80447.743     12989.93   -1533.9959    2120.0752    33196.336   -1292.9131    84.970414 
   54900    2630.4624    -109.6517    2.3800977    -107.2716    19213.487     4.387812     4.387812     4.387812    19213.487    20914.728    11834.322    24891.413   -6646.0839   -11573.836   -14364.377    84.478082 
   55000    970.76883   -108.19091   0.87837204   -107.31253   -25671.844    4.3914292    4.3914292    4.3914292   -25671.844   -80279.146     8420.971   -5157.3585    24410.154    67281.827    10501.653    84.687175 
   55100    2137.6159   -109.23582    1.9341598   -107.30166   -9545.3932    4.3981823    4.3981823    4.3981823   -9545.3932    2455.4315   -8142.9376   -22948.674   -10785.806   -16752.624    2004.4058    85.078472 
   55200    1551.1937    -108.7084    1.4035527   -107.30484    -18116.42    4.3991082    4.3991082    4.3991082    -18116.42   -10647.922    13132.667   -56834.005    7388.8642    16521.449   -1925.9402    85.132214 
   55300    1185.0403   -108.38081    1.0722494   -107.30856     8563.634    4.3911806    4.3911806    4.3911806     8563.634    42295.316   -19662.889    3058.4755    22904.006    33684.057    7318.3579    84.672798 
   55400    2757.3624   -109.77975    2.4949194   -107.28483   -2198.3203    4.3901516    4.3901516    4.3901516   -2198.3203    11813.812    10393.391   -28802.163    -7799.949   -5412.0863    957.77623    84.613283 
   55500    1007.8007   -108.22904   0.91187926   -107.31716    2230.7341    4.3816534    4.3816534    4.3816534    2230.7341    34717.523    18756.003   -46781.324   -1277.1753     33447.56   -1346.4604    84.122865 
   55600    2067.4361   -109.19022    1.8706596   -107.31956    -20543.49    4.3868251    4.3868251    4.3868251    -20543.49   -4364.9171   -40433.485   -16832.068    36181.982   -5073.7857    6133.2802     84.42109 
   55700    1829.2674   -108.96578    1.6551596   -107.31062   -9150.2807    4.3938191    4.3938191    4.3938191   -9150.2807    30530.491   -6783.3748   -51197.958   -32906.512    17672.241   -6211.8595    84.825519 
   55800     1083.069   -108.29473   0.97998355   -107.31475   -9164.5383    4.3946839    4.3946839    4.3946839   -9164.5383   -26913.819     38502.99   -39082.785    20585.314    29626.817    7424.8476    84.875613 
   55900    2415.2926   -109.47672    2.1854075   -107.29131   -11008.374    4.3949462    4.3949462    4.3949462   -11008.374    16355.453   -36633.677   -12746.897    10824.678   -8467.1888    1314.6286    84.890814 
   56000    969.55383   -108.18881   0.87727268   -107.31154   -32088.964    4.3952776    4.3952776    4.3952776   -32088.964   -20189.916   -2375.3021   -73701.673   -43166.997    28844.741   -11766.865    84.910015 
   56100    1931.0783    -109.0598    1.7472802   -107.31252   -9861.4773    4.3859363    4.3859363    4.3859363   -9861.4773    5269.5185    25203.203   -60057.154    34782.581    11125.504   -1460.8461    84.369791 
   56200    2041.4504   -109.15825    1.8471472    -107.3111    9425.8958     4.384149     4.384149     4.384149    9425.8958    18076.272      10410.4    -208.9847   -41883.427   -4109.3132    10763.445    84.266686 
   56300    1349.4471   -108.55085    1.2210081   -107.32984   -25330.899    4.3911419    4.3911419    4.3911419   -25330.899   -22155.914     8642.956   -62479.738    -26884.97    32010.174   -5121.2312    84.670556 
   56400    1990.0176    -109.1149    1.8006098   -107.31429    6330.9896    4.3878593    4.3878593    4.3878593    6330.9896      26248.7    47569.463   -54825.194    23462.157   -13118.438    8136.2539    84.480813 
   56500     1340.787   -108.53844    1.2131723   -107.32527   -17369.873    4.3964355    4.3964355    4.3964355   -17369.873   -25591.571   -15391.644   -11126.406   -58905.663    16156.633    9812.5041    84.977139 
   56600    1847.1855   -108.99031    1.6713723   -107.31894   -33589.089    4.4018504    4.4018504    4.4018504   -33589.089   -48007.615   -12715.976   -40043.676    31149.618    16660.987   -6594.0571    85.291518 
   56700    2370.0425   -109.45291    2.1444642   -107.30844    2688.8194    4.3749399    4.3749399    4.3749399    2688.8194   -10571.877     14263.68    4374.6551   -22838.587   -7088.0055    13858.645    83.736781 
   56800    1073.5964   -108.30998    0.9714126   -107.33857    7564.5033    4.3709567    4.3709567    4.3709567    7564.5033    9220.7326   -16207.901    29680.678   -53569.479    21063.467   -779.38516    83.508274 
   56900    2070.4883   -109.20001    1.8734213   -107.32658   -17592.889    4.3944057    4.3944057    4.3944057   -17592.889   -19538.255   -7120.6028   -26119.808    53672.569    11524.097   -17257.221    84.859496 
   57000    1690.7052   -108.82821    1.5297856   -107.29842   -26967.994     4.417038     4.417038     4.417038   -26967.994   -24337.835   -52093.187   -4472.9584   -72367.165   -10214.375     10727.75    86.177405 
   57100    1518.1556   -108.63955    1.3736591   -107.26589   -19121.348    4.4139413    4.4139413    4.4139413   -19121.348    424.11262   -21466.956   -36321.201    16438.934    25682.148   -5813.9442    85.996279 
   57200     1713.117   -108.81424    1.5500643   -107.26417   -13100.546    4.3797966    4.3797966    4.3797966   -13100.546   -20484.418    -40957.15    22139.928   -8091.0082    3626.1707   -18368.186    84.015968 
   57300    1688.3198     -108.803    1.5276273   -107.27537    27068.378    4.3570436    4.3570436    4.3570436    27068.378    28888.636    2883.0324    49433.467   -61911.216    3408.8922    3787.9341    82.713371 
   57400    1891.5593   -109.03572    1.7115226   -107.32419   -10135.034    4.3832415    4.3832415    4.3832415   -10135.034    8947.7262    1408.9158   -40761.743    15394.271    38679.969    22157.749    84.214368 
   57500    1462.5836   -108.63619    1.3233764   -107.31281   -22767.634    4.4155769    4.4155769    4.4155769   -22767.634   -53646.483   -15437.721    781.30107   -19117.678   -15296.928   -21641.196     86.09191 
   57600    1637.7115   -108.78026    1.4818358   -107.29842    1063.2714    4.3949036    4.3949036    4.3949036    1063.2714    5065.7084   -5699.5804    3823.6862   -17853.433   -6669.9124    19822.425    84.888343 
   57700    1859.0202   -108.96398    1.6820806    -107.2819    23259.662    4.3695361    4.3695361    4.3695361    23259.662      26633.2    24633.003    18512.784    24894.889     21146.34    30890.222    83.426876 
   57800    1804.8049   -108.93736    1.6330254   -107.30434   -4657.5378     4.373649     4.373649     4.373649   -4657.5378   -44168.635   -14532.775    44728.797    15922.829   -14793.034   -23373.297    83.662683 
   57900    1431.7721   -108.62376    1.2954975   -107.32827    7856.7136    4.3801026    4.3801026    4.3801026    7856.7136    31961.685    9768.8612   -18160.405   -10775.842   -18019.514    57288.777    84.033575 
   58000    1995.8284   -109.13072    1.8058675   -107.32486    779.95258    4.4059323    4.4059323    4.4059323    779.95258   -24019.299    25037.733    1321.4237    20499.346    8160.3964   -6025.3105    85.529011 
   58100    1531.9688   -108.69517    1.3861575   -107.30901   -29511.749    4.4064852    4.4064852    4.4064852   -29511.749   -37351.614   -40995.512   -10188.121    10930.896   -16092.966    29648.005    85.561216 
   58200    1495.1143   -108.63193    1.3528109   -107.27912    27508.752    4.3765711    4.3765711    4.3765711    27508.752    61254.333    29054.009   -7782.0848    -25427.27   -280.59146     31931.48    83.830484 
   58300    2413.0891   -109.46296    2.1834137   -107.27955   -7100.7886    4.3846885    4.3846885    4.3846885   -7100.7886   -33503.185   -17716.175    29916.995     44995.94   -8919.4858   -18982.203    84.297801 
   58400    984.28189   -108.20127   0.89059894   -107.31067    2719.4241    4.3886818    4.3886818    4.3886818    2719.4241    43543.822    1061.6917   -36447.241   -1829.6831   -8341.8348     58292.28     84.52833 
   58500    1782.7498   -108.92493    1.6130695   -107.31186    16426.262    4.3973546    4.3973546    4.3973546    16426.262    64905.856   -6660.4234   -8966.6449   -26162.221   -2186.5407   -8254.7777    85.030447 
   58600    2251.2723   -109.33289    2.0369985   -107.29589   -21446.632    4.4040089    4.4040089    4.4040089   -21446.632   -5462.1426   -19819.495    -39058.26    11876.813    2356.1515    28918.231    85.417049 
   58700    1010.7027   -108.22509   0.91450507   -107.31059    21388.141    4.3744818    4.3744818    4.3744818    21388.141    81192.606   -2175.0997   -14853.082   -16777.888   -6822.2645    55690.867    83.710483 
   58800    2285.5842    -109.3625    2.0680446   -107.29445    24325.161    4.3730849    4.3730849    4.3730849    24325.161    24086.172    8074.5536    40814.758   -23306.033   -17248.536   -20346.952    83.630312 
   58900    1449.8965   -108.62183    1.3118968   -107.30993    7264.9484    4.3943225    4.3943225    4.3943225    7264.9484    39378.177    -10869.02   -6714.3126    21290.135    12644.683      64886.9    84.854677 
   59000    1935.9742   -109.04154    1.7517101   -107.28983   -1554.1428    4.4064178    4.4064178    4.4064178   -1554.1428    20935.222   -18763.805   -6833.8446    -28614.44   -12191.506   -14516.241    85.557291 
   59100    1634.7727   -108.76256    1.4791767   -107.28338   -22774.293     4.404936     4.404936     4.404936   -22774.293   -2028.3539   -60768.269   -5526.2572     23051.46    1681.6061    34144.991    85.471004 
   59200    1804.7023   -108.91473    1.6329326    -107.2818    3647.4641    4.3742957    4.3742957    4.3742957    3647.4641    39876.025   -34641.483    5707.8497    13460.393    15368.263    10892.653    83.699801 
   59300    2074.2562    -109.1567    1.8768306   -107.27987    33186.183    4.3676555    4.3676555    4.3676555    33186.183    34368.154   -9448.2726    74638.669   -4834.0939   -21640.444   -20877.429    83.319209 
   59400     1615.083   -108.76357     1.461361   -107.30221   -11800.188    4.3990786    4.3990786    4.3990786   -11800.188    8546.4158   -56501.675    12554.696    50890.947    26386.123    27657.355    85.130494 
   59500    2069.0297   -109.14065    1.8721016   -107.26855   -6679.5518    4.4102376    4.4102376    4.4102376   -6679.5518    7505.8204   -42271.903    14727.427   -11351.555   -19302.877   -26753.551    85.779986 
   59600    1303.1985   -108.45375    1.1791614   -107.27458    -11247.66    4.4027478    4.4027478    4.4027478    -11247.66   -19787.625   -61299.875    47344.522    57345.857   -13802.917    16643.727    85.343693 
   59700    1814.8653   -108.91366    1.6421283   -107.27153    477.49133    4.3802966    4.3802966    4.3802966    477.49133    29889.444   -27559.531   -897.43898    1265.3171    16950.587    16477.546    84.044745 
   59800    1441.2593   -108.59209    1.3040817   -107.28801    28290.896    4.3685295    4.3685295    4.3685295    28290.896    27016.117   -35649.751    93506.323    23178.858   -12154.638   -22890.464    83.369238 
   59900    1607.5592    -108.7725    1.4545533   -107.31794   -13801.088    4.3956504    4.3956504    4.3956504   -13801.088   -43067.531   -64768.284     66432.55    58158.102   -819.84285    7645.1256    84.931622 
   60000    2100.5022   -109.18644    1.9005785   -107.28586    1313.3623    4.4090934    4.4090934    4.4090934    1313.3623    1619.2814   -39632.081    41952.886   -7690.3513    7490.1908   -2325.6311    85.713239 
   60100    959.76912   -108.16026   0.86841927   -107.29184   -9570.9284     4.402738     4.402738     4.402738   -9570.9284   -14936.853   -96223.217    82447.284    67959.713   -8974.5331   -21510.517    85.343121 
   60200     2317.739   -109.37048     2.097139   -107.27334   -11223.245     4.385621     4.385621     4.385621   -11223.245   -7544.8826   -28593.691    2468.8401   -37319.348    9127.9241    22904.582    84.351591 
   60300    1122.3844   -108.32539     1.015557   -107.30984   -9138.3432    4.3692023    4.3692023    4.3692023   -9138.3432   -50521.082   -22301.883    45407.935    74159.891    15742.678   -1233.2267     83.40776 
   60400    1822.3927    -108.9827    1.6489392   -107.33376     2898.703    4.3786792    4.3786792    4.3786792     2898.703   -6327.8091    4528.7548    10495.163    12186.582    2513.1577   -40381.522    83.951682 
   60500    1930.0423   -109.07727    1.7463429   -107.33092   -17842.845    4.3923412    4.3923412    4.3923412   -17842.845   -9975.6626   -33358.376   -10194.496    18045.262   -8716.5794    29296.575    84.739949 
   60600    1103.8476   -108.33004    0.9987845   -107.33125   -10554.104    4.3916938    4.3916938    4.3916938   -10554.104    -62420.47    17088.304    13669.854    61604.862    20752.822   -2272.8209    84.702484 
   60700    2451.7851   -109.51972    2.2184267    -107.3013   -9775.0709    4.3874923    4.3874923    4.3874923   -9775.0709    8821.1282   -10965.709   -27180.632   -24498.471   -8358.2119    -28837.09    84.459616 
   60800    1030.4315   -108.25601   0.93235607   -107.32365    4175.0104    4.3763311    4.3763311    4.3763311    4175.0104    34913.367   -56862.084    34473.748    59594.929    6500.6327    16201.025    83.816691 
   60900    1592.3193   -108.77799     1.440764   -107.33723     9522.809    4.3797382    4.3797382    4.3797382     9522.809    12235.304     1640.545    14692.578    15242.465    20085.638    20396.896    84.012607 
   61000     2631.191   -109.70078    2.3807569   -107.32002   -8710.3202    4.3935152    4.3935152    4.3935152   -8710.3202    8869.3738   -35309.198     308.8642    3238.8573   -8485.3408   -10385.683     84.80792 
   61100    1099.2993   -108.33615   0.99466915   -107.34148   -13793.627    4.3864352    4.3864352    4.3864352   -13793.627     24241.19   -75595.484    9973.4135    51801.052    5895.9926    35144.331    84.398581 
   61200    1648.1075   -108.82188    1.4912423   -107.33064   -1207.0617    4.3822111    4.3822111    4.3822111   -1207.0617    36677.256   -19105.692   -21192.749   -19376.667    11640.857    245.10579     84.15499 
   61300    1806.7786    -108.9548    1.6348112   -107.31998   -6861.8398    4.3839454    4.3839454    4.3839454   -6861.8398    22132.587   -25466.343   -17251.763    14682.908   -4142.7532   -37797.628    84.254945 
   61400    1748.2388   -108.90125    1.5818432   -107.31941   -12465.953    4.3856265    4.3856265    4.3856265   -12465.953    14827.964   -28383.368   -23842.454    27458.722   -1006.3436    57251.707    84.351912 
   61500    1270.5045   -108.47941    1.1495791   -107.32983    -32477.27    4.3953926    4.3953926    4.3953926    -32477.27   -931.44369   -43609.194   -52891.172   -10916.642    19874.215   -37331.423    84.916682 
   61600    1886.7674   -109.03139    1.7071868    -107.3242    3287.4481    4.3822482    4.3822482    4.3822482    3287.4481     5030.012   -14447.389    19279.721   -6440.3413   -3551.8244   -33475.735    84.157127 
   61700    1816.4628   -108.96758    1.6435738     -107.324    25792.429    4.3696198    4.3696198    4.3696198    25792.429    36200.332      5138.56    36038.396    19785.855    4572.0486    55669.582    83.431675 
   61800    1498.9568   -108.69411    1.3562876   -107.33782   -4351.2152    4.3857469    4.3857469    4.3857469   -4351.2152   -12201.448    -25761.67    24909.472    14348.198    8329.7659   -49511.086    84.358858 
   61900    1724.9898   -108.88863     1.560807   -107.32782   -9998.7103    4.3941999    4.3941999    4.3941999   -9998.7103   -18539.201   -6665.2152   -4791.7144   -39494.597    2283.0013   -2549.7653    84.847572 
   62000    1908.8494   -109.04784    1.7271671   -107.32067   -6212.4593    4.3898949    4.3898949    4.3898949   -6212.4593   -22876.314   -21334.665    25573.601    41014.518    2736.9038    21274.456    84.598442 
   62100     1503.632   -108.68278    1.3605178   -107.32226    6052.1846    4.3789978    4.3789978    4.3789978    6052.1846   -32304.117     4843.595    45617.076    7850.4406    3979.8561   -32866.616    83.970007 
   62200    1704.3384   -108.86785    1.5421212   -107.32573   -251.06083    4.3813096    4.3813096    4.3813096   -251.06083   -35900.979   -776.92548    35924.722   -54120.987     5599.385    4373.3907    84.103065 
   62300    1670.1765   -108.84005    1.5112108   -107.32884   -14678.593    4.3924512    4.3924512    4.3924512   -14678.593   -45903.431    -34338.95    36206.602    79544.701   -5767.7236    11370.111     84.74632 
   62400    1660.0472   -108.82429    1.5020456   -107.32225   -7721.9389    4.3854159    4.3854159    4.3854159   -7721.9389    2428.4766   -35816.382    10222.088   -31015.418    824.09285   -30011.325     84.33976 
   62500    1537.1288   -108.71845    1.3908265   -107.32763   -30424.776    4.3887366    4.3887366    4.3887366   -30424.776   -60758.175   -62052.136    31535.984   -24252.003    3762.5268   -711.59282    84.531498 
   62600    1971.7137   -109.09981     1.784048   -107.31576   -1076.5221    4.3807317    4.3807317    4.3807317   -1076.5221   -26837.193    2394.7403    21212.886    63363.366   -4251.6717    4392.8938     84.06979 
   62700    1176.4917   -108.40264    1.0645144   -107.33813   -9288.3245     4.375476     4.375476     4.375476   -9288.3245   -3173.1982   -42809.637    18117.862   -53292.878   -1002.1001    -19004.16    83.767569 
   62800    1638.3392   -108.83541    1.4824037   -107.35301   -4429.8696     4.386124     4.386124     4.386124   -4429.8696   -24433.663   -10743.351    21887.406   -26470.626    2147.7399   -839.90336     84.38062 
   62900    2681.9413   -109.75774    2.4266769   -107.33106   -7531.0597    4.3985813    4.3985813    4.3985813   -7531.0597   -27645.807   -3785.4558    8838.0836    8334.0532   -7008.8732    -2709.793     85.10163 
   63000    624.42487   -107.91522   0.56499274   -107.35023   -23895.053    4.3975751    4.3975751    4.3975751   -23895.053   -4921.2238   -90644.624    23880.689   -65477.613    1400.2414   -12212.162    85.043241 
   63100    2025.0775   -109.14576    1.8323327   -107.31342     4719.268    4.3781896    4.3781896    4.3781896     4719.268     19227.08   -32055.383    26986.106    13492.282   -636.96084     13183.15    83.923521 
   63200    1800.9585   -108.94966    1.6295451   -107.32012   -3407.8854      4.37466      4.37466      4.37466   -3407.8854   -37885.134   -38990.503    66651.981    39089.184   -7707.2802   -5570.7583    83.720713 
   63300     1727.038   -108.89276    1.5626603    -107.3301   -291.62489    4.3773364    4.3773364    4.3773364   -291.62489    11880.518   -39570.727    26815.335    -62941.28    2277.4704    -15804.64    83.874468 
   63400    1124.9007   -108.36075    1.0178338   -107.34292   -23056.038    4.3962036    4.3962036    4.3962036   -23056.038   -37199.865   -63279.668    31311.421    69216.535    -1528.499    9523.4489    84.963695 
   63500    2125.8351   -109.23391    1.9235003   -107.31041   -25687.672    4.4019315    4.4019315    4.4019315   -25687.672   -26075.636   -53688.795    2701.4164    22905.116   -9491.2048    8143.0654     85.29623 
   63600    1855.5572   -108.98679    1.6789472   -107.30785    13158.754    4.3748924    4.3748924    4.3748924    13158.754    17532.753    174.58383    21768.923   -612.82707    3052.9685   -19813.029    83.734059 
   63700    554.84019   -107.83897   0.50203107   -107.33694   -2355.2783    4.3713691    4.3713691    4.3713691   -2355.2783     5252.808   -49731.134    37412.491    67504.389   -3075.7118    7427.2859    83.531915 
   63800    2225.2451    -109.3389    2.0134485   -107.32546    -6437.259    4.3895044    4.3895044    4.3895044    -6437.259    21600.009     -30048.8   -10862.986   -29880.196    2844.3887    23829.522    84.575869 
   63900    1813.7197   -108.96128    1.6410917   -107.32019   -8280.2166    4.4014043    4.4014043    4.4014043   -8280.2166   -63841.202     11293.72    27706.832    42119.896    10776.615   -2242.2325    85.265589 
   64000    1388.4417   -108.58004    1.2562913   -107.32375   -12880.136    4.3892124    4.3892124    4.3892124   -12880.136     5497.293   -47536.637    3398.9354     16821.55    2249.5691    20393.254    84.558991 
   64100    1415.8001   -108.60795    1.2810457   -107.32691    14648.201    4.3679161    4.3679161    4.3679161    14648.201    29139.924       -17432    32236.679   -37452.256   -1821.5479    -6113.722    83.334121 
   64200    2596.0455   -109.67557    2.3489566   -107.32661    22886.457    4.3753682    4.3753682    4.3753682    22886.457    13053.749     2262.243     53343.38    1512.4189   -3132.2133    -9784.675    83.761379 
   64300    1634.0529   -108.82817    1.4785254   -107.34964     2977.642    4.3890265    4.3890265    4.3890265     2977.642    55267.437   -69586.551     23252.04    6231.7049    1535.7369    37663.956    84.548246 
   64400    969.23105   -108.22096   0.87698062   -107.34398   -9827.2013    4.3989172    4.3989172    4.3989172   -9827.2013    9944.2947   -68003.828     28577.93   -36879.646   -11243.537   -30259.174    85.121129 
   64500    2489.7412   -109.54343    2.2527702   -107.29066   -10996.824    4.3951246    4.3951246    4.3951246   -10996.824   -26971.162   -38409.592    32390.282    38685.655   -3173.5907    8104.8252    84.901151 
   64600    1412.6222   -108.57556    1.2781703   -107.29739    4833.5499    4.3864864    4.3864864    4.3864864    4833.5499    6576.3202   -34219.451    42143.781   -22246.773   -5438.7398   -1521.8665    84.401536 
   64700    1404.7205    -108.5672    1.2710207   -107.29618   -11614.776    4.3880632    4.3880632    4.3880632   -11614.776   -40529.406   -51786.475    57471.554    16177.028    4709.8485   -23760.541    84.492591 
   64800    1892.9469   -109.00849    1.7127781   -107.29571    -10285.81    4.3881636    4.3881636    4.3881636    -10285.81   -40256.093   -52256.694    61655.356    65987.681   -3806.9604    9120.6868    84.498392 
   64900    2194.5311   -109.27989    1.9856578   -107.29423    8844.7853    4.3873571    4.3873571    4.3873571    8844.7853    22579.414   -31153.923    35108.865   -34942.519     1497.502   -18424.172    84.451808 
   65000    624.55654   -107.89904   0.56511189   -107.33393   -11928.466    4.3865834    4.3865834    4.3865834   -11928.466   -34668.347   -95477.629    94360.579    87855.825   -6499.4794   -18182.041    84.407139 
   65100    2477.0358    -109.5405     2.241274   -107.29923    24878.507    4.3865499    4.3865499    4.3865499    24878.507    48981.516    14667.816     10986.19   -23637.204    807.73818    12516.528    84.405202 
   65200    1735.2906   -108.87538    1.5701274   -107.30525   -16210.577     4.395078     4.395078     4.395078   -16210.577   -30395.297   -37875.609    19639.176     67230.79    3000.2581    3542.6073    84.898447 
   65300    1771.1375   -108.89481    1.6025624   -107.29225   -9586.5203    4.3938533    4.3938533    4.3938533   -9586.5203   -2234.7961   -38396.132    11871.367    18186.719   -4083.5315   -28331.022      84.8275 
   65400    1915.1927   -109.01757    1.7329066   -107.28466   -19001.557    4.3912386    4.3912386    4.3912386   -19001.557   -19295.297   -27536.359   -10173.013     15299.94   -1064.1842    34163.693    84.676149 
   65500    1526.5947    -108.6713    1.3812949   -107.29001   -31207.053    4.3929406    4.3929406    4.3929406   -31207.053   -40593.919   -63582.969     10555.73    58025.994    650.78284   -53.838418     84.77465 
   65600    2096.4197   -109.18335    1.8968846   -107.28646   -57.141311    4.3817405    4.3817405    4.3817405   -57.141311    22558.397    7906.7603   -30636.582   -16082.747   -618.22618   -39741.357    84.127883 
   65700    1330.5861   -108.51067    1.2039422   -107.30673    -20268.87    4.3913322    4.3913322    4.3913322    -20268.87   -24196.765   -58556.341    21946.495    72033.353    -2518.712    43993.426    84.681568 
   65800    2445.9782   -109.49058    2.2131724   -107.27741   -27821.559    4.4084718    4.4084718    4.4084718   -27821.559   -11673.071   -37376.581   -34415.027   -20361.194   -4946.0017   -18134.923    85.676987 
   65900    1244.8142   -108.42318     1.126334   -107.29685   -5249.8562     4.390926     4.390926     4.390926   -5249.8562    24110.016   -34547.752   -5311.8325    65242.681   -18975.882   -8288.3809    84.658068 
   66000    1721.0918   -108.84275      1.55728   -107.28547     20808.74    4.3665905    4.3665905    4.3665905     20808.74    76765.904   -24962.013    10622.329    6456.2405     2765.058    33453.893    83.258271 
   66100    2101.6527   -109.19697    1.9016195   -107.29535   -2073.4846    4.3777088    4.3777088    4.3777088   -2073.4846   -32197.801   -4320.0487    30297.396   -4308.8651   -8750.6929    3027.5655    83.895873 
   66200    1316.3203   -108.50748    1.1910343   -107.31645     9986.652    4.3919339    4.3919339    4.3919339     9986.652   -5651.1516    16863.101    18748.007    64900.299   -8861.5028   -2572.1239    84.716377 
   66300    2128.0947   -109.21396    1.9255448   -107.28842   -14981.688    4.4073229    4.4073229    4.4073229   -14981.688   -14525.665   -11695.219   -18724.179    -24457.58    1763.3086    26726.479    85.610025 
   66400    1037.1024   -108.23583   0.93839208   -107.29744   -12954.772    4.3956652    4.3956652    4.3956652   -12954.772   -87793.048    -16043.29    64972.022    49161.992    907.18784     1003.512    84.932481 
   66500    2232.7083   -109.29225    2.0202014   -107.27205    16469.978    4.3708191    4.3708191    4.3708191    16469.978    7505.3465     13301.39    28603.197    2937.8065    6517.5358   -8063.3059    83.500388 
   66600    1553.5568   -108.70586    1.4056909   -107.30017    22369.735    4.3735781    4.3735781    4.3735781    22369.735    1711.4009    15738.346    49659.457    13963.629    2113.4366    10692.401    83.658614 
   66700    1535.7419   -108.69653    1.3895716   -107.30695   -13193.008      4.39211      4.39211      4.39211   -13193.008   -64900.127   -36237.329    61558.431    37839.622    11334.927    -8442.334    84.726571 
   66800    1965.0236   -109.06972    1.7779947   -107.29173   -2544.0196    4.3937128    4.3937128    4.3937128   -2544.0196    13038.465   -15063.643   -5606.8807   -19045.342   -19769.104   -18122.532    84.819362 
   66900    1637.7867   -108.76827    1.4819038   -107.28637    138.41654    4.3931229    4.3931229    4.3931229    138.41654   -37499.501   -21753.152    59667.903    42197.056   -466.87373    13574.497    84.785203 
   67000    1416.1896   -108.56944    1.2813981   -107.28805   -6123.3315      4.38541      4.38541      4.38541   -6123.3315   -10035.704   -36650.208    28315.917    9545.9546    3040.5677   -40266.579    84.339422 
   67100    2173.8464   -109.24211    1.9669419   -107.27516    11114.083    4.3801897    4.3801897    4.3801897    11114.083    -4233.411    34272.901    3302.7589    3301.8285   -7637.6765    -13616.18    84.038593 
   67200    1270.2639   -108.45078    1.1493614   -107.30142   -25247.471    4.3909245    4.3909245    4.3909245   -25247.471   -98590.956   -29957.819    52806.362    24182.259    13479.151     1018.975    84.657983 
   67300    1683.5434   -108.82474    1.5233054   -107.30143     2899.177    4.3875001    4.3875001    4.3875001     2899.177    7798.2554    3718.0033   -2818.7276   -22191.836   -6053.6095   -41136.355    84.460069 
   67400    2047.8163   -109.15192    1.8529072   -107.29901    1977.7579    4.3860063    4.3860063    4.3860063    1977.7579   -1246.7574    11185.954   -4005.9229    23403.674    3173.0867    27011.187     84.37383 
   67500    1491.0292   -108.66115    1.3491146   -107.31204   -5246.7122    4.3778583    4.3778583    4.3778583   -5246.7122   -68685.157    314.36712    52630.653   -17787.394    603.08994   -13937.874     83.90447 
   67600    2116.0786   -109.21483    1.9146724   -107.30016    13078.016    4.3794605    4.3794605    4.3794605    13078.016    18777.964    36244.487   -15788.404   -5594.7863   -4053.9251    16595.271    83.996628 
   67700    1285.0437   -108.47463    1.1627346    -107.3119   -27252.569    4.3891698    4.3891698    4.3891698   -27252.569   -11633.102   -33794.406   -36330.198   -16492.738    8946.0828    54874.929     84.55653 
   67800    1731.6197   -108.87111    1.5668059    -107.3043   -4144.6862    4.3761596    4.3761596    4.3761596   -4144.6862   -83080.582     28511.25    42135.273   -26325.711    765.78339   -17146.089    83.806841 
   67900    1779.4413   -108.91549    1.6100759   -107.30542   -9375.3505    4.3794398    4.3794398    4.3794398   -9375.3505    18158.859    9744.4695    -56029.38    10704.236    -6264.954    61060.893    83.995435 
   68000    1634.8428   -108.78154    1.4792401   -107.30229   -22525.933     4.386169     4.386169     4.386169   -22525.933   -44330.678   -20256.337   -2990.7841   -36395.255   -6638.7202    7792.2091    84.383221 
   68100    1648.0836   -108.79417    1.4912206   -107.30295     13847.33    4.3763625    4.3763625    4.3763625     13847.33   -39122.562    12840.762    67823.791    745.49591    2836.9932   -1436.4161    83.818497 
   68200    2184.9319   -109.27453    1.9769723   -107.29756    4046.8439    4.3831279    4.3831279    4.3831279    4046.8439    2445.8352    24299.625   -14604.928    3949.3625   -3724.2897    29585.988    84.207822 
   68300    1223.2552   -108.42133     1.106827    -107.3145   -23238.562     4.385286     4.385286     4.385286   -23238.562   -70459.811   -22639.211    23383.336    -55986.48   -5668.5604   -7051.7072    84.332263 
   68400    1854.5725   -108.98011    1.6780562   -107.30205     28558.44    4.3763512    4.3763512    4.3763512     28558.44    19979.883     4345.099    61350.338    45858.617    2352.7112   -2513.3531    83.817844 
   68500    1564.1938   -108.72242    1.4153154   -107.30711   -3487.1923    4.3830106    4.3830106    4.3830106   -3487.1923   -35554.644    7062.7671      18030.3   -50331.976   -12970.608    7001.4022    84.201063 
   68600    1382.6036   -108.57073    1.2510088   -107.31972   -14640.674    4.3821139    4.3821139    4.3821139   -14640.674    -13335.66   -15538.953    -15047.41   -38922.633   -4885.0783   -14913.557     84.14939 
   68700    2676.2751   -109.71402    2.4215499   -107.29247    11922.472    4.3810969    4.3810969    4.3810969    11922.472    42332.622   -2439.8306   -4125.3765     18565.39    2240.7274   -5086.9461     84.09082 
   68800    671.41821   -107.92579   0.60751331   -107.31828   -16841.025    4.3917902    4.3917902    4.3917902   -16841.025   -42239.427   -7564.0416   -719.60497   -64872.846    -10684.19     6053.326    84.708061 
   68900    2189.7461   -109.27862    1.9813283   -107.29729   -12485.476    4.3857628    4.3857628    4.3857628   -12485.476   -22401.459    30284.926   -45339.894    14581.912   -27318.927   -3875.7975    84.359778 
   69000    1591.1158    -108.7445     1.439675   -107.30482    8164.8622    4.3738607    4.3738607    4.3738607    8164.8622   -16262.838    18715.312    22042.112   -20675.493    10560.792    4063.0636     83.67483 
   69100     1080.753   -108.30549   0.97788802    -107.3276    -19432.13    4.3846978    4.3846978    4.3846978    -19432.13   -59806.225    30422.095   -28912.258   -43479.629    4364.4624    12876.437    84.298334 
   69200    2413.3827   -109.48197    2.1836794   -107.29829    14134.837    4.3801308    4.3801308    4.3801308    14134.837   -9285.1466    53134.941    -1445.284    22295.058   -16222.679   -951.88895    84.035201 
   69300    760.87625   -108.01595   0.68845682   -107.32749    -12167.05    4.3829811    4.3829811    4.3829811    -12167.05   -78299.706   -18304.758    60103.312   -35956.779    7699.8752   -3101.3981    84.199359 
   69400    2690.9999   -109.73363    2.4348732   -107.29875   -10285.406     4.383856     4.383856     4.383856   -10285.406   -45741.154    28806.838   -13921.904   -524.70282    3640.7581    3756.6296    84.249791 
   69500      1716.83   -108.86908    1.5534238   -107.31566    13072.233    4.3740336    4.3740336    4.3740336    13072.233   -39427.337    37366.498    41277.539   -24594.506   -11671.495   -8778.5406    83.684757 
   69600    1026.6019   -108.25864   0.92889101   -107.32974   -17333.869    4.3852091    4.3852091    4.3852091   -17333.869   -90480.851   -11310.907    49790.151   -3986.1683    14452.131   -1121.0336    84.327831 
   69700    2399.6738   -109.46878    2.1712753    -107.2975   -1616.3091    4.3846546    4.3846546    4.3846546   -1616.3091   -718.11218    35214.289   -39345.104    11857.174   -10926.705    21293.062    84.295846 
   69800     1328.467   -108.51083    1.2020248    -107.3088    12826.858    4.3787209    4.3787209    4.3787209    12826.858   -7527.6551    20391.923    25616.307   -34691.805   -14426.433    2765.9553    83.954077 
   69900    1731.3835   -108.87096    1.5665922   -107.30437   -5336.5815    4.3865245    4.3865245    4.3865245   -5336.5815   -53185.382   -4059.8626      41235.5    22729.457    6088.1669    2846.3568     84.40374 
   70000    1786.0698   -108.91915    1.6160735   -107.30307   -2224.5044    4.3820015    4.3820015    4.3820015   -2224.5044   -18832.549    54336.836     -42177.8     7837.469   -42965.994    18048.003    84.142916 
   70100    1502.4167   -108.67019    1.3594182   -107.31077   -3469.9451    4.3809645    4.3809645    4.3809645   -3469.9451   -18508.362   -4694.8766    12793.404   -45113.113   -5824.0193   -16955.669    84.083194 
   70200    2018.0092   -109.12828    1.8259372   -107.30234   -18240.709    4.3877667    4.3877667    4.3877667   -18240.709   -33686.009   -928.64232   -20107.477    24944.459   -11728.744   -8609.6358    84.475466 
   70300    1567.5852   -108.72276     1.418384   -107.30438   -21560.906     4.385268     4.385268     4.385268   -21560.906   -54949.608    36457.643   -46190.754   -14422.395   -59687.859    16495.543    84.331228 
   70400    1692.0113   -108.83211    1.5309673   -107.30114   -2039.7118    4.3782686    4.3782686    4.3782686   -2039.7118   -397.24674   -43054.475    37332.586   -46099.538    17837.823   -10956.805    83.928066 
   70500    1726.7695   -108.86726    1.5624173   -107.30484   -4121.9612    4.3789574    4.3789574    4.3789574   -4121.9612   -13751.776    2273.7296    -887.8375    33027.422   -36022.897   -11189.542    83.967683 
   70600     1599.135   -108.75886     1.446931   -107.31193   -18422.512    4.3887098    4.3887098    4.3887098   -18422.512   -33125.108   -32175.409    10032.979   -44198.898   -30599.355    8812.3236    84.529949 
   70700    1935.9199   -109.04812    1.7516611   -107.29646    -1726.717    4.3896289    4.3896289    4.3896289    -1726.717   -1274.8758   -20953.221    17047.945   -7790.2365    25522.979    1645.3745    84.583062 
   70800    1015.5715   -108.22521   0.91891048    -107.3063    12012.524    4.3814757    4.3814757    4.3814757    12012.524   -44337.672    17797.568    62577.675    22281.895   -40650.827   -11268.346    84.112633 
   70900    2721.4133   -109.74549    2.4623919    -107.2831    15903.395    4.3833176    4.3833176    4.3833176    15903.395   -3628.5396    -5356.786    56695.512   -7362.2251    11781.703    7386.2232    84.218755 
   71000    1274.2597   -108.46355     1.152977   -107.31057    5340.3601    4.3859457    4.3859457    4.3859457    5340.3601   -68900.468     65456.68    19464.869    10131.443   -33101.041   -2290.1219    84.370329 
   71100    1690.0344   -108.82796    1.5291786   -107.29878   -1743.2742    4.3888507    4.3888507    4.3888507   -1743.2742   -62854.421    13660.439     43964.16    25136.248   -11280.017   -2139.7281    84.538091 
   71200      2005.92   -109.10363    1.8149986   -107.28863   -8451.2826    4.3856499    4.3856499    4.3856499   -8451.2826    8586.0028   -15647.834   -18292.017   -13932.066   -6592.7331   -4948.9321    84.353263 
   71300    1217.2885   -108.40325    1.1014282   -107.30182   -357.84424    4.3795092    4.3795092    4.3795092   -357.84424   -57528.254    70683.079   -14228.357    7006.2092    -52994.21   -4241.9696    83.999427 
   71400    2510.1907   -109.55351    2.2712733   -107.28223   -10206.983    4.3935097    4.3935097    4.3935097   -10206.983     -10465.2   -27485.446    7329.6979   -5284.6059    21457.424   -818.10569    84.807598 
   71500    767.46169   -107.99896   0.69441546   -107.30455   -13696.056    4.3919433    4.3919433    4.3919433   -13696.056   -17200.464   -4040.8366   -19846.867   -5041.6214   -49404.916   -5081.7618    84.716924 
   71600    2520.0642   -109.55666     2.280207   -107.27646    12664.652    4.3897685    4.3897685    4.3897685    12664.652   -24465.383    44843.792    17615.546    6427.7665    -11934.08    380.14563    84.591133 
   71700    1593.8182    -108.7339    1.4421202   -107.29178   -20043.612    4.3909518    4.3909518    4.3909518   -20043.612   -4687.9704   -31716.732   -23726.133   -11772.453    4105.0919   -12781.209    84.659562 
   71800     1273.687   -108.44897    1.1524587   -107.29651     26092.12    4.3718127    4.3718127    4.3718127     26092.12    25852.229    47509.268    4914.8619   -4153.1321   -46846.326    3891.2285    83.557349 
   71900    1824.6357   -108.94723    1.6509688   -107.29626    -3437.102    4.3835476    4.3835476    4.3835476    -3437.102   -24817.341   -11183.963    25689.997    32015.761     33379.03    1503.7186    84.232012 
   72000    1531.7176   -108.68239    1.3859303   -107.29646   -15811.564    4.3958958    4.3958958    4.3958958   -15811.564   -16385.149   -28851.405   -2198.1371   -12189.802   -9869.1032   -18588.463    84.945849 
   72100    2129.5126   -109.20502    1.9268277    -107.2782    16845.604    4.3913472    4.3913472    4.3913472    16845.604    3609.9405    6909.8698    40017.002    30760.316   -11312.683   -8551.8342    84.682434 
   72200    1168.8867   -108.35159    1.0576332   -107.29396    2568.8568    4.3897482    4.3897482    4.3897482    2568.8568   -13508.496   -35464.756    56679.823     13084.87    26760.982   -4234.4519    84.589964 
   72300    2470.5244   -109.50416    2.2353824   -107.26878   -1620.9092    4.3915144    4.3915144    4.3915144   -1620.9092    4328.0571   -33586.906    24396.121   -25265.998   -7789.3902   -2529.6477    84.692105 
   72400    1549.3886   -108.69304    1.4019194   -107.29112    2193.5448    4.3830919    4.3830919    4.3830919    2193.5448    -8135.019   -279.01669     14994.67    72477.113    5205.8888    1770.8755    84.205749 
   72500    1453.7566   -108.61289    1.3153895    -107.2975    7601.3443    4.3845218    4.3845218    4.3845218    7601.3443    12003.565    -7030.617    17831.085   -42767.935    19654.049   -7330.5057    84.288186 
   72600    1793.1152   -108.91388    1.6224483   -107.29143    -31865.57    4.3963598    4.3963598    4.3963598    -31865.57   -38777.009   -44379.275   -12440.425    20997.661   -36931.016   -783.15239    84.972751 
   72700    1172.8667   -108.36569    1.0612344   -107.30446   -7402.2662    4.3782445    4.3782445    4.3782445   -7402.2662   -37331.075    5542.5259    9581.7503    41895.658     28064.26   -2685.8991    83.926677 
   72800     2338.132   -109.40799     2.115591    -107.2924    17264.908    4.3824421    4.3824421    4.3824421    17264.908   -12668.129    19995.897    44466.957   -11743.798    14619.419    12477.926      84.1683 
   72900    1454.5563   -108.62679    1.3161131   -107.31068   -34042.219    4.3926957    4.3926957    4.3926957   -34042.219   -90194.034   -64895.738    52963.115    62187.675   -13294.011    5533.8991    84.760472 
   73000     1515.962   -108.67652    1.3716743   -107.30484    12011.782    4.3720315    4.3720315    4.3720315    12011.782   -44873.185    34398.931      46509.6    2102.3168    42976.858   -3445.8434    83.569892 
   73100     2212.715   -109.30475    2.0021111   -107.30264   -7136.1304    4.3835124    4.3835124    4.3835124   -7136.1304   -29164.465   -60447.263    68203.337   -133.89188   -12931.486   -1171.8316    84.229984 
   73200    1641.4694   -108.79592     1.485236   -107.31068   -18281.078     4.385732     4.385732     4.385732   -18281.078   -58056.026   -39028.555    42241.348    34700.972    23639.041   -3506.2528       84.358 
   73300    1834.7203   -108.96328    1.6600935   -107.30318    25574.565    4.3790508    4.3790508    4.3790508    25574.565    23066.726    -3776.701     57433.67   -22915.402    29207.573    613.26123    83.973053 
   73400    1837.5339   -108.95993    1.6626393   -107.29729   -19290.308    4.3890277    4.3890277    4.3890277   -19290.308    -25221.73   -70349.323    37700.128   -1148.6187   -9810.6741   -2057.5498    84.548317 
   73500    1009.2994    -108.2201    0.9132353   -107.30686    2386.8406    4.3771662    4.3771662    4.3771662    2386.8406    6821.6308    21339.585   -21000.694    20077.633    79766.609   -5460.1926    83.864682 
   73600    2562.7567   -109.60009    2.3188361   -107.28125    8104.2107    4.3786601    4.3786601    4.3786601    8104.2107    48740.521   -39219.276    14791.388   -10644.664    -14280.07     2027.324    83.950578 
   73700    894.64573   -108.12341   0.80949426   -107.31391   -1233.5794    4.3917707    4.3917707    4.3917707   -1233.5794    25202.562   -44198.463    15295.163    20300.494    35939.139    3624.0803    84.706933 
   73800    1888.3067   -109.00387    1.7085796   -107.29529   -6634.4262    4.3948159    4.3948159    4.3948159   -6634.4262   -7964.7993   -10843.416   -1095.0633    9141.9795    41179.019   -2160.3456    84.883265 
   73900    1951.0465   -109.05375    1.7653479    -107.2884    -8527.856    4.3837374    4.3837374    4.3837374    -8527.856   -21181.301   -2365.2602   -2037.0072   -7795.5577   -53902.485   -3150.0314    84.242954 
   74000    1523.0599   -108.67597    1.3780966   -107.29788   -6489.7662    4.3775032    4.3775032    4.3775032   -6489.7662   -18133.195   -9721.3374    8385.2333    24838.135    59567.992   -1611.5675    83.884054 
   74100    2195.9675   -109.27644    1.9869575   -107.28948    386.90612    4.3784916    4.3784916    4.3784916    386.90612   -265.86053    3859.2709   -2432.6921   -5823.0632    -36941.93     306.2022    83.940887 
   74200    1416.3982    -108.5878    1.2815868   -107.30622    -16012.06    4.3924156    4.3924156    4.3924156    -16012.06   -17221.642   -22911.423   -7903.1144    10203.448   -30864.736   -91.331688    84.744259 
   74300    1849.6728   -108.96224    1.6736228   -107.28862   -8950.2078    4.3921458    4.3921458    4.3921458   -8950.2078    13133.974    -14001.56   -25983.037     22209.37     43528.55   -752.31031     84.72864 
   74400    1455.3042   -108.60365    1.3167899   -107.28686    27115.891    4.3800306    4.3800306    4.3800306    27115.891    34746.976    33947.329    12653.368    -13872.81    -66596.49    2168.8165    84.029431 
   74500    1730.4914   -108.85688     1.565785    -107.2911    4367.2356    4.3812907    4.3812907    4.3812907    4367.2356    30042.942   -42965.181    26023.946    47351.902    30102.937   -373.74454    84.101977 
   74600    1685.4012   -108.82186    1.5249864   -107.29687    -11183.16    4.3840769    4.3840769    4.3840769    -11183.16    8253.8079    2060.6377   -43863.926    6165.0283   -24522.174    8583.9311    84.262529 
   74700    2043.5257   -109.14517     1.849025   -107.29615   -10139.586    4.3887384    4.3887384    4.3887384   -10139.586   -17227.081    553.43891   -13745.116    9609.5762   -40015.518   -1353.2124    84.531598 
   74800    1727.6349   -108.86297    1.5632004   -107.29977   -21406.119    4.3940264    4.3940264    4.3940264   -21406.119    -7550.767   -43353.232   -13314.358    55244.588    26560.529   -5619.5249    84.837526 
   74900    1476.6656   -108.63664     1.336118   -107.30052   -11715.884    4.3839525    4.3839525    4.3839525   -11715.884   -3027.5151    27617.645   -59737.783   -16519.091   -50130.104    8155.2579    84.255357 
   75000    1971.6048    -109.0756    1.7839494   -107.29165    6978.3473    4.3830885    4.3830885    4.3830885    6978.3473    22422.157   -6367.9253    4880.8099    9787.4196     5451.396   -7917.1893    84.205549 
   75100    1459.5751   -108.62027    1.3206542   -107.29962    7701.5252    4.3843533    4.3843533    4.3843533    7701.5252    33795.675    22823.847   -33514.946    35850.027   -16816.015   -13602.936    84.278469 
   75200    1256.1182   -108.44465    1.1365622   -107.30809    488.81067    4.3799771    4.3799771    4.3799771    488.81067    4513.9782    17625.246   -20672.792   -34735.665   -18520.798    5752.5715    84.026353 
   75300    2159.0223   -109.25674    1.9535287   -107.30321   -2676.0277     4.384093     4.384093     4.384093   -2676.0277    25469.008   -33221.146   -275.94487   -8591.8585    9637.3718   -6873.1602    84.263458 
   75400    1702.3608   -108.85297    1.5403318   -107.31264   -13706.185    4.3835822    4.3835822    4.3835822   -13706.185   -17977.042    34043.764   -57185.276    10729.328   -47018.671   -6514.2924    84.234009 
   75500     1618.255   -108.77123    1.4642311     -107.307   -662.21948    4.3857106    4.3857106    4.3857106   -662.21948   -24400.798     22692.85   -278.71015   -43984.763    7668.0773   -273.94363    84.356766 
   75600    2078.2892   -109.17688    1.8804797    -107.2964   -8387.0218    4.3885559    4.3885559    4.3885559   -8387.0218    1755.5474   -25359.317    -1557.296    24568.906   -16853.761    5060.7284    84.521055 
   75700     1264.321   -108.44706    1.1439842   -107.30308    3412.8794    4.3876316    4.3876316    4.3876316    3412.8794   -8119.7357    44757.714    -26399.34   -911.04673   -41653.339   -10107.108    84.467659 
   75800    2250.3354   -109.30536    2.0361507   -107.26921   -10475.765    4.4028728    4.4028728    4.4028728   -10475.765    7305.7921   -9722.5303   -29010.558   -15523.249    18428.067    16847.772    85.350959 
   75900    878.53309   -108.08266    0.7949152   -107.28775   -20296.123    4.3980061    4.3980061    4.3980061   -20296.123   -26116.416   -6800.4643    -27971.49    44381.426   -49738.909    11174.165    85.068246 
   76000    2307.8359   -109.34852    2.0881784   -107.26034    22318.139    4.3776646    4.3776646    4.3776646    22318.139    29073.568     29439.53    8441.3195   -14789.127   -2337.6791    -10705.82    83.893332 
   76100    1419.3597   -108.58031    1.2842665   -107.29604    8972.9168    4.3795505    4.3795505    4.3795505    8972.9168    43895.935   -28637.497    11660.313    22213.083   -14565.216    32835.472    84.001802 
   76200    1359.9239   -108.53659    1.2304878   -107.30611    7844.1777    4.3911691    4.3911691    4.3911691    7844.1777   -974.04272   -7112.4566    31619.032    26344.585   -42440.858   -22486.815    84.672131 
   76300    2173.6195   -109.24171    1.9667366   -107.27498   -10650.634    4.4104344    4.4104344    4.4104344   -10650.634    984.10004     2552.945   -35488.947   -7244.3235    12072.449    29995.686    85.791467 
   76400    991.42296   -108.16668   0.89706033   -107.26962   -20198.904    4.4123984    4.4123984    4.4123984   -20198.904   -50883.807      32194.8   -41907.706    28488.273   -43529.704    20718.754    85.906129 
   76500    2448.9609   -109.45608    2.2158713   -107.24021     13807.04    4.3782681    4.3782681    4.3782681     13807.04   -83.422691    38327.925    3176.6169   -16331.964    7882.7525    -14507.45    83.928037 
   76600    998.79603   -108.18715   0.90373164   -107.28342    5790.4094    4.3629022    4.3629022    4.3629022    5790.4094    29617.457    3191.3966   -15437.625    4179.1905   -27151.404    61118.371    83.047477 
   76700    1637.1867    -108.8007     1.481361   -107.31934   -13766.538    4.3834934    4.3834934    4.3834934   -13766.538   -36262.581    13373.112   -18410.146    24872.019   -51961.853    -9749.795    84.228886 
   76800    2215.8567   -109.30713    2.0049538   -107.30217   -18774.263    4.4097352    4.4097352    4.4097352   -18774.263    9569.3917   -36532.942   -29359.239   -16220.776    19750.451    30969.794    85.750673 
   76900    846.99427   -108.04777   0.76637822   -107.28139   -27938.894    4.4140725    4.4140725    4.4140725   -27938.894   -12460.463   -12699.627   -58656.591    23661.835   -48400.912    32478.246    86.003949 
   77000    2482.6717   -109.48857    2.2463735    -107.2422    14360.271    4.3767778    4.3767778    4.3767778    14360.271   -1157.9746    22828.612    21410.177   -4427.0495    9711.8205   -21265.306    83.842361 
   77100    973.81965   -108.15462   0.88113249   -107.27349   -9383.4649    4.3624288    4.3624288    4.3624288   -9383.4649    28136.068    -7696.753   -48589.709    10463.115     -33561.5     58731.42    83.020444 
   77200    1917.4752   -109.03906    1.7349719   -107.30409   -5191.4874    4.3736581    4.3736581    4.3736581   -5191.4874   -29414.237    18554.712    -4714.938    18687.012   -39378.645   -3701.6562    83.663202 
   77300    2175.3708   -109.27722    1.9683212    -107.3089   -6136.9366    4.4020828    4.4020828    4.4020828   -6136.9366   -168.88568    3007.9579   -21249.882   -9646.0745    20448.828    21492.208    85.305027 
   77400    985.05742   -108.20297   0.89130065   -107.31167   -27622.367    4.4039214    4.4039214    4.4039214   -27622.367   -51365.118    22919.725    -54421.71    6043.3826   -73036.487     36848.87    85.411956 
   77500    2704.2618   -109.70785    2.4468729   -107.26098    28719.994    4.3742439    4.3742439    4.3742439    28719.994    10480.315    23385.065    52294.603   -9057.6252    26018.981   -17141.678    83.696827 
   77600    1087.1494   -108.27915   0.98367561   -107.29548   -14011.372    4.3726612    4.3726612    4.3726612   -14011.372    5810.6664    5785.5312   -53630.312    10037.522   -32863.038    61640.819     83.60601 
   77700    1679.6489   -108.83584    1.5197816   -107.31605     5049.022    4.3833171    4.3833171    4.3833171     5049.022    -30385.55      42506.6    3026.0162   -5844.0188    -34132.14   -2284.8099    84.218729 
   77800    2468.0258   -109.52844    2.2331216   -107.29532   -15259.543    4.3992231    4.3992231    4.3992231   -15259.543    11606.625   -48135.056   -9250.1965    412.45734    16443.536    14894.776    85.138883 
   77900    605.21184   -107.87739   0.54760839   -107.32978   -22411.284    4.3864537    4.3864537    4.3864537   -22411.284    -27305.79   -15718.552    -24209.51    6863.4577   -82517.086    43795.082     84.39965 
   78000    2579.5629   -109.63044    2.3340428   -107.29639    26217.657    4.3633648    4.3633648    4.3633648    26217.657    34519.587   -4965.0411    49098.424    2502.4414     14224.97   -13590.046    83.073895 
   78100    1637.8138   -108.81401    1.4819283   -107.33208   -6776.9775    4.3723941    4.3723941    4.3723941   -6776.9775   -16915.665    17535.294   -20950.561    2258.2705   -43929.964    14103.931    83.590688 
   78200    982.20516   -108.23016   0.88871987   -107.34144   -12662.272    4.3890838    4.3890838    4.3890838   -12662.272   -8325.8007    20790.461   -50451.476    8066.8107   -50657.928    25120.392    84.551557 
   78300    2764.5883   -109.79127    2.5014576   -107.28981   -11542.863    4.3986283    4.3986283    4.3986283   -11542.863   -28075.217   -20214.827    13661.455    7826.2954    16851.724   -17280.808    85.104354 
   78400    604.96378   -107.86743   0.54738394   -107.32004   -31108.891    4.3916123    4.3916123    4.3916123   -31108.891    -37272.32    23581.375   -79635.728   -2993.4792   -85408.915    41305.804    84.697768 
   78500    2295.6889   -109.37523    2.0771876   -107.29805    24950.254     4.361739     4.361739     4.361739    24950.254    45540.236    -1939.528    31250.054    2944.5242     12829.46    33151.958    82.981067 
   78600    2126.7963   -109.23904      1.92437   -107.31467    21162.685    4.3666056    4.3666056    4.3666056    21162.685    19524.444    40307.599    3656.0121   -10937.941   -45081.061   -13394.811    83.259136 
   78700    980.94614   -108.22432   0.88758068   -107.33674   -19741.931    4.3909967    4.3909967    4.3909967   -19741.931     15319.06   -16044.467   -58500.387    2595.8801   -40717.802    69386.841    84.662157 
   78800    2552.3504   -109.60351    2.3094203   -107.29409   -8601.5137    4.4003525    4.4003525    4.4003525   -8601.5137    4085.5327   -14921.288   -14968.786   -633.03812    14126.256   -21487.453    85.204477 
   78900    1173.7014   -108.36349    1.0619897    -107.3015   -34077.925    4.3922157    4.3922157    4.3922157   -34077.925   -24683.821   -19138.228   -58411.726    175.32951   -54329.319    41684.206    84.732686 
   79000    1446.5375   -108.61828    1.3088575   -107.30942    3770.0608    4.3726895    4.3726895    4.3726895    3770.0608    34553.944   -18409.596   -4834.1655   -1211.1503   -9416.5166    60396.303     83.60763 
   79100    2636.9788   -109.67909    2.3859938    -107.2931    11743.868    4.3719386    4.3719386    4.3719386    11743.868   -12622.499   -6515.7189    54369.821   -4617.9168    2017.7665   -15887.237    83.564566 
   79200    574.22365   -107.84709   0.51956963   -107.32752   -12537.903    4.3909969    4.3909969    4.3909969   -12537.903   -336.93919   -8007.3939   -29269.376    3711.0992   -53984.808    80801.308    84.662171 
   79300    2630.5262   -109.66267    2.3801554   -107.28252   -15904.333    4.4011785    4.4011785    4.4011785   -15904.333   -26796.441   -19306.887   -1609.6723   -2329.7935    9925.4902   -35963.246    85.252463 
   79400    926.98922   -108.14342   0.83875932   -107.30466   -11600.637    4.3860048    4.3860048    4.3860048   -11600.637    45189.989   -61048.973   -18942.927    2513.2358    -12539.84    62196.605    84.373743 
   79500    1434.3256   -108.61005    1.2978079   -107.31224   -3290.8616    4.3640648    4.3640648    4.3640648   -3290.8616    8831.7196    26799.619   -45503.924    1112.6844   -57446.617    28231.692    83.113883 
   79600    2655.5284    -109.7066    2.4027779   -107.30382    23477.837    4.3683285    4.3683285    4.3683285    23477.837    37681.856    2608.5665    30143.089   -4384.2334    16666.821    125.05925    83.357729 
   79700    1084.5861   -108.31841   0.98135626   -107.33705   -20122.117    4.3922133    4.3922133    4.3922133   -20122.117    46263.197   -38932.475   -67697.072    11327.712   -37940.686    77225.918    84.732549 
   79800    2239.4409   -109.31822    2.0262932   -107.29193     2941.687    4.4012626    4.4012626    4.4012626     2941.687   -6773.7973    8204.4942    7394.3643    -10356.18   -15103.305   -29313.559    85.257355 
   79900    1564.7691   -108.70103     1.415836   -107.28519   -18175.731    4.3919801    4.3919801    4.3919801   -18175.731    18726.858   -61408.993   -11845.059    14113.176    2975.3537    52949.669    84.719051 
   80000    1048.8061   -108.24691   0.94898177   -107.29793   -4402.2105    4.3689929    4.3689929    4.3689929   -4402.2105    -28496.72    15333.622   -43.532688    1407.4891   -73366.294    15177.677    83.395771 
   80100    2630.9064   -109.65625    2.3804994   -107.27575    7159.7721    4.3662891    4.3662891    4.3662891    7159.7721    4714.4837   -22439.311    39204.144   -373.34225    17131.115    10575.044    83.241035 
   80200     1036.928   -108.25878   0.93823424   -107.32054   -27812.148    4.3897142    4.3897142    4.3897142   -27812.148   -30020.139   -19978.024   -33438.281     12526.01   -36998.775    55611.771    84.587997 
   80300    1905.9278   -109.02608    1.7245235   -107.30156   -11402.893     4.394356     4.394356     4.394356   -11402.893   -45477.758    47053.007   -35783.929     -2156.29   -31809.719   -18985.072    84.856618 
   80400    1979.1287   -109.08182    1.7907572   -107.29106   -8955.2044    4.3845544    4.3845544    4.3845544   -8955.2044   -4774.8689   -7677.4784   -14413.266    7220.8849    20062.849    35399.162    84.290066 
   80500    822.33281   -108.06117   0.74406401   -107.31711   -11246.886    4.3788038    4.3788038    4.3788038   -11246.886    3787.8914    23622.569   -61151.119     15499.43   -73495.252    37657.009    83.958847 
   80600    2758.3297   -109.78159    2.4957946    -107.2858    7172.0244    4.3844319    4.3844319    4.3844319    7172.0244    27261.323     3905.899    -9651.149   -8031.7797    17409.683   -21032.747       84.283 
   80700    1008.0043   -108.22313   0.91206347   -107.31107   -27715.412    4.4025921    4.4025921    4.4025921   -27715.412   -13589.486    -14324.45   -55232.299     11487.68   -48040.664    40789.061     85.33464 
   80800     1955.266   -109.05662    1.7691658   -107.28745   -22480.338    4.3913598    4.3913598    4.3913598   -22480.338   -21066.497   -19441.306   -26933.212    2667.6869   -32854.871   -1060.7817    84.683161 
   80900    2300.6642    -109.3631    2.0816893   -107.28141    21944.737    4.3639374    4.3639374    4.3639374    21944.737    28566.684    16344.035    20923.491    -3555.435   -3184.3672   -23922.636    83.106607 
   81000    591.02998    -107.8607   0.53477634   -107.32592   -5700.9285    4.3698749    4.3698749    4.3698749   -5700.9285   -40199.232    43196.036   -20099.589     24207.22   -76705.292    48857.604    83.446283 
   81100    2838.1003   -109.87089    2.5679728   -107.30292   -8997.8387    4.3906698    4.3906698    4.3906698   -8997.8387   -21221.715   -2011.8977   -3759.9035   -19084.407    34078.687   -24458.718     84.64325 
   81200    952.04297   -108.16395   0.86142849   -107.30252   -49635.158    4.4148747    4.4148747    4.4148747   -49635.158   -71823.245    8464.1624   -85546.391    17913.364   -73987.228    24684.129    86.050846 
   81300    1894.3641   -108.98073    1.7140604   -107.26667   -13598.248    4.3929456    4.3929456    4.3929456   -13598.248   -1614.3125    10828.887    -50009.32    7747.3198    4733.2219     20759.19    84.774937 
   81400    1894.1685   -108.96533    1.7138834   -107.25145    -1193.863    4.3657685    4.3657685    4.3657685    -1193.863   -10183.921     25560.15   -18957.818   -6427.9204   -41373.686   -4476.4307    83.211263 
   81500    635.95479   -107.87159   0.57542526   -107.29616   -21556.546    4.3730907    4.3730907    4.3730907   -21556.546   -12309.857    10.198357   -52369.978    14941.815   -54736.922    44248.873    83.630644 
   81600     2686.445   -109.72384    2.4307519   -107.29309    4332.3622    4.3850627    4.3850627    4.3850627    4332.3622    13933.831   -11033.889    10097.144   -19389.253     22041.69    -6787.476    84.319382 
   81700    1066.7455   -108.27735   0.96521373   -107.31214   -45651.056    4.4043138    4.4043138    4.4043138   -45651.056   -54661.741   -9548.6275     -72742.8    16338.991   -81371.938    22608.314    85.434791 
   81800    1784.6095   -108.91739    1.6147522   -107.30264    -10892.24    4.3800673    4.3800673    4.3800673    -10892.24    2740.0284   -37183.144    1766.3957    11853.301    12057.197     36301.18    84.031544 
   81900    1803.6867   -108.92126    1.6320136   -107.28924   -6558.9319    4.3642006    4.3642006    4.3642006   -6558.9319   -63102.127    66497.193   -23071.862   -10821.678   -32644.959   -14984.591    83.121644 
   82000     1223.849   -108.42753    1.1073643   -107.32016   -5011.7243    4.3694873    4.3694873    4.3694873   -5011.7243   -33371.307    11861.663    6474.4707    17957.967   -51428.229    19815.435    83.424085 
   82100    2749.7249   -109.79097    2.4880088   -107.30297     425.0194    4.3858473    4.3858473    4.3858473     425.0194   -17366.644   -13200.222    31841.924    11962.874    10397.656    766.13612    84.364654 
   82200    660.22791   -107.92304   0.59738809   -107.32565    -28750.87    4.3966598    4.3966598    4.3966598    -28750.87   -110755.02    66271.547   -41769.134   -3235.6272   -59219.171   -3170.5015    84.990149 
   82300    2465.7413   -109.51652    2.2310546   -107.28547    5638.7311    4.3841917    4.3841917    4.3841917    5638.7311   -32787.381    -3676.696     53380.27    2667.6027    21527.921   -124.61746    84.269149 
   82400    1432.6038   -108.59882      1.29625   -107.30257    29775.156    4.3673947    4.3673947    4.3673947    29775.156    2328.4137    36889.888    50107.167   -3965.3216   -44804.679    2640.9147    83.304284 
   82500    1286.9098   -108.48055     1.164423   -107.31613    3532.6931    4.3709604    4.3709604    4.3709604    3532.6931    -64491.45    66404.027    8685.5023    -12199.75   -15537.735   -5384.6108    83.508487 
   82600    2181.0596   -109.27177    1.9734685    -107.2983    5519.9031    4.3875106    4.3875106    4.3875106    5519.9031    4173.7277   -7354.6385     19740.62    9775.6708    19144.273    16072.621    84.460671 
   82700    1081.9703    -108.2862   0.97898949   -107.30721    3608.8205     4.390916     4.390916     4.390916    3608.8205   -9718.6311    44717.569   -24172.476   -909.26667   -62263.258    9622.4281    84.657488 
   82800    2553.0139   -109.58174    2.3100206   -107.27172    3939.0677    4.3926597    4.3926597    4.3926597    3939.0677    -6497.231    21123.588   -2809.1544   -5794.3602     8051.118   -15805.406    84.758389 
   82900    1259.6913   -108.43312    1.1397952   -107.29333    13365.553    4.3836857    4.3836857    4.3836857    13365.553    25107.183    23950.164    -8960.688    33830.499   -30725.318    37586.661    84.239974 
   83000    2062.5893    -109.1449    1.8662741   -107.27863    17435.886    4.3783405    4.3783405    4.3783405    17435.886    10778.709    59096.577    -17567.63   -17977.675   -32427.649   -26137.633    83.932201 
   83100    1739.4125   -108.86094     1.573857   -107.28709   -7284.4458    4.3925462    4.3925462    4.3925462   -7284.4458   -36959.404    5266.1312    9839.9354    44189.643    22653.477   -2924.7128    84.751819 
   83200    1638.7819   -108.76972    1.4828043   -107.28691    -3309.256    4.3914916    4.3914916    4.3914916    -3309.256   -5791.5711    40586.544   -44722.741    847.02319   -49953.365    24293.068    84.690786 
   83300    2089.2696   -109.17214    1.8904151   -107.28172   -7463.3431     4.382055     4.382055     4.382055   -7463.3431   -16143.024   -25429.796    19182.791     17175.23   -2251.7487   -22673.053    84.145999 
   83400    1299.0095   -108.48271    1.1753711   -107.30734   -3434.3025    4.3742003    4.3742003    4.3742003   -3434.3025    -37810.21    4522.3674    22984.935     41723.54    9169.1217   -9810.7422    83.694325 
   83500    1256.3421   -108.46026    1.1367647   -107.32349     8095.785    4.3746123    4.3746123    4.3746123     8095.785   -13382.455    54744.667   -17074.856    -12827.72   -41050.761    11048.206    83.717974 
   83600     2118.453   -109.22654    1.9168208   -107.30972   -11800.266    4.3930446    4.3930446    4.3930446   -11800.266   -47141.571   -24119.839    35860.611    20666.294    15952.462   -6276.0734    84.780671 
   83700    1268.7784   -108.45893    1.1480174   -107.31091   -9678.6588    4.3933252    4.3933252    4.3933252   -9678.6588   -54610.725    42238.631   -16663.882    17351.446   -36236.938    2686.0781    84.796918 
   83800    1931.5543   -109.03776    1.7477109   -107.29005   -2053.5949    4.3860524    4.3860524    4.3860524   -2053.5949   -13713.401    8998.0699   -1445.4537   -20165.225   -2943.6277    13021.056    84.376488 
   83900    1612.5783   -108.75312    1.4590947   -107.29402   -4013.0094    4.3795931    4.3795931    4.3795931   -4013.0094   -43176.812   -10044.568    41182.352    2670.9004   -2082.7226   -13939.033    84.004256 
   84000    1483.9997   -108.65037    1.3427541   -107.30762     19927.92    4.3710066    4.3710066    4.3710066     19927.92   -13385.772    87438.383   -14268.852    18440.907   -68922.008   -7293.0735    83.511137 
   84100    2490.4154   -109.55559    2.2533802   -107.30221    11920.359    4.3819378    4.3819378    4.3819378    11920.359   -4994.8629   -22076.791    62832.731   -34575.658    28547.974    1547.1321    84.139248 
   84200    945.55931   -108.17962   0.85556194   -107.32406   -2471.1813    4.3856932    4.3856932    4.3856932   -2471.1813   -16613.353   -3041.6388    12241.448    12612.821   -55290.716   -10426.781    84.355758 
   84300    2033.7363     -109.135    1.8401673   -107.29483    2108.6011     4.393326     4.393326     4.393326    2108.6011   -1144.9713    3196.2421    4274.5326    11713.238    4957.0982   -1662.7901    84.796963 
   84400    1634.8786   -108.76019    1.4792725   -107.28092    -14386.55     4.400469     4.400469     4.400469    -14386.55    -41009.69    18556.194   -20706.154   -42337.754   -14993.765     3953.567    85.211243 
   84500    1538.5366   -108.66517    1.3921002   -107.27307    11362.273    4.3805227    4.3805227    4.3805227    11362.273   -16896.187    53113.021   -2130.0133    15628.381   -48322.873   -17366.721     84.05776 
   84600     2075.606   -109.14515    1.8780519    -107.2671    19141.759    4.3734868    4.3734868    4.3734868    19141.759   -15570.228    34799.091    38196.413   -14195.015    20188.394    3771.8843    83.653374 
   84700    1105.3368   -108.30827     1.000132   -107.30814   -26118.216    4.3801362    4.3801362    4.3801362   -26118.216   -94012.427    48101.955   -32444.175   -27086.893   -82486.093   -89.884062    84.035509 
   84800    2184.8761   -109.27216    1.9769218   -107.29524    278.42135     4.381974     4.381974     4.381974    278.42135    7680.5814   -24325.682    17480.364    12129.379    19998.739   -2217.1473    84.141334 
   84900    1474.8808    -108.6443    1.3345031    -107.3098   -14479.958    4.3862106    4.3862106    4.3862106   -14479.958   -39927.341    3869.4685   -7382.0009   -20758.203    -41762.21    4274.6734    84.385617 
   85000    1757.5676   -108.89348    1.5902841   -107.30319   -2827.6593    4.3839352    4.3839352    4.3839352   -2827.6593   -51519.636     17654.06    25382.598   -5741.0106   -17367.562   -7302.2365    84.254356 
   85100    1853.1169    -108.9787    1.6767391   -107.30196   -3696.9833    4.3781404    4.3781404    4.3781404   -3696.9833    36200.797   -43208.481   -4083.2654    9769.8254    26665.716   -4248.3559    83.920694 
   85200     1642.242   -108.79364     1.485935   -107.30771   -5639.7298     4.376536     4.376536     4.376536   -5639.7298   -19799.207   -33323.199    36203.216   -23921.724   -33670.575    19722.158    83.828462 
   85300    1625.8881   -108.78992    1.4711377   -107.31878    9883.4754    4.3793198    4.3793198    4.3793198    9883.4754   -16933.495   -404.52137    46988.443    14412.434    36838.694   -12120.097    83.988531 
   85400    2216.4949   -109.31463    2.0055312    -107.3091   -1743.3335     4.381943     4.381943     4.381943   -1743.3335    24278.957   -36538.953    7029.9954   -3383.6116   -2098.7889    15875.639    84.139549 
   85500    870.46268   -108.12261   0.78761293     -107.335   -18629.233    4.3810959    4.3810959    4.3810959   -18629.233   -40805.902   -55716.234    40634.438   -27690.045   -10471.198    14948.956    84.090758 
   85600    1637.0332   -108.81407    1.4812221   -107.33285   -7371.8372    4.3770293    4.3770293    4.3770293   -7371.8372   -16629.069   -21638.965    16152.522    23927.259    31683.641   -12931.995    83.856817 
   85700    2209.8522   -109.31932    1.9995207    -107.3198    5677.1554    4.3828949    4.3828949    4.3828949    5677.1554    35026.673   -40512.962    22517.755   -25035.391   -19141.082    653.01907    84.194392 
   85800    1328.0859   -108.52001      1.20168   -107.31833   -31306.044     4.396833     4.396833     4.396833   -31306.044     -53684.5   -62490.666    22257.036   -9526.6342     5181.937    10623.057    85.000192 
   85900    1754.0753   -108.90142    1.5871242   -107.31429    1554.2437    4.3782996    4.3782996    4.3782996    1554.2437    37201.165   -36033.629    3495.1947    13799.334    10198.824   -45973.911    83.929844 
   86000     2261.326   -109.35808    2.0460953   -107.31199    18314.154    4.3625508    4.3625508    4.3625508    18314.154    31254.499   -26181.592    49869.556   -13718.528    -8737.817    1688.8967    83.027412 
   86100    1800.8021   -108.96427    1.6294036   -107.33487    1034.8098    4.3723435    4.3723435    4.3723435    1034.8098   -16970.137    -11622.31    31696.876    14740.507    14860.881   -15733.786    83.587784 
   86200    1174.8569   -108.41312    1.0630352   -107.35008   -6387.3346    4.3846501    4.3846501    4.3846501   -6387.3346    34507.023   -57213.878    3544.8511      3756.81    6762.4228   -23292.711    84.295583 
   86300    2166.4244   -109.28325    1.9602263   -107.32302   -19025.107     4.395386     4.395386     4.395386   -19025.107   -13238.885   -52363.531    8527.0956   -5614.9641    998.48552    46602.626    84.916301 
   86400     1525.027   -108.68102    1.3798765   -107.30114    14239.119    4.3930755    4.3930755    4.3930755    14239.119    3099.0339    18907.293    20711.032    31146.013    23128.463   -37866.133    84.782455 
   86500    1362.3212   -108.51134    1.2326569   -107.27868    10231.391    4.3931891    4.3931891    4.3931891    10231.391    57102.158   -32235.758    5827.7735    4466.8216   -1420.6663    40868.469    84.789035 
   86600    1991.3415   -109.06354    1.8018076   -107.26174   -12925.529    4.3948045    4.3948045    4.3948045   -12925.529   -32098.545    -30131.28    23453.237    14096.362    14781.877    13432.134    84.882603 
   86700    1493.9075   -108.63432    1.3517189    -107.2826   -2843.0332    4.3822521    4.3822521    4.3822521   -2843.0332   -38.577489   -13995.845    5505.3228    15789.083    7859.0407   -16290.783    84.157353 
   86800    1462.7735   -108.63492    1.3235482   -107.31137    15008.481    4.3687225    4.3687225    4.3687225    15008.481     52726.94   -33099.193    25397.696   -13613.054   -9712.6984    35976.819    83.380288 
   86900    2473.3847   -109.55856    2.2379704   -107.32059    22672.681    4.3715291    4.3715291    4.3715291    22672.681   -11203.508    25338.422     53883.13    6000.1238   -13782.575   -4963.6117    83.541089 
   87000    1870.5251   -109.03404    1.6924904   -107.34155   -4587.4061    4.3876845    4.3876845    4.3876845   -4587.4061    31585.324   -49608.156    4260.6131   -3568.3026    15606.846    9980.7499    84.470713 
   87100    927.50708   -108.18417   0.83922789   -107.34494   -16274.524    4.3926909    4.3926909    4.3926909   -16274.524    959.57014   -59414.541     9631.399   -15305.274   -17126.968    9906.2625    84.760191 
   87200    2019.0205   -109.14375    1.8268522    -107.3169   -2864.9607      4.37877      4.37877      4.37877   -2864.9607   -59384.368   -5415.4668    56204.953   -15483.453   -3885.3808   -1700.0747    83.956902 
   87300    1526.3182   -108.70641    1.3810448   -107.32537    5893.5601     4.363772     4.363772     4.363772    5893.5601    10409.507   -18775.604    26046.777    9211.3714    24101.397    26305.615    83.097153 
   87400     1586.697   -108.77202    1.4356768   -107.33635    13564.719    4.3731924    4.3731924    4.3731924    13564.719    14110.633   -46141.839    72725.363   -11918.908   -21315.986   -20782.175    83.636481 
   87500    1652.4928   -108.82539    1.4952102   -107.33018   -14905.207    4.3979687    4.3979687    4.3979687   -14905.207   -44665.338   -26176.271    26125.989   -27748.705    40457.678   -1229.2706    85.066074 
   87600    2104.4187   -109.20792    1.9041222   -107.30379   -4075.9274    4.3972274    4.3972274    4.3972274   -4075.9274    44969.666    -48042.18   -9155.2678    13040.172    11468.677   -2079.9299     85.02307 
   87700    1103.3245   -108.30127   0.99831122   -107.30296    4131.7499    4.3886304    4.3886304    4.3886304    4131.7499    78827.878   -72028.357    5595.7279    -49919.47    6719.4687   -30479.053    84.525359 
   87800    1829.9782   -108.94274    1.6558027   -107.28693    4298.0569    4.3865352    4.3865352    4.3865352    4298.0569    15399.704   -28447.602    25942.069    7757.5588     36340.99    13041.304    84.404355 
   87900    1675.2478   -108.81453    1.5157994   -107.29873   -741.61794    4.3877164    4.3877164    4.3877164   -741.61794    62447.221   -46075.067   -18597.007    13131.422   -4250.5437    -20819.83    84.472561 
   88000    1636.9682   -108.78353    1.4811632   -107.30237    -9861.396    4.3930569    4.3930569    4.3930569    -9861.396     52030.05   -59727.952   -21886.287   -21515.233    6823.8206   -12183.463    84.781379 
   88100    1073.8465   -108.28403   0.97163887   -107.31239    7860.6555    4.3829628    4.3829628    4.3829628    7860.6555    18993.724   -34980.427    39568.669    66517.807    31601.434   -3597.1093    84.198304 
   88200    2411.4176   -109.47042    2.1819013   -107.28852     7980.963     4.387397     4.387397     4.387397     7980.963    74754.373   -26295.222   -24516.262   -9695.4474   -20442.686   -10684.314    84.454115 
   88300    977.14893   -108.17896   0.88414489   -107.29482   -35785.592    4.4080711    4.4080711    4.4080711   -35785.592   -26338.297   -78902.374   -2116.1066    65294.188    19141.664    8648.1477    85.653631 
   88400     2037.747    -109.1152    1.8437963    -107.2714   -2343.9003    4.3999764    4.3999764    4.3999764   -2343.9003   -31360.502   -11151.389    35480.189    1748.4172    13666.324     6364.487    85.182631 
   88500    1812.6241   -108.91477    1.6401004   -107.27467    6202.8154    4.3780315    4.3780315    4.3780315    6202.8154   -20419.371    45084.189    -6056.372    19760.813   -32754.813   -9871.7489     83.91443 
   88600     1191.433   -108.37916    1.0780336   -107.30112    2351.3692    4.3699277    4.3699277    4.3699277    2351.3692    -45984.92    13662.761    39376.266    47718.918    42196.353    298.99045    83.449312 
   88700    2410.9315   -109.47374    2.1814614   -107.29228    9289.4779    4.3859037    4.3859037    4.3859037    9289.4779    6659.9337    8531.1608    12677.339   -16488.364   -2185.3828   -3239.2664    84.367905 
   88800    1265.0448   -108.45387    1.1446391   -107.30923   -12418.005    4.3975084    4.3975084    4.3975084   -12418.005   -29613.985   -7624.1094   -15.921855    57697.397   -18955.342    1315.9541    85.039369 
   88900    1982.3223   -109.08371    1.7936469   -107.29006    6279.5278     4.391735     4.391735     4.391735    6279.5278    1864.1723    3510.0524    13464.359   -11782.899     36244.51    1099.8363    84.704871 
   89000    1562.0742   -108.70566    1.4133976   -107.29226    -12324.63    4.3854619    4.3854619    4.3854619    -12324.63   -11093.482   -66637.515    40757.106    46999.239   -18223.581     1392.128    84.342413 
   89100    1485.3871   -108.64955    1.3440094   -107.30554   -2712.4691    4.3760632    4.3760632    4.3760632   -2712.4691   -19323.209   -42518.517    53704.319    32991.911   -1162.3505   -2156.3591    83.801302 
   89200    2560.1223   -109.61887    2.3164525   -107.30242    4010.2272    4.3774209    4.3774209    4.3774209    4010.2272    21527.604   -28035.397    18538.475   -19708.662    21877.258    6174.3006    83.879323 
   89300     955.3563   -108.20002   0.86442646    -107.3356   -31716.631    4.3902119    4.3902119    4.3902119   -31716.631   -27699.188   -99345.256    31894.551    78987.495   -15628.937    1592.9493    84.616771 
   89400    1367.2628   -108.57045    1.2371282   -107.33333   -4215.5518    4.3844434    4.3844434    4.3844434   -4215.5518    24008.979   -43237.078    6581.4438   -44374.121   -11195.862     -1813.06    84.283665 
   89500    2470.2218   -109.54128    2.2351086   -107.30617    7279.1777    4.3806346    4.3806346    4.3806346    7279.1777    29307.755   -27871.649    20401.427    20869.386    14647.889   -4085.9101    84.064198 
   89600    1426.8354   -108.60385    1.2910306   -107.31282     1277.671    4.3858869    4.3858869    4.3858869     1277.671    14680.463   -47399.429    36551.979    3473.6162   -4103.8604    8029.6285    84.366937 
   89700    1620.8868   -108.77134    1.4666124   -107.30473   -7376.9076    4.3874283    4.3874283    4.3874283   -7376.9076    1650.3853   -26010.294    2229.1862   -28520.688   -9381.2386   -11356.601    84.455919 
   89800    1906.4531   -109.01456    1.7249988   -107.28956   -6695.4084    4.3876181    4.3876181    4.3876181   -6695.4084    -906.8584   -40930.671    21751.304    14646.032    31621.638   -14296.659    84.466881 
   89900    1438.4749   -108.60572    1.3015623   -107.30416   -3071.0619    4.3846895    4.3846895    4.3846895   -3071.0619   -30076.187   -10592.972    31455.973   -41912.677   -37893.977    12090.359    84.297856 
   90000    1928.8008   -109.03716    1.7452195   -107.29194    20633.732    4.3791762    4.3791762    4.3791762    20633.732   -9157.7169    59218.098    11840.815    14418.641     30874.75   -21555.717    83.980271 
   90100    1644.2763   -108.79022    1.4877758   -107.30244    1595.2639    4.3833981    4.3833981    4.3833981    1595.2639   -40214.151   -10474.954    55474.896   -37987.985    28824.463   -630.34563    84.223394 
   90200    1909.9699   -109.02352    1.7281809   -107.29534   -15105.348    4.3879505    4.3879505    4.3879505   -15105.348    -42705.15   -6200.8096    3589.9159   -34319.959   -43522.917    10597.942    84.486081 
   90300    1641.6602   -108.77175    1.4854086   -107.28634    1433.7407    4.3811911    4.3811911    4.3811911    1433.7407   -20030.017    33560.369   -9229.1301    23447.972    59722.441    -14675.77    84.096242 
   90400    1494.1555   -108.65195    1.3519433   -107.30001   -21870.514    4.3862585    4.3862585    4.3862585   -21870.514   -49264.734   -36459.926    20113.119   -66774.744   -9492.6297    2352.7621    84.388381 
   90500    2081.0598     -109.171    1.8829866   -107.28802   -9338.3132    4.3832904    4.3832904    4.3832904   -9338.3132   -16540.307    648.07019   -12122.703    7456.4592   -3510.9342   -3862.7793    84.217187 
   90600    1127.3236   -108.32552    1.0200261   -107.30549    6712.6013    4.3772272    4.3772272    4.3772272    6712.6013   -5850.9455    12232.416    13756.333   -18003.509    38772.089   -7266.7001    83.868191 
   90700    1995.5856   -109.10516    1.8056478   -107.29951   -11395.961       4.3907       4.3907       4.3907   -11395.961   -30114.841   -15792.652    11719.611   -53752.151   -20385.784    -3053.515    84.644997 
   90800    1650.5176    -108.7842     1.493423   -107.29078    -3676.226    4.3896129    4.3896129    4.3896129    -3676.226   -19436.609   -2226.8369    10634.768    43780.233    27280.887   -861.99107    84.582138 
   90900    1403.0052   -108.56455    1.2694686   -107.29508    1791.3709    4.3808756    4.3808756    4.3808756    1791.3709   -11371.297    -8253.941    24999.351   -41317.074    7250.4486   -9667.4277    84.078077 
   91000    2127.4011   -109.20615    1.9249172   -107.28123   -5223.5389    4.3866103    4.3866103    4.3866103   -5223.5389   -20955.266    3553.2821    1731.3677   -5066.7883   -42973.057   -3895.1093     84.40869 
   91100    989.14462   -108.20229   0.89499884   -107.30729    -7069.011    4.3845951    4.3845951    4.3845951    -7069.011   -16162.217   -47327.305    42282.489    31941.072    38209.549   -599.18343     84.29241 
   91200      2393.05   -109.45083    2.1652819   -107.28555   -1633.1657    4.3804966    4.3804966    4.3804966   -1633.1657   -20081.528     6702.898    8479.1334   -3641.4552   -23333.074    4446.0609    84.056256 
   91300    1066.4158   -108.26845   0.96491544   -107.30354   -4056.9527    4.3858888    4.3858888    4.3858888   -4056.9527   -64276.705    14718.089    37387.758    11261.273   -51696.449   -47.021969     84.36705 
   91400    1894.9145   -109.00638    1.7145585   -107.29182   -22547.139    4.3932805    4.3932805    4.3932805   -22547.139   -37716.204   -39269.863    9344.6503    15961.634    43668.935    7284.6226    84.794327 
   91500    1847.4831   -108.96514    1.6716415    -107.2935   -9519.3173    4.3838101    4.3838101    4.3838101   -9519.3173    -19270.67    30467.629   -39754.911   -8564.3374   -81164.628   -6945.4271    84.247144 
   91600    1885.2568   -108.99991      1.70582   -107.29409   -5732.4345    4.3821247    4.3821247    4.3821247   -5732.4345   -9521.8897   -5637.0839   -2038.3299    30746.207    4687.4673    4374.5072    84.150012 
   91700    1706.2168   -108.83871    1.5438208   -107.29489   -10239.775    4.3942753    4.3942753    4.3942753   -10239.775    877.26656   -23462.426    -8134.166    909.17612    9056.5148    7575.1411    84.851945 
   91800    1572.2213   -108.70402    1.4225789   -107.28144    -9811.741    4.3938355    4.3938355    4.3938355    -9811.741   -6249.1009    16898.001   -40084.123   -5842.9028   -62515.291   -3061.1874    84.826467 
   91900    1735.5904   -108.84509    1.5703987   -107.27469   -1617.1662     4.386765     4.386765     4.386765   -1617.1662   -20544.858    2567.3584    13126.001     36722.65    49386.479    5802.2589    84.417623 
   92000    1892.5165   -108.99051    1.7123887   -107.27812   -11586.718    4.3870468    4.3870468    4.3870468   -11586.718   -8086.6371    7350.2684   -34023.786   -38543.355   -46047.025      13349.5    84.433888 
   92100    1625.3401   -108.75878    1.4706418   -107.28814    11282.413    4.3768523    4.3768523    4.3768523    11282.413    21975.107    14650.959   -2778.8283    39889.468   -5066.4074   -1456.6816    83.846643 
   92200    2045.7648    -109.1429     1.851051   -107.29185    9908.5117    4.3843903    4.3843903    4.3843903    9908.5117    18698.262   -8026.7207    19053.993    9298.7479    3580.1809   -6120.1597    84.280603 
   92300    1356.1394   -108.51471    1.2270634   -107.28765   -7124.6871    4.4045112    4.4045112    4.4045112   -7124.6871    6550.1611    -12212.86   -15711.362   -22531.475   -37644.962   -1304.0469     85.44628 
   92400    2074.2517   -109.14054    1.8768266   -107.26372   -8873.2675    4.3999626    4.3999626    4.3999626   -8873.2675    6619.2651    -35038.16    1799.0927    52583.394    22350.097    -5812.757     85.18183 
   92500    1474.6463   -108.60321    1.3342909   -107.26892    12319.716    4.3781532    4.3781532    4.3781532    12319.716    47129.985   -8272.3063    -1898.532   -38669.898   -42072.908   -16247.144     83.92143 
   92600    1630.7389   -108.76133    1.4755269    -107.2858    10684.131    4.3698077    4.3698077    4.3698077    10684.131    23138.993   -13939.641     22853.04    6857.6966   -247.10846    16584.249    83.442437 
   92700     2349.225   -109.42385    2.1256282   -107.29822   -117.95891    4.3765164    4.3765164    4.3765164   -117.95891    9792.0289   -17807.599    7661.6934    30765.604   -4215.8206   -19376.819    83.827338 
   92800    695.71152   -107.96629   0.62949441    -107.3368   -5736.7697    4.3916799    4.3916799    4.3916799   -5736.7697    1621.6345   -17728.852   -1103.0911   -30800.324   -35587.278   -20745.653    84.701679 
   92900    2719.3608   -109.74681    2.4605348   -107.28627   -5719.1473    4.3988404    4.3988404    4.3988404   -5719.1473   -29988.525    2379.1983    10451.885    -111.4378    21843.119    14434.868     85.11667 
   93000    1053.8661   -108.25297   0.95356016   -107.29941    16617.849    4.3856892    4.3856892    4.3856892    16617.849    13370.476    49528.681    -13045.61    4090.1281   -64086.563   -29814.214    84.355529 
   93100    1939.0439   -109.03816    1.7544877   -107.28367    13811.178    4.3869355    4.3869355    4.3869355    13811.178   -3483.7244    41739.236    3178.0212   -22741.331   -6728.9178    11209.762    84.427462 
   93200    1811.9687   -108.91884    1.6395074   -107.27933    7449.2642     4.389314     4.389314     4.389314    7449.2642    24164.145    27652.913   -29469.266    15613.626   -17290.811   -7269.7749    84.564861 
   93300     979.3193    -108.1856   0.88610868   -107.29949    3875.4743    4.3903958    4.3903958    4.3903958    3875.4743    10924.138     58962.11   -58259.824   -8381.0838    -44616.88   -23291.817    84.627406 
   93400    2546.7902   -109.56751    2.3043893   -107.26312   -12153.967    4.3976695    4.3976695    4.3976695   -12153.967   -18987.304   -1314.5448    -16160.05   -8749.5584    25550.469    8403.4274    85.048716 
   93500    847.20594   -108.06381   0.76656974   -107.29724    8468.1727     4.380286     4.380286     4.380286    8468.1727     25692.58    34274.055   -34562.117    12584.163   -37437.788   -24072.105    84.044134 
   93600    2696.4654   -109.71456    2.4398185   -107.27474    2315.7869     4.384689     4.384689     4.384689    2315.7869   -12204.397    23543.156   -4391.3986    3282.8019    7356.2327   -2468.4379     84.29783 
   93700    1290.4245   -108.46019    1.1676032   -107.29259   -11820.168    4.3921784    4.3921784    4.3921784   -11820.168   -27424.873    26440.951   -34476.582   -900.32809    36964.874   -3985.5506     84.73053 
   93800     1798.744   -108.91139    1.6275413   -107.28385    8324.2229    4.3863276    4.3863276    4.3863276    8324.2229     14436.27    13164.774   -2628.3747    782.23744   -38075.513    -18733.29    84.392372 
   93900    1754.3291   -108.86931    1.5873539   -107.28195    -22371.44    4.3989088    4.3989088    4.3989088    -22371.44   -43407.329   -14192.294   -9514.6961    2235.7347    46750.369    19963.743    85.120641 
   94000    1321.4533    -108.4829    1.1956787   -107.28722   -15555.737    4.3954124    4.3954124    4.3954124   -15555.737   -16218.888    7309.2264   -37757.549   -278.43567   -4297.5003    -22961.61    84.917832 
   94100    2598.1718   -109.61632    2.3508805   -107.26544    11634.018    4.3787611    4.3787611    4.3787611    11634.018    38441.827    754.76876   -4294.5407    2658.6239   -4304.0628    19081.233    83.956389 
   94200    1052.8156   -108.26165   0.95260967   -107.30904   -31191.281    4.3883035    4.3883035    4.3883035   -31191.281   -30539.457   -9196.6066   -53837.779   -10080.857    37805.226    17881.176    84.506472 
   94300    2427.7679   -109.48681    2.1966955   -107.29012   -21343.818    4.3930617    4.3930617    4.3930617   -21343.818   -22264.308   -13852.949   -27914.196    627.72003   -14133.567   -31292.601    84.781658 
   94400    1359.5908   -108.52243    1.2301863   -107.29224   -16556.435    4.3987255    4.3987255    4.3987255   -16556.435   -1286.0466   -19866.281   -28516.976   -2105.7007    22946.058    57129.492        85.11 
   94500    1488.4523   -108.62551    1.3467829   -107.27873   -8580.1305    4.4002247    4.4002247    4.4002247   -8580.1305    7234.7075    -3552.577   -29422.522    420.95033    32512.243   -38913.049    85.197053 
   94600    1922.3642   -109.00052    1.7393955   -107.26113    15155.606    4.3910357    4.3910357    4.3910357    15155.606     61673.62   -33197.101    16990.298    1452.5435    4800.1311    36561.051    84.664416 
   94700    1121.8655   -108.29701    1.0150875   -107.28192    12244.028    4.3921046    4.3921046    4.3921046    12244.028    63755.599   -2408.2652    -24615.25    3151.1311     45869.15   -4753.2923    84.726256 
   94800    2282.8561   -109.32235    2.0655762   -107.25677    11339.158     4.396923     4.396923     4.396923    11339.158     26756.53   -8525.1831    15786.127    -10409.85    2207.5172   -14412.747    85.005414 
   94900    1243.8968   -108.39819     1.125504   -107.27269   -6406.8313    4.3979323    4.3979323    4.3979323   -6406.8313     -6037.11    10746.185   -23929.569   -2789.7881    323.00796    39661.453    85.063964 
   95000    2007.7556   -109.08212    1.8166594   -107.26546   -3232.3898    4.3927338    4.3927338    4.3927338   -3232.3898   -23081.917    6712.0716    6672.6763   -5408.5071    38756.117   -43133.882    84.762673 
   95100    1780.5358   -108.88074    1.6110662   -107.26967    7533.8469     4.389036     4.389036     4.389036    7533.8469    47217.121   -19871.918   -4743.6622   -5316.8054   -22461.556    58657.782    84.548797 
   95200    1742.6431   -108.85249    1.5767801   -107.27571    2080.9963    4.3917944    4.3917944    4.3917944    2080.9963   -20613.058    53587.685   -26731.638    2979.1461    32823.953    -18040.64    84.708306 
   95300     1612.859   -108.74113    1.4593487   -107.28178    8788.3704    4.3906718    4.3906718    4.3906718    8788.3704    29328.412    6477.8706    -9441.171    2039.6326    9129.4889    19828.651    84.643364 
   95400    1781.2612   -108.88226    1.6117226   -107.27054    29607.184    4.3934978    4.3934978    4.3934978    29607.184    73516.863    44470.741   -29166.051    14816.749   -4852.9746     20729.44    84.806909 
   95500    1179.3312    -108.3431    1.0670837   -107.27602    3097.9848     4.404112     4.404112     4.404112    3097.9848    11538.007    22541.213   -24785.265    25643.131    8903.3118   -31441.358    85.423051 
   95600    2154.2283   -109.18617     1.949191   -107.23698   -16835.133    4.4109414    4.4109414    4.4109414   -16835.133   -17616.534   -16567.171   -16321.693   -16244.365   -12087.676    42283.834    85.821058 
   95700    1285.0931   -108.39691    1.1627792   -107.23413    4370.5342    4.4085374    4.4085374    4.4085374    4370.5342    22021.961    26243.294   -35153.652     22116.11    13268.216   -53733.094    85.680814 
   95800    1908.2811   -108.95697    1.7266528   -107.23032   -11786.765    4.3945911    4.3945911    4.3945911   -11786.765   -25000.398   -4453.2434   -5906.6531   -28979.347    2668.2795    42474.104     84.87024 
   95900    1831.2497   -108.91051    1.6569532   -107.25356    23687.315    4.3644865    4.3644865    4.3644865    23687.315    19602.531    36458.381    15001.034   -4540.4895    548.02527   -21281.626    83.137978 
   96000    1250.6869   -108.43002    1.1316478   -107.29838    21355.626      4.36974      4.36974      4.36974    21355.626    19277.466    48462.673   -3673.2619    17998.278     20655.84   -31593.775    83.438558 
   96100    2064.8611   -109.16121    1.8683297   -107.29288   -19184.726    4.3963781    4.3963781    4.3963781   -19184.726   -38320.216   -21196.313    1962.3499   -50701.394   -500.79524    24245.492    84.973811 
   96200    1292.4775   -108.45858    1.1694608   -107.28912    3667.3314    4.4000001    4.4000001    4.4000001    3667.3314    7636.6218    21316.468   -17951.095    24208.187    5255.7028   -51232.258    85.184006 
   96300    2370.8535   -109.39746    2.1451981   -107.25226   -23432.351    4.4055406    4.4055406    4.4055406   -23432.351    -44874.63   -10817.982   -14604.443   -32612.101    3537.3219    20376.299    85.506202 
   96400    1167.6686   -108.30099    1.0565311   -107.24446     5180.956    4.4041939    4.4041939    4.4041939     5180.956     37937.47    -20827.07   -1567.5315   -4235.8152    13427.443    -74490.54    85.427815 
   96500       2124.2   -109.13203    1.9220208   -107.21001    10585.766    4.4079715    4.4079715    4.4079715    10585.766    36699.337    6447.7443   -11389.784    22488.384     15827.93     14158.48    85.647824 
   96600    1482.2817   -108.57336    1.3411997   -107.23216   -19492.853    4.4030043    4.4030043    4.4030043   -19492.853    44963.048   -68277.387   -35164.218    -23613.96   -914.54392   -58551.483    85.358609 
   96700    1588.6344   -108.69556    1.4374298   -107.25813    15680.837    4.3778771    4.3778771    4.3778771    15680.837    50098.772     3800.308   -6856.5686    4958.9245    9854.9162   -44188.094    83.905553 
   96800    2069.2989   -109.14785    1.8723451   -107.27551    4786.6468    4.3756509    4.3756509    4.3756509    4786.6468    49296.678     4490.328   -39427.065    15319.215   -9716.6688    3259.0155    83.777618 
   96900    975.16083   -108.20145   0.88234601    -107.3191   -32929.692    4.3921101    4.3921101    4.3921101   -32929.692    38195.106   -45478.174   -91506.007   -6603.6635   -12321.411   -74149.362    84.726578 
   97000     2715.126   -109.73975     2.456703   -107.28305    1522.7063    4.3983009    4.3983009    4.3983009    1522.7063    10553.145    15200.692   -21185.719   -84.875952   -465.72032    21695.181    85.085353 
   97100    991.84807   -108.19219   0.89744497   -107.29475   -26271.074    4.4053082    4.4053082    4.4053082   -26271.074    74913.684    -75897.02   -77829.887   -10116.657   -8203.8899   -89023.599    85.492672 
   97200    2049.2772   -109.11595    1.8542291   -107.26172   -3519.0652    4.3912841    4.3912841    4.3912841   -3519.0652    10004.612    8058.2808   -28620.088    10293.238    5715.1777    48248.712    84.678784 
   97300    1453.4499    -108.5916     1.315112   -107.27649    14767.942    4.3861941    4.3861941    4.3861941    14767.942    62349.829    3395.2164    -21441.22    5063.4307    8031.6476    -63100.42    84.384669 
   97400    1825.1512   -108.93013    1.6514352    -107.2787    2176.6159    4.3886844    4.3886844    4.3886844    2176.6159    52215.243   -12242.625    -33442.77    3256.3977   -12984.593   -6837.5948     84.52848 
   97500    1510.5681   -108.66228    1.3667938   -107.29549   -19072.624    4.3942654    4.3942654    4.3942654   -19072.624    11785.746   -9319.1988   -59684.418   -1311.1228    630.34633    31085.164    84.851368 
   97600     2097.246   -109.18873    1.8976322    -107.2911   -21899.634    4.3957611    4.3957611    4.3957611   -21899.634    2798.9714   -42856.083   -25641.791   -17833.473    13076.354   -26865.991    84.938042 
   97700    1601.1898   -108.74196    1.4487901   -107.29317    9254.3001    4.3774167    4.3774167    4.3774167    9254.3001    28500.685    -1995.186    1257.4012    20151.816   -22912.113     21075.67    83.879083 
   97800     1752.353    -108.8974    1.5855658   -107.31183   -5331.6888    4.3850862    4.3850862    4.3850862   -5331.6888    34443.632    19969.208   -70407.907   -22616.228    35427.498    8603.8837     84.32074 
   97900    2265.3825   -109.34032    2.0497656   -107.29056   -20933.629    4.4011201    4.4011201    4.4011201   -20933.629   -15353.086   -34572.128   -12875.672    24693.759    -9795.105   -5404.6133    85.249071 
   98000    761.29285   -107.98883   0.68883377       -107.3    23111.323    4.3905816    4.3905816    4.3905816    23111.323    43908.453    64701.264   -39275.748    17403.531    22439.051    9367.6381    84.638152 
   98100    2022.5027    -109.1195    1.8300029    -107.2895    7053.9398    4.3937195    4.3937195    4.3937195    7053.9398    6894.2063     53536.07   -39268.457   -14701.543    26111.836   -1102.9971    84.819747 
   98200    2176.5691   -109.25633    1.9694055   -107.28693    14395.636    4.3847802    4.3847802    4.3847802    14395.636    42365.941   -11004.544    11825.509     20943.46   -290.94331   -16354.704     84.30309 
   98300    1023.5397   -108.23149   0.92612024   -107.30537    20922.189    4.3803462    4.3803462    4.3803462    20922.189    41101.018    36845.459    -15179.91   -1250.8936    41324.046    17262.891    84.047598 
   98400     1993.828   -109.09541    1.8040575   -107.29136   -5996.8827    4.3924869    4.3924869    4.3924869   -5996.8827   -18582.638   -602.64546    1194.6356   -22568.163   -22189.071   -18713.427    84.748382 
   98500    1565.2277   -108.71387     1.416251   -107.29762   -4386.2579    4.3908969    4.3908969    4.3908969   -4386.2579   -5758.6507    4306.6546   -11706.777    12174.607    39310.832   -17707.668    84.656385 
   98600    1990.9642   -109.09535    1.8014662   -107.29389   -13317.083    4.3898034    4.3898034    4.3898034   -13317.083   -32764.761   -10728.084    3541.5959   -9475.3769    22121.105    17339.615    84.593151 
   98700    1744.8646   -108.89026    1.5787902   -107.31147   -7986.2727    4.3769061    4.3769061    4.3769061   -7986.2727   -14601.037   -40636.377    31278.596   -50061.589   -17638.311   -22946.166    83.849733 
   98800    1596.5054   -108.76908    1.4445516   -107.32452    2222.4409    4.3724081    4.3724081    4.3724081    2222.4409   -24048.704     57567.93   -26851.903     10024.11     54419.92   -1325.4956    83.591489 
   98900    1762.5445   -108.92143    1.5947873   -107.32665   -15628.268    4.3892713    4.3892713    4.3892713   -15628.268   -2102.8492   -53623.958    8842.0019    13241.242    4654.4519    14963.418    84.562398 
   99000    1705.1038    -108.8576    1.5428137   -107.31479   -19642.254    4.3955995    4.3955995    4.3955995   -19642.254   -42699.328   -7797.7482   -8429.6851   -43466.964    6135.2014   -514.21301    84.928675 
   99100    1750.3941   -108.88054    1.5837933   -107.29675   -12154.278     4.389216     4.389216     4.389216   -12154.278   -29121.282    8269.3544   -15610.905    32613.746    39641.064   -6322.2078    84.559199 
   99200    1599.5777   -108.74615    1.4473315   -107.29882   -7870.0906    4.3790121    4.3790121    4.3790121   -7870.0906    7992.5443    -58445.08    26842.264    3431.9481   -12022.416     31955.29    83.970831 
   99300    1736.2596   -108.87862    1.5710042   -107.30761    7842.7784     4.378815     4.378815     4.378815    7842.7784   -16268.437    6358.3544    33438.418   -40214.692    30069.944   -3653.4904    83.959488 
   99400    1717.2526   -108.86583    1.5538063   -107.31202   -657.25394    4.3867462    4.3867462    4.3867462   -657.25394    8192.3069   -37339.648    27175.579     41542.66    20458.973   -1093.0257    84.416535 
   99500    1510.7395   -108.67706    1.3669489   -107.31011   -5105.6481    4.3975577    4.3975577    4.3975577   -5105.6481    16825.198   -57646.222    25504.079   -7222.9878   -13511.712    36404.262    85.042228 
   99600    1593.1744   -108.74545    1.4415377   -107.30391   -14510.146    4.3909576    4.3909576    4.3909576   -14510.146   -15028.457    -8836.563   -19665.417   -18198.362    55735.021   -22510.905    84.659894 
   99700    1511.7358   -108.67978    1.3678503   -107.31193    10566.189     4.372716     4.372716     4.372716    10566.189    14296.241   -32262.412    49664.737    51346.218   -8196.0023   -1091.0221    83.609149 
   99800    1971.1478   -109.09711     1.783536   -107.31357    3072.0165     4.374992     4.374992     4.374992    3072.0165   -14206.035     28758.85   -5336.7651   -7411.4943    16619.652    18107.212    83.739776 
   99900    1508.4054   -108.68447    1.3648369   -107.31963   -8557.1236    4.3888268    4.3888268    4.3888268   -8557.1236   -14062.694    590.08479   -12198.761   -492.56487    54643.488   -41245.492    84.536707 
  100000    1976.9327   -109.08739    1.7887703   -107.29862   -11015.576    4.4018446    4.4018446    4.4018446   -11015.576   -19273.249   -27010.602    13237.124    14436.565   -32266.719    4641.9148    85.291182 
Loop time of 22.5727 on 1 procs for 100000 steps with 8 atoms

Pair  time (%) = 6.79816 (30.1168)
Kspce time (%) = 5.56432 (24.6507)
Neigh time (%) = 0.23063 (1.02172)
Comm  time (%) = 0.979629 (4.33989)
Outpt time (%) = 0.0290444 (0.128671)
Other time (%) = 8.97088 (39.7422)

Nlocal:    8 ave 8 max 8 min
Histogram: 1 0 0 0 0 0 0 0 0 0
Nghost:    1720 ave 1720 max 1720 min
Histogram: 1 0 0 0 0 0 0 0 0 0
Neighs:    2037 ave 2037 max 2037 min
Histogram: 1 0 0 0 0 0 0 0 0 0

Total # of neighbors = 2037
Ave neighs/atom = 254.625
Neighbor list builds = 2888
Dangerous builds = 0
unfix 20
unfix 21
print "seeds:2527231"
seeds:2527231
