LAMMPS (10 Feb 2015)
# ---- initialize simulations
clear
units metal
dimension 3
boundary p p p
atom_style charge
atom_modify map array
# ---- create atoms
read_data /Users/eugeneragasa/pyflamestk_git/pypospack/tests/tests_integration/workflow/WorkflowLammpsThermalExpansion/param_3867/MgO_NaCl_unit.npt.T900/lammps.structure
  triclinic box = (0 0 0) to (4.2565 4.2565 4.2565) with tilt (0 0 0)
  1 by 1 by 1 MPI processor grid
  reading atoms ...
  8 atoms
# ---- define interatomic potential
include potential.mod
mass 1 24.305
mass 2 15.999

group Mg type 1
4 atoms in group Mg
group O type 2
4 atoms in group O

set group Mg charge 1.73479148785
  4 settings made for charge
set group O charge -1.73479148785
  4 settings made for charge

variable R_cut equal 10.0

pair_style buck/coul/long ${R_cut}
pair_style buck/coul/long 10
pair_coeff 1 1 0.0 0.5 0.0 ${R_cut}
pair_coeff 1 1 0.0 0.5 0.0 10
pair_coeff 1 2 1225.32983502 0.291530354982 0.0 ${R_cut}
pair_coeff 1 2 1225.32983502 0.291530354982 0.0 10
pair_coeff 2 2 16858.6500597 0.120403294253 7.45918898041 ${R_cut}
pair_coeff 2 2 16858.6500597 0.120403294253 7.45918898041 10

kspace_style pppm 1.0e-5

neighbor 1.0 bin
neigh_modify every 1 delay 0 check yes
# ---- define settings
compute eng all pe/atom
compute eatoms all reduce sum c_eng
# ---- run minimization
reset_timestep 0
fix 1 all box/relax iso 0.0 vmax 0.001
thermo 10
thermo_style custom step pe lx ly lz xy xz yz press pxx pyy pzz pxy pxz pyz c_eatoms
min_style cg
minimize 1e-25 1e-25 5000 10000
PPPM initialization ...
  G vector (1/distance) = 0.3534
  grid = 8 8 8
  stencil order = 5
  estimated absolute RMS force accuracy = 4.23269e-05
  estimated relative force accuracy = 2.93944e-06
  using double precision FFTs
  3d grid and FFT values/proc = 3375 512
Neighbor list info ...
  1 neighbor list requests
  update every 1 steps, delay 0 steps, check yes
  master list distance cutoff = 11
Memory usage per processor = 4.06549 Mbytes
Step PotEng Lx Ly Lz Xy Xz Yz Press Pxx Pyy Pzz Pxy Pxz Pyz eatoms 
       0   -122.62677       4.2565       4.2565       4.2565            0            0            0    18600.794    18600.794    18600.794    18600.794 4.9707872e-11 4.7042733e-11 1.8950886e-10   -122.62677 
       5   -122.63132    4.2712858    4.2712858    4.2712858            0            0            0   -6.7076035   -6.7076035   -6.7076035   -6.7076035 9.5134085e-11 4.9732958e-12 8.6603347e-11   -122.63132 
Loop time of 0.00798893 on 1 procs for 5 steps with 8 atoms

Minimization stats:
  Stopping criterion = linesearch alpha is zero
  Energy initial, next-to-last, final = 
        -122.626768711     -122.631316441     -122.631316441
  Force two-norm initial, final = 2.68597 0.0019334
  Force max component initial, final = 2.68596 0.000975322
  Final line search alpha, max atom move = 0.00390625 3.80985e-06
  Iterations, force evaluations = 5 22

Pair  time (%) = 0.00220418 (27.5904)
Kspce time (%) = 0.0013628 (17.0586)
Neigh time (%) = 0 (0)
Comm  time (%) = 0.000248671 (3.11269)
Outpt time (%) = 0 (0)
Other time (%) = 0.00417328 (52.2383)

Nlocal:    8 ave 8 max 8 min
Histogram: 1 0 0 0 0 0 0 0 0 0
Nghost:    2189 ave 2189 max 2189 min
Histogram: 1 0 0 0 0 0 0 0 0 0
Neighs:    2344 ave 2344 max 2344 min
Histogram: 1 0 0 0 0 0 0 0 0 0

Total # of neighbors = 2344
Ave neighs/atom = 293
Neighbor list builds = 0
Dangerous builds = 0
unfix 1
# ---- define output variables ----
variable natoms equal "count(all)"
variable tot_energy equal "c_eatoms"
variable length_x equal "lx"
variable length_y equal "ly"
variable length_z equal "lz"
variable tilt_xy equal "xy"
variable tilt_xz equal "xz"
variable tilt_yz equal "yz"
variable tot_press equal "press"
variable press_xx equal "pxx"
variable press_yy equal "pyy"
variable press_zz equal "pzz"
variable press_xy equal "pxy"
variable press_xz equal "pxz"
variable press_yz equal "pyz"

# ---- output ----
print "pypospack:output_section:begin"
pypospack:output_section:begin
print "tot_energy = ${tot_energy}"
tot_energy = -122.631316441343
print "num_atoms = ${natoms}"
num_atoms = 8
print "xx = ${length_x}"
xx = 4.27128583299446
print "yy = ${length_y}"
yy = 4.27128583299446
print "zz = ${length_z}"
zz = 4.27128583299446
print "xy = ${tilt_xy}"
xy = 0
print "xz = ${tilt_xz}"
xz = 0
print "yz = ${tilt_yz}"
yz = 0
print "tot_press = ${tot_press}"
tot_press = -6.70760353710228
print "pxx = ${press_xx}"
pxx = -6.70760353705429
print "pyy = ${press_yy}"
pyy = -6.70760353725253
print "pzz = ${press_zz}"
pzz = -6.70760353700002
print "pxy = ${press_xy}"
pxy = 9.51340852761742e-11
print "pxz = ${press_xz}"
pxz = 4.97329584958765e-12
print "pyz = ${press_yz}"
pyz = 8.66033470907354e-11
print "pypospack:output_section:done"
pypospack:output_section:done
print "pypospack:lammps_sim:done"
pypospack:lammps_sim:done
#------------------------------------------------------------------------------
# RUN THERMOSTAT
# running using an NPT Nose-Hoover style thermostat
#------------------------------------------------------------------------------
variable tempdamp equal 0.1
variable pressdamp equal 1.0
# set initial velocities
velocity all create 900 9629373 mom yes dist gaussian loop all
# fix for Nose-Hoover style thermostat
fix 20 all npt temp 900 900 0.1 aniso 0.0 0.0 1.0 drag 1.0 couple xyz
variable boxx equal lx
variable boxy equal ly
variable boxz equal lz
variable boxp equal press
variable boxt equal temp
# calculate averages every 10000 steps
reset_timestep 0
fix 21 all ave/time 10 10 100 v_boxx v_boxy v_boxz v_boxp v_boxt file lattice.out
thermo_style custom step temp pe ke etotal press lx ly lz press pxx pyy pzz pxy pxz pyz vol
thermo_modify flush yes
thermo 100
run 100000
PPPM initialization ...
  G vector (1/distance) = 0.353246
  grid = 8 8 8
  stencil order = 5
  estimated absolute RMS force accuracy = 4.26311e-05
  estimated relative force accuracy = 2.96057e-06
  using double precision FFTs
  3d grid and FFT values/proc = 3375 512
Memory usage per processor = 3.06549 Mbytes
Step Temp PotEng KinEng TotEng Press Lx Ly Lz Press Pxx Pyy Pzz Pxy Pxz Pyz Volume 
       0          900   -122.63132   0.81433891   -121.81698    11154.863    4.2712858    4.2712858    4.2712858    11154.863    7956.5186    12214.847    13293.223    1025.9975    2064.2035   -4676.5343    77.924838 
     100    365.15292   -122.04125   0.33039804   -121.71085   -7904.2906    4.3037217    4.3037217    4.3037217   -7904.2906   -28245.859   -9908.0746    14441.062   -529.65155   -3127.6016    904.75043    79.713619 
     200    706.85786   -122.13223   0.63957985   -121.49265   -25265.582    4.3047494    4.3047494    4.3047494   -25265.582   -29122.651   -34926.723   -11747.371    6825.8678    303.27394    903.72426    79.770742 
     300    579.76234   -121.81871   0.52458115   -121.29413    31174.263    4.2973364    4.2973364    4.2973364    31174.263    21897.844    23130.678    48494.266    1227.2361   -11394.589    8930.6301    79.359342 
     400    1131.0253   -122.16187    1.0233755    -121.1385   -17055.742    4.3263428    4.3263428    4.3263428   -17055.742    -846.7565   -31041.817   -19278.652   -9913.4778    2600.9983   -7047.3412    80.977208 
     500     655.8059   -121.63157   0.59338696   -121.03818    35616.474    4.2990386    4.2990386    4.2990386    35616.474    24564.175    30641.989    51643.258    8650.1435     4160.722   -8359.5523    79.453683 
     600    759.20193   -121.68874   0.68694186    -121.0018    2787.5217     4.307566     4.307566     4.307566    2787.5217    30193.395   -9250.7347   -12580.095      6664.06    64.022785    9835.7836    79.927427 
     700    720.00621   -121.63248   0.65147675   -120.98101   -28659.073     4.336359     4.336359     4.336359   -28659.073   -30388.675    -26975.01   -28613.532   -2281.0962   -14442.256    797.91766    81.540938 
     800    1142.4187   -122.00221    1.0336845   -120.96853    25900.223    4.2832257    4.2832257    4.2832257    25900.223    43350.877    23761.936    10587.857    3397.3821   -4164.0647    10099.221    78.580154 
     900    799.62839   -121.73403   0.72352057    -121.0105    -1837.177    4.3076068    4.3076068    4.3076068    -1837.177   -35400.462    5887.4968    24001.434    9078.8806    7149.8359   -12280.493    79.929696 
    1000    688.62114   -121.60805   0.62307888   -120.98497   -65094.113    4.3429022    4.3429022    4.3429022   -65094.113   -70012.339   -68594.928   -56675.072    2443.2044   -3481.3166    10726.955    81.910608 
    1100    934.74269   -121.81045   0.84577483   -120.96468    34105.147    4.2700877    4.2700877    4.2700877    34105.147    33413.553     29606.69    39295.199   -12397.363   -6479.4864    4310.2642    77.859282 
    1200    803.63699   -121.73217   0.72714763   -121.00503    17215.996    4.3034527    4.3034527    4.3034527    17215.996    26368.485    26486.084   -1206.5813    2328.4421    -3516.586   -11858.874    79.698674 
    1300    899.83801   -121.79325   0.81419234   -120.97906   -45936.838    4.3379719    4.3379719    4.3379719   -45936.838   -41571.599    -51254.36   -44984.554    15913.172     10948.12    2582.7797    81.631959 
    1400    943.58634   -121.81656   0.85377675   -120.96279    45466.906    4.2670303    4.2670303    4.2670303    45466.906    47003.433    49205.148    40192.137    5572.7236    4492.4644    6584.6593    77.692157 
    1500    885.20186   -121.81301   0.80094925   -121.01206   -2758.5089    4.3104726    4.3104726    4.3104726   -2758.5089   -3156.1332    8798.8639   -13918.257   -714.36825   -11625.151    1655.6655     80.08933 
    1600    1112.6114   -121.97839    1.0067142   -120.97167   -45593.358    4.3366535    4.3366535    4.3366535   -45593.358   -40582.312   -26601.749   -69596.013   -642.06162   -6537.4874    479.89999     81.55755 
    1700    1146.7891    -121.9878    1.0376388   -120.95016    48547.111    4.2665904    4.2665904    4.2665904    48547.111    31256.669    62633.348    51751.314    2891.6279    5378.0035   -15192.291    77.668133 
    1800    872.97877   -121.78685   0.78988954   -120.99696    5034.9256    4.3072211    4.3072211    4.3072211    5034.9256    2055.8733    7215.3555     5833.548    6412.6427    6434.1903    10587.652    79.908229 
    1900    885.44839   -121.77456   0.80117231   -120.97339   -36846.101     4.333858     4.333858     4.333858   -36846.101   -35317.809   -32798.615   -42421.879   -5065.2052   -5059.2833    16027.324     81.39993 
    2000    663.85687   -121.56294   0.60067165   -120.96227     52073.62     4.280934     4.280934     4.280934     52073.62    76290.312    65335.984    14594.566   -498.68605   -6010.8146   -22224.078    78.454089 
    2100     1213.402   -122.08629    1.0979116   -120.98838    -2984.746    4.3066851    4.3066851    4.3066851    -2984.746    10798.826    -8676.963   -11076.101   -130.31964    3652.6634    305.91189    79.878398 
    2200    984.56724   -121.86872   0.89085713   -120.97787   -12330.485    4.3232653    4.3232653    4.3232653   -12330.485   -935.82918   -4620.2062   -31435.419   -13332.034   -252.73798     10198.92     80.80452 
    2300    803.49121   -121.70359   0.72701573   -120.97657    16364.164    4.2832741    4.2832741    4.2832741    16364.164    16913.215    20376.349    11802.927   -17136.765   -1844.0739   -1252.2788     78.58282 
    2400    568.27718   -121.51719   0.51418913     -121.003   -22595.175    4.3066161    4.3066161    4.3066161   -22595.175    -1907.679   -30347.574   -35530.272    2644.6561   -12356.157   -7453.5336    79.874557 
    2500    1071.8417   -121.95499   0.96982493   -120.98516   -26297.997    4.3174864    4.3174864    4.3174864   -26297.997   -11097.054   -20150.333   -47646.603    5224.6457   -1671.8256   -19165.554    80.480922 
    2600    1261.6004   -122.11775    1.1415225   -120.97623    20332.707    4.2879796    4.2879796    4.2879796    20332.707    11412.161    35121.985    14463.975   -1775.3757      1431.45    9359.2929    78.842091 
    2700    878.00859   -121.79047   0.79444062   -120.99603   -9402.0625    4.3032359    4.3032359    4.3032359   -9402.0625    18877.035   -28828.748   -18254.474   -4994.6717   -4143.9133    3536.4907     79.68663 
    2800    522.10657   -121.46908   0.47241299   -120.99667   -16081.453    4.3148002    4.3148002    4.3148002   -16081.453    13276.294   -10637.821   -50882.832   -11311.823   -10079.566   -28571.957    80.330796 
    2900    777.91725   -121.69632   0.70387588   -120.99244    22993.159    4.2923412    4.2923412    4.2923412    22993.159    40108.698    32414.091   -3543.3101    10304.865   -3011.6513   -13150.771    79.082924 
    3000    1337.8914   -122.20127    1.2105523   -120.99072    9762.9116    4.2935405    4.2935405    4.2935405    9762.9116    10674.168    12381.955    6232.6123    2383.6512    1912.0301     4750.005     79.14923 
    3100    905.51926   -121.81213   0.81933286   -120.99279   -20745.842     4.317684     4.317684     4.317684   -20745.842   -23863.826    3476.5454   -41850.246    6032.4059    1244.6501   -15720.064    80.491973 
    3200    649.09675   -121.57935   0.58731638   -120.99203    -22717.17    4.3033974    4.3033974    4.3033974    -22717.17    3920.0644   -32868.232   -39203.341   -12565.558   -5484.3257   -39780.821    79.695602 
    3300    928.01908   -121.82539   0.83969117    -120.9857     7381.933    4.2828088    4.2828088    4.2828088     7381.933    5846.3798     15098.37     1201.049   -295.98035   -5200.3918    -1241.603    78.557214 
    3400    921.60417    -121.8322   0.83388682   -120.99832    -14755.19     4.319768     4.319768     4.319768    -14755.19   -28646.728    8620.3886   -24239.232    14666.773    1045.9154    3290.3849    80.608577 
    3500    1013.6082   -121.91983   0.91713397   -121.00269   -19223.162    4.3064274    4.3064274    4.3064274   -19223.162    6769.8104   -28933.932   -35505.364    11887.927    4560.7876   -20521.555    79.864062 
    3600    699.08768   -121.61404   0.63254923   -120.98149    59993.657    4.2698217    4.2698217    4.2698217    59993.657    91822.406    71976.078    16182.486   -10429.694   -6152.5473   -13626.284    77.844732 
    3700     932.4003   -121.84128   0.84365539   -120.99762   -30306.674    4.3276034    4.3276034    4.3276034   -30306.674   -17934.613   -36859.773   -36125.635   -1201.2645   -597.55817   -5091.7689    81.048009 
    3800    840.43938   -121.74966   0.76044721   -120.98921   -12748.305    4.3112469    4.3112469    4.3112469   -12748.305   -5476.3216   -22624.415   -10144.178    7993.6467    2908.8226    7926.5411      80.1325 
    3900    1158.6918   -122.00736    1.0484086   -120.95895    32121.058    4.2668368    4.2668368    4.2668368    32121.058    36199.984    39180.306    20982.884    14097.375   -178.97042   -11716.019    77.681586 
    4000    1050.4226   -121.94017   0.95044446   -120.98973   -22161.193    4.3192928    4.3192928    4.3192928   -22161.193     482.9438   -20678.386   -46288.136   -4747.6621   -2258.2903   -17272.232    80.581983 
    4100    758.17051   -121.66999   0.68600861   -120.98398   -10722.698    4.3168911    4.3168911    4.3168911   -10722.698    9081.8843   -25559.598    -15690.38    -5250.739   -3035.4445    12495.489    80.447637 
    4200     489.6698   -121.41707   0.44306352     -120.974     38967.74    4.2860247    4.2860247    4.2860247     38967.74    76554.291    29623.852    10725.076    7789.5081     1830.414    -631.2096    78.734309 
    4300    966.10724   -121.86128   0.87415413   -120.98712    -16705.08    4.3148223    4.3148223    4.3148223    -16705.08    10735.586   -37326.118   -23524.707    1292.2965    89.086469   -18380.766    80.332031 
    4400    1063.2846   -121.94499   0.96208225   -120.98291   -4990.7406    4.3066995    4.3066995    4.3066995   -4990.7406     19096.39   -13759.455   -20309.157   -4547.4415   -5467.8415    14093.693    79.879198 
    4500    1046.0756    -121.9303   0.94651115   -120.98379   -11466.855    4.2958814    4.2958814    4.2958814   -11466.855   -16326.976   -7995.5729   -10078.015    3446.9012   -9584.1474    16805.414    79.278759 
    4600    734.12529   -121.65295   0.66425199   -120.98869   -23000.975    4.3172897    4.3172897    4.3172897   -23000.975   -14379.094   -37043.743   -17580.087   -1594.3029   -5820.6629   -9723.4952    80.469918 
    4700    1082.6286   -121.96286   0.97958515   -120.98327    1818.9437    4.2953177    4.2953177    4.2953177    1818.9437    20404.371   -19673.786    4726.2456   -109.36201   -4458.2601    1978.8568    79.247553 
    4800    837.31517   -121.74757   0.75762036   -120.98995    14673.907    4.2944393    4.2944393    4.2944393    14673.907    68435.889     6201.124   -30615.292   -5119.4031   -3398.4624    15602.742    79.198946 
    4900    673.07567   -121.60056   0.60901301   -120.99154   -31168.046    4.3188149    4.3188149    4.3188149   -31168.046   -17311.269   -26811.461   -49381.406    16699.802   -9311.2751    16381.402    80.555234 
    5000    723.25478   -121.64093   0.65441613   -120.98651    19473.425    4.2831662    4.2831662    4.2831662    19473.425    8386.1166    33488.101    16546.057    25693.009    2289.8719    -1660.403     78.57688 
    5100    1133.7823   -122.02403    1.0258701   -120.99816    1536.0455    4.2964822    4.2964822    4.2964822    1536.0455    -3746.904    8804.7306   -449.69019    1242.9266    3921.0199   -7554.3079    79.312027 
    5200    941.55109   -121.83724   0.85193521   -120.98531   -41734.598     4.324983     4.324983     4.324983   -41734.598   -36125.794   -19061.673   -70016.328   -12105.784    717.52001     21341.29    80.900873 
    5300    901.11623   -121.79454    0.8153489   -120.97919    1970.5147    4.2822305    4.2822305    4.2822305    1970.5147    7029.5021    8341.9772   -9459.9352    5281.6866   -3221.6464     9202.344    78.525394 
    5400    836.48426    -121.7504   0.75686854   -120.99353   -2160.9276    4.2956582    4.2956582    4.2956582   -2160.9276    13370.786   -14990.935    -4862.634    27504.529   -694.42869   -6401.8672    79.266405 
    5500    1123.2341   -122.00475    1.0163258   -120.98842   -20730.298     4.311228     4.311228     4.311228   -20730.298   -23232.467   -15633.359   -23325.067    13223.135      5244.21    2479.9914    80.131443 
    5600     1047.702   -121.92959   0.94798279   -120.98161    41714.572    4.2784376    4.2784376    4.2784376    41714.572    61022.302    59641.704    4479.7114   -9367.2592   -3095.0274    11768.422     78.31692 
    5700    744.41899    -121.6735   0.67356595   -120.99993   -6441.5474      4.30859      4.30859      4.30859   -6441.5474   -10266.296    15454.182   -24512.529    12732.002   -7430.9706    10153.357    79.984438 
    5800    552.24166   -121.48941   0.49967986   -120.98973     -17969.2    4.3136898    4.3136898    4.3136898     -17969.2   -28742.945    10905.702   -36070.358    25912.159   -2477.8219   -9721.0397    80.268793 
    5900    999.93505   -121.87867   0.90476224    -120.9739    27215.463    4.2779424    4.2779424    4.2779424    27215.463    49006.507    11283.781      21356.1    23200.403     8106.165   -4568.9663    78.289731 
    6000    1200.2569    -122.0736    1.0860176   -120.98758   -2966.5766    4.3020309    4.3020309    4.3020309   -2966.5766    35317.039   -21384.927   -22831.842   -9095.7518     -7136.87    17943.287    79.619708 
    6100    955.95841   -121.85694   0.86497126   -120.99197   -6569.5383    4.3026449    4.3026449    4.3026449   -6569.5383    11938.745   -13620.918   -18026.442   -1659.3312   -18264.745    8615.1256    79.653805 
    6200    775.02654   -121.69635    0.7012603   -120.99509   -4827.8424    4.2832492    4.2832492    4.2832492   -4827.8424   -10849.443    3323.2225   -6957.3065    14262.973    -4200.776   -5534.3436    78.581449 
    6300    814.45251    -121.7417   0.73693375   -121.00477   -20411.753    4.3041697    4.3041697    4.3041697   -20411.753   -6576.6807   -33842.722   -20815.855    14330.397    1406.0195   -8828.0767    79.738518 
    6400     1333.299   -122.19318    1.2063969   -120.98679   -13839.252    4.3097272    4.3097272    4.3097272   -13839.252    19861.241   -27007.172   -34371.826   -10577.676    2494.2278   -2804.9226    80.047788 
    6500    977.08299   -121.86583   0.88408523   -120.98175   -6593.6349    4.3024038    4.3024038    4.3024038   -6593.6349    2601.3638   -7490.6045   -14891.664    1642.3283   -9762.7557    10090.643    79.640412 
    6600    456.33648   -121.40038   0.41290284   -120.98748   -14809.468    4.2990484    4.2990484    4.2990484   -14809.468    2965.6736   -24680.643   -22713.433    27117.817   -4991.2983   -8174.5702    79.454229 
    6700    801.96866   -121.71646   0.72563809   -120.99082    4759.8063    4.2949955    4.2949955    4.2949955    4759.8063    7413.6366    25279.906   -18414.124     18232.84     4668.463   -16477.863    79.229723 
    6800    1170.9147   -122.04794    1.0594682   -120.98847    9397.6778    4.3058028    4.3058028    4.3058028    9397.6778    9813.1018     44503.06   -26123.128    2346.9065    749.31373    4441.6571    79.829319 
    6900    1029.3929   -121.92089   0.93141631   -120.98947    7469.0045    4.2977695    4.2977695    4.2977695    7469.0045   -10378.003    50834.061   -18049.045     825.3164   -5270.8981    6089.0135    79.383337 
    7000    598.43073    -121.5356    0.5414727   -120.99413    7480.8048    4.2913864    4.2913864    4.2913864    7480.8048    16946.587    11926.099   -6430.2713    9076.1046    -3438.459   -13511.547    79.030159 
    7100    951.33329   -121.85116   0.86078636   -120.99037   -19677.997    4.3074163    4.3074163    4.3074163   -19677.997   -21076.967   -9435.2396   -28521.784    4855.2264    8881.2135     -11943.5     79.91909 
    7200    1213.3683   -122.07583    1.0978811   -120.97795   -12040.922    4.3083757    4.3083757    4.3083757   -12040.922   -5118.1181    -2400.621   -28604.026   -7079.0756   -4663.5363    4229.6672    79.972508 
    7300    1110.8047   -121.98201    1.0050794   -120.97693   -7688.4655    4.2968688    4.2968688    4.2968688   -7688.4655     751.3439   -60.670102    -23756.07   -11129.653   -5724.0882    7232.6919    79.333437 
    7400    884.26284    -121.7802    0.8000996    -120.9801    3479.3579    4.2985094    4.2985094    4.2985094    3479.3579   -26812.298    40670.801   -3420.4295    10113.411     4365.926   -7086.5639    79.424345 
    7500    1032.6839   -121.91596    0.9343941   -120.98156   -15225.545    4.3109785    4.3109785    4.3109785   -15225.545   -19576.293    4468.5634   -30568.904    8009.4901    6985.3796   -11032.043    80.117533 
    7600    826.34953    -121.7315   0.74769842    -120.9838    -422.9543    4.3010378    4.3010378    4.3010378    -422.9543    18208.561    4681.6144   -24159.039   -2259.8396    2515.0863    22692.152    79.564578 
    7700    823.34995   -121.72753   0.74498434   -120.98255     13162.91    4.2883918    4.2883918    4.2883918     13162.91    45642.521    27017.877   -33171.668    7565.4681   -5681.2486    24588.405    78.864827 
    7800    814.38192   -121.72594   0.73686988   -120.98907   -4720.0846    4.3117975    4.3117975    4.3117975   -4720.0846    19751.854   -5611.5068   -28300.601     5191.985    7370.8349   -12420.725    80.163206 
    7900    739.13078   -121.66002   0.66878107   -120.99124   -8003.1336    4.2995315    4.2995315    4.2995315   -8003.1336    22659.263   -20337.463   -26331.201    22157.626    3824.6681    12916.097    79.481017 
    8000    798.74039   -121.70683   0.72271709   -120.98411    21642.651    4.2759896    4.2759896    4.2759896    21642.651      67142.3    2841.0881   -5055.4348   -168.01886   -3740.2353    34458.567    78.182568 
    8100    1187.3632   -122.06548    1.0743512   -120.99113   -33972.126    4.3151709    4.3151709    4.3151709   -33972.126   -22836.378   -23634.071    -55445.93    -4437.191   -6008.1682    3801.3818      80.3515 
    8200    896.28236    -121.7983   0.81097511   -120.98732   -18427.144    4.3047508    4.3047508    4.3047508   -18427.144   -24612.212    371.81396   -31041.034    17879.198   -1930.2398   -5637.9934    79.770819 
    8300    704.60786   -121.61439     0.637544   -120.97685    10912.104    4.2765427    4.2765427    4.2765427    10912.104    27936.325    16035.602   -11235.615    8557.1413    6694.9564    27036.353    78.212907 
    8400      809.498   -121.72177    0.7324508   -120.98932   -17144.611    4.3084853    4.3084853    4.3084853   -17144.611    21574.786   -31479.517   -41529.102   -2190.0385    4392.7039    26758.456    79.978609 
    8500    1285.2811    -122.1477    1.1629494   -120.98475    8836.6232    4.2920774    4.2920774    4.2920774    8836.6232    45938.502   -3580.8903   -15847.742   -9693.9984   -3182.3119   -3906.9189    79.068344 
    8600    998.42669   -121.89464   0.90339745   -120.99124    21436.809    4.2855748    4.2855748    4.2855748    21436.809    25467.268    43031.274   -4188.1145    5814.1192    4019.7849   -2454.8414    78.709513 
    8700    691.00954   -121.62228   0.62523995   -120.99704   -30705.196     4.309111     4.309111     4.309111   -30705.196   -21787.034   -19982.664   -50345.889    22003.151    12517.736    21016.084     80.01346 
    8800    643.13462   -121.57419   0.58192172   -120.99226    24511.773    4.2842727    4.2842727    4.2842727    24511.773    22062.833    58321.576   -6849.0887     7336.523    1961.5464    16356.798    78.637792 
    8900    1232.6025   -122.11078    1.1152846   -120.99549   -8199.4198    4.2991496    4.2991496    4.2991496   -8199.4198    -3663.176   -3150.5181   -17784.565   -21417.593   -375.47674   -14184.271    79.459836 
    9000    1007.0892   -121.90497   0.91123551   -120.99373   -12219.378    4.3017421    4.3017421    4.3017421   -12219.378   -15100.327   -7550.8481   -14006.959    1075.6275     7332.086   -15609.989    79.603671 
    9100    797.60591    -121.7096   0.72169059   -120.98791    23790.559    4.2713801    4.2713801    4.2713801    23790.559    9477.8402    38545.458    23348.378    25039.737    4066.9455    11199.345    77.929996 
    9200    605.30493   -121.54978   0.54769262   -121.00209   -23151.163     4.309982     4.309982     4.309982   -23151.163   -13413.657   -30875.024    -25164.81    13703.015    5122.5952    11220.053    80.061988 
    9300     943.3916   -121.84239   0.85360054   -120.98879   -13196.302    4.3046713    4.3046713    4.3046713   -13196.302    12896.091   -22048.107    -30436.89   -18501.581    -4498.327   -2571.5606    79.766399 
    9400     994.3805   -121.87245   0.89973638   -120.97271    33463.986    4.2725889    4.2725889    4.2725889    33463.986    23871.083    46400.152    30120.723    5089.4431   -5796.2894   -7845.2141     77.99618 
    9500    647.05854    -121.5764   0.58547217   -120.99093   -8876.5536    4.3067045    4.3067045    4.3067045   -8876.5536   -12804.481   -8099.2323   -5725.9472    42992.959    7134.7033    9333.5612    79.879478 
    9600    787.79636   -121.69882    0.7128147   -120.98601   -1598.0575    4.3003402    4.3003402    4.3003402   -1598.0575    503.78556    3326.9877   -8624.9458    20358.069    2151.5788    17282.665    79.525873 
    9700    1116.0365   -121.98898    1.0098133   -120.97916    14509.983    4.2834295    4.2834295    4.2834295    14509.983    9707.1662    25586.931    8235.8519    -23189.74    946.39705   -9707.4928     78.59137 
    9800    851.26307   -121.75911   0.77024072   -120.98887   -15605.803    4.3061566    4.3061566    4.3061566   -15605.803   -19746.245   -36514.409    9443.2442   -342.96487   -8519.7408   -6753.1132    79.848997 
    9900    849.18116   -121.75462   0.76835696   -120.98626   -8981.5652    4.3005674    4.3005674    4.3005674   -8981.5652   -43722.198   -3066.0357    19843.538     33665.24   -1341.1813    1048.2757    79.538479 
   10000    971.60086   -121.86544   0.87912488   -120.98631    4147.1851     4.296688     4.296688     4.296688    4147.1851   -21606.547    23772.303      10275.8    16224.659    9662.4709   -1695.6627    79.323424 
   10100    1145.1323   -122.01868    1.0361398   -120.98254    7489.6858    4.2944648    4.2944648    4.2944648    7489.6858    7842.2287    26786.549    -12159.72   -16573.848    792.42297    -6331.618     79.20036 
   10200    742.57826   -121.66192   0.67190041   -120.99002    5912.5339    4.2923841    4.2923841    4.2923841    5912.5339   -5987.2457      17813.9    5910.9476    17827.867    114.68414   -18329.938    79.085297 
   10300    417.81857   -121.37785   0.37805102    -120.9998   -10019.756    4.3035701    4.3035701    4.3035701   -10019.756   -2942.6105   -34776.021    7659.3649    41814.493    8610.9783    78.468037    79.705196 
   10400     1022.085   -121.91738   0.92480395   -120.99257    2075.1173    4.2910612    4.2910612    4.2910612    2075.1173   -3204.8313    655.94613    8774.2371     14545.45    11035.851    4785.7363    79.012195 
   10500    1236.1523    -122.1059    1.1184965    -120.9874    9024.1529    4.2923976    4.2923976    4.2923976    9024.1529    26738.947    12401.443   -12067.932   -12855.429    10155.756   -11993.887    79.086041 
   10600    893.55789   -121.79976   0.80850996   -120.99125   -29682.021    4.3092557    4.3092557    4.3092557   -29682.021   -43599.781   -33712.849   -11733.433    25561.014    776.47306     -3563.88    80.021521 
   10700    561.62559    -121.5002   0.50817063   -120.99203    4909.7502    4.2914536    4.2914536    4.2914536    4909.7502   -8132.6461    -1652.721    24514.618    32865.005    -364.8856   -2884.6256    79.033871 
   10800    1124.5666   -122.00524    1.0175315    -120.9877    615.41943    4.2932905    4.2932905    4.2932905    615.41943   -3357.1204    4091.7882    1111.5905   -12770.965     4900.208   -933.82178    79.135405 
   10900    1042.8253    -121.9275    0.9435702   -120.98393   -13120.152    4.3058453    4.3058453    4.3058453   -13120.152   -3932.0848   -7338.8212   -28089.549   -4045.0096    4828.0991    8988.2656    79.831679 
   11000    745.96487   -121.66343   0.67496469   -120.98847   -4305.2958    4.2898823    4.2898823    4.2898823   -4305.2958   -26329.694   -19670.681    33084.487    51341.702    772.09814   -8752.8103     78.94709 
   11100    822.41661   -121.73417   0.74413983   -120.99003   -1161.5747    4.2928549    4.2928549    4.2928549   -1161.5747   -10515.074   -11840.966    18871.316    31231.607   -3606.9698   -4907.5677     79.11132 
   11200    1069.8534   -121.95212   0.96802588   -120.98409   -5839.9723    4.3048272    4.3048272    4.3048272   -5839.9723   -12353.819    11457.353   -16623.451   -18852.076   -4623.2088    6784.6276    79.775065 
   11300    899.51715    -121.7984   0.81390202   -120.98449    7052.5096    4.2940903    4.2940903    4.2940903    7052.5096     -22528.5    24997.246    18688.784    722.85494    3669.6438    14758.189    79.179638 
   11400     621.9501   -121.55204   0.56275352   -120.98929    4444.2349    4.2982892    4.2982892    4.2982892    4444.2349   -10472.011   -4019.0019    27823.717    37462.984   -3268.2229    11105.536     79.41214 
   11500    1072.4245   -121.95474   0.97035223   -120.98439   -8601.4657    4.3020115    4.3020115    4.3020115   -8601.4657   -15417.997   -17345.525    6959.1246    14961.056   -930.43755   -13682.807    79.618629 
   11600    1195.5758   -122.06389    1.0817821   -120.98211    9152.7351    4.2896207    4.2896207    4.2896207    9152.7351      7158.53    12544.686    7754.9889   -17610.603   -771.76341    -2947.379    78.932647 
   11700    806.85283   -121.71933    0.7300574   -120.98927   -1638.1477    4.2971313    4.2971313    4.2971313   -1638.1477    7400.3142   -14950.006     2635.249    6385.4258   -811.37807    17379.132    79.347978 
   11800    699.89622   -121.62298   0.63328081    -120.9897   -14199.905    4.2987529    4.2987529    4.2987529   -14199.905   -22554.273   -26248.942    6203.4991    32819.746    1839.5262    10310.028    79.437843 
   11900    901.31713    -121.8031   0.81553068   -120.98757     943.3189    4.2911666    4.2911666    4.2911666     943.3189    2984.1415    8812.9742    -8967.159    13718.584   -786.88321   -21053.592    79.018017 
   12000    1001.2648   -121.89285   0.90596539   -120.98689   -2566.8099    4.2941979    4.2941979    4.2941979   -2566.8099     19280.26    -8216.071   -18764.618   -9493.2048   -2626.7688   -27412.335    79.185591 
   12100    971.96564   -121.86796   0.87945493    -120.9885   -5726.2639    4.2917407    4.2917407    4.2917407   -5726.2639   -7041.5736   -3695.7004   -6441.5177    922.50362    6866.1464    18810.459    79.049737 
   12200    738.72169   -121.65996   0.66841091   -120.99155   -19639.414    4.2985566    4.2985566    4.2985566   -19639.414    -12411.72     -30481.9   -16024.622    29818.309    5534.6234     14141.59    79.426961 
   12300    658.70901   -121.58707   0.59601375   -120.99106   -10118.908    4.2958824    4.2958824    4.2958824   -10118.908    23736.366   -36547.273   -17545.817    12984.319    -6524.464   -33149.402    79.278815 
   12400    1265.0885   -122.12904    1.1446787   -120.98436   -1907.8172     4.285116     4.285116     4.285116   -1907.8172     16444.93   -9806.6774   -12361.704   -4015.6752     2943.099   -21155.639    78.684239 
   12500    1012.9616   -121.90603   0.91654899   -120.98948   -5907.3511     4.301394     4.301394     4.301394   -5907.3511   -11647.712    -6627.613    553.27189    702.25641    5458.0912    21458.668    79.584352 
   12600    638.08914   -121.56919   0.57735646   -120.99183   -6268.4395    4.2989675    4.2989675    4.2989675   -6268.4395   -172.57194   -12405.707   -6227.0391    13004.769    2708.8468    14007.854    79.449743 
   12700    834.39768   -121.74279   0.75498055   -120.98781    5109.6167    4.2828345    4.2828345    4.2828345    5109.6167    20262.242   -4800.0208   -133.37087    14208.478   -2182.2395    -29952.18    78.558625 
   12800    959.46887   -121.85775    0.8681476   -120.98961    1526.3211    4.3019144    4.3019144    4.3019144    1526.3211    167.73711    9592.3227   -5181.0966   -5549.1626   -3325.1484   -25165.731    79.613241 
   12900    1123.5597   -122.00076    1.0166204   -120.98414   -9838.8514    4.2993079    4.2993079    4.2993079   -9838.8514   -19736.093    4596.1919   -14376.653   -7426.5433    4892.9945    13317.727    79.468615 
   13000    831.17639    -121.7382   0.75206587   -120.98614    10568.249    4.2806664    4.2806664    4.2806664    10568.249    30747.796   -6445.9073    7402.8577    15637.782    5103.7722    11235.514    78.439381 
   13100    767.95263   -121.69096   0.69485968   -120.99611    -10151.67     4.303919     4.303919     4.303919    -10151.67    14009.137   -29276.571   -15187.575    19962.355    -4274.645   -18159.915    79.724585 
   13200    1123.6491   -122.00351    1.0167013   -120.98681   -10661.861    4.3026067    4.3026067    4.3026067   -10661.861   -4668.9627   -10639.644   -16676.976   -6322.7598    4009.3697   -17289.933    79.651681 
   13300    799.60064    -121.7063   0.72349546    -120.9828    30390.196    4.2790899    4.2790899    4.2790899    30390.196    40150.676    35059.597    15960.314   -24918.432    11677.365    13806.394    78.352748 
   13400    789.57487   -121.70846   0.71442394   -120.99403     -3165.17    4.3017043    4.3017043    4.3017043     -3165.17   -6290.4164    6898.2291   -10103.323     1403.033    5449.0737    11991.035    79.601575 
   13500    960.90897   -121.85243   0.86945063   -120.98298    -1712.711    4.3062897    4.3062897    4.3062897    -1712.711   -111.28944   -597.52964   -4429.3138    14820.806    1149.7974   -8048.8143    79.856399 
   13600    1098.7365   -121.97193   0.99415986   -120.97777    21013.701    4.2817048    4.2817048    4.2817048    21013.701    33105.948    12085.895     17849.26   -6322.5204   -4312.1598   -3959.6583    78.496479 
   13700    756.35468   -121.67511   0.68436561   -120.99075   -15474.233    4.2899012    4.2899012    4.2899012   -15474.233   -28123.705   -15042.594    -3256.401   -27900.513    7574.6574     8511.721    78.948135 
   13800    606.26432   -121.54344    0.5485607   -120.99488    -11628.27    4.2993297    4.2993297    4.2993297    -11628.27   -25695.455    2276.9617   -11466.318   -6817.9902    3396.6603     12617.17    79.469826 
   13900    1257.8673   -122.12188    1.1381447   -120.98373    3317.2754    4.3001029    4.3001029    4.3001029    3317.2754    21911.816   -992.19288   -10967.797    18707.337    -8205.293   -8923.0564    79.512709 
   14000    1217.6394   -122.08367    1.1017458   -120.98193   -3885.2532    4.2947867    4.2947867    4.2947867   -3885.2532   -8041.8691   -13138.553    9524.6626   -21266.205    1323.8886     -7042.39    79.218168 
   14100    349.73142   -121.30776   0.31644434   -120.99131    15373.439     4.285824     4.285824     4.285824    15373.439    9752.3627     25874.65    10493.303   -30976.425   -3946.7813     6776.147    78.723245 
   14200    660.99719   -121.59476   0.59808415   -120.99668   -17831.238    4.3070808    4.3070808    4.3070808   -17831.238     -14870.8   -2529.4104   -36093.503   -136.04447   -1117.8957    10401.333    79.900418 
   14300    1243.9075   -122.11089    1.1255137   -120.98538    -1361.292    4.2950829    4.2950829    4.2950829    -1361.292    11155.562     5200.726   -20440.164    1890.3053    -1565.691    5483.2667    79.234561 
   14400    1140.8316   -122.01501    1.0322484   -120.98276    22299.962    4.2745247    4.2745247    4.2745247    22299.962    15149.846    21647.687    30102.354   -17395.999    -1378.094   -9020.4602    78.102239 
   14500    612.32555   -121.55162   0.55404503   -120.99758   -28935.146    4.3050407    4.3050407    4.3050407   -28935.146   -27622.447   -24288.721   -34894.269   -23494.512    2014.4632    7170.6106    79.786933 
   14600    760.54771   -121.67979   0.68815955   -120.99163   -10137.612    4.2979558    4.2979558    4.2979558   -10137.612    14639.558    429.48934   -45481.885   -895.38384    3271.0756    22749.167    79.393665 
   14700    1264.8733   -122.12214     1.144484   -120.97766    13522.279    4.2840929    4.2840929    4.2840929    13522.279    23872.963    20984.998   -4291.1232    10726.334    2913.1682    2208.9768    78.627891 
   14800    852.14297   -121.75502   0.77103687   -120.98398   -9078.2875    4.3008443    4.3008443    4.3008443   -9078.2875    1242.1526   -19180.044   -9296.9714   -12448.845   -1464.7899   -10180.569    79.553844 
   14900    775.42929   -121.68936   0.70162472   -120.98774   -2601.8206    4.2906346    4.2906346    4.2906346   -2601.8206   -3219.3465    5966.2456   -10552.361   -17370.049    2726.3866   -7366.6868     78.98863 
   15000    1013.3772   -121.90468     0.916925   -120.98776    11353.416    4.2928555    4.2928555    4.2928555    11353.416   -880.19335    40783.738   -5843.2969    2926.0297    5732.7502    10357.956    79.111352 
   15100    1326.8582   -122.18444    1.2005692   -120.98387   -5162.8597    4.2946563    4.2946563    4.2946563   -5162.8597   -11953.027    17652.328    -21187.88     277.0086   -4383.3041    2800.3578    79.210955 
   15200    571.31519   -121.50971   0.51693799   -120.99277    17132.652    4.2816693    4.2816693    4.2816693    17132.652    15965.142    19283.068    16149.748   -7332.9036    1337.0741   -22518.819    78.494524 
   15300     513.5278   -121.46475   0.46465075    -121.0001   -20484.902    4.3012408    4.3012408    4.3012408   -20484.902   -46354.294    -18439.46     3339.048    -16930.51    -3462.315   -12643.447    79.575847 
   15400    1135.0369   -122.01494    1.0270052   -120.98793   -5199.7949    4.2956655    4.2956655    4.2956655   -5199.7949   -17324.421    15170.974   -13445.938   -376.52159   -860.80546    6575.1324    79.266809 
   15500    1177.9268   -122.04647    1.0658129   -120.98066    19852.048    4.2813081    4.2813081    4.2813081    19852.048    10823.393    48278.974    453.77764    4224.2533    2336.7996    2789.3261    78.474659 
   15600    717.88601   -121.64172   0.64955835   -120.99217   -17262.939    4.2996739    4.2996739    4.2996739   -17262.939   -21469.909   -35046.191    4727.2844   -22315.138   -2607.9515   -7966.1256     79.48891 
   15700    615.31246   -121.54897   0.55674764   -120.99223    3465.8376    4.2901791    4.2901791    4.2901791    3465.8376   -32380.139    17401.515    25376.137   -15681.303     4143.711   -6637.8694    78.963477 
   15800     1117.879   -121.99673    1.0114804   -120.98525    7221.6888    4.2879353    4.2879353    4.2879353    7221.6888    1289.2529    16179.277    4196.5365    7109.6178   -7907.2486    6644.0189    78.839646 
   15900    975.33361   -121.86838   0.88250235   -120.98587   -14526.988    4.3009038    4.3009038    4.3009038   -14526.988   -7646.0719   -17497.814   -18437.079   -2526.3939   -845.17023    27169.246    79.557143 
   16000    703.48438   -121.62433   0.63652745   -120.98781    3780.2387    4.2844548    4.2844548    4.2844548    3780.2387   -8031.5584   -11264.571    30636.845   -20386.507    3335.5264    7506.5691    78.647823 
   16100    830.75313   -121.74306   0.75168289   -120.99138   -2647.8379     4.294416     4.294416     4.294416   -2647.8379    -37692.55    17348.303    12400.734   -9416.4376   -8089.8003   -15013.461    79.197657 
   16200    1028.7963   -121.91547   0.93087652    -120.9846   -7935.6074    4.3001466    4.3001466    4.3001466   -7935.6074   -10311.753   -4477.2891   -9017.7802     6763.361    3832.8452    12535.417    79.515132 
   16300     1028.066    -121.9127    0.9302157   -120.98249    14201.928    4.2770626    4.2770626    4.2770626    14201.928    19178.774    21855.426    1571.5825   -1379.2439    301.52937    32072.192    78.241437 
   16400    694.72513   -121.62202    0.6286019   -120.99342   -12507.465     4.297836     4.297836     4.297836   -12507.465       -17487   -6425.0235   -13610.371   -20918.437    2018.9725    6892.5207    79.387025 
   16500    1027.6228   -121.91669   0.92981471   -120.98688   -13314.392    4.2972431    4.2972431    4.2972431   -13314.392   -37734.237   -10067.535    7858.5957   -17596.815    9309.3839   -5699.1527     79.35417 
   16600    1026.1676   -121.90948   0.92849801   -120.98098      28154.3    4.2809147    4.2809147    4.2809147      28154.3    22734.905    56344.915      5383.08      9205.65   -3678.2256    614.19405    78.453032 
   16700    922.63111    -121.8222   0.83481602   -120.98738   -20461.517    4.2996406    4.2996406    4.2996406   -20461.517    6598.9251   -33164.383   -34819.093   -2665.8376   -610.00744    39220.281    79.487068 
   16800      518.914   -121.46021   0.46952429   -120.99069    7072.3149    4.2911806    4.2911806    4.2911806    7072.3149    11569.528   -2463.8764    12111.293   -28387.955   -2336.7977    15192.555    79.018789 
   16900    1072.4077   -121.95785   0.97033703   -120.98751    6223.8435    4.2879156    4.2879156    4.2879156    6223.8435   -18448.156    1539.0372     35580.65   -12487.176   -8291.9104   -9360.3699    78.838558 
   17000    1059.0396   -121.94345   0.95824128   -120.98521    220.48969    4.2971642    4.2971642    4.2971642    220.48969     9263.439   -17621.357    9019.3867    4267.2261    1185.6073     12883.44    79.349803 
   17100    767.33703     -121.683   0.69430267    -120.9887    7412.4736    4.2850107    4.2850107    4.2850107    7412.4736    37833.531   -20680.434    5084.3241   -491.47713   -2784.8781    40181.829     78.67844 
   17200     609.8469   -121.54476   0.55180229   -120.99296   -11664.874    4.2975316    4.2975316    4.2975316   -11664.874   -12219.358   -25569.356    2794.0907   -33267.792    19.562906    14087.731    79.370156 
   17300    1082.1843   -121.96162   0.97918305   -120.98244   -11091.562    4.2986171    4.2986171    4.2986171   -11091.562   -30318.816   -11552.888    8597.0177   -28487.688    2812.1307   -16047.198    79.430317 
   17400    1205.3475   -122.06929    1.0906238   -120.97866    10318.441    4.2815091    4.2815091    4.2815091    10318.441    30896.692   -137.35339    195.98295     13887.81   -833.76184    21761.512    78.485717 
   17500     753.9775   -121.67257   0.68221469   -120.99036   -15431.395    4.2930641    4.2930641    4.2930641   -15431.395    4152.9134   -23496.745   -26950.354   -13587.629    3587.9669    31374.741    79.122887 
   17600    663.65054    -121.5914   0.60048496   -120.99091   -9143.3347    4.2958888    4.2958888    4.2958888   -9143.3347   -21621.919    -35740.73    29932.645   -43105.012   -1739.2807     3855.011     79.27917 
   17700    1124.3961   -122.00001    1.0173773   -120.98263    8299.7862     4.292894     4.292894     4.292894    8299.7862   -10792.811   -8704.7023    44396.872   -10386.256   -9444.6588   -10867.387    79.113482 
   17800    1166.3498   -122.03658    1.0553378   -120.98124    1297.6409    4.2940252    4.2940252    4.2940252    1297.6409    8088.2801    2965.6479   -7161.0053    9831.3004    -78.19138    19065.923    79.176041 
   17900    557.67422   -121.49453   0.50459536   -120.98994    7407.5324    4.2886356    4.2886356    4.2886356    7407.5324   -828.53649   -30264.285    53315.419   -17928.013   -1555.9269    33817.197     78.87828 
   18000    670.64773   -121.60022   0.60681616    -120.9934   -8065.0585    4.2983607    4.2983607    4.2983607   -8065.0585   -22844.251   -21379.435     20028.51   -38296.387    -1613.681    9935.3115    79.416104 
   18100    1306.2066    -122.1663    1.1818832   -120.98442    2910.4373     4.293792     4.293792     4.293792    2910.4373   -16712.087    23293.034    2150.3651   -2347.6676   -5660.9366    -13484.03    79.163141 
   18200    1171.2323   -122.04564    1.0597556   -120.98588    10473.743    4.2884463    4.2884463    4.2884463    10473.743    4225.0715     9782.424    17413.732    10542.971   -4397.8256    4884.2036    78.867838 
   18300    436.27795   -121.39172   0.39475346   -120.99697   -16416.401    4.3035419    4.3035419    4.3035419   -16416.401   -33036.786   -31914.762    15702.345    -35118.22    1740.3368    19049.512    79.703633 
   18400    791.00368   -121.70836   0.71571675   -120.99264   -10487.128    4.2954765    4.2954765    4.2954765   -10487.128   -19676.361   -25384.459    13599.435   -31933.541    3029.9847    12297.255    79.256348 
   18500    1500.9844   -122.33712    1.3581222   -120.97899    8611.4582    4.2892845    4.2892845    4.2892845    8611.4582   -6032.5909    11470.786     20396.18    12331.022   -6643.0168   -14529.676    78.914093 
   18600    1020.5725   -121.90605   0.92343546   -120.98262   -21765.701    4.3075647    4.3075647    4.3075647   -21765.701    -32312.57    -10791.52   -22193.011   -9016.0676    1211.8223      6701.59    79.927355 
   18700    441.16765   -121.39284   0.39917776   -120.99366    -7993.276    4.2907312    4.2907312    4.2907312    -7993.276   -19821.306   -2068.7833   -2089.7385   -43384.782   -2583.2883    27034.596    78.993969 
   18800    639.31827    -121.5745    0.5784686   -120.99603    20080.801    4.2870195    4.2870195    4.2870195    20080.801    18590.572    20918.591    20733.241   -20835.618    1791.5714    15773.448    78.789145 
   18900    1451.3824   -122.29148    1.3132413   -120.97824   -9944.6023    4.3101095    4.3101095    4.3101095   -9944.6023   -22803.688    12479.239   -19509.358      9052.84    942.39105   -2749.6355    80.069095 
   19000    920.12669   -121.81744   0.83254997   -120.98489    -5133.915    4.2963717    4.2963717    4.2963717    -5133.915    2938.1431   -19696.792    1356.9039    -16998.38   -8755.9786    3560.0988     79.30591 
   19100    317.36517   -121.27587   0.28715868   -120.98871   -2209.6002    4.2845559    4.2845559    4.2845559   -2209.6002    14286.905   -44819.138    23903.433   -52794.536    4237.4445    26153.665    78.653391 
   19200    1054.4646   -121.94333   0.95410174   -120.98922   -9053.0251    4.2982385    4.2982385    4.2982385   -9053.0251   -5794.1669   -21799.741    434.83307   -12296.236   -2899.2551    18730.461    79.409329 
   19300    1369.8963   -122.21706     1.239511   -120.97755    1998.9567    4.3032545    4.3032545    4.3032545    1998.9567     14142.71   -9563.1566    1417.3169    14506.806    2149.8825   -4771.7631    79.687662 
   19400    931.65528   -121.82967   0.84298128   -120.98669   -640.01339    4.2860455    4.2860455    4.2860455   -640.01339   -13315.205    -24201.63    35596.795   -37150.079    8832.4973    -3927.815    78.735451 
   19500     333.6974   -121.29907   0.30193642   -120.99714    4597.1106    4.2847525    4.2847525    4.2847525    4597.1106   -6945.0148   -14404.713     35141.06   -37759.269   -4780.9176    22813.943    78.664217 
   19600    981.29965   -121.87841   0.88790054   -120.99051     -7642.09    4.3013209    4.3013209    4.3013209     -7642.09   -3951.6029   -21509.904     2535.237    4226.0808    6418.7589    21659.162    79.580295 
   19700    1162.4213   -122.03416    1.0517832   -120.98238    11407.181    4.2968312    4.2968312    4.2968312    11407.181    12278.961   -1892.1181      23834.7    10074.637   -3442.4838   -10396.388    79.331358 
   19800     707.2005   -121.62573   0.63988987   -120.98584    7488.6918    4.2852971    4.2852971    4.2852971    7488.6918   -23987.754    -11357.64    57811.469   -35057.073    2802.6362   -409.63263    78.694213 
   19900     632.2669   -121.56385   0.57208838   -120.99176   -7683.7238    4.2901756    4.2901756    4.2901756   -7683.7238    860.69905   -41618.993    17707.123   -31530.515    3447.7088    21481.926    78.963287 
   20000    994.66626   -121.88679   0.89999494   -120.98679   -3197.7924    4.2997334    4.2997334    4.2997334   -3197.7924    27708.716   -23448.007   -13854.086    13507.595   -1249.4975    32432.874    79.492213 
   20100    1208.5613   -122.07702    1.0935317   -120.98349   -4348.3977    4.2938196    4.2938196    4.2938196   -4348.3977   -21291.851   -6129.9841    14376.642   -4293.4732    5878.3625   -5696.6036    79.164665 
   20200    837.41993   -121.74792   0.75771515   -120.99021   -280.64016    4.2798573    4.2798573    4.2798573   -280.64016   -12566.932   -20151.547    31876.559   -31808.967   -2317.9203   -753.10476    78.394908 
   20300    539.09328   -121.48702   0.48778293   -120.99924   -2498.9684    4.2917108    4.2917108    4.2917108   -2498.9684    8781.8489   -15546.757    -731.9968   -17903.738    389.57249    37628.685    79.048084 
   20400    1113.8001   -121.99594    1.0077897   -120.98815   -15500.211    4.3064578    4.3064578    4.3064578   -15500.211   -8479.3694   -6236.5092   -31784.753    5606.3654   -3356.1357    18957.213    79.865751 
   20500    1137.7996   -122.00915     1.029505   -120.97964    20873.269    4.2859872    4.2859872    4.2859872    20873.269   -7893.8016    23373.555    47140.052   -8068.6082   -3943.7737   -10814.091     78.73224 
   20600    788.24821    -121.7003   0.71322355   -120.98708    7067.4998    4.2857557    4.2857557    4.2857557    7067.4998    385.44502   -7565.4691    28382.523   -29945.405    -1173.801   -557.29799    78.719483 
   20700    537.00476    -121.4755   0.48589319   -120.98961   -18243.837    4.3077159    4.3077159    4.3077159   -18243.837   -10871.778   -46647.243    2787.5119   -9868.4412   -867.07378      32167.5     79.93577 
   20800     983.6721   -121.87455   0.89004719    -120.9845    9542.2767    4.2900276    4.2900276    4.2900276    9542.2767    16314.462    6864.9544    5447.4133    13110.265   -5757.3968    28881.372     78.95511 
   20900    1289.8033   -122.14922    1.1670411   -120.98218    18873.015    4.2810273    4.2810273    4.2810273    18873.015    10287.903    19652.525    26678.617   -6868.7416   -2873.9261   -16170.939    78.459222 
   21000    876.54807   -121.78539   0.79311911   -120.99227   -3497.4256     4.302001     4.302001     4.302001   -3497.4256   -21130.673    8973.0776    1665.3185   -18600.862    7896.7553    9988.6403    79.618045 
   21100     560.0096    -121.4981   0.50670845    -120.9914   -5006.5387    4.3017136    4.3017136    4.3017136   -5006.5387   -3489.5131    9081.3095   -20611.413   -4518.4982    4623.6107    35042.106     79.60209 
   21200    922.51208   -121.81792   0.83470832   -120.98321    2729.7314    4.2905352    4.2905352    4.2905352    2729.7314    9492.9592    1933.6586   -3237.4237    4378.3029    153.08064    10100.089    78.983145 
   21300    1424.7595   -122.26885    1.2891523    -120.9797    5662.4418     4.284497     4.284497     4.284497    5662.4418   -4059.4858    10841.889    10204.922    3612.2662   -3232.9252   -18357.989    78.650148 
   21400    917.69562   -121.82382   0.83035028   -120.99347    -2504.972    4.2962377    4.2962377    4.2962377    -2504.972   -6081.4825   -26342.838    24909.405   -20015.098     5879.189    7924.5791    79.298486 
   21500    571.68149   -121.50974   0.51726943   -120.99247   -21718.231    4.3030861    4.3030861    4.3030861   -21718.231   -3916.3559   -37062.932   -24175.405   -16276.222    3945.2898    42864.993     79.67831 
   21600    929.28852   -121.82662   0.84083978   -120.98578    5726.1274    4.2881162    4.2881162    4.2881162    5726.1274   -3679.4876    32344.724   -11486.854    5128.2263   -10950.807     7745.263    78.849628 
   21700     1215.252   -122.08273    1.0995856   -120.98315    9139.0608    4.2879483    4.2879483    4.2879483    9139.0608     -16654.9    19125.532    24946.551    2735.8014   -3809.0592   -11307.418    78.840363 
   21800    871.87264   -121.78001   0.78888869   -120.99112    8623.2995    4.2874753    4.2874753    4.2874753    8623.2995    5388.0266    11988.958    8492.9139    6591.9503    2607.1094    28983.962    78.814275 
   21900    660.59221   -121.59677   0.59771772   -120.99905   -5798.5897     4.295632     4.295632     4.295632   -5798.5897    12576.411   -18404.733   -11567.447   -10493.689    7426.2566    39966.031    79.264953 
   22000    942.56383   -121.84455   0.85285156   -120.99169   -7297.2279    4.2972476    4.2972476    4.2972476   -7297.2279    -2559.147   -11422.899    -7909.638   -4411.8919   -611.51191    1476.2166     79.35442 
   22100      1141.52   -122.01897    1.0328713    -120.9861    16497.157    4.2754277    4.2754277    4.2754277    16497.157   -12629.399     22832.61    39288.259    16821.944    -16178.28   -7657.0737    78.151749 
   22200    787.96175    -121.7118   0.71296435   -120.99884   -2193.5019     4.293703     4.293703     4.293703   -2193.5019    17953.395   -29671.195    5137.2945      8690.27   -2577.7447    26653.361    79.158214 
   22300    849.07551    -121.7582   0.76826137   -120.98994   -24473.473    4.3067334    4.3067334    4.3067334   -24473.473    5837.1644   -46998.775   -32258.807    1930.6471    1737.4557     41895.07    79.881086 
   22400    1092.9253   -121.97336   0.98890177   -120.98446    21504.999    4.2698342    4.2698342    4.2698342    21504.999    14152.771    34376.037    15986.188    -9678.607   -2794.5048   -5452.3421    77.845413 
   22500    885.29126   -121.79718   0.80103014   -120.99615     5704.785    4.2822745    4.2822745    4.2822745     5704.785   -15676.825    29171.419    3619.7615    222.26809   -3800.2022   -8302.9684    78.527816 
   22600    507.66702   -121.45406   0.45934779   -120.99472   -13987.033    4.3086079    4.3086079    4.3086079   -13987.033   -9149.7897   -7882.6079   -24928.702    17213.557   -7887.8123    24451.953    79.985439 
   22700    988.32248   -121.87977   0.89425495   -120.98552    14146.492    4.2875242    4.2875242    4.2875242    14146.492    11173.434    1486.9167    29779.126   -462.76961      5591.07     25977.79    78.816976 
   22800    1146.9306   -122.01821     1.037767   -120.98044    12546.377    4.2852044    4.2852044    4.2852044    12546.377   -1129.4341    15483.419    23285.146    -2717.898   -613.93374    276.53674    78.689108 
   22900    751.20055   -121.67284   0.67970204   -120.99314   -4964.6808    4.2915318    4.2915318    4.2915318   -4964.6808    -21050.71    21269.497   -15112.829    4078.7132   -12791.632   -13641.608    79.038193 
   23000    690.51925   -121.62291   0.62479633   -120.99812   -4975.6411     4.287751     4.287751     4.287751   -4975.6411   -17457.222    4953.7293   -2423.4301    12651.917    -4581.433    9143.4603     78.82948 
   23100    1059.3326   -121.95296   0.95850641   -120.99445   -10904.189    4.2963875    4.2963875    4.2963875   -10904.189    -18605.54   -21153.169    7046.1413    10928.269   -1297.1516    15609.615    79.306783 
   23200    1187.1489   -122.06467    1.0741572   -120.99051   -6830.0482    4.2884193    4.2884193    4.2884193   -6830.0482     -15106.2   -10501.006    5117.0612    -16817.45    410.84414   -10700.518    78.866348 
   23300    794.18762   -121.71184   0.71859765   -120.99325    7114.4147    4.2817597    4.2817597    4.2817597    7114.4147   -10515.601    26573.684    5285.1615    -4070.963   -1164.2665   -7616.3347    78.499495 
   23400    782.53071   -121.70376   0.70805023   -120.99571    -11610.94    4.3023643    4.3023643    4.3023643    -11610.94   -40945.978    5744.2046     368.9522    12459.525   -7690.5504   -477.08385    79.638219 
   23500    1045.6821   -121.93883   0.94615514   -120.99267    5391.4812    4.2884829    4.2884829    4.2884829    5391.4812   -5710.2959    2442.9571    19441.782   -8744.7682   -987.66127    7254.8565    78.869855 
   23600    948.38286   -121.84742   0.85811674    -120.9893    26243.241    4.2720493    4.2720493    4.2720493    26243.241   -924.56006    21113.674    58540.611   -24258.437     3571.868    1746.6822    77.966629 
   23700    656.70743   -121.59269   0.59420268   -120.99849   -18080.308    4.3017055    4.3017055    4.3017055   -18080.308   -37990.689    3660.3693   -19910.603   -15211.302   -9125.8369   -9514.4258    79.601643 
   23800    743.20276   -121.66764   0.67246548   -120.99517   -9215.4971    4.2940061    4.2940061    4.2940061   -9215.4971   -27171.227    36522.933   -36998.198    10146.572    -11177.27    1013.3499    79.174982 
   23900    1107.8097   -121.98425    1.0023695   -120.98188     14939.22    4.2761776    4.2761776    4.2761776     14939.22   -11561.814    27355.475    29023.998   -12603.333    -231.9864    2976.4136    78.192878 
   24000    1155.0776   -122.03156    1.0451385   -120.98642   -12177.669     4.295845     4.295845     4.295845   -12177.669   -24000.795   -24043.037    11510.825   -27243.165   -192.12391   -5702.0326    79.276744 
   24100    625.54384   -121.56164   0.56600521   -120.99564   -2370.7328    4.2901441    4.2901441    4.2901441   -2370.7328   -14039.545    9642.3582   -2715.0112   -3263.4904   -10797.187   -4780.2024    78.961545 
   24200    552.38605   -121.49743    0.4998105   -120.99762    4028.3796    4.2823295    4.2823295    4.2823295    4028.3796   -26795.147    34566.094    4314.1917    8057.3848   -7747.8093    -5981.633    78.530839 
   24300    1078.3537   -121.97211    0.9757171   -120.99639   -5705.5132    4.2934568    4.2934568    4.2934568   -5705.5132   -23062.775    7531.6561   -1585.4208    10014.879    9631.2019     5416.145      79.1446 
   24400    1334.4563   -122.19779    1.2074441   -120.99034    23254.963    4.2835805    4.2835805    4.2835805    23254.963    23352.072    20421.073    25991.745    -3052.825    4634.9306    1436.2395    78.599682 
   24500    983.49737   -121.88927   0.88988909   -120.99938    2532.8619    4.2894636    4.2894636    4.2894636    2532.8619   -5398.9341     14024.06   -1026.5401   -3816.8197   -5536.1263   -9225.4029    78.923979 
   24600    479.13054   -121.43304   0.43352739   -120.99951   -15225.202    4.2978163    4.2978163    4.2978163   -15225.202   -27832.744      9989.35   -27832.212    7100.5379   -5504.0189    1142.7589    79.385929 
   24700    902.49899   -121.81157   0.81660006   -120.99497    9511.3786    4.2756003    4.2756003    4.2756003    9511.3786   -20496.653    41636.928    7393.8601    9724.7089    -4420.607   -510.14458    78.161217 
   24800    1229.8498    -122.1094    1.1127939   -120.99661    519.56294    4.2859053    4.2859053    4.2859053    519.56294    1238.9984   -4316.1405    4635.8309    9790.0335    2672.7578    7229.1854    78.727725 
   24900    877.92718   -121.78853   0.79436696   -120.99417   -21956.656    4.3021686    4.3021686    4.3021686   -21956.656    -4291.041   -29314.697   -32264.231   -7455.7694   -6661.3252    1636.0848    79.627354 
   25000    781.88874   -121.69921   0.70746936   -120.99174   -3089.8162    4.2820162    4.2820162    4.2820162   -3089.8162   -13711.156    28598.984   -24157.277     546.1688   -17002.591   -6238.2057    78.513604 
   25100    1104.5627   -121.98925   0.99943153   -120.98982    3097.3096    4.2862179    4.2862179    4.2862179    3097.3096   -19002.068    36692.907   -8398.9103    10619.014   -2991.0563    965.83446    78.744955 
   25200      1168.81   -122.04488    1.0575638   -120.98731   -6849.4633    4.2956138    4.2956138    4.2956138   -6849.4633   -2425.7799   -5126.2499    -12996.36   -3048.8896    7371.3319   -353.25341    79.263945 
   25300    334.84161   -121.30035   0.30297172   -120.99737    13166.989    4.2851696    4.2851696    4.2851696    13166.989    17986.965     40105.32   -18591.318   -5251.2694   -7765.4858   -3703.8108    78.687189 
   25400    515.56222   -121.46798   0.46649153   -121.00149   -16254.272     4.294516     4.294516     4.294516   -16254.272   -25028.822    12735.567   -36469.561    -12137.97   -12814.684   -5760.8003    79.203189 
   25500    1230.9315   -122.10597    1.1137727    -120.9922    13940.258    4.2829905    4.2829905    4.2829905    13940.258    6834.2199    26162.166    8824.3885    964.88898   -1524.0412    1008.2279    78.567213 
   25600    1321.5892   -122.19059    1.1958017   -120.99479     10511.67    4.2853957    4.2853957    4.2853957     10511.67    13221.882    21895.614   -3582.4862    13635.839    3228.0357    1527.0486    78.699648 
   25700    657.80009   -121.59458   0.59519135   -120.99939   -27117.476    4.3030113    4.3030113    4.3030113   -27117.476   -8600.7607   -17715.461   -55036.206   -7577.6606   -2977.8481    7693.4767    79.674152 
   25800     636.5717   -121.57309   0.57598346   -120.99711    15622.187    4.2728639    4.2728639    4.2728639    15622.187    34888.701    27216.463   -15238.605   -8955.2454   -10446.296    6309.8515     78.01124 
   25900     1136.719   -122.02668    1.0285272   -120.99815    7430.4834    4.2851085    4.2851085    4.2851085    7430.4834   -8997.3075    29069.343     2219.415    8722.9657   -1006.2721   -2928.7847    78.683827 
   26000    1078.1874   -121.96174    0.9755666   -120.98617   -30311.308    4.3074445    4.3074445    4.3074445   -30311.308   -53958.822   -17991.977   -18983.125    25119.797    7686.0837    1802.9357    79.920664 
   26100    730.23524   -121.64877   0.66073219   -120.98804    4946.3156    4.2729954    4.2729954    4.2729954    4946.3156    18927.769    7078.1156   -11166.938    10148.296    487.51207    4437.2519     78.01844 
   26200    881.52065   -121.79124   0.79761841   -120.99362   -4686.5196    4.2817199    4.2817199    4.2817199   -4686.5196    21345.842   -421.55318   -34983.847   -9772.7946   -10973.772   -1100.5054    78.497306 
   26300    1107.3781   -121.98411     1.001979   -120.98213   -22751.264    4.3045764    4.3045764    4.3045764   -22751.264       -35924   -12632.015   -19697.776    19064.001   -6454.6733   -4030.0241    79.761125 
   26400    917.82864   -121.81487   0.83047064    -120.9844    4546.9262    4.2822749    4.2822749    4.2822749    4546.9262   -15694.611    22231.731     7103.658    31518.134    14143.057    578.62796    78.527836 
   26500     604.1413    -121.5376   0.54663974   -120.99096   -1415.0999    4.2842101    4.2842101    4.2842101   -1415.0999    14837.539     13490.89   -32573.729   -453.00887    7681.9503    8660.8574    78.634349 
   26600    806.94181   -121.72062    0.7301379   -120.99048   -9093.9778    4.2933671    4.2933671    4.2933671   -9093.9778    4984.3321    5932.7757   -38199.041   -6909.1911   -4495.8146    5538.2635    79.139641 
   26700    1097.8424   -121.98148   0.99335086   -120.98813     18033.83    4.2820044    4.2820044    4.2820044     18033.83     23642.75    14223.405    16235.334   -3492.2299   -1276.3364    12.756015    78.512958 
   26800    986.29607   -121.88409   0.89242141   -120.99167    6594.1794    4.2915235    4.2915235    4.2915235    6594.1794    -3840.422    8666.5194    14956.441    10957.581    13300.811    1040.5683    79.037736 
   26900    682.87398   -121.61297   0.61787873   -120.99509   -5018.1653    4.2924538    4.2924538    4.2924538   -5018.1653   -23897.613    9823.1639   -980.04709    11141.718    26336.353    11403.773    79.089148 
   27000     673.1956   -121.60165   0.60912152   -120.99252    13864.462    4.2829815    4.2829815    4.2829815    13864.462    25537.037    6813.9456    9242.4033   -10282.494    4856.4649    10202.869    78.566714 
   27100    1148.9099   -122.02739    1.0395578   -120.98783   -10063.954    4.2959627    4.2959627    4.2959627   -10063.954   -13251.985   -21036.549     4096.673   -8951.2923   -3849.5124    -3538.062    79.283259 
   27200    1107.6787   -121.98857     1.002251   -120.98632   -11383.292    4.2919231    4.2919231    4.2919231   -11383.292   -33403.357    9917.6375   -10664.157   -5010.2738    23724.098    -4393.902    79.059816 
   27300    987.94658    -121.8813   0.89391482   -120.98738    3869.2766    4.2752634    4.2752634    4.2752634    3869.2766   -5903.7308    36153.593   -18642.033      5499.72    25572.094    4518.9518     78.14274 
   27400    787.33912   -121.70781   0.71240098   -120.99541   -15916.688    4.2964822    4.2964822    4.2964822   -15916.688   -576.37186   -24408.156   -22765.537   -3455.5854   -1905.5953    16675.738    79.312029 
   27500    941.75503   -121.84127   0.85211974   -120.98915   -10118.251    4.2979153    4.2979153    4.2979153   -10118.251   -16458.501   -22501.984    8605.7328   -17692.057   -6175.4753    395.17619    79.391415 
   27600    927.73493   -121.82145   0.83943406   -120.98201    15800.553    4.2782892    4.2782892    4.2782892    15800.553   -17949.997      38848.3    26503.357     -1051.72    20525.841   -7748.7143    78.308771 
   27700    652.43153   -121.58095   0.59033376   -120.99061   -14140.103    4.2925273    4.2925273    4.2925273   -14140.103    -30939.68    9749.3294   -21229.959    9142.2374    24600.815    12289.777    79.093209 
   27800     774.9669    -121.6897   0.70120633   -120.98849   -3061.2798    4.2923866    4.2923866    4.2923866   -3061.2798   -5586.5719   -3074.6739   -522.59359    1486.7593    -2935.385    22153.103    79.085434 
   27900    1270.9417   -122.13277    1.1499747   -120.98279    4042.3832    4.2872162    4.2872162    4.2872162    4042.3832   -2473.6979    5986.1604     8614.687   -6394.6921   -4651.4277    8032.9341    78.799988 
   28000     1098.464   -121.98412    0.9939133   -120.99021   -8776.4241    4.2884688    4.2884688    4.2884688   -8776.4241   -24623.115     12244.59   -13950.747   -5271.3538     29613.59   -7075.8864     78.86908 
   28100    529.82549   -121.47692   0.47939724   -120.99752    15206.505    4.2771498    4.2771498    4.2771498    15206.505    -12239.07    40002.853    17855.733    8601.4285    26593.802    8144.5773    78.246224 
   28200    751.71512   -121.68058   0.68016764   -121.00042   -5638.6849    4.3000642    4.3000642    4.3000642   -5638.6849   -17760.339   -5705.9709    6550.2553    6798.1583   -11768.736    24227.225     79.51056 
   28300    1307.1446   -122.17043    1.1827319   -120.98769    2252.6107    4.2925657    4.2925657    4.2925657    2252.6107    8094.6311   -11515.459     10178.66   -3101.7776   -4458.5098    5716.9359    79.095332 
   28400    1135.2108   -122.00885    1.0271626   -120.98169    26599.337    4.2670248    4.2670248    4.2670248    26599.337     11097.42    42272.757    26427.833    764.94085    24267.173   -15455.784    77.691854 
   28500    560.59383   -121.50281   0.50723708   -120.99557   -20557.076    4.2960385    4.2960385    4.2960385   -20557.076   -30634.974    10399.172   -41435.427   -1462.2661    29251.742    6787.3509    79.287458 
   28600    768.13126   -121.68677   0.69502131   -120.99175   -6355.1421    4.2889052    4.2889052    4.2889052   -6355.1421    612.33729   -2533.2464   -17144.517    10366.215    -4118.113    27406.399    78.893158 
   28700     1121.301   -121.99913    1.0145767   -120.98455    18981.263    4.2788511    4.2788511    4.2788511    18981.263    11170.593    9569.2396    36203.955    3439.9964   -8309.6142    5966.6183    78.339632 
   28800     978.6586   -121.87257   0.88551086   -120.98706   -11790.299       4.2944       4.2944       4.2944   -11790.299   -24759.864   -515.13041   -10095.903   -4497.9296    30557.408   -21014.449    79.196774 
   28900     713.6901   -121.63593    0.6457618   -120.99016     15732.38     4.278513     4.278513     4.278513     15732.38    5082.3281    27750.294    14364.517    3179.8135    19144.473    3750.6557    78.321065 
   29000    825.09845   -121.74158   0.74656641   -120.99502   -7187.3017    4.2877424    4.2877424    4.2877424   -7187.3017   -15185.614    -7797.204     1420.913    5906.5142   -8289.7527    28659.778    78.829006 
   29100    872.04631   -121.78022   0.78904583   -120.99117   -15349.002    4.2934154    4.2934154    4.2934154   -15349.002   -22156.556   -24119.786    229.33689    9028.2171   -10217.798   -158.80454    79.142312 
   29200    1068.0628   -121.95183   0.96640563   -120.98543    10995.148    4.2740402    4.2740402    4.2740402    10995.148    1361.5916    19701.588    11922.265   -2705.2236    11239.258    -27319.38    78.075686 
   29300    990.90699   -121.88708   0.89659346   -120.99049   -14403.799    4.2941245    4.2941245    4.2941245   -14403.799   -14580.005    2260.7172    -30892.11   -2833.6364    13715.894    5444.9765    79.181531 
   29400    745.08607   -121.66616   0.67416953   -120.99199   -8346.3039    4.2902668    4.2902668    4.2902668   -8346.3039   -9778.1704   -3161.7817    -12098.96    11706.769    -9087.637    38226.125     78.96832 
   29500    799.10827   -121.71265   0.72304995    -120.9896    15493.794    4.2751641    4.2751641    4.2751641    15493.794   -9948.5454    11845.036     44584.89   -471.73981   -9015.1806     3559.982    78.137295 
   29600    1038.8643    -121.9291   0.93998627   -120.98911   -6436.3788    4.2935038    4.2935038    4.2935038   -6436.3788   -18673.091   -11493.404    10857.359   -9778.3344    2313.3066   -24303.028    79.147198 
   29700    947.46892   -121.84639   0.85728979    -120.9891    5860.3665    4.2854967    4.2854967    4.2854967    5860.3665    12497.376    3284.1521    1799.5717   -2276.8222    1333.6142    19503.112    78.705211 
   29800    732.08004   -121.65624   0.66240141   -120.99384   -7860.3981    4.2852095    4.2852095    4.2852095   -7860.3981     10898.29    -3919.808   -30559.677    1805.0763    -849.0234    49625.422    78.689389 
   29900    946.72642   -121.84729   0.85661796   -120.99067   -11911.718    4.2879413    4.2879413    4.2879413   -11911.718   -14351.928   -8022.1401   -13361.087   -1354.7253   -4370.9387    8086.5276    78.839979 
   30000    1055.7824   -121.94297   0.95529409   -120.98767    11717.546    4.2790355    4.2790355    4.2790355    11717.546    1224.9455    25659.665    8268.0279   -10893.501   -3415.3584    -17581.84    78.349758 
   30100    639.20813   -121.57517   0.57836895    -120.9968   -24124.018    4.2972725    4.2972725    4.2972725   -24124.018    3709.6179   -22041.521   -54040.151   -5244.8289    3286.9412    37163.193      79.3558 
   30200    686.82813   -121.61981   0.62145652   -120.99836   -8161.9818    4.2834373    4.2834373    4.2834373   -8161.9818    38939.332   -11726.345   -51698.933    5483.5512    294.43691    46254.452      78.5918 
   30300    1321.4023    -122.1831    1.1956325   -120.98746     23092.25    4.2736695    4.2736695    4.2736695     23092.25    14191.145    43514.423    11571.181   -5057.4632   -3916.8535   -11702.411    78.055371 
   30400    1215.2413    -122.0876    1.0995758   -120.98803   -19652.324    4.3022782    4.3022782    4.3022782   -19652.324   -29372.051    -5225.339   -24359.583   -5299.1811   -7377.1264     6108.361     79.63344 
   30500    528.16397   -121.47914   0.47789386   -121.00124   -5120.4967    4.2811472    4.2811472    4.2811472   -5120.4967    20538.265    -12031.87   -23867.885    883.26817   -2115.6373    62168.695    78.465811 
   30600    575.21435    -121.5184   0.52046603   -120.99793    16305.798    4.2712662    4.2712662    4.2712662    16305.798    45537.601    1526.0379    1853.7565   -652.26832    432.55892    21053.486    77.923765 
   30700    1180.4479   -122.05522     1.068094   -120.98713   -16715.212    4.3007249    4.3007249    4.3007249   -16715.212    -17449.57   -14403.091   -18292.973    6233.3267   -4534.5502   -40168.768    79.547216 
   30800    1031.9426   -121.92196   0.93372339   -120.98824    5392.8788    4.2834913    4.2834913    4.2834913    5392.8788    6748.4687    3372.8456    6057.3222    1382.3073   -4235.7533    8127.2668    78.594774 
   30900    865.76971    -121.7723   0.78336663   -120.98894    5150.3975    4.2740733    4.2740733    4.2740733    5150.3975    33401.285   -5789.2605   -12160.831   -2260.4022   -6730.3209    59674.681    78.077499 
   31000    877.18898    -121.7835   0.79369903   -120.98981   -11392.806    4.2926411    4.2926411    4.2926411   -11392.806    10360.895   -21671.891   -22867.423    134.94536    2089.7184    11423.067    79.099501 
   31100    906.26885   -121.80837    0.8200111   -120.98836   -4111.7322    4.2891206    4.2891206    4.2891206   -4111.7322    -10030.76   -10067.646    7763.2092   -111.80225    2369.7423   -40281.308    78.905043 
   31200    760.20812   -121.67875   0.68785229   -120.99089   -2670.1716     4.285046     4.285046     4.285046   -2670.1716    4205.4838   -17563.337    5347.3383    7854.8228    -5893.562   -4936.2185    78.680385 
   31300    1016.9506   -121.90906   0.92015828    -120.9889    4068.5645    4.2833493    4.2833493    4.2833493    4068.5645    15658.855   -3265.6104   -187.55138    3516.4094   -2027.7201    38737.628     78.58696 
   31400    1046.2945   -121.93681   0.94670921    -120.9901    7712.7751    4.2845834    4.2845834    4.2845834    7712.7751    -1331.976    6522.7283    17947.573   -9842.4956    1778.0421    6315.6071    78.654905 
   31500    486.14799   -121.43705   0.43987692   -120.99718    -18472.94    4.2958019    4.2958019    4.2958019    -18472.94   -25413.222   -42315.306    12309.709   -5475.4303    6768.6868    -31631.52    79.274361 
   31600    568.17718    -121.5119   0.51409866    -120.9978   -5278.7162     4.283054     4.283054     4.283054   -5278.7162   -3394.0399   -27214.979    14772.871    7423.9953    1665.1223   -12418.454    78.570707 
   31700    1416.2907   -122.27003    1.2814896   -120.98854    12435.853    4.2785057    4.2785057    4.2785057    12435.853   -2977.8112    27154.399    13130.971    5822.6397    807.63023    12219.043    78.320659 
   31800    1348.9621   -122.21105    1.2205693   -120.99048   -8952.0055    4.2946925    4.2946925    4.2946925   -8952.0055   -23755.779    9051.0844   -12151.322   -8220.2104    7330.9702    1183.1247    79.212955 
   31900     378.8245   -121.34887   0.34276837    -121.0061   -11114.392    4.2850273    4.2850273    4.2850273   -11114.392   -15970.884   -18074.545    702.25464   -4730.9537    4297.9543     -26218.7    78.679353 
   32000    416.42077   -121.38455   0.37678626   -121.00776   -7477.3505    4.2763584    4.2763584    4.2763584   -7477.3505   -20693.631   -29716.733    27978.313    13712.252    1785.3895   -26280.784      78.2028 
   32100    1209.2239   -122.09393    1.0941312    -120.9998   -4229.4787    4.2871798    4.2871798    4.2871798   -4229.4787   -13309.634   -2817.4291    3438.6265     10848.31   -2096.1182    9353.5577    78.797982 
   32200    1155.7294   -122.03975    1.0457282   -120.99403   -3812.0094      4.29121      4.29121      4.29121   -3812.0094    3704.8956    2080.8523   -17221.776   -6066.8295   -5419.9848    25538.205    79.020415 
   32300    702.72957   -121.63123   0.63584449   -120.99539   -3307.6383    4.2821194    4.2821194    4.2821194   -3307.6383    3774.7733   -15853.306    2155.6182     4878.746    5350.4425   -10051.864    78.519282 
   32400    786.71337   -121.70422   0.71183479   -120.99239    2593.5939    4.2814496    4.2814496    4.2814496    2593.5939   -13219.767   -3105.6804    24106.229    15045.982    516.87569   -28610.597    78.482441 
   32500    929.05175   -121.83151   0.84062555   -120.99089   -4833.9135    4.2889561    4.2889561    4.2889561   -4833.9135   -5788.5774   -3440.8858   -5272.2774    4441.3466   -6389.5494     13893.11    78.895969 
   32600    815.31861   -121.73195   0.73771741   -120.99423   -540.35471     4.282504     4.282504     4.282504   -540.35471    18087.544   -11130.874   -8577.7345   -2730.0339   -5886.9561    51139.753    78.540442 
   32700     955.7353   -121.85839   0.86476938   -120.99362     3920.538    4.2848242    4.2848242    4.2848242     3920.538    9464.8478   -9716.7343      12013.5    952.20526    499.78646    9163.9206    78.668164 
   32800    1284.2242   -122.14987    1.1619931   -120.98788   -5420.6597    4.2890856    4.2890856    4.2890856   -5420.6597    -11548.66   -9165.8031    4452.4843    6139.5683      4092.67   -30784.494    78.903112 
   32900    646.33069   -121.57967   0.58481359   -120.99486    1883.0753     4.284072     4.284072     4.284072    1883.0753    20668.784   -18350.515    3330.9574    5538.2139    -6542.918    21622.741    78.626744 
   33000    465.36154   -121.42066    0.4210689    -120.9996   -14362.052    4.2902897    4.2902897    4.2902897   -14362.052    23398.728    -19099.09   -47385.794   -7868.9625   -8133.6728    58387.369    78.969584 
   33100    1181.7783   -122.06345    1.0692978   -120.99415      2542.62     4.282035     4.282035     4.282035      2542.62    6490.3396    18171.484   -17033.963   -8371.5791   -1275.1148    7467.9089    78.514641 
   33200    1409.7814   -122.26519    1.2755998   -120.98959    19342.008    4.2793691    4.2793691    4.2793691    19342.008    19781.206    24482.857    13761.961     3728.366    5186.9548   -10981.188    78.368087 
   33300    685.67968   -121.62197   0.62041739   -121.00155    -13028.29     4.296441     4.296441     4.296441    -13028.29    21913.695   -24493.586   -36504.979    8799.0845    5010.2315    43079.286    79.309743 
   33400    450.47966   -121.40934   0.40760346   -121.00174   -3597.6531    4.2837618    4.2837618    4.2837618   -3597.6531    13597.409   -18680.671   -5709.6971    4754.5835   -5669.4549    43606.669    78.609666 
   33500    950.76537   -121.85363   0.86027249   -120.99335    14342.678     4.278161     4.278161     4.278161    14342.678    4459.6718    8748.9886    29819.375   -14851.206   -7465.6588    -8274.375    78.301734 
   33600    1144.3811   -122.02285      1.03546   -120.98739   -5646.0757    4.2973218    4.2973218    4.2973218   -5646.0757   -3616.1961   -12202.605   -1119.4257   -12775.785    612.76006   -4186.2328    79.358534 
   33700    905.34468   -121.80689   0.81917489   -120.98771   -6450.9411    4.2905572    4.2905572    4.2905572   -6450.9411     8629.168   -26425.982   -1556.0097    12427.368    73.101724     36664.83    78.984359 
   33800    792.14743   -121.70338   0.71675164   -120.98662    1402.2486    4.2786229    4.2786229    4.2786229    1402.2486    3549.7123   -17097.751    17754.785    15763.017   -5684.1807    30911.141    78.327098 
   33900    1047.0898   -121.93588   0.94742883   -120.98845   -9538.6213    4.2876629    4.2876629    4.2876629   -9538.6213    -32109.47   -11720.843    15214.449   -3652.0211   -13496.906   -9000.0938    78.824621 
   34000    1156.4145   -122.03385    1.0463482    -120.9875   -7556.5001    4.2906929    4.2906929    4.2906929   -7556.5001   -15743.029   -12834.623    5908.1521   -17244.447   -8606.0501   -7088.8108    78.991853 
   34100    895.69451   -121.79993   0.81044322   -120.98948   -3543.3768    4.2867689    4.2867689    4.2867689   -3543.3768    8800.6376   -31445.425    12014.657    6364.3621    1377.4066    18207.631    78.775327 
   34200    696.70691   -121.62296   0.63039505   -120.99257   -7127.3686    4.2873204    4.2873204    4.2873204   -7127.3686   -7123.6754   -34229.863    19971.433    29591.629   -1501.6882    19564.104    78.805736 
   34300    993.82324   -121.88949   0.89923215   -120.99025    6393.9316    4.2846404    4.2846404    4.2846404    6393.9316   -6499.8859   -5999.2127    31680.893    10735.541     -2250.88   -255.88379     78.65804 
   34400     1233.722   -122.10148    1.1162976   -120.98518    12954.722    4.2872661    4.2872661    4.2872661    12954.722     11239.45   -3664.6285    31289.345   -9320.3438   -4802.0741   -8613.7194    78.802743 
   34500    700.18527   -121.62853   0.63354234   -120.99499   -10590.623    4.2922393    4.2922393    4.2922393   -10590.623    21236.314   -47929.894   -5078.2901     10269.56    4685.5992    8794.8109    79.077289 
   34600    337.47318    -121.3044   0.30535282   -120.99905    -1145.331     4.281953     4.281953     4.281953    -1145.331    30183.039   -43148.983    9529.9508    34604.532    7640.8362     19359.26     78.51013 
   34700    1138.3633   -122.02107    1.0300151   -120.99105    5199.2024    4.2847309    4.2847309    4.2847309    5199.2024    3398.6543   -11838.289    24037.242    13340.292     2401.508    3498.6994    78.663027 
   34800    1341.2159   -122.19798    1.2135604   -120.98442   -14185.168    4.2967654    4.2967654    4.2967654   -14185.168   -10319.196   -23487.168   -8749.1409   -16087.735   -1682.0504   -8838.4131    79.327712 
   34900    657.37789   -121.59192   0.59480933   -120.99712    923.32282     4.275373     4.275373     4.275373    923.32282    30720.729   -27402.398   -548.36291    2381.0827   -4605.4859    8164.7424    78.148751 
   35000    650.87701   -121.58794    0.5889272   -120.99901    1300.2358    4.2761748    4.2761748    4.2761748    1300.2358    23576.309   -33075.592     13399.99    31241.957    977.50788    18212.604    78.192724 
   35100    963.38312   -121.86035   0.87168929   -120.98866   -17739.743    4.3013001    4.3013001    4.3013001   -17739.743   -29189.345    -28763.47    4733.5873    2796.2821    12610.869    2287.0158    79.579137 
   35200    858.72841    -121.7676   0.77699551   -120.99061    3806.4277    4.2803332    4.2803332    4.2803332    3806.4277   -2972.4248   -5490.3963    19882.104   -33257.897    8087.1163   -4329.7748    78.421066 
   35300    681.41432   -121.60741     0.616558   -120.99086    12280.375    4.2740805    4.2740805    4.2740805    12280.375    38037.589   -25182.054     23985.59   -15696.275   -3578.5556    10168.812    78.077897 
   35400    1047.8527    -121.9333   0.94811912   -120.98518    -11074.95    4.2968314    4.2968314    4.2968314    -11074.95    15061.019   -40547.139   -7738.7308    11676.633   -7764.6344    12860.613    79.331369 
   35500    1073.2736   -121.95569    0.9711205   -120.98457    3377.7621    4.2865685    4.2865685    4.2865685    3377.7621    2781.3475   -985.91274    8337.8515    -8865.345    14455.888    -220.0608    78.764281 
   35600    652.16048   -121.58065   0.59008851   -120.99056   -5232.3768    4.2802768    4.2802768    4.2802768   -5232.3768   -30102.753    -10777.75    25183.372   -40443.071    21209.286   -2269.9675    78.417963 
   35700    822.22424   -121.73566   0.74396577   -120.99169   -13659.892    4.2862112    4.2862112    4.2862112   -13659.892    -9068.904   -28329.567   -3581.2058    -20004.81    3428.7266     9599.932    78.744587 
   35800    1214.5487   -122.08621    1.0989492   -120.98726    2490.8516    4.2882266    4.2882266    4.2882266    2490.8516     29179.66   -5151.5389   -16555.566    15787.554    -3025.767    10461.121    78.855717 
   35900     1024.702   -121.91461   0.92717188   -120.98744   -6838.5954    4.2913082    4.2913082    4.2913082   -6838.5954   -7708.4705   -14296.854     1489.538   -8809.1807    11023.487   -929.08922    79.025842 
   36000    634.39266   -121.56515   0.57401181   -120.99114    2695.7826    4.2805604    4.2805604    4.2805604    2695.7826   -8365.2131   -2899.2178    19351.779   -34501.865    23883.447   -3533.4409    78.433555 
   36100    755.86736    -121.6778   0.68392468   -120.99387    4727.1174    4.2825358    4.2825358    4.2825358    4727.1174    16288.309   -74.546994   -2032.4101   -16454.346    8138.1411     11978.17    78.542192 
   36200     1109.748   -121.99217    1.0041233   -120.98805   -4741.1424     4.292611     4.292611     4.292611   -4741.1424    21424.237   -28921.987   -6725.6772    10389.147   -8321.4644    19010.983    79.097835 
   36300    1003.7869   -121.89642   0.90824748   -120.98818    4938.9622    4.2843686    4.2843686    4.2843686    4938.9622   -133.97426   -7194.5317    22145.393    1139.1696    178.46403    463.82983    78.643075 
   36400    820.60902   -121.73346   0.74250428   -120.99096   -3957.4867    4.2828644    4.2828644    4.2828644   -3957.4867   -35404.591    8341.5724    15190.559   -22242.591    19881.424   -2478.3597     78.56027 
   36500      812.185   -121.72394   0.73488206   -120.98905   -3727.7572    4.2876734    4.2876734    4.2876734   -3727.7572   -3846.3317   -7922.1761    585.23619   -17351.474     14482.97    16953.199    78.825199 
   36600    908.97956   -121.80934   0.82246381   -120.98687   -2957.0072    4.2882216    4.2882216    4.2882216   -2957.0072    11151.385   -14740.073   -5282.3336    8651.4096   -10638.129    21421.864     78.85544 
   36700    942.99637   -121.84183   0.85324294   -120.98859   -7793.9519      4.28586      4.28586      4.28586   -7793.9519   -21015.766    167.16479   -2533.2544     10292.11   -7560.6795   -3564.2661    78.725228 
   36800    990.38279   -121.88484   0.89611916   -120.98872    3025.4689    4.2789135    4.2789135    4.2789135    3025.4689   -17627.525    8686.2569    18017.675   -595.25857    11405.022   -9010.8249    78.343057 
   36900    929.09469   -121.83281    0.8406644   -120.99214    1457.9335    4.2854487    4.2854487    4.2854487    1457.9335    20245.854   -11547.705   -4324.3482    -8737.393    8979.4134    27176.399    78.702565 
   37000    717.37001   -121.64172   0.64909146   -120.99263   -9773.7435    4.2957509    4.2957509    4.2957509   -9773.7435    15857.301   -16548.833   -28629.698    5065.5057   -6144.5443    30049.903    79.271535 
   37100    898.93799   -121.79984   0.81337799   -120.98646    4488.5874    4.2850325    4.2850325    4.2850325    4488.5874    3433.8736    -793.6616     10825.55    18228.965   -15855.829   -10265.634    78.679638 
   37200    1033.5773   -121.91694   0.93520251   -120.98174    15329.745    4.2785616    4.2785616    4.2785616    15329.745    19778.528    7402.5473    18808.161    7434.3768   -5776.0035    -6408.646    78.323731 
   37300    777.92401   -121.69501   0.70388199   -120.99113    2637.7253    4.2885374    4.2885374    4.2885374    2637.7253    25093.798   -8359.2195   -8821.4028   -6565.3391    5899.7079    44241.166    78.872864 
   37400    838.07737   -121.75056   0.75831002   -120.99225    4621.4924    4.2885516    4.2885516    4.2885516    4621.4924     30837.39    -8642.983   -8329.9302   -8543.1404   -3511.0713    36910.242    78.873647 
   37500    1213.2277   -122.08463    1.0977539   -120.98688    16047.359    4.2801411    4.2801411    4.2801411    16047.359    13643.572    23166.651    11331.854    3683.0113   -15406.853   -14674.548    78.410507 
   37600    924.76851   -121.82943   0.83674998   -120.99268    3526.3597     4.284892     4.284892     4.284892    3526.3597    3111.5671    8976.1048    -1508.593     13769.58   -17985.104    2112.1214    78.671901 
   37700    462.96052   -121.41527   0.41889641   -120.99637   -8972.4765    4.2911796    4.2911796    4.2911796   -8972.4765    33468.786   -26217.937   -34168.278    789.55818    -228.3212    46511.377    79.018734 
   37800    856.17026    -121.7637   0.77468084   -120.98902   -5036.8362    4.2862905    4.2862905    4.2862905   -5036.8362     15044.97   -9488.7172   -20666.761    -11948.66    1590.7128    19454.969    78.748953 
   37900    1177.9434   -122.04893     1.065828    -120.9831    -1429.681    4.2840623    4.2840623    4.2840623    -1429.681   -17170.754    23072.088   -10190.378    -11139.39   -18317.046   -17308.732    78.626208 
   38000    831.04931   -121.74226   0.75195088    -120.9903   -4787.7062    4.2818554    4.2818554    4.2818554   -4787.7062    7290.7941    12110.837   -33764.749    1697.5855   -18134.834    27036.378    78.504762 
   38100    703.58933    -121.6315   0.63662241   -120.99488   -4920.6933    4.2833823    4.2833823    4.2833823   -4920.6933    31539.664   -7865.4014   -38436.343     6225.968    3295.6495    55263.533    78.588772 
   38200    958.99269   -121.85743   0.86771674   -120.98971   -9528.0032    4.2925466    4.2925466    4.2925466   -9528.0032    3646.8448   -13736.877   -18493.977   -6896.7491    5608.5945    1077.8416    79.094275 
   38300    947.88144   -121.84758   0.85766305   -120.98991    1140.3758    4.2812479    4.2812479    4.2812479    1140.3758   -3252.0634    5503.8841    1169.3066   -13232.049   -7836.6857   -24207.782    78.471352 
   38400    572.53469   -121.51392   0.51804142   -120.99587    1909.7243    4.2776252    4.2776252    4.2776252    1909.7243     27079.58   -13363.605   -7986.8016   -6152.3829   -8725.6218     31199.17    78.272315 
   38500    807.22335   -121.72596   0.73039265   -120.99557   -11289.226    4.2934993    4.2934993    4.2934993   -11289.226     16013.91   -28984.524   -20897.064    5313.6617   -8584.6807    47712.203    79.146949 
   38600    1309.3391   -122.17101    1.1847175   -120.98629    5853.4697    4.2843044    4.2843044    4.2843044    5853.4697    1420.0433    437.76296    15702.603    2762.7618    3871.1816   -3145.5183    78.639539 
   38700    1082.8537   -121.96966   0.97978876   -120.98987    1801.7761    4.2801552    4.2801552    4.2801552    1801.7761   -6829.0485   -15701.997    27936.374   -11066.408    2639.3229   -8694.8872    78.411282 
   38800    640.66166   -121.57638   0.57968414    -120.9967   -19638.319    4.2886333    4.2886333    4.2886333   -19638.319   -1041.6415   -41796.723   -16076.591   -15756.555   -9714.5744    33761.305    78.878156 
   38900    812.69702   -121.73104   0.73534534    -120.9957    -5247.002    4.2827295    4.2827295    4.2827295    -5247.002   -143.63299    3748.4488   -19345.822   -3274.2854   -4100.9346    29612.409    78.552851 
   39000    1160.4184   -122.04048     1.049971   -120.99051   -4974.0891    4.2870213    4.2870213    4.2870213   -4974.0891   -28880.688    13880.482    77.938653    13380.493    3954.1532   -7771.6407    78.789243 
   39100    941.89965   -121.84408    0.8522506   -120.99183   -4960.0267    4.2863246    4.2863246    4.2863246   -4960.0267    -21119.86     707.1519    5532.6283   -3469.0312    7231.0688    -2087.924    78.750834 
   39200    623.41214   -121.55939    0.5640764   -120.99531    26.451856    4.2800815    4.2800815    4.2800815    26.451856   -2041.4322   -4963.1813    7083.9691   -18049.833   -2918.6474    36717.209    78.407232 
   39300    898.75285   -121.80622   0.81321047   -120.99301    -8583.174    4.2919602    4.2919602    4.2919602    -8583.174    -6434.504   -8937.1787   -10377.839   -3030.6845   -4230.4383     24524.55    79.061866 
   39400     1262.388   -122.12533    1.1422352   -120.98309   -3018.2599     4.289658     4.289658     4.289658   -3018.2599   -14678.217    20109.599   -14486.162      8281.57    10788.002   -18353.688    78.934705 
   39500    902.99196    -121.8043    0.8170461   -120.98725    1343.4209    4.2805005    4.2805005    4.2805005    1343.4209   -8565.4744     2861.687    9734.0501    365.32177    9643.9654    2159.1196    78.430259 
   39600    582.07433    -121.5213   0.52667308   -120.99462   -7608.0892    4.2846118    4.2846118    4.2846118   -7608.0892   -2830.5474    -28432.91    8439.1902   -14381.882    2079.2023     43376.33    78.656465 
   39700    916.09064   -121.82271   0.82889806   -120.99381    4403.3171    4.2863686    4.2863686    4.2863686    4403.3171    7707.3667    9976.7856    -4474.201   -10769.778   -3035.9255     21635.89    78.753263 
   39800    1274.2045   -122.14052     1.152927    -120.9876    6088.2546    4.2881622    4.2881622    4.2881622    6088.2546   -14.431914    16244.084    2035.1116    5171.5153    4160.4495   -29787.291    78.852164 
   39900    908.99989   -121.81417    0.8224822   -120.99169   -267.99077    4.2842042    4.2842042    4.2842042   -267.99077    4907.1413    692.13277   -6403.2464   -3304.9893    11403.112   -6905.8945    78.634024 
   40000    634.96112   -121.56956   0.57452616   -120.99503   -5186.7782    4.2834357    4.2834357    4.2834357   -5186.7782    10482.417   -16025.598   -10017.154    -17522.68    3333.2401     44155.92    78.591712 
   40100    1031.1787   -121.92363   0.93303219    -120.9906   -13778.168    4.2913018    4.2913018    4.2913018   -13778.168     322.7876   -33590.037   -8067.2554   -14530.672   -4564.2336    18479.767    79.025487 
   40200    1246.1192   -122.11227    1.1275149   -120.98475   -2417.5766    4.2852581    4.2852581    4.2852581   -2417.5766     4578.242   -13247.823    1416.8508   -1573.2974     -5897.73   -35282.071     78.69207 
   40300    881.30755    -121.7866    0.7974256   -120.98918   -688.86398    4.2818061    4.2818061    4.2818061   -688.86398    24757.616   -14503.844   -12320.363    3304.7555    8072.1668   -1176.5061    78.502047 
   40400    672.10489   -121.60094   0.60813463    -120.9928   -5480.2866     4.289536     4.289536     4.289536   -5480.2866    18370.399   -26747.327   -8063.9319     -9682.26    9350.9131    41408.537    78.927974 
   40500     862.7515   -121.77047   0.78063569   -120.98983    1604.2449    4.2888355    4.2888355    4.2888355    1604.2449    914.74931   -4752.6493    8650.6346   -11448.598    -15827.73    14112.446    78.889309 
   40600    991.39307   -121.88397   0.89703329   -120.98693    10576.768    4.2813929    4.2813929    4.2813929    10576.768    16246.862    13343.378    2140.0657   -2765.0469   -19727.276    -19409.71    78.479321 
   40700    886.55084   -121.79251   0.80216983   -120.99034    6124.8866    4.2834577    4.2834577    4.2834577    6124.8866    34578.499   -6590.5507   -9613.2887    7063.1332    3765.1092    5573.5003    78.592925 
   40800    741.91771   -121.66292   0.67130274   -120.99162    -1246.821    4.2884252    4.2884252    4.2884252    -1246.821    28461.711   -15315.985   -16886.189    3137.5417    19643.897    29502.113    78.866672 
   40900    747.74658   -121.66635   0.67657682   -120.98978   -4193.1194    4.2871232    4.2871232    4.2871232   -4193.1194   -6644.7878    1256.1136   -7190.6841   -12223.073   -14598.629    5240.8082    78.794862 
   41000    803.71246   -121.71618   0.72721592   -120.98896   -11367.461    4.2852936    4.2852936    4.2852936   -11367.461   -31394.882    10210.797   -12918.297   -12631.436   -41874.306   -12368.019    78.694022 
   41100    1007.6299   -121.89927    0.9117247   -120.98755    -3679.861     4.281494     4.281494     4.281494    -3679.861    2771.6403   -531.22055   -13280.003     4268.687    709.22695    15363.174    78.484885 
   41200    1117.4001   -121.99929    1.0110471   -120.98824   -4916.2516    4.2845228    4.2845228    4.2845228   -4916.2516    9988.2727   -15190.287   -9546.7403    1487.3868    17233.369    28929.074    78.651567 
   41300    742.35051   -121.66597   0.67169434   -120.99428   -12171.555    4.2896132    4.2896132    4.2896132   -12171.555   -31322.545    -705.9684   -4486.1526   -12589.442   -29721.674    5207.3286    78.932237 
   41400    694.45898    -121.6229   0.62836108   -120.99454   -198.99317    4.2814928    4.2814928    4.2814928   -198.99317   -26356.827    14351.956    11407.891   -16279.107   -43392.572   -7503.1757    78.484818 
   41500    1052.7222    -121.9432   0.95252515   -120.99067     9750.977    4.2812787    4.2812787    4.2812787     9750.977    17239.785   -4825.2117    16838.358   -2900.0832   -2972.3724    13234.011    78.473043 
   41600    1157.7838   -122.03584    1.0475871   -120.98825    6608.9388    4.2888122    4.2888122    4.2888122    6608.9388    28420.173     -14087.3    5493.9438    6870.9711    12787.024    25444.177    78.888027 
   41700    818.17197   -121.73419    0.7402992   -120.99389    2093.5592     4.283941     4.283941     4.283941    2093.5592   -5818.7104     18926.91   -6827.5218   -6467.1357   -31068.361    6279.4346    78.619533 
   41800    664.40526   -121.59696   0.60116784   -120.99579   -907.76122    4.2821798    4.2821798    4.2821798   -907.76122   -28151.894    26338.987    -910.3765   -22667.592   -41395.789   -8233.5536    78.522602 
   41900    997.10642   -121.89198   0.90220285   -120.98978   -1585.6886    4.2871661    4.2871661    4.2871661   -1585.6886   -8545.2228    4113.2829   -325.12586   -9496.7646   -662.31113    9693.4374    78.797227 
   42000    1082.4562   -121.96711   0.97942908   -120.98768   -4009.1395    4.2876168    4.2876168    4.2876168   -4009.1395    3247.9902   -3822.5514   -11452.857    10818.525    6412.8172    22160.931     78.82208 
   42100    743.56316   -121.66503   0.67279157   -120.99224   -4794.5972    4.2831733    4.2831733    4.2831733   -4794.5972     -13619.9    16926.661   -17690.553    10504.103   -35014.575    6242.5159     78.57727 
   42200    827.09227    -121.7408   0.74837047   -120.99243   -3786.4883    4.2829677    4.2829677    4.2829677   -3786.4883   -21295.716    19245.811   -9309.5593   -13164.296   -37153.542   -9832.0979    78.565956 
   42300    1118.8343   -122.00061    1.0123448   -120.98827   -6181.4752    4.2891652    4.2891652    4.2891652   -6181.4752    3518.6812   -18207.536   -3855.5713   -14935.616    7332.9116    8750.7931    78.907509 
   42400    872.61492   -121.77737   0.78956031   -120.98781   -7488.9958     4.288533     4.288533     4.288533   -7488.9958    16282.993   -22572.684   -16177.297    6893.2587     2376.187    27470.041    78.872622 
   42500    553.14517   -121.49062   0.50049737   -120.99012   -11626.472    4.2876047    4.2876047    4.2876047   -11626.472   -15023.248    14426.003   -34282.171    6928.8527   -44020.574    8587.2723     78.82141 
   42600    950.83797   -121.85032   0.86033818   -120.98998   -3160.8883     4.284642     4.284642     4.284642   -3160.8883   -19532.705    25197.597   -15147.557   -4626.2504   -31407.343    -10811.99    78.658129 
   42700    1381.0689    -122.2349    1.2496201   -120.98528    16374.945    4.2779167    4.2779167    4.2779167    16374.945    11525.792    21077.178    16521.866   -10783.001    14634.964    4575.1505    78.288319 
   42800    811.40591   -121.73311   0.73417712   -120.99893   -491.49205    4.2898794    4.2898794    4.2898794   -491.49205    -14701.56    21785.348   -8558.2647   -4485.3797   -9243.8715    20024.344    78.946933 
   42900    361.85624     -121.329   0.32741513   -121.00159   -18115.378    4.2950896    4.2950896    4.2950896   -18115.378   -42386.319    21920.932   -33880.748    7802.3869   -51833.216    11886.798    79.234931 
   43000    1062.7966   -121.95278   0.96164067   -120.99114    14983.526    4.2755905    4.2755905    4.2755905    14983.526   -6574.4201    36677.585    14847.414    6968.7956   -16484.642   -11218.105    78.160675 
   43100    1505.5267    -122.3463    1.3622322   -120.98406     10827.59    4.2857941    4.2857941    4.2857941     10827.59    -3980.264    12552.373     23910.66    833.83623    16267.534   -6974.7497    78.721597 
   43200    675.13314   -121.60837   0.61087465   -120.99749   -19399.803    4.2972804    4.2972804    4.2972804   -19399.803   -35554.398     11959.49   -34604.502   -2085.4896   -30733.468    15650.274    79.356238 
   43300    269.15189   -121.24406   0.24353429   -121.00053   -3058.1365    4.2774404    4.2774404    4.2774404   -3058.1365   -24580.787     33116.68   -17710.302    5970.8811   -45657.716    19847.297    78.262171 
   43400    965.18114   -121.87007   0.87331618   -120.99675    1955.5303    4.2811667    4.2811667    4.2811667    1955.5303   -18174.541    3801.0296    20240.103    17182.343    3036.0044    5087.9183    78.466884 
   43500    1325.7528   -122.18841     1.199569   -120.98884   -2907.1625    4.2911839    4.2911839    4.2911839   -2907.1625   -21221.713    4116.6211    8383.6047    7600.3206    10256.236   -7101.0516    79.018975 
   43600    845.88589   -121.75999   0.76537533   -120.99462    6938.6178    4.2820787    4.2820787    4.2820787    6938.6178   -9790.3501    31397.018   -790.81418   -2641.1548   -34733.195    12045.518    78.517045 
   43700    617.87681   -121.55566   0.55906792   -120.99659   -5129.0258    4.2877031    4.2877031    4.2877031   -5129.0258   -9653.7124    6457.5114   -12190.876    3449.0909   -36209.753    23148.698    78.826837 
   43800     969.7776   -121.86685   0.87747515   -120.98937   -23.390467    4.2883913    4.2883913    4.2883913   -23.390467   -8690.1079   -2296.9803    10916.917    12474.979    7606.2239    12065.736    78.864803 
   43900    1093.3242   -121.97391   0.98926271   -120.98465    13994.436     4.282729     4.282729     4.282729    13994.436    -8720.838    21032.464    29671.683    1214.7241    3480.8714   -6635.5659    78.552822 
   44000    844.08621   -121.75304   0.76374694   -120.98929   -2370.7398    4.2895897    4.2895897    4.2895897   -2370.7398   -9148.7416    17705.752    -15669.23   -10954.151   -35724.069    241.93651    78.930939 
   44100    813.20377   -121.72606   0.73580386   -120.99025    6234.4367    4.2825328    4.2825328    4.2825328    6234.4367    11269.543    28743.584   -21309.817     202.8726   -25734.344    22396.888    78.542024 
   44200    837.03015   -121.74791   0.75736247   -120.99055    8086.9864    4.2804953    4.2804953    4.2804953    8086.9864    12869.259    5273.6935    6118.0066    10019.738    7874.7245    14225.341    78.429976 
   44300    851.60164   -121.76144   0.77054706    -120.9909   -9572.3966    4.2920168    4.2920168    4.2920168   -9572.3966   -26317.178   -8956.6194    6556.6078     4740.613    6205.1274   -5708.6768    79.064994 
   44400    939.16986   -121.83892   0.84978063   -120.98914   -1838.5845    4.2832875    4.2832875    4.2832875   -1838.5845   -19767.343    15805.712   -1554.1219   -12259.143   -17893.513   -3258.2152    78.583554 
   44500    1033.5722   -121.92313   0.93519782   -120.98793   -518.65397    4.2809435    4.2809435    4.2809435   -518.65397    6520.3464    9984.9217    -18061.23   -2501.2892   -17110.762    22959.054    78.454614 
   44600    903.98962    -121.8081   0.81794881   -120.99015    -15799.52    4.2898747    4.2898747    4.2898747    -15799.52   -17327.767   -18079.284   -11991.508    18771.063    13574.587    23626.153    78.946674 
   44700    657.08176   -121.58696   0.59454139   -120.99242   -9819.5163    4.2861574    4.2861574    4.2861574   -9819.5163    -45423.25    2696.4473    13268.254    8655.0404     18970.67   -2346.7116    78.741623 
   44800    1019.4079   -121.91171   0.92238171   -120.98933   -4436.7614     4.286282     4.286282     4.286282   -4436.7614   -23856.847    9605.7406    940.82269   -10217.948   -1015.2468   -2502.2705    78.748488 
   44900    1331.2864   -122.18987    1.2045759    -120.9853    3480.6937    4.2839243    4.2839243    4.2839243    3480.6937    17878.075     3792.885   -11228.879   -8019.3194   -4138.9109    13464.918    78.618612 
   45000     870.7294   -121.78096   0.78785426    -120.9931    6590.7825      4.28208      4.28208      4.28208    6590.7825    6804.7023    10116.619    2851.0266      18958.2    8559.6548    12807.969    78.517114 
   45100    434.32736   -121.39316   0.39298852   -121.00018   -17149.809    4.2928688    4.2928688    4.2928688   -17149.809   -38067.478    -18551.13    5169.1797    16000.997    19711.413    2414.9011    79.112086 
   45200    811.57801   -121.73211   0.73433284   -120.99778    1328.0489    4.2800532    4.2800532    4.2800532    1328.0489   -5623.5518   -1701.6431    11309.342   -11097.677    7191.2928   -7816.4863    78.405678 
   45300    1300.8071   -122.16634    1.1769976   -120.98935    10929.621    4.2786607    4.2786607    4.2786607    10929.621    25036.048    9161.3894   -1408.5728    -11722.94   -10450.861   -11969.471    78.329176 
   45400    933.93759   -121.83552   0.84504636   -120.99048   -21019.126    4.2986816    4.2986816    4.2986816   -21019.126   -29859.564   -15268.544   -17929.269    17469.927   -5038.4715    1840.5364    79.433893 
   45500    654.69722   -121.58279    0.5923838   -120.99041   -6675.7886    4.2840396    4.2840396    4.2840396   -6675.7886   -32699.967    4263.9756    8408.6254    31189.744    11143.719    5099.8366    78.624961 
   45600    1011.9483   -121.90132   0.91563207   -120.98569    5198.4896    4.2785282    4.2785282    4.2785282    5198.4896    11761.474    1480.1973    2353.7971    4718.8062     10724.32   -12269.887    78.321896 
   45700    1168.7118   -122.04268     1.057475   -120.98521    2381.3433    4.2866882    4.2866882    4.2866882    2381.3433    29042.804   -6931.5857   -14967.188    -14200.03   -9992.9975   -22033.527    78.770876 
   45800    781.08393   -121.69758   0.70674116   -120.99084    11130.792    4.2850596    4.2850596    4.2850596    11130.792    24887.274    5462.2311    3042.8699    16541.797   -12783.366   -3956.8576    78.681134 
   45900    696.07587   -121.62424   0.62982407   -120.99442   -9999.6907    4.2898974    4.2898974    4.2898974   -9999.6907   -28380.474   -565.02693   -1053.5713    31310.965    2086.8071    9763.3929    78.947924 
   46000    931.15674   -121.83365   0.84253018   -120.99112      12325.4    4.2743161    4.2743161    4.2743161      12325.4    17728.868     8816.402    10430.931    12461.029    15834.437   -12704.662    78.090807 
   46100    1118.2933   -122.00341    1.0118553   -120.99155    9575.7925    4.2820462    4.2820462    4.2820462    9575.7925    31388.896     851.9261   -3513.4443   -11665.351    1931.4526   -29041.351    78.515256 
   46200    879.10621   -121.78321   0.79543378   -120.98778   -24004.242    4.3014506    4.3014506    4.3014506   -24004.242   -36528.573   -13610.022   -21874.132    13209.328   -13880.452   -4057.4959    79.587491 
   46300    792.32745   -121.70736   0.71691453   -120.99044    10122.326     4.268817     4.268817     4.268817    10122.326   -12668.989    18413.914    24622.053    40963.213   -7158.7537    10975.445    77.789791 
   46400    853.85505   -121.76602   0.77258599   -120.99343    11166.608    4.2716923    4.2716923    4.2716923    11166.608    23930.688    5980.5931    3588.5422    12901.977    4215.5685   -21440.311    77.947087 
   46500    969.98992    -121.8645   0.87766726   -120.98683   -21931.596    4.3000927    4.3000927    4.3000927   -21931.596    -1293.533   -24571.648   -39929.608   -14866.215    6375.9515   -36910.608     79.51214 
   46600    911.76834   -121.81287   0.82498715   -120.98788    4418.2371    4.2786651    4.2786651    4.2786651    4418.2371   -1965.8601    3584.9335    11635.638   -2517.9961    -5390.128   -6830.5844    78.329417 
   46700    824.31863   -121.73356   0.74586082    -120.9877   -2736.3373    4.2754966    4.2754966    4.2754966   -2736.3373   -29736.485   -2721.0281    24248.501    28582.323   -15315.546    9614.0145    78.155529 
   46800    783.90979   -121.69821   0.70929805   -120.98892   -18623.425    4.2887632    4.2887632    4.2887632   -18623.425   -15654.132    -22064.47   -18151.671     21830.19   -5370.4997    -24853.73     78.88532 
   46900    995.37393   -121.88888   0.90063525   -120.98824   -1249.2859    4.2833165    4.2833165    4.2833165   -1249.2859     14540.52   -7335.7255   -10952.652   -16138.798    1869.6871   -40077.463    78.585154 
   47000    1042.8889   -121.93111   0.94362778   -120.98748   -2053.2845    4.2838425    4.2838425    4.2838425   -2053.2845   -16028.792   -8151.1693    18020.107   -4204.0504   -1431.9797   -1552.6227    78.614106 
   47100    802.79452   -121.71871   0.72638535   -120.99233    2344.0142    4.2791929    4.2791929    4.2791929    2344.0142   -34720.272    14456.888    27295.426    22792.996   -10711.125    9683.8124    78.358405 
   47200    663.91823   -121.59766   0.60072717   -120.99693    4274.8094    4.2818931    4.2818931    4.2818931    4274.8094   -2259.0478    8164.8423    6918.6336    22385.544   -10506.879   -23590.927    78.506833 
   47300    1000.0603   -121.89751   0.90487557   -120.99264    1275.1201    4.2883005    4.2883005    4.2883005    1275.1201    16825.307   -982.21495   -12017.731   -2223.0118    2151.6288   -30174.417    78.859792 
   47400    1145.3584   -122.02475    1.0363444    -120.9884    12470.073    4.2780035    4.2780035    4.2780035    12470.073   -1890.2336    26146.756    13153.696   -11644.139    6580.2843   -1080.0924    78.293082 
   47500    806.14236   -121.72374   0.72941455   -120.99433    93.741282    4.2813807    4.2813807    4.2813807    93.741282    -21668.72   -6599.7229    28549.667     7447.631    -1991.592    9355.9119    78.478655 
   47600    691.24658   -121.62119   0.62545443   -120.99574   -8665.5086    4.2867195    4.2867195    4.2867195   -8665.5086     -9934.47   -21532.047    5469.9906    20159.874   -7749.5264   -17747.319    78.772602 
   47700    1060.3874   -121.94912   0.95946085   -120.98966    3878.4902    4.2822154    4.2822154    4.2822154    3878.4902    7826.7087    20957.533   -17148.771    868.94682    2595.4704     -28302.1    78.524563 
   47800    1058.1452   -121.94665     0.957432   -120.98922   -210.08194    4.2829569    4.2829569    4.2829569   -210.08194   -11585.023    16394.664   -5439.8864    -13291.39    18416.124    2823.1467     78.56536 
   47900    671.49041     -121.603   0.60757863   -120.99542   -6002.3524    4.2813221    4.2813221    4.2813221   -6002.3524   -37684.998     469.4457    19208.495    10569.878    8322.2086    10923.279    78.475431 
   48000    774.70471    -121.6959    0.7009691   -120.99493   -8916.3774    4.2858164    4.2858164    4.2858164   -8916.3774   -30235.003   -9502.0705    12987.941    26122.275   -5725.1315   -11209.154    78.722826 
   48100    1260.5737    -122.1266    1.1405936     -120.986   -7417.3619    4.2879103    4.2879103    4.2879103   -7417.3619   -11329.819    2969.5933    -13891.86    5431.1057    6807.3844    -11336.95     78.83827 
   48200    996.53639   -121.89076   0.90168707   -120.98908    4942.3452    4.2782725    4.2782725    4.2782725    4942.3452   -386.62119    29836.671   -14623.014    -6883.236    21531.152    13140.753    78.307858 
   48300    428.82828   -121.38766   0.38801284   -120.99965   -9229.5957    4.2844368    4.2844368    4.2844368   -9229.5957   -20391.226   -4596.4285   -2701.1331    11435.912    12320.344    16215.485    78.646833 
   48400    714.20433   -121.64754   0.64622709   -121.00131   -5947.5942    4.2839829    4.2839829    4.2839829   -5947.5942   -18492.148   -18841.229    19490.594    20889.633   -4682.1494    1437.1509    78.621835 
   48500    1285.1874   -122.15416    1.1628646   -120.99129     16578.58    4.2768206    4.2768206    4.2768206     16578.58    18995.436     27282.99    3457.3143    965.05599    2174.0013   -7037.7537    78.228155 
   48600    995.17311   -121.89443   0.90045354   -120.99398   -12385.862    4.2920307    4.2920307    4.2920307   -12385.862   -8816.3368    15422.849   -43764.098    -6481.827    16388.146    4701.5254    79.065764 
   48700    643.60367   -121.57668   0.58234612   -120.99433   -10815.655    4.2839103    4.2839103    4.2839103   -10815.655   -18189.501   -5986.3567   -8271.1088    10918.506    12820.889    12778.523    78.617839 
   48800    908.47148   -121.81026   0.82200409   -120.98826    4125.0314    4.2753249    4.2753249    4.2753249    4125.0314   -9427.9847   -5763.2536    27566.332     21942.35   -4750.3249    2502.2238    78.146109 
   48900    1021.3097   -121.91137   0.92410246   -120.98726   -12060.196    4.2891117    4.2891117    4.2891117   -12060.196    -10891.28   -225.28351   -25064.025     7217.584   -4822.2879   -16422.726    78.904553 
   49000    874.46695   -121.78039   0.79123607   -120.98916    6405.5702    4.2812817    4.2812817    4.2812817    6405.5702    23582.261    25708.981   -30074.532   -6844.9505    9148.1021   -15434.588    78.473208 
   49100    926.07692   -121.82715   0.83793386   -120.98921    2967.5343    4.2838635    4.2838635    4.2838635    2967.5343    1707.6154    7555.1221   -360.13467     10958.46    9771.8224     2900.784    78.615261 
   49200    953.75926   -121.85235   0.86298142   -120.98937     721.7246    4.2825661    4.2825661    4.2825661     721.7246   -5920.7804   -9322.5356     17408.49    19830.317   -537.19977    2472.8487    78.543858 
   49300    900.90809   -121.80637   0.81516057   -120.99121    7155.1023    4.2760044    4.2760044    4.2760044    7155.1023    21819.793    2756.3452   -3110.8312    1307.1682   -8590.7941   -16821.681    78.183379 
   49400     859.6797   -121.76971   0.77785625   -120.99185    -15342.02    4.2903313    4.2903313    4.2903313    -15342.02   -15898.677    11986.298   -42113.681    -5352.476   -2378.7288   -19087.181    78.971885 
   49500    880.50966   -121.78673   0.79670365   -120.99003   -6011.2332    4.2828289    4.2828289    4.2828289   -6011.2332   -19186.591    13205.891   -12052.999    10769.572    6343.4418    4000.5331     78.55832 
   49600    770.94677   -121.68859   0.69756884   -120.99102     2056.592     4.278629     4.278629     4.278629     2056.592     1190.358   -14400.976    19380.394    27050.573    5303.0717    12625.934    78.327434 
   49700    996.00079   -121.89099   0.90120245   -120.98978   -2871.9207    4.2837518    4.2837518    4.2837518   -2871.9207    4981.5775   -7143.9655   -6453.3742    9129.9836   -5595.5545    2838.0621    78.609112 
   49800    1110.1396    -121.9915    1.0044776   -120.98702    11207.479    4.2802855    4.2802855    4.2802855    11207.479    21995.866    35932.229   -24305.657   -8536.9624   -13081.366   -5384.3963    78.418441 
   49900    771.68583   -121.69157   0.69823756   -120.99333   -9921.0667     4.288553     4.288553     4.288553   -9921.0667   -10327.491   -1096.5638   -18339.146    12007.923   -1800.1738    1048.8749    78.873724 
   50000    659.20698   -121.59218   0.59646433   -120.99571   -3752.8629    4.2782964    4.2782964    4.2782964   -3752.8629   -2409.3412   -21171.997    12322.749     28559.61    7882.2442      17208.8    78.309166 
   50100    1054.1439   -121.94466   0.95381156   -120.99085    5403.2823    4.2766382    4.2766382    4.2766382    5403.2823    12784.311    6136.0954   -2710.5598    8594.3975   -7433.0633    16284.153    78.218148 
   50200    1069.9971   -121.95637   0.96815583   -120.98821   -20296.133    4.2938418    4.2938418    4.2938418   -20296.133   -27975.452    14781.683   -47694.628   -8774.4584   -24175.978   -7165.6658    79.165895 
   50300    740.08359   -121.66211   0.66964319   -120.99247   -566.73744    4.2773639    4.2773639    4.2773639   -566.73744   -11679.683    20723.658   -10744.188    11198.607   -6099.0222   -5249.8981    78.257972 
   50400    844.34075   -121.75613   0.76397725   -120.99216    6985.7812    4.2763675    4.2763675    4.2763675    6985.7812    20745.321    -9268.802    9480.8242    32419.773    15860.633    11177.651    78.203296 
   50500    1156.8361   -122.03373    1.0467296     -120.987   -3132.1964     4.288136     4.288136     4.288136   -3132.1964     18527.32   -10851.904   -17072.006    7433.4778   -8441.3493    9744.8978    78.850718 
   50600    834.92015   -121.74679    0.7554533   -120.99133     8400.521    4.2783033    4.2783033    4.2783033     8400.521    18316.112    32082.294   -25196.843   -10496.228   -35542.889   -3867.0669    78.309546 
   50700    561.80762   -121.50474   0.50833534    -120.9964   -13106.391    4.2859021    4.2859021    4.2859021   -13106.391   -20619.978    15887.108   -34586.302    5415.3259   -1532.0342   -9929.5333    78.727549 
   50800    957.02953    -121.8579   0.86594043   -120.99196   -5299.2401    4.2833881    4.2833881    4.2833881   -5299.2401   -4858.7702    2556.1008   -13595.051    21042.416    29567.202   -1636.3424    78.589093 
   50900    1234.0519    -122.1032    1.1165961   -120.98661    15071.744    4.2763641    4.2763641    4.2763641    15071.744    26988.376    12915.653     5311.202    4078.0826   -9251.6507    1982.1623    78.203109 
   51000    751.72488   -121.67468   0.68017647   -120.99451   -2607.7635    4.2876756    4.2876756    4.2876756   -2607.7635    5484.9756    13346.579   -26654.845   -19709.623   -39221.422    -3064.383    78.825322 
   51100     544.3083   -121.48604   0.49250159   -120.99353   -5275.2572    4.2878312    4.2878312    4.2878312   -5275.2572    3713.9692    21025.612   -40565.352   -2156.7343    4752.3266   -6757.4821    78.833904 
   51200    1064.6416   -121.94863    0.9633101   -120.98532    3558.1635    4.2815726    4.2815726    4.2815726    3558.1635      10644.1    15829.475   -15799.084    11263.546    35686.469   -3818.6427    78.489207 
   51300    1293.8348   -122.15493    1.1706889   -120.98424     5625.767    4.2783096    4.2783096    4.2783096     5625.767    14126.611    2326.9054    423.78415   -7532.6803    -3689.176    8990.0411    78.309894 
   51400    811.54614   -121.72922     0.734304   -120.99492    4241.2211    4.2796905    4.2796905    4.2796905    4241.2211    14800.907    8775.1175   -10852.361   -15979.784   -30230.138    5282.4569    78.385745 
   51500    604.74015    -121.5458    0.5471816   -120.99862   -7393.4394    4.2895168    4.2895168    4.2895168   -7393.4394   -1135.7463    16668.142   -37712.714   -4759.9596    9329.3637   -12636.442    78.926913 
   51600    1025.1795   -121.91818   0.92760396   -120.99058    1419.6088    4.2844875    4.2844875    4.2844875    1419.6088    14864.089    17832.132   -28437.394    5079.9061    32516.562    -891.7931    78.649623 
   51700    1106.0194    -121.9863    1.0007496   -120.98555    11799.677     4.273722     4.273722     4.273722    11799.677    33606.682    7351.1827   -5558.8352     2405.678    1656.5261    20404.925    78.058248 
   51800    642.50052   -121.57543   0.58134797   -120.99408   -11922.573    4.2862867    4.2862867    4.2862867   -11922.573   -14714.026   -4689.1748   -16364.518   -17036.066   -18856.792    13827.173    78.748744 
   51900    809.11956   -121.72434   0.73210838   -120.99223    -9809.686    4.2868825    4.2868825    4.2868825    -9809.686   -26846.327    17084.994   -19667.726   -13867.137   -2344.6266   -7287.9481    78.781592 
   52000    1214.5209   -122.08404     1.098924   -120.98511    10957.962    4.2769363    4.2769363    4.2769363    10957.962    15804.193    31710.885   -14641.191    2685.0996    14347.558    1439.7232    78.234504 
   52100     977.6565   -121.87626   0.88460415   -120.99166   -1077.2389    4.2807336    4.2807336    4.2807336   -1077.2389    13819.388   -9355.8749   -7695.2299    6468.9619    4627.3359    24145.197    78.443076 
   52200    519.66884   -121.46889   0.47020728   -120.99868    66.392308    4.2823633    4.2823633    4.2823633    66.392308   -2866.4307   -10091.083     13156.69    171.80607   -13584.871    17223.998    78.532697 
   52300    874.18151    -121.7845    0.7909778   -120.99352   -39.872194    4.2884501    4.2884501    4.2884501   -39.872194   -6240.4479    12879.621   -6758.7898   -13913.323   -18463.373   -5948.5662    78.868046 
   52400    1281.2295   -122.14417    1.1592834   -120.98489   -62.960053    4.2844974    4.2844974    4.2844974   -62.960053    3549.4471    3754.0829   -7492.4102   -2048.0619   -1153.9589   -7704.9859    78.650168 
   52500    879.42049   -121.78483   0.79571814   -120.98911    14859.825    4.2711399    4.2711399    4.2711399    14859.825    25791.456   -8578.1216     27366.14    22518.765    7859.2167    8972.3838    77.916849 
   52600     620.1314   -121.55788   0.56110792   -120.99678   -11757.494    4.2869282    4.2869282    4.2869282   -11757.494   -21374.535   -21303.489    7405.5413    15740.771   -13821.804    17098.734    78.784111 
   52700    917.21171   -121.82222   0.82991243   -120.99231   -11820.528    4.2883391    4.2883391    4.2883391   -11820.528   -32656.334    2063.9867   -4869.2359   -5065.2873   -27332.871     630.2594    78.861925 
   52800    1099.6701   -121.98203   0.99500461   -120.98703     15205.84    4.2702881    4.2702881    4.2702881     15205.84    18636.944    11470.099    15510.476   -8617.5599   -9424.4935   -22986.149    77.870244 
   52900    689.59818   -121.61995   0.62396292   -120.99599   -9816.8119    4.2831491    4.2831491    4.2831491   -9816.8119    11566.045   -37128.345   -3888.1355    16996.384    8376.5283   -11233.496    78.575938 
   53000    642.86103   -121.57784   0.58167417   -120.99617   -11426.626    4.2888185    4.2888185    4.2888185   -11426.626   -5926.2706   -26413.359    -1940.249    22059.296   -1892.4941    21287.686    78.888374 
   53100    1213.3551   -122.08423    1.0978692   -120.98636    10097.885    4.2798116    4.2798116    4.2798116    10097.885    4906.0025    13184.216    12203.436    2514.3419   -18644.224    10325.514    78.392398 
   53200    1214.3613   -122.08541    1.0987796   -120.98663    1000.7374    4.2807727    4.2807727    4.2807727    1000.7374    12953.541   -10486.431    535.10201   -6838.0254    -4030.224   -32450.013    78.445225 
   53300    611.77971   -121.54937   0.55355114   -120.99582   -1228.0556    4.2802046    4.2802046    4.2802046   -1228.0556    22908.565    -29620.05    3027.3181    8910.3252    4449.5188   -16852.178    78.413998 
   53400    709.85509   -121.63932    0.6422918   -120.99703   -5054.1645     4.285043     4.285043     4.285043   -5054.1645    8978.3185   -25404.709    1263.8974    23980.949     3816.252    25452.042    78.680219 
   53500    1172.6406   -122.05149    1.0610299   -120.99046    376.85378    4.2814423    4.2814423    4.2814423    376.85378   -3952.8169   -5641.2516     10724.63   -892.03107    2915.1408    17194.292    78.482041 
   53600    976.69297   -121.87457   0.88373233   -120.99084    8482.2612    4.2750932    4.2750932    4.2750932    8482.2612     7195.696   -1843.7988    20094.886   -26436.189   -4502.1519   -28910.471    78.133409 
   53700    678.13252   -121.60933   0.61358855   -120.99574    -12628.46    4.2873415    4.2873415    4.2873415    -12628.46    4095.6224   -36712.174   -5268.8278   -2491.1013    81.437067   -18207.754    78.806899 
   53800    899.23884   -121.80499    0.8136502   -120.99134   -5797.9544     4.283212     4.283212     4.283212   -5797.9544    3832.6571   -21318.935    92.414748    25211.124    5226.6596    21434.259    78.579402 
   53900    1058.0516   -121.94538   0.95734728   -120.98803    3943.1421    4.2753436    4.2753436    4.2753436    3943.1421   -3718.3085   -3391.1194    18938.854   -6881.8085    11612.785    12618.108    78.147137 
   54000    740.76629    -121.6644    0.6702609   -120.99414   -9823.4913    4.2833096    4.2833096    4.2833096   -9823.4913   -10623.335   -30970.358    12123.219    -40897.36    9362.6768   -16109.066    78.584775 
   54100    860.64776   -121.77237   0.77873218   -120.99364   -3754.3255    4.2823997    4.2823997    4.2823997   -3754.3255    4544.1326   -26307.591    10500.482   -11206.741   -8161.6153   -15669.499    78.534705 
   54200    1165.1062   -122.04249    1.0542126   -120.98827    1788.6282    4.2837526    4.2837526    4.2837526    1788.6282    10512.965   -7106.6358     1959.555    23200.658   -2420.4545    8413.8896     78.60916 
   54300    961.59801   -121.86131   0.87007408   -120.99124   -2004.4467    4.2814579    4.2814579    4.2814579   -2004.4467    -6373.856   -8868.3422    9228.8581   -17563.975    13265.468    13052.159    78.482901 
   54400    549.58496    -121.4951   0.49727602   -120.99782    277.11315    4.2749476    4.2749476    4.2749476    277.11315   -23679.308   -1348.7026     25859.35   -49681.469    17163.442   -7879.3092    78.125426 
   54500    837.16957   -121.75546   0.75748862   -120.99797   -6592.6024    4.2861251    4.2861251    4.2861251   -6592.6024   -11448.308    -8428.921    99.421301   -11023.615    -920.6626   -15500.203    78.739839 
   54600    1282.7604   -122.14809    1.1606686   -120.98742   -355.09761     4.285698     4.285698     4.285698   -355.09761    11666.071   -7363.1727   -5368.1913     17624.94    -16302.55   -10021.683    78.716302 
   54700    877.44735   -121.78645    0.7939328   -120.99251     5025.705    4.2751966    4.2751966    4.2751966     5025.705   -9957.9061    2897.1427    22137.878   -25525.928      11822.3    4341.5529    78.139075 
   54800     458.2015   -121.41353   0.41459035   -120.99894   -9763.9133    4.2824522    4.2824522    4.2824522   -9763.9133    -27388.83   -11075.873    9172.9632   -47554.204    28373.083     3491.539    78.537589 
   54900    878.00667   -121.78925   0.79443889   -120.99481   -3767.6812    4.2856726    4.2856726    4.2856726   -3767.6812    5605.0332   -5274.8929   -11633.184   -6423.2337    3924.3333   -15447.074    78.714905 
   55000    1303.6154   -122.16686    1.1795386   -120.98732    8407.7853    4.2797543    4.2797543    4.2797543    8407.7853    28661.974    4447.3409   -7885.9589    13884.518   -13476.264   -16392.159    78.389251 
   55100    894.63407   -121.80383    0.8094837   -120.99435    2413.9376    4.2785968    4.2785968    4.2785968    2413.9376    8576.5858    -12200.42    10865.647   -30543.013   -1052.1454   -3503.3604    78.325661 
   55200    665.06812   -121.60039   0.60176761   -120.99862    -3272.065    4.2807765    4.2807765    4.2807765    -3272.065   -22657.279   -489.61475    13330.699   -45745.035    25856.826    6655.4061    78.445431 
   55300    989.69574   -121.88929   0.89549751   -120.99379   -189.25694    4.2849544    4.2849544    4.2849544   -189.25694    118.76313     13803.41   -14489.944    848.36153    18069.594   -6618.2337    78.675335 
   55400    1113.2813   -121.99599    1.0073203   -120.98867   -694.94738     4.282884     4.282884     4.282884   -694.94738     19747.48   -983.05792   -20849.264        11977   -12903.506   -22400.892     78.56135 
   55500    722.66648   -121.64692   0.65388382   -120.99304    143.71835    4.2765261    4.2765261    4.2765261    143.71835   -11428.249   -3582.5397    15441.944   -34760.623   -9273.8797   -8116.1558       78.212 
   55600    757.22051   -121.68048   0.68514903   -120.99534   -6291.7098    4.2813121    4.2813121    4.2813121   -6291.7098   -30406.539   -2874.9548    14406.365   -47136.979    10534.714    5320.6752    78.474879 
   55700    1162.2563   -122.04096    1.0516339   -120.98933   -7106.9162    4.2849849    4.2849849    4.2849849   -7106.9162   -7792.3266     319.0773   -13847.499    6947.2953    16128.923   -3214.3065    78.677017 
   55800    854.36452   -121.76695   0.77304697    -120.9939    -1317.577    4.2783373    4.2783373    4.2783373    -1317.577    5385.0193    5657.9103   -14995.661    17917.268    579.12955   -16236.008    78.311416 
   55900    486.85109   -121.44047    0.4405131   -120.99995   -9267.4243    4.2810639    4.2810639    4.2810639   -9267.4243   -5873.3516   -20680.394   -1248.5276   -34661.776   -13893.633   -10334.751    78.461233 
   56000    973.63811   -121.87589   0.88096822   -120.99492   -4200.8726     4.285857     4.285857     4.285857   -4200.8726   -2285.1345   -11643.863    1326.3802   -38515.149    -7262.118    4894.6692    78.725065 
   56100    1411.3852   -122.26319     1.277051   -120.98613    8265.3327    4.2797434    4.2797434    4.2797434    8265.3327    17455.008    12432.341   -5091.3513    9634.9104    1866.2436   -3424.3225    78.388651 
   56200    847.87221   -121.76275   0.76717259   -120.99557    447.73084    4.2792223    4.2792223    4.2792223    447.73084    35654.583   -18505.168   -15806.222    15726.806     3491.668   -16685.536    78.360019 
   56300    528.06535   -121.47769   0.47780462   -120.99989   -9061.6856    4.2822066    4.2822066    4.2822066   -9061.6856    7868.0138   -23920.157   -11132.913   -20498.622   -7279.9266   -10362.193    78.524076 
   56400    965.55459   -121.86831   0.87365408   -120.99465    2042.3192    4.2821665    4.2821665    4.2821665    2042.3192   -14130.196    28123.642   -7866.4883   -24474.537   -14202.208    4008.7634    78.521875 
   56500    1153.0445   -122.03201    1.0432989   -120.98871     2434.302    4.2823966    4.2823966    4.2823966     2434.302    11310.961    17182.477   -21190.533    7855.7491    499.31904   -606.89625    78.534533 
   56600    658.36303   -121.59084    0.5957007   -120.99514    1694.4079    4.2792024    4.2792024    4.2792024    1694.4079    30493.478    270.33502    -25680.59    15230.519    8131.3833   -15114.101    78.358925 
   56700    681.04256   -121.61432   0.61622162    -120.9981    -1109.451    4.2813016    4.2813016    4.2813016    -1109.451    17363.601   -3485.3162   -17206.638   -12109.333   -2624.6672   -10402.481    78.474304 
   56800    1314.4884   -122.17942    1.1893767   -120.99004    2688.2172    4.2824486    4.2824486    4.2824486    2688.2172    7359.2073    7583.1888   -6877.7444   -21051.229   -2649.1028    3000.2573    78.537392 
   56900    1195.2481   -122.07459    1.0814856    -120.9931    3744.0431    4.2790863    4.2790863    4.2790863    3744.0431    2999.9543     19339.94   -11107.765    13835.743    6416.1999   -2283.7117    78.352552 
   57000    349.83827   -121.32347   0.31654102   -121.00693   -14601.475    4.2819654    4.2819654    4.2819654   -14601.475    11009.267   -16474.988   -38338.705     20974.23    8727.8686   -16866.092    78.510813 
   57100    521.61874   -121.47851    0.4719716   -121.00654   -5808.0614    4.2834059    4.2834059    4.2834059   -5808.0614    29728.236   -9096.9907    -38055.43   -8503.5985    1715.2392   -3886.3776    78.590074 
   57200    1443.5512   -122.29504    1.3061554   -120.98889    4979.0143    4.2848864    4.2848864    4.2848864    4979.0143    13678.383     19435.48    -18176.82   -6967.3419   -8495.4619    10137.931    78.671592 
   57300    1153.5299   -122.03648    1.0437381   -120.99274    7718.6463    4.2789539    4.2789539    4.2789539    7718.6463    4225.7776    19701.149   -770.98753    16996.079   -6645.0417   -6348.1097    78.345276 
   57400    548.95138   -121.49737   0.49670275   -121.00067    922.35909    4.2774325    4.2774325    4.2774325    922.35909    31928.205   -14744.722   -14416.406    20656.046    5633.8172   -20230.602    78.261737 
   57500    792.02065   -121.71433   0.71663692   -120.99769    -6156.681    4.2864497    4.2864497    4.2864497    -6156.681    34404.759   -17227.056   -35647.746    3234.6991    4894.0501   -6644.0164    78.757731 
   57600    1277.9464   -122.14525    1.1563128   -120.98894    6643.3869    4.2806147    4.2806147    4.2806147    6643.3869    12520.849    26945.417   -19536.105   -8938.4333   -13163.938    9345.4852    78.436536 
   57700    892.82756   -121.80164   0.80784914   -120.99379    4493.9325    4.2775777    4.2775777    4.2775777    4493.9325    5438.5208    7875.0843    168.19236    13805.198   -19831.001   -1587.2908    78.269712 
   57800    467.44259   -121.42367   0.42295188   -121.00072   -10305.315    4.2832539    4.2832539    4.2832539   -10305.315     7305.508   -31254.543   -6966.9104     25150.75   -1962.0344   -20117.838    78.581707 
   57900    913.08949   -121.82402   0.82618256   -120.99784   -648.25648    4.2823219    4.2823219    4.2823219   -648.25648    22710.039   -9850.4251   -14804.384    4516.0969    8661.8822   -16165.884    78.530421 
   58000    1466.2908   -122.31547    1.3267307   -120.98874    6619.4818    4.2816566    4.2816566    4.2816566    6619.4818    21126.629    9003.1843   -10271.367   -6817.6074   -5439.1322    4081.4594    78.493824 
   58100    975.02186   -121.88085   0.88222027   -120.99863     4286.192    4.2783809    4.2783809    4.2783809     4286.192    10198.217    -7239.823    9900.1817    15754.948   -9843.2003    1918.3784     78.31381 
   58200     328.3705    -121.3039   0.29711652   -121.00679   -8523.3129      4.28085      4.28085      4.28085   -8523.3129    4102.0349    -34588.96    4916.9863    25233.789   -5922.5496   -21354.183    78.449475 
   58300    658.37131   -121.59884    0.5957082   -121.00313   -9036.7017    4.2861962    4.2861962    4.2861962   -9036.7017     10194.79   -25375.738   -11929.158    837.12967    8193.3059   -19026.245    78.743757 
   58400    1317.4868   -122.18119    1.1920897    -120.9891    6877.5875    4.2804345    4.2804345    4.2804345    6877.5875    15509.876    17453.029   -12330.143   -8342.7281    25569.736    2832.7835     78.42663 
   58500    1086.0224   -121.97344   0.98265591   -120.99078   -22.818493    4.2809975    4.2809975    4.2809975   -22.818493    6508.1161   -6950.9136    374.34206    13884.373    5680.7644    6321.3825    78.457582 
   58600    646.37274   -121.57967   0.58485164   -120.99482    -10930.34    4.2842523    4.2842523    4.2842523    -10930.34    7454.6045   -47467.925    7222.3003    23584.409   -8235.5538   -14531.793    78.636673 
   58700    828.13774   -121.74154   0.74931643   -120.99222   -4092.1661    4.2807111    4.2807111    4.2807111   -4092.1661    9952.2143     -14911.2   -7317.5131    1740.9531     11161.94   -20043.996    78.441837 
   58800    1162.9898    -122.0415    1.0522976    -120.9892   -3587.1047    4.2820411    4.2820411    4.2820411   -3587.1047    1340.0893    17672.021   -29773.425   -10039.287    24851.256    6605.2892    78.514975 
   58900     926.6863   -121.83105   0.83848524   -120.99257   -524.83642     4.278794     4.278794     4.278794   -524.83642    12737.354   -2105.2059   -12206.657    12138.636    10794.245    15050.676    78.336496 
   59000    595.58421   -121.53807   0.53889711   -120.99917   -3124.6531    4.2800194    4.2800194    4.2800194   -3124.6531    25124.779   -28999.055   -5499.6831    24124.366   -8403.9848   -12838.844    78.403821 
   59100    817.36103   -121.73658   0.73956544   -120.99702   -7615.5793    4.2874414    4.2874414    4.2874414   -7615.5793    12893.232   -15218.112   -20521.858    9341.2729     2867.061    -27662.58    78.812409 
   59200    1325.7782   -122.18598     1.199592   -120.98639    10233.585    4.2788468    4.2788468    4.2788468    10233.585    22852.656    21957.791   -14109.694   -8230.0175    16195.489    1817.5784    78.339395 
   59300    839.10994   -121.75358   0.75924431   -120.99433    1844.0006    4.2812123    4.2812123    4.2812123    1844.0006    16356.101   -1305.4764   -9518.6228      7297.89    4376.6083    23509.055    78.469391 
   59400    316.67969   -121.28717   0.28653844   -121.00064   -16773.286    4.2884138    4.2884138    4.2884138   -16773.286    7761.6277     -33552.6   -24528.885    27057.806   -3196.8485   -5813.0773    78.866043 
   59500    879.20954   -121.79249   0.79552727   -120.99696    8075.2809    4.2766416    4.2766416    4.2766416    8075.2809    22228.979    2604.6056   -607.74228    13076.056   -8475.1897   -26110.418    78.218337 
   59600    1407.1833    -122.2627     1.273249   -120.98946     12195.42     4.279423     4.279423     4.279423     12195.42    15160.251    16238.304    5187.7048    -10997.17   -7506.7648    648.43084     78.37105 
   59700    1002.9436   -121.90413   0.90748443   -120.99664   -3067.5315    4.2856156    4.2856156    4.2856156   -3067.5315    11269.304   -13238.418   -7233.4804   -1327.7847    5210.2869    21946.546    78.711761 
   59800    609.05599   -121.55111   0.55108666   -121.00003    1377.4618    4.2790397    4.2790397    4.2790397    1377.4618    19545.175   -16825.574    1412.7845    25379.324     3672.564    5271.7653    78.349993 
   59900    889.45888   -121.80113   0.80480108   -120.99633   -630.00622    4.2816675    4.2816675    4.2816675   -630.00622    6238.3225   -239.99797   -7888.3432    18517.945   -10312.816   -15207.856    78.494425 
   60000    1197.4857    -122.0727    1.0835102   -120.98919    3868.0841    4.2827473    4.2827473    4.2827473    3868.0841    17069.767    15441.855    -20907.37   -11616.247   -19723.845   -1828.5286    78.553829 
   60100    849.46645   -121.76091    0.7686151   -120.99229    3695.2661    4.2803162    4.2803162    4.2803162    3695.2661    30963.354   -10017.362   -9860.1942   -2642.1729   -6410.8574    22886.744    78.420129 
   60200    615.46107   -121.55334   0.55688211   -120.99646   -9321.1017    4.2832339    4.2832339    4.2832339   -9321.1017     13575.67   -42010.091    471.11522    27479.465    6853.4351    8970.1112    78.580607 
   60300    945.49934    -121.8486   0.85550767    -120.9931   -175.62434    4.2785607    4.2785607    4.2785607   -175.62434     13520.25   -9796.7746   -4250.3489    22895.664   -9498.7398   -10382.534    78.323682 
   60400    1287.9771   -122.15439    1.1653888   -120.98901    1156.4889    4.2811338    4.2811338    4.2811338    1156.4889    11896.124    13838.962   -22265.619    -10917.83   -20262.632    278.31544    78.465074 
   60500    708.05676   -121.64062   0.64066464   -120.99995   -12152.149    4.2832791    4.2832791    4.2832791   -12152.149    2181.8095   -24967.665   -13670.593    -4539.671   -5411.3728    17319.496    78.583095 
   60600    289.68183   -121.26762    0.2621102   -121.00551   -3684.9498    4.2765436    4.2765436    4.2765436   -3684.9498    12744.453   -40507.998    16708.696    29077.363    4530.7286     12117.27    78.212959 
   60700    1020.8452   -121.92545   0.92368216   -121.00177   -4180.7137    4.2861607    4.2861607    4.2861607   -4180.7137    6032.2155   -19923.334    1348.9778    22684.564    8280.2136   -4669.4744    78.741803 
   60800    1551.6848   -122.39358     1.403997   -120.98958     8277.198    4.2811615    4.2811615    4.2811615     8277.198    28296.163    6468.1952    -9932.764   -9447.7091    6490.6357   -1085.1698    78.466601 
   60900    886.69993    -121.8007   0.80230473    -120.9984    1762.7967    4.2767834    4.2767834    4.2767834    1762.7967    33033.122   -21611.935   -6132.7966    3470.9145   -3711.6368    14480.492    78.226114 
   61000    445.46901   -121.40387   0.40306972    -121.0008   -23532.082    4.2879824    4.2879824    4.2879824   -23532.082   -19302.982   -46617.091   -4676.1734    32162.853    3661.3215    13306.951    78.842246 
   61100    988.70313   -121.88835   0.89459937   -120.99376    1505.2725    4.2775726    4.2775726    4.2775726    1505.2725   -1387.2832    6676.5942   -773.49346     16499.48      13121.4   -1155.8024    78.269429 
   61200    1251.3804   -122.11987    1.1322752    -120.9876    3939.6505    4.2798296    4.2798296    4.2798296    3939.6505    23453.292    16422.567   -28056.907   -10738.339    7548.0287   -6335.0672    78.393389 
   61300    614.02502   -121.55441   0.55558274   -120.99882   -12634.283    4.2846526    4.2846526    4.2846526   -12634.283    18536.636   -20243.893   -36195.591    7860.8029   -4215.8409    6783.3592    78.658715 
   61400    382.86859   -121.35032   0.34642755    -121.0039    3372.1747    4.2769694    4.2769694    4.2769694    3372.1747    32420.385   -17504.417   -4799.4436    34327.254   -6621.0646    14517.665    78.236325 
   61500    1270.5053   -122.14405    1.1495799   -120.99447    3210.3018    4.2852611    4.2852611    4.2852611    3210.3018    8431.1266    5575.0057    -4375.227    17200.882    1412.9197     1413.861    78.692231 
   61600    1473.0953   -122.32186    1.3328875   -120.98898    5540.9144    4.2837101    4.2837101    4.2837101    5540.9144    21426.691    12385.391   -17189.338   -17516.923     3163.533   -5014.0937    78.606816 
   61700    543.42106   -121.49442   0.49169879   -121.00272   -5367.0104    4.2787432    4.2787432    4.2787432   -5367.0104    31070.852   -20772.198   -26399.685    6590.9802   -5819.0002    9200.7403    78.333707 
   61800    361.84747   -121.33254    0.3274072   -121.00514   -13291.161    4.2827105    4.2827105    4.2827105   -13291.161    3483.6833   -18229.625   -25127.541    32742.975   -8616.1329     13291.93    78.551801 
   61900    1136.6997   -122.02417    1.0285098   -120.99566    2974.4162    4.2798672    4.2798672    4.2798672    2974.4162    1485.4713    18751.152   -11313.375    12305.298   -423.70862    1073.4394    78.395453 
   62000    1236.5739   -122.11018     1.118878    -120.9913    7802.5632    4.2809831    4.2809831    4.2809831    7802.5632    21288.019    12778.853   -10659.183   -22532.828    8334.2045   -2113.5144    78.456792 
   62100    766.70008   -121.69157   0.69372635   -120.99785   -2596.6563    4.2826867    4.2826867    4.2826867   -2596.6563     21681.03   -13844.289    -15626.71   -2320.7377    2711.2808     7469.471    78.550491 
   62200    672.21365    -121.6038   0.60823303   -120.99557   -2108.6933    4.2805555    4.2805555    4.2805555   -2108.6933     22974.85   -18561.055   -10739.875    39070.755     -7082.66    11169.094    78.433285 
   62300     1068.268    -121.9559   0.96659135   -120.98931   -1916.5128    4.2832272    4.2832272    4.2832272   -1916.5128    5998.3019     611.2959   -12359.136    10890.001     6852.324   -359.67626    78.580237 
   62400    1050.4483   -121.93921   0.95046774   -120.98874   -2428.8392    4.2815566    4.2815566    4.2815566   -2428.8392   -4994.0368    9092.2919   -11384.773   -31701.751    16958.649    -3056.046    78.488327 
   62500     667.1362   -121.59833   0.60363885   -120.99469   -5385.0998    4.2782555    4.2782555    4.2782555   -5385.0998    996.62683   -21011.508    3859.5824    -859.9406    5440.2992    8008.6102    78.306923 
   62600    724.71015   -121.65318   0.65573298   -120.99745   -7379.2274    4.2828202    4.2828202    4.2828202   -7379.2274    3712.8785   -35524.609    9674.0489    45354.831   -4526.4144    10797.858    78.557841 
   62700    1209.5923   -122.08454    1.0944646   -120.99007    3976.2561    4.2827713    4.2827713    4.2827713    3976.2561    4513.7666    4442.9576    2972.0442    18022.749   -1004.3362    2465.8609    78.555149 
   62800    1162.9068   -122.04274    1.0522226   -120.99052    8140.3205    4.2783533    4.2783533    4.2783533    8140.3205     12764.05    7598.2214    4058.6901   -33829.261    11078.072   -5939.2858    78.312294 
   62900    556.54902   -121.50273   0.50357725   -120.99915   -5421.0019    4.2821594    4.2821594    4.2821594   -5421.0019    1363.7602   -29754.035    12127.269   -4502.8561    7925.5055    486.25527    78.521483 
   63000    627.57867   -121.56592   0.56784637   -120.99808    -8412.233    4.2838233    4.2838233    4.2838233    -8412.233   -10704.543    -30188.25    15656.094     37801.71   -2618.4954    11707.978     78.61305 
   63100    1126.7699   -122.00949    1.0195251   -120.98996    1542.7921    4.2797508    4.2797508    4.2797508    1542.7921    6845.6766    1434.7066   -3652.0068    17681.496   -13623.838    386.09199    78.389059 
   63200    1052.6615   -121.94321   0.95247024   -120.99074   -3588.4112    4.2803597    4.2803597    4.2803597   -3588.4112    6520.1647   -2687.3068   -14598.091    -22771.75   -15023.034   -11089.073    78.422523 
   63300    809.74117   -121.72849   0.73267083   -120.99582   -1663.7278    4.2785912    4.2785912    4.2785912   -1663.7278    8657.8086   -25384.877    11735.885   -5546.4096    10338.786   -5510.0683    78.325357 
   63400    778.99182   -121.70002   0.70484817   -120.99517    612.97499    4.2832244    4.2832244    4.2832244    612.97499    8577.0404   -20029.954    13291.839    28026.893    4729.2657    6721.1198    78.580086 
   63500    880.30595   -121.78903   0.79651932   -120.99251   -5927.8618    4.2857821    4.2857821    4.2857821   -5927.8618   -4528.9235     6727.455   -19982.117     13855.48   -34255.766    1577.3565     78.72094 
   63600    899.10399   -121.80456   0.81352818   -120.99104    10769.792    4.2749542    4.2749542    4.2749542    10769.792    25803.463     22075.57   -15569.658    -8618.334   -29423.732   -16139.538    78.125787 
   63700    1076.2687   -121.96313    0.9738305    -120.9893    4191.9205     4.282492     4.282492     4.282492    4191.9205    29766.598   -14392.904    -2797.932    1112.5199    8453.8831   -9923.8492    78.539782 
   63800    1008.7903   -121.90227   0.91277466    -120.9895   -4876.3901    4.2871726    4.2871726    4.2871726   -4876.3901   -3185.5603    -13712.39    2268.7801    18086.582    1829.8043    6199.4579    78.797582 
   63900    734.80715   -121.65811   0.66486895   -120.99324    7541.5737    4.2746871    4.2746871    4.2746871    7541.5737   -10347.175     30132.48    2839.4162    15246.361   -37935.757    3085.2353    78.111144 
   64000    826.08333   -121.74132   0.74745755   -120.99387   -2366.4721    4.2818264    4.2818264    4.2818264   -2366.4721    6021.6488    16365.772   -29486.837   -4973.7583   -31388.055   -18074.032    78.503164 
   64100    955.96138   -121.85531   0.86497394   -120.99034   -4779.0656     4.285361     4.285361     4.285361   -4779.0656    18372.948   -7974.5181   -24735.627   -4023.0388    11833.434   -20468.434    78.697739 
   64200    841.22738   -121.75183   0.76116021   -120.99067    2514.0906    4.2792867    4.2792867    4.2792867    2514.0906    4444.7409     4153.147   -1055.6162    16559.169    1767.6001    7481.3235    78.363559 
   64300    935.56513   -121.83511   0.84651899   -120.98859   -4773.3043    4.2840191    4.2840191    4.2840191   -4773.3043   -13169.593     14272.93    -15423.25    14967.033     -28062.3    10164.208     78.62383 
   64400    1001.3948   -121.89313   0.90608304   -120.98705   -2417.1059    4.2816225    4.2816225    4.2816225   -2417.1059    6653.7339    13729.634   -27634.686   -2906.0199   -15611.549    -24258.75    78.491952 
   64500    679.31526   -121.60776   0.61465872    -120.9931   -2948.7703    4.2797162    4.2797162    4.2797162   -2948.7703    20333.518   -453.80609   -28726.023   -5879.6861    10982.746    -29673.93    78.387155 
   64600    759.37263   -121.68328   0.68709631   -120.99618   -5196.1375     4.282241     4.282241     4.282241   -5196.1375    5709.3232   -755.94513   -20541.791    8988.7641     10886.39    12828.824     78.52597 
   64700    1148.9347   -122.03094    1.0395803   -120.99136    12352.343    4.2790444    4.2790444    4.2790444    12352.343    2063.4546    28585.313    6408.2606    11372.285    -4382.064    24912.583    78.350247 
   64800    1138.7999   -122.02166    1.0304101   -120.99125    4404.6816    4.2834702    4.2834702    4.2834702    4404.6816    5223.6202    11802.164   -3811.7393   -8368.7831   -5841.9004    -27914.03    78.593611 
   64900    605.26381   -121.54489   0.54765541   -120.99723   -8026.1984    4.2841132    4.2841132    4.2841132   -8026.1984    18466.101    -15644.81   -26899.886    -10126.58    4226.1444   -38477.357    78.629008 
   65000    751.76771   -121.67539   0.68021523   -120.99517   -943.26234    4.2770164    4.2770164    4.2770164   -943.26234    21536.837   -6808.0642   -17558.559    2864.5126    8041.0128    17854.134    78.238905 
   65100    1197.5705   -122.07381    1.0835869   -120.99023    1674.7671    4.2821489    4.2821489    4.2821489    1674.7671    7746.7143    6923.1347   -9645.5478    8739.2063    7904.7299    29905.319    78.520907 
   65200    1112.4783   -121.99749    1.0065938   -120.99089   -228.28314    4.2825272    4.2825272    4.2825272   -228.28314    14799.395   -1522.9446     -13961.3   -5431.4018   -1836.9066   -28603.234    78.541718 
   65300    702.75909    -121.6311   0.63587119   -120.99523    3048.5799    4.2782378    4.2782378    4.2782378    3048.5799    31474.849   -3255.9047   -19073.204   -11943.249   -1894.2202   -37737.393    78.305952 
   65400     668.1745   -121.59983   0.60457833   -120.99526    -10152.06    4.2843979    4.2843979    4.2843979    -10152.06    16133.951   -10265.606   -36324.525    653.31821    11433.064    24621.931    78.644687 
   65500    963.20757   -121.86049   0.87153045   -120.98896   -1790.1014    4.2818185    4.2818185    4.2818185   -1790.1014    13415.329    13736.262   -32521.895     3388.977    5813.6326    31988.909    78.502729 
   65600    1002.7017   -121.89455   0.90726554   -120.98728   -2143.7353    4.2822424    4.2822424    4.2822424   -2143.7353    15109.406    881.12802    -22421.74   -4808.8355   -5223.8609   -23635.237    78.526048 
   65700    840.54101   -121.75185   0.76053917   -120.99131   -9245.8911    4.2814779    4.2814779    4.2814779   -9245.8911     18157.93   -28671.849   -17223.755   -11923.036   -6131.4644   -23591.504    78.484001 
   65800    790.23941   -121.70896   0.71502522   -120.99393    2241.7504     4.274822     4.274822     4.274822    2241.7504    29501.223   -8867.2519    -13908.72   -7451.2649    6041.1962    27089.966    78.118536 
   65900    1029.1407    -121.9245    0.9311881   -120.99331   -3051.9247    4.2852966    4.2852966    4.2852966   -3051.9247    15413.528    6922.9459   -31492.248    6318.4208    4690.5228    28258.752    78.694187 
   66000    1062.9204   -121.95174   0.96175275   -120.98999    1055.6321    4.2849063    4.2849063    4.2849063    1055.6321    8267.9948    12852.021    -17953.12   -1987.5188   -8819.9538   -20217.036    78.672688 
   66100    683.11188   -121.61037   0.61809398   -120.99228    6347.4881    4.2772013    4.2772013    4.2772013    6347.4881    16637.462     2617.577   -212.57464    -7914.404   -5645.5925   -15379.465    78.249049 
   66200    731.30744   -121.65555   0.66170234   -120.99384   -7410.5893    4.2854617    4.2854617    4.2854617   -7410.5893    24947.383   -30266.866   -16912.285   -4172.6247     2683.319     32530.23    78.703283 
   66300    1286.4391   -122.15109    1.1639971   -120.98709    7767.5731    4.2796281    4.2796281    4.2796281    7767.5731    33184.014   -2675.6206   -7205.6737   -858.38342   -665.12423    23087.324    78.382317 
   66400    1181.2004   -122.05922     1.068775   -120.99044    6747.7509    4.2783245    4.2783245    4.2783245    6747.7509    18655.552    4967.5466   -3379.8459    3157.8273   -8718.4226   -23903.026    78.310713 
   66500    454.73472   -121.41338   0.41145353   -121.00193   -14241.939    4.2854812    4.2854812    4.2854812   -14241.939    15190.537   -32592.876   -25323.479   -8858.3597   -10102.691   -18550.931    78.704357 
   66600    605.19754   -121.54729   0.54759545   -120.99969    2228.4593    4.2786088    4.2786088    4.2786088    2228.4593    30312.814   -11772.562   -11854.875   -6704.7262   -426.55198      25276.7    78.326324 
   66700    1237.9304   -122.10832    1.1201054   -120.98822    3198.4201    4.2848995    4.2848995    4.2848995    3198.4201    14216.367    11830.265   -16451.372    447.42981    12439.229      15487.5    78.672312 
   66800     977.1717   -121.87506   0.88416549   -120.99089   -2281.3467    4.2829824    4.2829824    4.2829824   -2281.3467    16349.417    1066.0786   -24259.536    20.063411    11145.617    -27248.09    78.566764 
   66900    670.58114   -121.60076   0.60675591     -120.994     4758.834    4.2750546    4.2750546    4.2750546     4758.834    30722.321   -10275.919   -6169.8997   -3040.7762   -10713.926   -26051.267    78.131289 
   67000    953.04868   -121.85335   0.86233847   -120.99101    -9341.584    4.2865131    4.2865131    4.2865131    -9341.584   -828.94014   -16269.598   -10926.214   -11482.731   -9125.2154    10999.054    78.761225 
   67100    1055.8395   -121.94498   0.95534579   -120.98963   -2339.3621     4.281797     4.281797     4.281797   -2339.3621    99.441226     13853.92   -20971.448   -175.38338    28350.058    9809.9835     78.50155 
   67200    838.60463   -121.75076   0.75878709   -120.99197     2323.249    4.2761432    4.2761432    4.2761432     2323.249    20324.787    8593.9992   -21949.039    7433.1628    31945.609   -26185.748    78.190994 
   67300    932.88626   -121.83554   0.84409509   -120.99144   -10350.734    4.2858269    4.2858269    4.2858269   -10350.734    16841.002   -32525.807   -15367.397   -6835.1067   -3366.4777   -23376.326    78.723409 
   67400    1032.2235   -121.92274   0.93397754   -120.98877    2636.1344    4.2807038    4.2807038    4.2807038    2636.1344     19472.39    -10947.76   -616.22736   -12089.021   -5276.8709    7628.2127    78.441437 
   67500    842.53043   -121.75302   0.76233924   -120.99068    -237.0273    4.2801413    4.2801413    4.2801413    -237.0273   -3496.5318    22094.048   -19308.598   -6451.5344    32774.323    7986.3977     78.41052 
   67600    692.78528   -121.62049   0.62684668   -120.99365   -8237.8355    4.2838651    4.2838651    4.2838651   -8237.8355    3578.8604    9035.8338   -37328.201    5820.0711    33957.195   -23226.332     78.61535 
   67700    973.58205    -121.8708    0.8809175   -120.98988     7895.351    4.2771987    4.2771987    4.2771987     7895.351    35114.372    54.585308   -11482.904     -1557.37   -6874.3583   -25152.631    78.248907 
   67800    941.36998   -121.84199   0.85177134   -120.99022     2390.015    4.2838935    4.2838935    4.2838935     2390.015    12839.569    1271.7715    -6941.295    -16116.17    1139.9031    11462.014    78.616915 
   67900    704.27565   -121.63015   0.63724341   -120.99291   -5627.5103     4.285321     4.285321     4.285321   -5627.5103   -3144.6972    14408.081   -28145.914   -8181.8789    33364.582    18453.752    78.695533 
   68000    887.76603   -121.79258   0.80326936   -120.98931    8443.2764    4.2752693    4.2752693    4.2752693    8443.2764    15478.256    33202.782   -23351.209     3075.198    23212.999   -15869.009    78.143064 
   68100    1156.9191   -122.03467    1.0468047   -120.98787    2603.5935    4.2817417    4.2817417    4.2817417    2603.5935    19661.903    5146.3165   -16997.439    90.954284   -9813.5536   -22216.825    78.498509 
   68200    929.80154   -121.83383   0.84130397   -120.99252   -5569.5404     4.284647     4.284647     4.284647   -5569.5404    14827.865   -16295.476    -15241.01   -14704.506   -1460.8103    15005.931    78.658406 
   68300    571.30883   -121.51405   0.51693223   -120.99712   -3337.7466    4.2785333    4.2785333    4.2785333   -3337.7466   -2550.9145    8667.3473   -16129.673   -14273.397    32195.265    28727.142    78.322175 
   68400    1001.0765   -121.90086   0.90579507   -120.99507   -5356.9468    4.2826766    4.2826766    4.2826766   -5356.9468   -13999.833    19478.871   -21549.878    9180.0795     18415.07   -6655.3123    78.549936 
   68500    1416.7226   -122.26542    1.2818804   -120.98354    679.44029    4.2853171    4.2853171    4.2853171    679.44029    8966.2963    3176.8947    -10104.87    5577.4035   -9921.3246   -12981.911    78.695316 
   68600    810.99205   -121.72522   0.73380265   -120.99141   -4790.3005    4.2842099    4.2842099    4.2842099   -4790.3005    11694.246   -9438.3563   -16626.791   -19651.771    2696.0979    23924.352    78.634334 
   68700    351.17581   -121.31416   0.31775126   -120.99641   -13211.202    4.2826178    4.2826178    4.2826178   -13211.202   -10464.619    1096.8344   -30265.822   -18783.002    28579.309    27619.928      78.5467 
   68800    924.54259   -121.83192   0.83654556   -120.99537    621.78973    4.2772714    4.2772714    4.2772714    621.78973   -7467.2795    21340.549     -12007.9    8617.2727     19176.67    -985.5107    78.252899 
   68900    1458.3283   -122.30918     1.319526   -120.98965      6018.34    4.2807488    4.2807488    4.2807488      6018.34    8162.0092    8936.2768    956.73405    16339.758     -10093.6   -8029.2262    78.443908 
   69000    859.09835   -121.77717   0.77733024   -120.99984   -4290.2749    4.2847685    4.2847685    4.2847685   -4290.2749    5070.8821   -9887.8349   -8053.8719   -22993.784     2172.557    18502.644      78.6651 
   69100    282.83113    -121.2606   0.25591155   -121.00469   -3696.3585    4.2810605    4.2810605    4.2810605   -3696.3585   -7226.6516   -3037.4038   -825.02022   -29455.795     26384.53    26651.314    78.461048 
   69200    960.93778   -121.86359    0.8694767   -120.99411   -2285.9221     4.287707     4.287707     4.287707   -2285.9221   -9612.8755    3602.1761   -847.06695    6005.4393    17181.937    3387.7376    78.827053 
   69300    1545.8369    -122.3777    1.3987057     -120.979    3987.9289    4.2854418    4.2854418    4.2854418    3987.9289    5629.0631   -1694.9881    8029.7115    8345.5059   -7920.3337   -11659.467    78.702186 
   69400    665.34469   -121.59721   0.60201786    -120.9952    54.835931    4.2786113    4.2786113    4.2786113    54.835931    6999.5197   -21794.678    14959.667   -23025.342    1717.3397    9513.9372     78.32646 
   69500    181.17729   -121.16907   0.16393302   -121.00513   -18138.996    4.2824277    4.2824277    4.2824277   -18138.996   -18998.252   -26077.608   -9341.1288   -32866.487     30866.46    26775.046    78.536242 
   69600    985.20794   -121.89701   0.89143685   -121.00558    1901.1779    4.2782807    4.2782807    4.2782807    1901.1779   -54.163891     3758.207    1999.4906   -2013.2976    19407.604    6762.7607    78.308306 
   69700    1612.4287   -122.45156    1.4589593    -120.9926    8553.7664    4.2831994    4.2831994    4.2831994    8553.7664     6917.536    4585.5522    14158.211    13482.438   -8157.1961   -6989.8398    78.578708 
   69800      892.531   -121.80904    0.8075808   -121.00146   -2307.6882    4.2870903    4.2870903    4.2870903   -2307.6882   -2191.1251   -13303.837    8571.8973   -17781.376   -186.03828    8464.1604    78.793047 
   69900    372.07916   -121.33548   0.33666504   -120.99882   -1710.8413    4.2825892    4.2825892    4.2825892   -1710.8413    7713.4986   -5972.4762   -6873.5462   -34102.617    25015.133    24513.127     78.54513 
   70000     995.2284   -121.88858   0.90050357   -120.98807   -1657.4759    4.2852785    4.2852785    4.2852785   -1657.4759   -5647.4558    459.85307    215.17496    2008.8074    17771.933     6825.422     78.69319 
   70100    1357.0309   -122.20916    1.2278701   -120.98129     4326.311    4.2810704    4.2810704    4.2810704     4326.311   -5849.1665   -2199.1169    21027.216    27847.033   -11942.692   -9839.9392    78.461589 
   70200    869.13575   -121.77759   0.78641229   -120.99118   -1200.8725    4.2778665    4.2778665    4.2778665   -1200.8725   -7997.3261   -7949.2336    12343.942   -12621.332   -87.464259    9766.0943    78.285562 
   70300    431.44264   -121.39169   0.39037836   -121.00131    -10439.07    4.2809766    4.2809766    4.2809766    -10439.07   -20769.209   -7347.6689   -3200.3336   -38148.906    21747.581    23829.513    78.456434 
   70400    796.14102   -121.71929   0.72036513   -120.99893   -1331.7611    4.2821499    4.2821499    4.2821499   -1331.7611   -11940.888    7796.2488    149.35573   -1810.7015    14302.408     9530.378    78.520961 
   70500    1328.2582   -122.18852    1.2018359   -120.98668    4813.6422    4.2855809    4.2855809    4.2855809    4813.6422   -6974.4549    16764.464    4650.9175    23522.611   -5352.8619   -9151.6316    78.709852 
   70600    914.82048   -121.81938   0.82774879   -120.99163    851.20328    4.2841597    4.2841597    4.2841597    851.20328   -16139.096    3429.7889    15262.917   -13700.474   -2281.6406    4331.4841    78.631571 
   70700    328.91355   -121.29393    0.2976079   -120.99632   -5274.1001    4.2802514    4.2802514    4.2802514   -5274.1001   -9302.7645   -7432.4925    912.95659   -40272.693    19692.431    25273.379    78.416567 
   70800    837.87755   -121.75474   0.75812922   -120.99661   -2460.6007    4.2821358    4.2821358    4.2821358   -2460.6007   -1534.9744    11057.102   -16903.929    -5031.475    12490.469    6003.5823    78.520186 
   70900    1550.0106     -122.388    1.4024822   -120.98552    4698.8945    4.2836336    4.2836336    4.2836336    4698.8945    386.66795    16973.771    -3263.755    13766.523   -4380.3829     -12132.3    78.602608 
   71000    1134.9678    -122.0215    1.0269427   -120.99456    3127.2823    4.2803545    4.2803545    4.2803545    3127.2823   -2424.0514   -2566.6612    14372.559   -25974.866   -1189.5097    3687.8487    78.422237 
   71100    409.69801   -121.37533   0.37070337   -121.00463   -5901.7062    4.2791005    4.2791005    4.2791005   -5901.7062   -13321.842   -7950.7671    3567.4901   -36716.351    17185.475    24079.236    78.353327 
   71200    670.54804   -121.60935   0.60672596   -121.00262   -4001.6866    4.2832528    4.2832528    4.2832528   -4001.6866     -3303.75    4019.9403    -12721.25   -3797.7086    20421.025    14498.623    78.581646 
   71300    1431.6272   -122.28333    1.2953664   -120.98797    2868.1208    4.2847582    4.2847582    4.2847582    2868.1208    5028.8595    3570.8112    4.6915848    12593.664   -3960.2389   -15434.003    78.664531 
   71400    1018.4208   -121.91131   0.92148858   -120.98982   -1709.5479    4.2839896    4.2839896    4.2839896   -1709.5479   -15038.021    -10553.06    20462.437   -12284.959   -4751.9485    -1604.585    78.622203 
   71500    358.99359   -121.32168   0.32482495   -120.99685   -12612.463    4.2819132    4.2819132    4.2819132   -12612.463   -15776.975   -19783.185    -2277.228   -30458.549    13849.795     28819.79    78.507937 
   71600    736.89798   -121.66338   0.66676078   -120.99662   -3107.7534    4.2801269    4.2801269    4.2801269   -3107.7534    12839.065   -8324.7497   -13837.575   -8527.6759    16312.858    23966.675    78.409729 
   71700    1402.5302   -122.25619    1.2690388   -120.98715    3701.3368    4.2820017    4.2820017    4.2820017    3701.3368    10582.611   -4712.3375    5233.7368    15373.718    2217.2329   -2563.2408    78.512807 
   71800    1000.9453   -121.90133   0.90567636   -120.99565   -1040.4806    4.2810527    4.2810527    4.2810527   -1040.4806   -905.27764   -22418.446    20202.282    197.84206   -7633.1917   -5777.5412    78.460617 
   71900    398.73297   -121.36336   0.36078197   -121.00258   -5371.3442    4.2798389    4.2798389    4.2798389   -5371.3442    12719.452   -29638.276    804.79167   -25903.276    8624.7591    28235.319    78.393901 
   72000    766.22916   -121.69187   0.69330025   -120.99857   -3107.1374    4.2841602    4.2841602    4.2841602   -3107.1374    14837.167   -10724.014   -13434.566   -11759.829    14796.543    25015.087    78.631599 
   72100    1275.9791   -122.14098    1.1545327   -120.98645    4565.4966    4.2842641    4.2842641    4.2842641    4565.4966    17750.611   -2250.0144   -1804.1067    12418.842    40.709062   -15882.774    78.637322 
   72200    1001.6993   -121.89616   0.90635858    -120.9898    2150.2904    4.2793881    4.2793881    4.2793881    2150.2904    8743.5488   -18506.321    16213.644   -6303.8584   -3583.8005   -14880.051    78.369128 
   72300    694.83978   -121.62409   0.62870563   -120.99538   -3442.2948    4.2795147    4.2795147    4.2795147   -3442.2948   -8035.4869   -23673.231    21381.833   -25369.279    4464.2376     21840.87    78.376083 
   72400    887.40441   -121.79699   0.80294216   -120.99405   -3282.7559    4.2812497    4.2812497    4.2812497   -3282.7559    7124.1806     -17714.7    742.25189   -12065.256      10376.2     17465.31     78.47145 
   72500    1039.8694   -121.93373   0.94089573   -120.99283    -590.9614    4.2816613    4.2816613    4.2816613    -590.9614    31852.158   -15739.667   -17885.375    8506.3991    4304.3472   -29320.618    78.494085 
   72600    984.99105   -121.88336    0.8912406   -120.99212    -1327.272    4.2806153    4.2806153    4.2806153    -1327.272    21550.234   -26688.569    1156.5194   -8454.8889   -4824.2371   -31338.087    78.436571 
   72700    926.90617   -121.82967   0.83868418   -120.99099    223.11002    4.2803676    4.2803676    4.2803676    223.11002    7543.0453   -26194.062    19320.347   -30710.719    2865.9857    16721.125    78.422953 
   72800     730.8572   -121.65391   0.66129496   -120.99261     -7109.08    4.2842426    4.2842426    4.2842426     -7109.08    16313.668   -25359.478    -12281.43    -12421.71    8815.3758    9471.3491    78.636139 
   72900    664.26052   -121.59561   0.60103687   -120.99457   -4826.3425     4.280796     4.280796     4.280796   -4826.3425    37757.661   -23344.115   -28892.573    10433.361    6672.4113   -37601.304    78.446505 
   73000     1010.909   -121.90609    0.9146917    -120.9914    6480.8008    4.2767914    4.2767914    4.2767914    6480.8008     25042.36   -10742.464    5142.5067   -1436.4221   -1876.1602   -29662.198    78.226556 
   73100    1205.1437   -122.08008    1.0904394   -120.98964    1743.6481    4.2840483    4.2840483    4.2840483    1743.6481   -5665.7889   -6953.1128    17849.846   -19344.991    -3951.065    13567.505    78.625439 
   73200    680.85673   -121.61448   0.61605348   -120.99843   -3037.9804    4.2830706    4.2830706    4.2830706   -3037.9804    3835.0529    -16608.46    3659.4655   -17655.235    2675.1365    9314.3707    78.571617 
   73300    517.36695   -121.46754   0.46812449   -120.99942   -1613.4237    4.2777315    4.2777315    4.2777315   -1613.4237    24512.912   -26246.925   -3106.2578    4170.6528    7488.0511   -26732.261    78.278151 
   73400    1034.8528   -121.93105   0.93635659    -120.9947   -556.61387    4.2817797    4.2817797    4.2817797   -556.61387    8512.6117   -17050.654     6868.201    18817.445    3581.9888   -22841.771    78.500599 
   73500    1251.0259    -122.1219    1.1319545   -120.98994    2897.4604    4.2819524    4.2819524    4.2819524    2897.4604   -8480.6088    -5559.272    22732.262    9731.1438   -7363.9397    6926.4545    78.510097 
   73600    1012.5406   -121.90891   0.91616804   -120.99274   -292.93922    4.2810622    4.2810622    4.2810622   -292.93922    7459.4012   -6830.3756   -1507.8432   -11514.538   -6641.9842    5745.1045    78.461138 
   73700     764.1372   -121.68558    0.6914074   -120.99417   -7530.0937    4.2827509    4.2827509    4.2827509   -7530.0937    27009.216   -31753.522   -17845.974   -4774.0208    5190.0816   -13851.281    78.554024 
   73800    793.98686    -121.7124     0.718416   -120.99398   -3617.1881    4.2795501    4.2795501    4.2795501   -3617.1881    15252.072   -38843.913    12740.277    33172.257    3233.2011   -14862.126    78.378032 
   73900    971.31936   -121.87184   0.87887017   -120.99297   -972.05343    4.2800626    4.2800626    4.2800626   -972.05343   -9159.2146    -13481.03    19724.085    30533.667   -9991.1571    934.33578     78.40619 
   74000    1035.0203   -121.92795   0.93650811   -120.99144   -1912.5723    4.2830273    4.2830273    4.2830273   -1912.5723    6840.4843    4954.5932   -17532.794   -6975.8982   -12784.734    5834.3457    78.569236 
   74100    902.09753   -121.80901    0.8162368   -120.99277   -1196.1111    4.2803528    4.2803528    4.2803528   -1196.1111    28043.633   -10691.743   -20940.223   -660.68054    1496.8886    -7801.442    78.422142 
   74200    850.27909   -121.76234   0.76935039   -120.99299    195.58904    4.2801379    4.2801379    4.2801379    195.58904    13726.884   -24592.613    11452.495    31047.417    8011.6447   -13105.818    78.410329 
   74300    1001.3485   -121.89578   0.90604114   -120.98974    341.43848    4.2825775    4.2825775    4.2825775    341.43848    1213.4452   -7858.5077     7669.378    21185.334   -16711.232    896.72627    78.544485 
   74400    678.72112   -121.60826   0.61412114   -120.99414   -5281.1638    4.2818766    4.2818766    4.2818766   -5281.1638   -2977.8648    14220.107   -27085.733   -7469.9931   -24065.344    5590.7126    78.505924 
   74500    568.86364   -121.51364   0.51471977   -120.99892   -5654.8593    4.2795127    4.2795127    4.2795127   -5654.8593   -3079.5314    10085.972   -23971.018   -12855.367     8412.234    -4097.189    78.375975 
   74600    1195.6961   -122.07503     1.081891   -120.99314    3973.8782    4.2796419    4.2796419    4.2796419    3973.8782    13885.995   -2702.4849    738.12452    3042.9091    24045.296   -5972.7687    78.383076 
   74700    1342.6523   -122.20437      1.21486   -120.98951   -1673.1244    4.2852496    4.2852496    4.2852496   -1673.1244    2865.1843    2740.8397   -10625.397    6752.5536   -24209.192    1248.4722    78.691601 
   74800    647.63466   -121.58559   0.58599345    -120.9996   -8178.2264    4.2816145    4.2816145    4.2816145   -8178.2264   -12748.685    17378.756    -29164.75   -2376.6324   -40196.337    6409.8515    78.491511 
   74900    530.06234   -121.47909   0.47961155   -120.99947   -1299.8236    4.2769184    4.2769184    4.2769184   -1299.8236     6017.101    10238.773   -20155.345   -12024.593    14675.634   -419.68655    78.233525 
   75000    1024.5207   -121.92038   0.92700788   -120.99337   -3476.7472    4.2848026    4.2848026    4.2848026   -3476.7472    7459.6462   -12992.189   -4897.6988   -12447.829    28636.261   -5469.5868    78.666974 
   75100    1155.0685   -122.03519    1.0451302   -120.99006     5224.005    4.2801917    4.2801917    4.2801917     5224.005    11059.212    -360.0118    4972.8153    8384.3964    -18862.52    1999.7386    78.413286 
   75200    911.04445   -121.81754   0.82433216   -120.99321    3872.1396    4.2778737    4.2778737    4.2778737    3872.1396    17934.663    10042.407   -16360.651    9288.6968   -26576.994    4743.8339    78.285959 
   75300    765.79156   -121.68732    0.6929043   -120.99441   -7908.8658    4.2849021    4.2849021    4.2849021   -7908.8658     3923.471    1098.4179   -28748.486   -15849.641     18723.18    714.51969    78.672456 
   75400    797.99109   -121.71433   0.72203911   -120.99229    1746.7092    4.2809346    4.2809346    4.2809346    1746.7092   -497.16469    -6732.505    12469.797   -6290.7979    29712.425   -3076.1162    78.454123 
   75500    939.94435   -121.83967    0.8504814   -120.98919    392.48322    4.2827101    4.2827101    4.2827101    392.48322      4349.89   -24790.841    21618.401    24400.379   -10169.167    1104.9217    78.551782 
   75600    967.48062   -121.86328    0.8753968   -120.98788    -2573.938    4.2828876    4.2828876    4.2828876    -2573.938    10695.822    -15698.82    -2718.816     16552.27   -13036.567    4532.6514    78.561548 
   75700    924.30846   -121.82611   0.83633372   -120.98978    5108.8899    4.2767815    4.2767815    4.2767815    5108.8899    15073.683     13958.25   -13705.264    -9036.529    30590.648   -1895.2136    78.226013 
   75800    841.92177   -121.75505   0.76178851   -120.99326   -6234.0079    4.2836756    4.2836756    4.2836756   -6234.0079    -5662.744   -4915.1477    -8124.132    4575.7849    31682.682   -4352.1964    78.604918 
   75900    977.98496   -121.87644   0.88490135   -120.99154   -4504.7546    4.2828744    4.2828744    4.2828744   -4504.7546   -2288.5164   -31638.485    20412.738    34006.692   -9254.3554    -230.1466    78.560819 
   76000    937.42975   -121.83937   0.84820614   -120.99116    3669.8412    4.2757213    4.2757213    4.2757213    3669.8412     10678.79    -12111.08    12441.814    18404.531   -3430.7627    2981.4394    78.167851 
   76100    708.59975   -121.63704   0.64115594   -120.99589   -8430.0623    4.2835043    4.2835043    4.2835043   -8430.0623    2595.3068    15766.573   -43652.067   -11457.382    38482.605    888.15809    78.595488 
   76200    838.67607   -121.75155   0.75885173    -120.9927   -7136.5792    4.2852873    4.2852873    4.2852873   -7136.5792     287.6779    11497.043   -33194.459     4678.052    30825.324   -6459.4635    78.693674 
   76300    1301.7875   -122.16138    1.1778847    -120.9835    4772.0667    4.2811868    4.2811868    4.2811868    4772.0667    13766.882   -12101.638    12650.956    24219.764   -10944.141   -1528.1097    78.467989 
   76400    962.80704   -121.86178   0.87116805   -120.99061   -2987.1416    4.2816999    4.2816999    4.2816999   -2987.1416    7996.1295   -9154.9658   -7802.5884    10187.664    7975.7539    5413.7076    78.496206 
   76500    289.80176   -121.26497   0.26221872   -121.00275   -7224.0702    4.2788297    4.2788297    4.2788297   -7224.0702   -6434.4032    17221.118   -32458.925   -8429.6936    45828.277    2876.2613    78.338454 
   76600    691.12255   -121.63291   0.62534221   -121.00757   -3757.9429    4.2819809    4.2819809    4.2819809   -3757.9429   -2840.8274    10887.116   -19320.118   -11219.854    17559.831   -2381.9607    78.511665 
   76700    1579.2458   -122.42266    1.4289348   -120.99372    8733.0153    4.2815223    4.2815223    4.2815223    8733.0153    20500.734   -4746.1001    10444.412   -1233.7875   -19567.783   -2725.6986    78.486442 
   76800    1164.4189   -122.05272    1.0535907   -120.99913    8490.4759    4.2784634    4.2784634    4.2784634    8490.4759    15075.788    7927.4676    2468.1718    5887.5028    20420.761    7022.5536    78.318338 
   76900    392.63982   -121.36152   0.35526876   -121.00625   -10660.048    4.2841288    4.2841288    4.2841288   -10660.048   -4712.5654    10019.193   -37286.773    -3588.592    47773.944    8504.8341    78.629871 
   77000    700.66639    -121.6319   0.63397768   -120.99792   -4469.8198    4.2841436    4.2841436    4.2841436   -4469.8198    2237.8031   -6089.7347   -9557.5277   -14412.467    6554.6639   -1492.8933    78.630683 
   77100    1288.0193   -122.15016     1.165427   -120.98473    2073.2329    4.2820661    4.2820661    4.2820661    2073.2329    6469.4408   -17994.631    17744.888   -3546.4646   -16093.358   -2379.6143    78.516348 
   77200    845.46218   -121.75582   0.76499195   -120.99083   -2265.4672     4.279407     4.279407     4.279407   -2265.4672    4382.7163   -651.81504   -10527.303    12994.784    23278.102    6816.9357    78.370168 
   77300    554.86262   -121.49904   0.50205136   -120.99699   -3619.3916     4.279507     4.279507     4.279507   -3619.3916    9033.2636    5096.0272   -24987.466    2842.4016    38587.438     9473.471     78.37566 
   77400    992.69555   -121.89178   0.89821179   -120.99357   -4782.6585    4.2853679    4.2853679    4.2853679   -4782.6585    10833.978   -17053.679   -8128.2741   -14215.091    1805.4111   -1435.0678    78.698116 
   77500    1344.7665   -122.20526     1.216773   -120.98849    6331.6662    4.2794647    4.2794647    4.2794647    6331.6662    14795.307   -14793.227    18992.919   -1472.9124   -11657.841     -4636.83    78.373339 
   77600    767.19872   -121.69258   0.69417753    -120.9984    2953.9098    4.2768334    4.2768334    4.2768334    2953.9098   -2946.4698    906.98413    10901.215    20037.481    25390.023    3931.4272    78.228859 
   77700    364.55536   -121.33432   0.32985735   -121.00446   -12500.272    4.2867115    4.2867115    4.2867115   -12500.272   -1725.7313   -7002.6207   -28772.463    11246.607    35244.145    8986.2401    78.772163 
   77800    1067.8912   -121.96388   0.96625036   -120.99763      998.795    4.2837566    4.2837566    4.2837566      998.795    28201.817   -6127.4378   -19077.994   -4612.6967   -4900.8664     6554.589    78.609377 
   77900    1568.2943   -122.40443    1.4190257    -120.9854    14803.505    4.2771987    4.2771987    4.2771987    14803.505    24592.407    5315.3519    14502.756   -1193.3342   -10907.237   -2793.8853    78.248907 
   78000    854.14467     -121.771   0.77284804   -120.99816   -5051.5931    4.2831548    4.2831548    4.2831548   -5051.5931   -6201.5313    2613.5083   -11566.756    11188.543    34701.089   -2001.0916    78.576253 
   78100     385.2947   -121.35223   0.34862274   -121.00361   -12057.735    4.2829595    4.2829595    4.2829595   -12057.735   -7160.6871   -1788.7259   -27223.791    18784.894    33822.236    6819.8782    78.565504 
   78200    914.68088   -121.82536   0.82762248   -120.99774    2752.0355    4.2780011    4.2780011    4.2780011    2752.0355    11334.589   -7823.4921    4745.0092    225.98483   -5002.3829    11628.757    78.292954 
   78300    1234.5504   -122.10751    1.1170472   -120.99046    3067.6693    4.2823141    4.2823141    4.2823141    3067.6693    2379.8491   -7898.9563    14722.115   -24185.561   -7952.8093    2785.7173     78.52999 
   78400    793.15216   -121.71259   0.71766074   -120.99492   -1823.2453    4.2830446    4.2830446    4.2830446   -1823.2453   -13129.831    12378.728   -4718.6324   -12422.053    30115.192     -4844.19    78.570188 
   78500    720.98546   -121.64593    0.6523628   -120.99357    887.39046    4.2809416    4.2809416    4.2809416    887.39046    1892.4909     18320.31   -17550.629     12673.16    32242.236    5363.8296     78.45451 
   78600    1017.4971   -121.90791   0.92065277   -120.98725     3384.559    4.2822082    4.2822082    4.2822082     3384.559    21577.048   -10328.122    -1095.249    3167.3898   -7051.4938    8563.7762    78.524168 
   78700    834.74381   -121.74496   0.75529374   -120.98967    1646.1682    4.2814593    4.2814593    4.2814593    1646.1682    3278.4717   -17393.701    19053.734   -36158.924   -3101.1845    2659.8558    78.482973 
   78800    634.96419   -121.56829   0.57452894   -120.99376   -4189.5219    4.2813579    4.2813579    4.2813579   -4189.5219   -18526.313    7248.2498   -1290.5024    -28523.79    34040.291   -2092.3929    78.477402 
   78900    998.09031   -121.89314   0.90309308   -120.99005   -2614.8008    4.2825535    4.2825535    4.2825535   -2614.8008    3813.7067    14449.724   -26107.833    8923.0209    24379.638    2749.8521    78.543162 
   79000    1150.1342   -122.02779    1.0406656   -120.98713    1659.4697    4.2805942    4.2805942    4.2805942    1659.4697    19466.208   -10181.741    -4306.058   -3267.1037   -12555.227    14763.345     78.43541 
   79100    796.64333   -121.71479   0.72081963   -120.99397   -833.71193    4.2799056    4.2799056    4.2799056   -833.71193   -1848.8468   -20839.339     20187.05   -33833.626   -3559.8941    7852.4397    78.397564 
   79200    643.45156   -121.57931   0.58220849    -120.9971   -7358.2661    4.2834027    4.2834027    4.2834027   -7358.2661   -19214.613   -3568.5838    708.39874   -23299.016    39296.097   -354.84428    78.589895 
   79300    1039.6816    -121.9335   0.94072579   -120.99278    856.28639    4.2804149    4.2804149    4.2804149    856.28639    -2369.243    20450.754   -15512.652    6405.9984      31804.3   -387.80566    78.425554 
   79400    1203.6959   -122.07856    1.0891293   -120.98944    7862.6076    4.2783185    4.2783185    4.2783185    7862.6076    9609.9862     7436.036    6541.8005    2130.8335   -21040.969    5405.9911    78.310379 
   79500    723.55113   -121.65051   0.65468426   -120.99583   -6029.1716    4.2854141    4.2854141    4.2854141   -6029.1716   -15801.631   -10713.706    8427.8218   -31604.274   -11889.576    11782.211    78.700662 
   79600    645.47692   -121.57907   0.58404108   -120.99503   -4381.7068     4.284221     4.284221     4.284221   -4381.7068   -26066.312    11982.914     938.2783    -23419.62    35388.586    3940.2914    78.634948 
   79700    1203.1408   -122.07377    1.0886271   -120.98514    7952.2436      4.28001      4.28001      4.28001    7952.2436   -2598.9089    28229.838   -1774.1982    7070.8187    26278.514   -3329.9992    78.403299 
   79800    1138.9856   -122.01696    1.0305781   -120.98639    3630.3854    4.2816268    4.2816268    4.2816268    3630.3854    3361.4851    8253.9313   -724.26016   -428.48377   -16801.484    420.19286    78.492186 
   79900    623.51983   -121.56133   0.56417385   -120.99715   -3716.0277    4.2806154    4.2806154    4.2806154   -3716.0277   -11156.733   -6956.6047    6965.2543    -28038.49   -14012.354    10003.646    78.436578 
   80000    640.05882   -121.57796   0.57913867   -120.99882   -2990.9564    4.2795857    4.2795857    4.2795857   -2990.9564   -14423.349    3423.1935    2027.2862   -28304.972    19402.345    12248.509    78.379988 
   80100    1084.3362   -121.97407   0.98113015   -120.99294    1620.5635    4.2813098    4.2813098    4.2813098    1620.5635   -177.73732    8589.5546   -3550.1267    11686.157    21691.804    -9262.492    78.474756 
   80200    947.07194   -121.84869   0.85693059   -120.99176   -5313.7635    4.2846641    4.2846641    4.2846641   -5313.7635    5235.6352   -19557.021   -1619.9049    16078.226   -2753.4152   -16709.598    78.659347 
   80300    648.49837   -121.57935   0.58677495   -120.99257   -9462.6716    4.2836097    4.2836097    4.2836097   -9462.6716   -1686.1107   -29530.475     2828.571   -23926.897   -10937.453    5741.8299    78.601291 
   80400    970.27658   -121.86561   0.87792664   -120.98769     426.1032    4.2794604    4.2794604    4.2794604     426.1032   -2389.9377    1256.1462    2412.1011   -27265.747   -3477.3679    11026.474    78.373099 
   80500    1112.8205    -121.9935    1.0069033   -120.98659   -2363.8249    4.2817376    4.2817376    4.2817376   -2363.8249    4938.6378   -5738.3452   -6291.7672    17152.259      4122.03   -13945.542     78.49828 
   80600    720.82233   -121.64661    0.6522152   -120.99439   -6579.6183    4.2817481    4.2817481    4.2817481   -6579.6183    12841.307   -29459.558   -3120.6045    26412.901    5504.7371   -26524.078     78.49886 
   80700    797.63201   -121.71715   0.72171421   -120.99543   -1580.5501    4.2806653    4.2806653    4.2806653   -1580.5501    2589.2573   -12036.705    4705.7975    -13444.11     -5252.51   -842.08241    78.439319 
   80800    1190.0441   -122.06652    1.0767769   -120.98974    473.61721     4.282861     4.282861     4.282861    473.61721   -7424.9975    11614.539   -2768.6902   -27605.445   -18581.102    10601.538    78.560086 
   80900     1018.013   -121.91157   0.92111955   -120.99045    2825.8442    4.2806621    4.2806621    4.2806621    2825.8442    11344.538    3719.4961   -6586.5015    9206.7505   -11786.459   -14894.846    78.439146 
   81000    667.18222    -121.5985    0.6036805   -120.99482   -6058.8311    4.2837497    4.2837497    4.2837497   -6058.8311    16840.963    -24045.14   -10972.317    29137.698     4027.489   -26388.617       78.609 
   81100    927.74468    -121.8315   0.83944288   -120.99206    -6087.007    4.2838296    4.2838296    4.2838296    -6087.007    -52.51383   -15066.959   -3141.5483    4226.0907    806.08556   -1992.2061    78.613399 
   81200    1307.5509   -122.16926    1.1830995   -120.98616    10233.809    4.2755798    4.2755798    4.2755798    10233.809    4440.3473    24807.418    1453.6617   -15646.183   -14485.492    10206.743    78.160092 
   81300    836.40346   -121.75165   0.75679543   -120.99485   -5033.2896    4.2831976    4.2831976    4.2831976   -5033.2896    2829.7488    7225.0499   -25154.668    4728.2598    -17626.16   -20841.588    78.578607 
   81400    366.31069   -121.33235   0.33144561    -121.0009   -17304.265    4.2862205    4.2862205    4.2862205   -17304.265    4056.8642   -31049.745   -24919.916    28013.999    90.757571   -33860.589    78.745098 
   81500    801.55571   -121.72404   0.72526445   -120.99878    2504.6035    4.2755404    4.2755404    4.2755404    2504.6035    16692.969   -11464.475    2285.3161    20810.639    5317.1225    1032.0499    78.157928 
   81600    1421.1622   -122.27513    1.2858974   -120.98924    7309.1989    4.2809578    4.2809578    4.2809578    7309.1989    5472.1061    22950.109   -6494.6182   -6114.9596   -6345.9885    13640.418    78.455402 
   81700    969.81563   -121.87458   0.87750957   -120.99707   -6474.6605    4.2865263    4.2865263    4.2865263   -6474.6605     5463.416    -3671.784   -21215.614   -2542.8652   -11430.356   -23278.727    78.761951 
   81800    341.90141   -121.31211   0.30935958   -121.00275   -6170.2684    4.2796918    4.2796918    4.2796918   -6170.2684     18763.33   -33652.052   -3622.0826    27893.558   -4274.9949   -38584.602    78.385816 
   81900     875.1018     -121.791    0.7918105   -120.99919    192.10304    4.2810929    4.2810929    4.2810929    192.10304    4093.9554   -11072.567    7554.9211    24871.421    3635.8332    -5914.622    78.462828 
   82000    1515.2581   -122.35806    1.3710374   -120.98702    7140.3744     4.282834     4.282834     4.282834    7140.3744   -1404.3497    14764.055    8061.4179   -7962.3639    6725.7818    12248.154    78.558596 
   82100    945.04386   -121.85148   0.85509554   -120.99638    3200.2459    4.2796091    4.2796091    4.2796091    3200.2459    8583.3206    -398.3268     1415.744   -10102.439   -1727.2319   -18484.765    78.381271 
   82200    349.19633   -121.31987   0.31596017   -121.00391   -12731.912    4.2823835    4.2823835    4.2823835   -12731.912   -869.53734   -30647.956   -6678.2435     22280.85   -8652.9371   -39039.912     78.53381 
   82300    801.29401   -121.72531   0.72502766   -121.00028   -3503.3114    4.2796692    4.2796692    4.2796692   -3503.3114   -1264.6143   -17518.812    8273.4926    32429.923   -1288.9528   -12063.464    78.384576 
   82400    1334.0113    -122.1976    1.2070415   -120.99056    7529.6492    4.2802942    4.2802942    4.2802942    7529.6492    5540.5292     13832.85    3215.5689   -2483.1532    13316.999    15605.869    78.418919 
   82500     1004.541   -121.90331    0.9089298   -120.99438   -5980.3649    4.2849022    4.2849022    4.2849022   -5980.3649    9816.9101   -8471.6617   -19286.343   -7429.6414    9230.8735   -12058.133    78.672461 
   82600    551.66561    -121.4972   0.49915864   -120.99804   -4716.6678    4.2783445    4.2783445    4.2783445   -4716.6678    24377.164   -37800.775   -726.39238    25785.133   -6846.8923   -41455.833     78.31181 
   82700    806.04865   -121.72438   0.72932976   -120.99506   -4398.8249    4.2811506    4.2811506    4.2811506   -4398.8249    3935.7455   -24956.387    7824.1664    28341.657   -2135.3843   -12205.776       78.466 
   82800    1141.3197   -122.02062    1.0326901   -120.98793   -5260.2893    4.2851236    4.2851236    4.2851236   -5260.2893   -8836.6718    8027.8057   -14972.002   -693.14631    19045.771    19704.515    78.684656 
   82900    913.94924   -121.81739   0.82696048   -120.99043    4645.0864    4.2765583    4.2765583    4.2765583    4645.0864    14323.086    15781.563    -16169.39   -6474.2799    17742.441   -4449.2344    78.213767 
   83000    661.17878   -121.59313   0.59824846   -120.99488   -5004.1201    4.2816687    4.2816687    4.2816687   -5004.1201    6235.8313   -12395.212   -8852.9793    19637.189   -1821.6261   -37307.214    78.494489 
   83100    893.31827   -121.80204   0.80829314   -120.99374   -3205.3289    4.2832836    4.2832836    4.2832836   -3205.3289   -13218.338   -7155.5277    10757.879    30541.664   -2718.8338   -17463.308    78.583339 
   83200    1175.2318   -122.05245    1.0633744   -120.98907    11960.257    4.2766282    4.2766282    4.2766282    11960.257   -8352.3292     29351.52    14881.582    2065.4538    15797.708    18265.231    78.217602 
   83300     968.7358   -121.86936   0.87653251   -120.99283   -3576.4052    4.2834698    4.2834698    4.2834698   -3576.4052   -4064.4431     13987.53   -20652.302   -10238.368    19027.819   -2139.7555    78.593589 
   83400    740.50325   -121.66485    0.6700229   -120.99483   -3521.5466    4.2817245    4.2817245    4.2817245   -3521.5466    7511.7696    -11954.65   -6121.7597    14054.831    201.30386   -31303.323    78.497562 
   83500    1021.7325   -121.91387   0.92448508   -120.98939    2133.3149    4.2798423    4.2798423    4.2798423    2133.3149   -5993.9586   -6353.3116    18747.215    23150.799   -4062.5938   -17841.804    78.394086 
   83600     974.0669   -121.86965    0.8813562   -120.98829   -7312.1415    4.2840212    4.2840212    4.2840212   -7312.1415   -31133.538    11750.189    -2553.076   -2316.1677    15158.464    13209.282    78.623944 
   83700    579.68507   -121.51945   0.52451123   -120.99494   -2491.5567    4.2772351    4.2772351    4.2772351   -2491.5567   -17625.227    23977.945   -13827.388   -14999.303    19727.906    3430.5365    78.250907 
   83800    777.74635   -121.70099   0.70372124   -120.99727   -3858.1608    4.2806221    4.2806221    4.2806221   -3858.1608   -1334.9079   -88.837279   -10150.737    959.65149    744.70325   -29175.317    78.436945 
   83900    1339.6431   -122.20066    1.2121372   -120.98852   -262.16407     4.284225     4.284225     4.284225   -262.16407   -1697.8701   -1658.8423    2570.2201    7143.8702   -3978.2127   -14142.677    78.635165 
   84000    941.68136   -121.84779   0.85205308   -120.99573    2882.3344    4.2785867    4.2785867    4.2785867    2882.3344   -22639.342     29412.84    1873.5052    -4113.648    14497.645     15602.73    78.325109 
   84100    309.21656   -121.28335   0.27978564   -121.00356   -15615.207    4.2834412    4.2834412    4.2834412   -15615.207   -41121.906    10610.841   -16334.557   -14666.564    17378.419    4540.2455    78.592015 
   84200    820.82822   -121.74246   0.74270263   -120.99975   -4457.1208    4.2807772    4.2807772    4.2807772   -4457.1208   -16351.546    280.80411    2699.3799   -9191.4978   -3668.3137   -14542.741    78.445471 
   84300    1438.1103   -122.28911    1.3012324   -120.98788    9247.0303      4.27938      4.27938      4.27938    9247.0303   -7657.0758    6893.8612    28504.306    10967.295   -2621.8809   -11161.688    78.368686 
   84400    886.07221   -121.79738   0.80173676   -120.99564    -10234.67    4.2855294    4.2855294    4.2855294    -10234.67   -37113.755    10416.928   -4007.1839    12832.386    19098.302    9530.5245    78.707014 
   84500    560.32765   -121.50763   0.50699623   -121.00063   -2129.1773    4.2757526    4.2757526    4.2757526   -2129.1773   -31199.884    41102.642   -16290.289   -8809.8131    14074.746    11784.968    78.169569 
   84600    1016.4207   -121.91535   0.91967883   -120.99567    4848.5521    4.2789633    4.2789633    4.2789633    4848.5521   -21117.053    26712.825    8949.8845   -6017.0059   -9571.8372    1648.7648    78.345795 
   84700    1256.7674   -122.12614    1.1371495     -120.989   -4250.2741    4.2873805    4.2873805    4.2873805   -4250.2741   -31696.147   -9672.4079    28617.733    24764.561   -4713.2638    -1488.224     78.80905 
   84800     731.0796   -121.65766   0.66149618   -120.99617    5390.5979    4.2751554    4.2751554    4.2751554    5390.5979   -22126.063    18371.762    19926.095    25254.226    20830.249    782.45238    78.136815 
   84900    543.85121   -121.49153   0.49208801   -120.99945   -2708.2025    4.2796656    4.2796656    4.2796656   -2708.2025   -24721.482    31107.642   -14510.767   -3151.3223    15052.721    14231.364    78.384379 
   85000    1004.2714   -121.90109   0.90868591   -120.99241   -4768.6641    4.2858863    4.2858863    4.2858863   -4768.6641   -22344.395    9832.8546   -1794.4519   -3242.8852   -8991.7227    9190.1068     78.72668 
   85100    1226.4517   -122.09789    1.1097192   -120.98817    11771.869    4.2763561    4.2763561    4.2763561    11771.869    932.66543    435.44536    33947.497    18631.284   -7710.4382   -7345.5971    78.202669 
   85200    767.26601   -121.69035   0.69423841   -120.99612   -5064.2601    4.2811872    4.2811872    4.2811872   -5064.2601   -8693.5607   -10852.549    4353.3294      22089.8    17465.232   -10675.802    78.468014 
   85300    614.53016   -121.55355    0.5560398   -120.99751   -7587.0435    4.2824249    4.2824249    4.2824249   -7587.0435   -17791.122     10264.13   -15234.138    3991.6863    23740.253    2933.6624    78.536087 
   85400    1123.6281   -122.00789    1.0166823   -120.99121    4306.1328    4.2801485    4.2801485    4.2801485    4306.1328   -6393.3127    19144.929    166.78203   -10697.393   -1130.6514    14127.684    78.410912 
   85500    1175.0372   -122.05166    1.0631983   -120.98846   -3661.2009    4.2837211    4.2837211    4.2837211   -3661.2009   -3608.5093   -16824.837    9449.7432   -5026.6784   -10889.679   -11125.852    78.607421 
   85600    652.71632   -121.58709   0.59059144    -120.9965   -2157.1598    4.2761359    4.2761359    4.2761359   -2157.1598    3979.9704   -6008.4721   -4442.9775    8960.2739    16861.754   -29463.386    78.190592 
   85700    618.41772   -121.55936   0.55955735    -120.9998   -4280.8456    4.2806744    4.2806744    4.2806744   -4280.8456   -5680.3604    16148.723   -23310.899    11581.372    34453.874   -8726.4178    78.439819 
   85800    1134.5517   -122.01714    1.0265662   -120.99057   -5898.1227    4.2866039    4.2866039    4.2866039   -5898.1227   -14258.684   -1226.3552   -2209.3286   -12268.988    9827.4582    9695.9282     78.76623 
   85900    1085.4262   -121.97163   0.98211643   -120.98951    8189.3835    4.2761308    4.2761308    4.2761308    8189.3835    13299.562   -15026.435    26295.025   -26555.551   -12433.199   -5158.4526    78.190311 
   86000    567.91914   -121.51032   0.51386517   -120.99645   -9253.5124    4.2824724    4.2824724    4.2824724   -9253.5124   -789.37131   -20149.824   -6821.3413   -229.90877    16229.415    -25843.99    78.538702 
   86100    641.94004   -121.57773   0.58084084   -120.99689   -11095.568    4.2844197    4.2844197    4.2844197   -11095.568   -12831.838    4133.6807   -24588.546    15010.302    42962.469   -14960.764    78.645888 
   86200    1240.4894   -122.11264    1.1224209   -120.99021    8561.2297    4.2763408    4.2763408    4.2763408    8561.2297     3305.988    14077.877    8299.8246   -8065.7224    13774.727    7524.1853     78.20183 
   86300    1317.0739   -122.18068    1.1917161   -120.98897   -1041.6516    4.2831839    4.2831839    4.2831839   -1041.6516    963.21806   -17482.535    13394.362   -25708.246   -14155.022    2068.2245    78.577852 
   86400    679.54093   -121.61405   0.61486291   -120.99919   -4065.1461    4.2804735    4.2804735    4.2804735   -4065.1461    835.89509   -6986.6159   -6044.7175   -5172.4234    18048.139   -22168.975    78.428775 
   86500    425.37367   -121.38681   0.38488704   -121.00192   -5192.6948    4.2801612    4.2801612    4.2801612   -5192.6948   -3777.2601    10940.236   -22741.061    15561.376    44106.419   -22682.994    78.411612 
   86600    1083.1032   -121.97388   0.98001456   -120.99386   -6216.5807    4.2874247    4.2874247    4.2874247   -6216.5807   -6023.1435   -3679.1635    -8947.435    928.48223     6434.956    4260.4197    78.811486 
   86700    1424.5973   -122.27349    1.2890055   -120.98449    8739.4286    4.2786868    4.2786868    4.2786868    8739.4286    13913.077   -5699.1067    18004.316   -11734.372   -18963.091    5941.0046    78.330605 
   86800    674.03085    -121.6074   0.60987728   -120.99752   -4713.4495    4.2799331    4.2799331    4.2799331   -4713.4495     4137.774   -5743.4774   -12534.645    -329.0613    25632.554   -21624.615    78.399077 
   86900      258.737   -121.23803   0.23411067   -121.00392   -18676.074    4.2856597    4.2856597    4.2856597   -18676.074   -11786.471   -10074.195   -34167.556    10968.398    44634.463   -24559.978    78.714192 
   87000    1001.8383   -121.90568   0.90648435   -120.99919    3907.6433    4.2767996    4.2767996    4.2767996    3907.6433    7630.4396    45.683575    4046.8068    8347.6056    2270.9889    6313.2654    78.227004 
   87100    1539.3591   -122.38244    1.3928444    -120.9896    9664.6572    4.2796992    4.2796992    4.2796992    9664.6572    15565.409    343.34205     13085.22   -1155.0507   -17648.964    11198.741    78.386223 
   87200    830.76433   -121.75037   0.75169303   -120.99868   -4521.5538    4.2867107    4.2867107    4.2867107   -4521.5538    94.012004   -336.05429   -13322.619   -735.69327    29025.465    -20522.84     78.77212 
   87300    367.71606   -121.33317   0.33271722   -121.00045   -8391.8903    4.2832045    4.2832045    4.2832045   -8391.8903    3786.2408   -1026.0183   -27935.893    7445.6413    41568.316       -26209    78.578988 
   87400    957.87351   -121.85998   0.86670408   -120.99327    1987.3616    4.2784107    4.2784107    4.2784107    1987.3616     11703.63   -8299.3676    2557.8224    9400.9831   -1772.7324    5402.0775    78.315443 
   87500    1332.3998   -122.19249    1.2055833    -120.9869     11247.68    4.2774603    4.2774603    4.2774603     11247.68     11323.97   -4291.3598    26710.431   -3268.5967    -11992.45    14672.117    78.263267 
   87600    783.93457   -121.70675   0.70932047   -120.99743   -4787.7075    4.2844685    4.2844685    4.2844685   -4787.7075    148.22062    1053.4689   -15564.812   -10246.293    31003.188   -13604.352    78.648578 
   87700    529.93494   -121.47961   0.47949627   -121.00011   -9585.6709    4.2832716    4.2832716    4.2832716   -9585.6709    -1568.562   -1545.6547   -25642.796    4100.5966    40295.893    -24969.17    78.582679 
   87800    1076.9774    -121.9682   0.97447182   -120.99373    7630.0119    4.2757494    4.2757494    4.2757494    7630.0119    14088.212   -5420.9171     14222.74     12018.38   -1567.3219   -940.22465     78.16939 
   87900    1381.8561   -122.23871    1.2503324   -120.98838    4222.9347    4.2818543    4.2818543    4.2818543    4222.9347    12893.714   -11432.926    11208.017    -2249.952   -9405.5534    11723.547    78.504698 
   88000    719.74789   -121.64964   0.65124302    -120.9984   -6723.4547    4.2839177    4.2839177    4.2839177   -6723.4547   -8431.6303    758.27825   -12497.012   -18402.597    34600.176   -5296.5601    78.618246 
   88100    396.13859   -121.36178   0.35843452   -121.00335   -5246.3774    4.2772546    4.2772546    4.2772546   -5246.3774   -214.13159    10603.807   -26128.807   -8223.1433    35606.903   -24237.567    78.251975 
   88200    1012.3288   -121.91513   0.91597638   -120.99915    328.44975    4.2791396    4.2791396    4.2791396    328.44975     24430.82   -3754.3557   -19691.115    9886.6002   -8471.1662   -17443.577    78.355478 
   88300    1408.9109   -122.26524    1.2748122   -120.99043     3767.557    4.2829627    4.2829627    4.2829627     3767.557    11614.024   -3140.0782    2828.7249    482.13856   -10351.448    5568.6768    78.565681 
   88400    710.13336   -121.64459   0.64254358   -121.00205   -7163.6121    4.2822895    4.2822895    4.2822895   -7163.6121   -16199.255    10552.545   -15844.127   -16197.858    34320.949    1462.0452    78.528638 
   88500     259.7622   -121.24052    0.2350383   -121.00548   -12996.699    4.2798838    4.2798838    4.2798838   -12996.699   -988.86007   -660.38767   -37340.849   -13548.762    35181.269   -25955.814    78.396368 
   88600    995.90814   -121.90082   0.90111862   -120.99971   -1554.1922    4.2807735    4.2807735    4.2807735   -1554.1922    19755.767   -8962.2825   -15456.061    535.45091   -5316.7725    -27984.53    78.445267 
   88700    1549.3391    -122.3909    1.4018746   -120.98903     5684.231    4.2818623    4.2818623    4.2818623     5684.231    9154.0091    4884.2778    3014.4061    6870.4997    -9012.206    5251.6172    78.505139 
   88800    906.04935   -121.82026    0.8198125   -121.00045    1989.3474    4.2783628    4.2783628    4.2783628    1989.3474   -1402.1678    11081.319   -3711.1093   -5578.6628    25342.378     11213.04    78.312813 
   88900    364.14858   -121.33556   0.32948928   -121.00607   -9016.1984    4.2817555    4.2817555    4.2817555   -9016.1984   -5181.9099   -11360.384   -10506.301   -16719.767     30377.83   -23809.224    78.499265 
   89000    865.16508    -121.7842   0.78281954   -121.00138   -3827.9374    4.2822766    4.2822766    4.2822766   -3827.9374    10052.809   -16157.999   -5378.6215   -9954.2698    3530.3927   -29809.976    78.527932 
   89100    1366.4528   -122.22637    1.2363952   -120.98998    11424.244    4.2771165    4.2771165    4.2771165    11424.244    16768.534    2579.5347    14924.664    12441.089   -10810.608    4815.3734    78.244396 
   89200    972.54452   -121.87569   0.87997872   -120.99571    -3046.504    4.2829715    4.2829715    4.2829715    -3046.504   -3382.3708   -3859.2672   -1897.8739    7116.5869    12274.278    12593.024    78.566164 
   89300    461.31305   -121.41879   0.41740574   -121.00139   -8672.9504    4.2815083    4.2815083    4.2815083   -8672.9504    897.21879   -4010.1591   -22905.911   -17208.034    32987.745   -17796.593    78.485668 
   89400    730.71124   -121.65935   0.66116289   -120.99819    1694.0556    4.2773468    4.2773468    4.2773468    1694.0556    14318.069   -264.66777    -8971.234   -12775.987    10919.091   -29951.996    78.257038 
   89500    1233.8766   -122.10666    1.1164375   -120.99023   -1829.3036      4.28492      4.28492      4.28492   -1829.3036    3641.2681   -9954.2842    825.10544    9923.8048   -18258.475    216.64143    78.673441 
   89600    1104.8475   -121.99133   0.99968925   -120.99164    2455.4302    4.2797594    4.2797594    4.2797594    2455.4302   -3215.7076    12608.101   -2026.1026    11170.481    4548.0427    12035.967     78.38953 
   89700    723.42972   -121.65064   0.65457442   -120.99606   -82.386201    4.2764645    4.2764645    4.2764645   -82.386201   -4502.2753    16037.104   -11781.987   -8556.9548    40413.648   -13212.102    78.208617 
   89800    731.08955   -121.65781   0.66150519   -120.99631   -10939.871    4.2850058    4.2850058    4.2850058   -10939.871    1036.6587   -12858.976   -20997.295    -10993.37    17284.595   -24847.042    78.678167 
   89900    1085.7763   -121.97343   0.98243324     -120.991    1581.7704    4.2794318    4.2794318    4.2794318    1581.7704    12332.467   -8161.4371    574.28186    9622.7169   -24340.371    -8722.918    78.371533 
   90000     1027.374    -121.9201   0.92958955   -120.99051     2642.694    4.2775943    4.2775943    4.2775943     2642.694   -1770.0478     12658.39   -2960.2605    12463.738      1070.66    7899.2185    78.270619 
   90100    578.63176   -121.52047   0.52355818   -120.99691   -13184.566     4.284653     4.284653     4.284653   -13184.566   -7235.9676    6674.9572   -38992.687   -516.55058    47932.102   -9077.5729    78.658739 
   90200    696.10417    -121.6262   0.62984968   -120.99635   -3247.8761    4.2792614    4.2792614    4.2792614   -3247.8761    21669.103   -1005.0825   -30407.649   -5503.5691    24636.599   -26708.167    78.362171 
   90300    1212.3451   -122.08566    1.0969553   -120.98871     5162.751    4.2790562    4.2790562    4.2790562     5162.751    24395.962   -5212.0631   -3695.6461    3909.4261   -17814.987   -11511.985    78.350896 
   90400    1074.7861   -121.96402   0.97248901   -120.99153   -2834.5008    4.2827519    4.2827519    4.2827519   -2834.5008   -5164.6652    14659.145   -17997.982    11253.165    13154.603    7981.1594    78.554082 
   90500    636.81297   -121.57507   0.57620176   -120.99886   -1346.3712    4.2777145    4.2777145    4.2777145   -1346.3712   -8712.8443    38847.501    -34173.77    3542.3223    49463.954   -5701.7516    78.277216 
   90600    803.70242   -121.72558   0.72720684   -120.99837   -2384.8641    4.2807758    4.2807758    4.2807758   -2384.8641    13558.452    11732.385    -32445.43    -4232.364     17911.25   -28388.643    78.445392 
   90700    1256.2974   -122.12762    1.1367243    -120.9909     3017.312    4.2816952    4.2816952    4.2816952     3017.312    32836.074   -7167.3902   -16616.748   -1322.9496   -14830.967   -12535.707    78.495947 
   90800    979.75077   -121.87932   0.88649908   -120.99282    5298.5315    4.2782671    4.2782671    4.2782671    5298.5315    3939.5719     20717.31   -8761.2874    4059.4365    20305.704    16136.071     78.30756 
   90900    625.26013   -121.56236   0.56574851   -120.99661    -8654.699    4.2830621    4.2830621    4.2830621    -8654.699   -21265.633    24883.867   -29582.331    6705.7763    45038.919    -229.4524    78.571149 
   91000    888.37048   -121.79625   0.80381628   -120.99244   -2779.8248    4.2806497    4.2806497    4.2806497   -2779.8248    11387.625    3402.0814   -23129.181     1656.922    7588.5596   -27731.124    78.438462 
   91100    1131.7257   -122.01199    1.0240092   -120.98799    2158.0929    4.2798195    4.2798195    4.2798195    2158.0929    29515.416   -10458.728    -12582.41   -2685.6342   -13690.693    -8066.252    78.392833 
   91200    725.20878    -121.6514   0.65618415   -120.99522   -9823.5286    4.2815498    4.2815498    4.2815498   -9823.5286    1691.7888   -3424.8586   -27737.516    3019.7826    23856.337    25925.675    78.487955 
   91300    513.03037    -121.4643   0.46420066    -121.0001    -2919.949    4.2764622    4.2764622    4.2764622    -2919.949   -8387.1051    14789.124   -15161.866    9476.1442    39862.602    12542.826    78.208494 
   91400    1054.8478   -121.95085   0.95444843    -120.9964   -461.03537     4.283811     4.283811     4.283811   -461.03537   -2933.9533     4864.574   -3313.7267    8632.1025    6618.2695   -18589.985    78.612374 
   91500    1439.2231   -122.29065    1.3022393   -120.98841    4246.9704    4.2835363    4.2835363    4.2835363    4246.9704    15686.171    605.76346   -3551.0235   -2521.9506   -12009.628   -3610.1156     78.59725 
   91600     700.8811   -121.63335   0.63417195   -120.99918    5998.7171    4.2766746    4.2766746    4.2766746    5998.7171    9359.9735    15454.747   -6818.5693   -3716.2544    24377.118    24758.139    78.220144 
   91700    354.84205   -121.32553   0.32106854   -121.00446   -14534.355     4.285707     4.285707     4.285707   -14534.355    -25019.05    8877.5762   -27461.592    11522.551    39137.402    18921.208      78.7168 
   91800    1111.9895   -122.00455    1.0061515    -120.9984    2199.4949    4.2800775    4.2800775    4.2800775    2199.4949   -7160.9587    14106.471   -347.02767    16388.098    4315.1822   -3315.2839    78.407013 
   91900    1527.9248   -122.37121    1.3824985   -120.98871    13999.629    4.2765815    4.2765815    4.2765815    13999.629      17560.1    11402.679    13036.109   -2507.5173   -10517.097   -4983.3357    78.215038 
   92000    711.01096   -121.64678   0.64333766   -121.00345   -12181.306    4.2858501    4.2858501    4.2858501   -12181.306   -11244.963    -859.5064   -24439.449   -14851.733    22701.688    16472.081    78.724683 
   92100    283.57557   -121.26407   0.25658513   -121.00748   -8919.3254    4.2782877    4.2782877    4.2782877   -8919.3254    -15782.09    8068.0869   -19043.973    2883.0463      39054.4    23155.998    78.308691 
   92200    1002.5694    -121.9071   0.90714582   -120.99996    1401.3769    4.2791675    4.2791675    4.2791675    1401.3769    1382.5736   -2189.5609    5011.1182    18151.734    8491.6177    2894.1502    78.357008 
   92300    1397.8557   -122.25379    1.2648092   -120.98898   -2901.9583    4.2859174    4.2859174    4.2859174   -2901.9583    4728.7948   -13237.541   -197.12855    3008.4713   -12073.412   -18991.965    78.728395 
   92400    790.86074   -121.71123   0.71558742   -120.99564   -2135.4786    4.2789648    4.2789648    4.2789648   -2135.4786    -799.7331    7078.9776    -12685.68   -13937.509    19835.341   -1536.2513    78.345876 
   92500    559.67042   -121.50463   0.50640156   -120.99823   -8138.6535    4.2806159    4.2806159    4.2806159   -8138.6535   -6640.4867    7389.2694   -25164.743   -6703.9488    38593.933    25683.282    78.436605 
   92600    1071.2962   -121.96129    0.9693313   -120.99196    -1879.486     4.281157     4.281157     4.281157    -1879.486    6175.3423   -2269.9702   -9543.8301      5028.14    3457.7966    5338.0624    78.466354 
   92700    1124.9343   -122.00786    1.0178642      -120.99    6732.9014    4.2778002    4.2778002    4.2778002    6732.9014    22565.019    3694.8229   -6061.1377    6204.6339   -16396.411   -28527.779    78.281924 
   92800    616.19443   -121.55507   0.55754567   -120.99752   -5876.7016    4.2832062    4.2832062    4.2832062   -5876.7016    6771.0362    6330.2845   -30731.425    708.50922    20856.711   -16707.293    78.579082 
   92900      675.802   -121.60785   0.61147985   -120.99637   -1444.4974    4.2809369    4.2809369    4.2809369   -1444.4974   -4539.1963    15897.438   -15691.734    -9919.009     41029.83     15810.66    78.454249 
   93000    1142.5655   -122.02355    1.0338173   -120.98974    8266.9125    4.2779722    4.2779722    4.2779722    8266.9125    12311.132    6960.8417    5528.7639   -9649.9749    4501.5225    5055.6474    78.291367 
   93100    1120.2359   -122.00454     1.013613   -120.99092    1537.2128     4.281162     4.281162     4.281162    1537.2128    27479.921   -10726.753   -12141.529   -875.33058   -15456.436    -27688.17    78.466628 
   93200    719.24813   -121.64807   0.65079082   -120.99728   -2797.1099    4.2798575    4.2798575    4.2798575   -2797.1099    8846.1635    8134.4963    -25371.99    5830.0809    23991.476   -22115.006    78.394921 
   93300    772.13768   -121.69615    0.6986464   -120.99751   -3507.8787    4.2796545    4.2796545    4.2796545   -3507.8787   -11785.608     17854.22   -16592.248   -2443.6882    40625.689    5608.6057    78.383766 
   93400    1127.7601   -122.01237    1.0204211   -120.99195    1529.8439    4.2802515    4.2802515    4.2802515    1529.8439    8479.4525   -12769.081    8879.1607   -19459.576    1074.0252    2493.6812    78.416572 
   93500    1029.9744   -121.92382   0.93194251   -120.99188   -459.57991    4.2803005    4.2803005    4.2803005   -459.57991    25433.172   -25564.168   -1247.7436   -13165.126   -8219.5276    -23851.09     78.41927 
   93600    708.40489   -121.63689   0.64097963   -120.99591    -8772.962    4.2801714    4.2801714    4.2801714    -8772.962    11554.102    3516.6732   -41389.662    4929.1563    34230.767   -22885.818    78.412169 
   93700    829.39265   -121.74508    0.7504519   -120.99463   -3196.7629    4.2791002    4.2791002    4.2791002   -3196.7629   -189.43405    19373.349   -28774.204   -1324.1001     39190.08    4665.9523    78.353311 
   93800    1087.1505   -121.97335   0.98367657   -120.98968   -2355.9325    4.2818936    4.2818936    4.2818936   -2355.9325    1581.6552   -14074.335    5424.8819   -15366.748   -2709.1806    4384.3218    78.506862 
   93900    870.46542   -121.78065   0.78761541   -120.99303   -3912.2884    4.2801293    4.2801293    4.2801293   -3912.2884    17027.086   -25964.267   -2799.6838   -13411.901   -9241.4567   -21467.441    78.409858 
   94000    529.75746   -121.47697   0.47933568   -120.99763   -3668.7371    4.2783525    4.2783525    4.2783525   -3668.7371    8820.5827    582.51298   -20409.307    2441.8553     34207.14    -23911.54    78.312249 
   94100     805.9278   -121.72605   0.72922041   -120.99683   -3572.0998    4.2822714    4.2822714    4.2822714   -3572.0998   -2968.5879    8849.6967   -16597.408    4238.2696    38559.806    3860.9876    78.527643 
   94200    1245.1494   -122.11691    1.1266373   -120.99027    7288.7481    4.2785196    4.2785196    4.2785196    7288.7481    16430.502    -1611.271    7047.0131   -8188.8671   -4555.4467    15924.096    78.321425 
   94300    1066.2248   -121.95761   0.96474257   -120.99286    4100.2647    4.2796875    4.2796875    4.2796875    4100.2647    14048.617   -13382.497    11634.674   -9018.6825   -6344.6524   -14082.466    78.385579 
   94400    591.17814   -121.53408    0.5349104   -120.99917   -12420.211    4.2841438    4.2841438    4.2841438   -12420.211   -5445.3789   -8390.6648   -23424.589   -1187.8961    31356.205   -30030.744    78.630694 
   94500    743.56782   -121.67129   0.67279579    -120.9985   -233.72301      4.27696      4.27696      4.27696   -233.72301    13485.946    11269.796   -25456.911    3605.2455    33954.878    2970.4839    78.235807 
   94600    1299.2475   -122.16729    1.1755865    -120.9917    5771.4761    4.2795225    4.2795225    4.2795225    5771.4761      23369.8   -925.30341   -5130.0677    726.14022   -2813.7685    27186.374    78.376514 
   94700    1239.0251   -122.11271    1.1210959   -120.99162   -937.52177     4.284011     4.284011     4.284011   -937.52177    21763.143   -16150.351   -8425.3577   -5157.5379   -7193.8206   -6094.1716    78.623383 
   94800    567.81763   -121.51452   0.51377332   -121.00074   -2441.3863    4.2761395    4.2761395    4.2761395   -2441.3863    17601.997    1286.7286   -26212.884    -5986.988    32532.596   -36612.018    78.190787 
   94900    510.87793    -121.4665   0.46225309   -121.00425   -8331.5431    4.2798782    4.2798782    4.2798782   -8331.5431   -404.00152    5177.6143   -29768.242   -4938.4985    31563.683   -6863.1375    78.396056 
   95000    1214.5458   -122.09288    1.0989466   -120.99394   -2116.1334    4.2838248    4.2838248    4.2838248   -2116.1334    7640.3469   -5462.2754   -8526.4717    1118.4723   -5185.2504    23953.816    78.613133 
   95100     1236.444   -122.10986    1.1187606    -120.9911    8864.2617    4.2773418    4.2773418    4.2773418    8864.2617     31263.98   -4620.9923    -50.20226    3973.2699   -5290.0784   -4513.5893    78.256758 
   95200    483.35199   -121.43864   0.43734704    -121.0013   -8666.0381    4.2809422    4.2809422    4.2809422   -8666.0381    7575.6748     404.1544   -33977.943   -232.81172    31454.574   -36248.408    78.454541 
   95300    504.64867   -121.45775   0.45661673   -121.00113   -9786.3007     4.282191     4.282191     4.282191   -9786.3007   -3329.1283    8258.1746   -34287.949   -6150.6793    31389.547    -14442.17     78.52322 
   95400    1159.6061   -122.04122     1.049236   -120.99199    7360.0964    4.2781224    4.2781224    4.2781224    7360.0964    12312.964    2777.0761    6990.2488   -2902.7213   -6889.0699    15371.111    78.299615 
   95500    1137.6118    -122.0214     1.029335   -120.99206    2310.8226     4.280382     4.280382     4.280382    2310.8226     11332.38   -10990.416    6590.5036    13069.884   -7902.8541   -5810.2342    78.423748 
   95600    601.27195   -121.54387    0.5440435   -120.99983   -4559.0163    4.2796789    4.2796789    4.2796789   -4559.0163    12236.253   -3681.1138   -22232.188    11923.589    25976.647   -33369.667    78.385107 
   95700    789.58796    -121.7119   0.71443578   -120.99747   -4869.9347    4.2819835    4.2819835    4.2819835   -4869.9347    7152.0805    1674.7714   -23436.656   -5747.7514    28980.984   -16224.535    78.511805 
   95800    1264.4776   -122.13227    1.1441259   -120.98814   -991.19804    4.2832893    4.2832893    4.2832893   -991.19804    -1722.413   -6336.0957    5084.9146   -4586.9649   -3380.0422    13023.825    78.583655 
   95900    1061.8092   -121.95098   0.96074724   -120.99024      2694.64    4.2777369    4.2777369    4.2777369      2694.64    9981.8376   -19930.051    18032.133    18384.314   -10308.171   -6212.0923    78.278449 
   96000    587.13377   -121.52815   0.53125097    -120.9969   -6068.8028    4.2801817    4.2801817    4.2801817   -6068.8028    12872.957   -23041.271   -8038.0937    19672.385    18066.919   -34086.749    78.412736 
   96100    816.57116   -121.73596   0.73885074   -120.99711   -5550.0477    4.2823391    4.2823391    4.2823391   -5550.0477    13278.378   -4245.7103    -25682.81    -5357.319    20886.772   -13332.324    78.531368 
   96200    1200.5361   -122.07597    1.0862703    -120.9897    4963.5311    4.2790015    4.2790015    4.2790015    4963.5311     15860.06    379.29277   -1348.7592   -2729.2783    855.95203    19148.004    78.347889 
   96300    1002.3122   -121.89857   0.90691317   -120.99166     1303.896    4.2812506    4.2812506    4.2812506     1303.896    8196.8498    -22563.06    18277.898    19033.633    -5403.678   -1131.0948      78.4715 
   96400    553.95543   -121.49742   0.50123052   -120.99619   -5773.8521    4.2826053    4.2826053    4.2826053   -5773.8521    8071.2272   -23895.499   -1497.2845    19942.929    9968.5993   -37022.407    78.546015 
   96500    694.59984   -121.62311   0.62848853   -120.99462   -1840.5209    4.2800107    4.2800107    4.2800107   -1840.5209    18978.365   -7462.3108   -17037.617   -1221.4827      19200.3   -13114.596    78.403339 
   96600    1179.4553   -122.05589    1.0671959   -120.98869    3256.1249     4.279931     4.279931     4.279931    3256.1249    13522.661   -2481.0795   -1273.2063   -7367.1122    3047.6272     28186.04    78.398959 
   96700    1115.8317   -121.99985     1.009628   -120.99022    2155.5691     4.280602     4.280602     4.280602    2155.5691     8322.481    -11487.51    9631.7359    17542.622   -8143.7898     3022.093     78.43584 
   96800    608.78779   -121.54991   0.55084398   -120.99907   -4862.7594    4.2800797    4.2800797    4.2800797   -4862.7594    11798.576   -20828.528   -5558.3261    23863.275    4455.0748   -39988.442    78.407133 
   96900    666.83792   -121.60321   0.60336897   -120.99984   -4993.5882    4.2806896    4.2806896    4.2806896   -4993.5882    10984.833     -5638.22   -20327.378    5136.2694    18102.881   -24849.059    78.440656 
   97000     1353.485   -122.21483    1.2246616   -120.99017    1204.5244    4.2819583    4.2819583    4.2819583    1204.5244    938.17989    14826.959   -12151.565   -5849.9327    12963.968    15693.492    78.510422 
   97100    1216.8833   -122.09262    1.1010615   -120.99156   -712.45164    4.2815628    4.2815628    4.2815628   -712.45164    5688.1748   -4591.2942   -3234.2356    6554.9814   -6498.4012    740.57427     78.48867 
   97200    365.83759   -121.33342   0.33101754   -121.00241    -9889.654     4.280568     4.280568     4.280568    -9889.654    6104.6414   -16688.355   -19085.249     22699.32    1506.2067   -41902.907     78.43397 
   97300    508.59317   -121.46474   0.46018579   -121.00455   -8741.9634     4.282069     4.282069     4.282069   -8741.9634    -8630.492    12334.891   -29930.289    8107.5006    17065.425   -26306.506    78.516509 
   97400    1386.8282   -122.24679    1.2548313   -120.99196    3174.9813    4.2813394    4.2813394    4.2813394    3174.9813   -5980.9064    27751.482   -12245.632   -6777.0836    11577.854    13133.564    78.476385 
   97500     1273.599   -122.14473    1.1523791   -120.99236    5178.0214    4.2781015    4.2781015    4.2781015    5178.0214    10345.074   -4.0465311    5193.0368    6779.5588   -3495.8284    779.12875    78.298466 
   97600    564.25477   -121.51227   0.51054957   -121.00172   -8675.7176    4.2820865    4.2820865    4.2820865   -8675.7176     2054.587   -30376.789    2295.0488    21298.712    676.26438   -34592.484    78.517473 
   97700    635.51962   -121.57339   0.57503151   -120.99835   -6150.1752    4.2830861    4.2830861    4.2830861   -6150.1752   -5731.4908   -6412.1424   -6306.8923    12581.201    17109.845   -28145.839    78.572472 
   97800    1117.2406   -121.99988    1.0109027   -120.98898    4121.5522    4.2800236    4.2800236    4.2800236    4121.5522    6355.7354    11332.973   -5324.0513   -6703.7134    10680.761    21090.143     78.40405 
   97900    980.44343   -121.87689   0.88712582   -120.98976   -125.53968    4.2803692    4.2803692    4.2803692   -125.53968    15749.384   -20379.278    4253.2752    431.78711   -4174.0104    24456.663    78.423042 
   98000    738.35437   -121.66166   0.66807855   -120.99358    456.59576    4.2794513    4.2794513    4.2794513    456.59576    10437.899   -19578.908    10510.797    20458.472   -1838.6449   -18225.742    78.372604 
   98100    874.51488   -121.78463   0.79127944   -120.99335   -584.37475    4.2809103    4.2809103    4.2809103   -584.37475   -3354.4901    1030.0569    571.30896    13649.141    15004.793   -27390.585    78.452788 
   98200     918.9112   -121.82485   0.83145017    -120.9934   -408.79747    4.2791011    4.2791011    4.2791011   -408.79747     3045.268    6521.4186   -10793.079   -6703.1639      21088.7    14639.333    78.353363 
   98300    839.49014   -121.75499   0.75958832    -120.9954    342.31546    4.2784447    4.2784447    4.2784447    342.31546    16359.904   -9453.2446   -5879.7132   -9341.5474    469.90168    37010.346    78.317312 
   98400    1008.7447   -121.90518    0.9127334   -120.99245   -5034.2913    4.2845727    4.2845727    4.2845727   -5034.2913    5236.3427   -17512.387   -2826.8293    10403.454   -10337.532   -889.77436    78.654315 
   98500    1106.3175   -121.98917    1.0010194   -120.98815    371.28411    4.2810077    4.2810077    4.2810077    371.28411   -2543.9103    7196.9793   -3539.2166        12653    16391.861   -20990.822    78.458143 
   98600    709.27982   -121.63521   0.64177128   -120.99344   -1822.3558    4.2774352    4.2774352    4.2774352   -1822.3558    209.98312    13220.808   -18897.858   -8382.7193    34667.177    14321.505    78.261887 
   98700    651.65115   -121.58648   0.58962765   -120.99685   -9549.9987    4.2817048    4.2817048    4.2817048   -9549.9987    4117.5339   -11325.469   -21442.061   -10589.015    4153.0568    32231.181    78.496475 
   98800    1095.3244   -121.98339   0.99107257   -120.99231    312.81967    4.2802936    4.2802936    4.2802936    312.81967    5034.9181   -8387.1323    4290.6732    1057.0544   -20175.071    11599.288     78.41889 
   98900     1161.414    -122.0427    1.0508718   -120.99183    3585.1124    4.2793312    4.2793312    4.2793312    3585.1124   -11287.266    17211.253    4831.3504    7644.4115    17203.917   -11161.315    78.366005 
   99000    783.34602   -121.70583   0.70878794   -120.99704   -2753.0628    4.2801421    4.2801421    4.2801421   -2753.0628   -14529.306    19529.984   -13259.867   -95.404245    47338.641    7243.2784    78.410562 
   99100    759.42878   -121.68382   0.68714712   -120.99668    516.02433    4.2801885    4.2801885    4.2801885    516.02433    6060.2801   -2859.3611    -1652.846   -7822.6508    8917.5851    32248.385    78.413111 
   99200    1085.7097   -121.97239   0.98237292   -120.99001    544.30958    4.2827134    4.2827134    4.2827134    544.30958    -1125.127   -7395.7834    10153.839   -1006.5246   -23808.796    14986.906    78.551964 
   99300    902.42033   -121.80772   0.81652888   -120.99119    552.64731    4.2788991    4.2788991    4.2788991    552.64731   -33899.237    26155.662    9401.5176    3800.3741    19949.615   -8161.6393    78.342268 
   99400    602.11892   -121.54164   0.54480985   -120.99683   -2787.6047    4.2772326    4.2772326    4.2772326   -2787.6047   -32485.214    31168.962   -7046.5619    4075.3501    49523.479    879.33668    78.250767 
   99500    866.75495   -121.77967    0.7842581   -120.99541   -4581.2824    4.2818425    4.2818425    4.2818425   -4581.2824    -4202.777   -2866.0029   -6675.0674     340.3313    10516.789    30057.348    78.504052 
   99600    1231.4255   -122.10405    1.1142197   -120.98983    1831.6115    4.2802089    4.2802089    4.2802089    1831.6115    2656.3459   -10424.019    13262.508   -3334.6131   -13278.698    23790.807    78.414234 
   99700     852.4708   -121.76787    0.7713335   -120.99653   -2222.7182    4.2784657    4.2784657    4.2784657   -2222.7182    -31847.21    25275.253   -96.198206    46.621816    28737.688   -9390.3504    78.318465 
   99800     549.6093   -121.49832   0.49729804   -121.00103   -6557.3692    4.2798431    4.2798431    4.2798431   -6557.3692   -44493.151    34032.543   -9211.4997    2869.9249     40886.94   -3621.1129     78.39413 
   99900    1005.2395   -121.90574   0.90956184   -120.99618    1422.4103    4.2812628    4.2812628    4.2812628    1422.4103   -10987.053    886.74462    14367.539    6002.6092   -6623.7228    17055.719    78.472169 
  100000    1352.9123   -122.21384    1.2241435    -120.9897    5193.6177    4.2805599    4.2805599    4.2805599    5193.6177    954.96274   -9045.6571    23671.547    1374.9902   -6650.1429    13774.712    78.433524 
Loop time of 22.6666 on 1 procs for 100000 steps with 8 atoms

Pair  time (%) = 7.36446 (32.4904)
Kspce time (%) = 5.4134 (23.8827)
Neigh time (%) = 0 (0)
Comm  time (%) = 1.07492 (4.74232)
Outpt time (%) = 0.0397019 (0.175156)
Other time (%) = 8.77409 (38.7094)

Nlocal:    8 ave 8 max 8 min
Histogram: 1 0 0 0 0 0 0 0 0 0
Nghost:    2189 ave 2189 max 2189 min
Histogram: 1 0 0 0 0 0 0 0 0 0
Neighs:    2344 ave 2344 max 2344 min
Histogram: 1 0 0 0 0 0 0 0 0 0

Total # of neighbors = 2344
Ave neighs/atom = 293
Neighbor list builds = 0
Dangerous builds = 0
unfix 20
unfix 21
print "seeds:9629373"
seeds:9629373
