LAMMPS (10 Feb 2015)
# ---- initialize simulations
clear
units metal
dimension 3
boundary p p p
atom_style charge
atom_modify map array
# ---- create atoms
read_data /Users/eugeneragasa/pyflamestk_git/pypospack/tests/tests_integration/workflow/WorkflowLammpsThermalExpansion/param_1902/MgO_NaCl_unit.npt.T1100/lammps.structure
  triclinic box = (0 0 0) to (4.2565 4.2565 4.2565) with tilt (0 0 0)
  1 by 1 by 1 MPI processor grid
  reading atoms ...
  8 atoms
# ---- define interatomic potential
include potential.mod
mass 1 24.305
mass 2 15.999

group Mg type 1
4 atoms in group Mg
group O type 2
4 atoms in group O

set group Mg charge 1.69754800024
  4 settings made for charge
set group O charge -1.69754800024
  4 settings made for charge

variable R_cut equal 10.0

pair_style buck/coul/long ${R_cut}
pair_style buck/coul/long 10
pair_coeff 1 1 0.0 0.5 0.0 ${R_cut}
pair_coeff 1 1 0.0 0.5 0.0 10
pair_coeff 1 2 1340.93810979 0.285979914483 0.0 ${R_cut}
pair_coeff 1 2 1340.93810979 0.285979914483 0.0 10
pair_coeff 2 2 11096.6994948 0.145827000496 3.24328494634 ${R_cut}
pair_coeff 2 2 11096.6994948 0.145827000496 3.24328494634 10

kspace_style pppm 1.0e-5

neighbor 1.0 bin
neigh_modify every 1 delay 0 check yes
# ---- define settings
compute eng all pe/atom
compute eatoms all reduce sum c_eng
# ---- run minimization
reset_timestep 0
fix 1 all box/relax iso 0.0 vmax 0.001
thermo 10
thermo_style custom step pe lx ly lz xy xz yz press pxx pyy pzz pxy pxz pyz c_eatoms
min_style cg
minimize 1e-25 1e-25 5000 10000
PPPM initialization ...
  G vector (1/distance) = 0.353134
  grid = 8 8 8
  stencil order = 5
  estimated absolute RMS force accuracy = 4.09436e-05
  estimated relative force accuracy = 2.84338e-06
  using double precision FFTs
  3d grid and FFT values/proc = 3375 512
Neighbor list info ...
  1 neighbor list requests
  update every 1 steps, delay 0 steps, check yes
  master list distance cutoff = 11
Memory usage per processor = 4.06549 Mbytes
Step PotEng Lx Ly Lz Xy Xz Yz Press Pxx Pyy Pzz Pxy Pxz Pyz eatoms 
       0   -117.43599       4.2565       4.2565       4.2565            0            0            0    33717.192    33717.192    33717.192    33717.192 -3.1023281e-11 -2.4163961e-10 -2.0934262e-10   -117.43599 
       8   -117.45138    4.2835821    4.2835821    4.2835821            0            0            0   -5.0124394   -5.0124394   -5.0124394   -5.0124394 6.8970478e-11 -1.4442567e-10 -9.765937e-11   -117.45138 
Loop time of 0.00862002 on 1 procs for 8 steps with 8 atoms

Minimization stats:
  Stopping criterion = linesearch alpha is zero
  Energy initial, next-to-last, final = 
        -117.435990229     -117.451383044     -117.451383044
  Force two-norm initial, final = 4.86878 0.0018005
  Force max component initial, final = 4.86878 0.000733039
  Final line search alpha, max atom move = 0.00390625 2.86343e-06
  Iterations, force evaluations = 8 25

Pair  time (%) = 0.00235295 (27.2964)
Kspce time (%) = 0.0013907 (16.1333)
Neigh time (%) = 0 (0)
Comm  time (%) = 0.000264883 (3.07288)
Outpt time (%) = 0 (0)
Other time (%) = 0.00461149 (53.4974)

Nlocal:    8 ave 8 max 8 min
Histogram: 1 0 0 0 0 0 0 0 0 0
Nghost:    2189 ave 2189 max 2189 min
Histogram: 1 0 0 0 0 0 0 0 0 0
Neighs:    2344 ave 2344 max 2344 min
Histogram: 1 0 0 0 0 0 0 0 0 0

Total # of neighbors = 2344
Ave neighs/atom = 293
Neighbor list builds = 0
Dangerous builds = 0
unfix 1
# ---- define output variables ----
variable natoms equal "count(all)"
variable tot_energy equal "c_eatoms"
variable length_x equal "lx"
variable length_y equal "ly"
variable length_z equal "lz"
variable tilt_xy equal "xy"
variable tilt_xz equal "xz"
variable tilt_yz equal "yz"
variable tot_press equal "press"
variable press_xx equal "pxx"
variable press_yy equal "pyy"
variable press_zz equal "pzz"
variable press_xy equal "pxy"
variable press_xz equal "pxz"
variable press_yz equal "pyz"

# ---- output ----
print "pypospack:output_section:begin"
pypospack:output_section:begin
print "tot_energy = ${tot_energy}"
tot_energy = -117.45138304358
print "num_atoms = ${natoms}"
num_atoms = 8
print "xx = ${length_x}"
xx = 4.28358206284588
print "yy = ${length_y}"
yy = 4.28358206284588
print "zz = ${length_z}"
zz = 4.28358206284588
print "xy = ${tilt_xy}"
xy = 0
print "xz = ${tilt_xz}"
xz = 0
print "yz = ${tilt_yz}"
yz = 0
print "tot_press = ${tot_press}"
tot_press = -5.01243937142067
print "pxx = ${press_xx}"
pxx = -5.01243937108414
print "pyy = ${press_yy}"
pyy = -5.01243937158826
print "pzz = ${press_zz}"
pzz = -5.01243937158962
print "pxy = ${press_xy}"
pxy = 6.8970477610601e-11
print "pxz = ${press_xz}"
pxz = -1.44425666326158e-10
print "pyz = ${press_yz}"
pyz = -9.76593698696591e-11
print "pypospack:output_section:done"
pypospack:output_section:done
print "pypospack:lammps_sim:done"
pypospack:lammps_sim:done
#------------------------------------------------------------------------------
# RUN THERMOSTAT
# running using an NPT Nose-Hoover style thermostat
#------------------------------------------------------------------------------
variable tempdamp equal 0.1
variable pressdamp equal 1.0
# set initial velocities
velocity all create 1100 3637999 mom yes dist gaussian loop all
# fix for Nose-Hoover style thermostat
fix 20 all npt temp 1100 1100 0.1 aniso 0.0 0.0 1.0 drag 1.0 couple xyz
variable boxx equal lx
variable boxy equal ly
variable boxz equal lz
variable boxp equal press
variable boxt equal temp
# calculate averages every 10000 steps
reset_timestep 0
fix 21 all ave/time 10 10 100 v_boxx v_boxy v_boxz v_boxp v_boxt file lattice.out
thermo_style custom step temp pe ke etotal press lx ly lz press pxx pyy pzz pxy pxz pyz vol
thermo_modify flush yes
thermo 100
run 100000
PPPM initialization ...
  G vector (1/distance) = 0.352856
  grid = 8 8 8
  stencil order = 5
  estimated absolute RMS force accuracy = 4.14735e-05
  estimated relative force accuracy = 2.88018e-06
  using double precision FFTs
  3d grid and FFT values/proc = 3375 512
Memory usage per processor = 3.06549 Mbytes
Step Temp PotEng KinEng TotEng Press Lx Ly Lz Press Pxx Pyy Pzz Pxy Pxz Pyz Volume 
       0         1100   -117.45139   0.99530312   -116.45609    13519.514    4.2835821    4.2835821    4.2835821    13519.514    9236.8747    6702.1741    24619.494   -1868.3287   -2781.5047        -8749     78.59977 
     100    480.28725   -116.76126     0.434574   -116.32668    15769.265     4.313977     4.313977     4.313977    15769.265   -1038.4555    6469.4579    41876.793     6310.193    5256.1897     1351.223    80.284829 
     200    1038.4342   -116.99149   0.93959706   -116.05189   -35849.908    4.3374434    4.3374434    4.3374434   -35849.908   -45206.266   -47105.647   -15237.812    934.68813   -5449.1162     11182.25    81.602123 
     300    1095.2524   -116.80394   0.99100742   -115.81293    13365.443    4.3173747    4.3173747    4.3173747    13365.443    3753.9744   -7897.5775    44239.933   -2782.0889    -6809.178    9617.8883    80.474676 
     400    1169.6804   -116.68643    1.0583514   -115.62808    28838.568    4.3188457    4.3188457    4.3188457    28838.568    3791.3101    8186.9556    74537.437    4088.0422    11106.407    924.88924    80.556957 
     500    1280.4971   -116.68086    1.1586206   -115.52224    -24823.64    4.3491611    4.3491611    4.3491611    -24823.64   -21841.137   -48527.478   -4102.3051   -3021.4368   -824.22517      956.999    82.265261 
     600    1132.9312   -116.47311    1.0250999   -115.44801   -5080.8883    4.3370507    4.3370507    4.3370507   -5080.8883   -22081.806   -33938.065    40777.207   -6409.1954     1469.342    8217.1517    81.579962 
     700    1086.4554   -116.40619   0.98304768   -115.42315    34106.966    4.3208128    4.3208128    4.3208128    34106.966   -6434.0355    9523.3864    99231.547    9793.6128   -909.70728    -7439.839    80.667084 
     800    1412.5691   -116.72567    1.2781222   -115.44754   -25945.742    4.3484791    4.3484791    4.3484791   -25945.742    -55642.73   -61832.096    39637.599   -2636.3479   -8746.4051    1378.9676    82.226568 
     900    1439.2994   -116.75666    1.3023084   -115.45436   -30183.013    4.3403274    4.3403274    4.3403274   -30183.013   -23327.637   -50119.107   -17102.294   -11118.946   -3964.4685    15478.257    81.765005 
    1000     1252.693   -116.60464    1.1334629   -115.47118    6702.3401    4.3219329    4.3219329    4.3219329    6702.3401    8505.3518    -21716.53    33318.199    2905.1641    4056.9967    4254.5501    80.729833 
    1100    1191.9553   -116.57386    1.0785062   -115.49535    2250.1952    4.3385186    4.3385186    4.3385186    2250.1952   -26074.981   -23747.727    56573.293   -2126.8266   -10741.743   -5781.2322    81.662823 
    1200    754.80062   -116.15926   0.68295946    -115.4763    -20412.38    4.3627666    4.3627666    4.3627666    -20412.38   -41548.768   -52601.359    32912.988   -2581.8563    14801.913    7907.7078    83.039733 
    1300    1200.8111   -116.53526    1.0865191   -115.44874    13147.039    4.3330061    4.3330061    4.3330061    13147.039     587.6521     -21869.7    60723.164    1972.7412    7729.2429    6586.5466    81.351936 
    1400    1351.3303   -116.67084     1.222712   -115.44813     1216.188    4.3225082    4.3225082    4.3225082     1216.188    5331.0019   -18417.075    16734.637   -11039.836    -10244.46   -6037.4851    80.762079 
    1500    920.15094   -116.29832    0.8325719   -115.46574   -8543.7979    4.3460296    4.3460296    4.3460296   -8543.7979    6382.2143   -39757.301    7743.6931   -6840.6309    1392.8641   -3455.6473    82.087688 
    1600    715.45619   -116.09904   0.64735979   -115.45168     3956.541    4.3497221    4.3497221    4.3497221     3956.541   -23017.014   -33456.391    68343.028   -249.27743     26023.39    11876.506    82.297099 
    1700    1073.4608   -116.41948   0.97128989   -115.44819   -1841.0128     4.327345     4.327345     4.327345   -1841.0128   -14907.348    2689.3556    6694.9538   -4764.3216   -8897.1174   -9857.8785    81.033492 
    1800    1131.9035   -116.48835    1.0241701   -115.46418    3959.1398    4.3346463    4.3346463    4.3346463    3959.1398    19032.993   -19365.615    12210.042   -637.19622    6639.7645    8704.4905    81.444355 
    1900    1303.0675   -116.63509    1.1790429   -115.45604   -21623.512    4.3569715    4.3569715    4.3569715   -21623.512   -21957.417   -53785.435    10872.316    -6090.589   -12422.231     1961.684    82.709263 
    2000    727.36618    -116.1152    0.6581362   -115.45706    5112.5528    4.3391863    4.3391863    4.3391863    5112.5528    14127.535    -32481.96    33692.083   -1906.9202   -6864.1881    10096.186    81.700535 
    2100    610.32489     -116.011   0.55223479   -115.45876    57111.744    4.3219767    4.3219767    4.3219767    57111.744    22966.132    32009.105       116360   -5982.8434     31351.12   -5335.9469    80.732289 
    2200    1032.0718   -116.41508   0.93384029   -115.48124   -20646.133    4.3596233    4.3596233    4.3596233   -20646.133   -1695.2257   -29809.283   -30433.891    655.43287   -8547.3355    1889.0006    82.860376 
    2300    1443.7072   -116.77491    1.3062966   -115.46862   -38209.385    4.3560885    4.3560885    4.3560885   -38209.385   -26679.144   -59944.585   -28004.428    4166.9092     5187.958    6675.6381     82.65899 
    2400    1375.9801   -116.70548    1.2450157   -115.46046    23591.743    4.3072968    4.3072968    4.3072968    23591.743    25474.998    38471.636    6828.5964   -3418.2171   -5223.5255    357.48776    79.912439 
    2500    1270.1864    -116.6695    1.1492913   -115.52021   -6121.2734     4.336918     4.336918     4.336918   -6121.2734    16352.563   -7909.9132   -26806.469    1722.9591      10331.4    9896.5209    81.572476 
    2600    1166.8578   -116.53216    1.0557974   -115.47636   -47417.087    4.3794861    4.3794861    4.3794861   -47417.087   -36499.243   -75225.144   -30526.874    811.84166   -4968.0876    6895.8841    83.998101 
    2700    1177.3157   -116.54007      1.06526   -115.47481    4357.7896    4.3236837    4.3236837    4.3236837    4357.7896    8010.6664   -6965.2341    12027.936   -6086.4409   -10424.736    1752.3967    80.827985 
    2800    811.00408   -116.19871   0.73381354    -115.4649    72856.214    4.2944444    4.2944444    4.2944444    72856.214    57274.162    47580.389    113714.09    -4073.633     16567.99   -5701.1632    79.199226 
    2900    782.21681   -116.22656    0.7077662    -115.5188   -43376.105    4.3683851    4.3683851    4.3683851   -43376.105   -47043.729   -77612.225   -5472.3614   -3637.9104   -374.04916    7435.9289     83.36097 
    3000    623.60444   -116.04933   0.56425041   -115.48508   -6524.4613    4.3594793    4.3594793    4.3594793   -6524.4613   -39620.886   -52392.478     72439.98     -3559.57     6514.871    8463.8003    82.852164 
    3100    955.06547   -116.30826   0.86416331   -115.44409    53316.882    4.2914376    4.2914376    4.2914376    53316.882    27571.031     46406.73    85972.885    5756.0353   -9246.0263   -9341.4999    79.032987 
    3200     567.8595   -116.02549   0.51381121   -115.51168    38018.155    4.3243592    4.3243592    4.3243592    38018.155    32716.932   -24024.139    105361.67   -6397.0781    6729.4516    10229.371    80.865876 
    3300    1191.5494   -116.55393     1.078139   -115.47579   -68347.819    4.3796092    4.3796092    4.3796092   -68347.819   -81368.174   -72782.964   -50892.319    2605.4519    -5040.361    13633.267    84.005183 
    3400    1466.7752   -116.78904    1.3271691   -115.46187    1572.4254    4.3266461    4.3266461    4.3266461    1572.4254    3769.2471    17022.859    -16074.83   -1946.9349   -2166.0683   -7988.5866    80.994239 
    3500    1482.0798   -116.78873    1.3410169   -115.44772    24068.323    4.3002591    4.3002591    4.3002591    24068.323    55010.526    2626.1993    14568.244    -7554.641   -1458.0466    12941.591    79.521372 
    3600    1058.1681   -116.44833   0.95745277   -115.49088   -26198.382    4.3467977    4.3467977    4.3467977   -26198.382   -4205.8443   -51132.055   -23257.246    11527.043    1334.6266    2969.3782    82.131222 
    3700    794.03892   -116.19082    0.7184631   -115.47236    14435.038    4.3474139    4.3474139    4.3474139    14435.038    2594.4358   -10918.287    51628.965    259.84605    10210.826    8320.1191    82.166156 
    3800    1389.9539   -116.70835    1.2576595   -115.45069    10824.632    4.3214691    4.3214691    4.3214691    10824.632    3630.5771    12690.036    16153.284   -10612.668   -9773.1988    9938.0115    80.703846 
    3900    1304.1724   -116.64316    1.1800426   -115.46311   -11863.309     4.326795     4.326795     4.326795   -11863.309    20343.491   -36577.295   -19356.124    2594.2121    1998.6555   -1430.8857    81.002599 
    4000    1066.8202   -116.43499    0.9652813   -115.46971     3617.498    4.3329503    4.3329503    4.3329503     3617.498   -9310.8381   -9638.0201    29801.352     13803.91   -3402.9367   -8435.7829    81.348796 
    4100    1052.9473   -116.41633   0.95272884    -115.4636    6438.2461    4.3331857    4.3331857    4.3331857    6438.2461   -3588.1588   -13818.714    36721.611    3517.3898    -2712.718    1148.6854    81.362057 
    4200    1317.6738   -116.65268    1.1922589   -115.46042   -10181.879    4.3318239    4.3318239    4.3318239   -10181.879    15499.137   -36363.981   -9680.7931    2472.8431   -3459.5255    9499.8293    81.285367 
    4300    1181.3061   -116.53044    1.0688706   -115.46157   -7429.3378    4.3272905    4.3272905    4.3272905   -7429.3378   -6700.0063     -20578.9    4990.8925    5313.2869    605.40843    10063.469    81.030433 
    4400    822.66373   -116.21152   0.74436343   -115.46715    11249.406    4.3292745    4.3292745    4.3292745    11249.406    7606.7986   -18809.272    44950.692   -2126.0276     3795.517   -19643.084    81.141935 
    4500    1118.7121   -116.47874    1.0122342    -115.4665    4998.6862     4.335735     4.335735     4.335735    4998.6862   -1383.9989   -41456.341    57836.399   -4701.4315     7775.471   -1784.2792     81.50574 
    4600    1161.0697   -116.52334    1.0505603   -115.47278   -9310.5918    4.3373212    4.3373212    4.3373212   -9310.5918   -10046.641   -31375.357    13490.223    -2292.834   -1668.0826    5003.6227    81.595228 
    4700    1247.3728   -116.60516    1.1286491   -115.47651    -9961.889    4.3258658    4.3258658    4.3258658    -9961.889   -7627.9598   -19564.868   -2692.8394   -2170.3353   -4906.3244   -4506.9441    80.950424 
    4800    1619.5335   -116.95575    1.4653879   -115.49036   -20711.362    4.3296814    4.3296814    4.3296814   -20711.362   -15188.786   -32667.581   -14277.719    1538.5221   -9227.0814   -7478.4871     81.16482 
    4900     1281.741    -116.6502    1.1597462   -115.49045   -14446.961    4.3465733    4.3465733    4.3465733   -14446.961   -11798.169   -18606.473   -12936.241    8790.3924    13799.368    2681.7555    82.118506 
    5000     817.2816    -116.2221   0.73949357    -115.4826   -2438.9478    4.3407378    4.3407378    4.3407378   -2438.9478   -24780.301   -41279.307    58742.765   -3301.7531    -3329.534     7983.902    81.788202 
    5100    800.17642   -116.19629   0.72401644   -115.47227    43210.791    4.3097175    4.3097175    4.3097175    43210.791    38065.636   -15149.762     106716.5   -3894.6156    431.23979   -20642.623    80.047248 
    5200    951.92236   -116.36195   0.86131936   -115.50063    22598.036    4.3334622    4.3334622    4.3334622    22598.036   -5402.1557     2864.013    70332.252     5470.403   -1103.5153   -1788.7372     81.37763 
    5300    1088.6927   -116.46934     0.985072   -115.48427   -17180.316    4.3584459    4.3584459    4.3584459   -17180.316   -42737.396   -45768.799    36965.246   -6950.2283   -2439.4395    2942.5401    82.793258 
    5400    1343.1452   -116.68924     1.215306   -115.47394   -1310.7475    4.3178191    4.3178191    4.3178191   -1310.7475    14965.312   -20347.213    1449.6583   -1403.3457   -11029.164   -5813.1552    80.499525 
    5500    1516.3161   -116.85207    1.3719947   -115.48008    24882.934    4.3098465    4.3098465    4.3098465    24882.934    24793.231    31139.702    18715.868    8755.1186    922.34766   -7536.5536     80.05444 
    5600    1626.5876    -116.9484    1.4717707   -115.47663   -35222.919    4.3512316    4.3512316    4.3512316   -35222.919   -58246.302   -24599.787   -22822.668   -1936.6511    6673.5756    1294.6764     82.38281 
    5700    799.39036    -116.1928    0.7233052    -115.4695    16508.214    4.3307147    4.3307147    4.3307147    16508.214    17805.714   -24570.547    56289.475   -1389.1422    5948.0499   -15584.732    81.222942 
    5800    959.08893     -116.321   0.86780382    -115.4532    51729.402    4.3025333    4.3025333    4.3025333    51729.402    19784.088    42421.276    92982.841     3945.097   -8675.6385   -1434.8534    79.647607 
    5900    1517.6547   -116.84343    1.3732059   -115.47023   -15515.434    4.3339941    4.3339941    4.3339941   -15515.434    -24571.63   -15934.289   -6040.3842    3456.9813   -14218.002    19193.671    81.407602 
    6000    1340.7221   -116.67392    1.2131135    -115.4608   -21112.826     4.341838     4.341838     4.341838   -21112.826    -19908.14   -37824.211   -5606.1277   -3103.5677     1596.572   -15972.885    81.850409 
    6100    892.94544   -116.25738    0.8079558   -115.44942    22789.046     4.324955     4.324955     4.324955    22789.046    457.81292   -3410.1607    71319.487   -8095.5425    1540.0216   -13529.765    80.899305 
    6200    1162.6056     -116.505      1.05195   -115.45305   -3467.3136    4.3287474    4.3287474    4.3287474   -3467.3136   -26921.745   -7471.1684    23990.973    6313.8715    8847.9171    8429.8422    81.112303 
    6300    1468.3716   -116.78682    1.3286134   -115.45821   -8310.4101    4.3256881    4.3256881    4.3256881   -8310.4101   -4693.8944   -26553.039    6315.7029    569.76766    -14106.08   -3956.8659    80.940446 
    6400     1283.563    -116.6295    1.1613948   -115.46811   -17664.526    4.3294996    4.3294996    4.3294996   -17664.526   -20135.366   -39731.795    6873.5821   -3217.6746    3157.0621   -8446.5751    81.154592 
    6500    947.39489   -116.33006    0.8572228   -115.47284   -16428.278    4.3370746    4.3370746    4.3370746   -16428.278   -36075.687   -33992.076    20782.928     1694.511    564.58506   -2481.5619     81.58131 
    6600    894.04887   -116.27168   0.80895421   -115.46273    29675.451    4.3232959    4.3232959    4.3232959    29675.451   -17362.533       2046.6    104342.29    -1982.905    4349.4459    13574.166    80.806238 
    6700    1024.8089   -116.39477   0.92726863    -115.4675   -15674.481    4.3321489    4.3321489    4.3321489   -15674.481   -15971.395   -23645.668   -7406.3784   -5105.6191   -518.32359   -18877.525    81.303667 
    6800    1219.9673   -116.56775     1.103852    -115.4639   -35251.162      4.33526      4.33526      4.33526   -35251.162   -29879.172   -46550.994   -29323.319   -3088.2486    761.35118   -18374.195    81.478953 
    6900    1057.2892   -116.41437   0.95665748   -115.45772    14459.378     4.321467     4.321467     4.321467    14459.378   -23889.526     16720.98    50546.679    2396.9913     2998.468    12870.694    80.703727 
    7000    859.73791   -116.24287   0.77790893   -115.46496    5818.8528    4.3270026    4.3270026    4.3270026    5818.8528   -20474.665    3388.1785    34543.045   -715.17811   -2855.7456   -9467.8075     81.01426 
    7100    580.69482   -115.99958   0.52542488   -115.47415    2858.0852     4.332718     4.332718     4.332718    2858.0852   -22419.536   -31407.958     62401.75   -5497.6711   -3762.0038   -5578.0445    81.335714 
    7200    775.91298   -116.18189   0.70206237   -115.47983    377.87126    4.3223469    4.3223469    4.3223469    377.87126   -25871.771    28260.579   -1255.1943    1591.9013    225.64998   -8426.9564    80.753035 
    7300    1383.2113   -116.72922    1.2515586   -115.47766    -19904.34    4.3297547    4.3297547    4.3297547    -19904.34   -30264.121   -6908.0572    -22540.84    293.29938    12764.304    7279.0892    81.168943 
    7400    775.41306   -116.16844   0.70161003   -115.46683   -2817.8833    4.3385363    4.3385363    4.3385363   -2817.8833    -39493.44   -16960.385    48000.175    17900.896   -8194.1725   -8625.4216    81.663822 
    7500     654.1899   -116.04901   0.59192477   -115.45708   -14529.986    4.3249619    4.3249619    4.3249619   -14529.986   -23581.707   -15898.441   -4109.8111    2830.8726    9741.9964   -11029.812    80.899692 
    7600    1115.8685   -116.46918    1.0096613   -115.45951   -2151.9161    4.3207803    4.3207803    4.3207803   -2151.9161   -19264.093   -9426.0319    22234.376    2287.6374   -3437.6647    13368.098    80.665261 
    7700    1190.4213   -116.54079    1.0771182   -115.46367   -30898.371    4.3378487    4.3378487    4.3378487   -30898.371   -41592.611   -29527.307   -21575.193    11527.514    4439.6984   -6282.4756       81.625 
    7800    787.51423   -116.17664   0.71255943   -115.46409   -5017.0392    4.3255108    4.3255108    4.3255108   -5017.0392   -26546.947   -3147.5117    14643.341   -4496.3597   -410.33515   -4394.5749    80.930496 
    7900    774.50318   -116.16531   0.70078675   -115.46452    11648.556    4.3204212    4.3204212    4.3204212    11648.556   -11959.738    16797.044    30108.361    5513.2943     13477.74    -16380.62    80.645154 
    8000    1317.2905   -116.65124    1.1919122   -115.45933   -27986.783    4.3347251    4.3347251    4.3347251   -27986.783   -25908.301   -26484.263   -31567.786    11586.372   -4837.7952    2777.1749    81.448796 
    8100    931.39359   -116.30037    0.8427445   -115.45762    -17964.53    4.3377059    4.3377059    4.3377059    -17964.53   -30306.606   -1594.4808   -21992.503   -3214.2663    1276.1653   -856.76105     81.61694 
    8200    800.10553   -116.17633    0.7239523   -115.45238    18810.911    4.3213289    4.3213289    4.3213289    18810.911   -7038.7276   -7778.8428    71250.305   -6696.9149    11072.985   -6150.0279    80.695993 
    8300    1013.6479   -116.38821   0.91716991   -115.47104   -7203.8561    4.3307933    4.3307933    4.3307933   -7203.8561   -8346.5985    15215.456   -28480.425    939.05632    14501.007     3854.322    81.227367 
    8400    1428.6801    -116.7562    1.2926998    -115.4635   -17400.669    4.3292142    4.3292142    4.3292142   -17400.669   -22518.676   -16413.991   -13269.341        19848   -11519.378   -6003.5777    81.138545 
    8500    705.89851   -116.09454   0.63871181   -115.45583    23592.825    4.3180251    4.3180251    4.3180251    23592.825    14512.283    24410.253    31855.938   -3982.8008   -2009.8779     14826.02    80.511047 
    8600    1044.1762   -116.40065   0.94479253   -115.45586   -14258.176    4.3286144    4.3286144    4.3286144   -14258.176   -7157.7846    4435.0783   -40051.823    -8853.293    14756.184   -6876.9284    81.104827 
    8700    1255.1813    -116.5911    1.1357144   -115.45539   -31355.498    4.3363654    4.3363654    4.3363654   -31355.498   -20353.326   -42053.738   -31659.431    724.39218    2462.9575    6829.3286    81.541299 
    8800    638.61309   -116.03164   0.57783054   -115.45381    44390.457    4.3117826    4.3117826    4.3117826    44390.457    20076.916    44304.095    68790.361    3860.9101   -2394.9768    8936.6656    80.162376 
    8900    1183.0931   -116.53081    1.0704875   -115.46033   -24742.366    4.3291247    4.3291247    4.3291247   -24742.366   -25655.983   -11245.311   -37325.805    2047.8678     13854.64    -13096.98    81.133517 
    9000    808.50217   -116.18093   0.73154976   -115.44938   -24250.137    4.3437707    4.3437707    4.3437707   -24250.137   -42651.872   -6642.1662   -23456.372     463.3495    8339.8066   -12640.457    81.959759 
    9100    1009.3677   -116.35401   0.91329715   -115.44072     32691.83     4.309913     4.309913     4.309913     32691.83    36940.592    32039.806    29095.093    4713.7877   -15812.958    15889.915     80.05814 
    9200     1124.309   -116.47692    1.0172984   -115.45962   -19532.777    4.3267623    4.3267623    4.3267623   -19532.777   -37008.054    12097.945   -33688.223    1722.0263    8896.7537    9658.9122    81.000766 
    9300    820.16518   -116.19975   0.74210269   -115.45765   -19736.518    4.3377821    4.3377821    4.3377821   -19736.518   -42636.828   -10839.722   -5733.0062   -769.24295    7959.6195   -1338.6327    81.621243 
    9400     1204.537   -116.53734    1.0898904   -115.44745    22218.381    4.3070787    4.3070787    4.3070787    22218.381    10662.123    26469.905    29523.117    -6039.802    7459.0366    1380.3901    79.900304 
    9500    968.81633   -116.34028   0.87660537   -115.46367   -5591.1189    4.3214961    4.3214961    4.3214961   -5591.1189   -17990.906    7873.0203   -6655.4708    16604.933   -12912.644    6254.3906    80.705362 
    9600    528.60007   -115.93562   0.47828846   -115.45734   -36831.824    4.3416942    4.3416942    4.3416942   -36831.824    -67574.89   -17035.186   -25885.397    4051.3751    16673.149    5932.5037    81.842277 
    9700    1213.4483   -116.53477    1.0979535   -115.43682    3014.8532    4.3089686    4.3089686    4.3089686    3014.8532   -26088.119    39896.405   -4763.7261   -3181.7608    3975.0612    3800.0937    80.005527 
    9800    1083.0299   -116.43362   0.97994817   -115.45367    9472.1177    4.3178085    4.3178085    4.3178085    9472.1177   -11047.706   -455.24583    39919.305    7032.3231   -710.52809   -4396.1668    80.498932 
    9900    566.42118   -115.96884   0.51250979   -115.45633   -27883.834    4.3367939    4.3367939    4.3367939   -27883.834   -58233.159   -11093.646   -14324.697    3505.1542   -6064.0547    5548.6964    81.565469 
   10000    944.42912   -116.30168   0.85453932   -115.44714   -13036.539    4.3137059    4.3137059    4.3137059   -13036.539   -24998.147     8078.533   -22190.002     1997.587    10640.164     3396.537    80.269691 
   10100    940.02853   -116.31074   0.85055757   -115.46018    5602.8716    4.3217145    4.3217145    4.3217145    5602.8716   -38704.253    6355.9165    49156.951   -5557.1938    -1937.462    5842.7442    80.717597 
   10200    689.07493   -116.09027   0.62348948   -115.46678   -15818.764    4.3340608    4.3340608    4.3340608   -15818.764   -49568.984    1960.6986    151.99246    5462.8019   -3186.5221   -5914.1858    81.411356 
   10300    917.54137   -116.28972   0.83021071   -115.45951   -6667.1847    4.3125233    4.3125233    4.3125233   -6667.1847    634.92279   -2215.8186   -18420.658    1552.2961    10257.751    14083.283    80.203693 
   10400    630.25687   -116.03054   0.57026966   -115.46027    11798.337    4.3171541    4.3171541    4.3171541    11798.337   -8012.7723    1870.6269    41537.156    505.64601    8278.6579   -4390.6139     80.46234 
   10500     1097.841   -116.44383   0.99334958   -115.45048   -22553.955    4.3303826    4.3303826    4.3303826   -22553.955   -34840.057   -13876.257   -18945.551    561.12731   -1022.4428   -7562.7064    81.204258 
   10600    1002.4303   -116.35059   0.90702003   -115.44357   -8433.0361    4.3272285    4.3272285    4.3272285   -8433.0361   -32977.779    27757.821    -20079.15    6296.5641   -1604.2384    3206.0189    81.026952 
   10700    816.19424    -116.1835    0.7385097   -115.44499    1500.2402    4.3227642    4.3227642    4.3227642    1500.2402   -22243.753    4811.7905    21932.683    6251.1105    15035.369    4088.4999    80.776425 
   10800    1126.8805   -116.46366    1.0196251   -115.44403    8878.4257    4.3115145    4.3115145    4.3115145    8878.4257   -5175.3707    34478.102   -2667.4538   -3972.7649   -10076.862    2971.8993    80.147423 
   10900    765.69626   -116.15337   0.69281807   -115.46055    5234.3498    4.3295633    4.3295633    4.3295633    5234.3498   -31676.067    45999.425    1379.6923    12637.123    3877.0608   -3123.1433    81.158177 
   11000    1231.8396   -116.56178    1.1145943   -115.44719   -9732.5843    4.3314607    4.3314607    4.3314607   -9732.5843    -36097.56    2041.7866    4858.0205     5425.057    14544.631    5283.9226    81.264922 
   11100     1239.057   -116.56143    1.1211248    -115.4403    13287.533    4.3070518    4.3070518    4.3070518    13287.533    -1525.564    34189.382    7198.7797   -2738.6592     612.9346   -3676.3913    79.898805 
   11200    831.46256   -116.21751    0.7523248   -115.46518   -11888.379    4.3120211    4.3120211    4.3120211   -11888.379   -19297.379   -28247.987    11880.229    17650.469   -5274.8733    2685.2878    80.175677 
   11300    850.05964   -116.24064   0.76915183   -115.47149   -1572.5693    4.3241545    4.3241545    4.3241545   -1572.5693   -27056.395   -5620.1941    27958.881   -4208.3273    7460.7397   -14408.048    80.854389 
   11400    1480.2886   -116.79189    1.3393962    -115.4525   -11498.839    4.3303459    4.3303459    4.3303459   -11498.839   -32109.298    4323.1749   -6710.3928   -9756.1849   -1502.3249    16443.951    81.202193 
   11500    1269.5106   -116.59118    1.1486799    -115.4425   -14037.075    4.3217897    4.3217897    4.3217897   -14037.075   -19031.087   -7941.4066   -15138.731    9664.9796   -2351.7285    2699.0647    80.721809 
   11600    962.21531   -116.31355   0.87063264   -115.44292      6321.81    4.3080636    4.3080636    4.3080636      6321.81   -11075.471    38184.046    -8143.145    12271.221   -1550.4577   -11786.881    79.955126 
   11700    1074.4683   -116.42914   0.97220146   -115.45693   -8551.5508    4.3279932    4.3279932    4.3279932   -8551.5508   -27027.535   -25986.874    27359.757   -19980.372    3444.0076    3668.1696    81.069913 
   11800    1531.5066   -116.83184    1.3857393    -115.4461    2220.8077    4.3189901    4.3189901    4.3189901    2220.8077   -15283.403    16185.578    5760.2474   -8949.8884    3603.9668   -3456.1488    80.565042 
   11900    1435.4546    -116.7489    1.2988295   -115.45007    86.901524    4.3114616    4.3114616    4.3114616    86.901524   -9950.6981    9490.0944    721.30832    16840.001   -2516.5632   -7349.7698    80.144472 
   12000    934.69379   -116.30582   0.84573058   -115.46009   -19796.626    4.3286176    4.3286176    4.3286176   -19796.626   -35642.829   -26308.325    2561.2772   -9211.2295   -8598.6729   -633.85604    81.105007 
   12100    1326.5198   -116.65272     1.200263   -115.45246   -5165.6509    4.3146401    4.3146401    4.3146401   -5165.6509   -9390.9195   -8448.7477    2342.7145   -8453.7821    9395.4415    3367.3499    80.321855 
   12200    1163.8005   -116.51221    1.0530312   -115.45918    11255.392    4.3195158    4.3195158    4.3195158    11255.392   -6028.4569    27015.204    12779.428    49.024307   -918.58158     5330.382    80.594464 
   12300     1287.676   -116.62166    1.1651163   -115.45655   -3399.7489    4.3266592    4.3266592    4.3266592   -3399.7489   -23323.233   -12475.569    25599.556     2232.157    -392.4817   -2101.5778    80.994971 
   12400     1241.076   -116.57367    1.1229516   -115.45072     10547.53    4.3071336    4.3071336    4.3071336     10547.53   -3291.0078    22277.864    12655.735   -9655.2265    2225.5575   -4730.7414     79.90336 
   12500    772.16368   -116.16186   0.69866993   -115.46319     2714.505    4.3239375    4.3239375    4.3239375     2714.505    11196.115    3715.8092   -6768.4095   -12446.954   -780.05095   -3365.3723     80.84222 
   12600    1489.6341   -116.79093    1.3478522   -115.44308   -34178.211    4.3331929    4.3331929    4.3331929   -34178.211   -28241.574   -19131.651   -55161.409    10249.502    10451.755    15634.733    81.362461 
   12700    1094.3414   -116.42686   0.99018307   -115.43667    50242.595    4.3018862    4.3018862    4.3018862    50242.595    23565.188    37332.461    89830.135   -3949.1063    403.79131   -1379.0854    79.611673 
   12800    1181.0843    -116.5207    1.0686699   -115.45203   -15514.088    4.3199362    4.3199362    4.3199362   -15514.088    8483.7577   -22541.207   -32484.815   -6871.5666     1399.851    1223.3176    80.617994 
   12900    891.33138   -116.25083   0.80649536   -115.44433   -24307.242    4.3377236    4.3377236    4.3377236   -24307.242   -13076.107   -34853.103   -24992.515     3207.003    6361.0604    9055.2753    81.617941 
   13000    1390.2397   -116.69117    1.2579181   -115.43326    13571.752    4.3081858    4.3081858    4.3081858    13571.752    2322.2143    22812.748    15580.294   -9280.9165    1574.7309   -4951.3711    79.961933 
   13100    1109.6531   -116.44908    1.0040374   -115.44505    21469.353    4.3104815    4.3104815    4.3104815    21469.353    15288.306    10402.009    38717.744   -6682.0907   -9238.3521   -4478.2769    80.089826 
   13200    808.15978   -116.18201   0.73123995   -115.45077   -11706.215    4.3344392    4.3344392    4.3344392   -11706.215   -13303.364   -26262.004    4446.7228   -3010.9287   -3328.0608   -6885.6608    81.432684 
   13300    1236.6965   -116.56127     1.118989   -115.44228   -6319.4973    4.3200408    4.3200408    4.3200408   -6319.4973   -11762.763    13673.399   -20869.129    -691.5498    11625.852     3639.937    80.623854 
   13400     1045.749   -116.38869    0.9462157   -115.44247    24182.416    4.3053046    4.3053046    4.3053046    24182.416    -8877.908    22781.538     58643.62   -7787.4938   -11395.917   -1289.2839    79.801612 
   13500    712.70669   -116.11198   0.64487199   -115.46711   -623.80079    4.3247569    4.3247569    4.3247569   -623.80079   -23734.903    1286.8511     20576.65   -8148.5678    1553.4563    136.54375    80.888184 
   13600    1051.0749   -116.40765   0.95103467   -115.45661   -15023.169    4.3296928    4.3296928    4.3296928   -15023.169   -23290.512   -6257.3765   -15521.617    2730.2188   -6936.0447    2621.3828     81.16546 
   13700    1071.6629   -116.41309   0.96966311   -115.44342    20176.096    4.3085926    4.3085926    4.3085926    20176.096    854.97002    9589.0204    50084.298   -2000.1146    7078.1111    6784.5976    79.984582 
   13800    851.15802   -116.22198   0.77014566   -115.45183   -4042.5041    4.3171591    4.3171591    4.3171591   -4042.5041   -44566.619    9253.6274     23185.48   -13159.394   -4101.1806   -4287.4279    80.462616 
   13900    794.31521   -116.16806   0.71871309   -115.44935   -30195.141    4.3297801    4.3297801    4.3297801   -30195.141   -43592.488   -11603.195   -35389.742   -251.73815    3915.4446   -4780.0579    81.170367 
   14000    773.75772   -116.14276   0.70011224   -115.44265    11217.789    4.3162071    4.3162071    4.3162071    11217.789   -2713.1554    -9496.169    45862.693     -2634.43    454.56224    6292.1025    80.409401 
   14100    1256.1239   -116.57488    1.1365673   -115.43831   -10090.636    4.3145841    4.3145841    4.3145841   -10090.636   -43287.349    9271.5819    3743.8584   -2492.1131   -8115.5088    3248.0198    80.318727 
   14200    761.28118   -116.13619   0.68882321   -115.44737   -12093.826    4.3224097    4.3224097    4.3224097   -12093.826   -48671.851   -752.93623    13143.309    1151.3496    488.59661   -7880.8452    80.756554 
   14300    676.13455   -116.06366   0.61178075   -115.45188   -3305.5879    4.3199675    4.3199675    4.3199675   -3305.5879   -4604.9901   -4755.4606   -556.31306   -4618.8753    -2181.954   -11946.928    80.619747 
   14400    1041.0562    -116.3941   0.94196956   -115.45213   -9738.3303    4.3242176    4.3242176    4.3242176   -9738.3303   -9503.7844   -3734.3521   -15976.854    5458.2521    6184.0855    9799.5008    80.857931 
   14500    975.05175   -116.32964   0.88224731    -115.4474    3217.5825    4.3236338    4.3236338    4.3236338    3217.5825   -24645.531    904.20213    33394.077   -8916.9758    3471.6298    5100.4727    80.825184 
   14600    1078.5662   -116.41898   0.97590933   -115.44307    5106.7673    4.3132036    4.3132036    4.3132036    5106.7673    17658.119    14446.232   -16784.049   -1443.7732   -6521.3396   -7025.8272    80.241656 
   14700    583.66206   -115.98192    0.5281097   -115.45381     6881.633    4.3272048    4.3272048    4.3272048     6881.633     22630.28   -6768.3168    4782.9358    10572.547   -9949.5016    3098.6613    81.025615 
   14800    1117.4974   -116.45385    1.0111352   -115.44271   -9176.6794     4.327083     4.327083     4.327083   -9176.6794   -26217.489      5294.09   -6606.6396   -4337.4289     3317.533    11373.832    81.018777 
   14900    1384.4486   -116.68606    1.2526782   -115.43338    15210.923    4.3073261    4.3073261    4.3073261    15210.923    16489.941    14789.872    14352.956   -4884.4225    4398.7379   -9221.9628    79.914074 
   15000    733.79082   -116.11444   0.66394936   -115.45049     9249.752    4.3243635    4.3243635    4.3243635     9249.752    32826.547   -15194.343    10117.052    8663.2845    106.51661   -9663.1649    80.866114 
   15100    980.14467    -116.3334   0.88685549   -115.44655   -16922.383    4.3273364    4.3273364    4.3273364   -16922.383   -934.88587   -7370.0198   -42462.242    4437.4446    1718.9581   -1236.1276     81.03301 
   15200    1134.1193   -116.46436     1.026175   -115.43819    23181.542    4.3066706    4.3066706    4.3066706    23181.542    4692.3997    20674.167     44178.06    6253.2696     2704.383    6448.3116     79.87759 
   15300     1043.328   -116.39376   0.94402511   -115.44974   -269.80533    4.3219166    4.3219166    4.3219166   -269.80533    482.20797   -18628.625    17337.001   -572.22357    10244.016   -17235.034    80.728922 
   15400    922.66443   -116.28136   0.83484617   -115.44652   -20643.099    4.3285531    4.3285531    4.3285531   -20643.099     17604.93   -47341.091   -32193.137   -663.01442    2469.9338    -16532.33    81.101381 
   15500    854.47597   -116.21407   0.77314781   -115.44092    4929.6287    4.3117898    4.3117898    4.3117898    4929.6287    9718.2602    8380.3831   -3309.7571   -482.99869    2731.3463    9596.5543    80.162775 
   15600    907.83219   -116.26986   0.82142564   -115.44843    11085.246    4.3119129    4.3119129    4.3119129    11085.246    2453.9478   -701.90475    31503.696   -5040.2719   -7315.1138    485.85259    80.169642 
   15700    1145.1521     -116.488    1.0361576   -115.45184   -12341.538    4.3252783    4.3252783    4.3252783   -12341.538    12013.089   -46187.973   -2849.7288    6586.5443    3716.1446   -8175.7896    80.917444 
   15800    672.34758   -116.05913   0.60835422   -115.45077   -14439.488     4.333161     4.333161     4.333161   -14439.488   -1406.1585   -47583.341    5671.0363    -313.8925    -1013.429    11924.251    81.360661 
   15900    731.86562   -116.10586    0.6622074   -115.44366   -1671.8021    4.3117919    4.3117919    4.3117919   -1671.8021   -1220.5063    16333.889   -20128.789   -1871.8853    -11286.96    12449.635    80.162894 
   16000    1033.7541   -116.37293   0.93536244   -115.43757    21704.702    4.3039381    4.3039381    4.3039381    21704.702    26107.424   -13101.294    52107.976    6667.9578   -6195.7211    -7437.228    79.725649 
   16100    1094.8897   -116.43461   0.99067921   -115.44393   -40785.167    4.3414788    4.3414788    4.3414788   -40785.167   -16929.354   -69297.308   -36128.839    44.723859    4810.7563   -3977.1395    81.830092 
   16200    671.09076   -116.05192   0.60721702    -115.4447   -21381.426    4.3218119    4.3218119    4.3218119   -21381.426   -7375.3252    -24735.51   -32033.443    2440.1542    11745.294    1362.8512    80.723055 
   16300    667.84361     -116.034   0.60427893   -115.42972    32650.413    4.2888582    4.2888582    4.2888582    32650.413    22894.403    34114.657    40942.177   -5682.0078   -4569.7221     4803.155    78.890564 
   16400    1126.8724   -116.47172    1.0196178    -115.4521    -29781.85    4.3297299    4.3297299    4.3297299    -29781.85   -21502.443   -56215.127   -11627.981    2408.9666   -3855.3808   -4616.9287    81.167547 
   16500    920.90568   -116.26975   0.83325481    -115.4365   -23954.241    4.3340871    4.3340871    4.3340871   -23954.241   -17547.194   -47761.632   -6553.8983    12657.709     908.5199   -6016.4406    81.412842 
   16600    675.67895   -116.03696   0.61136852    -115.4256    14577.031    4.3028521    4.3028521    4.3028521    14577.031    5785.3551    40362.673   -2416.9339   -8162.7875   -8380.0942    7187.4308     79.66531 
   16700    948.21863   -116.29809   0.85796814   -115.44012    -27016.65    4.3191334    4.3191334    4.3191334    -27016.65    -16653.97   -44051.265   -20344.715     5938.165    808.00743    3190.2205    80.573062 
   16800    1033.2944   -116.37129    0.9349465   -115.43635   -19253.643    4.3282824    4.3282824    4.3282824   -19253.643   -17245.059   -47401.225    6885.3561    12840.415   -601.85765    8383.1571    81.086168 
   16900    943.21413   -116.29027   0.85343997   -115.43683   -11154.076    4.3174942    4.3174942    4.3174942   -11154.076   -14211.254    4203.1255   -23454.101    3415.4432   -9195.7401    4811.2644    80.481355 
   17000    641.40287   -116.02761    0.5803548   -115.44725      3338.08    4.3152135    4.3152135    4.3152135      3338.08   -515.02196    32171.516   -21642.254    3365.5603    1667.0503    272.75521    80.353882 
   17100    916.30413   -116.27459   0.82909123    -115.4455    3993.2925    4.3201048    4.3201048    4.3201048    3993.2925    6802.1744    7162.5257   -1984.8226    7464.3674    4832.3509    460.54015    80.627437 
   17200    807.53567   -116.17386   0.73067524   -115.44318    9123.2027    4.3252028    4.3252028    4.3252028    9123.2027    11636.388    18046.065   -2312.8445    13444.021    302.87236   -4722.8842    80.913211 
   17300    914.93725   -116.26482   0.82785446   -115.43696    1031.7868    4.3229352    4.3229352    4.3229352    1031.7868    10267.536    25073.247   -32245.423    4403.8343    3036.6019   -957.35044    80.786011 
   17400    891.15349   -116.24098    0.8063344   -115.43464    17923.487    4.3168759    4.3168759    4.3168759    17923.487    58480.107     58.21321   -4767.8594     6547.018     3347.288   -3049.9052    80.446784 
   17500    1140.5247   -116.46882    1.0319707   -115.43685   -3034.1229    4.3245222    4.3245222    4.3245222   -3034.1229    35293.804   -48491.155    4094.9818    4540.2375    4892.7571   -5298.7318    80.875021 
   17600    1170.6243   -116.48907    1.0592054   -115.42987   -14935.103    4.3300043    4.3300043    4.3300043   -14935.103    2179.0897   -24489.733   -22494.666   -3915.4234    1766.2182   -4530.8786    81.182977 
   17700     1171.812   -116.48656    1.0602801   -115.42627   -15833.281    4.3196658    4.3196658    4.3196658   -15833.281   -1091.9093   -17973.376   -28434.557   -10878.791    2001.4598    9839.4435    80.602861 
   17800    1108.0143   -116.43188    1.0025546   -115.42932     6255.154    4.3101572    4.3101572    4.3101572     6255.154    37982.308   -23887.459    4670.6131    3644.7941    1735.7743    10038.582    80.071753 
   17900    1324.0872    -116.6365    1.1980619   -115.43844   -21555.164    4.3279718    4.3279718    4.3279718   -21555.164   -22495.425   -30965.544   -11204.522   -5236.5541   -3937.0552   -889.62958    81.068711 
   18000    1235.4556   -116.54969    1.1178662   -115.43182   -26027.745    4.3305845    4.3305845    4.3305845   -26027.745   -14046.301   -19826.353   -44210.582   -5388.3274    2606.3245    10311.298    81.215616 
   18100    1009.0868   -116.34217   0.91304294   -115.42912    23155.854    4.3052332    4.3052332    4.3052332    23155.854    35539.183    42665.431   -8737.0516    1229.9806    9891.9747    8834.5067    79.797642 
   18200    1011.4174   -116.35935   0.91515169   -115.44419    9819.9301    4.3196405    4.3196405    4.3196405    9819.9301    35969.147    6478.9022   -12988.259    13509.992   -3098.0864   -9787.6469    80.601445 
   18300    1094.1791   -116.42226   0.99003621   -115.43222   -12509.315     4.338032     4.338032     4.338032   -12509.315   -5945.9212    17890.929   -49472.953    9935.8469    2783.0678   -2263.7888    81.635348 
   18400      1197.58   -116.51369    1.0835956   -115.43009   -4706.8096    4.3146568    4.3146568    4.3146568   -4706.8096   -6074.6958    40911.909   -48957.642    892.08424     8349.633    14265.806    80.322788 
   18500    705.62257   -116.07745   0.63846213   -115.43899     17917.02    4.2996097    4.2996097    4.2996097     17917.02     49685.76    15949.511    -11884.21    7860.7003    190.40151   -1515.2185    79.485353 
   18600    1229.5252   -116.56668    1.1125003   -115.45418   -16912.969    4.3194059    4.3194059    4.3194059   -16912.969    5896.9304   -18059.241   -38576.596    5976.4834   -303.05594   -22568.642     80.58831 
   18700     1152.912   -116.48749     1.043179   -115.44431   -21102.545    4.3395612    4.3395612    4.3395612   -21102.545   -31451.906    30899.657   -62755.387   -2888.4997    9162.0747    2497.6906    81.721712 
   18800    1333.9392    -116.6468    1.2069762   -115.43983   -1335.7716    4.3081914    4.3081914    4.3081914   -1335.7716    13023.519    20925.509   -37956.342    5806.8191    7451.7183   -2781.0498    79.962242 
   18900    889.21642    -116.2486   0.80458171   -115.44402    28837.359    4.2967999    4.2967999    4.2967999    28837.359    42997.594    47273.491   -3759.0076   -7150.4677   -2591.9876   -21332.661    79.329621 
   19000    1102.0305   -116.44053    0.9971404   -115.44339   -29401.075    4.3306166    4.3306166    4.3306166   -29401.075   -41411.471   -4067.2189   -42724.536    11827.623    4127.2486   -2951.8559    81.217423 
   19100     1294.603   -116.61027     1.171384   -115.43889     2011.894    4.3100258    4.3100258    4.3100258     2011.894   -10275.132    44724.503   -28413.689   -7335.7051    3458.8035    4623.6031     80.06443 
   19200    1007.9473   -116.35521   0.91201185    -115.4432    16883.514    4.3006939    4.3006939    4.3006939    16883.514    34888.232    38009.363   -22247.052    3088.7214   -315.18917   -10652.963    79.545499 
   19300    1057.6283   -116.40509   0.95696435   -115.44813   -30118.928    4.3207503    4.3207503    4.3207503   -30118.928   -11296.294   -25440.722   -53619.766    14339.969   -5712.0329    -11602.92    80.663585 
   19400    922.25795   -116.28095   0.83447838   -115.44647    8961.8438    4.3101617    4.3101617    4.3101617    8961.8438    6621.5308    23530.764   -3266.7631    -6914.562    4008.3565    4702.5859    80.072001 
   19500    1149.5746   -116.49002    1.0401592   -115.44986   -8452.9183     4.319294     4.319294     4.319294   -8452.9183   -36373.402    37882.841   -26868.193   -8041.9431   -264.09021    4494.3563    80.582046 
   19600    1315.4339   -116.63469    1.1902322   -115.44446       4914.1    4.3104304    4.3104304    4.3104304       4914.1     9073.651    38921.885   -33253.236   -902.14818    -5269.231   -7816.1122    80.086982 
   19700    1050.1895   -116.39775   0.95023353   -115.44751     13434.52    4.3027887    4.3027887    4.3027887     13434.52    1324.1196    56017.921   -17038.481    9588.6882     5501.405    5698.5087    79.661788 
   19800    749.62243   -116.13518   0.67827413   -115.45691   -36973.178    4.3297031    4.3297031    4.3297031   -36973.178   -59812.082    -23985.54   -27121.912    9869.1918    -5012.061    13398.538    81.166037 
   19900    1144.3361   -116.48434    1.0354194   -115.44892    6918.1352    4.3085108    4.3085108    4.3085108    6918.1352   -15535.706    60202.681   -23912.569   -14178.444    -3625.135   -12256.795    79.980026 
   20000    1655.2506   -116.93855    1.4977055   -115.44085    15665.589    4.2971271    4.2971271    4.2971271    15665.589    26810.601    30909.655   -10723.491    1162.2692   -2365.3596   -3448.2865    79.347745 
   20100     881.2112   -116.25562   0.79733841   -115.45828   -23816.516    4.3257739    4.3257739    4.3257739   -23816.516   -22339.316   -15772.455   -33337.777    6702.1035   -4048.6858    12565.977    80.945264 
   20200    935.75515   -116.30005   0.84669092   -115.45336    5225.2254    4.3128265    4.3128265    4.3128265    5225.2254    -8145.685    41760.323   -17938.962    8631.8093    3214.6776    6333.0513    80.220611 
   20300     1299.472   -116.62248    1.1757896   -115.44669    21745.555    4.3086571    4.3086571    4.3086571    21745.555     66348.95    27257.974    -28370.26   -7910.9915   -2389.1924   -6892.7353    79.988179 
   20400    1426.2538   -116.73803    1.2905044   -115.44753    250.24691    4.3129027    4.3129027    4.3129027    250.24691   -6907.5709    19814.237   -12155.925    -9809.085   -1743.6406   -5068.5873    80.224865 
   20500    1213.4682   -116.55265    1.0979715   -115.45468    11129.308    4.3086994    4.3086994    4.3086994    11129.308    24455.904    16772.543   -7840.5245    3235.6902    7811.9304    2778.1878    79.990535 
   20600     828.6893    -116.2092    0.7498155   -115.45939   -12429.059    4.3223649    4.3223649    4.3223649   -12429.059    14797.011   -2023.7659   -50060.422    6382.6051   -595.07434   -17982.149    80.754046 
   20700    1257.8977   -116.58709    1.1381722   -115.44892    -13454.73    4.3123486    4.3123486    4.3123486    -13454.73    1873.7604   -6612.2648   -35625.687    11300.034    76.397848   -23382.663    80.193945 
   20800    1416.8821   -116.72626    1.2820247   -115.44423    16740.842    4.3049767    4.3049767    4.3049767    16740.842    37410.381    17685.452   -4873.3074   -10704.875    4936.4197    6477.2028    79.783379 
   20900    1114.2972   -116.46149    1.0082395   -115.45325    8663.2815    4.3168002    4.3168002    4.3168002    8663.2815   -4055.0728    57884.506   -27839.589   -2701.2593    668.88137   -349.29824    80.442554 
   21000    836.97161   -116.21161    0.7573095    -115.4543   -24595.988    4.3207284    4.3207284    4.3207284   -24595.988     1341.419   -14484.283     -60645.1   -5340.5611    4132.1279   -21265.613    80.662358 
   21100    847.36884   -116.21853   0.76671713   -115.45181    7901.5319    4.3012722    4.3012722    4.3012722    7901.5319    42078.433    1936.1716   -20310.009    5281.9119    8086.0334    178.49359    79.577588 
   21200    1504.4383   -116.81836    1.3612474   -115.45712    13302.128    4.3085876    4.3085876    4.3085876    13302.128    15645.198    36452.701   -12191.516    6276.4985   -5751.2524     10831.47    79.984305 
   21300    1157.3264   -116.50028    1.0471733   -115.45311   -17505.969    4.3295656    4.3295656    4.3295656   -17505.969    2932.7037   -6744.5519   -48706.057   -8027.1414    6584.0021   -21142.932    81.158304 
   21400      669.587   -116.05897   0.60585638   -115.45311    11644.791    4.3003749    4.3003749    4.3003749    11644.791    32575.105    21321.424   -18962.156    1709.3754    4095.7513   -4847.4627    79.527796 
   21500    1025.2767   -116.38864   0.92769192   -115.46094    2738.3344    4.3055278    4.3055278    4.3055278    2738.3344    41621.419   -1449.0354   -31957.381   -1224.5991   -5539.1605    29107.595     79.81402 
   21600    1385.1773   -116.69886    1.2533376   -115.44552   -5343.1983    4.3268264    4.3268264    4.3268264   -5343.1983   -1529.7467    21404.738   -35904.586    8351.5855      2194.15    6581.1413    81.004362 
   21700    1309.9592   -116.63219    1.1852786   -115.44691    1959.6252    4.3096532    4.3096532    4.3096532    1959.6252    15433.097    1001.5363   -10555.758   -582.52108     5062.049   -8485.7579    80.043665 
   21800    722.97871   -116.11082   0.65416633   -115.45665   -7483.1578     4.307041     4.307041     4.307041   -7483.1578    41353.253    -20935.34   -42867.387   -7642.0731    224.39484    17636.517    79.898206 
   21900    951.29644   -116.31983   0.86075301   -115.45907   -5694.6573     4.317055     4.317055     4.317055   -5694.6573    15239.433    11245.343   -43568.748    7064.6057   -2593.3031    14732.319    80.456798 
   22000    1614.3559   -116.91076    1.4607031   -115.45006   -6182.2688    4.3199371    4.3199371    4.3199371   -6182.2688   -9579.4385    7605.5871   -16572.955   -4338.5226   -2599.5111    -9129.933    80.618049 
   22100    1419.3228   -116.73725    1.2842331   -115.45302    3260.3304     4.306716     4.306716     4.306716    3260.3304    40672.065   -8253.4624   -22637.611    2281.0464   -8544.7445    20245.586     79.88012 
   22200    843.72275   -116.22324   0.76341807   -115.45982    22055.202    4.3039477    4.3039477    4.3039477    22055.202     36078.21    56238.308   -26150.913   -394.67137   -4925.6991    16566.471    79.726178 
   22300    1161.3419   -116.50965    1.0508066   -115.45884   -31011.598    4.3316895    4.3316895    4.3316895   -31011.598   -26822.467   -17214.558    -48997.77    1205.7374   -5194.8389   -5859.4012    81.277804 
   22400    1524.7567   -116.82682    1.3796319   -115.44719   -2497.9462    4.3134848    4.3134848    4.3134848   -2497.9462    1417.1218    14205.247   -23116.208    10668.781     4742.445    -2492.287    80.257349 
   22500    1776.2612   -117.04417    1.6071984   -115.43697    22042.901    4.2913514    4.2913514    4.2913514    22042.901    52141.773    14631.124    -644.1932   -7159.4079    5319.0025    13509.768    79.028225 
   22600    1016.5808   -116.38289   0.91982365   -115.46307   -2035.5844    4.3208672    4.3208672    4.3208672   -2035.5844     28989.36    1411.4565    -36507.57    6693.6415   -15994.685    1596.7879     80.67013 
   22700    1176.8203   -116.51479    1.0648117   -115.44998   -16077.554    4.3288691    4.3288691    4.3288691   -16077.554    9380.1627   -2825.1622   -54787.662   -136.05112   -8949.7458   -14177.123    81.119147 
   22800    1424.7316   -116.72582    1.2891271    -115.4367    24967.871    4.3167143    4.3167143    4.3167143    24967.871    48033.452    48115.909   -21245.748   -1161.4823    798.82295    4141.4924    80.437748 
   22900    1790.0751   -117.05639    1.6196975    -115.4367    22392.614    4.3015088    4.3015088    4.3015088    22392.614    35912.952    36378.426   -5113.5348   -2744.0642    2253.1421    873.94345    79.590725 
   23000    1282.2001   -116.62288    1.1601616   -115.46272   -14518.644     4.312198     4.312198     4.312198   -14518.644    13044.984   -18343.397   -38257.518     1645.312    652.00103   -11165.655    80.185542 
   23100    941.62203   -116.31911    0.8519994   -115.46711   -31893.866    4.3241431    4.3241431    4.3241431   -31893.866   -13723.526   -37713.715   -44244.356    2221.0999    1905.4344    -18560.42    80.853752 
   23200    1718.0951   -117.00431    1.5545685   -115.44974    6564.9801    4.3039567    4.3039567    4.3039567    6564.9801    19038.677   -1208.0156    1864.2789   -5127.8233   -4268.6755    3090.2335    79.726682 
   23300    1432.4741   -116.74996    1.2961326   -115.45382   -7742.6721    4.3268542    4.3268542    4.3268542   -7742.6721   -2930.1723    17672.327   -37970.172    6669.2443   -10944.842   -3559.8729    81.005926 
   23400    1329.7387   -116.64945    1.2031755   -115.44628   -20169.343    4.3248087    4.3248087    4.3248087   -20169.343   -15681.696    1709.3406   -46535.674    6596.0694   -2970.3472   -14401.018    80.891094 
   23500    1141.4119   -116.47243    1.0327734   -115.43966    23868.426    4.2939396    4.2939396    4.2939396    23868.426    28768.182    38697.255    4139.8409   -2850.1709     3051.943    6496.7008    79.171304 
   23600    970.83087   -116.33993   0.87842817    -115.4615   -3554.1714    4.3123092    4.3123092    4.3123092   -3554.1714    31525.332   -22149.791   -20038.055    68.861663   -3107.2251    11982.923    80.191747 
   23700    1430.8068    -116.7483    1.2946241   -115.45367   -13484.975    4.3249043    4.3249043    4.3249043   -13484.975   -7200.9927     13668.54   -46922.472   -51.982682    1234.6245    1687.4372    80.896457 
   23800    1392.3037   -116.71478    1.2597856     -115.455    8831.4686    4.3105198    4.3105198    4.3105198    8831.4686    2683.9712     44782.09   -20971.655   -6220.3621    7118.8095   -6987.2041    80.091964 
   23900    1026.9068   -116.38451   0.92916685   -115.45535    26606.213    4.2990125    4.2990125    4.2990125    26606.213    37267.279    41392.054    1159.3073   -6363.0218   -94.161639     16704.22    79.452237 
   24000     1046.876   -116.41332    0.9472354   -115.46608   -26979.516    4.3276392    4.3276392    4.3276392   -26979.516   -12818.664   -24203.286   -43916.598    7323.2019   -4650.3325    11567.508    81.050024 
   24100    935.97416   -116.29805   0.84688909   -115.45116   -6384.3762    4.3243896    4.3243896    4.3243896   -6384.3762   -18220.367    40197.899   -41130.661   -8489.9334    4546.5545    -4934.404    80.867581 
   24200    1583.2766   -116.86306    1.4325819   -115.43048    18335.723    4.2914044    4.2914044    4.2914044    18335.723    19525.555    34608.555    873.05983     10969.73    7074.4503   -1324.1084    79.031153 
   24300    1285.6907   -116.61752      1.16332    -115.4542   -3236.3078    4.3149963    4.3149963    4.3149963   -3236.3078   -4596.2942    16911.564   -22024.193   -4955.4554    -3642.768    12104.509    80.341748 
   24400    786.39784   -116.16246   0.71154929   -115.45091   -6197.0637    4.3331134    4.3331134    4.3331134   -6197.0637    697.76845    28000.896   -47289.856    3237.5669    1616.4133    3464.2559    81.357981 
   24500    1069.8554   -116.41106   0.96802765   -115.44303   -1292.0515    4.3151518    4.3151518    4.3151518   -1292.0515   -15316.057    46701.055   -35261.152   -10122.341    10888.089    -19162.85    80.350435 
   24600    1290.0324   -116.60894    1.1672485   -115.44169    14084.587    4.2984882    4.2984882    4.2984882    14084.587    19539.427    32158.566    -9444.233    -5748.911    921.41231   -9024.9821    79.423171 
   24700    1397.9138   -116.72309    1.2648618   -115.45823    4865.2615     4.310322     4.310322     4.310322    4865.2615    19344.266    7015.5347   -11764.016    24832.399   -1535.0258    1648.1722     80.08094 
   24800    806.39205   -116.19005   0.72964048   -115.46041   -18338.888     4.333358     4.333358     4.333358   -18338.888   -3413.2689    3595.9824   -55199.378   -5167.8649     1573.102   -10766.363    81.371761 
   24900    909.91479   -116.27749   0.82331003   -115.45418   -7822.7399    4.3148606    4.3148606    4.3148606   -7822.7399    5458.3459    22684.973   -51611.539    1854.0479    5565.7265    -12962.33     80.33417 
   25000    1300.6996    -116.6178    1.1769004    -115.4409    21194.146    4.2972619    4.2972619    4.2972619    21194.146    6679.8415    64796.118   -7893.5219   -7183.9317   -2982.5597    7711.3412    79.355213 
   25100    1110.3111   -116.46464    1.0046328   -115.46001    5975.3301    4.3209098    4.3209098    4.3209098    5975.3301    22671.673    13075.859   -17821.542    3361.3936   -2564.7279   -115.81227    80.672518 
   25200      1177.98   -116.51159    1.0658611   -115.44573   -35630.635     4.333199     4.333199     4.333199   -35630.635   -25458.901   -26128.455   -55304.548    3569.7295    739.19692   -14890.305    81.362804 
   25300    1061.1491   -116.39979   0.96015002   -115.43964    1554.5432    4.3068798    4.3068798    4.3068798    1554.5432    19051.166     20289.82   -34677.356   -8886.9235    4940.7321    8539.0006    79.889233 
   25400    1325.8498   -116.64334    1.1996568   -115.44368     8471.877    4.3034884    4.3034884    4.3034884     8471.877    5379.3835    34696.074   -14659.827    19179.696   -3426.2552    16850.283    79.700661 
   25500    1118.5853   -116.46656    1.0121195   -115.45444    17598.337    4.3213671    4.3213671    4.3213671    17598.337    10754.642    62570.604   -20530.235   -2275.6503   -156.74813   -672.05024    80.698131 
   25600    932.20288   -116.29663   0.84347676   -115.45316   -18807.386     4.329597     4.329597     4.329597   -18807.386   -2258.0072    1742.9591    -55907.11   -2996.5201    1531.8906    11661.462    81.160073 
   25700    918.29628   -116.28389   0.83089377     -115.453   -14453.355    4.3080234    4.3080234    4.3080234   -14453.355    22941.444   -15577.635   -50723.875   -155.53303   -2928.3496    27796.116    79.952889 
   25800    1368.5633   -116.69139    1.2383048   -115.45309    28608.983    4.3009421    4.3009421    4.3009421    28608.983    42306.724    49118.101   -5597.8763     -13752.9   -4674.0035   -4946.8375    79.559271 
   25900    1216.9476   -116.55501    1.1011198   -115.45389   -10031.185    4.3337776    4.3337776    4.3337776   -10031.185   -20952.705    34727.053   -43867.903   -8553.9162   -4870.8309   -6824.8451    81.395398 
   26000    815.85125    -116.1866   0.73819936    -115.4484   -5969.6782    4.3212638    4.3212638    4.3212638   -5969.6782   -5884.3835    32927.237   -44951.887   -12236.123   -3525.5505    13237.962    80.692344 
   26100    1123.7921   -116.45629    1.0168308   -115.43946    13592.099    4.3060148    4.3060148    4.3060148    13592.099    27125.047    36590.412   -22939.163    7943.2669   -8639.9792    -3267.621    79.841106 
   26200    1515.8178    -116.8133    1.3715438   -115.44175   -8956.7174    4.3221388    4.3221388    4.3221388   -8956.7174   -18078.463    19153.105   -27944.793     4710.461   -3918.4008   -6856.7821    80.741371 
   26300    1279.1347   -116.60309     1.157388    -115.4457    4486.2817    4.3210939    4.3210939    4.3210939    4486.2817   -12342.151    54087.203   -28286.206    9000.9857    2576.7183    24788.328    80.682829 
   26400    733.74181   -116.11573   0.66390501   -115.45182    12037.458    4.3211943    4.3211943    4.3211943    12037.458    26578.176     44444.62   -34910.423   -968.75945   -4492.2497    13111.985     80.68845 
   26500     1200.374   -116.53099    1.0861236   -115.44487    -9228.434    4.3179392    4.3179392    4.3179392    -9228.434    2637.1509   -993.49948   -29328.953    3788.7189   -6561.4412   -16682.821    80.506246 
   26600    1467.0907   -116.76639    1.3274545   -115.43894    10960.782     4.310126     4.310126     4.310126    10960.782    15860.937    15450.002    1571.4082    75.050641   -4503.3562    17.332691    80.070013 
   26700    1340.6001    -116.6572    1.2130032    -115.4442   -6227.9588    4.3258498    4.3258498    4.3258498   -6227.9588    17366.097   -9179.4646   -26870.509   -8445.9676   -11373.009    8473.4412    80.949523 
   26800    884.82039   -116.24306   0.80060409   -115.44246    10452.849    4.3225055    4.3225055    4.3225055    10452.849    36084.083    30203.961   -34929.496   -1430.2162   -1774.1632   -11616.001    80.761924 
   26900    1220.7111   -116.54721    1.1045251   -115.44268    10162.841     4.312124     4.312124     4.312124    10162.841    2234.5556    34838.661   -6584.6947   -8301.3899   -933.83388   -19181.545    80.181416 
   27000     1328.842   -116.64856    1.2023642    -115.4462    18747.727    4.3175427    4.3175427    4.3175427    18747.727    5279.4339    36545.792    14417.956    6158.8414   -2227.1397    1690.7257     80.48407 
   27100    1373.7621   -116.68889    1.2430088   -115.44588   -13758.478    4.3312288    4.3312288    4.3312288   -13758.478    3702.9589   -19894.941   -25083.452    3499.2016   -5080.0494   -9578.9717    81.251874 
   27200    1138.0662   -116.47153    1.0297462   -115.44179   -20244.836    4.3201215    4.3201215    4.3201215   -20244.836   -7108.6514   -44841.872   -8783.9858    2555.4383   -6327.1541   -1818.7206     80.62837 
   27300    1186.6927   -116.51062    1.0737445   -115.43688    3551.5151     4.305161     4.305161     4.305161    3551.5151   -8976.8756    2073.9004     17557.52    14646.096    8659.9945    2702.4608    79.793626 
   27400    1463.7986   -116.77254    1.3244758   -115.44806   -13331.049    4.3279374    4.3279374    4.3279374   -13331.049   -16407.091    -5041.076    -18544.98    1086.2803    8895.1766    11303.966    81.066776 
   27500    1238.0382    -116.5613     1.120203    -115.4411   -8092.1804    4.3298668    4.3298668    4.3298668   -8092.1804   -14061.147   -19815.816    9600.4226    277.24827     1865.025   -300.83486    81.175247 
   27600    1139.7824   -116.46524    1.0312991   -115.43394   -1846.7546    4.3064847    4.3064847    4.3064847   -1846.7546   -4720.8845    9854.1247   -10673.504    9775.1573   -2375.2096    2423.2679    79.867247 
   27700    990.48884   -116.34223   0.89621512   -115.44602    2844.2124     4.313718     4.313718     4.313718    2844.2124   -11929.736    -160.6467    20623.019    12906.533   -1010.4294    8159.0881    80.270367 
   27800     1390.643   -116.69951     1.258283   -115.44123    3743.8726    4.3234211    4.3234211    4.3234211    3743.8726   -10727.441    21448.547    510.51141   -5191.3841      4401.82   -9939.4219    80.813259 
   27900     1251.787   -116.57523    1.1326432   -115.44259     7556.342    4.3193964    4.3193964    4.3193964     7556.342   -13688.229   -9386.4707    45743.726   -12785.589   -1969.5816   -9111.1581     80.58778 
   28000    753.48555   -116.13308   0.68176956   -115.45131   -16975.962    4.3206049    4.3206049    4.3206049   -16975.962   -22540.194   -25780.531   -2607.1609    16855.228     949.2862   -4868.1044    80.655439 
   28100    1006.6834   -116.35789   0.91086826   -115.44702     608.9162    4.3108285    4.3108285    4.3108285     608.9162   -5517.0893    5103.4555    2240.3825   -2533.0937    6132.1917    13505.856    80.109168 
   28200    1401.7397   -116.71573    1.2683236    -115.4474    7706.8862    4.3181475    4.3181475    4.3181475    7706.8862   -2679.7472    9777.4011    16023.005   -11544.231   -7135.6179    4497.3126    80.517898 
   28300    1135.1368   -116.47582    1.0270957   -115.44872   -26386.545    4.3276034    4.3276034    4.3276034   -26386.545   -30116.003   -32011.749   -17031.884    14341.337   -1135.6004    2912.0506    81.048012 
   28400    897.88966   -116.25906   0.81242943   -115.44663    -7075.187    4.3061116    4.3061116    4.3061116    -7075.187    -10282.89    5076.3044   -16018.975    11873.003     17558.79    2617.5626    79.846492 
   28500    1103.5242   -116.44853   0.99849192   -115.45004    2231.8225    4.3112561    4.3112561    4.3112561    2231.8225   -2964.2539    30729.199   -21069.478   -8707.0303    8317.7494   -2164.1545    80.133013 
   28600    1263.4473   -116.58751    1.1431937   -115.44432    -15165.81    4.3278702    4.3278702    4.3278702    -15165.81   -7854.9236   -32319.186   -5323.3194   -1478.6273   -3059.6669   -6432.8712       81.063 
   28700     1129.571   -116.46543    1.0220595   -115.44337   -1538.1873    4.3117526    4.3117526    4.3117526   -1538.1873   -26819.304    25428.649   -3223.9061    17953.991    15341.643    4488.3421    80.160699 
   28800    800.38635    -116.1722   0.72420639     -115.448    5198.6301    4.3112192    4.3112192    4.3112192    5198.6301    -26916.09    36795.676     5716.304    5049.0038    11624.281      1941.34    80.130955 
   28900    1121.1442   -116.45869    1.0144348   -115.44426   -10781.303    4.3210326    4.3210326    4.3210326   -10781.303    930.94122   -26667.232   -6607.6177   -8527.1978   -6279.7259   -11584.459    80.679396 
   29000    1144.9126   -116.47759     1.035941   -115.44165    18056.594    4.3122419    4.3122419    4.3122419    18056.594   -9102.0108    30632.666    32639.125   -3842.7389   -5216.1287   -3776.4517    80.187993 
   29100    877.27571   -116.24227    0.7937775   -115.44849     1640.723    4.3233729    4.3233729    4.3233729     1640.723   -15908.384    20342.539    488.01402    17494.242    15887.044     8169.169    80.810556 
   29200    1012.4938   -116.36066   0.91612564   -115.44453   -7210.6111    4.3210865    4.3210865    4.3210865   -7210.6111    17579.507   -10332.357   -28878.983    5025.2935    17675.246    3453.6144    80.682413 
   29300    1358.0671   -116.66785    1.2288077   -115.43904    16774.496    4.3068785    4.3068785    4.3068785    16774.496    14628.616    32327.153    3367.7174   -1657.9478   -6741.7185    -4778.223    79.889164 
   29400    1131.8321   -116.47747    1.0241055   -115.45336    447.18767    4.3250761    4.3250761    4.3250761    447.18767      13018.1    3367.7444   -15044.281    11834.734    3445.2969   -1102.8129    80.906101 
   29500    886.22755   -116.24801   0.80187731   -115.44613   -19599.531    4.3294414    4.3294414    4.3294414   -19599.531   -16991.862    2549.6927   -44356.423    3428.6315    16292.231    1364.9391     81.15132 
   29600    1185.4063   -116.50645    1.0725805   -115.43387    14927.981    4.3036546    4.3036546    4.3036546    14927.981     23909.03    20144.552    730.35912   -899.23116    17955.316   -757.79986    79.709894 
   29700     1187.086   -116.51705    1.0741003   -115.44295    23561.074    4.3089987    4.3089987    4.3089987    23561.074    24837.472    21908.751    23936.999    13129.009   -21632.779     140.0089    80.007203 
   29800    891.25441   -116.25657   0.80642572   -115.45014   -10944.689     4.325251     4.325251     4.325251   -10944.689   -38758.028   -585.39239    6509.3548    6782.5952   -1224.6822   -604.85321    80.915917 
   29900    874.53865   -116.23859   0.79130095   -115.44729    3057.7376    4.3211988    4.3211988    4.3211988    3057.7376   -2769.5791   -3301.2242    15244.016   -2281.2122    28646.086   -55.519396    80.688703 
   30000    1128.0563   -116.46113     1.020689   -115.44045    15217.998    4.3196498    4.3196498    4.3196498    15217.998    43168.008   -15214.646    17700.631    2959.6965    15884.406     -2572.58    80.601961 
   30100    893.49356   -116.25238   0.80845175   -115.44393    10489.313     4.320285     4.320285     4.320285    10489.313    33702.151   -10441.441    8207.2279    8799.6198   -963.50631   -2527.0469    80.637523 
   30200    730.87106   -116.10942   0.66130749   -115.44811   -13838.923    4.3261498    4.3261498    4.3261498   -13838.923   -6678.9744    276.97054   -35114.764    4763.0084    7949.4381    1297.7367    80.966369 
   30300    1080.6944   -116.41809   0.97783497   -115.44025   -8821.0296    4.3172467    4.3172467    4.3172467   -8821.0296    4679.7331   -18952.646   -12190.176   -5799.3139    6412.4685   -3142.0127    80.467519 
   30400    1289.4765   -116.60433    1.1667454   -115.43759    9424.8692    4.3077073    4.3077073    4.3077073    9424.8692    43186.486    -25231.19    10319.312    8130.4142   -5123.5235    2975.6915    79.935291 
   30500    733.96274   -116.11514   0.66410491   -115.45104   -8968.1455    4.3252432    4.3252432    4.3252432   -8968.1455    13912.292   -14903.249   -25913.479    9392.1988   -5228.5051    4541.8586    80.915478 
   30600    878.57574   -116.23869   0.79495379   -115.44374    -2369.963    4.3152846    4.3152846    4.3152846    -2369.963   -11408.638    13174.334   -8875.5851   -5473.3908    12300.784    -2006.102    80.357852 
   30700    1069.2315   -116.40544   0.96746312   -115.43797    21977.924    4.3069711    4.3069711    4.3069711    21977.924    48261.217   -14225.741    31898.295   -8393.8165     5866.925    1404.5117    79.894312 
   30800    1069.3259   -116.41167   0.96754857   -115.44413   -14825.225    4.3239729    4.3239729    4.3239729   -14825.225   -18960.216   -42870.676    17355.216    3387.5447   -11453.256    3614.5596    80.844205 
   30900    758.96903   -116.12832   0.68673112   -115.44159    14677.686    4.3161387    4.3161387    4.3161387    14677.686    12624.115    13604.457    17804.487   -1857.7753   -296.60847   -1215.2934    80.405579 
   31000    776.20833   -116.14568   0.70232961   -115.44335    2137.7427    4.3223021    4.3223021    4.3223021    2137.7427    36010.847   -14595.913   -15001.705   -4957.3242    10070.221   -5099.4107    80.750527 
   31100     959.6907   -116.30614   0.86834832   -115.43779   -19465.475    4.3266771    4.3266771    4.3266771   -19465.475    3531.4177   -58529.688   -3398.1544   -17979.805   -1236.9524   -4977.6006    80.995977 
   31200    1225.1158   -116.53911    1.1085106    -115.4306    931.37161    4.3080966    4.3080966    4.3080966    931.37161    5675.9688   -1482.9746   -1398.8794    890.48065   -47.621879    -2347.632    79.956963 
   31300     860.0437   -116.22214   0.77818561   -115.44396   -14793.278    4.3170941    4.3170941    4.3170941   -14793.278    80.253511   -15666.733   -28793.355    123.03572    8369.3345   -2177.1491    80.458982 
   31400     993.8638    -116.3437   0.89926885   -115.44443   -27342.433    4.3209541    4.3209541    4.3209541   -27342.433   -15575.349   -44150.277   -22301.673   -26305.338    10740.952   -6626.4601    80.674998 
   31500    954.55062   -116.30619   0.86369746   -115.44249    17825.825     4.315518     4.315518     4.315518    17825.825    56340.597   -15343.567    12480.445    862.14613   -7694.5721   -6630.8957    80.370895 
   31600    1158.1645   -116.49034    1.0479316   -115.44241   -12870.872    4.3186533    4.3186533    4.3186533   -12870.872    -844.1575   -6130.5672   -31637.891    2334.6901   -6931.6006    4507.6108    80.546196 
   31700    877.01836   -116.23639   0.79354464   -115.44284    5644.5048     4.308403     4.308403     4.308403    5644.5048    29723.571   -7022.0968   -5767.9594   -6500.1219    5689.6909    -578.0666    79.974023 
   31800    886.26974   -116.24897   0.80191549   -115.44705    3847.9625    4.3270601    4.3270601    4.3270601    3847.9625     16942.43   -32187.957    26789.414   -15340.714   -5224.8321    -4019.606     81.01749 
   31900    1243.3841   -116.55742    1.1250401   -115.43238   -20118.147    4.3315981    4.3315981    4.3315981   -20118.147   -24103.448   -19990.212    -16260.78    2320.7769    4299.5027    4748.1158    81.272656 
   32000    782.88094   -116.13642   0.70836713   -115.42806    35081.333    4.2952278    4.2952278    4.2952278    35081.333    53840.631    31175.614    20227.754    6139.2543    22579.643    8915.3189     79.24258 
   32100    879.41246   -116.24353   0.79571088   -115.44782   -409.51362     4.315087     4.315087     4.315087   -409.51362    5853.6952   -6524.6258   -557.61022   -26862.667    3210.6342    4852.7446    80.346816 
   32200    1179.6863   -116.49875     1.067405   -115.43134   -21386.638    4.3350158    4.3350158    4.3350158   -21386.638   -5237.4904   -31909.979   -27012.445   -9730.4682   -5396.7433   -1910.2884    81.465188 
   32300    1104.0647   -116.42785   0.99898091   -115.42887     11395.32    4.3027658    4.3027658    4.3027658     11395.32    2748.1343    29184.015    2253.8113    66.249524    7063.5194    7718.9988    79.660517 
   32400    850.23487   -116.21296   0.76931038   -115.44365    4242.4415    4.3051359    4.3051359    4.3051359    4242.4415    8518.9873    18089.844   -13881.507   -8977.0994    541.67463    2895.6717     79.79223 
   32500    1313.3231   -116.62826    1.1883223   -115.43994   -22975.409    4.3288256    4.3288256    4.3288256   -22975.409   -23187.298   -28926.897   -16812.031   -15674.918   -2239.4411   -10917.644    81.116702 
   32600    1138.1063   -116.46627    1.0297825   -115.43649    2092.0602    4.3184081    4.3184081    4.3184081    2092.0602    15428.047    535.96926   -9687.8361    12455.328   -1733.1489   -4989.3455    80.532472 
   32700    888.16532   -116.24007   0.80363064   -115.43644    11650.629    4.3077561    4.3077561    4.3077561    11650.629    195.18114    14323.733    20432.973    4233.4674    7747.2549    866.49575    79.938007 
   32800    1067.1481    -116.4055   0.96557805   -115.43992   -1740.8422    4.3198153    4.3198153    4.3198153   -1740.8422    6350.2566   -19166.988     7594.205   -12959.768    4547.2161   -4893.9985     80.61123 
   32900    1213.6608   -116.53695    1.0981458   -115.43881    4871.2769    4.3189849    4.3189849    4.3189849    4871.2769   -4607.6396    -18376.48     37597.95    13950.076    8769.7503   -3909.1171    80.564747 
   33000    1120.1218   -116.45237    1.0135097   -115.43886    9896.1395     4.312141     4.312141     4.312141    9896.1395    2603.9253    20900.433    6184.0604    12740.592    12384.751     5242.914    80.182365 
   33100    1176.3154   -116.50625    1.0643549    -115.4419   -20559.122    4.3184794    4.3184794    4.3184794   -20559.122   -26960.756    3644.9696    -38361.58   -6223.2279   -12863.576    5870.9916    80.536464 
   33200    1074.9853   -116.41598   0.97266928   -115.44331   -2150.2791    4.3100804    4.3100804    4.3100804   -2150.2791   -11055.856   -7344.8485    11949.868    3732.2411   -6183.5681    1027.7503    80.067472 
   33300    1308.3851   -116.62976    1.1838543   -115.44591    1656.2739     4.310956     4.310956     4.310956    1656.2739    166.40762    -2740.969    7543.3831     13241.48    10420.243   -9384.4099    80.116277 
   33400    1286.2317   -116.60626    1.1638095   -115.44245   -13915.408     4.325323     4.325323     4.325323   -13915.408     6428.347    -5792.688   -42381.882   -7411.3355   -8798.4569    6283.3237    80.919953 
   33500    1098.6748   -116.44038   0.99410402   -115.44628   -4942.2842    4.3058396    4.3058396    4.3058396   -4942.2842   -5637.1122    9372.9095    -18562.65   -6632.8217   -19007.354    13607.145    79.831365 
   33600    923.77888   -116.28898   0.83585454   -115.45313    11618.168    4.3025538    4.3025538    4.3025538    11618.168   -9123.7045   -10850.042     54828.25    27974.576   -4851.0677   -1815.1159    79.648743 
   33700    1467.4553   -116.77581    1.3277844   -115.44802   -12295.012    4.3261133    4.3261133    4.3261133   -12295.012   -1857.1438   -20968.018   -14059.874    12806.349    5144.3578   -1892.9129     80.96432 
   33800    1556.7009   -116.85282    1.4085357   -115.44428    8873.9848    4.3070408    4.3070408    4.3070408    8873.9848    6608.6636    11176.033    8837.2579   -8289.7624    3984.1834    6468.7694     79.89819 
   33900    692.30952   -116.07868    0.6264162   -115.45226    10096.662    4.3023526    4.3023526    4.3023526    10096.662    13842.116   -11099.396    27547.265    9411.2178   -16801.137    7291.9319    79.637573 
   34000    1000.8685   -116.35826   0.90560688   -115.45265   -31465.548    4.3250132    4.3250132    4.3250132   -31465.548   -33807.663   -34972.859   -25616.122    19501.101    1905.9216   -5012.1033    80.902567 
   34100    1257.5484   -116.57958    1.1378562   -115.44173    25802.867    4.3072243    4.3072243    4.3072243    25802.867    42328.255    18455.443    16624.904   -6398.0739    11532.825   -6078.9366    79.908403 
   34200    1220.4422   -116.55055    1.1042817   -115.44627    1885.7738    4.3067325    4.3067325    4.3067325    1885.7738   -9523.7622    17309.338   -2128.2545    2891.3305    2945.4886    5973.9083    79.881035 
   34300    751.13167   -116.13195   0.67963972   -115.45231   -19582.465    4.3199739    4.3199739    4.3199739   -19582.465   -32100.759   -9855.3284   -16791.308    30353.538    -7136.288    1776.3559    80.620105 
   34400    1047.6131   -116.39326   0.94790238   -115.44536    6119.5923    4.3103192    4.3103192    4.3103192    6119.5923   -25227.415    44164.332   -578.14003    12088.909    2062.9424    47.130677    80.080781 
   34500    1178.5243   -116.51142    1.0663536   -115.44506    3458.5325    4.3185513    4.3185513    4.3185513    3458.5325    16629.101    14064.052   -20317.556    806.65733    13008.136    6275.1868    80.540486 
   34600    1325.6787   -116.64173     1.199502   -115.44222   -13384.504    4.3148396    4.3148396    4.3148396   -13384.504   -4084.5122   -21060.763   -15008.237    20006.084   -6107.9691    4421.3011    80.332994 
   34700    905.83973    -116.2661   0.81962282   -115.44648    14940.842    4.3022048    4.3022048    4.3022048    14940.842    33134.116   -6959.1709     18647.58    25206.529    1527.4472   -3221.7648    79.629362 
   34800    1025.7043   -116.38122   0.92807879   -115.45314   -4340.1841    4.3211069    4.3211069    4.3211069   -4340.1841    2975.1741   -3484.0744   -12511.652   -2009.2501    14112.441    3647.6091    80.683558 
   34900    1418.4858   -116.72204    1.2834757   -115.43856   -13234.166    4.3242159    4.3242159    4.3242159   -13234.166    2414.4891   -26088.983   -16028.004   -9598.7432    5773.8747    1354.7084    80.857837 
   35000    1213.4306   -116.53145    1.0979375   -115.43352    2694.8988      4.30974      4.30974      4.30974    2694.8988    17411.559   -22989.801    13662.938    19121.688   -2078.5634   -5496.3671    80.048502 
   35100    1035.2979   -116.37932   0.93675933   -115.44256   -7030.5484    4.3120675    4.3120675    4.3120675   -7030.5484   -8.4385984   -16378.397   -4704.8097    8856.8788    9798.8474   -2967.7694    80.178267 
   35200    1107.7149   -116.44999    1.0022837    -115.4477   -9602.9943    4.3173902    4.3173902    4.3173902   -9602.9943    4632.8744    -8276.531   -25165.326   -12758.047    14048.789    4024.1731     80.47554 
   35300    1082.0364   -116.42597   0.97904924   -115.44692   -5083.7184     4.315354     4.315354     4.315354   -5083.7184    15773.918   -37594.901    6569.8275      -1807.3   -6876.2308    6873.0094    80.361734 
   35400    1121.0713   -116.46088    1.0143689   -115.44652   -14855.732    4.3098565    4.3098565    4.3098565   -14855.732   -17507.179   -45762.475    18702.458     24615.99     957.5734   -7530.2035    80.054996 
   35500    1131.0537   -116.47153    1.0234012   -115.44813   -15787.082    4.3136668    4.3136668    4.3136668   -15787.082    -17178.58   -18770.934   -11411.732    6424.6657    23917.511   -2683.1007     80.26751 
   35600     1223.192   -116.55267    1.1067698    -115.4459   -9293.5154    4.3180189    4.3180189    4.3180189   -9293.5154   -15302.787   -14268.719    1690.9594   -7218.1907    10203.847    3528.6966      80.5107 
   35700    1105.2872   -116.44765     1.000087   -115.44756    1631.9377    4.3074738    4.3074738    4.3074738    1631.9377    15775.729   -40119.527    29239.611    10234.886   -5634.3248   -9521.4962     79.92229 
   35800     861.4641    -116.2357   0.77947082   -115.45623   -1072.2361    4.3076745    4.3076745    4.3076745   -1072.2361    15332.761   -33866.857    15317.388    18168.552    8882.5594    64.623932    79.933462 
   35900    1185.0132   -116.52362    1.0722249   -115.45139    7402.1094    4.3135873    4.3135873    4.3135873    7402.1094   -1461.8402    3691.3663    19976.802   -4165.7325    17654.856    1734.4839    80.263073 
   36000    1252.7393   -116.57954    1.1335048   -115.44603    11859.066    4.3153389    4.3153389    4.3153389    11859.066     20563.57   -17694.715    32708.342   -15278.562   -4904.3153    139.01549    80.360887 
   36100    903.51147   -116.26747   0.81751617   -115.44996   -6677.3381    4.3100434    4.3100434    4.3100434   -6677.3381   -25460.003   -23022.041     28450.03    2537.3385     2186.933   -5038.1136    80.065408 
   36200    775.82122   -116.15527   0.70197934   -115.45329    3479.9932     4.302999     4.302999     4.302999    3479.9932   -1003.4741    983.77173    10459.682    17136.162    9052.2631   -4611.8797    79.673471 
   36300    1107.3284   -116.45411     1.001934   -115.45217   -5290.0031    4.3206925    4.3206925    4.3206925   -5290.0031   -4395.9901   -29213.187    17739.168   -2224.1755    4483.2033    11676.394    80.660347 
   36400    1124.6541     -116.461    1.0176107   -115.44339   -10369.141    4.3195669    4.3195669    4.3195669   -10369.141   -16872.505    -23847.12    9612.2039   -17744.149    289.28467   -2479.7285    80.597323 
   36500    757.90821   -116.12744   0.68577128   -115.44167    9032.9354    4.2990416    4.2990416    4.2990416    9032.9354     23827.77   -25352.251    28623.287    8648.9008   -1744.7079   -10802.312    79.453847 
   36600    914.23623    -116.2823   0.82722016   -115.45508   -20232.528    4.3147188    4.3147188    4.3147188   -20232.528   -9264.1377   -28595.147   -22838.298    13810.941    27207.994   -516.37206    80.326251 
   36700    979.98466   -116.33467   0.88671072   -115.44796   -4008.7559    4.3200686    4.3200686    4.3200686   -4008.7559   -6273.8448   -22363.195    16610.772   -16635.177    150.10373    2941.3095     80.62541 
   36800    1270.4031   -116.58804    1.1494874   -115.43856   -4522.7155    4.3063046    4.3063046    4.3063046   -4522.7155   -6411.6524   -18844.752    11688.257   -12077.747   -8898.2814    1515.4859    79.857231 
   36900     642.2368   -116.03001   0.58110935    -115.4489   -11694.669    4.3139112    4.3139112    4.3139112   -11694.669   -22993.917   -2150.8467   -9939.2435    8189.8225    24487.978   -4963.0732    80.281153 
   37000    772.68851   -116.14967   0.69914481   -115.45052   -9420.4003    4.3152211    4.3152211    4.3152211   -9420.4003    6331.5762    -16230.32   -18362.457    6863.4889    12172.986    5946.4487    80.354309 
   37100     1290.148   -116.61114     1.167353   -115.44379    5880.5692    4.3091756    4.3091756    4.3091756    5880.5692     1049.928    8874.0338    7717.7458    2571.6022   -4086.1771    9784.1231    80.017058 
   37200    901.26746   -116.26345   0.81548574   -115.44797   -6133.5233    4.3172027    4.3172027    4.3172027   -6133.5233   -12404.103    3197.5837   -9194.0502    2492.4768   -11402.984   -1803.1249    80.465054 
   37300     597.6452   -115.99068   0.54076194   -115.44991   -8441.1163    4.3120579    4.3120579    4.3120579   -8441.1163   -12864.933   -9668.7411   -2789.6745    9152.5249    16854.245    4326.1812    80.177727 
   37400    1036.5766   -116.38442   0.93791629   -115.44651    431.63226    4.3123387    4.3123387    4.3123387    431.63226    16538.623   -1838.4786   -13405.247   -2071.5812    15211.904    7439.4991    80.193392 
   37500    1184.4664   -116.51126    1.0717301   -115.43953   -126.82862    4.3191554    4.3191554    4.3191554   -126.82862     6223.527   -3536.1327   -3067.8801   -10323.689   -25685.444    4750.3148    80.574291 
   37600      984.621   -116.33432   0.89090577   -115.44341   -889.53823    4.3023129    4.3023129    4.3023129   -889.53823   -5856.7513    1034.7059    2153.4307    10244.306    3761.1753    3581.2118    79.635366 
   37700    614.01074   -116.01236   0.55556983   -115.45679   -7735.3987    4.3104283    4.3104283    4.3104283   -7735.3987     28433.32   -19186.592   -32452.925    9499.5445    25491.337    4103.8711    80.086862 
   37800    1088.8952   -116.43179   0.98525527   -115.44654   -18335.086     4.323159     4.323159     4.323159   -18335.086   -4936.1716    -20544.36   -29524.725    -6370.791   -7246.4515    3258.3355    80.798563 
   37900     1238.389   -116.55897    1.1205204   -115.43845    13264.626    4.3043617    4.3043617    4.3043617    13264.626    7988.7846     8068.161    23736.931   -3545.4073   -7028.5129   -3450.4075    79.749189 
   38000     960.9666   -116.31603   0.86950278   -115.44653   -8038.5239    4.3111551    4.3111551    4.3111551   -8038.5239    9338.6987   -8437.3352   -25016.935    251.00013    14220.346   -3193.3227    80.127382 
   38100    909.61434   -116.26751   0.82303817   -115.44448   -12294.861    4.3190705    4.3190705    4.3190705   -12294.861    9025.1923   -33344.404    -12565.37    1684.6689    12185.935   -2941.8638     80.56954 
   38200    1026.9363   -116.37035   0.92919358   -115.44116    18403.223    4.3046297    4.3046297    4.3046297    18403.223     21641.57   -20569.192     54137.29   -8297.9175   -11473.481    -1914.803    79.764085 
   38300    1173.7978   -116.50795    1.0620769   -115.44587   -1450.7158    4.3141823    4.3141823    4.3141823   -1450.7158    17081.846   -9144.6697   -12289.324    1851.2522    1157.5698    602.64098    80.296287 
   38400      1236.51   -116.55913    1.1188202   -115.44031   -16355.383    4.3205905    4.3205905    4.3205905   -16355.383   -15201.734    -22983.15   -10881.264    1414.9227    23876.145   -2029.2193    80.654636 
   38500    946.37617   -116.29523   0.85630104   -115.43893    11242.446    4.3064372    4.3064372    4.3064372    11242.446    16900.103   -24080.181    40907.417   -13077.165   -1304.9367   -5025.0937    79.864606 
   38600    1115.6063   -116.45168     1.009424   -115.44226   -13619.226    4.3093549    4.3093549    4.3093549   -13619.226    5796.3516   -27061.234   -19592.795    3117.0646   -8583.2924   -5627.4521    80.027046 
   38700    1024.4113   -116.37238   0.92690889   -115.44547   -6478.6935    4.3153511    4.3153511    4.3153511   -6478.6935    4193.5886   -17361.714   -6267.9551    3636.1497    6066.0422    4239.3902    80.361567 
   38800    1187.8654    -116.5182    1.0748055   -115.44339    8160.0999    4.3098754    4.3098754    4.3098754    8160.0999    34712.502   -16720.547    6488.3445   -3701.5815    13157.349   -7870.2424    80.056049 
   38900    1108.1929   -116.45006    1.0027162   -115.44735   -11140.774    4.3159934    4.3159934    4.3159934   -11140.774    30147.206   -30563.051   -33006.477    -13266.53   -359.03958   -13126.204     80.39746 
   39000    1003.5716   -116.35402   0.90805264   -115.44597   -14993.576    4.3160857    4.3160857    4.3160857   -14993.576    6785.8132    -21694.78   -30071.761   -7500.4203   -3593.8306    8517.6389    80.402618 
   39100    1190.8523   -116.51891    1.0775082    -115.4414   -5517.4892    4.3086082    4.3086082    4.3086082   -5517.4892   -15861.001    9149.8773    -9841.344    8874.7525    23072.606    3481.1136    79.985455 
   39200    1216.3869   -116.54539    1.1006125   -115.44478    96.334827    4.3157826    4.3157826    4.3157826    96.334827    38330.858   -6191.9875   -31849.866   -7220.8219   -3585.8085   -13901.983    80.385681 
   39300     1263.847   -116.58832    1.1435553   -115.44477   -13864.802    4.3139213    4.3139213    4.3139213   -13864.802    24122.769   -32986.843   -32730.331   -1370.2285   -1799.1835   -15496.433    80.281716 
   39400    1105.9757    -116.4456    1.0007101   -115.44489    4829.6487    4.2994103    4.2994103    4.2994103    4829.6487   -2181.5725    18581.215   -1910.6964    7538.0841    7943.4977    3693.4988    79.474295 
   39500    792.28582    -116.1738   0.71687686   -115.45693   -2512.9851    4.3141592    4.3141592    4.3141592   -2512.9851    3953.2424    6282.1512   -17774.349    582.32481    7824.0292   -4913.1083    80.295002 
   39600     1198.637   -116.52965     1.084552    -115.4451   -21225.001      4.32056      4.32056      4.32056   -21225.001    17912.261   -30269.097   -51318.166   -5447.9178    4910.8588    -26188.79    80.652923 
   39700    1308.4295   -116.62038    1.1838945   -115.43648    9354.1095    4.3040483    4.3040483    4.3040483    9354.1095    14592.448   -1675.5026    15145.383    3941.4831   -3231.1172    929.98406    79.731773 
   39800    1141.8157   -116.47861    1.0331389   -115.44547   -5562.8535    4.3086578    4.3086578    4.3086578   -5562.8535   -25107.675    14756.923   -6337.8092    9841.3955    10435.968   -2359.2687    79.988216 
   39900    629.17871    -116.0222   0.56929411    -115.4529   -4082.8834    4.3203654    4.3203654    4.3203654   -4082.8834    29278.888   -19836.822   -21690.717   -1756.0594     1024.411   -29437.363    80.642028 
   40000     1215.892    -116.5471    1.1001647   -115.44693   -5067.8845    4.3137195    4.3137195    4.3137195   -5067.8845    3109.3692   -17237.926   -1075.0967    1159.4951   -4970.0822    -8785.323    80.270453 
   40100    1601.6643   -116.88925    1.4492195   -115.44003    14089.464    4.2960938    4.2960938    4.2960938    14089.464    6881.6602    23651.337    11735.395    2469.8643    6780.5694    11468.735    79.290518 
   40200     867.3349   -116.24627   0.78478285   -115.46149    3731.3018    4.3115677    4.3115677    4.3115677    3731.3018    5844.2675   -5590.5249    10940.163    8486.7086   -1666.7905   -12844.491    80.150386 
   40300    655.12331    -116.0569   0.59276934   -115.46413   -35255.367    4.3234172    4.3234172    4.3234172   -35255.367    -31797.89   -24404.277   -49563.935    -2285.761   -1674.4299   -30627.955    80.813036 
   40400    1084.3391   -116.43154   0.98113276   -115.45041    22437.432     4.295323     4.295323     4.295323    22437.432   -9961.4655     45504.81    31768.951   -18494.437    2660.5579    6080.8365    79.247851 
   40500    1525.3822   -116.83232    1.3801978   -115.45212   -1664.0296    4.3116516    4.3116516    4.3116516   -1664.0296    555.58044   -7927.0643     2379.395    8090.5681   -4447.4267    1843.8706    80.155064 
   40600    818.07489   -116.19056   0.74021135   -115.45035   -16998.013    4.3272932    4.3272932    4.3272932   -16998.013   -8237.1041   -10571.559   -32185.374    4397.0042   -1663.2527     -20827.4    81.030581 
   40700    829.48187   -116.19875   0.75053263   -115.44822     8753.991    4.2964362    4.2964362    4.2964362     8753.991   -4859.4398    11833.341    19288.072   -13276.273      3318.07   -12017.779    79.309477 
   40800    1057.7325   -116.41477   0.95705858   -115.45771   -2065.4102    4.3050469    4.3050469    4.3050469   -2065.4102   -10319.611   -10105.988    14229.368   -16085.706    -2791.429    18423.517    79.787282 
   40900    1292.8634   -116.61693      1.16981   -115.44712   -7758.4568    4.3202641    4.3202641    4.3202641   -7758.4568    4213.3831   -20574.916    -6913.837   -3924.0578   -2429.6066     6671.165    80.636353 
   41000    1146.8326   -116.48199    1.0376782   -115.44431    5280.7494    4.3128143    4.3128143    4.3128143    5280.7494    21907.006   -15902.366    9837.6089    5485.4756   -9257.8211   -27621.464     80.21993 
   41100    873.86617   -116.23823   0.79069248   -115.44754   -14080.718     4.312384     4.312384     4.312384   -14080.718   -29144.857   -28541.911    15444.614   -20161.324   -1418.0762    6255.1857    80.195922 
   41200     1199.338   -116.53105    1.0851862   -115.44586   -5167.3854     4.298532     4.298532     4.298532   -5167.3854    4723.9631   -21098.063    871.94346   -6585.0424    9261.6384    28911.912    79.425597 
   41300    1218.9085   -116.55473     1.102894   -115.45184    17818.172     4.311224     4.311224     4.311224    17818.172    29119.823    69.653657    24265.039    6589.7563    522.83289    3342.9719    80.131222 
   41400     1289.695   -116.61273    1.1669431   -115.44578   -20919.109    4.3277081    4.3277081    4.3277081   -20919.109   -28356.109   -35793.455    1392.2365   -12801.965    11700.899   -17899.595    81.053895 
   41500    870.19142   -116.23622   0.78736748   -115.44885    14352.464    4.2916556    4.2916556    4.2916556    14352.464    6773.8806    28203.143    8080.3699   -5683.8479    8739.5704    11565.007    79.045034 
   41600    996.63026   -116.36251     0.901772   -115.46074    14541.954    4.2989324    4.2989324    4.2989324    14541.954    13869.903    1161.5505    28594.408   -12086.571   -1736.4793    34113.534    79.447796 
   41700    1370.5114   -116.68132    1.2400675   -115.44125   -9507.3676     4.331999     4.331999     4.331999   -9507.3676   -6672.9683   -15384.209   -6464.9256    617.02873    356.00536   -9005.4454    81.295224 
   41800    1211.6874   -116.53798    1.0963602   -115.44162    7407.6541    4.3062428    4.3062428    4.3062428    7407.6541   -13108.365    23347.961    11983.366    545.79059    10839.859    403.21688    79.853792 
   41900    627.86322   -116.01641   0.56810384   -115.44831   -5644.1196    4.2975505    4.2975505    4.2975505   -5644.1196   -1658.6791   -25333.875    10060.195   -8595.7566    7366.7651    29671.058    79.371202 
   42000    874.04538   -116.24468   0.79085462   -115.45383   -15453.689    4.3194225    4.3194225    4.3194225   -15453.689    5730.8463   -21470.723   -30621.191    2924.2817   -17530.668    22865.347    80.589241 
   42100    1329.3586   -116.64403    1.2028316    -115.4412    4232.8535    4.3154149    4.3154149    4.3154149    4232.8535    21320.029    -15430.46    6808.9908   -873.80163   -971.35943   -4494.5534    80.365136 
   42200    709.04628    -116.0907   0.64155997   -115.44914   -1459.6235    4.3099924    4.3099924    4.3099924   -1459.6235    37834.823   -43478.712    1265.0184    367.71356    11888.047    22377.447    80.062565 
   42300    548.65477   -115.94574   0.49643436   -115.44931   -3200.7321    4.3130491    4.3130491    4.3130491   -3200.7321    66132.546   -46384.811   -29349.932   -1752.9765    6952.8578    32298.745    80.233033 
   42400    1032.4174    -116.3749   0.93415296   -115.44075    12768.014    4.3135393    4.3135393    4.3135393    12768.014    15840.039    3586.1061    18877.897    7041.1153   -9945.7539   -13215.293    80.260392 
   42500    1036.6223   -116.37829   0.93795766   -115.44033   -12185.615     4.318407     4.318407     4.318407   -12185.615    1010.2585   -34566.624   -3000.4784    9269.8337    747.06181    11406.027    80.532414 
   42600     772.4916   -116.13887   0.69896664   -115.43991    -26654.76    4.3179771    4.3179771    4.3179771    -26654.76    8192.5008   -64481.965   -23674.817    505.30882    5080.1628    35786.163    80.508363 
   42700    1031.8433   -116.36813   0.93363354    -115.4345     2351.326    4.3018663    4.3018663    4.3018663     2351.326    18062.031   -20832.997    9824.9436   -6246.1524    -5925.578   -6608.9331    79.610571 
   42800    822.49883   -116.19027   0.74421423   -115.44605   -10534.762     4.317119     4.317119     4.317119   -10534.762    24539.719   -34593.423    -21550.58    9119.1135   -17322.295     5212.688    80.460378 
   42900    504.69779   -115.89898   0.45666117   -115.44231   -9541.6056    4.3292764    4.3292764    4.3292764   -9541.6056    55787.592   -55391.052   -29021.357    5193.4021    4610.6753     23940.23    81.142044 
   43000    1060.4442   -116.38573   0.95951221   -115.42622    20716.311     4.303009     4.303009     4.303009    20716.311    71479.493   -19477.663    10147.105   -6350.2025    10701.457   -3821.9399    79.674027 
   43100    815.09072   -116.17596   0.73751121   -115.43845   -5855.9469    4.3069543    4.3069543    4.3069543   -5855.9469    17656.778    -22504.61   -12720.009    -1707.118   -3428.1253    5293.2732    79.893378 
   43200    626.66172   -116.01063   0.56701669   -115.44362   -25802.169    4.3231921    4.3231921    4.3231921   -25802.169    9219.7441   -64273.153     -22353.1    1096.8255   -12177.642    30583.765    80.800414 
   43300    1367.9453   -116.66864    1.2377456   -115.43089    -3385.783    4.3140423    4.3140423    4.3140423    -3385.783    4718.3543   -20585.152    5709.4484   -2335.2782    6521.1119    -2907.076    80.288473 
   43400     1146.938   -116.47009    1.0377736   -115.43232   -10881.248    4.3134057    4.3134057    4.3134057   -10881.248   -20930.902    9404.6323   -21117.475   -1077.1553    11232.716    993.07518    80.252934 
   43500    740.31215   -116.11129   0.66984999   -115.44144   -13262.773    4.3110475    4.3110475    4.3110475   -13262.773    23575.118   -30071.007   -33292.429   -5107.5127   -16598.956     32306.33    80.121382 
   43600    1176.3092   -116.50705    1.0643493   -115.44271    4071.9804    4.3122756    4.3122756    4.3122756    4071.9804    42022.667   -19806.957   -9999.7687    3913.6881   -6527.1534    11251.463    80.189876 
   43700    1439.9728   -116.74039    1.3029176   -115.43748    3024.9555    4.3137979    4.3137979    4.3137979    3024.9555    17387.191   -2479.3504   -5832.9742    6281.8403    13145.779   -4586.9868     80.27483 
   43800    940.19761   -116.29713   0.85071055   -115.44642   -4664.0265    4.3082762    4.3082762    4.3082762   -4664.0265    26546.161    463.89413   -41002.134   -7967.2863    6563.9112    21271.503    79.966966 
   43900    1029.1217   -116.38005   0.93117096   -115.44888   -2984.3154    4.3121342    4.3121342    4.3121342   -2984.3154    8121.9429   -10766.454    -6308.435    18328.853   -20893.088    13646.847    80.181987 
   44000    1785.2379   -117.05218    1.6153208   -115.43686   -10638.602    4.3180559    4.3180559    4.3180559   -10638.602   -14138.013   -12799.034   -4978.7576    6343.7236    6614.7817   -9485.0467    80.512773 
   44100    1316.5388   -116.63356     1.191232   -115.44233   -6627.2486    4.3124019    4.3124019    4.3124019   -6627.2486     8547.937   -7767.1475   -20662.535    488.98331   -2285.6623    17078.349    80.196919 
   44200     1003.309   -116.35289   0.90781505   -115.44507    7008.7998    4.3111884    4.3111884    4.3111884    7008.7998    22499.784    8085.9062   -9559.2908    1893.0647   -19396.155    22232.591    80.129239 
   44300    1684.6678   -116.95734    1.5243228   -115.43301    606.53036    4.3206966    4.3206966    4.3206966    606.53036    14011.283     13081.04   -25272.732   -9743.0766   -12364.554   -17368.716    80.660577 
   44400    1238.0213   -116.55556    1.1201877   -115.43537    13920.942    4.3156634    4.3156634    4.3156634    13920.942    34954.828    1048.8598    5759.1376   -8216.3029    5160.4084     993.6281    80.379015 
   44500     1004.753   -116.35182   0.90912159    -115.4427   -774.45041    4.3088045    4.3088045    4.3088045   -774.45041    14156.436    6515.8882   -22995.676    -14242.75   -2963.3745    38592.392    79.996384 
   44600    1375.3449   -116.68438     1.244441   -115.43994    18291.234    4.3078582    4.3078582    4.3078582    18291.234    10806.003    29936.302    14131.399     5234.018   -5693.0416    5075.6721    79.943693 
   44700    1534.9602   -116.82961    1.3888643   -115.44075    3519.9315    4.3145721    4.3145721    4.3145721    3519.9315    1431.0394   -3382.3541    12511.109   -1090.0736    11008.732   -3694.0072    80.318055 
   44800    747.46337   -116.12009   0.67632057   -115.44377   -9925.7453    4.3216785    4.3216785    4.3216785   -9925.7453    23586.304   -18061.937   -35301.603     -2022.85    157.65817    25775.354     80.71558 
   44900      1205.46   -116.52311    1.0907255   -115.43239    8772.0085    4.3086513    4.3086513    4.3086513    8772.0085   -7707.8415    8308.2215    25715.646    -1902.951      8561.04    14632.755    79.987853 
   45000    1630.7471   -116.90673    1.4755342    -115.4312    12089.349    4.3031704    4.3031704    4.3031704    12089.349    1716.6721    11842.728    22708.647   -1612.1716    -3255.225   -275.10073     79.68299 
   45100    904.35132   -116.26835   0.81827607   -115.45007   -15463.429    4.3155722    4.3155722    4.3155722   -15463.429    6649.9121   -29962.306   -23077.893    3106.8894    346.92076    24966.111    80.373923 
   45200    892.43916    -116.2531    0.8074977    -115.4456   -1409.5481    4.3153459    4.3153459    4.3153459   -1409.5481    18162.947   -35614.479    13222.888   -1945.6069    18260.323    5526.0164     80.36128 
   45300    1569.3757   -116.85534    1.4200041   -115.43534    8399.6163    4.3085893    4.3085893    4.3085893    8399.6163    7120.3354   -13249.353    31327.866    7262.1765   -11306.045   -14589.975    79.984402 
   45400    1148.7958   -116.47954    1.0394545   -115.44009     12997.81    4.3029576    4.3029576    4.3029576     12997.81    26047.788   -18765.211    31710.852    1818.7156   -6733.0332    23779.929    79.671172 
   45500    830.87667   -116.20154   0.75179467   -115.44974    -12241.67    4.3155831    4.3155831    4.3155831    -12241.67   -3587.8183   -49811.087    16673.895    1954.4216    10385.514    16910.447    80.374534 
   45600    1081.1237   -116.42011   0.97822347   -115.44189   -12370.934    4.3198398    4.3198398    4.3198398   -12370.934    24683.196   -43695.252   -18100.748    3433.2568     1003.581   -24864.831    80.612601 
   45700    1278.3667   -116.58995     1.156693   -115.43326    20257.408    4.2967417    4.2967417    4.2967417    20257.408    24180.716    2672.0936    33919.414    6257.6431   -999.59638     8073.527    79.326397 
   45800    810.00502   -116.18221   0.73290957    -115.4493   -12025.593    4.3139996    4.3139996    4.3139996   -12025.593    18085.079   -43704.593   -10457.265    2567.1039   -7177.9502    28176.324     80.28609 
   45900    789.73134   -116.15316   0.71456551    -115.4386   -31965.807    4.3251232    4.3251232    4.3251232   -31965.807    2486.8981   -62134.214   -36250.104   -2244.1088    13962.424   -19697.341    80.908743 
   46000    1070.8876   -116.39597   0.96896163     -115.427    24131.513    4.2954928    4.2954928    4.2954928    24131.513    32999.665    11066.125    28328.749    448.75436    1260.6394   -7903.4523    79.257249 
   46100    770.25968   -116.13854   0.69694715    -115.4416     5964.239    4.3100637    4.3100637    4.3100637     5964.239    41529.958   -11015.289   -12621.952   -3196.3965   -14180.346    29456.537    80.066542 
   46200    726.64885   -116.09847   0.65748715   -115.44098   -25665.652    4.3224178    4.3224178    4.3224178   -25665.652    2088.8509   -43557.885   -35527.922   -80.752994    1673.0322   -5046.8998    80.757008 
   46300     769.5638   -116.13047    0.6963175   -115.43415    19742.536    4.3026176    4.3026176    4.3026176    19742.536    70649.181   -25702.203    14280.629   -6967.4637    7359.6248    -28133.78    79.652287 
   46400    1059.1724   -116.39419   0.95836145   -115.43583   -10437.579    4.3100766    4.3100766    4.3100766   -10437.579    8213.7497   -25280.135   -14246.352   -5922.9894   -10185.053     24395.55    80.067261 
   46500    522.90694    -115.9117   0.47313719   -115.43856   -5480.1237     4.313296     4.313296     4.313296   -5480.1237    20894.461   -20319.937   -17014.895    2554.3012   -11439.925    3587.2254     80.24681 
   46600    955.09726    -116.2996   0.86419207   -115.43541    498.04684    4.3072612    4.3072612    4.3072612    498.04684     27336.48    -41454.11     15611.77   -3532.3529     13826.46     -35335.8    79.910457 
   46700     1084.365   -116.41628   0.98115623   -115.43513   -14805.871    4.3159113    4.3159113    4.3159113   -14805.871     6601.796   -47890.058   -3129.3513   -1825.5727   -17629.407    10736.692    80.392872 
   46800    619.79527    -116.0046   0.56080378   -115.44379   -3748.3555    4.2998176    4.2998176    4.2998176   -3748.3555    8807.1659    -32804.32    12752.088    -2853.557   -20730.581     8321.584    79.496882 
   46900    696.77909   -116.08143   0.63046036   -115.45097    7750.7849    4.3027566    4.3027566    4.3027566    7750.7849    39848.267   -25422.458    8826.5457    4459.8835    2167.2906   -31905.142    79.660006 
   47000    1229.6032   -116.54937    1.1125708   -115.43679   -12306.855    4.3233368    4.3233368    4.3233368   -12306.855    29552.785   -52281.518   -14191.831    5296.0964    4787.8741   -4851.3675    80.808531 
   47100    920.11235   -116.27484   0.83253699    -115.4423    13601.702    4.2978588    4.2978588    4.2978588    13601.702    38355.436   -27024.295    29473.966   -571.91052   -12403.198    12682.714    79.388285 
   47200    606.88615   -116.00683   0.54912334    -115.4577   -17332.644     4.306453     4.306453     4.306453   -17332.644    36158.725   -61243.277    -26913.38   -3356.3258   -16728.363   -26811.533    79.865484 
   47300    1127.2079   -116.46006    1.0199214   -115.44014     -14069.5    4.3206944    4.3206944    4.3206944     -14069.5    12937.904   -41255.586   -13890.817    7884.6085    8416.5746   -24482.622    80.660452 
   47400    1387.8827   -116.68478    1.2557855     -115.429    25653.523    4.2935613    4.2935613    4.2935613    25653.523    38220.052    714.26986    38026.247   -1574.4756   -3987.1781     9610.557    79.150378 
   47500    596.95472   -115.99058   0.54013717   -115.45044   -26353.868    4.3108186    4.3108186    4.3108186   -26353.868    19224.074   -60232.036   -38053.641    3255.0298    -2583.257   -23810.558    80.108622 
   47600    932.09534   -116.28645   0.84337945   -115.44307   -28376.736    4.3164836    4.3164836    4.3164836   -28376.736    15680.687   -67980.651   -32830.243   -7377.3821   -12852.889   -31367.223    80.424854 
   47700    1408.6063    -116.7055    1.2745366   -115.43096    34893.054    4.2930521    4.2930521    4.2930521    34893.054    49994.047    15503.771    39181.345    4013.0391    8134.4842     8690.793    79.122221 
   47800     922.2576   -116.28044   0.83447806   -115.44596   -19337.286    4.3112761    4.3112761    4.3112761   -19337.286    13072.188   -38577.794   -32506.251    9041.4931    5845.5592     -18706.3    80.134129 
   47900    691.48135   -116.07142   0.62566686   -115.44575    -18979.82    4.3141995    4.3141995    4.3141995    -18979.82    24485.009    -56331.34   -25093.129   -6429.4037   -8130.0139   -39661.971    80.297249 
   48000    1524.2945   -116.81056    1.3792137   -115.43134    18347.885    4.3011609    4.3011609    4.3011609    18347.885     47428.09   -12524.301    20139.865    10118.213    7014.8848    7619.2603    79.571412 
   48100    1151.2067   -116.48091     1.041636   -115.43927   -14450.047    4.3117413    4.3117413    4.3117413   -14450.047    3559.0927    -21505.34   -25403.895    3469.1936    10202.668   -7875.6883    80.160068 
   48200    668.44015   -116.05262    0.6048187    -115.4478   -10320.629    4.3043457    4.3043457    4.3043457   -10320.629    22530.773   -26189.524   -27303.135     4686.098    6009.7636   -41125.045      79.7483 
   48300    1506.8161   -116.80396    1.3633988   -115.44056    7989.7722    4.3048739    4.3048739    4.3048739    7989.7722    36909.486   -17678.423    4738.2534   -8140.2837   -19961.759   -4287.7235    79.777662 
   48400    1319.1867   -116.63379    1.1936279   -115.44016   -9770.8501    4.3172463    4.3172463    4.3172463   -9770.8501    20511.794   -31160.541   -18663.803   -3481.4418    13306.857   -284.34268    80.467495 
   48500    684.27131   -116.06575   0.61914306   -115.44661     3506.488    4.3009651    4.3009651    4.3009651     3506.488    63546.472   -31512.924   -21514.084    4076.4377    7262.0559   -39269.032    79.560547 
   48600     1354.558   -116.66569    1.2256326   -115.44006    4605.9698     4.306558     4.306558     4.306558    4605.9698    14776.207   -3827.4201    2869.1225     -483.008   -1820.4812   -8379.0788    79.871328 
   48700    1625.7598   -116.90624    1.4710216   -115.43522   -744.58258    4.3112503    4.3112503    4.3112503   -744.58258    7444.4903   -13971.631    4293.3932   -4398.9553    1131.7472    7357.4543    80.132686 
   48800    807.09026   -116.17631   0.73027223   -115.44603    10795.879    4.3010065    4.3010065    4.3010065    10795.879    49864.599   -13680.243   -3796.7193    -15.22037    9492.1768   -41351.377    79.562846 
   48900    1122.9609   -116.46516    1.0160786   -115.44909   -10826.189    4.3181212    4.3181212    4.3181212   -10826.189   -1492.5094   -19707.352   -11278.707   -869.98272    13739.577   -16500.082    80.516422 
   49000     1636.099   -116.91067    1.4803768   -115.43029    125.80367    4.3185063    4.3185063    4.3185063    125.80367    5279.1989   -4390.7121   -511.07577   -10323.814   -10313.715    10689.686    80.537968 
   49100    873.87022   -116.22561   0.79069614   -115.43492     10707.07    4.3014432    4.3014432    4.3014432     10707.07    43594.607   -16908.116    5434.7196    7139.3334    6957.5427    -35786.37    79.587079 
   49200    837.37833   -116.20131   0.75767751   -115.44363   -1350.6001    4.3083527    4.3083527    4.3083527   -1350.6001    22313.142     1576.707   -27941.649    5572.1424    11679.089   -22833.083    79.971222 
   49300    1620.4016   -116.89968    1.4661734   -115.43351    302.52136    4.3134711    4.3134711    4.3134711    302.52136   -1590.2384   -5804.0609    8301.8634    5270.6068    7092.4202    10187.901    80.256583 
   49400     938.3394   -116.29266   0.84902921   -115.44363    9783.4756    4.3093379    4.3093379    4.3093379    9783.4756    32714.578   -13395.417    10031.266   -10776.423   -5577.4266   -20408.883    80.026099 
   49500    805.24714   -116.17343   0.72860454   -115.44483   -18061.266    4.3082058    4.3082058    4.3082058   -18061.266   -6658.5302   -11720.713   -35804.554    1579.2575    17968.897   -33377.763    79.963047 
   49600    1394.4496   -116.69705    1.2617273   -115.43533    11604.694    4.3023117    4.3023117    4.3023117    11604.694   -4212.9866    29443.316    9583.7511    3341.8286    6618.7643    3255.2595    79.635297 
   49700    1207.0016   -116.53576    1.0921205   -115.44364    3695.4495     4.311159     4.311159     4.311159    3695.4495    13678.939   -2679.0088    86.417898     -13396.4   -12291.848   -2916.1234    80.127599 
   49800    735.48442   -116.11001   0.66548176   -115.44453   -21334.104    4.3156144    4.3156144    4.3156144   -21334.104    -2744.956   -21929.348   -39328.007   -8105.9086    922.02633   -36315.935    80.376278 
   49900    1189.1865   -116.51286    1.0760009   -115.43686    6186.7341    4.3009273    4.3009273    4.3009273    6186.7341    21539.491   -2822.5087   -156.77974    -1822.295    14146.451   -7885.7216     79.55845 
   50000    1418.4808   -116.72093    1.2834712   -115.43745    303.20924    4.3078605    4.3078605    4.3078605    303.20924    -13013.56    16029.838   -2106.6502    1499.8661     9492.067    9133.0278    79.943821 
   50100    577.53859   -115.96902   0.52256906   -115.44645   -15682.926    4.3207743    4.3207743    4.3207743   -15682.926     33419.09   -49370.762   -31097.107   -1097.1762   -8215.9201   -35546.209    80.664928 
   50200    1072.0899   -116.41158   0.97004951   -115.44154   -14266.941    4.3087502    4.3087502    4.3087502   -14266.941   -13217.632   -25165.593   -4417.5972    178.13876    10105.774   -17837.372     79.99336 
   50300    1472.5251   -116.76233    1.3323716   -115.42996    9225.5794    4.2963797    4.2963797    4.2963797    9225.5794   -10004.343    19247.038    18434.044    1081.1582   -1648.7544    13428.218     79.30635 
   50400    575.23247   -115.97186   0.52048243   -115.45137   -3725.8652    4.3111759    4.3111759    4.3111759   -3725.8652    20406.393     -15057.1   -16526.889    5258.9825   -5741.9796   -22543.593    80.128542 
   50500     747.4851   -116.12379   0.67634023   -115.44745   -13258.815    4.3185601    4.3185601    4.3185601   -13258.815   -4773.4198   -19441.338   -15561.686   -2799.2422   -864.61878   -26016.545     80.54098 
   50600    1381.2905   -116.68327    1.2498207   -115.43345    4529.2456    4.3089077    4.3089077    4.3089077    4529.2456   -22603.734    18802.495    17388.975   -2797.3004   -3831.9727    6688.4234    80.002136 
   50700    848.94969    -116.2115   0.76814752   -115.44335    -3026.249    4.3027886    4.3027886    4.3027886    -3026.249   -3503.9638   -11738.353    6163.5696    11059.448    3658.4311   -17049.351    79.661782 
   50800    572.31135   -115.96701   0.51783934   -115.44917   -5524.9664    4.3120228    4.3120228    4.3120228   -5524.9664     4434.933   -20191.922   -817.90996   -2466.6745   -9725.2534   -29496.452    80.175773 
   50900    1275.0215   -116.58755    1.1536663   -115.43389   -4241.8771     4.320707     4.320707     4.320707   -4241.8771    -14774.65   -9999.7929    12048.811    3101.8772    3280.9893    6956.5942    80.661158 
   51000    1200.6111   -116.52391    1.0863382   -115.43758    1315.0926    4.2998132    4.2998132    4.2998132    1315.0926   -11951.897    -14891.59    30788.765    10149.203     6558.617    -6814.856    79.496641 
   51100    553.96553   -115.94914   0.50123965    -115.4479    2710.6465    4.3000639    4.3000639    4.3000639    2710.6465    2369.7733    1965.9429    3796.2231    2469.1472   -7121.9921   -28785.199    79.510546 
   51200    1045.7358   -116.38692   0.94620376   -115.44072    -11143.08     4.321329     4.321329     4.321329    -11143.08   -323.53933   -14633.136   -18472.564   -4087.7555   -1214.9158     4027.732    80.695996 
   51300    1388.8546   -116.69052    1.2566648   -115.43385    11155.648    4.3033942    4.3033942    4.3033942    11155.648   -2899.1542    25968.226    10397.873      2516.33   -967.65307    5069.9173    79.695427 
   51400    606.96735    -115.9945   0.54919681   -115.44531   -8132.8898    4.3014961    4.3014961    4.3014961   -8132.8898   -4576.9507   -8667.5067   -11154.212    19545.842    6870.4707   -36430.023     79.59002 
   51500    977.12436   -116.33071   0.88412266   -115.44658    -17363.72    4.3123395    4.3123395    4.3123395    -17363.72   -6989.6555   -29022.087   -16079.416    -1288.418   -10085.335   -20640.805    80.193435 
   51600    1444.9858   -116.74334    1.3074536   -115.43588    19054.671    4.3060602    4.3060602    4.3060602    19054.671    21674.418    20127.019    15362.577   -8822.8408    2007.5938    12038.979    79.843634 
   51700    802.81315    -116.1739   0.72640221    -115.4475   -21348.748    4.3120617    4.3120617    4.3120617   -21348.748   -18539.566   -32846.025   -12660.653    2130.6247    13611.138   -26751.553    80.177944 
   51800    685.90264   -116.06933   0.62061912   -115.44871   -18766.237    4.3074256    4.3074256    4.3074256   -18766.237   -12919.708   -43796.457    417.45607    16055.217   -1296.6064   -35812.493    79.919611 
   51900    1570.0523   -116.86235    1.4206163   -115.44173     22044.41    4.3013026    4.3013026    4.3013026     22044.41    31130.478    11648.926    23353.826    7548.8249    2812.3232    14623.273    79.579276 
   52000     1160.932   -116.50018    1.0504357   -115.44975   -12065.181    4.3154441    4.3154441    4.3154441   -12065.181   -9888.0315   -22702.714   -3604.7983   -5804.3066    2752.4597   -12320.897    80.366762 
   52100    634.60899   -116.02527   0.57420755   -115.45106   -19103.417    4.3083998    4.3083998    4.3083998   -19103.417   -9025.7733     -31872.5   -16411.978    2799.0017    11343.009   -36376.838    79.973848 
   52200    1403.1561   -116.71019    1.2696051   -115.44059    11452.434    4.3063709    4.3063709    4.3063709    11452.434    16538.069    11445.808     6373.424   -640.46653   -6033.6004    7528.4482    79.860917 
   52300    1582.7565   -116.86636    1.4321114   -115.43425   -3371.2351    4.3148061    4.3148061    4.3148061   -3371.2351   -933.11632    4408.6119   -13589.201   -1938.1689   -3326.3375   -5307.8805    80.331125 
   52400    789.79858   -116.16186   0.71462635   -115.44723    10468.215     4.299748     4.299748     4.299748    10468.215    24581.276    3779.2401    3044.1293    5056.9841    2032.0925   -37410.065    79.493022 
   52500    1130.2305   -116.47085    1.0226563    -115.4482    3528.2924     4.309106     4.309106     4.309106    3528.2924   -262.10234   -8191.4727    19038.452     5946.276    1371.9307   -15641.983    80.013178 
   52600    1592.4038   -116.87264    1.4408404    -115.4318   -1977.1108    4.3192192    4.3192192    4.3192192   -1977.1108   -27113.958      2499.02    18683.605   -2760.2119   -4176.3568    6841.3192    80.577859 
   52700    883.58849   -116.23722   0.79948943   -115.43773    13183.777    4.3042235    4.3042235    4.3042235    13183.777    23307.937    2214.2657     14029.13   -6772.2844   -9694.7121    -31616.32    79.741508 
   52800     1201.978   -116.52785    1.0875749   -115.44027   -12400.997     4.306621     4.306621     4.306621   -12400.997    -11183.51   -28064.453    2044.9727    14631.923     12497.01   -30376.967    79.874834 
   52900    1697.6826   -116.97017    1.5360989   -115.43407   -3978.3222    4.3107307    4.3107307    4.3107307   -3978.3222   -25721.368     8378.528    5407.8734    9473.7027    3043.3398    12178.275     80.10372 
   53000    1263.1502   -116.58547    1.1429248   -115.44254   -15899.196    4.3120087    4.3120087    4.3120087   -15899.196   -7319.6329   -8146.1457    -32231.81   -7664.9938   -6654.6199   -14243.291    80.174987 
   53100    940.87892   -116.29709   0.85132702   -115.44577   -13906.935    4.3133197    4.3133197    4.3133197   -13906.935     -1599.78   -40068.035   -52.990719    8086.5665   -2069.1145   -26782.176    80.248133 
   53200    1766.1591   -117.03121    1.5980578   -115.43315    721.49675    4.3055186    4.3055186    4.3055186    721.49675   -13781.876   -5005.6107    20951.977    14928.146    1463.1047    5875.2837     79.81351 
   53300    1352.6688    -116.6634    1.2239232   -115.43948    14040.426    4.3050139    4.3050139    4.3050139    14040.426   -6131.4396    25928.191    22324.526   -4205.4371    2030.4326   -14416.129    79.785446 
   53400    879.90962   -116.24434   0.79616071   -115.44817   -16116.408    4.3176882    4.3176882    4.3176882   -16116.408    4066.1163   -35085.502   -17329.839   -1483.6435   -9579.1974   -31930.361    80.492205 
   53500    1402.5052   -116.71037    1.2690162   -115.44135    639.80781    4.3106992    4.3106992    4.3106992    639.80781   -13206.725    13223.886    1902.2632    8310.8713    1106.7153    8248.5426    80.101965 
   53600    1688.6579   -116.96109    1.5279331   -115.43315     19435.47    4.2974478    4.2974478    4.2974478     19435.47    6750.6509    30874.678    20681.082    1982.8529    1964.8505   -4184.8857    79.365514 
   53700    926.98305     -116.291   0.83875374   -115.45225    7545.0067    4.3112156    4.3112156    4.3112156    7545.0067    28607.291    19057.045   -25029.316   -11080.848   -7376.2583   -38932.782    80.130755 
   53800    1354.2389   -116.66446    1.2253438   -115.43911   -20987.743    4.3216593    4.3216593    4.3216593   -20987.743   -12870.498   -21592.907   -28499.826   -14962.263   -4904.5967   -9540.7426    80.714506 
   53900    1692.3478   -116.95979    1.5312718   -115.42852    13044.991    4.3004504    4.3004504    4.3004504    13044.991    4928.8671    18074.594    16131.511    756.41143    8227.4359    7383.7034    79.531989 
   54000    1162.8804   -116.49492    1.0521986   -115.44272    3516.7271    4.3027086    4.3027086    4.3027086    3516.7271    20715.207    11032.148   -21197.173   -91.783185    7062.2663   -30665.777    79.657338 
   54100    1175.2198   -116.50753    1.0633636   -115.44416   -21034.928    4.3221456    4.3221456    4.3221456   -21034.928   -14217.204   -18225.395   -30662.185    -7371.662   -14764.394   -22030.171    80.741753 
   54200    1642.0301   -116.91518    1.4857434   -115.42944   -9831.4737    4.3161252    4.3161252    4.3161252   -9831.4737   -22061.027   -1010.7343   -6422.6598   -9920.3488   -10999.873    12119.114    80.404823 
   54300    1196.9924   -116.51319    1.0830639   -115.43013   -11091.048    4.3076266    4.3076266    4.3076266   -11091.048     11763.88   -15628.813    -29408.21   -2313.7634    13581.021   -29808.267    79.930799 
   54400    1042.6442   -116.38021    0.9434064    -115.4368   -7137.4976    4.3050256    4.3050256    4.3050256   -7137.4976    18219.375   -15572.007    -24059.86   -1590.1271   -1463.7674   -33243.581    79.786093 
   54500    1458.3424   -116.75511    1.3195388   -115.43557   -1957.1095    4.3133529    4.3133529    4.3133529   -1957.1095   -3688.0683   -19849.315    17666.055   -6229.2281    -8004.847    10775.826    80.249988 
   54600    1220.6794   -116.54358    1.1044964   -115.43908   -12015.301    4.3151325    4.3151325    4.3151325   -12015.301    6139.4666   -32430.921   -9754.4491    4385.1976    11177.334   -17719.151    80.349359 
   54700    803.25923   -116.16952   0.72680583   -115.44272    4689.8159    4.3013904    4.3013904    4.3013904    4689.8159    45822.218   -34094.907    2342.1363   -261.95973     13802.89   -40449.349    79.584151 
   54800    1211.5561   -116.53627    1.0962415   -115.44003    6404.6755    4.3123358    4.3123358    4.3123358    6404.6755    15075.671   -14846.523    18984.879   -10452.417    4272.7307    7128.7327     80.19323 
   54900    1373.6605    -116.6747    1.2429169   -115.43178   -8405.0513    4.3162813    4.3162813    4.3162813   -8405.0513    11076.653   -33841.054    -2450.753   -5918.8635    100.93203   -583.35784    80.413548 
   55000    788.39559    -116.1513   0.71335689   -115.43795   -1353.6705    4.3031856    4.3031856    4.3031856   -1353.6705     64922.13   -33293.306   -35689.836    6195.1334    14285.198   -40923.487    79.683836 
   55100    1149.5707   -116.47882    1.0401557   -115.43866   -10049.966     4.309589     4.309589     4.309589   -10049.966    19358.131   -18362.338   -31145.691   -676.04807    8814.2289   -5526.0711    80.040088 
   55200    1386.5639   -116.68867    1.2545921   -115.43408    5002.1381    4.3093533    4.3093533    4.3093533    5002.1381    26688.752   -18886.525     7204.187   -6381.0377   -10002.722    11723.613    80.026959 
   55300    1046.2415   -116.38925   0.94666129   -115.44259   -5406.8227    4.3051361    4.3051361    4.3051361   -5406.8227    30914.005   -22385.106   -24749.368    3516.7514    6762.6617   -30641.713    79.792242 
   55400    885.12309   -116.24747   0.80087797   -115.44659   -16672.291    4.3131627    4.3131627    4.3131627   -16672.291    -6248.001   -15085.261   -28683.612    2635.4733    11703.054   -19244.789    80.239374 
   55500     1524.302   -116.81449    1.3792204   -115.43527   -2189.0303    4.3085733    4.3085733    4.3085733   -2189.0303    2098.8692   -12355.867    3689.9063   -13812.308   -5272.0036    17765.725     79.98351 
   55600      1245.94   -116.56517    1.1273527   -115.43782   -4689.0623    4.3053192    4.3053192    4.3053192   -4689.0623     19938.71   -25622.417   -8383.4807   -2323.2689   -2411.5643   -29007.633    79.802421 
   55700    944.11006   -116.30005   0.85425062    -115.4458   -15562.768    4.3084003    4.3084003    4.3084003   -15562.768    14353.164   -19125.088    -41916.38    6686.1498    14659.436   -37706.465    79.973876 
   55800     1472.094   -116.77168    1.3319816    -115.4397   -5877.6684    4.3098041    4.3098041    4.3098041   -5877.6684    3812.5539    4552.2419   -25997.801     4931.619    24551.406    14274.793    80.052074 
   55900    1386.2897   -116.69295     1.254344    -115.4386    3257.5439    4.3090766    4.3090766    4.3090766    3257.5439    33456.795   -10801.069   -12883.095   -7006.8538   -2352.1271   -12169.641    80.011543 
   56000    943.88904   -116.29771   0.85405064   -115.44366    5524.2086    4.3055506    4.3055506    4.3055506    5524.2086    58635.664   -11264.777   -30798.261   -1584.1752   -827.49258   -41069.802    79.815292 
   56100    1250.2398   -116.57066    1.1312433   -115.43941    9298.7768    4.3109555    4.3109555    4.3109555    9298.7768    36216.434    18566.406    -26886.51    7143.2217    13654.172     2109.761    80.116249 
   56200    1356.5318   -116.66063    1.2274185   -115.43322    11996.197    4.3137587    4.3137587    4.3137587    11996.197    45827.264    9687.9462   -19526.621    8617.2436   -1133.5306    2399.7981    80.272637 
   56300    1121.9227   -116.45365    1.0151392   -115.43851    7922.5413    4.3048869    4.3048869    4.3048869    7922.5413    77642.122    -22310.11   -31564.388   -719.75182    -4275.914   -37914.674    79.778384 
   56400    1252.1893   -116.57059    1.1330072   -115.43758    3382.7417    4.3091274    4.3091274    4.3091274    3382.7417    27300.602   -4390.8909   -12761.486   -4324.3012    20063.776   -10020.416    80.014373 
   56500     1479.097   -116.77098     1.338318   -115.43267   -3856.8503    4.3147806    4.3147806    4.3147806   -3856.8503    9593.6367    6680.3348   -27844.522   -1361.7786    15095.753    5793.8317    80.329699 
   56600     1218.867   -116.53706    1.1028564    -115.4342   -6933.3187    4.3089474    4.3089474    4.3089474   -6933.3187    47572.479   -32624.552   -35747.883   -2263.2529   -8127.3122   -42093.323    80.004346 
   56700    1351.2984   -116.65509    1.2226832    -115.4324   -4930.7404    4.3072583    4.3072583    4.3072583   -4930.7404    20034.881   -16081.163   -18745.939   -8695.8053    1684.6562   -17986.914    79.910299 
   56800    1535.6595   -116.82089     1.389497   -115.43139    -8365.484    4.3113605    4.3113605    4.3113605    -8365.484   -2927.0326   -1490.4071   -20679.012   -6835.4118    22251.908    11503.926    80.138832 
   56900    1162.6237   -116.48978    1.0519664   -115.43781   -10936.208    4.3079521    4.3079521    4.3079521   -10936.208    29063.892   -18165.858   -43706.657   -2177.3117    7378.5097    -37112.32     79.94892 
   57000    1076.9451   -116.41687   0.97444259   -115.44242    7986.2073    4.3087411    4.3087411    4.3087411    7986.2073    44403.499   -12949.795   -7495.0823    4986.0472   -5526.8435    -24658.01    79.992856 
   57100     1639.369   -116.91697    1.4833355   -115.43363   -1842.9933    4.3113334    4.3113334    4.3113334   -1842.9933    16370.707    -7240.726   -14658.961    1570.3363    3119.2226     17021.21    80.137321 
   57200    1043.1706   -116.38423   0.94388267   -115.44035    9235.4965    4.3036784    4.3036784    4.3036784    9235.4965    46783.469   -7529.2571   -11547.722     4116.778    2674.7124   -30169.152    79.711214 
   57300    898.90137   -116.25934   0.81334485     -115.446    -3298.116     4.311138     4.311138     4.311138    -3298.116    47154.167   -40021.676   -17026.839    5566.9604   -7522.8457   -34274.205    80.126427 
   57400    1538.6429   -116.82585    1.3921964   -115.43365    3153.6114    4.3090787    4.3090787    4.3090787    3153.6114    32112.995   -21001.001   -1651.1597   -2763.1942   -3435.1497    19143.925    80.011659 
   57500    1140.7482   -116.47005    1.0321729   -115.43787    10760.447    4.3011561    4.3011561    4.3011561    10760.447    38193.569   -22610.469    16698.241   -3537.3974    3375.9922   -17799.853    79.571143 
   57600    810.05683   -116.18155   0.73295644    -115.4486   -13259.947    4.3110847    4.3110847    4.3110847   -13259.947    38236.527   -55437.521   -22578.847    172.73444     3551.618   -51221.818    80.123454 
   57700    1390.9218   -116.69911    1.2585353   -115.44058    10803.799    4.3033148    4.3033148    4.3033148    10803.799    15159.078   -254.46841    17506.789   -3442.0182    4194.5736    7434.5975    79.691011 
   57800    1315.9669   -116.63306    1.1907145   -115.44234    4145.3967    4.3035406    4.3035406    4.3035406    4145.3967    14500.533   -16493.939    14429.596    2141.1774    2160.5512    1750.9878    79.703561 
   57900    633.22943   -116.02452   0.57295929   -115.45156   -26913.599    4.3136077    4.3136077    4.3136077   -26913.599    23659.504   -66440.047   -37960.254   -7160.6158    1513.8177   -50452.129     80.26421 
   58000    1182.2746   -116.51438    1.0697469   -115.44463    3190.5967    4.2996755    4.2996755    4.2996755    3190.5967   -142.86794     6918.895    2795.7631    145.75591    11754.598   -11610.598    79.489002 
   58100    1494.7658   -116.79485    1.3524955   -115.44236    2269.4494    4.3058208    4.3058208    4.3058208    2269.4494    2575.8057   -13549.261    17781.804    5130.6509    -413.3958    7953.1214    79.830317 
   58200    1027.0755   -116.37789   0.92931948   -115.44857   -13545.079    4.3081218    4.3081218    4.3081218   -13545.079    24141.802    -54673.62   -10103.419   -8142.9945   -1161.7117   -37877.879    79.958368 
   58300     888.4918   -116.25135   0.80392605   -115.44743    14578.594    4.3002992    4.3002992    4.3002992    14578.594    4964.2125   -8465.7572    47237.327   -6851.0583    10066.172   -22633.505    79.523596 
   58400    1376.4335   -116.68825     1.245426   -115.44282   -10208.458    4.3137419    4.3137419    4.3137419   -10208.458   -19777.544   -10628.441   -219.38933    5147.0444    19036.719    16999.175      80.2717 
   58500    1243.6957   -116.56745     1.125322   -115.44213    5060.7046    4.3016822    4.3016822    4.3016822    5060.7046    12302.144   -17281.028    20160.997    2934.3822    2547.1076   -17357.182    79.600346 
   58600    1165.7198   -116.49901    1.0547677   -115.44424     8510.204    4.2982895    4.2982895    4.2982895     8510.204    15239.277   -9179.1031    19470.438    -3963.846   -2352.5255   -32885.638    79.412157 
   58700    1213.2304   -116.53916    1.0977564    -115.4414   -23585.915    4.3197422    4.3197422    4.3197422   -23585.915   -26091.838   -14696.193   -29969.712    2374.7608    25211.548     11573.29    80.607133 
   58800    1218.7659   -116.54375     1.102765   -115.44098    5725.4964    4.3016553    4.3016553    4.3016553    5725.4964     2430.778     4301.863    10443.848    5795.4972    13303.751    2656.8054    79.598856 
   58900    1284.6813   -116.60221    1.1624066   -115.43981    15979.391    4.2971171    4.2971171    4.2971171    15979.391    23157.985    10761.976    14018.213   -6713.7723   -9723.2137   -30910.492    79.347194 
   59000    1242.1686   -116.56453    1.1239403   -115.44059   -10207.874    4.3172051    4.3172051    4.3172051   -10207.874   -9109.6476   -9400.8341    -12113.14   -7096.5385    4731.6554    -7926.777    80.465193 
   59100    1187.4078    -116.5161    1.0743915   -115.44171    11477.485    4.3027658    4.3027658    4.3027658    11477.485    8628.5367    16147.376    9656.5427    867.51492    25486.782    14261.014    79.660519 
   59200    1275.3615   -116.59795    1.1539739   -115.44398    12927.299    4.3021731    4.3021731    4.3021731    12927.299    19415.029    29523.568   -10156.701     9576.741    6116.8307   -10082.229    79.627604 
   59300    1616.1349   -116.90171    1.4623128   -115.43939   -4505.6407    4.3116846    4.3116846    4.3116846   -4505.6407    7559.0121   -3981.9013   -17094.033   -794.75071   -8609.7674   -17772.375    80.156907 
   59400    1168.9656   -116.49905    1.0577046   -115.44135    23545.109    4.3024249    4.3024249    4.3024249    23545.109    28883.459     28606.46    13145.409   -9542.4208    19014.204    9465.9218    79.641585 
   59500    1215.5619   -116.54452    1.0998659   -115.44465   -3354.6038    4.3134168    4.3134168    4.3134168   -3354.6038   -15082.855    23907.011   -18887.967    13944.553      19070.5    3044.4807    80.253553 
   59600    1753.1343   -117.02377    1.5862727    -115.4375     2776.007    4.3061325    4.3061325    4.3061325     2776.007    401.22487    7582.1683    344.62793   -526.57185   -1763.5416   -4475.6908    79.847657 
   59700    1366.7187   -116.67675    1.2366358   -115.44012    35285.056    4.2911311    4.2911311    4.2911311    35285.056    29822.366     45066.34    30966.464    -20996.74    7610.9084    524.06169    79.016057 
   59800    989.82748    -116.3497    0.8956167   -115.45408   -20015.257    4.3174519    4.3174519    4.3174519   -20015.257    -34578.68    10927.472   -36394.562   -134.83699    26770.814    10928.126    80.478993 
   59900    1433.5378   -116.74025    1.2970951   -115.44315    -1223.573    4.3112862    4.3112862    4.3112862    -1223.573    -641.5704    13197.279   -16226.427    13444.892    3341.2687    3234.1377     80.13469 
   60000    1671.5727   -116.94507    1.5124741   -115.43259     25381.68    4.2932914    4.2932914    4.2932914     25381.68    21272.985    34049.999    20822.056   -5098.0321   -9107.2318   -12749.865    79.135453 
   60100    940.10543    -116.3002   0.85062715   -115.44958    -12129.49    4.3106577    4.3106577    4.3106577    -12129.49   -34730.337    19804.328   -21462.462   -23368.273    26472.022    8197.0019    80.099647 
   60200    1168.1409   -116.50367    1.0569585   -115.44671   -3306.7578     4.306911     4.306911     4.306911   -3306.7578   -7761.7679    10476.571   -12635.077    1748.1122    13032.737    17993.271     79.89097 
   60300    1628.8359   -116.91165    1.4738049   -115.43784    16227.938    4.3042722    4.3042722    4.3042722    16227.938    9036.4656    16173.778    23473.572   -2059.6933   -7586.2714    3689.2461    79.744212 
   60400    1331.5091   -116.64843    1.2047774   -115.44365   -10434.123    4.3115582    4.3115582    4.3115582   -10434.123   -25223.201   -2322.9472   -3756.2214   -24708.318    9506.0598   -9390.2611    80.149855 
   60500    1080.4468   -116.42216   0.97761093   -115.44455    11029.816    4.2985944    4.2985944    4.2985944    11029.816   -14097.854    25085.824    22101.478   -7594.4429    24750.937    4276.4322    79.429056 
   60600    1534.1749   -116.83044    1.3881537   -115.44229   -1442.0503     4.310174     4.310174     4.310174   -1442.0503    3961.8093    188.38029   -8476.3404    5600.8949    7443.0875    15333.755     80.07269 
   60700    1432.2959   -116.73606    1.2959715   -115.44009    -21612.91    4.3159979    4.3159979    4.3159979    -21612.91   -26654.312   -24273.027   -13911.389   -21341.246   -6136.6119   -12325.459    80.397707 
   60800    1070.2881   -116.40732   0.96841918    -115.4389    12616.786    4.2905786    4.2905786    4.2905786    12616.786   -3156.0271    13754.345    27252.041   -20558.353    23533.996   -5108.2027    78.985541 
   60900    1309.0505   -116.63171    1.1844564   -115.44725   -1060.9341    4.3048763    4.3048763    4.3048763   -1060.9341    1074.1844    8842.2231    -13099.21     13974.94    19902.159    13416.529    79.777795 
   61000    1352.4368   -116.66471    1.2237133     -115.441    -15234.16    4.3158504    4.3158504    4.3158504    -15234.16   -12675.733   -27500.568   -5526.1794   -2074.8683   -9302.9033   -8768.8228    80.389468 
   61100    1007.6534   -116.35321   0.91174599   -115.44146    10364.098    4.2931607    4.2931607    4.2931607    10364.098    10509.294   -16007.164    36590.165   -27871.298    3996.1215   -11747.627    79.128227 
   61200    1019.2095    -116.3705   0.92220219    -115.4483   -6269.0509    4.3057353    4.3057353    4.3057353   -6269.0509   -24078.481    18462.113   -13190.784   -1174.5211    25835.129    5765.2607     79.82556 
   61300    1312.9534   -116.62764    1.1879879   -115.43965   -11525.861    4.3116545    4.3116545    4.3116545   -11525.861   -22408.628   -3855.3125   -8313.6433    4794.1509    8916.9572    3167.9907    80.155227 
   61400    1203.9074   -116.52929    1.0893207   -115.43997    4899.0254    4.2956435    4.2956435    4.2956435    4899.0254    11345.257   -9066.8295    12418.649   -14732.433   -9550.7673   -23064.258    79.265589 
   61500    760.35888   -116.13833    0.6879887   -115.45034   -15765.145    4.3084672    4.3084672    4.3084672   -15765.145   -46311.122        25588   -26572.312   -5307.2739    27080.402   -8380.0712    79.977599 
   61600    1136.6769   -116.47134    1.0284892   -115.44286   -14271.961    4.3073564    4.3073564    4.3073564   -14271.961   -42936.573    21439.229    -21318.54    9623.0598    29897.394    14701.626    79.915759 
   61700    1316.8652    -116.6289    1.1915273   -115.43737    8761.2309    4.2997112    4.2997112    4.2997112    8761.2309    954.23217    5946.9197    19382.541   -4136.7027   -11142.058   -978.16364    79.490979 
   61800    830.02883   -116.19712   0.75102753    -115.4461   -16464.487    4.3128283    4.3128283    4.3128283   -16464.487   -30105.403   -3764.5972    -15523.46    -18715.46    10499.922   -16082.486    80.220711 
   61900    820.17024   -116.18941   0.74210727    -115.4473   -4351.0619    4.2981276    4.2981276    4.2981276   -4351.0619   -34268.077    22148.545   -933.65371    1980.2448    38889.315   -6403.5265    79.403182 
   62000    1175.3737   -116.50718    1.0635028   -115.44368    19205.907    4.2970193    4.2970193    4.2970193    19205.907    3038.0882    25952.222    28627.411    5079.1077   -1690.2834    5953.4053    79.341774 
   62100    1095.6418    -116.4337   0.99135971   -115.44234    -11034.53     4.316924     4.316924     4.316924    -11034.53   -18411.743   -7613.3328   -7078.5133   -4529.3319   -12213.067   -11886.734    80.449476 
   62200    688.91099      -116.07   0.62334114   -115.44666    4584.9882    4.2998896    4.2998896    4.2998896    4584.9882   -14367.404    20432.949    7689.4191   -11399.536    37118.692   -11333.012    79.500877 
   62300    981.52182   -116.33229   0.88810157   -115.44419    13947.818    4.2979569    4.2979569    4.2979569    13947.818   -9151.0271    37595.452    13399.029    1989.7288    24167.214    -2594.587    79.393723 
   62400    1492.0577   -116.78624    1.3500452   -115.43619   -2189.9447    4.3101451    4.3101451    4.3101451   -2189.9447   -26346.943    15077.708    4699.4009    7546.6136    -17511.44    1064.6679    80.071078 
   62500    849.41038   -116.21623   0.76856436   -115.44767    4536.0986    4.3012869    4.3012869    4.3012869    4536.0986   -11488.516    13065.511      12031.3   -9992.6292    16614.221   -3329.7311    79.578408 
   62600    656.67785   -116.04683   0.59417592   -115.45265   -9780.3209    4.3083159    4.3083159    4.3083159   -9780.3209   -39223.759    18821.577   -8938.7805   -4880.4746    41134.805   -8238.8904    79.969177 
   62700    1479.6456   -116.77774    1.3388144   -115.43893    2140.1192    4.3054837    4.3054837    4.3054837    2140.1192   -24867.607    12821.238    18466.727    1743.4834   -4870.3425    1105.8868    79.811569 
   62800    1350.5923   -116.66362    1.2220443   -115.44158    9665.2049    4.2941089    4.2941089    4.2941089    9665.2049   -9275.4709    17275.017    20996.068    19.601943    204.44308    832.75052    79.180668 
   62900    526.61625   -115.93309   0.47649345    -115.4566   -20916.868    4.3123863    4.3123863    4.3123863   -20916.868   -58953.815    9790.1712    -13586.96   -3925.1251    46928.948   -9823.4638    80.196052 
   63000    1177.5709   -116.51381    1.0654909   -115.44832   -10433.189     4.305806     4.305806     4.305806   -10433.189   -30576.852   -8837.5004    8114.7861   -12314.416    7782.4181    928.05716    79.829493 
   63100    1658.9721   -116.93703    1.5010728   -115.43596    20519.005    4.2912189    4.2912189    4.2912189    20519.005    2652.4347    26441.809    32462.772    20.014386   -9359.9035    8852.1666    79.020904 
   63200    1040.7045   -116.39066   0.94165126   -115.44901   -20154.734    4.3135511    4.3135511    4.3135511   -20154.734   -56248.348    10757.001   -14972.854   -3752.8494    41825.712   -334.31595     80.26105 
   63300    977.31673    -116.3332   0.88429672   -115.44891    -6612.058    4.3063221    4.3063221    4.3063221    -6612.058   -33623.068   -5171.4988    18958.392   -8351.4362    22437.627    -16829.99    79.858201 
   63400    1502.8829   -116.79887    1.3598401   -115.43903    23200.112    4.2905309    4.2905309    4.2905309    23200.112    6451.6655    23321.495    39827.176    2228.6698   -8104.9062   -5236.1563    78.982903 
   63500    1283.7125   -116.60593    1.1615301    -115.4444    157.82154     4.307507     4.307507     4.307507    157.82154   -34437.226     16234.36    18676.331    3759.3165    15232.887    10397.328    79.924139 
   63600    1115.8807   -116.45647    1.0096723    -115.4468   -1003.1917    4.3064695    4.3064695    4.3064695   -1003.1917   -33867.904    22440.968    8417.3602   -11104.759    35995.444   -5844.1026    79.866402 
   63700    1243.4716    -116.5684    1.1251192   -115.44328    14558.919    4.2982466    4.2982466    4.2982466    14558.919     1901.761     27882.67    13892.327   -15872.781   -1742.3239   -12098.063     79.40978 
   63800    1449.7672   -116.75334    1.3117798   -115.44156   -2051.5747     4.304163     4.304163     4.304163   -2051.5747     -17811.6    -4002.645    15659.521    10130.753   -4464.5718    1090.4255    79.738147 
   63900    1338.4595   -116.65513    1.2110663   -115.44406    1902.3969    4.3021108    4.3021108    4.3021108    1902.3969   -17199.312     33937.38   -11030.878    9698.8289     30270.72    10356.514    79.624145 
   64000    1201.6049   -116.53265    1.0872373   -115.44542    957.93986    4.3038187    4.3038187    4.3038187    957.93986   -10699.466    11381.354     2191.932   -23823.853     9412.577   -4054.7379     79.71901 
   64100    1321.2792   -116.63975    1.1955212   -115.44423   -11296.176    4.3055661    4.3055661    4.3055661   -11296.176   -9968.9257   -29612.325    5692.7216     -10564.4    -7169.662   -19864.313    79.816153 
   64200     1322.862    -116.6407    1.1969533   -115.44375    9810.5109    4.2990173    4.2990173    4.2990173    9810.5109    1930.4703     19094.95    8406.1123    20451.436    15409.916   -4811.2988    79.452502 
   64300    1415.0933   -116.72528    1.2804062   -115.44487   -1410.5443    4.3033483    4.3033483    4.3033483   -1410.5443   -15522.434    4415.4434    6875.3579   -3142.6769    18341.904    -1062.675    79.692872 
   64400    1220.6221   -116.55181    1.1044445   -115.44737   -7429.5823    4.3065929    4.3065929    4.3065929   -7429.5823   -14270.525   -24027.128    16008.907   -24325.391   -3740.1605   -11380.714    79.873267 
   64500    1172.3288   -116.50654    1.0607477    -115.4458    10631.776     4.301945     4.301945     4.301945    10631.776    2554.7068    7789.7556    21550.866    12771.177    2885.4201   -13949.586    79.614936 
   64600     1563.849   -116.85577    1.4150035   -115.44077    3081.7855    4.3058454    4.3058454    4.3058454    3081.7855   -8717.4016    14706.037    3256.7216    8054.5683    13137.896    932.04424    79.831684 
   64700    1407.0876   -116.71374    1.2731624   -115.44058    6122.6248    4.3061376    4.3061376    4.3061376    6122.6248   -7935.3541    2863.8732    23439.355   -27877.131   -4100.4801   -6617.8021    79.847939 
   64800    1221.8993    -116.5483    1.1056001    -115.4427     316.8594    4.3048194    4.3048194    4.3048194     316.8594    -7132.315   -7467.9906    15550.884    5127.3537    -2798.852   -14322.653    79.774634 
   64900    1530.0573   -116.82603     1.384428    -115.4416   -5192.8147    4.3038926    4.3038926    4.3038926   -5192.8147   -7040.5944   -14088.344    5550.4947    33039.477    9131.2816    2289.2238     79.72312 
   65000    1658.3754   -116.93861    1.5005329   -115.43808    4667.9371    4.3040099    4.3040099    4.3040099    4667.9371   -3827.9114   -1573.6112    19405.334   -14384.878    4750.1188    9051.1536    79.729636 
   65100    1409.4567   -116.71721     1.275306    -115.4419   -11597.218    4.3095151    4.3095151    4.3095151   -11597.218   -12210.516    -16680.06   -5901.0768   -18929.202   -2405.4281   -6373.6863    80.035974 
   65200     1219.837   -116.54793    1.1037342    -115.4442   -5814.3711    4.3068921    4.3068921    4.3068921   -5814.3711   -14609.479   -14812.371    11978.737    28634.196   -6765.0734   -16485.289    79.889919 
   65300    1489.8757   -116.78816    1.3480709   -115.44008    11012.498    4.3029456    4.3029456    4.3029456    11012.498   -2675.5362    17813.181    17899.849     10316.89   -371.86657    9507.9921    79.670502 
   65400    1498.1777   -116.79556    1.3555826   -115.43998    1442.2094     4.303447     4.303447     4.303447    1442.2094   -5260.3099    7713.7605    1873.1776   -21021.302    7646.4836    8796.4038    79.698359 
   65500    1044.7406   -116.39262   0.94530326   -115.44732    7965.8367     4.303869     4.303869     4.303869    7965.8367   -9631.1185   -9842.2567    43370.885    23656.581    1971.5822   -17083.249    79.721807 
   65600    1356.7671   -116.67027    1.2276314   -115.44264   -479.58694    4.3099539    4.3099539    4.3099539   -479.58694   -10956.104   -4152.1135    13669.456    26162.149    -2938.176   -16999.108     80.06042 
   65700    1564.8691    -116.8516    1.4159265   -115.43567    5369.3383    4.3062614    4.3062614    4.3062614    5369.3383   -4588.1585    706.83088    19989.343   -21328.554    3769.5625    12886.895    79.854824 
   65800    1185.7664   -116.51428    1.0729064   -115.44138    6318.3482    4.2985939    4.2985939    4.2985939    6318.3482   -6175.5478   -17772.029    42902.621    10625.061    1454.9247    9974.2994    79.429028 
   65900    1192.9643   -116.52467    1.0794192   -115.44525     140.7688     4.305007     4.305007     4.305007     140.7688   -11869.481   -4291.0449    16582.833    34758.826    4284.3529   -11456.057    79.785064 
   66000    1517.8511   -116.81109    1.3733836    -115.4377    1109.0835    4.3105445    4.3105445    4.3105445    1109.0835   -9789.2307    4508.3671    8608.1139   -5419.7685    422.79117    7415.1126    80.093337 
   66100     1234.864   -116.55813    1.1173309    -115.4408    2088.5698    4.3003067    4.3003067    4.3003067    2088.5698   -241.22808    4429.3429    2077.5947    132.08836   -5833.6701    15332.225    79.524012 
   66200    976.80425   -116.32942   0.88383301   -115.44558   -829.66095    4.3022751    4.3022751    4.3022751   -829.66095   -23327.888   -1811.7836    22650.689    31823.306    2082.5952   -6391.9195    79.633268 
   66300    1440.4486    -116.7409    1.3033481   -115.43755   -4882.1478    4.3118683    4.3118683    4.3118683   -4882.1478    -12610.31   -7506.9902    5470.8565    3633.0072   -5819.1165   -5965.1181    80.167152 
   66400    1238.4604   -116.55817     1.120585   -115.43759    6229.0017    4.3021518    4.3021518    4.3021518    6229.0017    863.35828    13354.407    4469.2393   -9348.7879   -3159.0467    11085.991    79.626422 
   66500    759.36265   -116.13412   0.68708728   -115.44703   -6966.7107    4.3006741    4.3006741    4.3006741   -6966.7107   -33001.134   -23168.845    35269.847    40050.055    342.89389    8781.8611    79.544397 
   66600    1230.8694   -116.55713    1.1137165   -115.44341   -12326.329    4.3090632    4.3090632    4.3090632   -12326.329   -35453.849   -13602.356    12077.216    23384.867   -6345.8628   -11059.156    80.010794 
   66700    1321.4247   -116.63245    1.1956529    -115.4368    10077.386    4.3050633    4.3050633    4.3050633    10077.386    7836.5648    22004.351    391.24302   -10479.753   -5929.6491     10590.04    79.788192 
   66800    732.25873   -116.10856   0.66256308   -115.44599   -10160.457    4.3027597    4.3027597    4.3027597   -10160.457   -21467.381    -14604.16    5590.1692    29673.822   -326.61679    25432.147    79.660177 
   66900    827.02161   -116.19411   0.74830654    -115.4458   -8554.2548    4.3051119    4.3051119    4.3051119   -8554.2548   -34461.281   -7308.2157    16106.732     20834.56    2733.9793    2367.0971    79.790895 
   67000    1352.1979   -116.65982    1.2234971   -115.43632    9207.7992    4.3041669    4.3041669    4.3041669    9207.7992   -7949.1585    36906.282   -1333.7256   -14908.668   -2126.8251   -207.28552    79.738362 
   67100    937.87077   -116.29326   0.84860518   -115.44466    1536.3835    4.3035823    4.3035823    4.3035823    1536.3835   -10124.585    6610.2722    8123.4638    18421.518     -6026.56    4983.4457    79.705877 
   67200    623.96229   -116.01434   0.56457419   -115.44977   -5418.3103    4.3046224    4.3046224    4.3046224   -5418.3103   -23218.497   -15126.084    22089.651    35156.696    734.86829    11773.311    79.763681 
   67300    1353.9385    -116.6646     1.225072   -115.43953   -1560.5102    4.3050499    4.3050499    4.3050499   -1560.5102   -7326.2085    6299.4509   -3654.7729   -10804.494    973.69527    3712.5778    79.787448 
   67400    1196.4276   -116.52114    1.0825529   -115.43859   -6053.9811    4.3091684    4.3091684    4.3091684   -6053.9811   -11546.458   -4445.9702   -2169.5149    1771.4761   -9510.1478   -7888.1775    80.016656 
   67500    654.73821   -116.03703   0.59242089   -115.44461   -6990.0115    4.3044153    4.3044153    4.3044153   -6990.0115   -11747.022   -28538.687    19315.674    41141.562    3329.2018    3034.6334    79.752169 
   67600     1158.734   -116.48971    1.0484469   -115.44127    12972.869    4.2971858    4.2971858    4.2971858    12972.869    14705.579    11669.045    12543.983    8071.8281    4817.3284     1741.743    79.351001 
   67700    1518.7119   -116.81361    1.3741625   -115.43945    3987.3249    4.3058649    4.3058649    4.3058649    3987.3249   -6979.2843    14305.118    4636.1411   -10030.765   -7447.6668   -3355.2835    79.832768 
   67800    812.23429   -116.18616   0.73492666   -115.45123   -7024.8545    4.3063929    4.3063929    4.3063929   -7024.8545   -11744.493   -14217.725    4887.6549    32792.211   -2808.3762    7503.1109     79.86214 
   67900    807.47329   -116.18222    0.7306188    -115.4516    3386.1513    4.3039223    4.3039223    4.3039223    3386.1513    10021.911   -9529.8346     9666.377    27840.213   -3288.5371    14752.114    79.724767 
   68000    1596.2533    -116.8825    1.4443235   -115.43817    3429.3017    4.3071475    4.3071475    4.3071475    3429.3017    5523.2516   -6816.5654    11581.219   -13233.766    7624.3328    2641.3807    79.904131 
   68100    1287.0088   -116.60715    1.1645126   -115.44263    6549.4503    4.2991031    4.2991031    4.2991031    6549.4503   -4384.8149   -4033.9151    28067.081    14625.517    2549.7837   -3868.0705    79.457262 
   68200    712.22433   -116.09629   0.64443555   -115.45185    6301.3578     4.301329     4.301329     4.301329    6301.3578    14835.216   -18740.017    22808.874    38737.713   -9952.8761    7111.6489     79.58074 
   68300    1351.9423   -116.66668    1.2232658   -115.44342   -8894.3309    4.3109836    4.3109836    4.3109836   -8894.3309    -70.95983   -20489.507    -6122.526   -2704.5211    3490.3086     9193.376    80.117816 
   68400    1376.6294   -116.68301    1.2456032   -115.43741    15432.086    4.3014519    4.3014519    4.3014519    15432.086   -2909.8572    14893.163    34312.954    29.895708   -768.63115    -5886.193    79.587565 
   68500    1017.6628   -116.36416   0.92080266   -115.44335    338.29792    4.3029084    4.3029084    4.3029084    338.29792   -14066.926    -18127.33    33209.149    31200.927    -7318.541    -1924.965     79.66844 
   68600     1243.071   -116.56615    1.1247567    -115.4414   -6984.8897    4.3059727    4.3059727    4.3059727   -6984.8897    4414.8373   -23229.085   -2140.4214    6631.9273    7715.4263    5828.7535    79.838767 
   68700    1353.2009   -116.66369    1.2244046   -115.43929    9750.2298    4.3009282    4.3009282    4.3009282    9750.2298   -7752.8558    9243.0385    27760.507   -9293.8024    3425.8888    7302.9526    79.558498 
   68800    1176.4043   -116.50852    1.0644353   -115.44408   -13428.475    4.3080118    4.3080118    4.3080118   -13428.475   -37277.227   -31142.316    28134.117    21728.165    1271.7288    3046.6492    79.952243 
   68900    1225.0935    -116.5501    1.1084903   -115.44161   -5625.3575    4.3034724    4.3034724    4.3034724   -5625.3575   -16825.197   -24576.851    24525.975    24365.073   -2140.7595    240.15424    79.699772 
   69000    1277.7865    -116.5956     1.156168   -115.43943    7407.0216    4.3022652    4.3022652    4.3022652    7407.0216    12824.457    1169.2572    8227.3506   -12252.412   -1614.9214    5408.5964    79.632716 
   69100     1245.412    -116.5671     1.126875   -115.44023   -10946.927    4.3079023    4.3079023    4.3079023   -10946.927   -40270.734   -9682.7824    17112.737    4099.9067    19783.687   -3430.1724    79.946149 
   69200    1012.7451    -116.3583   0.91635307   -115.44195    3425.6746    4.3008564    4.3008564    4.3008564    3425.6746   -30701.643   -2868.7595    43847.426    26880.344   -2489.7394    209.06196    79.554516 
   69300    1314.7433   -116.63101    1.1896074   -115.44141   -7927.7382    4.3041835    4.3041835    4.3041835   -7927.7382   -10446.401   -6651.1053   -6685.7082    1982.4645   -10031.201    8750.9449    79.739283 
   69400    1361.8036   -116.67135    1.2321885   -115.43916    942.65223    4.3059935    4.3059935    4.3059935    942.65223   -3021.1224    619.21264    5229.8664   -1688.6818    5738.7921    3600.1223    79.839923 
   69500    1154.8603   -116.48706    1.0449419   -115.44212     -1617.49    4.3004313    4.3004313    4.3004313     -1617.49    -39441.45   -10837.888    45426.868     20312.71   -3430.4732   -2400.3047    79.530928 
   69600      1098.82   -116.43875   0.99423543   -115.44451   -13793.267    4.3066455    4.3066455    4.3066455   -13793.267   -30556.018   -8603.2229   -2220.5596    8631.8438   -1230.1461    4989.0772    79.876196 
   69700    1509.1202    -116.8042    1.3654837   -115.43871   -3762.8399    4.3056095    4.3056095    4.3056095   -3762.8399   -7232.4184    -2303.571   -1752.5302   -2900.2566   -2488.0202    9652.9975    79.818565 
   69800     1320.154   -116.63533    1.1945031   -115.44083     13657.21    4.2981654    4.2981654    4.2981654     13657.21   -12511.934    11928.176    41555.389     19730.91     -1788.62   -1240.3616     79.40528 
   69900    1002.3215   -116.35543   0.90692153   -115.44851   -10932.689    4.3046947    4.3046947    4.3046947   -10932.689   -47962.269   -13326.733    28490.936    15690.627   -6773.8173   -4522.5283    79.767701 
   70000    1308.0755   -116.62861    1.1835742   -115.44504    -128.2342    4.3048561    4.3048561    4.3048561    -128.2342   -8168.1028     384.9013    7398.4989   -14407.445   -13494.772     6602.348    79.776673 
   70100    1581.9557   -116.87112    1.4313867   -115.43974    9430.0598    4.3004692    4.3004692    4.3004692    9430.0598   -10367.184    16001.236    22656.128    14053.456    8083.6302    2519.6757    79.533032 
   70200    971.90309   -116.32807   0.87939834   -115.44867   -9979.8415    4.3045622    4.3045622    4.3045622   -9979.8415   -34665.269   -35632.162    40357.907    25835.343    8009.8493    3359.1991    79.760334 
   70300    1061.9197   -116.40922   0.96084728   -115.44837     2021.243    4.3012407    4.3012407    4.3012407     2021.243   -19329.569   -8619.9913    34013.289    -11326.98   -2498.6332   -9250.7015    79.575842 
   70400    1715.2781    -116.9888    1.5520197   -115.43678     76.62227    4.3054521    4.3054521    4.3054521     76.62227   -19039.812    14977.881    4291.7981   -4225.3538    -8041.461   -10972.869    79.809814 
   70500    1096.4515     -116.437   0.99209232    -115.4449   -7120.8745    4.3058779    4.3058779    4.3058779   -7120.8745   -22619.833   -18061.819    19319.029    27121.073   -1430.5292    5833.3422    79.833492 
   70600    777.67025   -116.15354   0.70365238   -115.44989    11683.465    4.2959293    4.2959293    4.2959293    11683.465   -17495.265    14460.877    38084.782    5618.7871    6792.3883   -1831.4995    79.281411 
   70700    1507.6189    -116.8081    1.3641253   -115.44397    7237.0183    4.3053443    4.3053443    4.3053443    7237.0183   -16573.304    24762.217    13522.141   -22313.321   -74.197307    2850.0366    79.803819 
   70800     1414.964    -116.7226    1.2802891   -115.44231    1787.4022    4.3073368    4.3073368    4.3073368    1787.4022   -4376.7954    11140.045   -1401.0425    20790.925    6376.2113     6028.432    79.914665 
   70900    689.65807   -116.07339   0.62401712   -115.44938    8046.6872    4.3000866    4.3000866    4.3000866    8046.6872   -25045.076    31117.414    18067.724     23320.25    1840.4831   -3128.1062    79.511804 
   71000    1190.5713   -116.52284    1.0772539   -115.44559   -82.353688    4.3028692    4.3028692    4.3028692   -82.353688   -14992.467    1784.6324    12960.774   -20733.347   -3479.8417    6008.0138    79.666263 
   71100    1411.5153   -116.71546    1.2771687   -115.43829    13540.139    4.3007664    4.3007664    4.3007664    13540.139   -2362.1879    23382.907    19599.698    -2990.739    2731.9669    246.62278    79.549519 
   71200    831.62956   -116.20044    0.7524759   -115.44796   -15474.635    4.3064097    4.3064097    4.3064097   -15474.635   -48548.185    10374.456   -8250.1753    32473.549    6630.9452   -3286.2336    79.863075 
   71300    800.57338   -116.17211   0.72437562   -115.44774   -13221.641    4.3060019    4.3060019    4.3060019   -13221.641   -24640.563   -17592.168    2567.8068     6680.352    5365.2277    660.20625    79.840392 
   71400    1488.2115   -116.78241     1.346565   -115.43584    12021.709    4.2937207    4.2937207    4.2937207    12021.709    3344.8664    18967.171    13753.089   -23658.989   -5472.9506   -4255.9143    79.159197 
   71500     777.6163   -116.15153   0.70360357   -115.44792   -14794.007    4.3069252    4.3069252    4.3069252   -14794.007   -42848.249   -1244.9365   -288.83561    21175.744    686.58684    8705.1128    79.891759 
   71600    638.20428   -116.02675   0.57746065   -115.44929   -27486.198    4.3108549    4.3108549    4.3108549   -27486.198   -48522.941   -37045.218    3109.5657     34138.62    4308.7957    4906.6228    80.110642 
   71700    1304.1473   -116.61542    1.1800199    -115.4354    17308.377    4.2985598    4.2985598    4.2985598    17308.377    32081.335    9328.1277     10515.67   -6904.5931    4827.2379   -7050.1648    79.427139 
   71800    1102.6391    -116.4381   0.99769103   -115.44041   -1313.7608    4.3004485    4.3004485    4.3004485   -1313.7608    -523.7083   -215.48588   -3202.0882    912.05979   -6012.9375    1295.7855    79.531882 
   71900    280.63476   -115.70834   0.25392423   -115.45441   -17228.064    4.3086376    4.3086376    4.3086376   -17228.064   -21897.233   -32210.633    2423.6736    34576.472   -414.76871    539.98895    79.987091 
   72000    1043.4999   -116.38988   0.94418064    -115.4457   -5609.5627    4.3050426    4.3050426    4.3050426   -5609.5627   -25004.516    -10490.04    18665.867    21020.428    12969.834    4646.5023    79.787044 
   72100    1196.0506   -116.52062    1.0822117   -115.43841    17211.721    4.2955875    4.2955875    4.2955875    17211.721    19614.723    19749.646    12270.793   -21053.805   -7050.3284    4458.8496    79.262487 
   72200    545.30839   -115.94597   0.49340649   -115.45256   -27853.788    4.3053473    4.3053473    4.3053473   -27853.788   -50815.804    -17519.24   -15226.321    26881.567   -6538.3514   -1263.9278    79.803983 
   72300    535.98547    -115.9342   0.48497092   -115.44923   -18544.658    4.3081294    4.3081294    4.3081294   -18544.658   -61894.385   -6362.9795    12623.389    36183.309    -5615.847     2648.759    79.958791 
   72400    1149.0375   -116.47659    1.0396733   -115.43691    5159.7547     4.298975     4.298975     4.298975    5159.7547   -16323.762     5977.984    25825.042   -27517.185    2699.4455   -5068.7619    79.450155 
   72500    709.29548   -116.08454   0.64178546   -115.44276   -11491.427    4.3036789    4.3036789    4.3036789   -11491.427   -32454.333   -2490.5037    470.55571   -1640.9378   -1543.2503    2357.0667    79.711241 
   72600      601.735   -115.99151   0.54446248   -115.44705   -17499.281    4.3021057    4.3021057    4.3021057   -17499.281   -52797.136   -3639.6209     3938.914    45608.881    -10180.21    1451.9011    79.623858 
   72700    896.30328   -116.25478   0.81099404   -115.44378    7692.6802    4.3006538    4.3006538    4.3006538    7692.6802   -18113.294    7335.1209    33856.213   -4891.3933    4057.5288   -4240.8586    79.543274 
   72800      970.012   -116.31923   0.87768724   -115.44154   -9856.8143    4.3086329    4.3086329    4.3086329   -9856.8143   -34684.071   -2369.0564    7482.6845   -34043.805   -4461.9379    1205.6559     79.98683 
   72900    612.27805   -115.99878   0.55400205   -115.44478   -1813.1857     4.301262     4.301262     4.301262   -1813.1857   -42684.041    21740.602    15503.882     30764.32   -3894.7416   -4256.8003    79.577022 
   73000    864.18208   -116.22469   0.78193011   -115.44276    1450.6288    4.2993328    4.2993328    4.2993328    1450.6288   -30683.261    17259.051    17776.097    31710.406    123.39852    7136.2901    79.469997 
   73100    1123.8548   -116.45698    1.0168875    -115.4401    1552.7395    4.3044562    4.3044562    4.3044562    1552.7395   -34569.328    14354.412    24873.134   -35147.321    -912.1419    728.40735    79.754439 
   73200    788.17549   -116.15875   0.71315775   -115.44559    587.24817    4.3020821    4.3020821    4.3020821    587.24817   -37286.577    17238.501     21809.82    2558.6004    4575.1812   -1328.8223    79.622552 
   73300    745.54215   -116.12342    0.6745822   -115.44884   -12113.314    4.3022584    4.3022584    4.3022584   -12113.314   -52749.824   -4194.0862    20603.967    50220.909   -12266.223    3562.1322     79.63234 
   73400    1180.8675   -116.51106    1.0684737   -115.44259     349.2165    4.3024497    4.3024497    4.3024497     349.2165   -36701.033    24856.982      12891.7   -4553.2412   -5839.6604   -5294.6513    79.642962 
   73500    1161.0193   -116.49158    1.0505146   -115.44106   -753.95112    4.3036885    4.3036885    4.3036885   -753.95112   -38141.265    10736.448    25142.964   -14036.937    6795.6611    815.16817    79.711777 
   73600    638.77311   -116.02752   0.57797534   -115.44955   -12419.534    4.3055245    4.3055245    4.3055245   -12419.534   -71801.312    1014.6552    33528.055    39958.498   -731.79044   -1440.0666    79.813837 
   73700    1059.5139   -116.40372   0.95867043   -115.44505    4405.3022    4.2955745    4.2955745    4.2955745    4405.3022   -34677.135    21399.892     26493.15     20168.38   -7903.6069    4580.6407    79.261772 
   73800    1414.7716   -116.72254    1.2801151   -115.44243    4921.8097    4.3008346    4.3008346    4.3008346    4921.8097   -27697.486    25455.837    17007.078   -7307.3861   -7251.6892     6917.079    79.553302 
   73900    763.50717   -116.13842   0.69083733   -115.44758   -22277.869     4.314601     4.314601     4.314601   -22277.869    -69653.63   -21257.971    24077.994    39684.175   -837.05921   -3484.7737    80.319671 
   74000    912.61093   -116.27217   0.82574955   -115.44643    4482.6244    4.2950131    4.2950131    4.2950131    4482.6244   -38919.016    6882.4698    45484.419    23197.156    -5386.126     1218.206    79.230696 
   74100    1477.4488   -116.77547    1.3368267   -115.43864    16189.139    4.2921088    4.2921088    4.2921088    16189.139   -8049.3489    41687.446    14929.321   -19319.968   -14.891981    -659.0508    79.070077 
   74200     943.0282   -116.29924   0.85327173   -115.44596   -24178.788    4.3152736    4.3152736    4.3152736   -24178.788    -55356.53   -14159.192   -3020.6411    33822.635    7996.4607    3628.1813    80.357242 
   74300    752.05791   -116.12982    0.6804778   -115.44934   -6416.6406    4.3022475    4.3022475    4.3022475   -6416.6406   -50917.704   -2339.0897    34006.872    35435.619    4616.4793   -1405.5856    79.631735 
   74400    1456.8938   -116.75563    1.3182282    -115.4374    13450.907    4.2907257    4.2907257    4.2907257    13450.907   -7306.2613    22343.486    25315.496   -20516.476   -4719.6051   -5552.8371    78.993664 
   74500     1284.996   -116.60559    1.1626914    -115.4429   -12035.759    4.3073011    4.3073011    4.3073011   -12035.759   -38574.426    8889.7528   -6422.6036    8473.9112   -586.28855    10180.739    79.912681 
   74600    697.07254   -116.07925   0.63072588   -115.44853   -10350.612    4.3079769    4.3079769    4.3079769   -10350.612   -26658.773   -12054.838    7661.7763    40408.255    8126.5844    265.70331      79.9503 
   74700    1111.8802   -116.45117    1.0060526   -115.44512    3529.5095    4.2981463    4.2981463    4.2981463    3529.5095   -18360.741    5097.2715    23851.998   -8903.5571    2980.3619    301.27699     79.40422 
   74800    1484.9663   -116.78335    1.3436287   -115.43972    10770.697    4.2970304    4.2970304    4.2970304    10770.697   -2889.1978    16043.476    19157.812   -15485.456   -1452.1525    6236.8566    79.342388 
   74900    871.89411   -116.23727   0.78890811   -115.44836   -1377.7989    4.3069808    4.3069808    4.3069808   -1377.7989   -1863.0022   -5866.7661    3596.3717    38742.629    4200.7768    -3242.974    79.894851 
   75000    940.46943   -116.30047    0.8509565   -115.44951   -12901.628    4.3063737    4.3063737    4.3063737   -12901.628   -39793.921   -5589.5448    6678.5803    12164.349    7088.4855    3740.4484    79.861072 
   75100    1457.0403   -116.75813    1.3183607   -115.43977    16566.018    4.2940376    4.2940376    4.2940376    16566.018    8693.1835    13604.792    27400.079   -21981.428   -1440.7774   -5728.1835    79.176724 
   75200    1145.1166   -116.48258    1.0361255   -115.44646   -4024.3774    4.3053412    4.3053412    4.3053412   -4024.3774    -9905.559    -11550.35    9382.7765    25709.321   -9659.8564    1563.0544    79.803647 
   75300    818.96672   -116.19027   0.74101829   -115.44925    -10636.34    4.3090363    4.3090363    4.3090363    -10636.34   -17448.842   -13296.105   -1164.0733    34710.373    7053.8111     9818.447    80.009297 
   75400    1288.2865   -116.60785    1.1656687   -115.44218    14706.698    4.2954551    4.2954551    4.2954551    14706.698     14342.33    3988.6537    25789.112    -13890.81    18927.216   -4911.3662     79.25516 
   75500     1381.225   -116.69131    1.2497615   -115.44155    4317.4914    4.3029989    4.3029989    4.3029989    4317.4914    3976.2415    3711.4225    5264.8101   -7216.8608   -5283.2679    2885.2908    79.673463 
   75600    938.57812   -116.29655   0.84924521    -115.4473   -8393.9277     4.307306     4.307306     4.307306   -8393.9277   -18324.288   -11905.927    5048.4321    35905.544    -12116.56    6805.7664    79.912954 
   75700     1206.584   -116.53617    1.0917425   -115.44443    6026.4222    4.2980329    4.2980329    4.2980329    6026.4222    8389.2269   -12743.913    22433.953     13758.82    11079.261    1609.6698    79.397935 
   75800    1450.7307   -116.75226    1.3126516   -115.43961   -1547.6543    4.3061893    4.3061893    4.3061893   -1547.6543   -1985.6949    13267.354   -15924.622   -5577.9248    7918.9246    52.706347    79.850815 
   75900    1137.9527   -116.47222    1.0296435   -115.44258   -8742.2411    4.3058655    4.3058655    4.3058655   -8742.2411   -11705.082   -9037.9369   -5483.7045    25627.321   -19290.443   -2666.6802    79.832804 
   76000    1159.9955   -116.49367    1.0495883   -115.44408     5154.296    4.2972437    4.2972437    4.2972437     5154.296    11416.677   -9349.7741    13395.984    14614.365     -3531.95    811.88814    79.354205 
   76100    1502.2159   -116.80071    1.3592365   -115.44147   -2532.7989    4.3040048    4.3040048    4.3040048   -2532.7989    13173.967    66.185428   -20838.549   -4666.7638    16325.149   -2056.0975    79.729351 
   76200    1143.0497   -116.47965    1.0342554   -115.44539   -3122.6148    4.3033734    4.3033734    4.3033734   -3122.6148     4249.214    6028.5001   -19645.559    17884.266   -9984.9153   -1515.0147    79.694269 
   76300     1032.512   -116.38358   0.93423859   -115.44934   -10907.137    4.3012877    4.3012877    4.3012877   -10907.137   -24932.977   -8338.1554    549.72086    31910.405   -22537.317    2979.0606    79.578453 
   76400    1467.7295    -116.7706    1.3280325   -115.44257    7174.5831    4.3035793    4.3035793    4.3035793    7174.5831    12014.022   -2644.4234    12154.151   -2216.1372    9232.0126   -1717.1876    79.705711 
   76500    1561.0356   -116.85419    1.4124578   -115.44174    3773.5082    4.3008025    4.3008025    4.3008025    3773.5082    9202.6863     8578.866   -6461.0276   -4501.3478   -4070.1748   -1502.7009     79.55152 
   76600    850.26093   -116.22024   0.76933396   -115.45091   -8759.1308    4.3037224    4.3037224    4.3037224   -8759.1308   -39021.759    2939.0543    9805.3121    32498.193   -30548.806    1084.2678    79.713659 
   76700    1284.1498   -116.61074    1.1619257   -115.44882   -6175.2681    4.3041657    4.3041657    4.3041657   -6175.2681   -12281.246   -18192.064    11947.505    12812.233   -10743.959    2591.5025    79.738293 
   76800    1754.1392   -117.02849     1.587182   -115.44131    14581.486    4.2991684    4.2991684    4.2991684    14581.486    26264.377    8050.7994    9429.2802   -16377.687    11648.948    975.48402    79.460882 
   76900    1236.4164   -116.56881    1.1187355   -115.45007   -9114.4133    4.3051873    4.3051873    4.3051873   -9114.4133   -21272.035    1512.0272   -7583.2316    21520.522   -17866.888    2557.9617    79.795088 
   77000     1045.866   -116.39555   0.94632155   -115.44923   -17708.194     4.307737     4.307737     4.307737   -17708.194   -20725.388   -22671.016   -9728.1776    22673.078   -27881.124   -1690.6695    79.936944 
   77100    1666.5089   -116.94528    1.5078923   -115.43739    5575.6578    4.3026803    4.3026803    4.3026803    5575.6578    21960.367   -9425.3663    4191.9723   -15957.067    4259.2138    -380.6272    79.655768 
   77200    1574.2983   -116.86402    1.4244582   -115.43956   -889.50769    4.3028655    4.3028655    4.3028655   -889.50769    3103.9883   -242.80573   -5529.7056    2864.1956    -142.5865    1471.6983    79.666057 
   77300    913.40278   -116.27476   0.82646603   -115.44829   -9946.6782    4.3048899    4.3048899    4.3048899   -9946.6782    377.13073   -19043.387   -11173.778    35200.601   -26183.998   -1671.0033    79.778551 
   77400    1298.8478   -116.62303    1.1752248    -115.4478    5161.3883    4.3027585    4.3027585    4.3027585    5161.3883    1389.9804   -12636.312    26730.497    13181.496   -14896.572    1151.0162    79.660115 
   77500    1752.5265   -117.02649    1.5857228   -115.44076    19240.238    4.2989064    4.2989064    4.2989064    19240.238    37395.383    304.08058     20021.25   -17111.143    11022.978   -2931.4915    79.446353 
   77600    912.81998   -116.27885    0.8259387   -115.45291    -10799.15    4.3073592    4.3073592    4.3073592    -10799.15   -23148.732   -18086.145    8837.4266    27574.143   -14731.355    93.593035    79.915911 
   77700    643.52937   -116.03589    0.5822789   -115.45361   -6597.9306    4.3051254    4.3051254    4.3051254   -6597.9306   -46085.915    -15191.25    41483.373    29669.538   -23259.947    1258.0261    79.791646 
   77800    1633.7397    -116.9172     1.478242   -115.43896    9357.5367    4.2992524    4.2992524    4.2992524    9357.5367    17494.422    1105.2148    9472.9731   -12556.643    1568.4905    342.05661     79.46554 
   77900    1233.7402   -116.56104     1.116314   -115.44472   -7336.9077    4.3069962    4.3069962    4.3069962   -7336.9077    -21679.11   -15116.191    14784.578    10404.161    1442.6221    5392.1477    79.895712 
   78000    477.36341   -115.88506   0.43192844   -115.45313   -8326.9824    4.3026665    4.3026665    4.3026665   -8326.9824   -32582.467   -9206.2224    16807.742    34986.692   -27807.571      2619.19    79.655002 
   78100    1002.4157   -116.35336   0.90700678   -115.44636    1702.5548    4.3016686    4.3016686    4.3016686    1702.5548   -154.93271    7262.3184   -1999.7212    2628.0765   -10878.937    1282.6245    79.599596 
   78200    1364.2847   -116.67374    1.2344334   -115.43931   -5118.2966    4.3078946    4.3078946    4.3078946   -5118.2966   -16193.757   -8175.2096    9014.0766   -12745.349    12130.654    1068.9402    79.945716 
   78300    691.63676   -116.06924   0.62580748   -115.44343   -4470.8986    4.3051745    4.3051745    4.3051745   -4470.8986   -23021.069   -10667.936    20276.309    24974.266   -13321.886    5729.7635    79.794377 
   78400    719.92495   -116.09344   0.65140322   -115.44204   -16191.871    4.3084511    4.3084511    4.3084511   -16191.871   -54804.261   -353.75183    6582.4014    25702.308   -22460.864    5116.5146    79.976705 
   78500     1210.147    -116.5293    1.0949665   -115.43433    -377.4193    4.3044342    4.3044342    4.3044342    -377.4193   -18840.157    10644.728     7063.171   -17006.709    4969.4007   -763.50178     79.75322 
   78600    910.38566   -116.26318   0.82373607   -115.43944    2751.3587    4.2992638    4.2992638    4.2992638    2751.3587   -25427.613    4092.8007    29588.889   -3437.2631    -1115.293    3046.9085    79.466168 
   78700     423.2753   -115.83476   0.38298839   -115.45177   -21769.789    4.3092634    4.3092634    4.3092634   -21769.789   -73565.092    1843.7794    6411.9456    26257.859   -28608.621    4431.8681     80.02195 
   78800    880.56582   -116.24084   0.79675446   -115.44408   -10351.185    4.3102727    4.3102727    4.3102727   -10351.185   -42237.262    14289.048     -3105.34   -795.48279   -17247.293    3051.7631     80.07819 
   78900    1230.3086   -116.54568     1.113209   -115.43248    3320.0408    4.3039417    4.3039417    4.3039417    3320.0408   -28668.023    11659.814    26968.332    -12302.51    5167.4465   -6136.2147    79.725846 
   79000    474.74628   -115.87277   0.42956041   -115.44321   -14634.438    4.3071778    4.3071778    4.3071778   -14634.438   -77248.838    9431.8152    23913.709    24490.642   -23130.495    -1647.166    79.905817 
   79100    503.86517   -115.90268   0.45590779   -115.44677   -8583.1651    4.3065548    4.3065548    4.3065548   -8583.1651   -58587.694    21294.572    11543.626    18203.653    -25208.31    1565.0752     79.87115 
   79200      1235.87   -116.55373    1.1182411   -115.43548    10303.266    4.3069172    4.3069172    4.3069172    10303.266   -13702.553    16204.788    28407.561   -7290.7854    13840.225   -6127.8756    79.891317 
   79300    956.36028   -116.30353   0.86533488    -115.4382   -3971.1256    4.3096475    4.3096475    4.3096475   -3971.1256   -46186.448   -5163.9999    39437.071    13336.888   -6988.3367   -8067.4932    80.043347 
   79400    475.97373   -115.87751   0.43067103   -115.44684   -10790.009    4.3046837    4.3046837    4.3046837   -10790.009   -50779.986    10986.672    7423.2868     25010.66   -32159.957   -2909.8035    79.767087 
   79500     1077.125   -116.41804   0.97460536   -115.44343    2560.0079    4.3023518    4.3023518    4.3023518    2560.0079   -17306.492      30178.7   -5192.1845    3304.1015    6267.2574    858.54544    79.637525 
   79600    1317.4993   -116.63102     1.192101   -115.43891    7154.3029    4.3071017    4.3071017    4.3071017    7154.3029    299.39657    16971.485     4192.027    6465.8634    13262.346    -3760.038    79.901583 
   79700    754.81059   -116.13016   0.68296849   -115.44719   -4641.5666    4.3082201    4.3082201    4.3082201   -4641.5666   -25787.397    29095.125   -17232.427    25024.756   -30543.229    1007.3285    79.963839 
   79800    976.48393   -116.32801   0.88354318   -115.44447   -3922.4119    4.3036834    4.3036834    4.3036834   -3922.4119   -21411.785    35109.066   -25464.517    6899.6344   -18272.457    1621.2825    79.711493 
   79900    1599.3671   -116.88143     1.447141   -115.43429    8010.2379    4.3038024    4.3038024    4.3038024    8010.2379    8126.3461    18492.959   -2588.5915   -10153.488    15407.251    1393.0282    79.718107 
   80000     1140.958   -116.47608    1.0323627   -115.44372   -8647.6684    4.3075957    4.3075957    4.3075957   -8647.6684    -10144.66   -1401.8566   -14396.488    14085.812    -15576.41     2550.433    79.929078 
   80100    800.20574   -116.17452   0.72404297   -115.45047   -8553.6497    4.3036258    4.3036258    4.3036258   -8553.6497   -11323.076    4211.6844   -18549.557      17908.3   -31194.491    -2547.028    79.708294 
   80200    1715.9102   -116.99362    1.5525916   -115.44103    2557.3655    4.3033315    4.3033315    4.3033315    2557.3655    20288.068    -6282.158   -6333.8135   -4311.6462    4229.6834    3776.3498     79.69194 
   80300    1478.6488   -116.77916    1.3379125   -115.44125   -3460.2437    4.3113745    4.3113745    4.3113745   -3460.2437    13287.586    7065.6834   -30734.001   -3418.8702   -7778.7894   -1682.6948    80.139613 
   80400    716.21611   -116.09918   0.64804738   -115.45113   -7894.1242    4.3054928    4.3054928    4.3054928   -7894.1242   -8324.3395     13303.39   -28661.423     22838.51   -36144.223   -5122.6598    79.812076 
   80500    1118.2829   -116.45908    1.0118458   -115.44724    13084.889    4.2997596    4.2997596    4.2997596    13084.889    10534.127    33260.039   -4539.4976    15764.916   -2390.2012   -7779.0976    79.493667 
   80600    1583.6459   -116.87383    1.4329161   -115.44092    7563.0962    4.3060851    4.3060851    4.3060851    7563.0962    21032.299    24133.553   -22476.563   -8111.5221    14730.021   -5318.1439    79.845021 
   80700      966.546   -116.32259   0.87455113   -115.44804   -3189.8325    4.3078798    4.3078798    4.3078798   -3189.8325   -5688.4058    24452.746   -28333.838     8885.476   -23829.462   -491.38456    79.944891 
   80800    903.71827   -116.26313   0.81770328   -115.44543   -9491.1449    4.3062819    4.3062819    4.3062819   -9491.1449    -18181.89   -6920.7164   -3370.8285     30261.35   -18765.673   -8446.7477    79.855964 
   80900    1428.7604   -116.72871    1.2927724   -115.43593    2105.0133    4.3037083    4.3037083    4.3037083    2105.0133     13578.13    -878.5729   -6384.5174    1151.7735    15921.102   -5835.3681    79.712876 
   81000    1194.0336    -116.5194    1.0803867   -115.43902   -4473.1732    4.3048522    4.3048522    4.3048522   -4473.1732    498.00103    8351.6332   -22269.154   -4335.1475   -6065.1037    2991.9995    79.776453 
   81100    928.71088   -116.28604   0.84031712   -115.44573   -14004.811    4.3045804    4.3045804    4.3045804   -14004.811   -33020.264   -9947.0983    952.92984    21644.875   -23807.903    3166.2223    79.761346 
   81200    1105.4536   -116.44374    1.0002377    -115.4435   -1067.9348    4.3025829    4.3025829    4.3025829   -1067.9348   -8411.1341    5163.1649     44.16482    14398.793    3842.5138   -2113.4983     79.65036 
   81300    1275.7363   -116.59547     1.154313   -115.44115   -201.97526    4.3059727    4.3059727    4.3059727   -201.97526    12641.933    14583.477   -27831.336   -5335.9311    11736.224   -2884.1121    79.838766 
   81400    956.54907   -116.30918    0.8655057   -115.44367   -302.50036    4.3047139    4.3047139    4.3047139   -302.50036   -27549.314    27297.241   -655.42797    15982.855   -15456.614    7284.8799    79.768767 
   81500    891.03842   -116.24904   0.80623028   -115.44281    5089.4841    4.3043278    4.3043278    4.3043278    5089.4841   -8173.1901    17309.772    6131.8706    26043.442   -13023.839    1555.8443    79.747307 
   81600     1286.862    -116.6035    1.1643798   -115.43912    2672.7258    4.3058854    4.3058854    4.3058854    2672.7258     12510.77    18086.129   -22578.721   -1040.0373    14917.358   -5376.2887    79.833908 
   81700    1109.5368   -116.44592    1.0039322   -115.44199    15895.418     4.296518     4.296518     4.296518    15895.418    5975.3863    48353.047   -6642.1791    5315.7215    6941.9856   -3439.6583    79.314011 
   81800     791.3077   -116.16717   0.71599184   -115.45118   -2760.3351    4.3052816    4.3052816    4.3052816   -2760.3351   -9115.7628    1802.8131   -968.05557    34381.156   -17818.116   -139.43597    79.800332 
   81900    1177.3728    -116.5098    1.0653116   -115.44449   -17523.758    4.3121243    4.3121243    4.3121243   -17523.758   -34994.322   -6605.6514   -10971.299    5862.6371   -2381.7601   -3849.5947     80.18143 
   82000    1339.6555   -116.64831    1.2121485   -115.43617    15778.225    4.2936442    4.2936442    4.2936442    15778.225    17012.828     31151.91   -830.06375   -13543.786     16433.83   -7958.9876    79.154963 
   82100    972.77008   -116.32602   0.88018281   -115.44583   -12031.979    4.3048847    4.3048847    4.3048847   -12031.979   -26201.736   -2881.6354   -7012.5649    31531.768   -4070.4981    287.94334    79.778262 
   82200    973.49093   -116.32443   0.88083505   -115.44359   -26470.219    4.3122498    4.3122498    4.3122498   -26470.219   -54912.735   -14954.959   -9542.9643     26252.72   -12353.804    370.51253    80.188436 
   82300    1337.6444   -116.64744    1.2103288   -115.43711    10081.026    4.2908956    4.2908956    4.2908956    10081.026   -2966.4428    29008.363    4201.1585   -19374.249    4962.1547    -5213.113    79.003046 
   82400      1197.83    -116.5306    1.0838217   -115.44678    132.76546    4.3028025    4.3028025    4.3028025    132.76546   -3418.6386    10271.789   -6454.8543    7361.8294    510.30508   -1187.5212    79.662556 
   82500    923.93102   -116.28358   0.83599221   -115.44759   -14166.036    4.3117759    4.3117759    4.3117759   -14166.036    -37178.76    3311.1847   -8630.5312    38351.208   -11955.332    2657.5524       80.162 
   82600    1146.2685   -116.47753    1.0371678   -115.44036   -550.96194    4.3015857    4.3015857    4.3015857   -550.96194   -23854.424    19676.126    2525.4117   -13074.631   -4240.5669   -3258.2078    79.594993 
   82700    1138.8436    -116.4697    1.0304496   -115.43925   -8566.3135    4.3045839    4.3045839    4.3045839   -8566.3135   -16089.538   -2363.2469   -7246.1557   -23039.714    3918.9427    3170.2561    79.761538 
   82800    1163.7561   -116.49265     1.052991   -115.43966    2307.7654    4.2971791    4.2971791    4.2971791    2307.7654   -7247.2014    13897.771    272.72676    26796.574   -4699.8739    5965.7333    79.350629 
   82900    988.05418    -116.3404   0.89401219   -115.44639   -4801.2563     4.305872     4.305872     4.305872   -4801.2563   -16365.073   -348.65746     2309.962   -2209.3531   -10366.049     2222.064    79.833165 
   83000    1052.7415   -116.39665   0.95254261   -115.44411    -26012.17    4.3110153    4.3110153    4.3110153    -26012.17   -52421.809   -19283.778   -6330.9236     -36690.8   -2282.1515    2512.8539    80.119584 
   83100    1242.7425    -116.5627    1.1244595   -115.43824    11957.995    4.2892258    4.2892258    4.2892258    11957.995    17574.157    16715.156    1584.6726    3255.5982    154.16166    3041.1231    78.910851 
   83200    1021.6708   -116.37347   0.92442922   -115.44904    3126.5056    4.3018003    4.3018003    4.3018003    3126.5056    5136.7023    6472.3039   -2229.4895    8781.1707   -4486.9661     2365.487    79.606902 
   83300    721.32237   -116.10138   0.65266764   -115.44871   -20150.014    4.3130772    4.3130772    4.3130772   -20150.014   -60036.724   -1891.1299    1477.8109   -30665.699   -6722.2241   -129.72211      80.2346 
   83400    1077.7555   -116.41574   0.97517583   -115.44056    12893.293    4.2945493    4.2945493    4.2945493    12893.293    3248.4621    24111.346     11320.07   -18368.353    1110.1626   -1092.5506     79.20503 
   83500    1279.8061   -116.59936    1.1579955   -115.44137    1016.5772    4.3020985    4.3020985    4.3020985    1016.5772    3524.5411    7103.8241   -7578.6336    14976.529    4504.4869     4281.599    79.623458 
   83600    623.81859   -116.01166   0.56444417   -115.44722   -14823.417    4.3093604    4.3093604    4.3093604   -14823.417   -38398.455   -17245.387    11173.589    -23013.56   -6369.2392   -650.51339    80.027352 
   83700    657.21806   -116.03994   0.59466471   -115.44528   -97.060515    4.3015703    4.3015703    4.3015703   -97.060515   -16840.835   -7699.3588    24249.013    -30763.12   -3099.3804   -2000.2356    79.594137 
   83800     1318.351   -116.63239    1.1928717   -115.43952    323.64535    4.3009744    4.3009744    4.3009744    323.64535   -11325.392    12815.963    -519.6348    14087.692    10764.131    -935.6938    79.561063 
   83900    800.88489   -116.17263   0.72465748   -115.44797    19223.859    4.2966244    4.2966244    4.2966244    19223.859     21878.25    14913.902    20879.426   -10033.435    5544.5612    -4645.575    79.319902 
   84000    416.28553   -115.83321    0.3766639   -115.45655   -13187.044    4.3113372    4.3113372    4.3113372   -13187.044     -39175.5   -22537.188    22151.557   -33952.414   -8160.1253    -788.0086    80.137531 
   84100     960.9533   -116.31478   0.86949074   -115.44529   -15660.378     4.308104     4.308104     4.308104   -15660.378    -42651.96   -6594.1643    2264.9895    3670.1798   -2752.5004   -1674.7349    79.957378 
   84200    1060.0077   -116.39605   0.95911728   -115.43693    26439.625    4.2836144    4.2836144    4.2836144    26439.625    28982.889    21729.366     28606.62   -507.33282    13215.227   -1542.7636    78.601548 
   84300    540.27897   -115.94417   0.48885577   -115.45532   -10718.583    4.3049254    4.3049254    4.3049254   -10718.583   -34365.691   -25902.514    28112.456   -43484.138    3852.2821    1820.2905    79.780526 
   84400    701.06722   -116.07654   0.63434036    -115.4422   -18536.159    4.3159175    4.3159175    4.3159175   -18536.159   -35216.888   -29515.543    9123.9539   -15955.708   -14663.006   -3618.8062    80.393218 
   84500     1088.059   -116.41656   0.98449862   -115.43207    3073.3918     4.297428     4.297428     4.297428    3073.3918   -9914.7602    7663.9134    11471.022    19099.021    3595.1314   -2304.7343    79.364417 
   84600    598.68278   -115.98377   0.54170076   -115.44207   -5050.9535    4.2958308    4.2958308    4.2958308   -5050.9535   -30536.638   -14171.659    29555.437   -28998.275    15886.233    3587.5303    79.275961 
   84700    686.75139   -116.06922   0.62138709   -115.44784   -6840.0933    4.3019481    4.3019481    4.3019481   -6840.0933   -20737.145    -23711.73    23928.595   -33286.547   -2567.0581    612.38882    79.615113 
   84800    1050.8923    -116.3954   0.95086948   -115.44453   -7451.8246    4.3109801    4.3109801    4.3109801   -7451.8246   -4701.7652   -15536.001   -2117.7072    15454.351   -8479.1807   -2272.6336    80.117625 
   84900    877.66057   -116.24142   0.79412573   -115.44729    8065.7072    4.2966212    4.2966212    4.2966212    8065.7072    9277.7434   -1227.9278    16147.306   -9428.2513    14924.724    679.04681    79.319727 
   85000     480.7679    -115.8866    0.4350089   -115.45159    10185.232    4.2920114    4.2920114    4.2920114    10185.232    17211.963    -15094.95    28438.683    -36776.51    14239.494    815.44481    79.064694 
   85100    833.64709   -116.20157    0.7543014   -115.44727   -22272.471    4.3108295    4.3108295    4.3108295   -22272.471   -37917.761   -20287.599   -8612.0526    -7162.543    -15019.56    1833.5752    80.109229 
   85200    1072.9184   -116.41061   0.97079907   -115.43981    3744.1226    4.3005769    4.3005769    4.3005769    3744.1226    1511.3788    7545.5422    2175.4469    4447.3275   -10226.132   -1716.5988    79.539004 
   85300    602.11741   -115.99219   0.54480849   -115.44738   -1498.3503    4.2964588    4.2964588    4.2964588   -1498.3503   -20612.173   -2292.7501    18409.872   -28904.072      19613.5    1186.6752    79.310729 
   85400    584.03979    -115.9794   0.52845148   -115.45095   -18584.707    4.2994605    4.2994605    4.2994605   -18584.707   -47390.583   -11313.468    2949.9307   -23100.047    3740.6916    3697.6003    79.477076 
   85500    1082.0183   -116.42513   0.97903289    -115.4461   -2404.9379    4.3022051    4.3022051    4.3022051   -2404.9379    5325.6305   -4647.4048   -7893.0393    13134.487   -19876.265   -3138.9774    79.629378 
   85600    855.51323   -116.21988   0.77408635   -115.44579   -14834.956    4.3092654    4.3092654    4.3092654   -14834.956   -19703.045    -20928.97   -3872.8517   -18809.661    3754.0609   -1977.6642    80.022063 
   85700     443.8925   -115.85342   0.40164326   -115.45177   -1229.7564    4.2913829    4.2913829    4.2913829   -1229.7564   -10453.809   -11941.431    18705.971   -28302.287    18353.039    495.25933    79.029968 
   85800     896.1315   -116.26312   0.81083861   -115.45228   -2486.2597      4.29687      4.29687      4.29687   -2486.2597   -7516.5927    4765.4769   -4707.6634    3872.4059   -2198.2411   -1560.0972    79.333503 
   85900    1270.7442    -116.5893     1.149796    -115.4395   -18706.168    4.3127646    4.3127646    4.3127646   -18706.168     -18857.2   -22011.712   -15249.592   -3278.7249   -7851.2448   -1270.6424    80.217159 
   86000    361.22842    -115.7784   0.32684707   -115.45155    14241.114    4.2937159    4.2937159    4.2937159    14241.114    6775.3525    11969.955    23978.034    -23654.85    15324.295   -3582.5025    79.158932 
   86100    549.72352   -115.95236   0.49740139   -115.45496   -8724.7177     4.294944     4.294944     4.294944   -8724.7177   -37216.582    6216.7199    4825.7095   -7900.0652    23028.751    1842.9884    79.226873 
   86200    1272.1828   -116.59482    1.1510978   -115.44372   -6391.3381    4.3048273    4.3048273    4.3048273   -6391.3381   -3051.1629   -7818.0687   -8304.7828    9833.4418    -808.4412    403.53992    79.775071 
   86300    914.22058   -116.27624     0.827206   -115.44903    -252.4316    4.3025847    4.3025847    4.3025847    -252.4316    -10305.14   -2381.4734    11929.319   -14314.209   -3358.8938   -2226.8323    79.650461 
   86400    391.91189   -115.81071   0.35461012    -115.4561   -16217.436    4.3008162    4.3008162    4.3008162   -16217.436   -55146.448   -5606.3639    12100.504   -26472.162     26477.78   -386.79021    79.552284 
   86500    1027.7398   -116.37802    0.9299206   -115.44809   -2865.2268    4.2941457    4.2941457    4.2941457   -2865.2268   -13466.062   -3118.1263    7988.5078    6322.4594    16075.671    476.32711    79.182702 
   86600    1243.7357   -116.57076    1.1253582   -115.44541   -7011.7317    4.3034517    4.3034517    4.3034517   -7011.7317   -11568.584   -8146.0588   -1320.5523   -3353.9234   -12374.418    11426.463    79.698617 
   86700    701.03606   -116.08631   0.63431216     -115.452   -10731.626    4.3051061    4.3051061    4.3051061   -10731.626   -33525.105   -10984.511     12314.74   -23523.634    3304.1787    2445.1773    79.790573 
   86800    838.94227   -116.20781    0.7590926   -115.44872    3023.1712    4.2947161    4.2947161    4.2947161    3023.1712   -4082.9429   -3350.6294    16503.086   -4913.8356    19385.339    -2193.772     79.21426 
   86900    1232.7187   -116.55925    1.1153898   -115.44386    -5714.486    4.2998062    4.2998062    4.2998062    -5714.486   -13293.589   -1309.1174   -2540.7515    7262.4917     -7493.71    5267.9662    79.496248 
   87000    972.52526   -116.32754   0.87996129   -115.44758    1215.0658    4.3010703    4.3010703    4.3010703    1215.0658    2956.5123   -9456.2185    10144.903   -13063.562   -20530.022    533.77523    79.566385 
   87100    865.36191   -116.23227   0.78299765   -115.44927    1245.7784    4.3044606    4.3044606    4.3044606    1245.7784    87.550738   -12903.202    16552.986   -19597.399    17824.383    2692.9176    79.754688 
   87200    1240.8153   -116.56766    1.1227157   -115.44495   -3221.0673    4.2981918    4.2981918    4.2981918   -3221.0673   -20320.689     906.8326    9750.6547    3305.8243    18353.114    3600.3138    79.406743 
   87300    1038.6496   -116.38638   0.93979195   -115.44659      12998.7    4.2914774    4.2914774    4.2914774      12998.7    15913.501    9288.5499    13794.051   -954.12753   -26888.953    6547.7584    79.035186 
   87400    915.48315   -116.27976   0.82834839   -115.45141   -14814.511    4.3095423    4.3095423    4.3095423   -14814.511   -26813.237   -23581.488    5951.1926    -22017.95   -13031.221    6156.7701    80.037486 
   87500    1269.4279   -116.59391    1.1486051    -115.4453    1470.2513    4.2997345    4.2997345    4.2997345    1470.2513    -23233.02    3232.5847    24411.189   -11260.234    16612.753   -4955.4061    79.492272 
   87600    1180.6423   -116.51078    1.0682699   -115.44251    12837.941    4.2892081    4.2892081    4.2892081    12837.941     25.31681    19680.512    18807.996    4564.7179   -12451.644    3924.5778    78.909873 
   87700    829.49061   -116.20049   0.75054054   -115.44995   -20920.193    4.3084653    4.3084653    4.3084653   -20920.193   -37310.958   -18872.555   -6577.0655    -7580.335   -32924.582    5737.1097    79.977496 
   87800    1165.7506   -116.50129    1.0547957   -115.44649    2071.3898    4.2993651    4.2993651    4.2993651    2071.3898   -7799.1085   -15789.342     29802.62   -23248.519     8835.845   -1469.1401    79.471786 
   87900    1339.7977   -116.65332    1.2122771   -115.44104     21783.29    4.2921395    4.2921395    4.2921395     21783.29     14786.32    13806.384    36757.167   -2345.2324    4174.8259   -2637.2562    79.071777 
   88000     1010.134   -116.36168   0.91399049   -115.44769   -14979.257     4.305953     4.305953     4.305953   -14979.257   -38534.638    -2985.423   -3417.7106    6995.6091   -39935.411   -50.731145    79.837669 
   88100    826.99407   -116.19909   0.74828161   -115.45081    1747.3568    4.2970847    4.2970847    4.2970847    1747.3568   -2075.5704   -16120.345    23437.986   -18393.631   -13738.347    4199.0758    79.345398 
   88200      1252.62    -116.5801    1.1333969    -115.4467    8453.4012    4.2968535    4.2968535    4.2968535    8453.4012    10707.594    -9903.475    24556.085   -18413.083    12161.488   -2532.6376    79.332593 
   88300    1272.7902    -116.5953    1.1516473   -115.44366   -9244.8268    4.3058345    4.3058345    4.3058345   -9244.8268   -24978.236    4047.1904   -6803.4346     8175.695   -23092.222   -824.59159    79.831079 
   88400     933.5212   -116.29212    0.8446696   -115.44745    42.372421     4.294075     4.294075     4.294075    42.372421   -9806.3072    8250.4594     1682.965   -3907.2982   -33181.444     4493.221    79.178792 
   88500    964.12947   -116.32211    0.8723646   -115.44975   -2310.7684    4.2977106    4.2977106    4.2977106   -2310.7684   -3052.8417   -15593.959    11714.496   -30553.764    2798.6075    1043.1217    79.380073 
   88600    1291.9138   -116.61344    1.1689507   -115.44449   -10800.708    4.3055455    4.3055455    4.3055455   -10800.708   -8781.1898   -13970.093   -9650.8419   -6913.7487    3453.4047   -4026.1384    79.815005 
   88700     1206.942   -116.53637    1.0920665   -115.44431    8852.1065    4.2943442    4.2943442    4.2943442    8852.1065   -6190.4149    33005.857   -259.12223    11509.681   -22299.222   -578.78388    79.193686 
   88800    945.06562   -116.30407   0.85511523   -115.44896   -2382.4227    4.2973832    4.2973832    4.2973832   -2382.4227   -15206.948   -2675.4734    10735.153   -19692.243   -8653.5587     3997.041    79.361935 
   88900    1122.4692   -116.46459    1.0156337   -115.44895   -11021.543    4.3032724    4.3032724    4.3032724   -11021.543   -10487.844   -25412.885    2836.0994   -18467.871    9167.3392    2588.0166    79.688659 
   89000    1355.2025   -116.66984    1.2262157   -115.44363      9383.19    4.2965058    4.2965058    4.2965058      9383.19    200.00644    22689.658    5259.9053    6126.7276   -5859.7746   -2124.9611    79.313332 
   89100    1269.2776    -116.5931    1.1484691   -115.44463    4891.4929    4.2988925    4.2988925    4.2988925    4891.4929   -9182.4982    16594.966    7262.0115     4609.091   -15233.905    974.80774    79.445585 
   89200    1020.5027   -116.37269   0.92337226   -115.44931   -9305.6543    4.3017631    4.3017631    4.3017631   -9305.6543   -12992.856   -35045.995    20121.888   -14519.409    7481.7301    4348.2651    79.604837 
   89300    1133.4518   -116.47387     1.025571    -115.4483     6085.984    4.2949322    4.2949322    4.2949322     6085.984    1266.4561     4712.067    12279.429   -11136.772    28764.799     3591.179    79.226222 
   89400     1548.074   -116.84637    1.4007298   -115.44564    4177.2915    4.2994437    4.2994437    4.2994437    4177.2915   -2726.0525    18852.252    -3594.325    8682.4478    6632.6983   -5387.6152    79.476149 
   89500    1352.5504   -116.67113     1.223816   -115.44731   -1990.7202    4.3017692    4.3017692    4.3017692   -1990.7202   -11062.367   -26373.246    31463.453   -2236.4041   -11874.072   -1680.2257    79.605178 
   89600    985.50226   -116.34281   0.89170315   -115.45111   -6689.0005    4.2965877    4.2965877    4.2965877   -6689.0005    -14935.61   -11948.206     6816.815   -9711.8769    28385.301    5352.0394    79.317867 
   89700    1403.0648   -116.71714    1.2695225   -115.44762   -7850.1386    4.3009446    4.3009446    4.3009446   -7850.1386   -14768.952    16350.156    -25131.62    26.044854    32261.709    4396.8859     79.55941 
   89800    1671.2302   -116.95341    1.5121642   -115.44125    967.38158     4.301734     4.301734     4.301734    967.38158   -8372.4975   -5314.4087    16589.051   -2848.2917   -9679.1033    3422.4232    79.603223 
   89900    1191.2199   -116.52786    1.0778408   -115.45002   -1284.0378    4.2961755    4.2961755    4.2961755   -1284.0378   -17865.016   -8919.2777     22932.18    -10886.78    9562.9421   -3431.5203    79.295044 
   90000    1120.8612   -116.46607    1.0141788    -115.4519    -2583.122    4.2988407    4.2988407    4.2988407    -2583.122   -21312.509    19976.851   -6413.7081    -3829.359    35951.185     1662.223    79.442713 
   90100    1591.5956   -116.88431    1.4401092    -115.4442    737.70841    4.3025279    4.3025279    4.3025279    737.70841   -7076.5125    5636.0966    3653.5412    10887.883    -7037.167    1440.1892    79.647304 
   90200    1335.2919   -116.65408    1.2082002   -115.44588    7910.5578    4.2994412    4.2994412    4.2994412    7910.5578   -15822.406    8224.9472    31329.132   -9472.5964   -18993.279   -2838.3624    79.476005 
   90300    1307.4276   -116.62894     1.182988   -115.44595    3311.5085    4.2994892    4.2994892    4.2994892    3311.5085   -20540.764    14710.856    15764.434   -13119.216    25712.704    8230.5901    79.478672 
   90400    1534.1527   -116.83021    1.3881336   -115.44207    718.01626    4.3018218    4.3018218    4.3018218    718.01626   -7464.5582    12374.019   -2755.4116    132.00281    2807.5523     880.2015    79.608095 
   90500     1367.746   -116.68314    1.2375653   -115.44558    1264.8305    4.2977969    4.2977969    4.2977969    1264.8305   -17350.196      19941.5    1203.1871   -2003.8333   -39102.031   -673.35319    79.384859 
   90600    1409.0947   -116.72129    1.2749785   -115.44631    6571.1906     4.298897     4.298897     4.298897    6571.1906   -17411.375    19444.151    17680.796   -8016.9435   -2286.5549    776.15395    79.445832 
   90700    1658.7668   -116.94297    1.5008871   -115.44208   -799.42892    4.3036195    4.3036195    4.3036195   -799.42892   -7886.6452      -6299.9    11788.258   -3848.7154    12396.123   -827.38126    79.707944 
   90800    1253.6352   -116.58159    1.1343154   -115.44727    1826.1348    4.2989002    4.2989002    4.2989002    1826.1348    -17247.26    21319.718    1405.9469     3408.553    -36829.19    8279.4967     79.44601 
   90900      1266.03    -116.5943    1.1455305   -115.44877     2693.065    4.2963218    4.2963218    4.2963218     2693.065    -17911.61    14575.674    11415.131   -17332.352   -25871.383    -3163.872    79.303144 
   91000    1615.8151   -116.90621    1.4620235   -115.44418     8384.219    4.3012044    4.3012044    4.3012044     8384.219   -2430.6288   -12449.199    40032.485   -11274.353    14669.046   -4685.3303    79.573829 
   91100    1438.3856   -116.74747    1.3014816   -115.44599    -4873.996    4.3026821    4.3026821    4.3026821    -4873.996   -19018.461     5810.364   -1413.8908    10781.548   -26225.832     206.0918    79.655871 
   91200    1221.2755   -116.55445    1.1050358   -115.44942   -2156.0116    4.2954885    4.2954885    4.2954885   -2156.0116   -14470.113    29139.309   -21137.231    99.084399   -38353.163    1278.7239    79.257011 
   91300    1510.6365   -116.81308    1.3668557   -115.44623    5455.2879    4.2967209    4.2967209    4.2967209    5455.2879    5712.3546   -8691.6513    19345.161    -13924.52    7054.7746    10103.819    79.325249 
   91400    1494.3022   -116.79843     1.352076   -115.44635   -5306.7763    4.3048737    4.3048737    4.3048737   -5306.7763   -6268.7599   -12031.898    2380.3293   -7348.2063   -8408.0832    -4603.204     79.77765 
   91500    1383.7669   -116.70007    1.2520613   -115.44801   -14.568435     4.297231     4.297231     4.297231   -14.568435   -6659.2982    26355.219   -19739.626    6294.0173   -40168.174   -4913.5928    79.353502 
   91600    1417.6555   -116.72911    1.2827245   -115.44639    11388.922    4.2939302    4.2939302    4.2939302    11388.922    5830.4291    12685.299    15651.039   -8444.1788   -2626.5503     3834.211    79.170782 
   91700     1409.397   -116.72294     1.275252   -115.44769   -1315.8748    4.3047027    4.3047027    4.3047027   -1315.8748      521.711   -21811.978    17342.643   -12182.057    13253.654    729.55636    79.768143 
   91800    1514.3533   -116.81567    1.3702187   -115.44546    4780.7821    4.2988113    4.2988113    4.2988113    4780.7821   -6546.8728    13964.435    6924.7839    4286.4733   -25018.152    2807.7724    79.441083 
   91900    1514.2775   -116.81479    1.3701501   -115.44464    15520.394    4.2937174    4.2937174    4.2937174    15520.394   -4404.6402    25856.009    25109.813   -4102.4856   -11770.011    990.06819    79.159011 
   92000    1226.8949   -116.56083    1.1101202   -115.45071   -7425.6178    4.3032442    4.3032442    4.3032442   -7425.6178   -4334.6684   -16862.403   -1079.7825   -11763.708    20023.645    9475.6661     79.68709 
   92100    1381.2366   -116.69903    1.2497719   -115.44926    5092.3313    4.2989432    4.2989432    4.2989432    5092.3313    1461.7619    -259.7128    14074.945   -1945.6713   -1612.4451   -3458.4853    79.448393 
   92200    1810.9865   -117.08063    1.6386186   -115.44201    12572.105    4.2992626    4.2992626    4.2992626    12572.105    1863.0615    21484.377    14368.876    8272.8304   -15077.153   -10649.812    79.466104 
   92300    1346.4506   -116.66622    1.2182968   -115.44792   -6367.1296    4.3041437    4.3041437    4.3041437   -6367.1296   -7885.6857   -4797.0632   -6418.6399   -6464.5185    11631.258    22348.486    79.737074 
   92400    1006.2028   -116.36235   0.91043345   -115.45192    5233.7089    4.2957963    4.2957963    4.2957963    5233.7089    -5053.822    3089.4856    17665.463   -11521.739    20384.422    8309.2412     79.27405 
   92500    1707.3019   -116.99247    1.5448027   -115.44766    13264.309    4.2988556    4.2988556    4.2988556    13264.309    9902.3283    10140.037    19750.562    655.07644   -2498.3504   -15607.442    79.443536 
   92600     1837.298    -117.1077    1.6624258   -115.44528    10525.847    4.3007922    4.3007922    4.3007922    10525.847    11932.958    2510.5479    17134.035    564.90545    487.53654    1366.3226    79.550951 
   92700    1087.2233   -116.43959   0.98374253   -115.45585    3439.5154    4.2969859    4.2969859    4.2969859    3439.5154   -5293.3337     7953.262    7658.6177    -2359.162    21708.407    17608.784    79.339926 
   92800    1224.7069   -116.56211    1.1081405   -115.45397   -3637.7602      4.30243      4.30243      4.30243   -3637.7602   -1625.1716   -4458.7626   -4829.3464   -3141.0578    6835.6648   -425.74823     79.64187 
   92900    1827.0673   -117.09451    1.6531689   -115.44134    11070.487    4.2984935    4.2984935    4.2984935    11070.487     17238.45    13760.585    2212.4259     -820.308   -15180.268   -9145.5515    79.423466 
   93000     1387.793   -116.70271    1.2557042   -115.44701    2090.9358    4.2995612    4.2995612    4.2995612    2090.9358   -5670.2505    9374.7127    2568.3451   -5232.9146    2420.2955    14616.447    79.482662 
   93100    1132.6265    -116.4757    1.0248243   -115.45088   -8953.3155    4.3016462    4.3016462    4.3016462   -8953.3155   -9271.9092   -16336.952   -1251.0848   -8960.1838    21135.064    10130.528     79.59835 
   93200    1530.8971    -116.8304    1.3851879   -115.44521    12480.769    4.2927724    4.2927724    4.2927724    12480.769    7610.4963    10887.041     18944.77    2380.0789   -11588.771   -6252.7741    79.106759 
   93300    1455.5767   -116.76561    1.3170364   -115.44858    5374.1066    4.3005063    4.3005063    4.3005063    5374.1066   -15693.531    27273.666    4542.1849    3104.3206   -29405.506     256.8457    79.535089 
   93400    1289.1225   -116.61466    1.1664251   -115.44823   -7867.5832    4.3042976    4.3042976    4.3042976   -7867.5832   -14437.328    -15535.61    6370.1884   -753.79821    7333.8817    19187.656    79.745623 
   93500    1300.8957   -116.62213    1.1770778   -115.44505    6354.5425    4.2947362    4.2947362    4.2947362    6354.5425   -5610.6376   -8313.4923    32987.757   -6385.4919    6832.4234     7980.731    79.215375 
   93600    1366.1783   -116.68273    1.2361468   -115.44659   -803.38023    4.2978138    4.2978138    4.2978138   -803.38023   -19308.501     24444.18   -7545.8188   -1810.0619    -39203.51    -8900.802    79.385795 
   93700    1475.3943   -116.78037    1.3349678   -115.44541   -822.88698    4.3002043    4.3002043    4.3002043   -822.88698    -13670.29    12790.628   -1588.9981    3261.9861   -22141.074    1645.1018    79.518332 
   93800    1409.0538    -116.7207    1.2749415   -115.44576    -5049.066    4.3020985    4.3020985    4.3020985    -5049.066   -6854.2891   -23357.804    15064.895   -4152.6652    8356.9398    11857.285    79.623459 
   93900    1077.5979   -116.42496   0.97503319   -115.44992   -13542.522    4.3009849    4.3009849    4.3009849   -13542.522   -34576.951     4633.522   -10684.137   -4984.2998   -31997.063    7504.8957    79.561645 
   94000    1390.0593   -116.70454    1.2577548   -115.44678    3126.6081    4.2936675    4.2936675    4.2936675    3126.6081   -13341.805    34640.788   -11919.159   -399.41525   -32227.663   -1654.3802    79.156255 
   94100    1680.7382   -116.96384    1.5207672   -115.44308    2697.8503    4.3009923    4.3009923    4.3009923    2697.8503   -1129.7004   -7659.2883     16882.54   -553.22919      12400.7   -2554.7445    79.562053 
   94200    1117.5901    -116.4622     1.011219   -115.45098   -11811.373    4.3053241    4.3053241    4.3053241   -11811.373   -26116.153   -6950.5362   -2367.4308   -7526.5185    -21837.27    5071.0733    79.802691 
   94300    1152.2675   -116.49149    1.0425958   -115.44889    9.4533476     4.295149     4.295149     4.295149    9.4533476   -22510.411    32606.407   -10067.636   -4377.5214   -50627.071   -887.31293    79.238217 
   94400    1698.7385   -116.98033    1.5370543   -115.44328    10134.682    4.2997625    4.2997625    4.2997625    10134.682    6825.2021     17294.03    6284.8131    2225.6845    8112.9659   -5771.8718    79.493825 
   94500    1579.8213   -116.87577    1.4294555   -115.44631   -2722.6609    4.3021657    4.3021657    4.3021657   -2722.6609   -10005.198    1561.1257    276.08958   -1253.0586     8553.034    5433.2527    79.627192 
   94600    1067.1487   -116.41753   0.96557855   -115.45195    2683.7833    4.2957736    4.2957736    4.2957736    2683.7833   -10208.172     24457.17   -6197.6482   -2667.1009   -41948.066    10974.247    79.272794 
   94700    1455.3841   -116.76546    1.3168621   -115.44859    -3987.078    4.3032536    4.3032536    4.3032536    -3987.078   -8322.1192    15537.286     -19176.4    -5180.269   -9142.8208   -2372.4036    79.687615 
   94800    1748.2582   -117.02341    1.5818608   -115.44155    5399.0966    4.3007284    4.3007284    4.3007284    5399.0966    7435.3251    8496.6038    265.36108   -2373.0515    19444.747   -9430.3441    79.547409 
   94900    1390.3433   -116.70509    1.2580119   -115.44708    4945.0528    4.2945404    4.2945404    4.2945404    4945.0528   -4509.7983    19594.975   -250.01799   -7228.2965   -23321.869    6800.2363     79.20454 
   95000    1155.3315   -116.49649    1.0453683   -115.45112   -10321.977    4.3036598    4.3036598    4.3036598   -10321.977   -6927.2434    6247.7377   -30286.425   -7196.6734   -24344.295    10404.629    79.710181 
   95100    1600.9162   -116.89452    1.4485427   -115.44598    1288.1732    4.3001422    4.3001422    4.3001422    1288.1732      6732.48    3455.1921   -6323.1524    10596.804    18557.292    -4128.076    79.514888 
   95200    1723.8489   -117.00341    1.5597747   -115.44364    8132.5902    4.2953389    4.2953389    4.2953389    8132.5902     3895.384    21938.065   -1435.6786    1047.9456   -8448.0726   -2465.7932    79.248729 
   95300    1175.4167   -116.51402    1.0635417   -115.45048   -9768.1536    4.3029298    4.3029298    4.3029298   -9768.1536   -6017.3099    7364.2802   -30651.431   -10169.592   -40772.236    14639.147    79.669624 
   95400     1281.509   -116.60927    1.1595362   -115.44974   -2694.3111    4.3016599    4.3016599    4.3016599   -2694.3111    14407.549   -571.16422   -21919.318    -9090.817     4122.368      1737.77    79.599112 
   95500    1834.3786   -117.09993    1.6597843   -115.44014    7570.8687    4.2982396    4.2982396    4.2982396    7570.8687    16920.296    12083.781   -6291.4707   -3185.1949    16810.426   -13459.313    79.409391 
   95600    1397.5811   -116.71142    1.2645608   -115.44686    958.21508    4.2989164    4.2989164    4.2989164    958.21508    8136.1176    19543.073   -24804.546     4589.288   -30897.127    6934.6124     79.44691 
   95700      1083.54   -116.43376   0.98040974   -115.45335    1440.1966    4.2981735    4.2981735    4.2981735    1440.1966    15121.506     5546.697   -16347.613   -12730.992   -23659.317    15165.506    79.405729 
   95800    1621.0475   -116.91363    1.4667578   -115.44687    2732.0875    4.3029174    4.3029174    4.3029174    2732.0875    14745.641   -5176.6574   -1372.7207   -2720.1297    9514.3306    536.01345    79.668939 
   95900    1657.4394   -116.94327     1.499686   -115.44359    6420.9514    4.2999789    4.2999789    4.2999789    6420.9514    7746.5515    17069.881   -5553.5788    12633.127   -10945.513   -6071.7088    79.505831 
   96000    1115.9339   -116.46016    1.0097204   -115.45044    8014.6112    4.2952856    4.2952856    4.2952856    8014.6112    4011.4019     13796.49     6235.942   -1412.7217   -29265.395    6684.7513     79.24578 
   96100    1379.0314   -116.69573    1.2477766   -115.44795   -491.29745    4.3051975    4.3051975    4.3051975   -491.29745    19473.812   -12737.848   -8209.8564   -11990.581    1309.2156    15188.644    79.795652 
   96200     1684.456   -116.96456    1.5241312   -115.44043    6124.4493    4.3016533    4.3016533    4.3016533    6124.4493    16981.387    683.20287     708.7584    513.33926    3597.3352     1621.515    79.598747 
   96300    1202.6123   -116.53396    1.0881489   -115.44582    13266.357    4.2934603    4.2934603    4.2934603    13266.357    1461.4762     17440.07    20897.524     18228.26    -28547.09   -3305.5629    79.144795 
   96400      1201.87   -116.53835    1.0874772   -115.45087   -4225.9729    4.3014827    4.3014827    4.3014827   -4225.9729    10371.756   -6275.8422   -16773.833   -134.70044   -11537.552    17711.969    79.589272 
   96500    1572.0432   -116.86682    1.4224177    -115.4444    9100.6862    4.3005659    4.3005659    4.3005659    9100.6862    32063.298   -2656.6297     -2104.61   -3245.2341    5987.9173     17181.86    79.538394 
   96600    1395.0588   -116.70708    1.2622785    -115.4448    6658.7514    4.2982909    4.2982909    4.2982909    6658.7514   -5405.6553    4146.1971    21235.712    16789.421   -20564.171   -5517.7921    79.412233 
   96700    1067.4292   -116.41471   0.96583238   -115.44888   -15136.559     4.304612     4.304612     4.304612   -15136.559    -24271.84   -2022.7105   -19115.127    8138.4625    -19963.46    9329.8683    79.763104 
   96800    1372.5644   -116.68655    1.2419251   -115.44462    8942.2368    4.2971678    4.2971678    4.2971678    8942.2368    28406.562    7608.6006   -9188.4523    -5431.223    3998.8598    23735.697    79.350001 
   96900    1553.3946   -116.84657    1.4055441   -115.44103    11663.232    4.2967627    4.2967627    4.2967627    11663.232    18485.513   -5527.6462     22031.83    395.94196    3511.4682   -106.89973     79.32756 
   97000     1055.912   -116.40378   0.95541139   -115.44836   -12760.012    4.3057029    4.3057029    4.3057029   -12760.012   -23574.133   -5688.7977   -9017.1048    13954.746   -19522.871   -8726.0135    79.823762 
   97100    1028.4493   -116.38084   0.93056251   -115.45028    4744.9737    4.2965312    4.2965312    4.2965312    4744.9737     8558.904    13856.448   -8180.4311     3486.529   -13375.226    16867.546    79.314742 
   97200    1480.0116    -116.7814    1.3391456   -115.44225    20764.289    4.2965619    4.2965619    4.2965619    20764.289    41192.722    -2193.905    23294.049   -6533.5372     8019.484    17376.957    79.316439 
   97300    1160.3426   -116.49505    1.0499023   -115.44515   -12047.068     4.307005     4.307005     4.307005   -12047.068   -7089.7593    -22114.46   -6936.9847    8718.8312   -11445.978    -12755.56    79.896201 
   97400    793.32751   -116.16793    0.7178194   -115.45011    -2817.584     4.297678     4.297678     4.297678    -2817.584   -5424.1979   -1962.2761   -1066.2779    13299.867   -19204.495   -3518.4224     79.37827 
   97500    1370.6641   -116.68551    1.2402057   -115.44531    9706.6198    4.2959078    4.2959078    4.2959078    9706.6198    15857.135   -4608.5441    17871.269    2141.5268   -237.88456    16034.535    79.280221 
   97600    1324.8722   -116.64388    1.1987722   -115.44511    -6043.796     4.303721     4.303721     4.303721    -6043.796    6869.4961   -29707.337    4706.4525   -14487.147   -4093.2263   -3989.9339    79.713584 
   97700    700.46818   -116.08765   0.63379833   -115.45385   -7062.3028    4.2976299    4.2976299    4.2976299   -7062.3028   -11767.178   -15764.562    6344.8315    5372.1626     -15639.8   -11668.095    79.375602 
   97800    1113.1622    -116.4577    1.0072126   -115.45048   -5893.6831    4.3015553    4.3015553    4.3015553   -5893.6831   -6059.1813    -13602.97    1981.1019    11351.388   -8197.2049    -479.0758    79.593305 
   97900    1368.1953   -116.67757    1.2379719    -115.4396   -4046.1872    4.3070897    4.3070897    4.3070897   -4046.1872    760.60091   -27258.404    14359.241   -20831.444    8820.6038    8019.2017    79.900913 
   98000    833.34132   -116.19908   0.75402473   -115.44505    726.75633    4.2956935    4.2956935    4.2956935    726.75633    9695.2075   -22380.549     14865.61   -13285.458    -5371.922   -5617.7007    79.268358 
   98100    839.21195   -116.20877   0.75933661   -115.44944   -6754.8079     4.296928     4.296928     4.296928   -6754.8079    618.95283   -15979.924   -4903.4524    17825.416   -20826.767   -12591.085     79.33672 
   98200    1198.5663   -116.53003     1.084488   -115.44554     720.6958    4.3015508    4.3015508    4.3015508     720.6958    6172.4878   -17909.514    13899.114   -6741.6302   -2365.3781    3366.0064    79.593052 
   98300    1078.0132   -116.41971   0.97540899    -115.4443    10740.392    4.3003522    4.3003522    4.3003522    10740.392    10379.914   -3720.8652    25562.127   -35229.394    3110.9046     1093.474    79.526538 
   98400    932.34175   -116.29016   0.84360241   -115.44656   -12661.112    4.3037833    4.3037833    4.3037833   -12661.112   -5327.1312   -28926.505   -3729.6998    5542.4404   -12265.194   -9741.4536    79.717044 
   98500    921.05602   -116.27773   0.83339084   -115.44434   -3384.2935    4.2960863    4.2960863    4.2960863   -3384.2935    5931.7098   -28657.903    12573.313    11341.609   -12861.848   -12186.957    79.290103 
   98600    1010.5546   -116.35968   0.91437107    -115.4453    10048.256    4.2957055    4.2957055    4.2957055    10048.256    3600.1891   -7441.9774    33986.557   -33123.588    799.90984    506.28306     79.26902 
   98700    1179.5552   -116.50909    1.0672863    -115.4418   -5543.1047    4.3079569    4.3079569    4.3079569   -5543.1047   -3927.0483    -24526.92    11824.654   -9132.0369   -114.62061    1354.3852    79.949189 
   98800    982.87384   -116.33304    0.8893249   -115.44372   -3008.8051    4.2980809    4.2980809    4.2980809   -3008.8051    12189.673   -25913.158    4697.0698    15111.312   -19204.655   -15082.707    79.400593 
   98900    653.84348   -116.04109   0.59161132   -115.44948    1048.9388    4.2933299    4.2933299    4.2933299    1048.9388   -4558.2353   -16512.183    24217.235   -18902.054   -7718.3836   -3260.4815    79.137582 
   99000    1088.8576   -116.43214   0.98522128   -115.44692    561.24095    4.3024922    4.3024922    4.3024922    561.24095   -7121.4866   -11293.462    20098.672   -25961.521    7677.8567    3136.8991    79.645322 
   99100    1224.8273   -116.55092    1.1082495   -115.44267    8686.3582    4.2982619    4.2982619    4.2982619    8686.3582    18475.194   -5642.3542    13226.235    8583.1111   -1429.5347   -4226.2021    79.410626 
   99200    692.42415   -116.07692   0.62651993    -115.4504   -12753.433    4.3013679    4.3013679    4.3013679   -12753.433   -8505.0186   -32755.337    3000.0564   -1974.1049   -14615.326   -11028.496      79.5829 
   99300    810.92182   -116.18317   0.73373911   -115.44943   -7816.9761    4.2996068    4.2996068    4.2996068   -7816.9761   -10819.008   -33088.029    20456.108   -28772.596   -5028.2857   -7573.7591    79.485193 
   99400     1222.328    -116.5493    1.1059881   -115.44332    14734.563    4.2919856    4.2919856    4.2919856    14734.563    12870.514     4907.024     26426.15   -1811.6957    24007.586    11534.312    79.063271 
   99500    967.31938    -116.3232    0.8752509   -115.44795   -11413.332    4.3047997    4.3047997    4.3047997   -11413.332     -10522.2   -30126.697    6408.8999    9255.3271    738.35317   -4701.5547    79.773539 
   99600    904.64027   -116.26651   0.81853753   -115.44797   -9857.5332    4.3003743    4.3003743    4.3003743   -9857.5332   -9954.4292    -41447.45     21829.28   -9900.8523    -19115.34   -18315.118    79.527763 
   99700    1055.6402   -116.40009   0.95516548   -115.44493    10688.742     4.291476     4.291476     4.291476    10688.742   -5237.9232   -3515.4462    40819.597   -10721.847    16520.083   -1067.5157    79.035112 
   99800    1087.3451      -116.43   0.98385272   -115.44615   -9617.1646    4.3047843    4.3047843    4.3047843   -9617.1646   -16093.234   -6845.3995     -5912.86    304.03713    27936.462    6537.4225    79.772679 
   99900    1210.8138   -116.53995    1.0955697   -115.44438   -2058.3216    4.2992314    4.2992314    4.2992314   -2058.3216    39.186883    -23212.32    16998.168   -1144.5032   -2729.4208   -10877.736    79.464373 
  100000    1099.5862   -116.44087   0.99492872   -115.44594    4153.3968    4.2944736    4.2944736    4.2944736    4153.3968   -6806.2413   -22945.149     42211.58   -6940.4496   -526.80509   -13443.449    79.200846 
Loop time of 22.5293 on 1 procs for 100000 steps with 8 atoms

Pair  time (%) = 7.18438 (31.889)
Kspce time (%) = 5.40394 (23.9862)
Neigh time (%) = 0 (0)
Comm  time (%) = 1.10027 (4.88373)
Outpt time (%) = 0.0239713 (0.1064)
Other time (%) = 8.81678 (39.1347)

Nlocal:    8 ave 8 max 8 min
Histogram: 1 0 0 0 0 0 0 0 0 0
Nghost:    2189 ave 2189 max 2189 min
Histogram: 1 0 0 0 0 0 0 0 0 0
Neighs:    2344 ave 2344 max 2344 min
Histogram: 1 0 0 0 0 0 0 0 0 0

Total # of neighbors = 2344
Ave neighs/atom = 293
Neighbor list builds = 0
Dangerous builds = 0
unfix 20
unfix 21
print "seeds:3637999"
seeds:3637999
