LAMMPS (10 Feb 2015)
# ---- initialize simulations
clear
units metal
dimension 3
boundary p p p
atom_style charge
atom_modify map array
# ---- create atoms
read_data /Users/eugeneragasa/pyflamestk_git/pypospack/tests/tests_integration/workflow/WorkflowLammpsThermalExpansion/param_9215/MgO_NaCl_unit.npt.T1300/lammps.structure
  triclinic box = (0 0 0) to (4.2565 4.2565 4.2565) with tilt (0 0 0)
  1 by 1 by 1 MPI processor grid
  reading atoms ...
  8 atoms
# ---- define interatomic potential
include potential.mod
mass 1 24.305
mass 2 15.999

group Mg type 1
4 atoms in group Mg
group O type 2
4 atoms in group O

set group Mg charge 1.57990545172
  4 settings made for charge
set group O charge -1.57990545172
  4 settings made for charge

variable R_cut equal 10.0

pair_style buck/coul/long ${R_cut}
pair_style buck/coul/long 10
pair_coeff 1 1 0.0 0.5 0.0 ${R_cut}
pair_coeff 1 1 0.0 0.5 0.0 10
pair_coeff 1 2 1322.20855758 0.285006791586 0.0 ${R_cut}
pair_coeff 1 2 1322.20855758 0.285006791586 0.0 10
pair_coeff 2 2 14469.0891926 0.219096223147 48.5612274161 ${R_cut}
pair_coeff 2 2 14469.0891926 0.219096223147 48.5612274161 10

kspace_style pppm 1.0e-5

neighbor 1.0 bin
neigh_modify every 1 delay 0 check yes
# ---- define settings
compute eng all pe/atom
compute eatoms all reduce sum c_eng
# ---- run minimization
reset_timestep 0
fix 1 all box/relax iso 0.0 vmax 0.001
thermo 10
thermo_style custom step pe lx ly lz xy xz yz press pxx pyy pzz pxy pxz pyz c_eatoms
min_style cg
minimize 1e-25 1e-25 5000 10000
PPPM initialization ...
  G vector (1/distance) = 0.352172
  grid = 8 8 8
  stencil order = 5
  estimated absolute RMS force accuracy = 3.68665e-05
  estimated relative force accuracy = 2.56024e-06
  using double precision FFTs
  3d grid and FFT values/proc = 3375 512
Neighbor list info ...
  1 neighbor list requests
  update every 1 steps, delay 0 steps, check yes
  master list distance cutoff = 11
Memory usage per processor = 4.06549 Mbytes
Step PotEng Lx Ly Lz Xy Xz Yz Press Pxx Pyy Pzz Pxy Pxz Pyz eatoms 
       0   -101.30442       4.2565       4.2565       4.2565            0            0            0    88329.967    88329.967    88329.967    88329.967 -1.1961844e-11 -2.4099438e-10 5.9240466e-12   -101.30442 
      10    -101.3918     4.299065     4.299065     4.299065            0            0            0    35693.934    35693.934    35693.934    35693.934 1.4632835e-11 -2.3788485e-11 -3.8066587e-11    -101.3918 
      20   -101.41159    4.3315082    4.3315082    4.3315082            0            0            0   -5.9294003   -5.9294003   -5.9294003   -5.9294003 1.7198652e-10 1.1926792e-10 -5.3176444e-11   -101.41159 
Loop time of 0.012331 on 1 procs for 20 steps with 8 atoms

Minimization stats:
  Stopping criterion = linesearch alpha is zero
  Energy initial, next-to-last, final = 
        -101.304424021     -101.411593199     -101.411593199
  Force two-norm initial, final = 12.7549 0.00088671
  Force max component initial, final = 12.7549 0.000886651
  Final line search alpha, max atom move = 0.015625 1.38539e-05
  Iterations, force evaluations = 20 34

Pair  time (%) = 0.003299 (26.7537)
Kspce time (%) = 0.00215411 (17.4691)
Neigh time (%) = 0 (0)
Comm  time (%) = 0.000373602 (3.02978)
Outpt time (%) = 1.19209e-05 (0.0966744)
Other time (%) = 0.00649238 (52.6508)

Nlocal:    8 ave 8 max 8 min
Histogram: 1 0 0 0 0 0 0 0 0 0
Nghost:    2189 ave 2189 max 2189 min
Histogram: 1 0 0 0 0 0 0 0 0 0
Neighs:    2344 ave 2344 max 2344 min
Histogram: 1 0 0 0 0 0 0 0 0 0

Total # of neighbors = 2344
Ave neighs/atom = 293
Neighbor list builds = 0
Dangerous builds = 0
unfix 1
# ---- define output variables ----
variable natoms equal "count(all)"
variable tot_energy equal "c_eatoms"
variable length_x equal "lx"
variable length_y equal "ly"
variable length_z equal "lz"
variable tilt_xy equal "xy"
variable tilt_xz equal "xz"
variable tilt_yz equal "yz"
variable tot_press equal "press"
variable press_xx equal "pxx"
variable press_yy equal "pyy"
variable press_zz equal "pzz"
variable press_xy equal "pxy"
variable press_xz equal "pxz"
variable press_yz equal "pyz"

# ---- output ----
print "pypospack:output_section:begin"
pypospack:output_section:begin
print "tot_energy = ${tot_energy}"
tot_energy = -101.411593198701
print "num_atoms = ${natoms}"
num_atoms = 8
print "xx = ${length_x}"
xx = 4.33150823558717
print "yy = ${length_y}"
yy = 4.33150823558717
print "zz = ${length_z}"
zz = 4.33150823558717
print "xy = ${tilt_xy}"
xy = 0
print "xz = ${tilt_xz}"
xz = 0
print "yz = ${tilt_yz}"
yz = 0
print "tot_press = ${tot_press}"
tot_press = -5.92940031006952
print "pxx = ${press_xx}"
pxx = -5.92940030994687
print "pyy = ${press_yy}"
pyy = -5.92940031012476
print "pzz = ${press_zz}"
pzz = -5.92940031013695
print "pxy = ${press_xy}"
pxy = 1.71986520125442e-10
print "pxz = ${press_xz}"
pxz = 1.19267916823708e-10
print "pyz = ${press_yz}"
pyz = -5.31764436793611e-11
print "pypospack:output_section:done"
pypospack:output_section:done
print "pypospack:lammps_sim:done"
pypospack:lammps_sim:done
#------------------------------------------------------------------------------
# RUN THERMOSTAT
# running using an NPT Nose-Hoover style thermostat
#------------------------------------------------------------------------------
variable tempdamp equal 0.1
variable pressdamp equal 1.0
# set initial velocities
velocity all create 1300 761679 mom yes dist gaussian loop all
# fix for Nose-Hoover style thermostat
fix 20 all npt temp 1300 1300 0.1 aniso 0.0 0.0 1.0 drag 1.0 couple xyz
variable boxx equal lx
variable boxy equal ly
variable boxz equal lz
variable boxp equal press
variable boxt equal temp
# calculate averages every 10000 steps
reset_timestep 0
fix 21 all ave/time 10 10 100 v_boxx v_boxy v_boxz v_boxp v_boxt file lattice.out
thermo_style custom step temp pe ke etotal press lx ly lz press pxx pyy pzz pxy pxz pyz vol
thermo_modify flush yes
thermo 100
run 100000
PPPM initialization ...
  G vector (1/distance) = 0.351443
  grid = 8 8 8
  stencil order = 5
  estimated absolute RMS force accuracy = 3.81088e-05
  estimated relative force accuracy = 2.64651e-06
  using double precision FFTs
  3d grid and FFT values/proc = 3375 512
Memory usage per processor = 3.06549 Mbytes
Step Temp PotEng KinEng TotEng Press Lx Ly Lz Press Pxx Pyy Pzz Pxy Pxz Pyz Volume 
       0         1300    -101.4116    1.1762673   -100.23534     15452.24    4.3315082    4.3315082    4.3315082     15452.24    9529.4475    17255.208    19572.065    -3880.878   -5774.8949    8587.1477      81.2676 
     100    350.07781   -100.40108   0.31675776   -100.08432    11008.572    4.3611182    4.3611182    4.3611182    11008.572   -12977.577    2522.9264    43480.367     6612.567   -1733.6744    8196.2571    82.945642 
     200    1186.8124   -100.82761    1.0738528   -99.753755    -24379.92    4.4008631    4.4008631    4.4008631    -24379.92   -45604.603   -33094.167    5559.0087    -6052.385   -4510.3511    8968.4296     85.23414 
     300    779.02681   -100.20449   0.70487983   -99.499608    352.46602    4.3903635    4.3903635    4.3903635    352.46602   -45425.827   -22526.802    69010.028    10776.438    1950.8618    11198.529    84.625539 
     400    1145.0416    -100.2875    1.0360577   -99.251446    13680.632    4.3665928    4.3665928    4.3665928    13680.632    643.76116    21908.598    18489.536   -7402.9241    2470.3402    12150.251    83.258406 
     500    1786.9065   -100.74501    1.6168306   -99.128175   -10495.604    4.3833465    4.3833465    4.3833465   -10495.604   -34222.802   -11255.518    13991.508    8680.4673    8084.7862   -16259.716    84.220422 
     600    757.11478   -99.737219   0.68505336   -99.052166   -13470.597    4.4095297    4.4095297    4.4095297   -13470.597   -35668.809   -39500.985    34758.003    3422.5545    2328.3827    7376.7462    85.738682 
     700    1841.9806   -100.68132    1.6666627   -99.014657   -20456.974    4.3964332    4.3964332    4.3964332   -20456.974   -21491.276   -28888.479   -10991.166    1951.9079    3019.6711   -26472.894     84.97701 
     800    715.96722   -99.665205   0.64782219   -99.017382    33711.712     4.371649     4.371649     4.371649    33711.712    37057.854   -21025.821    85103.103    1024.3591    -2834.568    27023.009    83.547962 
     900    1805.3948   -100.66541    1.6335591   -99.031851   -22875.381    4.3846899    4.3846899    4.3846899   -22875.381   -23823.351   -32011.265   -12791.526    180.00444   -1030.4882   -32774.675    84.297878 
    1000    1076.8689   -100.01251   0.97437363   -99.038134    3083.7899     4.404118     4.404118     4.404118    3083.7899   -25659.803   -30470.924    65382.096    4038.7055   -6864.4449    14012.793    85.423398 
    1100    1104.4929   -100.03272   0.99936841   -99.033347    -14495.85     4.401215     4.401215     4.401215    -14495.85    8798.6677   -21154.989   -31131.228   -11374.821   -1442.5088   -25937.924    85.254587 
    1200    1556.9092    -100.4189    1.4087241   -99.010178    11765.862    4.3884759    4.3884759    4.3884759    11765.862    14942.751   -14690.482    35045.317     9760.613    1032.9596    6577.4408    84.516431 
    1300    1261.9622   -100.16382    1.1418499   -99.021967   -20753.564     4.391175     4.391175     4.391175   -20753.564   -3251.4275   -36157.855   -22851.408    -3631.523    6564.2639   -19262.612    84.672472 
    1400    1317.5037   -100.21466     1.192105   -99.022557    -2669.165    4.4023433    4.4023433    4.4023433    -2669.165   -24546.224   -6107.5972    22646.326    2690.8571    9626.5994    6182.7022    85.320169 
    1500    1379.0557   -100.26477    1.2477986   -99.016975   -16719.803    4.3963378    4.3963378    4.3963378   -16719.803    36974.651    -57820.84   -29313.219    7790.4151    4330.8882   -9686.8732    84.971475 
    1600    1303.3746   -100.18704    1.1793207   -99.007715    1805.8423    4.3871713    4.3871713    4.3871713    1805.8423   -9113.9823   -4228.0226    18759.532    2011.1866    3939.7361   -6337.0238    84.441081 
    1700    1785.0189   -100.62655    1.6151226    -99.01143   -29944.416    4.3962257    4.3962257    4.3962257   -29944.416    1107.3428   -52433.493   -38507.097    7498.1325    7109.8082   -4541.2186    84.964979 
    1800     785.7889   -99.736673   0.71099831   -99.025674     13263.23     4.395888     4.395888     4.395888     13263.23    38540.471   -33716.517    34965.736   -3357.0527   -1020.8501   -7490.6059    84.945396 
    1900    1680.4875   -100.53667    1.5205404   -99.016131    -7625.923    4.3866158    4.3866158    4.3866158    -7625.923   -633.57345   -22918.334     674.1387    6524.8088    4624.6871   -12065.428    84.409005 
    2000    1513.1888   -100.39456    1.3691651   -99.025392    -17307.27    4.3931821    4.3931821    4.3931821    -17307.27     4855.567   -40740.376   -16037.002    805.10246   -8178.5264   -15053.858    84.788628 
    2100    1026.0371   -99.959391    0.9283799   -99.031011     20682.82    4.3917826    4.3917826    4.3917826     20682.82   -6315.9814   -5288.5131    73652.953    4115.9045    11755.506   -19594.359    84.707622 
    2200    1341.9342   -100.25646    1.2142103   -99.042246    682.17334    4.3931283    4.3931283    4.3931283    682.17334   -2682.2859    3059.7706    1669.0352   -3547.2358    -8738.649   -15465.934    84.785512 
    2300    1300.0569   -100.21079    1.1763188    -99.03447    6836.5274    4.3916023    4.3916023    4.3916023    6836.5274   -15412.086    578.75753    35342.911   -1729.0767   -3587.4479   -4092.0275    84.697193 
    2400    899.26036   -99.852018   0.81366968   -99.038349     7437.531    4.3862347    4.3862347    4.3862347     7437.531   -5437.3425    1988.8712    25761.064    6167.0821    10683.657   -40357.857    84.387012 
    2500    1563.6582    -100.4551    1.4148308    -99.04027   -5674.1373    4.3900726    4.3900726    4.3900726   -5674.1373   -27001.073    16457.661   -6479.0009   -241.36929   -13906.804    16273.884    84.608715 
    2600    1021.6026    -99.96637   0.92436748   -99.042003    3966.8653    4.3937219    4.3937219    4.3937219    3966.8653    5267.1779    19652.098    -13018.68   -3297.5939    8124.9645   -18948.902    84.819891 
    2700    1195.4086   -100.11145    1.0816308   -99.029819    21622.235    4.3920671    4.3920671    4.3920671    21622.235   -18603.109    23477.229    59992.584    6702.8228   -11624.329    29573.405     84.72409 
    2800    1333.7399   -100.22708    1.2067959   -99.020284   -18102.116    4.3972736    4.3972736    4.3972736   -18102.116   -13557.386   -16845.296   -23903.664   -4202.5735    9785.4592   -18539.342     85.02575 
    2900    1262.0677   -100.15837    1.1419454   -99.016426    11352.817    4.3836807    4.3836807    4.3836807    11352.817    11865.608    23636.053   -1443.2095   -447.62337   -4265.8296    15030.321    84.239685 
    3000    1182.8512   -100.09641    1.0702687    -99.02614    6548.8125    4.3735349    4.3735349    4.3735349    6548.8125   -968.95578    6019.4667    14595.927   -16747.095    11074.044    -15318.66    83.656133 
    3100    1247.0826   -100.17322    1.1283866   -99.044829    9938.4862    4.3894013    4.3894013    4.3894013    9938.4862     19006.58    5238.3921    5570.4868     3468.315   -7746.8665   -2315.0383     84.56991 
    3200    1069.5666   -100.00593   0.96776633   -99.038161   -21947.653    4.4059991    4.4059991    4.4059991   -21947.653   -27159.175   -26215.668   -12468.115   -13348.166   -2156.2602   -5488.0865    85.532903 
    3300    1195.0924   -100.09644    1.0813447   -99.015093    8811.2314    4.3864223    4.3864223    4.3864223    8811.2314     34728.76    2814.4609   -11109.526   -26250.345   -1494.3316   -7070.9974    84.397837 
    3400    1196.7076   -100.09399    1.0828062   -99.011188    1897.3044    4.3781478    4.3781478    4.3781478    1897.3044    8490.5604    27757.478   -30556.125    216.21254   -9091.1039    6418.8293    83.921117 
    3500    1285.3851   -100.18101    1.1630434   -99.017969   -8044.0374    4.3990043    4.3990043    4.3990043   -8044.0374    19686.812   -33694.373    -10124.55   -24835.877    7443.5103   -25383.488    85.126185 
    3600    1183.0295   -100.07376      1.07043   -99.003327   -14863.523    4.4045867    4.4045867    4.4045867   -14863.523    1459.2342    13696.945   -59746.748   -5008.0739   -3603.1974     11190.73    85.450672 
    3700    1228.0345    -100.1072    1.1111515   -98.996047    18488.074    4.3789218    4.3789218    4.3789218    18488.074    6872.5423     25963.78    22627.899   -16138.926    14648.406   -7695.9271    83.965635 
    3800    1451.3007   -100.32272    1.3131673   -99.009556    17037.676    4.3860615    4.3860615    4.3860615    17037.676    21598.926    15796.714    13717.387   -1777.1921   -346.37984    9071.4871    84.377015 
    3900    1286.2039   -100.16411    1.1637843   -99.000322   -37074.136    4.4218575    4.4218575    4.4218575   -37074.136   -62799.957   -7995.4527   -40426.997  -0.30985596    5661.3646   -10274.833    86.459802 
    4000    1859.1614   -100.64691    1.6822083   -98.964707   -15782.415    4.4046564    4.4046564    4.4046564   -15782.415   -4064.7074   -33292.027   -9990.5097     21481.55   -13437.681   -669.73151    85.454728 
    4100    1175.4518    -100.0296    1.0635735   -98.966026    8734.7792    4.3843694    4.3843694    4.3843694    8734.7792    2981.3138    46904.103    -23681.08   -6155.8319    10781.133     1689.373    84.279398 
    4200    1830.9294   -100.63785    1.6566634    -98.98119   -18748.646    4.3864632    4.3864632    4.3864632   -18748.646    7929.2472   -33726.532   -30448.653    16442.977   -15331.429    13276.818    84.400199 
    4300    1177.4544   -100.07902    1.0653855   -99.013634   -1894.9145    4.3968144    4.3968144    4.3968144   -1894.9145    3957.9848    31892.533   -41535.261   -2350.9872    13448.137   -3027.7921    84.999113 
    4400    1450.2979   -100.31637      1.31226   -99.004106   -28681.113    4.4070473    4.4070473    4.4070473   -28681.113   -15420.452   -24296.685     -46326.2    2298.7045   -9488.5503     11855.26    85.593963 
    4500    1205.4257   -100.09378    1.0906945   -99.003087   -20709.802    4.3843073    4.3843073    4.3843073   -20709.802   -32630.648    238.95338    -29737.71    12699.456    28720.568    6062.1664    84.275817 
    4600     1882.208   -100.70879    1.7030613   -99.005726    4971.3449    4.3769281    4.3769281    4.3769281    4971.3449     25908.57   -13139.838    2145.3022     2280.928   -3814.9207   -4919.1739    83.850999 
    4700    943.29997   -99.885527   0.85351764    -99.03201   -25716.658    4.3863404    4.3863404    4.3863404   -25716.658   -16963.308   -1347.1166   -58839.548   -1472.4542    23593.912    16898.231     84.39311 
    4800    1868.8787   -100.71159    1.6910007   -99.020593   -7917.5499    4.3911531    4.3911531    4.3911531   -7917.5499     13931.52   -22915.607   -14768.563    14404.719     -8710.82   -11394.335    84.671207 
    4900    1110.5029   -100.02621    1.0048063   -99.021406   -43570.533     4.401981     4.401981     4.401981   -43570.533   -15733.782   -46614.569   -68363.247   -5263.1537    20749.185    13048.384    85.299109 
    5000    1482.0404   -100.34265    1.3409813   -99.001667    20250.657    4.3806172    4.3806172    4.3806172    20250.657    41693.838   -25862.169    44920.303    12967.823   -7400.7956   -3402.9401    84.063197 
    5100    1280.7949   -100.17638    1.1588902   -99.017493   -24158.203    4.3885863    4.3885863    4.3885863   -24158.203   -22991.263     5060.817   -54544.163   -3061.1359    18148.225    9902.6357    84.522809 
    5200    1576.7476   -100.43377    1.4266744   -99.007096   -8088.6526    4.3885796    4.3885796    4.3885796   -8088.6526   -5167.8517   -15963.988   -3134.1181    1411.4282    20137.954   -9856.3857    84.522421 
    5300    1252.0087   -100.14773    1.1328438   -99.014887   -12665.969    4.3845518    4.3845518    4.3845518   -12665.969    5870.3223   -26721.418    -17146.81    5355.8477    1155.0606    22990.782    84.289916 
    5400    1632.7142   -100.48828    1.4773141   -99.010966   -18299.093    4.3921519    4.3921519    4.3921519   -18299.093   -18568.781     74.00179   -36402.499   -1594.5923    27863.732   -18180.259    84.728993 
    5500    1057.7641   -99.969209   0.95708723   -99.012121    21653.598    4.3784278    4.3784278    4.3784278    21653.598    46172.357   -7443.1504    26231.586    686.81052    11274.587    18531.399    83.937218 
    5600    1658.3988   -100.53385    1.5005541   -99.033297   -20724.577    4.3918233    4.3918233    4.3918233   -20724.577    -33104.71    3625.3433   -32694.364    466.76842    17488.807   -6288.5769    84.709979 
    5700    1496.8244   -100.38334    1.3543582    -99.02898    15233.514     4.383253     4.383253     4.383253    15233.514    31896.899    18339.218   -4535.5747    15295.198   -3616.3347    621.27386    84.215032 
    5800    901.69635   -99.848534    0.8158738    -99.03266     35716.08     4.380183     4.380183     4.380183     35716.08    37361.588    52183.215    17603.437   -6191.7285    31559.041    14303.538    84.038207 
    5900    1925.7289   -100.74794    1.7424399   -99.005505   -31954.045    4.4043105    4.4043105    4.4043105   -31954.045   -35266.989   -26870.051   -33725.094    8221.3746   -6092.2975   -10083.104    85.434601 
    6000    545.55541     -99.5178      0.49363    -99.02417    15524.544    4.3821003    4.3821003    4.3821003    15524.544    4481.6112     24543.39     17548.63    3660.6455    22547.326    26335.077    84.148606 
    6100    1983.1654   -100.80119    1.7944098    -99.00678    13250.585    4.3698556    4.3698556    4.3698556    13250.585    15894.055    5889.6711    17968.028   -897.11715   -4933.6718   -12054.775    83.445179 
    6200    629.81722   -99.606291   0.56987185   -99.036419    6509.6934     4.376912     4.376912     4.376912    6509.6934   -6331.1803     34720.25   -8859.9899   -1917.4865    25346.854    21558.428    83.850073 
    6300    1793.0374   -100.64669    1.6223779   -99.024316   -5467.9136    4.4008256    4.4008256    4.4008256   -5467.9136    -9072.901   -3089.7051   -4241.1345    8335.9682   -6012.6007   -6316.1806    85.231963 
    6400    783.64025    -99.72595   0.70905417   -99.016895   -43669.188     4.401622     4.401622     4.401622   -43669.188   -25265.618   -18876.417    -86865.53   -8696.9645    34937.379    26824.292    85.278242 
    6500    1472.7097   -100.32461    1.3325387   -98.992071    27897.849    4.3569662    4.3569662    4.3569662    27897.849    28468.708     40428.47     14796.37   -1687.4612   -6883.5946    -3608.859    82.708964 
    6600    1247.9631   -100.15304    1.1291833    -99.02386    839.68654    4.3644628    4.3644628    4.3644628    839.68654    8896.4423     37382.83   -43760.212   -5866.0508    33396.756    6952.5755    83.136628 
    6700    1045.3782   -99.978997   0.94588016   -99.033117   -6025.0522    4.3958349    4.3958349    4.3958349   -6025.0522    30202.506   -11072.404   -37205.259   -18369.548    8737.8943    7474.3249     84.94232 
    6800    1533.5288   -100.40756    1.3875691   -99.019996    -36533.35    4.4005814    4.4005814    4.4005814    -36533.35   -19595.569   -35212.741   -54791.742   -3285.6258    15996.113    970.94992    85.217774 
    6900    990.19034   -99.920535   0.89594503    -99.02459    13618.124    4.3700394    4.3700394    4.3700394    13618.124    46866.282    18138.498   -24150.406   -6916.7346    12447.929    15820.959    83.455712 
    7000    1727.2264   -100.57482    1.5628307   -99.011988    7899.1085    4.3563765    4.3563765    4.3563765    7899.1085    5185.9145    17248.707    1262.7043   -10573.444    7859.4294   -7130.4119    82.675385 
    7100    779.62412    -99.75093   0.70542028    -99.04551   -6909.4243    4.3868597    4.3868597    4.3868597   -6909.4243    37405.299   -14924.354   -43209.218    2003.7274    21050.382    23207.874    84.423089 
    7200    1595.3815   -100.45632    1.4435347   -99.012782   -5052.1266    4.3894714    4.3894714    4.3894714   -5052.1266   -676.46868   -6549.7771   -7930.1342   -13137.875   -3154.5854   -3804.6602    84.573961 
    7300    779.67945   -99.725681   0.70547035    -99.02021    8146.3351     4.373141     4.373141     4.373141    8146.3351    43665.044    14719.693   -33945.731     2350.038    27313.707    19369.406    83.633534 
    7400    1628.0664   -100.49169    1.4731087   -99.018586    9104.2065    4.3748928    4.3748928    4.3748928    9104.2065    9788.7186   -3108.9002    20632.801   -9662.7706   -14211.891   -594.98828    83.734077 
    7500    1046.9538   -99.995954   0.94730578   -99.048648   -18696.249    4.3857418    4.3857418    4.3857418   -18696.249   -14722.631    13142.105    -54508.22   -907.50026    32674.029    10793.505    84.358566 
    7600    1431.5801   -100.33176    1.2953237   -99.036441    9094.9948    4.3895813    4.3895813    4.3895813    9094.9948    22752.868    4067.6426     464.4737   -8045.2281   -7994.0331    4496.5745    84.580315 
    7700     989.8853   -99.932908   0.89566903   -99.037239   -4554.6139    4.3863806    4.3863806    4.3863806   -4554.6139    21566.246    112.57934   -35342.667   -3988.7217    11948.294      7887.55    84.395431 
    7800    1414.1448   -100.30178    1.2795479    -99.02223    9784.5397    4.3868622    4.3868622    4.3868622    9784.5397    28146.351    10867.367   -9660.0997    -1462.749    7722.0296    9378.1607    84.423232 
    7900    1123.4624   -100.04622    1.0165324   -99.029689    7647.5383    4.3822433    4.3822433    4.3822433    7647.5383    3545.4077    33433.933   -14036.725    -10433.98    3659.6383    7844.7755    84.156849 
    8000    1307.9448   -100.21587     1.183456   -99.032418    12179.725    4.3835153    4.3835153    4.3835153    12179.725    29702.029    43874.718   -37037.572    3367.0754    9602.3817    9113.9487    84.230149 
    8100    759.08357   -99.722574   0.68683477    -99.03574    25711.315    4.3960359    4.3960359    4.3960359    25711.315    53508.663    11582.438    12042.843    18104.042   -11320.276    9494.6222    84.953975 
    8200    1292.3604   -100.18522    1.1693548   -99.015867    3791.3408    4.3969075    4.3969075    4.3969075    3791.3408   -32904.636    72438.949    -28160.29    11073.156    10419.371    9169.9943    85.004517 
    8300    1293.2344   -100.17978    1.1701457   -99.009632   -656.86999    4.3884677    4.3884677    4.3884677   -656.86999    15224.863   -22562.946    5367.4736    7396.8287   -9600.9141    3976.5767     84.51596 
    8400    1357.7962   -100.23604    1.2285625   -99.007481     20050.68    4.3797469    4.3797469    4.3797469     20050.68    34367.187    33165.385   -7380.5315    5673.0924     15216.44    10702.168    84.013105 
    8500    1054.1345    -99.97283   0.95380305   -99.019027    21263.363    4.3877145    4.3877145    4.3877145    21263.363    27747.903    42422.402   -6380.2146    25058.557   -6865.7091    298.15143     84.47245 
    8600    1723.5091   -100.57229    1.5594672   -99.012823   -26361.483    4.4055221    4.4055221    4.4055221   -26361.483   -3251.8872   -18691.061     -57141.5   -22211.188    5565.0091    9353.3941    85.505128 
    8700    1270.5768   -100.15526    1.1496446   -99.005615   -9362.2943    4.3936675    4.3936675    4.3936675   -9362.2943   -21822.222   -4601.2519   -1663.4095    31556.575   -6704.6281    1323.6262    84.816738 
    8800    1520.8339   -100.37181    1.3760824   -98.995732    27221.844    4.3780867    4.3780867    4.3780867    27221.844     64180.14    2017.8857    15467.505   -32784.426     16572.82     3936.883    83.917605 
    8900    1250.4212   -100.14614    1.1314074   -99.014733   -17288.211    4.4021393    4.4021393    4.4021393   -17288.211   -47029.899   -45101.631    40266.898    35393.736   -12920.239    1308.7585    85.308313 
    9000    1335.1456   -100.20405    1.2080678   -98.995984    1891.3082    4.4044312    4.4044312    4.4044312    1891.3082    46984.725   -30436.842   -10873.958   -29701.777     1265.674   -7839.9709    85.441625 
    9100    1033.7915   -99.939312   0.93539624   -99.003916   -22877.048      4.40172      4.40172      4.40172   -22877.048   -27639.512   -69687.494    28695.863     40098.98   -4632.9674     -9976.62    85.283934 
    9200      1497.38   -100.34199    1.3548609   -98.987133    18479.108    4.3784763    4.3784763    4.3784763    18479.108    56408.809   -10932.554    9961.0708    186.38375   -7700.8179   -8634.8101    83.940011 
    9300    976.83945   -99.902763   0.88386486   -99.018899   -2654.8451     4.373975     4.373975     4.373975   -2654.8451   -11509.149   -16650.276     20194.89    29941.387    11024.611   -6432.5493    83.681391 
    9400    1684.0046   -100.54658    1.5237228    -99.02286   -12605.703    4.3959786    4.3959786    4.3959786   -12605.703    10314.645   -44310.402    -3821.351    9625.8125    -4977.152   -10891.022    84.950652 
    9500    1111.9078   -100.02373    1.0060776   -99.017649   -16085.272    4.4091871    4.4091871    4.4091871   -16085.272    11671.228   -28343.669   -31583.374    29407.354    7204.5023    -4270.613    85.718702 
    9600     1179.895   -100.06521    1.0675938   -98.997616    9252.6443    4.4001058    4.4001058    4.4001058    9252.6443    58477.281    6717.2644   -37436.613    8227.4498   -17827.821   -2886.0366    85.190143 
    9700    1232.8039   -100.11202    1.1154669   -98.996552   -334.27769    4.3858818    4.3858818    4.3858818   -334.27769    4195.5983    -16831.45    11633.018     31313.54    5092.0594   -1832.1638    84.366645 
    9800    1193.0673   -100.08253    1.0795123    -99.00302    2386.9098    4.3902189    4.3902189    4.3902189    2386.9098    16210.251   -9473.5849    424.06327    19861.293   -20453.155    13462.594    84.617174 
    9900    1200.3904   -100.09932    1.0861385   -99.013184   -15434.145    4.3942145    4.3942145    4.3942145   -15434.145   -29051.656    15459.472    -32710.25    10906.873   -2496.9175    6312.7851    84.848421 
   10000    1079.8005   -99.995321   0.97702621   -99.018294    -5491.094    4.3894728    4.3894728    4.3894728    -5491.094   -30979.623   -9237.0764    23743.417     16418.69    9566.9186    11203.307    84.574044 
   10100    1375.4608   -100.25713    1.2445458   -99.012587     2902.967     4.386169     4.386169     4.386169     2902.967    1323.8964    33017.677   -25632.673   -7172.0253   -17922.837    12903.774    84.383217 
   10200    842.98435   -99.783885   0.76274996   -99.021135     263.6385    4.4024589    4.4024589    4.4024589     263.6385    9870.3933   -7814.5035   -1264.9743    16544.916    18914.425    6123.6081    85.326894 
   10300    1321.6088   -100.20007    1.1958194   -99.004253    -2288.341    4.4011911    4.4011911    4.4011911    -2288.341   -16713.028    50365.289   -40517.283   -29896.244   -23245.657    6744.8471      85.2532 
   10400    1082.7286   -99.985994   0.97967561   -99.006319   -6936.3374    4.3977204    4.3977204    4.3977204   -6936.3374   -32870.027    19941.847   -7880.8316    33839.759    18268.394    5808.5249     85.05167 
   10500    1179.9018   -100.06601    1.0675999   -98.998412    5637.3789    4.3820603    4.3820603    4.3820603    5637.3789   -29986.847     62017.52   -15118.536   -19633.334   -30777.338    11039.907    84.146303 
   10600    1530.9523   -100.39151    1.3852379   -99.006274   -12856.125    4.3929332    4.3929332    4.3929332   -12856.125   -38142.319    2852.3798   -3278.4373    25554.114    17937.855    10553.918    84.774222 
   10700    887.58062   -99.807112    0.8031016    -99.00401   -24644.986    4.4103269    4.4103269    4.4103269   -24644.986   -60246.238    44130.317   -57819.036   -5844.2981   -26167.684    10516.587    85.785198 
   10800    1786.7734   -100.60656    1.6167101   -98.989851   -10822.906     4.386432     4.386432     4.386432   -10822.906   -20405.727   -11134.963   -928.02863    10057.715    5748.4937   -1268.4493    84.398396 
   10900    1282.1513   -100.17271    1.1601175   -99.012597   -3654.4402    4.3692408    4.3692408    4.3692408   -3654.4402   -24840.905     36641.49   -22763.905    17783.171   -12527.579    10669.645    83.409967 
   11000    1448.7249   -100.34758    1.3108367   -99.036743     17185.06    4.3791361    4.3791361    4.3791361     17185.06    14126.658    24509.459    12919.063   -15072.933   -3068.1397   -3388.8475    83.977962 
   11100    1202.1327   -100.11699    1.0877149   -99.029275   -29883.338    4.4160399    4.4160399    4.4160399   -29883.338   -19994.925   -37304.264   -32350.825    24453.002   -22530.225    1335.9301    86.118999 
   11200    1109.5442   -100.01528    1.0039389   -99.011344   -3218.7483    4.3933304    4.3933304    4.3933304   -3218.7483    3476.2566   -4247.7813   -8884.7203   -17364.635    7552.4973    15312.317    84.797216 
   11300    1613.7391   -100.44196     1.460145   -98.981814    27315.254    4.3646503    4.3646503    4.3646503    27315.254    52498.004    40681.698   -11233.939    12347.898   -26466.072    924.71527    83.147338 
   11400    915.39621   -99.858314   0.82826973   -99.030045   -12929.963    4.3938648    4.3938648    4.3938648   -12929.963   -25233.102   -6224.2386   -7332.5484   -27296.461   -14349.967    9849.4846    84.828166 
   11500    1714.6884   -100.57227    1.5514861   -99.020783   -26498.438     4.400893     4.400893     4.400893   -26498.438   -27505.661   -14303.308   -37686.346    5476.0998   -11658.059   -3686.8882    85.235878 
   11600    1080.4385   -100.00366   0.97760342   -99.026061    -4766.765    4.3875567    4.3875567    4.3875567    -4766.765   -45391.534    16165.661    14925.577    -16022.57   -15187.883   -1287.0102    84.463337 
   11700     1382.828   -100.26852    1.2512118   -99.017308    23457.954    4.3686257    4.3686257    4.3686257    23457.954    4434.7772    48188.923    17750.162    373.33657   -7352.2842    3491.5165    83.374743 
   11800    1198.5097   -100.13008    1.0844368    -99.04564   -9537.0788    4.3885541    4.3885541    4.3885541   -9537.0788   -47113.598    29067.779   -10565.417     2544.918   -27269.166   -8383.3424    84.520951 
   11900    1236.9268   -100.14628    1.1191974   -99.027082   -19453.619    4.4013846    4.4013846    4.4013846   -19453.619   -19010.619   -6994.3971    -32355.84   -16460.645    12875.092   -4396.0081    85.264441 
   12000    1415.9087   -100.29612    1.2811439   -99.014973   -5478.0585    4.3797363    4.3797363    4.3797363   -5478.0585   -1995.3387    27479.761   -41918.598    10215.883    -34153.79     3277.971    84.012494 
   12100    1194.4384   -100.10658    1.0807529   -99.025831    3505.0777    4.3770808    4.3770808    4.3770808    3505.0777    8564.8586   -7827.7005    9778.0751   -15312.846    16165.588   -7408.1263    83.859776 
   12200    1456.4271   -100.35108    1.3178058   -99.033276   -6129.7073    4.3879642    4.3879642    4.3879642   -6129.7073   -10363.046    8101.2123   -16127.288    2060.7462   -16041.286   -2342.8707    84.486873 
   12300     1204.281   -100.12094    1.0896588   -99.031283   -12252.297    4.4029606    4.4029606    4.4029606   -12252.297   -9783.2566    3665.0149    -30638.65    17560.434    2455.7424   -9414.6027    85.356069 
   12400    1112.3669   -100.02563     1.006493    -99.01914     10184.37    4.3893282    4.3893282    4.3893282     10184.37    14758.209     -7015.71    22810.611   -15765.086   -1805.6406   -2451.6855    84.565684 
   12500    1694.0389    -100.5413     1.532802   -99.008502    659.47632    4.3694546    4.3694546    4.3694546    659.47632   -7971.1177    11023.475   -1073.9287    35381.279   -4649.2877   -9999.1222    83.422209 
   12600    904.18574   -99.851097   0.81812626    -99.03297    28086.118    4.3872842    4.3872842    4.3872842    28086.118    30705.593     11506.28     42046.48   -13143.524    4320.7129    4361.8109    84.447598 
   12700    1260.6967   -100.16432    1.1407049   -99.023618   -28861.516    4.3987491    4.3987491    4.3987491   -28861.516   -50478.387   -35235.757   -870.40308    52323.052   -11453.376   -18.222966    85.111367 
   12800    1579.0481   -100.43774    1.4287559   -99.008988    14312.694    4.3830017    4.3830017    4.3830017    14312.694    14837.853   -1025.5939    29125.822     -23307.6    13688.885   -19186.357    84.200546 
   12900    780.87495   -99.730582   0.70655206    -99.02403   -26326.725    4.3887466    4.3887466    4.3887466   -26326.725   -59717.461   -53518.848    34256.135    62463.753   -9866.6567    4907.6192    84.532073 
   13000    1860.3452   -100.69178    1.6832794   -99.008501    13993.994    4.3790207    4.3790207    4.3790207    13993.994   -2233.8269    29936.216    14279.592   -7023.6945    2251.4952   -16190.959    83.971322 
   13100    973.11752   -99.920262   0.88049718   -99.039765   -23337.427    4.3860467    4.3860467    4.3860467   -23337.427   -60600.792    -27921.24    18509.752     40773.61   -59.752444    11343.683    84.376157 
   13200    1603.5686   -100.47273    1.4509425   -99.021786    4454.7327    4.3886915    4.3886915    4.3886915    4454.7327   -10153.534    6838.1194    16679.613   -3742.8406   -1556.7113   -16523.464    84.528892 
   13300    1003.7222   -99.939049   0.90818897    -99.03086   -7399.0297    4.3903407    4.3903407    4.3903407   -7399.0297   -53527.382     36113.37    -4783.077    46780.752   -2831.2014    388.75503    84.624221 
   13400    1493.9488   -100.37558    1.3517562   -99.023819    9456.5546    4.3866528    4.3866528    4.3866528    9456.5546    -32903.05    27905.084     33367.63   -13061.993    -394.1305    5212.3303    84.411146 
   13500     1192.097   -100.10487    1.0786345   -99.026238    16739.028    4.3798117    4.3798117    4.3798117    16739.028   -22668.994    34456.229    38429.848    37657.102    520.13436   -8610.2951    84.016834 
   13600    1538.5609   -100.41795    1.3921222   -99.025832   -13266.198     4.396041     4.396041     4.396041   -13266.198   -36032.989    5376.3624   -9141.9686   -10332.121   -6095.6702    14826.874    84.954269 
   13700    1501.4561   -100.37194     1.358549   -99.013388    -12742.07    4.3964934    4.3964934    4.3964934    -12742.07   -47366.296   -17680.136    26820.223    34877.789   -1383.9738    496.54455    84.980498 
   13800    1109.6235   -100.01697    1.0040107   -99.012955    18470.963    4.3912743    4.3912743    4.3912743    18470.963   -23784.778    31474.077    47723.589   -3867.1471     5945.161   -5156.3589    84.678217 
   13900    1468.2294   -100.33683    1.3284848   -99.008341   -8844.4756    4.3893683    4.3893683    4.3893683   -8844.4756   -45535.994    9397.4578    9605.1095    29144.703   -11927.894    7056.9055    84.568002 
   14000    1164.7692   -100.07097    1.0539076   -99.017063    11482.341    4.3831003    4.3831003    4.3831003    11482.341   -42538.127     63805.24     13179.91    8904.5356    3502.2934    5625.0168    84.206231 
   14100    1375.8535   -100.27384    1.2449012   -99.028934   -2176.4188    4.3859982    4.3859982    4.3859982   -2176.4188    -32986.54    13731.737    12725.547    2805.7374   -1559.0685    10231.159    84.373358 
   14200    1225.8024   -100.14575    1.1091317   -99.036616   -7093.7272    4.3939728    4.3939728    4.3939728   -7093.7272   -39163.397    2917.7818    14964.434    12308.365   -11189.572   -10881.081     84.83442 
   14300    1337.1192   -100.23995    1.2098536   -99.030097   -19164.912    4.3904782    4.3904782    4.3904782   -19164.912   -24053.274   -38488.746    5047.2822   -15562.477   -13796.462    17989.436    84.632168 
   14400    1703.1555   -100.55271    1.5410509   -99.011663   -6767.8067    4.3792379    4.3792379    4.3792379   -6767.8067   -9478.2735   -10931.726    106.57934    16371.156    -1353.596   -5535.6204    83.983821 
   14500    1038.3639   -99.967649   0.93953349   -99.028116   -10449.204    4.3864814    4.3864814    4.3864814   -10449.204   -2145.7762   -13872.367   -15329.467   -26704.123   -11795.167     18451.82    84.401248 
   14600    1539.7754   -100.40579    1.3932212   -99.012566    8915.2478    4.3889749    4.3889749    4.3889749    8915.2478   -3437.6185   -26516.231    56699.593    18296.215   -10245.269    -6445.494    84.545264 
   14700    1265.3558   -100.16104    1.1449205   -99.016124   -13946.038    4.3876223    4.3876223    4.3876223   -13946.038   -26246.164   -43777.554    28185.603   -29300.618    -5677.782    3372.1224    84.467126 
   14800    1602.3697   -100.46271    1.4498578   -99.012853    6509.7636    4.3864586    4.3864586    4.3864586    6509.7636    45700.241   -31969.729    5798.7786    14310.558   -2318.9613   -4237.9934    84.399933 
   14900    821.45381   -99.773633   0.74326867   -99.030364    10852.972    4.3873074    4.3873074    4.3873074    10852.972   -36593.731    -3289.661    72442.308   -33511.543   -17867.783   -8195.8786    84.448939 
   15000    1725.5009   -100.57501    1.5612695   -99.013742   -17202.082    4.3899487    4.3899487    4.3899487   -17202.082    874.93419   -14734.281     -37746.9    13014.223    14793.779   -4502.6096    84.601553 
   15100    993.99526   -99.917819    0.8993878   -99.018431    7039.7091    4.3885016    4.3885016    4.3885016    7039.7091    2481.9591   -27334.405    45971.573   -21141.527   -14053.717   -5370.4635    84.517916 
   15200     1410.604   -100.28756    1.2763442   -99.011211   -2364.7602     4.393544     4.393544     4.393544   -2364.7602   -3762.0517    15150.438   -18482.666   -86.439078    9439.2503    3220.4043    84.809586 
   15300     1251.831   -100.14246     1.132683   -99.009774   -2181.5594    4.3895211    4.3895211    4.3895211   -2181.5594   -14226.414    22958.882   -15277.146   -9297.4853   -17966.887   -9227.5307    84.576833 
   15400     1491.494   -100.35708    1.3495352   -99.007545   -12918.871    4.3869715    4.3869715    4.3869715   -12918.871   -40678.269    12534.124   -10612.468   -6524.0082     17956.33    4004.3782    84.429545 
   15500    1301.5022   -100.18495    1.1776265    -99.00732    6914.4579    4.3813787    4.3813787    4.3813787    6914.4579   -8635.1593    56847.442   -27468.909   -7813.1427   -19893.138   -11386.978    84.107043 
   15600    1329.9334   -100.22061    1.2033517   -99.017254   -17302.246    4.3839924    4.3839924    4.3839924   -17302.246    -52140.47    25734.912   -25501.181   -15916.613    13998.871    8787.7641    84.257655 
   15700    1302.1722    -100.2027    1.1782328   -99.024465    3051.2779    4.3894395    4.3894395    4.3894395    3051.2779   -2539.8512    26232.622   -14538.937    14246.931    345.70288    -17440.32    84.572116 
   15800    1380.6733   -100.27636    1.2492622   -99.027093   -29495.764    4.3899936    4.3899936    4.3899936   -29495.764   -40239.938   -24491.337   -23756.016   -20996.395   -1469.4609    8364.9595    84.604149 
   15900    1320.7286   -100.21644     1.195023    -99.02142    2749.9908     4.385029     4.385029     4.385029    2749.9908    20131.034   -4255.3081   -7625.7536    14393.961    10947.052   -12118.045     84.31744 
   16000    1166.6142    -100.0782    1.0555771   -99.022623    13363.046    4.3797667    4.3797667    4.3797667    13363.046    10703.168    9036.9326    20349.038   -21970.003   -1234.1599   -1773.4683    84.014243 
   16100    1433.3941   -100.31363    1.2969651   -99.016669   -2483.2811    4.4009199    4.4009199    4.4009199   -2483.2811     5159.635    82.805429   -12692.284     2998.983    13179.545     1816.149    85.237437 
   16200    798.60108   -99.731536   0.72259104   -99.008945    4466.6738    4.3996584    4.3996584    4.3996584    4466.6738    9854.1752    23614.554   -20068.708    -30183.28   -1062.8147    3459.9877    85.164164 
   16300    1763.2821   -100.58801    1.5954547   -98.992555    11170.223    4.3830991    4.3830991    4.3830991    11170.223    35783.307    15094.007   -17366.646   -3250.0495    7889.8803   -7446.8558    84.206163 
   16400     606.8391   -99.565284   0.54908077   -99.016204    18489.738    4.3830516    4.3830516    4.3830516    18489.738    37079.423     32052.28   -13662.488   -27928.644   -3890.0161   -1332.6165    84.203425 
   16500    1369.7563   -100.25472    1.2393843   -99.015332    24984.536    4.3970402    4.3970402    4.3970402    24984.536    31412.093    37288.236    6253.2807   -16459.286   -1917.4061    14542.122     85.01221 
   16600     1005.153   -99.917408   0.90948353   -99.007924   -15190.233    4.4091784    4.4091784    4.4091784   -15190.233   -17493.758   -26014.013   -2062.9294   -18328.673   -2692.9244   -20659.572    85.718196 
   16700    1304.1079   -100.16265    1.1799842    -98.98267    24317.195    4.3856469    4.3856469    4.3856469    24317.195     38042.15    60789.463   -25880.027    -19814.64    7306.9955    17718.589    84.353088 
   16800     1068.534   -99.975221     0.966832   -99.008389    14279.859    4.3804335    4.3804335    4.3804335    14279.859    14754.061   -2732.9226    30818.439   -7614.5973   -10068.388    476.58946    84.052622 
   16900    1378.5853     -100.271    1.2473729   -99.023628    12939.305    4.3814778    4.3814778    4.3814778    12939.305   -1903.9546     9000.137    31721.732     -15830.5   -1121.0563    7271.9634    84.112753 
   17000    1284.3237   -100.19906    1.1620831   -99.036972   -721.90044    4.3918235    4.3918235    4.3918235   -721.90044   -11702.714    14198.343   -4661.3303   -1814.3125   -3784.3524    17504.946    84.709989 
   17100    1134.5035   -100.05605    1.0265226   -99.029523     -3310.71     4.390228     4.390228     4.390228     -3310.71   -31500.265   -24565.476    46133.611   -18488.505    3409.3564    4814.5431    84.617704 
   17200    1392.8493   -100.27496    1.2602793   -99.014681    5045.8069    4.3718186    4.3718186    4.3718186    5045.8069    6995.6545     26713.13   -18571.364    1800.3343   -6655.2164     22849.38    83.557684 
   17300    1064.0051   -99.989605   0.96273414    -99.02687    5724.0826    4.3827398    4.3827398    4.3827398    5724.0826   -42421.173    13619.057    45974.364   -29667.969   -13384.075   -14830.689    84.185452 
   17400    1259.2885   -100.16703    1.1394307   -99.027604   -13005.811    4.3886039    4.3886039    4.3886039   -13005.811    22036.971   -17603.375   -43451.031    6979.0324   -471.56496    44032.819    84.523828 
   17500    1178.2181   -100.09129    1.0660765    -99.02521   -2200.5613    4.3864247    4.3864247    4.3864247   -2200.5613   -26064.604    3248.9674    16213.953   -23245.101   -6693.2809   -16530.663    84.397976 
   17600    1602.6456   -100.46886    1.4501074    -99.01875   -20926.375    4.3829579    4.3829579    4.3829579   -20926.375    7656.2739    -26135.43   -44299.968   -3797.4903    8765.2776    39597.595    84.198022 
   17700    1002.9592   -99.935316   0.90749852   -99.027818    467.38255    4.3750123    4.3750123    4.3750123    467.38255    16996.996   -19462.632    3867.7839   -6598.6995   -13335.807    -5857.596    83.740942 
   17800    1593.6538   -100.47502    1.4419714   -99.033052   -7413.3653     4.376763     4.376763     4.376763   -7413.3653   -16216.416   -18839.104    12815.424   -11484.833    16879.466      15621.3     83.84151 
   17900    1101.5952   -100.03707   0.99674647   -99.040328    -3518.278    4.3822239    4.3822239    4.3822239    -3518.278    26822.526   -17495.235   -19882.124    2565.4806   -16230.302    4897.1066    84.155727 
   18000    1455.1755   -100.35048    1.3166733   -99.033808   -12699.231    4.3883842    4.3883842    4.3883842   -12699.231   -34851.849   -24333.305    21087.462   -18980.018    11881.742   -4781.5755    84.511134 
   18100    1418.8294   -100.30915    1.2837867   -99.025365   -18638.853    4.3910985    4.3910985    4.3910985   -18638.853   -9858.7571   -8447.7554   -37610.047    12127.636   -13738.533    5797.8673    84.668046 
   18200    1133.9874   -100.04616    1.0260556   -99.020105    27598.386    4.3707113    4.3707113    4.3707113    27598.386    22532.689    13457.604    46804.866   -21009.838    -1214.219   -3491.5883     83.49421 
   18300    1535.8744   -100.42444    1.3896914   -99.034744   -12140.728    4.3810301    4.3810301    4.3810301   -12140.728   -20838.684    1903.4508   -17486.952    12177.689    1410.2868    11955.884    84.086969 
   18400    1257.8388   -100.16718     1.138119    -99.02906    21906.011    4.3902636    4.3902636    4.3902636    21906.011     13851.01    18533.361    33333.661   -15484.735   -2607.0092   -16460.072    84.619761 
   18500    1108.9051   -100.02596    1.0033606   -99.022598   -5770.3611    4.3904704    4.3904704    4.3904704   -5770.3611   -8023.4792   -4517.1154   -4770.4887    4863.0132   -5523.1491    17933.717    84.631717 
   18600     1589.282   -100.44267    1.4380158   -99.004659    12415.889    4.3817019    4.3817019    4.3817019    12415.889   -6790.4055      22487.5    21550.574   -10052.454   -5597.5568   -15381.413    84.125657 
   18700    1031.2321   -99.943641   0.93308051   -99.010561    14081.977    4.3814205    4.3814205    4.3814205    14081.977    27918.965    7600.3168    6726.6485    4401.8108   -8865.3798    33184.888    84.109452 
   18800    1542.4286    -100.4041    1.3956218   -99.008477   -13138.305    4.3878211    4.3878211    4.3878211   -13138.305   -44127.847    5249.2398   -536.30794    2460.9109    -12384.59   -18029.043    84.478605 
   18900     1141.869   -100.04873    1.0331871   -99.015541    2099.9262    4.3801438    4.3801438    4.3801438    2099.9262    29290.934   -15396.238   -7594.9173   -14803.836    1492.8134    35088.678    84.035951 
   19000    1437.0817   -100.31491    1.3003017   -99.014609   -11476.187    4.3782766    4.3782766    4.3782766   -11476.187   -33621.855    6384.4763   -7191.1835    17536.908   -31829.709   -4090.2297    83.928524 
   19100     1180.829   -100.08547    1.0684389   -99.017028   -27748.201    4.3817347    4.3817347    4.3817347   -27748.201   -16162.671   -45530.148   -21551.784   -17678.878    12860.019    38717.959    84.127549 
   19200    1634.9391   -100.49324    1.4793273   -99.013912   -19571.689    4.3830074    4.3830074    4.3830074   -19571.689   -17796.327   -31676.854   -9241.8865    3052.2956    -19938.43    2605.7916    84.200875 
   19300    901.84165   -99.838785   0.81600528   -99.022779   -11150.282    4.3831925    4.3831925    4.3831925   -11150.282    17690.361   -35126.372   -16014.833   -857.96904   -13607.035    28826.902    84.211545 
   19400    1477.2433   -100.35382    1.3366408   -99.017182    1825.6849    4.3713619    4.3713619    4.3713619    1825.6849    9895.2995   -5445.2723    1027.0275   -2781.7938   -3643.8754    17081.008    83.531503 
   19500    1431.3478   -100.31966    1.2951136   -99.024545    -19275.13    4.3891778    4.3891778    4.3891778    -19275.13   -10033.734    -27653.67   -20137.986   -5582.0147    3442.2161    8221.7945     84.55699 
   19600    920.49632   -99.850653   0.83288441   -99.017769   -6007.2688    4.3923815    4.3923815    4.3923815   -6007.2688    10751.669   -35065.019    6291.5438   -6327.2402   -17233.525    21398.778    84.742285 
   19700    1707.4386   -100.54374    1.5449264   -98.998816    6782.7025     4.374572     4.374572     4.374572    6782.7025     19009.07    15901.956   -14562.919    6348.1501   -5866.3227    2817.7105    83.715658 
   19800    1071.5385   -99.992564   0.96955052   -99.023014   -13225.736    4.3764697    4.3764697    4.3764697   -13225.736   -3174.6542   -54591.777    18089.223   -23308.449   -8852.5708    36706.488    83.824658 
   19900    1413.3776   -100.29801    1.2788537   -99.019159    23832.628    4.3778299    4.3778299    4.3778299    23832.628    10507.024    19316.637    41674.224    3221.3837   -7038.5866   -3909.7624    83.902839 
   20000    867.46261   -99.818991    0.7848984   -99.034093   -108.44991     4.387507     4.387507     4.387507   -108.44991    8051.9076   -28889.946    20512.689   -14740.586    5326.7737    37906.388    84.460467 
   20100    1772.3153   -100.62035    1.6036282   -99.016727   -13559.022    4.3843468    4.3843468    4.3843468   -13559.022   -25030.642   -26705.596    11059.172   -3246.2607   -10456.701   -14269.373     84.27809 
   20200    1177.3699   -100.08651     1.065309   -99.021205   -3508.5241    4.3711694    4.3711694    4.3711694   -3508.5241    8907.7279   -5208.9555   -14224.345   -8707.6571    5174.3805    33302.346    83.520465 
   20300    1441.1167   -100.33101    1.3039526   -99.027062    4543.9305    4.3718516    4.3718516    4.3718516    4543.9305    11098.013   -23972.666    26506.444   -10587.497    2639.6304   -32370.795    83.559578 
   20400    1333.2227   -100.24736    1.2063279   -99.041031   -982.98257    4.3823552    4.3823552    4.3823552   -982.98257    2680.8084   -22914.798    17285.042   -3656.2267    9154.3553    18279.541    84.163295 
   20500    1156.7968   -100.08655    1.0466941   -99.039855    556.63881    4.3889734    4.3889734    4.3889734    556.63881    6347.2854   -40365.374    35688.005   -15476.358   -1751.1093   -22957.794    84.545181 
   20600    1274.8827    -100.1788    1.1535407   -99.025259   -8094.9063    4.3914192    4.3914192    4.3914192   -8094.9063    28132.751   -26132.668   -26284.802     5630.945   -4340.2188    4657.0237    84.686598 
   20700    1049.6047   -99.969064   0.94970435    -99.01936    23512.946    4.3745892    4.3745892    4.3745892    23512.946   -9896.4199   -18194.109    98629.367   -29245.733   -13250.799   -5163.4732     83.71665 
   20800    1536.5879   -100.41168     1.390337   -99.021343   -5891.3316    4.3808117    4.3808117    4.3808117   -5891.3316    28081.266   -46055.942    300.68126    23655.484    4857.0838   -6076.5801    84.074397 
   20900    1256.8463   -100.16059    1.1372209   -99.023366     211.0315    4.3839124    4.3839124    4.3839124     211.0315   -16644.889   -27837.262    45115.245   -36401.601    602.91133    3226.5824    84.253045 
   21000    1324.9529   -100.23343    1.1988452   -99.034589   -3141.4429     4.380009     4.380009     4.380009   -3141.4429    27215.525   -25888.323   -10751.531     19840.28    9568.9912   -11878.647    84.028189 
   21100    1340.9676   -100.24801    1.2133356   -99.034677    6948.1724    4.3791068    4.3791068    4.3791068    6948.1724    8481.0505   -29713.744     42077.21   -25990.992    844.77451    5207.3113    83.976274 
   21200    972.47355   -99.917247    0.8799145   -99.037333    1737.5364    4.3810018    4.3810018    4.3810018    1737.5364    29748.854   -32885.783    8349.5379    15058.605    15607.016   -4184.5241    84.085345 
   21300    1350.3861   -100.24891    1.2218577   -99.027055   -5650.8092    4.3958053    4.3958053    4.3958053   -5650.8092    13812.508   -58975.499    28210.563   -13685.086    12203.557    2603.0025    84.940607 
   21400     782.9121   -99.724312   0.70839532   -99.015916    14859.714    4.3919971    4.3919971    4.3919971    14859.714    24291.432   -25029.217    45316.925    -5010.132    5542.6358   -1852.4574    84.720037 
   21500    1307.0392   -100.18666    1.1826365   -99.004021    14843.752    4.3828553    4.3828553    4.3828553    14843.752    11785.042   -12189.904    44936.117   -812.88598    16344.379   -2264.3413    84.192112 
   21600     1300.206   -100.18239    1.1764537   -99.005939    5291.9636    4.3847865    4.3847865    4.3847865    5291.9636   -5308.0155   -39480.468    60664.374    9474.6901    17707.317   -2448.0472    84.303454 
   21700    894.85998    -99.83586   0.80968811   -99.026171   -464.93918    4.3805036    4.3805036    4.3805036   -464.93918    23291.485   -9180.7237   -15505.578    10415.264    1252.0267   -19239.729    84.056662 
   21800    1597.0281   -100.46079    1.4450246   -99.015761    20751.088    4.3782169    4.3782169    4.3782169    20751.088    38073.017   -1451.1724    25631.419   -8159.2253   -708.88474    1074.3398    83.925089 
   21900    944.47734   -99.883848   0.85458294   -99.029265   -33471.984    4.3898069    4.3898069    4.3898069   -33471.984   -23513.221   -50027.498   -26875.233    32307.598     1949.871    -13237.11    84.593357 
   22000    1798.9961   -100.63786    1.6277694   -99.010086    16407.373    4.3800132    4.3800132    4.3800132    16407.373    33066.686    16498.218   -342.78414   -19220.194     8049.471    4842.8852     84.02843 
   22100    850.60868   -99.803317   0.76964861   -99.033668   -12184.101    4.3765921    4.3765921    4.3765921   -12184.101    -5633.721   -39707.262    8788.6811    24792.663   -1351.2483   -23767.532    83.831691 
   22200    1758.5902   -100.61613    1.5912094   -99.024919   -7253.3842    4.3783842    4.3783842    4.3783842   -7253.3842   -8296.6718    2482.3244   -15945.805   -4564.1386    4746.5263    11555.969     83.93471 
   22300    948.68138   -99.894354   0.85838685   -99.035967    1399.8506    4.3861045    4.3861045    4.3861045    1399.8506   -16747.212   -17746.526     38693.29     11003.27     1451.779   -21376.095    84.379497 
   22400    1406.2783   -100.29484    1.2724302    -99.02241   -25334.703    4.3844739    4.3844739    4.3844739   -25334.703   -15991.588   -27954.939   -32057.581   -4482.9586   -377.88205    12361.452     84.28542 
   22500    1128.4783   -100.04729    1.0210709   -99.026217    14681.368    4.3709578    4.3709578    4.3709578    14681.368   -17264.641   -7905.4174    69214.163    18187.003    7757.1371   -7283.9796    83.508339 
   22600    1320.8617   -100.22287    1.1951434   -99.027723    2403.0501    4.3766847    4.3766847    4.3766847    2403.0501   -9309.7535   -11926.744    28445.648   -4944.2687   -9097.3473   -1397.1994    83.837011 
   22700    1081.3051   -100.00941   0.97838759   -99.031022   -9750.3881    4.3885808    4.3885808    4.3885808   -9750.3881   -25657.585   -12004.279    8410.6992    7707.6359    11746.067    2249.4576    84.522494 
   22800    1610.7648   -100.47249    1.4574538   -99.015041    -20558.72    4.3908305    4.3908305    4.3908305    -20558.72   -32615.823   -44461.837    15401.499    20588.014    2217.8443   -6652.1183    84.652543 
   22900    1072.8313   -99.985516   0.97072032   -99.014796    2551.5808    4.3724156    4.3724156    4.3724156    2551.5808   -28907.123     46139.32   -9577.4537    -8027.161    14840.683    10211.338    83.591923 
   23000    1562.9696   -100.43165    1.4142078   -99.017445    2469.4718    4.3750488    4.3750488    4.3750488    2469.4718   -19581.911   -15887.358    42877.684    11555.926    5001.8617   -10352.108    83.743038 
   23100    1142.7756   -100.05705    1.0340074   -99.023047   -9090.7319    4.3915353    4.3915353    4.3915353   -9090.7319   -32967.831    22117.899   -16422.264   -5621.6279    27813.931    11877.367    84.693316 
   23200    1039.4035   -99.959311   0.94047412   -99.018837    4023.4725    4.3827863    4.3827863    4.3827863    4023.4725   -48894.402     48415.86     12548.96    13027.608   -6139.8885   -133.65063    84.188135 
   23300    1723.2439   -100.57473    1.5592272   -99.015499    1566.9983    4.3742609    4.3742609    4.3742609    1566.9983   -13791.932   -13710.117    32203.044   -14328.281    16629.187    8318.4956    83.697803 
   23400    818.69996   -99.774021   0.74077692   -99.033244    32959.069    4.3696941    4.3696941    4.3696941    32959.069    -37522.35    88917.265    47482.292    19817.179   -10480.335    6514.2696    83.435929 
   23500    1472.8775   -100.37527    1.3326905   -99.042583   -8171.5934     4.387375     4.387375     4.387375   -8171.5934   -13077.224   -18452.067    7014.5105   -16904.015    12649.815    7437.7881    84.452844 
   23600    1190.5924   -100.10557     1.077273     -99.0283    10940.267    4.3871057    4.3871057    4.3871057    10940.267   -8541.4862    18397.199    22965.088    9717.8293   -4608.2474    13052.545    84.437293 
   23700    1301.8288    -100.2009    1.1779221   -99.022974   -54.596372    4.3684134    4.3684134    4.3684134   -54.596372   -46595.702    -4984.631    51416.544   -16873.532   -4191.9388   -2438.8242    83.362587 
   23800    1339.7625    -100.2443    1.2122452   -99.032055    15305.388     4.375204     4.375204     4.375204    15305.388     4515.494    2588.4027    38812.267     2706.154    -2078.244    4930.7605    83.751951 
   23900    1313.7028   -100.22051    1.1886659   -99.031842   -39257.118     4.391216     4.391216     4.391216   -39257.118   -73332.446   -22113.813   -22325.095   -17823.845   -24232.023    7880.0063    84.674846 
   24000    1550.1595    -100.4173    1.4026169   -99.014687   -5311.2169    4.3832075    4.3832075    4.3832075   -5311.2169   -38227.224   -17735.451    40029.025    -11434.81    6966.9407    5926.2995    84.212408 
   24100    1058.3133   -99.986793   0.95758415   -99.029209   -15697.883    4.3708162    4.3708162    4.3708162   -15697.883   -50641.828    36921.605   -33373.428   -6358.7132   -27722.522    4042.1219    83.500221 
   24200    1394.3013    -100.2987    1.2615931   -99.037107    14506.691    4.3696275    4.3696275    4.3696275    14506.691   -24270.609    39879.364    27911.318   -19177.897   -2809.7024    4309.7184    83.432112 
   24300    1477.8373   -100.37478    1.3371782     -99.0376   -20458.346    4.3913452    4.3913452    4.3913452   -20458.346   -27825.673   -9722.0839    -23827.28   -4926.9479   -15862.219    1651.3431    84.682318 
   24400    1121.3811   -100.03969    1.0146492   -99.025038   -10799.308    4.3902832    4.3902832    4.3902832   -10799.308   -56957.817    40476.048   -15916.155   -13478.167    3687.0609   -4329.4821    84.620896 
   24500    1695.9109   -100.54231    1.5344958   -99.007816    10508.895    4.3722506    4.3722506    4.3722506    10508.895    -18456.06    37762.091    12220.654   -1281.4216   -9410.9753    6183.4813     83.58246 
   24600    929.39414   -99.868856   0.84093535    -99.02792    9507.3495    4.3735327    4.3735327    4.3735327    9507.3495    -26546.96    36040.043    19028.966   -29187.203   -2150.7077   -3614.2936    83.656006 
   24700    1606.9919   -100.47639      1.45404   -99.022351   -12091.562    4.3836167    4.3836167    4.3836167   -12091.562   -23962.252    12401.073   -24713.508     8152.361    15604.308   -5465.0959    84.235994 
   24800    1048.5558   -99.981676   0.94875534   -99.032921    3303.4644    4.3832594    4.3832594    4.3832594    3303.4644   -36644.419   -7009.5632    53564.376   -26008.851   -15970.119    1498.6012    84.215401 
   24900    1401.8162   -100.29227    1.2683928   -99.023874     -10361.3     4.385617     4.385617     4.385617     -10361.3   -37851.697    -1859.105    8626.9017    11632.763    21016.867   -19334.847    84.351365 
   25000    1160.0077   -100.08266    1.0495993   -99.033058    639.72678    4.3662122    4.3662122    4.3662122    639.72678   -23533.592    10340.145    15112.628   -30430.159   -16083.686   -3103.6369    83.236637 
   25100    1197.2542   -100.11919    1.0833007   -99.035888    17774.016    4.3709123    4.3709123    4.3709123    17774.016   -11420.737    37414.854    27327.932     15226.95    21638.478   -13766.259    83.505732 
   25200    1297.0036   -100.20612    1.1735561   -99.032559   -23912.481    4.3856381    4.3856381    4.3856381   -23912.481   -64813.006   -2495.9007   -4428.5355   -31020.492   -1837.1025    -4395.424    84.352578 
   25300    1306.3594   -100.19255    1.1820214   -99.010529   -2685.9736    4.3855191    4.3855191    4.3855191   -2685.9736   -10803.519    4269.6082   -1524.0098    11055.136   -489.54272   -5602.7677    84.345714 
   25400    1070.2153   -99.980973   0.96835334    -99.01262   -15914.167    4.3846786    4.3846786    4.3846786   -15914.167   -39475.106   -11893.247    3625.8518   -23433.681    17497.528   -14424.589    84.297226 
   25500    1354.3298   -100.23364    1.2254261   -99.008214    16222.316    4.3687161    4.3687161    4.3687161    16222.316     -17015.8    36671.705    29011.042   -16464.535   -22487.398   -9159.4956    83.379916 
   25600    1234.5361   -100.14083    1.1170342   -99.023793   -1432.8554    4.3774053    4.3774053    4.3774053   -1432.8554   -3184.5561    5720.9315   -6834.9417   -12627.857    26076.542   -2028.7765    83.878427 
   25700    1021.8509   -99.953388   0.92459215   -99.028796     2116.843    4.3901076    4.3901076    4.3901076     2116.843   -22466.717     22728.68    6088.5654   -39666.613   -22975.939   -12596.297    84.610743 
   25800    1569.7342   -100.43477    1.4203285   -99.014444    15411.597    4.3764958    4.3764958    4.3764958    15411.597    27644.972   -6727.6701     25317.49   -5552.6695    8459.1447   -7404.9125    83.826153 
   25900    570.52569   -99.553778   0.51622363   -99.037554    4186.6619    4.3681738    4.3681738    4.3681738    4186.6619    8509.2621    11271.223   -7220.4988   -38356.105   -26906.676    1759.7742     83.34887 
   26000    1869.0245   -100.71943    1.6911327   -99.028293    18452.108    4.3670902    4.3670902    4.3670902    18452.108    33106.003    5545.7248    16704.596   -684.90217   -7309.9522   -14653.598    83.286859 
   26100    638.09926   -99.632119   0.57736562   -99.054754    5263.6439    4.3892322    4.3892322    4.3892322    5263.6439   -32553.048    17813.641    30530.338   -41211.408   -15099.382   -1293.4846    84.560135 
   26200    1548.5781   -100.41065     1.401186   -99.009468   -17825.188    4.3952145    4.3952145    4.3952145   -17825.188   -15757.777    -16974.85   -20742.938    12441.017   -8964.9516   -6550.5772    84.906361 
   26300    1284.9885   -100.16676    1.1626846   -99.004071    18852.072    4.3685524    4.3685524    4.3685524    18852.072    13531.544     17717.62    25307.051   -40751.543   -11632.837   -13196.468    83.370544 
   26400    1031.0262   -99.954003    0.9328942   -99.021109   -3840.7178    4.3677631    4.3677631    4.3677631   -3840.7178   -36017.986    18936.569    5559.2639    21432.723   -33344.917   -10409.461    83.325364 
   26500    1540.2839   -100.42121    1.3936812   -99.027532   -2.1806082    4.3792312    4.3792312    4.3792312   -2.1806082    1584.3514   -8294.9148    6704.0216   -14414.088    11224.007   -12041.921    83.983432 
   26600    1044.3908   -99.979033   0.94498676   -99.034046   -27462.289    4.3955642    4.3955642    4.3955642   -27462.289   -67485.756   -3174.6167   -11726.494    6572.0532   -32260.699   -16257.103     84.92663 
   26700    1311.3968   -100.21586    1.1865794   -99.029281   -6913.6524    4.3717117    4.3717117    4.3717117   -6913.6524   -20173.201   -13138.826     12571.07    15031.175    19855.727   -9268.1352    83.551556 
   26800    1241.0803   -100.14362    1.1229555   -99.020664    22514.383    4.3485322    4.3485322    4.3485322    22514.383    14621.324    28515.895    24405.931   -11044.327   -32310.197   -10125.559    82.229582 
   26900    1079.9392    -100.0311   0.97715172   -99.053944   -12005.912    4.3743062    4.3743062    4.3743062   -12005.912   -48415.528   -11066.157    23463.947    24320.395    11264.581   -6657.5769      83.7004 
   27000    1557.5885   -100.44192    1.4093388   -99.032584   -3684.0779    4.3899932    4.3899932    4.3899932   -3684.0779   -10668.812    445.07857   -828.50068   -6667.3213   -9207.4991   -6302.2814    84.604124 
   27100    1022.5587   -99.956644   0.92523262   -99.031411    -22571.02     4.386739     4.386739     4.386739    -22571.02     -49212.1   -28989.443    10488.485     19720.03   -7549.3632   -14264.402    84.416119 
   27200    1457.8209   -100.34203     1.319067   -99.022966    21028.803    4.3616212    4.3616212    4.3616212    21028.803     2232.372    32178.381    28675.657   -10628.574    15889.471     1859.732    82.974344 
   27300    1450.8054   -100.34288    1.3127192   -99.030164   -2408.0206    4.3621591    4.3621591    4.3621591   -2408.0206   -1769.7044    -1962.255   -3492.1024     25673.86   -20633.616   -10842.468    83.005049 
   27400    1040.8971   -99.984839   0.94182553   -99.043014   -17189.567    4.3860889    4.3860889    4.3860889   -17189.567   -47643.852    7030.9346   -10955.785   -5797.3015    29624.419    9456.2641    84.378596 
   27500    1619.8045   -100.48328    1.4656332   -99.017642   -4157.8137    4.3853439    4.3853439    4.3853439   -4157.8137   -4474.7217   -3131.5254   -4867.1941    13393.939   -18251.725   -9411.3161    84.335608 
   27600    945.07317   -99.872526   0.85512207   -99.017404   -13323.829    4.3767761    4.3767761    4.3767761   -13323.829   -39950.674    26934.122   -26954.935    12959.377    18544.465    167.52784    83.842264 
   27700    1511.7031   -100.38255    1.3678207   -99.014734    4512.8787    4.3675813    4.3675813    4.3675813    4512.8787    2260.5481    13551.275   -2273.1875   -14527.929   -550.21371    7397.6174    83.314962 
   27800    1277.2454   -100.18241    1.1556784   -99.026731   -2643.4003    4.3742214    4.3742214    4.3742214   -2643.4003   -30869.126     16776.34    6162.5854    37154.966    6578.7391   -15258.207    83.695536 
   27900    844.60761   -99.794154   0.76421872   -99.029935   -7867.6731    4.3814022    4.3814022    4.3814022   -7867.6731   -41043.014    23011.681    -5571.686   -43209.457    11573.226    2840.3074    84.108397 
   28000    1862.6819    -100.7051    1.6853938   -99.019708   -11793.643    4.3713936    4.3713936    4.3713936   -11793.643   -7613.1416   -17347.743   -10420.045    47654.078   -6418.8041   -6763.5884    83.533316 
   28100     786.8192   -99.750387   0.71193055   -99.038456    -3622.505    4.3706709    4.3706709    4.3706709    -3622.505   -43447.526    31522.458    1057.5537   -28804.088     25399.28   -1067.7821    83.491898 
   28200    1650.8551   -100.52988    1.4937284   -99.036148    -7543.651    4.3737433    4.3737433    4.3737433    -7543.651   -5809.6016   -2155.7518   -14665.599    15280.679   -17934.881   -227.79588    83.668093 
   28300    1193.2438    -100.1179    1.0796721   -99.038228   -25040.595    4.3887615    4.3887615    4.3887615   -25040.595   -57001.133   -994.94005   -17125.712   -20930.485    30734.766   -9166.5463    84.532931 
   28400    1298.0767   -100.20447    1.1745271   -99.029938   -12265.543    4.3739658    4.3739658    4.3739658   -12265.543   -16613.112   -32327.339    12143.821   -23509.122   -16181.734   -1384.7175    83.680862 
   28500    1419.4517   -100.30559    1.2843498   -99.021245    17556.669    4.3624627    4.3624627    4.3624627    17556.669     20152.39    20253.055    12264.564    9929.0704    7788.9859   -9532.0608    83.022383 
   28600    988.62621   -99.929187   0.89452977   -99.034657   -26351.184    4.3871088    4.3871088    4.3871088   -26351.184    -63650.35   -5004.2961   -10398.906   -29224.855    -5783.491   -3398.1619    84.437471 
   28700    1823.2007   -100.66219    1.6496703    -99.01252   -678.16332    4.3828046    4.3828046    4.3828046   -678.16332    12048.225   -25459.588    11376.873    15261.257   -10949.341   -3033.3779    84.189188 
   28800    786.92032   -99.744675   0.71202205   -99.032653   -10908.429    4.3744228    4.3744228    4.3744228   -10908.429   -23856.844    2770.7158   -11639.158   -27261.117   -12999.868   -8846.1922    83.707094 
   28900    1690.2684   -100.55657    1.5293904    -99.02718    309.22912    4.3684175    4.3684175    4.3684175    309.22912   -363.01402    12633.779   -11343.077    14008.078   -23030.128   -5947.8376    83.362824 
   29000    1274.5989   -100.18563    1.1532839   -99.032349   -12035.294    4.3857907    4.3857907    4.3857907   -12035.294    8390.6671   -12924.212   -31572.336   -21522.148   -11575.172    -100.4545    84.361383 
   29100    849.73804   -99.800211   0.76886083    -99.03135   -10882.423    4.3943223    4.3943223    4.3943223   -10882.423   -15881.564    10292.048   -27057.753   -1468.1478   -28643.592    6171.5972    84.854663 
   29200    1713.4811   -100.54426    1.5503937   -98.993868    11574.165    4.3763482    4.3763482    4.3763482    11574.165    17183.228   -5727.5946    23266.863    7906.2224    -3249.924   -1186.1425    83.817675 
   29300    1024.0039   -99.938325   0.92654024   -99.011784    -2850.662    4.3745064    4.3745064    4.3745064    -2850.662    303.03383    11695.446   -20550.466   -16382.288   -21281.135    19701.576    83.711893 
   29400    1597.3346   -100.45218    1.4453019   -99.006874    4724.4058    4.3859892    4.3859892    4.3859892    4724.4058   -20033.362   -6050.3014    40256.881    28006.202     12318.81   -2081.5539     84.37284 
   29500    1414.7753   -100.30199    1.2801184    -99.02187   -14507.227    4.3841874    4.3841874    4.3841874   -14507.227   -11823.721   -30218.557   -1479.4025   -17519.286   -27001.799    16886.854    84.268901 
   29600    1653.3652   -100.51241    1.4959996   -99.016412   -15936.745     4.382998     4.382998     4.382998   -15936.745    -22562.31   -28984.371     3736.445    23288.229    10747.615    11239.412    84.200334 
   29700    1126.0203   -100.03965    1.0188469     -99.0208   -6151.9672    4.3816707    4.3816707    4.3816707   -6151.9672   -48872.853    32916.028   -2499.0765   -12375.184   -23038.949   -990.64152    84.123864 
   29800    1695.2385   -100.54884    1.5338874   -99.014949   -653.29554    4.3759471    4.3759471    4.3759471   -653.29554   -2562.0939   -35556.498    36158.705    10900.436    7031.7039    8653.5574     83.79463 
   29900    932.53277   -99.872589   0.84377524   -99.028814   -10674.732    4.3834906    4.3834906    4.3834906   -10674.732   -51645.106    36533.295   -16912.387   -2508.6221   -18443.724   -5243.4851    84.228727 
   30000    1511.0679   -100.39114     1.367246    -99.02389     9315.109    4.3789766    4.3789766    4.3789766     9315.109   -18658.654    22182.672    24421.309   -3189.3854    7107.7921   -5612.3204    83.968783 
   30100    1156.2293    -100.0735    1.0461806   -99.027323    11619.723    4.3725263    4.3725263    4.3725263    11619.723   -15003.664    40576.249    9286.5826    12931.272    -15814.74   -494.68289    83.598268 
   30200    1141.4245   -100.07114    1.0327848   -99.038351   -6781.7051    4.3776948    4.3776948    4.3776948   -6781.7051   -60931.773    55780.408    -15193.75   -13167.289   -1501.9519   -3196.6452     83.89507 
   30300    1373.5823   -100.27622    1.2428462    -99.03337    27842.245    4.3750855    4.3750855    4.3750855    27842.245    -21355.23    60613.385    44268.579    12183.234   -6825.8433    761.26509    83.745145 
   30400    830.80403   -99.807658   0.75172895   -99.055929   -30434.141    4.3830506    4.3830506    4.3830506   -30434.141   -51163.801    2335.8286    -42474.45   -19094.737   -8641.3371   -5183.0433    84.203365 
   30500    1527.1792   -100.42158    1.3818238   -99.039753    7108.2739    4.3713475    4.3713475    4.3713475    7108.2739   -20055.227    18479.491    22900.557   -6677.6483     7742.459   -6022.7382    83.530675 
   30600    1397.1235   -100.30882    1.2641467   -99.044674   -8540.9497    4.3683129    4.3683129    4.3683129   -8540.9497   -25105.009   -9080.1234    8562.2831    -6432.945   -10526.697    1705.5675    83.356836 
   30700    1045.7352   -99.992016   0.94620321   -99.045813   -31131.791    4.3886598    4.3886598    4.3886598   -31131.791   -46755.434   -20388.575   -26251.364   -16748.145     12994.05   -640.49953    84.527059 
   30800    1972.1213   -100.80943    1.7844168   -99.025015    12416.465    4.3678204    4.3678204    4.3678204    12416.465    8406.7799   -9173.3054    38015.921    4732.1879   -817.20138    130.75206    83.328646 
   30900     615.4908   -99.614452   0.55690901   -99.057543   -11048.519    4.3681668    4.3681668    4.3681668   -11048.519   -23946.756    14108.491   -23307.291    -21478.16    10273.991   -3085.0772    83.348474 
   31000    1766.4645   -100.64196    1.5983342   -99.043626   -920.54578    4.3809605    4.3809605    4.3809605   -920.54578   -18339.537    25308.405   -9730.5055    9102.3925    2379.9664   -1394.4025    84.082966 
   31100    858.39557   -99.824145   0.77669435   -99.047451   -2241.5114    4.3829211    4.3829211    4.3829211   -2241.5114   -10803.991   -20025.485    24104.942   -16612.969     4039.984   -8352.0356    84.195902 
   31200    1446.8555   -100.34546    1.3091453   -99.036315   -9366.1107    4.3753169    4.3753169    4.3753169   -9366.1107   -20853.607    1100.5248   -8345.2502    8876.4534    8065.2306   -4273.1607    83.758435 
   31300    1144.7788   -100.06689      1.03582   -99.031068    16640.032    4.3660228    4.3660228    4.3660228    16640.032   -36813.282    4329.0475     82404.33   -24899.142   -6895.4537   -10204.649    83.225807 
   31400    1088.7022   -100.02033   0.98508067   -99.035251   -658.67878    4.3853414    4.3853414    4.3853414   -658.67878   -7560.7365   -13815.395    19400.095    11699.245    2303.9925   -12248.115     84.33546 
   31500    1127.6939   -100.04519    1.0203612   -99.024828    3477.1095    4.3849394    4.3849394    4.3849394    3477.1095     -70316.7    20636.867    60111.161   -21843.345   -11855.488   -18604.062    84.312274 
   31600    1320.5369   -100.20434    1.1948496   -99.009486    8701.9701    4.3833921    4.3833921    4.3833921    8701.9701   -21106.143    28027.305    19184.748    10519.698    3461.1217   -3169.6561    84.223052 
   31700    1229.4276   -100.12832     1.112412    -99.01591   -8156.9945    4.3728694    4.3728694    4.3728694   -8156.9945   -52558.563    4026.6535    24060.926   -19200.569   -19695.793   -2240.7706     83.61795 
   31800    1362.4576   -100.25554    1.2327803   -99.022761    22538.086    4.3629884    4.3629884    4.3629884    22538.086   -23991.357    43045.466    48560.148    5507.4843    2324.0029    5352.7753    83.052401 
   31900    1341.0655   -100.25011    1.2134243   -99.036684   -18957.921    4.3873102    4.3873102    4.3873102   -18957.921   -36507.245   -14724.034   -5642.4848   -9565.6416   -19539.697   -974.33768      84.4491 
   32000     1092.159   -100.01661   0.98820839   -99.028404   -13169.632     4.390326     4.390326     4.390326   -13169.632   -51036.787    -9836.357    21364.249   -9229.0807   -1764.7627    8071.3615    84.623368 
   32100    1486.8176   -100.35736    1.3453038   -99.012056    4038.9914     4.370372     4.370372     4.370372    4038.9914   -4933.6687    26322.061   -9271.4181    4624.5604   -10823.349   -14858.684    83.474766 
   32200    1254.7148   -100.15401    1.1352923   -99.018718    1368.3392    4.3694637    4.3694637    4.3694637    1368.3392   -26423.012    1138.2256    29389.804   -22534.947   -13316.774    3530.3355     83.42273 
   32300     1769.463   -100.61908    1.6010473   -99.018036   -2685.0464    4.3757359    4.3757359    4.3757359   -2685.0464   -1530.4515    19833.881   -26358.568    17573.138   -364.80905   -22851.607    83.782501 
   32400    726.05698   -99.699822   0.65695161   -99.042871   -10628.742    4.3851764    4.3851764    4.3851764   -10628.742   -39560.904   -5116.9373    12791.614   -41287.484   -21182.123   -1012.5443     84.32594 
   32500     2148.938   -100.96704    1.9444043    -99.02264   -11593.857    4.3811228    4.3811228    4.3811228   -11593.857    2799.7106   -25330.751   -12250.531    20363.087    3337.6077    -16568.61     84.09231 
   32600     476.2106   -99.471196   0.43088536   -99.040311   -6175.2377    4.3724801    4.3724801    4.3724801   -6175.2377   -25590.088   -5930.4292    12994.804   -49863.067    -15555.83    2049.6238    83.595621 
   32700    1974.6295   -100.81156    1.7866863   -99.024873    6824.3996    4.3730933    4.3730933    4.3730933    6824.3996    19287.634    13102.043   -11916.478      18595.1   -10257.539   -7641.5711    83.630793 
   32800    950.51703   -99.901289   0.86004779   -99.041242   -6753.9279    4.3845361    4.3845361    4.3845361   -6753.9279   -19516.128   -20638.466     19892.81   -38886.714   -3376.9119    -3151.877    84.289012 
   32900    1518.4075   -100.39422     1.373887   -99.020333    7779.8464    4.3868743    4.3868743    4.3868743    7779.8464    18537.269    21444.376   -16642.106    16167.245   -17747.973    1332.0872    84.423932 
   33000    1168.6272   -100.07463    1.0573985   -99.017229   -12292.928    4.3872764    4.3872764    4.3872764   -12292.928   -47573.584   -4247.7982    14942.598    -32117.97    1341.1126    884.19111     84.44715 
   33100    1498.0186   -100.36543    1.3554387   -99.009991    10184.892    4.3733546    4.3733546    4.3733546    10184.892    27744.177    10621.722   -7811.2241    8609.9126   -7980.5939   -5406.4163    83.645787 
   33200    1044.4309   -99.964058   0.94502298   -99.019035    15432.636    4.3705888    4.3705888    4.3705888    15432.636   -25654.754    44599.287    27353.376   -23309.747    1416.8705    11007.634    83.487193 
   33300    1408.7799   -100.30686    1.2746937   -99.032168   -4391.9005    4.3868673    4.3868673    4.3868673   -4391.9005   -5058.3042   -9677.7183    1560.3209    -12749.99   -15314.333   -5909.6454    84.423525 
   33400     1461.486    -100.3459    1.3223832   -99.023515   -12880.874    4.3863039    4.3863039    4.3863039   -12880.874   -39744.765     8378.214   -7276.0716   -22049.897    1297.2063   -2983.7643    84.391002 
   33500    1120.7662   -100.03823    1.0140928   -99.024141    13202.238    4.3807358    4.3807358    4.3807358    13202.238   -9470.0246    17900.032    31176.708   -6151.2849   -18678.783    2798.4014    84.070028 
   33600    1672.8119   -100.52869    1.5135954   -99.015092    908.45422    4.3739184    4.3739184    4.3739184    908.45422   -20367.241    6063.1145     17029.49   -22169.487    3980.5096   -9589.8631     83.67814 
   33700    1012.0488   -99.938446   0.91572306   -99.022723    17678.832    4.3859129    4.3859129    4.3859129    17678.832   -23562.337    35205.282     41393.55   -9564.4902   -19932.893    4483.0028    84.368437 
   33800    1120.3893   -100.02374    1.0137518   -99.009993   -13875.255    4.3949362    4.3949362    4.3949362   -13875.255   -24453.205   -26114.756    8942.1961   -15510.593   -7409.2657   -12319.865    84.890235 
   33900     1557.278   -100.40552    1.4090578   -98.996459   -3812.9287    4.3735239    4.3735239    4.3735239   -3812.9287   -25637.483   -3937.2493    18135.946   -15710.019   -5327.1556    9946.3989      83.6555 
   34000    1003.9704   -99.919148   0.90841352   -99.010735    6532.3179    4.3769398    4.3769398    4.3769398    6532.3179   -10950.126   -3291.4245    33838.504   -23772.275   -11520.776   -16946.391    83.851671 
   34100    1366.3606   -100.25366    1.2363118   -99.017343   -33424.685     4.387238     4.387238     4.387238   -33424.685   -49725.471   -46470.721   -4077.8623     -15367.9    1528.7418    9190.3499     84.44493 
   34200    1466.7021    -100.3401    1.3271029      -99.013   -12691.752    4.3878408    4.3878408    4.3878408   -12691.752    -8237.533   -28720.636   -1117.0873   -16073.922   -12727.032   -4298.4594    84.479745 
   34300    990.71369   -99.914318   0.89641857   -99.017899   -26998.227    4.3809789    4.3809789    4.3809789   -26998.227   -54114.328   -49620.289    22739.934   -38231.371    3046.4246   -2767.9294    84.084023 
   34400    1653.8745   -100.50456    1.4964604   -99.008102    12288.859      4.36659      4.36659      4.36659    12288.859    12909.423    23916.877    40.276686    4895.0161   -5203.4363    3143.4232    83.258245 
   34500    1045.0991   -99.983754   0.94562759   -99.038126   -25527.054     4.384077     4.384077     4.384077   -25527.054    -33051.27   -47433.949    3904.0571   -43157.506   -3573.3947   -9517.9194    84.262533 
   34600    1491.1918   -100.36995    1.3492617   -99.020685    7961.7738    4.3859193    4.3859193    4.3859193    7961.7738    2743.2851    16760.777    4381.2594    14333.993   -5801.0398    4351.7215    84.368809 
   34700    1176.9721   -100.09765    1.0649491   -99.032697   -28798.073    4.3829671    4.3829671    4.3829671   -28798.073   -18671.291   -42692.844   -25030.083   -42251.503     1322.743   -12168.525    84.198554 
   34800     1624.695   -100.49965    1.4700581    -99.02959    16390.101    4.3761048    4.3761048    4.3761048    16390.101    55770.383    4377.1213   -10977.202    22546.419   -1812.4578    637.33108    83.803692 
   34900    940.33254   -99.902548   0.85083264   -99.051715    2938.5976    4.3727614    4.3727614    4.3727614    2938.5976    -18798.25    12869.132    14744.911    -38525.77    18237.825   -5616.1346    83.611758 
   35000    1562.7521   -100.45083    1.4140109   -99.036815    2481.6917    4.3865642    4.3865642    4.3865642    2481.6917     61333.81   -29329.787   -24558.948    5477.7575    2498.1652   -8981.9251    84.406027 
   35100    1337.5714   -100.24443    1.2102627   -99.034168   -21013.177    4.3840167    4.3840167    4.3840167   -21013.177   -36325.354   -24932.591   -1781.5868   -22187.934    21905.341    6181.2741     84.25906 
   35200     1187.737   -100.09402    1.0746894   -99.019327    26475.885    4.3746437    4.3746437    4.3746437    26475.885    82516.545   -18737.226    15648.335   -618.21704    12691.608   -18949.787    83.719777 
   35300    1092.8622    -100.0081   0.98884468   -99.019253   -7078.0043    4.3832517    4.3832517    4.3832517   -7078.0043     -27445.7   -34210.669    40422.356   -33724.142    22746.246    510.02657    84.214959 
   35400     1528.603   -100.39583    1.3831121    -99.01272   -3214.3583    4.3811942    4.3811942    4.3811942   -3214.3583    17364.473   -36084.886    9077.3381     1570.612   -3495.2216   -14021.391    84.096418 
   35500    1439.7603   -100.31409    1.3027254   -99.011368   -2257.0516    4.3809272    4.3809272    4.3809272   -2257.0516   -25021.735   -7846.3434    26096.924   -10603.102    22988.355    6963.4622    84.081045 
   35600    879.26298   -99.813838   0.79557562   -99.018262    20864.416    4.3791621    4.3791621    4.3791621    20864.416    17187.308     5333.761    40072.178   -21599.018   -3977.0801    -25677.62    83.979456 
   35700     1614.159   -100.47254     1.460525   -99.012018    14058.321    4.3762347    4.3762347    4.3762347    14058.321   -24722.509     37420.45    29477.021    8077.1352    22077.679    13193.062    83.811155 
   35800    1270.2641   -100.17327    1.1493617   -99.023911    -21727.56    4.3836387    4.3836387    4.3836387    -21727.56   -20765.913   -41388.833   -3027.9338   -18995.259   -551.84312   -23596.901    84.237264 
   35900    1105.7604   -100.02119    1.0005152    -99.02067     34028.63    4.3768525    4.3768525    4.3768525     34028.63    1091.5227    84607.029    16387.339    3804.1889    16721.581   -2453.1784    83.846652 
   36000    1424.0352   -100.30912     1.288497   -99.020627   -18624.558    4.3818239    4.3818239    4.3818239   -18624.558   -18812.062   -20302.943    -16758.67   -15944.702    13695.841   -12259.969    84.132685 
   36100    1414.1229    -100.2933    1.2795281   -99.013771   -8561.2435    4.3798141    4.3798141    4.3798141   -8561.2435    2160.7049      685.316   -28529.751    2514.0453   -2561.5478   -20963.322    84.016973 
   36200    1055.1775   -99.968827   0.95474682    -99.01408    31922.345     4.373115     4.373115     4.373115    31922.345    4785.0359     73196.99    17785.007   -13074.298    11225.415    756.16794    83.632043 
   36300    1568.1923   -100.43373    1.4189333   -99.014792   -33735.228    4.3877195    4.3877195    4.3877195   -33735.228    1249.0018   -38355.695   -64098.991    -1450.533   -2011.3706   -32261.885     84.47274 
   36400    1290.9589   -100.17644    1.1680867   -99.008355    8946.8939    4.3807876    4.3807876    4.3807876    8946.8939   -8289.9962    44988.645   -9857.9673   -11735.129    3402.2199    3775.7131     84.07301 
   36500    1103.5131   -100.01644   0.99848184   -99.017957    9003.2868    4.3743605    4.3743605    4.3743605    9003.2868    18211.269    17659.124   -8860.5328    7052.0355   -5215.7545   -35195.322    83.703516 
   36600    1655.4695   -100.51074    1.4979036   -99.012837    627.45274    4.3806757    4.3806757    4.3806757    627.45274   -3599.9311    32304.246   -26821.957   -14985.381    11037.547    12877.398    84.066568 
   36700    948.79393   -99.880908   0.85848869   -99.022419    4449.3744    4.3818786    4.3818786    4.3818786    4449.3744    6708.9138   -2152.6173    8791.8267   -2554.0588   -18595.892   -44899.247    84.135835 
   36800    1592.1452    -100.4518    1.4406064   -99.011189    4673.6304    4.3797865    4.3797865    4.3797865    4673.6304   -33265.553    34081.334     13205.11    1067.5796    17686.823    15579.754    84.015385 
   36900    1227.1765   -100.13472     1.110375   -99.024343    -8030.747      4.37464      4.37464      4.37464    -8030.747    27456.179   -19866.517   -31681.904    3143.5595   -3631.0844     -41196.6    83.719565 
   37000    1212.2031   -100.12883    1.0968268   -99.032006    6422.2425    4.3831687    4.3831687    4.3831687    6422.2425   -42476.893    24874.391     36869.23   -2328.7615    6008.7107    4899.8236    84.210174 
   37100    1469.2586   -100.35583     1.329416    -99.02641    -33346.47    4.3936128    4.3936128    4.3936128    -33346.47   -15702.611   -52637.047   -31699.751    -6626.194    2742.0774   -18531.992    84.813572 
   37200    1167.0818   -100.07458    1.0560001   -99.018578    7290.4944    4.3814673    4.3814673    4.3814673    7290.4944   -23335.161    20950.459    24256.185    3775.0504    12111.253   -19323.017    84.112147 
   37300      1461.42   -100.34053    1.3223235   -99.018206    -7575.607    4.3777023    4.3777023    4.3777023    -7575.607   -25300.522   -6118.8105    8692.5111    7701.9814   -4187.9317    20809.048      83.8955 
   37400    1055.7266   -99.986677   0.95524363   -99.031433    16192.716     4.374387     4.374387     4.374387    16192.716   -4267.2936    55509.784   -2664.3432   -2462.0962    13259.653   -25281.173    83.705037 
   37500    1331.0046   -100.24262    1.2043209   -99.038301    7513.6936    4.3899633    4.3899633    4.3899633    7513.6936   -38494.396    20620.562    40414.915    11093.832    1049.5638    13022.916    84.602398 
   37600    1302.4132   -100.20689    1.1784508   -99.028439   -27393.049     4.392053     4.392053     4.392053   -27393.049   -35076.012    12047.879   -59151.014   -9008.4014   -707.82286   -21906.494    84.723274 
   37700     1150.063   -100.05527    1.0406011   -99.014672     33310.82    4.3733762    4.3733762    4.3733762     33310.82   -25285.201    27660.615    97557.046    13517.003    12912.693    816.18085    83.647026 
   37800    1475.5575   -100.36327    1.3351154   -99.028152   -13144.935    4.3803146    4.3803146    4.3803146   -13144.935   -13561.814   -13798.554   -12074.437   -11293.599    -9282.053    6000.0796     84.04578 
   37900    1438.2514   -100.32975    1.3013601   -99.028394   -3792.9908    4.3895563    4.3895563    4.3895563   -3792.9908   -40619.938   -22510.999    51751.964    14528.469    16615.937   -5287.7654    84.578869 
   38000    1155.1861   -100.07282    1.0452367   -99.027588   -6353.1248    4.3886858    4.3886858    4.3886858   -6353.1248   -29591.913    -6550.342     17082.88   -3203.3857   -11855.606    8078.8967    84.528558 
   38100    1427.7646   -100.30777    1.2918714   -99.015896    14198.874     4.379599     4.379599     4.379599    14198.874    -4943.558     17095.23     30444.95    6118.6886    13177.766   -10427.016    84.004596 
   38200    1040.1727   -99.964919   0.94117015   -99.023749    8061.6107    4.3905748    4.3905748    4.3905748    8061.6107   -53132.192    49117.574     28199.45    9136.9802   -9613.7719    3262.9872    84.637754 
   38300    1446.9746   -100.32577     1.309253   -99.016519   -4369.1842    4.3955285    4.3955285    4.3955285   -4369.1842   -39928.389    46194.498   -19373.662    4865.9692    9177.5063   -6790.8524     84.92456 
   38400    972.21201    -99.90158   0.87967786   -99.021902    3060.3501    4.3949741    4.3949741    4.3949741    3060.3501    -59026.85    40163.616    28044.285   -1043.2289   -22552.077    8591.0937    84.892427 
   38500    1587.0297    -100.4511    1.4359778   -99.015126   -7780.2167    4.3815703    4.3815703    4.3815703   -7780.2167   -36224.406    19199.653   -6315.8971   -8668.1663    2493.7233   -8601.2672    84.118082 
   38600    1068.6022   -99.993609   0.96689375   -99.026715   -764.65824    4.3722141    4.3722141    4.3722141   -764.65824   -34245.828    5800.7818    26151.071    9358.2521   -31523.635    6474.9776    83.580362 
   38700    1552.5612   -100.43094      1.40479   -99.026149    -11637.48    4.3878603    4.3878603    4.3878603    -11637.48   -23707.128   -19753.558    8548.2465   -15488.256    1967.3716   -15695.681    84.480871 
   38800    1005.2242    -99.93172   0.90954801   -99.022172   -18595.505    4.3952035    4.3952035    4.3952035   -18595.505   -34521.778    14726.902    -35991.64    13469.377    -37954.94   -8739.9695    84.905724 
   38900     1409.479   -100.28249    1.2753262   -99.007168    9522.8716    4.3821783    4.3821783    4.3821783    9522.8716   -24348.988     1095.416    51822.187   -9510.6071    12918.241     9045.576    84.153105 
   39000    1092.8864    -100.0062   0.98886655   -99.017331    3664.7088    4.3773621    4.3773621    4.3773621    3664.7088   -42465.746    61721.255   -8261.3835    8944.4081   -39482.685   -4014.4673    83.875946 
   39100    1157.8998   -100.07664    1.0476921   -99.028944    7706.0677    4.3809639    4.3809639    4.3809639    7706.0677   -38343.988    7038.4973    54423.694    3700.3267    14490.621    6094.4285    84.083162 
   39200    1394.8858   -100.29822     1.262122   -99.036094   -5824.7614    4.3908157    4.3908157    4.3908157   -5824.7614   -41086.126    47380.599   -23768.756   -6693.5957    -29881.71   -7634.2497     84.65169 
   39300    1282.0084   -100.19846    1.1599882   -99.038474   -1269.6568    4.3744355    4.3744355    4.3744355   -1269.6568   -34310.503    13727.157    16774.375    7646.5265      10601.4   -6493.2504    83.707824 
   39400    1304.5783   -100.22025    1.1804099   -99.039841      14931.9    4.3693962    4.3693962    4.3693962      14931.9   -12576.957    13260.835    44111.823   -17381.448   -4085.5265   -1589.4883    83.418867 
   39500    1320.9819   -100.23215    1.1952522   -99.036902    -12338.18    4.3888769    4.3888769    4.3888769    -12338.18   -37945.016    34060.916    -33130.44    8394.0005    14133.395   -3167.0116    84.539601 
   39600    1365.4183   -100.26611    1.2354591   -99.030651   -20354.011    4.3865154    4.3865154    4.3865154   -20354.011   -63678.394   -18809.724    21426.084    -19538.84   -5298.5817   -2509.3302    84.403214 
   39700    1593.1802   -100.46362    1.4415429   -99.022073   -1752.2335    4.3775545    4.3775545    4.3775545   -1752.2335   -5980.3159    34688.552   -33964.937    8956.4392    12656.085    11864.753    83.887004 
   39800    1004.7119   -99.949614   0.90908443   -99.040529    -5322.163    4.3630471    4.3630471    4.3630471    -5322.163   -43822.545    31666.097   -3810.0412   -23745.915    12895.195    5151.4649    83.055748 
   39900    1602.9288   -100.49597    1.4503637   -99.045605    21257.893     4.379857     4.379857     4.379857    21257.893    21816.732    42299.769   -342.82295    10014.737   -711.60156   -1812.0317    84.019441 
   40000    889.38633    -99.84774   0.80473544   -99.043005   -46501.964    4.4002472    4.4002472    4.4002472   -46501.964   -58604.534   -28138.227   -52763.131   -22109.911    20906.422    101.86321     85.19836 
   40100     1566.201   -100.43353    1.4171316   -99.016399    15776.161    4.3693346    4.3693346    4.3693346    15776.161    37503.263    12288.208   -2462.9881    -4689.467   -11796.752     634.1822     83.41534 
   40200     1412.931   -100.31041    1.2784497   -99.031958    36.940524    4.3647669    4.3647669    4.3647669    36.940524   -12408.733    30883.498   -18363.944   -12023.366     20109.61    12099.347    83.154005 
   40300    978.77698   -99.935186   0.88561798   -99.049568    8527.7684     4.377778     4.377778     4.377778    8527.7684    18000.473    8985.4975   -1402.6655   -21382.839   -1154.8022     -3630.75    83.899856 
   40400    1555.7697   -100.44805    1.4076931   -99.040358    597.42945    4.3884684    4.3884684    4.3884684    597.42945   -548.81099    9853.5832   -7512.4839    4047.7081   -3888.3839    17647.478    84.516001 
   40500    1050.2221   -99.986253   0.95026307    -99.03599   -12937.633    4.3864752    4.3864752    4.3864752   -12937.633   -28716.946    9015.2711   -19111.223   -33301.773    3964.9089   -10952.547    84.400891 
   40600    1614.7763   -100.47475    1.4610835   -99.013667    14246.811    4.3622941    4.3622941    4.3622941    14246.811    15008.899    33451.576   -5720.0412    7800.5728   -4037.3997    7192.6951    83.012757 
   40700    1085.5914    -100.0166    0.9822659   -99.034332   -5679.7669    4.3781895    4.3781895    4.3781895   -5679.7669   -15894.745    -12239.72    11095.164   -37982.284   -5387.9819    5209.8513    83.923516 
   40800    1469.5576    -100.3525    1.3296866   -99.022809   -29012.037    4.3910667    4.3910667    4.3910667   -29012.037   -40577.867    2744.6819   -49202.926    2006.5718   -12317.796    230.30418    84.666207 
   40900    1263.2461   -100.15975    1.1430116   -99.016741    7644.5776    4.3799197    4.3799197    4.3799197    7644.5776    15978.366   -7415.3096    14370.676   -15197.959    5921.8711     10033.48    84.023049 
   41000    1083.7611   -100.00861   0.98060981   -99.027998   -19206.493    4.3732558    4.3732558    4.3732558   -19206.493    -25386.57   -4783.2988   -27449.612   -17355.537   -24088.007   -1497.7276    83.640117 
   41100    1818.5447   -100.66642    1.6454574   -99.020962   -4485.6725    4.3690427    4.3690427    4.3690427   -4485.6725   -10569.972   -11969.024     9081.979    4795.2149     17306.45    1164.1987    83.398619 
   41200    961.26053   -99.906221   0.86976873   -99.036453    -24942.28    4.3905144    4.3905144    4.3905144    -24942.28   -51951.133   -2791.0907   -20084.617   -22071.956   -26533.536   -904.80447     84.63426 
   41300    1499.5929   -100.37151    1.3568632   -99.014643   -19908.086    4.3871354    4.3871354    4.3871354   -19908.086   -29637.319    -18311.67    -11775.27    21488.761     11725.54   -3471.9939    84.439008 
   41400    1457.7175   -100.33232    1.3189734   -99.013345   -8996.7959    4.3671741    4.3671741    4.3671741   -8996.7959   -37111.142    8647.0785    1473.6758   -14544.322    -24455.37    5940.4008    83.291658 
   41500    1182.2886   -100.09959    1.0697596   -99.029832    6987.5228      4.36783      4.36783      4.36783    6987.5228   -1341.4202     24967.91   -2663.9215    4826.2212   -1088.8283   -14924.814    83.329192 
   41600    1377.2656   -100.28339    1.2461789   -99.037211   -20058.363    4.3854949    4.3854949    4.3854949   -20058.363   -25384.562   -31418.499   -3372.0269   -1009.8339   -11370.309    8382.3771    84.344318 
   41700    1343.7912    -100.2427    1.2158905   -99.026806   -23019.179     4.389729     4.389729     4.389729   -23019.179   -29438.502   -18308.453   -21310.582   -6722.8274   -23595.179   -21620.415    84.588851 
   41800    1373.2442   -100.25887    1.2425402   -99.016333    17316.416    4.3615193    4.3615193    4.3615193    17316.416    33088.815    3456.7151    15403.718    13773.981    12044.124    8513.5752     82.96853 
   41900     872.9957   -99.830418   0.78990486   -99.040513    15083.558    4.3633247    4.3633247    4.3633247    15083.558   -3288.8865    14900.503    33639.059   -18483.753   -49336.481    -11325.16    83.071603 
   42000    1868.9753   -100.72656    1.6910881   -99.035476   -3512.3351    4.3858382    4.3858382    4.3858382   -3512.3351    35074.831   -47921.065    2309.2282     13877.94    14043.519    2440.1357    84.364126 
   42100    637.55118   -99.623628    0.5768697   -99.046758   -11461.117    4.3884651    4.3884651    4.3884651   -11461.117   -57094.875   -3569.5554     26281.08   -14127.362    -41961.09    2685.5241    84.515808 
   42200      1495.02   -100.38277    1.3527255   -99.030048    23773.589    4.3668171    4.3668171    4.3668171    23773.589    52721.217    13314.414    5285.1365    17632.725    19202.683   -8140.5838    83.271234 
   42300    1254.9448   -100.17303    1.1355004   -99.037534   -2621.8844    4.3708307    4.3708307    4.3708307   -2621.8844   -20965.946   -15542.333    28642.625   -22101.392   -39103.258    5573.1155    83.501051 
   42400    1212.5042   -100.13255    1.0970992   -99.035451   -14198.105    4.3910594    4.3910594    4.3910594   -14198.105    1012.6906   -20785.429   -22821.576     2698.389    14967.093   -3666.9126    84.665783 
   42500    1594.4112   -100.46141    1.4426568   -99.018754   -16130.477    4.3884329    4.3884329    4.3884329   -16130.477   -28336.927   -8720.5626   -11333.941   -5452.8091   -20912.116     6569.009    84.513947 
   42600    895.20323    -99.84183   0.80999869   -99.031832   -678.60318    4.3602982    4.3602982    4.3602982   -678.60318   -3900.1341    17820.956   -15956.631    -20795.22   -988.35832   -7544.4428    82.898862 
   42700    1780.0879   -100.64217    1.6106609   -99.031508   -6092.5205    4.3614921    4.3614921    4.3614921   -6092.5205   -5686.3742    4046.7188   -16637.906    7777.6493    6667.7944    5870.6566    82.966976 
   42800    1135.0685   -100.06292    1.0270338   -99.035881   -42571.363    4.4004841    4.4004841    4.4004841   -42571.363   -51733.671   -36848.319   -39132.098   -22489.596   -19151.064   -41.273075    85.212118 
   42900    1386.6153   -100.27137    1.2546387   -99.016734   -26895.505    4.3883858    4.3883858    4.3883858   -26895.505   -35235.895     899.8257   -46350.447    16233.758    38030.193    -3485.806    84.511224 
   43000    1488.6711   -100.36299    1.3469809   -99.016005    13144.457    4.3590512    4.3590512    4.3590512    13144.457    15229.612    2447.8209    21755.937   -14015.669    -29510.06    8733.7547    82.827759 
   43100    1264.0507   -100.18598    1.1437396   -99.042237    7837.1489    4.3628115    4.3628115    4.3628115    7837.1489    20067.434    2950.4249    493.58827   -511.83881    10942.317   -5140.8955    83.042295 
   43200    1271.1309   -100.18914     1.150146   -99.038992   -15027.409    4.4023097    4.4023097    4.4023097   -15027.409   -22971.669   -5108.2871    -17002.27    8052.4671   -4185.5744    3593.0576    85.318221 
   43300    1324.1448   -100.20467    1.1981141   -99.006552    -42453.46    4.4019784    4.4019784    4.4019784    -42453.46   -49984.651   -40823.324   -36552.406   -2460.6008   -949.76182   -4716.5666    85.298959 
   43400    1408.6997   -100.26812    1.2746211   -98.993499    11266.502    4.3571642    4.3571642    4.3571642    11266.502    29044.896    5064.1333    -309.5247    21888.133    9277.4442    11230.849     82.72024 
   43500    1545.0253   -100.40982    1.3979713   -99.011848    29629.394    4.3463489    4.3463489    4.3463489    29629.394    25743.728    51656.856    11487.596   -32728.891   -16919.033   -6447.9181    82.105786 
   43600    1179.1294   -100.11731    1.0669011   -99.050412   -6442.3046    4.3893191    4.3893191    4.3893191   -6442.3046    7637.1232    1825.7637   -28789.801    25689.331    23350.522     11379.83    84.565156 
   43700    1401.6963   -100.29272    1.2682842   -99.024436   -17171.639    4.3997324    4.3997324    4.3997324   -17171.639     -35601.1    13457.016   -29370.834   -26167.078   -7512.7089   -8202.1128     85.16846 
   43800    1057.5717   -99.984838   0.95691306   -99.027925    10338.266    4.3570715    4.3570715    4.3570715    10338.266   -2584.5704    54312.803   -20713.435    12904.371    10299.714    2250.8789    82.714962 
   43900    1558.1977   -100.44098      1.40989   -99.031088    19326.855    4.3447201    4.3447201    4.3447201    19326.855    18894.741    15432.323    23653.502   -1109.8935    1259.5643    11828.763    82.013512 
   44000    1359.4525   -100.28592    1.2300612   -99.055861   -1327.7251    4.3779804    4.3779804    4.3779804   -1327.7251   -14787.381    42505.135   -31700.929    -1026.125   -109.73252   -2298.4886    83.911489 
   44100    916.56868   -99.884525    0.8293306   -99.055195   -25539.289    4.3905398    4.3905398    4.3905398   -25539.289   -21328.638   -18010.005   -37279.223    22543.465    6907.2619     17696.67    84.635732 
   44200    1846.0784    -100.6967    1.6703705   -99.026325    15721.448    4.3690613    4.3690613    4.3690613    15721.448    9367.7214    43930.603   -6133.9796   -16038.268   -3519.1206    5553.6481    83.399685 
   44300     749.3875   -99.721384   0.67806156   -99.043322     11166.78    4.3518344    4.3518344    4.3518344     11166.78    21355.724    20392.285   -8247.6687    32895.574    8139.1798    16468.096    82.417052 
   44400    1551.6473    -100.4493    1.4039631   -99.045337    21075.297    4.3715952    4.3715952    4.3715952    21075.297    18392.745    37343.841    7489.3053   -9592.0452   -5144.2698    19350.541    83.544878 
   44500     1382.461   -100.28871    1.2508798   -99.037826   -24071.626    4.3911346    4.3911346    4.3911346   -24071.626   -21271.524   -12951.018   -37992.335    24817.038    2016.7173     337.2031    84.670133 
   44600    910.45239   -99.862245   0.82379646   -99.038449   -683.20288    4.3692653    4.3692653    4.3692653   -683.20288    17812.337   -9191.5417   -10670.404    8524.6055    2973.8219    34978.934    83.411368 
   44700    1946.5761   -100.78515     1.761303   -99.023845    8759.0161    4.3534753    4.3534753    4.3534753    8759.0161    13390.649    11444.465     1441.934    6033.3983   -7374.5292    -7797.086    82.510316 
   44800    811.40903   -99.790302   0.73417995   -99.056123   -5576.6512     4.374659     4.374659     4.374659   -5576.6512    13061.507   -18403.738   -11387.723    30187.953   -349.08821    19565.048    83.720656 
   44900     1556.506   -100.43305    1.4083593   -99.024688   -18010.253     4.393395     4.393395     4.393395   -18010.253   -25656.272    -26489.55   -1884.9358   -11298.467   -1748.5518     2570.332    84.800955 
   45000    1144.1914   -100.06086    1.0352884   -99.025574   -9952.1043    4.3752447    4.3752447    4.3752447   -9952.1043   -20008.601   -12673.129    2825.4169    51098.959     -1789.16    10780.609    83.754286 
   45100    1537.5557   -100.41074    1.3912128   -99.019522    6156.2775    4.3558655    4.3558655    4.3558655    6156.2775   -2056.6902    26887.728    -6362.205   -24517.885   -1461.9238    2106.9048    82.646295 
   45200    1152.2843   -100.07834    1.0426111   -99.035724    6688.8381    4.3703526    4.3703526    4.3703526    6688.8381   -7060.2669   -3342.5388     30469.32    35854.586    1304.1784   -3076.6839    83.473656 
   45300    1399.5075   -100.30022    1.2663038   -99.033914   -31684.572    4.3856323    4.3856323    4.3856323   -31684.572   -35335.757   -39858.191   -19859.767   -17396.407   -9941.6481    7438.8208    84.352248 
   45400    1199.7013   -100.12285     1.085515    -99.03733   -10664.728    4.3725918    4.3725918    4.3725918   -10664.728    1670.9157    -24121.25   -9543.8498    14640.185     1652.732   -16700.558    83.602025 
   45500    1675.9583    -100.5421    1.5164423   -99.025659    1231.3858    4.3575241    4.3575241    4.3575241    1231.3858   -12749.373     1200.102    15243.428    5904.9843   -12205.949    10316.154     82.74074 
   45600    751.16112   -99.725212   0.67966637   -99.045546    4448.1526     4.373361     4.373361     4.373361    4448.1526    20905.431   -4939.6324   -2621.3413   -7760.4871    -9055.981   -7841.2834    83.646155 
   45700    1854.3714   -100.70746    1.6778742   -99.029586   -26797.489    4.3868384    4.3868384    4.3868384   -26797.489   -17632.047   -30132.825   -32627.596    18968.053    -1216.201   -11143.543    84.421858 
   45800    1144.7444   -100.07395    1.0357888   -99.038162    2503.5342    4.3665227    4.3665227    4.3665227    2503.5342   -15749.386    48237.417   -24977.428   -17229.389   -18359.799     130.8327    83.254395 
   45900    1326.9588   -100.23546    1.2006602   -99.034802    806.36338    4.3609588    4.3609588    4.3609588    806.36338    36125.186   -15053.339   -18652.757    14405.943    12544.901   -19052.331    82.936546 
   46000    1298.3133    -100.2125    1.1747412   -99.037758   -7889.2391    4.3817654    4.3817654    4.3817654   -7889.2391   -14285.644    40715.077    -50097.15   -22240.897   -11658.654    2800.6809    84.129319 
   46100    1242.4524   -100.14507    1.1241971   -99.020877   -14652.657    4.3891217    4.3891217    4.3891217   -14652.657   -1147.3504    6420.1182   -49230.739    7857.4429    14077.756   -13821.328    84.553748 
   46200    1260.2074   -100.14666    1.1402622   -99.006399   -3998.4781    4.3828655    4.3828655    4.3828655   -3998.4781    12315.868    17739.974   -42051.276   -23496.012   -12317.454   -4054.6349    84.192701 
   46300    1337.2327   -100.21619    1.2099563    -99.00623   -1348.6392     4.373782     4.373782     4.373782   -1348.6392   -4257.7527    44613.297   -44401.462   -4883.3712    25010.755   -3006.5088    83.670316 
   46400    1370.6013   -100.25385    1.2401489   -99.013701   -8251.7421    4.3758864    4.3758864    4.3758864   -8251.7421    10396.047   -2955.9497   -32195.324   -4261.9944   -11645.812    -2549.375    83.791146 
   46500    1007.6882   -99.940372   0.91177748   -99.028594   -15826.086    4.3832379    4.3832379    4.3832379   -15826.086   -58159.874    66527.831   -55846.214   -2439.7107    25207.704    10106.941    84.214162 
   46600    1824.0524    -100.6645    1.6504409   -99.014063   -5512.0409    4.3790741    4.3790741    4.3790741   -5512.0409    16416.977   -12854.612   -20098.488   -700.39764    2065.5877    2140.8759    83.974397 
   46700    677.29958   -99.646631    0.6128349   -99.033796   -16767.738    4.3716786    4.3716786    4.3716786   -16767.738   -19616.814    19899.509   -50585.908   -10746.302    11796.436    9664.6316    83.549658 
   46800    2180.8787   -100.99826    1.9733049   -99.024957   -5561.0515    4.3729378    4.3729378    4.3729378   -5561.0515   -3580.9059    9548.7977   -22651.046    578.23413   -1507.5463    4167.4736    83.621876 
   46900    902.32518   -99.856673   0.81644279    -99.04023   -29654.791     4.385235     4.385235     4.385235   -29654.791   -38199.694   -2386.3355   -48378.343   -17911.129    13985.189    13261.589    84.329324 
   47000    1430.9732   -100.32611    1.2947746   -99.031339   -1788.0174    4.3763159    4.3763159    4.3763159   -1788.0174    27948.674    2633.0917   -35945.818   -2694.0919    2147.6804    -9167.849     83.81582 
   47100    1366.3237   -100.26831    1.2362784   -99.032028    8482.7521    4.3667486    4.3667486    4.3667486    8482.7521   -4618.6544    49080.738   -19013.827   -14465.415    12457.904     8284.961    83.267318 
   47200    1093.5675    -100.0358   0.98948282   -99.046314    5139.6551    4.3746234    4.3746234    4.3746234    5139.6551   -22161.125    70801.165   -33221.075    -8265.931   -4619.4979   -4000.7923    83.718612 
   47300    1194.4895   -100.11491    1.0807992   -99.034115    1077.4249    4.3934511    4.3934511    4.3934511    1077.4249    3779.8797    49831.078   -50378.683   -4552.3084    13939.625    -14436.82    84.804204 
   47400    1094.9787   -100.01236   0.99075978   -99.021601   -9065.0232    4.3881131    4.3881131    4.3881131   -9065.0232    -31342.64    50901.677   -46754.106   -10194.251    8749.5774    9549.4865     84.49547 
   47500    1400.8544   -100.27019    1.2675225   -99.002667    15614.049    4.3652817    4.3652817    4.3652817    15614.049    11043.098    42110.657   -6311.6076   -10398.124    2131.7248   -14358.807    83.183429 
   47600    1145.6996   -100.06051     1.036653    -99.02386   -18331.406    4.3738441    4.3738441    4.3738441   -18331.406   -33801.786    11894.795   -33087.226   -20874.672    20009.653    5380.6543    83.673876 
   47700    1771.8428     -100.624    1.6032006     -99.0208   -2225.1207    4.3827091    4.3827091    4.3827091   -2225.1207     21262.78   -7745.1582   -20192.984    660.46928   -96.113201   -5445.2666    84.183684 
   47800     778.9521   -99.739184   0.70481223   -99.034372   -19666.477    4.3844218    4.3844218    4.3844218   -19666.477   -14260.022   -23610.227   -21129.182   -17633.457    15912.687    2131.3189    84.282416 
   47900    1786.9035   -100.63179    1.6168278   -99.014964    6896.2937    4.3726318    4.3726318    4.3726318    6896.2937    19270.088    22326.384   -20907.591    9939.7346    -6114.824   -513.97942    83.604323 
   48000    1074.3726   -100.00767   0.97211495   -99.035557    3160.7281    4.3626796    4.3626796    4.3626796    3160.7281   -7410.0207    11078.129    5814.0755   -13606.964    25235.719    1852.7749    83.034762 
   48100    1399.3807   -100.31068    1.2661891   -99.044494   -4906.0468    4.3801898    4.3801898    4.3801898   -4906.0468    -27.81151    19230.103   -33920.432    8828.9277   -17368.433    6339.2706    84.038595 
   48200    1389.1524   -100.28838    1.2569343   -99.031447   -17073.593      4.39095      4.39095      4.39095   -17073.593   -23758.856     2489.604   -29951.527    -5058.235    21453.943    5196.2098    84.659455 
   48300    1134.0479   -100.05169    1.0261104   -99.025584   -8741.4648    4.3765666    4.3765666    4.3765666   -8741.4648   -18145.623    11719.447   -19798.218   -4586.8334   -12571.194    4654.7551    83.830222 
   48400    1624.4963    -100.4937    1.4698784   -99.023817    7623.0349    4.3592254    4.3592254    4.3592254    7623.0349    15459.835    22661.839   -15252.569    8964.7838    22821.108    5621.3235    82.837688 
   48500    1006.9961   -99.958744    0.9111512   -99.047593    32598.392    4.3642885    4.3642885    4.3642885    32598.392     15793.64    74976.995    7024.5407    -9280.038   -15478.955    17.802284    83.126667 
   48600    1587.8896   -100.48066    1.4367559   -99.043903   -32430.782     4.392908     4.392908     4.392908   -32430.782    -11759.93   -28459.335   -57073.079    13783.442    14283.675   -4708.0276    84.772763 
   48700    1320.7604   -100.22288    1.1950518   -99.027826    7354.8919    4.3791352    4.3791352    4.3791352    7354.8919   -18163.651    51183.224   -10954.897   -8839.5555   -5567.2549     3888.851    83.977911 
   48800    1293.5791    -100.1881    1.1704576   -99.017642    18357.694    4.3664093    4.3664093    4.3664093    18357.694    48804.333    10527.527   -4258.7779    13474.765    -9389.123   -2637.6596    83.247909 
   48900    1370.4138    -100.2656    1.2399792   -99.025617   -7384.2248     4.374268     4.374268     4.374268   -7384.2248   -28283.776    32355.204   -26224.102   -4978.3693    4829.6506   -2911.1854    83.698211 
   49000     1299.249   -100.20613    1.1755878   -99.030538    9785.9561     4.378356     4.378356     4.378356    9785.9561    6296.2611    33807.133   -10745.526    5081.3711   -17796.062    3898.7687    83.933092 
   49100    1245.2593   -100.15732    1.1267368   -99.030584   -19530.589    4.3871278    4.3871278    4.3871278   -19530.589    26292.269   -23010.518   -61873.518    10018.612   -9216.0236   -14892.842    84.438568 
   49200    1238.6205   -100.14581    1.1207299   -99.025079    13943.944    4.3669749    4.3669749    4.3669749    13943.944   -12043.178    60310.809   -6435.7997   -3057.5222   -12965.759    7206.7694    83.280262 
   49300    1354.3069   -100.25194    1.2254054   -99.026535     7875.845    4.3703956    4.3703956    4.3703956     7875.845    65618.124   -4317.6897   -37672.899    12387.489   -1707.9478   -10336.915    83.476121 
   49400    1185.1224   -100.10136    1.0723237   -99.029039   -17413.273     4.390775     4.390775     4.390775   -17413.273   -41474.727    27811.685   -38576.775   -8861.5271   -32085.709    1739.1906    84.649335 
   49500    1309.2956   -100.20226    1.1846782   -99.017586    14784.908    4.3808155    4.3808155    4.3808155    14784.908    22129.845   -1128.6866    23353.564    2572.1411    11282.807   -5722.8806    84.074617 
   49600    1145.7398   -100.05505    1.0366894   -99.018365   -85.785552     4.373545     4.373545     4.373545   -85.785552    17710.745   -6782.7876   -11185.314    892.05004    -33277.64    -3917.767    83.656715 
   49700    1355.7392   -100.24376    1.2267014   -99.017056    10034.973    4.3810106    4.3810106    4.3810106    10034.973    2474.6572    15027.959    12602.302   -944.13891     11050.43   -8872.7136    84.085849 
   49800    885.65429   -99.833752   0.80135861   -99.032393   -14021.035    4.3842372    4.3842372    4.3842372   -14021.035     8627.174   -43840.764   -6849.5162    2034.7687   -24262.096    -1909.808    84.271773 
   49900    1341.2831   -100.24574    1.2136211   -99.032118    10736.215    4.3691019    4.3691019    4.3691019    10736.215    3789.0076    16376.781    12042.858   -2397.8499    6357.2097   -7347.3813    83.402011 
   50000    1172.1827   -100.10082    1.0606156   -99.040208    9734.5267    4.3730305    4.3730305    4.3730305    9734.5267    27139.059   -21443.357    23507.878   -2336.7716    -11552.65    3508.4496    83.627194 
   50100    1239.8733   -100.16679    1.1218634    -99.04493   -25225.073    4.3811949    4.3811949    4.3811949   -25225.073   -41316.795   -21050.733   -13307.691    3472.8579   -5240.9777   -2470.9249    84.096461 
   50200    1864.0126   -100.70916    1.6865978    -99.02256   -10090.594    4.3831912    4.3831912    4.3831912   -10090.594   -22087.214    6288.6377   -14473.205   -8815.0688   -1347.3995   -7395.2988    84.211469 
   50300    661.72467   -99.641856   0.59874238   -99.043113   -20469.797    4.3736608    4.3736608    4.3736608   -20469.797   -38926.715   -49829.079    27346.403    10766.918   -15611.212    10457.533    83.663357 
   50400    1967.0517   -100.80175    1.7798297   -99.021919    14141.187    4.3639128    4.3639128    4.3639128    14141.187    6171.7541    15476.268     20775.54   -2886.2049    1096.1526   -8112.3228    83.105196 
   50500    942.56526   -99.896001   0.85285285   -99.043148   -34603.235    4.3858472    4.3858472    4.3858472   -34603.235   -48511.682   -42345.336   -12952.686   -1026.6103   -19549.509    4869.2618    84.364646 
   50600     1334.516   -100.23693    1.2074981   -99.029432    569.61507    4.3831797    4.3831797    4.3831797    569.61507    20491.764   -37138.731    18355.812      15393.3    6442.3699    1014.9379    84.210808 
   50700    1520.3898   -100.40117    1.3756806   -99.025488   -870.74056    4.3665345    4.3665345    4.3665345   -870.74056   -15843.062    20022.902   -6792.0615   -16791.165   -19186.454    1557.2911    83.255071 
   50800    1075.2285   -100.01147   0.97288938   -99.038577   -6151.4617    4.3713707    4.3713707    4.3713707   -6151.4617    26048.571   -40236.136   -4266.8201    8665.7489   -5309.6284    82.639653    83.532004 
   50900    1328.7846   -100.23858    1.2023122    -99.03627    8728.7902     4.378899     4.378899     4.378899    8728.7902    37279.002   -18720.756     7628.124    1305.1196   -9584.2799    15035.687     83.96432 
   51000    1237.4948    -100.1556    1.1197113   -99.035892   -20840.998    4.3856675    4.3856675    4.3856675   -20840.998    -661.2169   -25496.591   -36365.187    5670.5336   -17460.722   -14816.266    84.354277 
   51100    1397.2389   -100.29259    1.2642511   -99.028334   -12940.154    4.3779997    4.3779997    4.3779997   -12940.154     41628.92   -46436.869   -34012.512     2326.265    3294.4575     23669.75    83.912602 
   51200    1398.8809   -100.28906    1.2657369   -99.023321    17192.711    4.3632238    4.3632238    4.3632238    17192.711    10901.621    7563.3706    33113.141    4403.6271   -20368.659   -5030.2608    83.065842 
   51300    1180.8091   -100.11089    1.0684209   -99.042474   -26799.065    4.3804663    4.3804663    4.3804663   -26799.065        18003   -40372.232   -58027.962    12166.254   -215.41594    3497.6254    84.054511 
   51400    1895.5006   -100.73163    1.7150888   -99.016536   -4757.7692     4.389446     4.389446     4.389446   -4757.7692    5625.5142   -5090.8557   -14807.966    1144.0351    -10887.89    1938.2062    84.572492 
   51500    654.03163   -99.615236   0.59178156   -99.023455    523.94946    4.3805079    4.3805079    4.3805079    523.94946    24746.193   -19627.217   -3547.1285     2987.874   -7461.6989    5919.4336    84.056909 
   51600    1938.6444   -100.75861    1.7541262   -99.004488    3537.5636    4.3774569    4.3774569    4.3774569    3537.5636   -9939.0702     23296.09   -2744.3286     12406.71    5282.7557   -1504.3513    83.881394 
   51700    1179.7627   -100.08829    1.0674741   -99.020812   -17097.582    4.3811425    4.3811425    4.3811425   -17097.582    36842.848   -36848.006    -51287.59    9991.9384   -16344.837    10580.213    84.093445 
   51800    1525.0755   -100.39131    1.3799204   -99.011392   -21990.703    4.3895352    4.3895352    4.3895352   -21990.703   -32619.538   -4239.0873   -29113.483    1813.5149    11131.656   -16216.773    84.577647 
   51900    1219.6452   -100.11724    1.1035606   -99.013676   -2429.2291    4.3793663    4.3793663    4.3793663   -2429.2291    8889.3535    13046.424   -29223.465    7021.3638    161.18196    34765.855    83.991203 
   52000    1187.9148   -100.09126    1.0748503   -99.016413   -1665.9452    4.3694348    4.3694348    4.3694348   -1665.9452    25010.848   -6132.0335    -23876.65    885.75805    3315.9023   -7357.9774    83.421078 
   52100    1332.7572   -100.22809    1.2059067   -99.022187   -15660.738    4.3835407    4.3835407    4.3835407   -15660.738   -33550.042    28478.375   -41910.547       3375.9    16192.201     11623.45    84.231614 
   52200    1289.7585   -100.18944    1.1670006    -99.02244   -15389.201    4.3849148    4.3849148    4.3849148   -15389.201    16185.558   -24142.741   -38210.421    4004.3217    3045.5799   -2244.9242    84.310852 
   52300    1193.7777   -100.09574    1.0801551   -99.015582    7355.4158    4.3816997    4.3816997    4.3816997    7355.4158   -375.78674    21642.182    799.85217    6349.4633    30345.252    8975.5232    84.125531 
   52400    1326.9692   -100.21679    1.2006696   -99.016116     4227.124    4.3742586    4.3742586    4.3742586     4227.124    33208.143   -1360.9145   -19165.856    5311.0952   -2048.4291   -7018.8548    83.697668 
   52500    1185.6719   -100.09826    1.0728208   -99.025441     11197.41    4.3810127    4.3810127    4.3810127     11197.41    3177.4666   -6483.5914    36898.354   -28.641994     36456.35   -7162.9344    84.085971 
   52600    1540.3569   -100.41195    1.3937473   -99.018202    -6225.461    4.3863796    4.3863796    4.3863796    -6225.461    25620.756   -18183.009   -26114.129    1209.6205    -5409.684    3107.3336    84.395372 
   52700    1031.4741   -99.949803   0.93329947   -99.016504    18201.474    4.3789677    4.3789677    4.3789677    18201.474    12734.618    38405.457    3464.3455    1530.1522    33036.663   -13583.611    83.968275 
   52800    1609.9667   -100.46864    1.4567317   -99.011913    -13688.76     4.383227     4.383227     4.383227    -13688.76     2214.518   -8147.9953   -35132.804   -2598.4953   -910.26961    4678.2428     84.21353 
   52900    1045.5349   -99.966141   0.94602199   -99.020119    17247.847    4.3783145    4.3783145    4.3783145    17247.847    14576.386    55648.766    -18481.61    -6769.064    17508.454   -17545.438    83.930704 
   53000    1533.0765   -100.40007    1.3871598   -99.012915   -9664.4386    4.3924108    4.3924108    4.3924108   -9664.4386   -13595.999    18350.708   -33748.025   -382.05152    2638.2217   -5428.3753    84.743981 
   53100    1164.8218   -100.06272    1.0539552   -99.008766   -17475.465    4.3863464    4.3863464    4.3863464   -17475.465    5456.1135   -23584.326   -34298.184   -12817.999    16726.897   -23950.462    84.393455 
   53200    1452.5984   -100.31829    1.3143416   -99.003943      10270.5    4.3682884    4.3682884    4.3682884      10270.5    1863.1787     50238.27   -21289.948    1075.0972    14200.037    10606.558    83.355433 
   53300    1381.9211   -100.26738    1.2503913   -99.016988   -8108.6664    4.3817739    4.3817739    4.3817739   -8108.6664    964.91563   -7456.2894   -17834.626   -11019.838    6392.6391   -24756.729    84.129806 
   53400    1115.7186   -100.03225    1.0095257   -99.022725   -12568.934    4.3830518    4.3830518    4.3830518   -12568.934   -30036.127    43489.903   -51160.576    8218.3008    18934.198   -2279.5858    84.203433 
   53500    1528.2661   -100.39798    1.3828073    -99.01517    3800.3384    4.3790533    4.3790533    4.3790533    3800.3384    27730.937    12318.409    -28648.33    -11988.09   -12286.842    85.224743      83.9732 
   53600     900.8413    -99.84268   0.81510014   -99.027579   -4212.6658    4.3756224    4.3756224    4.3756224   -4212.6658   -42080.498    75667.807   -46225.306    5076.3833    37742.701   -14357.895    83.775979 
   53700    1453.0777   -100.34073    1.3147753   -99.025957    9907.8066     4.368558     4.368558     4.368558    9907.8066    12958.111    14580.599    2184.7099    -7064.989   -32510.035    5689.5293    83.370868 
   53800    1017.5838   -99.955253   0.92073121   -99.034522   -28524.423    4.3886524    4.3886524    4.3886524   -28524.423   -46710.578    18272.619   -57135.309    6666.5782    63551.092   -14964.001    84.526632 
   53900    1335.4904   -100.22153    1.2083798   -99.013153    16216.382    4.3708633    4.3708633    4.3708633    16216.382   -10387.911    17128.019    41909.037    2137.4248   -43255.149    17.674057    83.502922 
   54000    1167.7874   -100.07976    1.0566386   -99.023117   -30248.936    4.3740993    4.3740993    4.3740993   -30248.936   -46781.576    1457.2214   -45422.452   -1202.4599    56830.892   -334.64355    83.688527 
   54100    1479.1592   -100.35728    1.3383743   -99.018905    2029.6727    4.3779426    4.3779426    4.3779426    2029.6727   -12627.452   -2931.9683    21648.439    -4022.786   -20869.243   -14524.611    83.909319 
   54200    1070.8892   -100.00205   0.96896301   -99.033088   -1639.0534    4.3730702    4.3730702    4.3730702   -1639.0534    7943.7039     26055.94   -38916.804    656.32445    30254.192    11437.569     83.62947 
   54300    1577.6039   -100.45441    1.4274492   -99.026966   -19456.148     4.389276     4.389276     4.389276   -19456.148   -10124.173   -34401.792   -13842.478     1507.888   -12496.568    -20017.82    84.562667 
   54400    1398.3084   -100.27518    1.2652189   -99.009956   -14322.863    4.3940359    4.3940359    4.3940359   -14322.863   -25609.291   -17465.056    105.75715   -1856.4962    25651.057    7352.9893    84.838073 
   54500    1031.5144   -99.934421   0.93333593   -99.001085    10081.977    4.3841226    4.3841226    4.3841226    10081.977    29629.429   -20916.796    21533.297    7897.5888   -11289.625   -20740.481    84.265167 
   54600    1324.2106    -100.1864    1.1981736   -98.988227   -2705.2361    4.3902625    4.3902625    4.3902625   -2705.2361   -33915.459    3496.4257    22303.325    2122.6148    12473.465    1087.6956    84.619694 
   54700    1010.2155   -99.909706   0.91406424   -98.995642   -5980.0571    4.3889702    4.3889702    4.3889702   -5980.0571    3198.1963   -29629.829    8491.4614    1860.1018    11009.199   -16558.582    84.544994 
   54800    1413.6714   -100.27295    1.2791196   -98.993834    6715.5396    4.3772843    4.3772843    4.3772843    6715.5396   -18273.627    4141.5283    34278.718    613.50414    5144.7568   -1243.1364    83.871471 
   54900    1433.3215   -100.30613    1.2968994   -99.009235   -25841.005    4.3898505    4.3898505    4.3898505   -25841.005   -24226.774   -22980.135   -30316.107    2317.7498      8455.86    5705.0023    84.595873 
   55000    1361.3674   -100.23941    1.2317938   -99.007611     2670.134    4.3779199    4.3779199    4.3779199     2670.134    27808.855   -12829.196   -6969.2577    8024.1785    8894.6313   -13086.129     83.90801 
   55100      1387.14   -100.26979    1.2551134   -99.014675     5980.976    4.3766642    4.3766642    4.3766642     5980.976    54042.172   -21031.273   -15067.971   -5699.9373   -3197.2563     13183.68    83.835833 
   55200    1385.7024   -100.26451    1.2538126   -99.010702   -21361.423    4.3937391    4.3937391    4.3937391   -21361.423   -3132.2825   -48633.334   -12318.653   -4645.7572   -9645.2104   -11703.825    84.820883 
   55300    1435.1419   -100.29916    1.2985465   -99.000609   -6925.4686    4.3893666    4.3893666    4.3893666   -6925.4686   -13090.889   -29783.226    22097.709    4507.6296    8246.9189    14997.401    84.567906 
   55400    852.25712   -99.779641   0.77114015   -99.008501    4191.6267     4.383969     4.383969     4.383969    4191.6267    18271.208   -4210.9919   -1485.3357   -4564.4554   -14384.583   -14970.133    84.256308 
   55500    1496.4323   -100.35633    1.3540034    -99.00233    -5632.353    4.3761304    4.3761304    4.3761304    -5632.353    -32924.95    913.70048    15114.191    1955.1616     4637.313     3426.424    83.805159 
   55600    1064.6474   -99.984745   0.96331531    -99.02143    3952.7748     4.373033     4.373033     4.373033    3952.7748    30030.055    10837.744   -29009.474     5670.766   -1509.0804     3373.185    83.627334 
   55700    1465.3824   -100.34596    1.3259088   -99.020051   -13479.173    4.3868576    4.3868576    4.3868576   -13479.173   -20515.696   -9455.9006   -10465.923   -4914.1208     3753.253   -19742.633    84.422967 
   55800    1340.1484   -100.23874    1.2125944   -99.026146   -13215.539     4.377359     4.377359     4.377359   -13215.539    15594.522   -6435.5205    -48805.62    -7611.337    -1106.768    22530.922    83.875764 
   55900    1194.4945    -100.1128    1.0808037   -99.031993    23286.106    4.3651732    4.3651732    4.3651732    23286.106    35810.947    19394.077    14653.295    1294.1716   -1023.8793   -15069.039    83.177229 
   56000    1211.8596   -100.13345    1.0965161    -99.03693   -6056.0633    4.3829366    4.3829366    4.3829366   -6056.0633    16058.169   -42721.901    8495.5423    -2204.464   -4349.2604    44084.353    84.196797 
   56100    969.88887   -99.907536   0.87757583   -99.029961   -8460.8015    4.3857709    4.3857709    4.3857709   -8460.8015   -24255.911   -22541.982    21415.488   -6465.7645   -5324.8613   -15164.608    84.360244 
   56200    1560.7267   -100.42534    1.4121783   -99.013159   -6513.3376    4.3770039    4.3770039    4.3770039   -6513.3376   -14077.139   -17495.213     12032.34    461.82772    3556.3477    43069.881    83.855353 
   56300    968.46256   -99.901526   0.87628527    -99.02524   -14237.392    4.3803387    4.3803387    4.3803387   -14237.392   -15261.885    -5272.312   -22177.978   -3763.7898   -3364.4171   -11993.267    84.047168 
   56400    1482.8942   -100.36305    1.3417538   -99.021296   -1672.4778    4.3823785    4.3823785    4.3823785   -1672.4778   -8218.1472   -12099.052    15299.766     8201.263    11124.647    4824.0636    84.164639 
   56500    1046.4035   -99.979529   0.94680788   -99.032721    10269.463    4.3672914    4.3672914    4.3672914    10269.463    40982.901   -10091.944   -82.567231    4994.9851    4656.4288    3274.5432    83.298372 
   56600    1271.5564   -100.18222     1.150531   -99.031692    15947.866    4.3779164    4.3779164    4.3779164    15947.866   -2721.7629   -18994.996    69560.358    7481.6879    8114.8459   -19964.539    83.907812 
   56700    1168.5269   -100.08633    1.0573077   -99.029026   -25160.493    4.3895144    4.3895144    4.3895144   -25160.493   -16028.566   -47587.784   -11865.129    5566.2505    11817.227    29406.984    84.576448 
   56800      1690.77   -100.54151    1.5298442   -99.011662     1062.794    4.3780833    4.3780833    4.3780833     1062.794   -23533.508   -14658.525    41380.415    5705.9742     2036.805   -28278.468     83.91741 
   56900    1103.4863   -100.02298    0.9984576   -99.024523   -31486.974    4.3712082    4.3712082    4.3712082   -31486.974   -28224.745   -50151.971   -16084.205    7926.5312     12315.96    51965.465    83.522691 
   57000    1627.2913    -100.4945    1.4724074    -99.02209     26760.31    4.3613989    4.3613989    4.3613989     26760.31    4664.4966   -4786.7738    80403.206    4440.2186   -4235.3456   -29438.891    82.961662 
   57100    815.84534     -99.7869     0.738194   -99.048706   -18462.879    4.3814427    4.3814427    4.3814427   -18462.879    -16546.46   -54347.156     15504.98    11385.801    6431.0569    34147.436    84.110731 
   57200    1539.4813   -100.42235     1.392955   -99.029393    1711.1157    4.3779676    4.3779676    4.3779676    1711.1157   -9114.5099   -16241.772    30489.629   -4395.0415   -928.38481   -6587.7174    83.910755 
   57300    1179.0918   -100.09657     1.066867   -99.029704   -16618.042    4.3823456    4.3823456    4.3823456   -16618.042   -42695.348   -41946.743    34787.966    23899.415    7655.0082    844.30213    84.162741 
   57400    1325.0048   -100.21591    1.1988922   -99.017014   -15630.013    4.3807037    4.3807037    4.3807037   -15630.013   -9980.4454    -19084.21   -17825.382   -9624.2969    5925.0743    20265.657    84.068179 
   57500    1531.6499   -100.39744     1.385869   -99.011567   -16987.686    4.3810763    4.3810763    4.3810763   -16987.686   -44082.857    5776.8258   -12657.027     28119.01    462.74845   -13502.261     84.08963 
   57600    969.00051   -99.903791   0.87677202   -99.027019   -19062.398    4.3752462    4.3752462    4.3752462   -19062.398   -6764.3557   -15867.086   -34555.753   -11218.349    15209.514     49637.53    83.754372 
   57700    1712.6132    -100.5648    1.5496084   -99.015196    11538.845    4.3639765    4.3639765    4.3639765    11538.845   -7173.4015     16330.76    25459.176      18791.9   -10260.541   -11528.204    83.108836 
   57800    874.81241   -99.835024   0.79154865   -99.043475   -16738.834    4.3789673    4.3789673    4.3789673   -16738.834    -21712.74   -48943.221    20439.459   -12433.174    14616.666    46752.821    83.968251 
   57900    1462.0336   -100.34654    1.3228787   -99.023663    10649.043    4.3812182    4.3812182    4.3812182    10649.043   -25713.406   -2902.5812    60563.116   -915.20785   -4624.3994   -13075.285    84.097801 
   58000    813.24741   -99.765381   0.73584335   -99.029537    2009.9742     4.377194     4.377194     4.377194    2009.9742    27614.425   -29737.275    8152.7725    -3524.967    11223.022    57339.136    83.866284 
   58100    1647.1809    -100.4974    1.4904039   -99.006997    598.46596    4.3788865    4.3788865    4.3788865    598.46596   -1211.2379   -13597.417    16604.052   -11040.062    853.77346   -19003.161      83.9636 
   58200    1014.0975   -99.937524   0.91757671   -99.019947   -5955.3496     4.371854     4.371854     4.371854   -5955.3496    7217.6719   -15459.223   -9624.4982   -4090.7706    6812.2718     40395.41    83.559718 
   58300    1435.1372   -100.32187    1.2985423   -99.023325    3326.0187    4.3675197    4.3675197    4.3675197    3326.0187   -13283.398   -18351.964    41613.418   -10911.208   -4174.7958     -6648.31    83.311433 
   58400    1325.5779   -100.23078    1.1994107   -99.031365    -3707.911     4.379563     4.379563     4.379563    -3707.911   -8847.5209    -14897.39    12621.178    2453.5286    5357.1315    15327.246    84.002526 
   58500    1293.5382   -100.20131    1.1704206   -99.030891   -11218.198     4.377237     4.377237     4.377237   -11218.198   -9811.6872   -29349.663    5506.7553   -14194.644    5853.1393    26975.617     83.86875 
   58600    1245.8333   -100.15091    1.1272562   -99.023655    20641.854     4.371282     4.371282     4.371282    20641.854    18004.371   -8046.3179    51967.509    2985.8617   -13995.648   -8461.5374    83.526922 
   58700    1239.4963   -100.15248    1.1215223   -99.030953    -4587.671    4.3706911    4.3706911    4.3706911    -4587.671   -321.50365   -10887.064   -2554.4455   -6137.7343    7270.6996    47372.889    83.493052 
   58800    1657.7948   -100.52938    1.5000076   -99.029371    2258.2764     4.374426     4.374426     4.374426    2258.2764    -27232.04   -13801.076    47807.946   -4337.3577   -7628.4177   -17792.974    83.707281 
   58900    1044.5619   -99.989217   0.94514158   -99.044076    5600.5631     4.372848     4.372848     4.372848    5600.5631   -5379.0078   -24881.145    47061.843   -6970.8526    1475.9175    45652.405    83.616723 
   59000    1863.5319   -100.71938    1.6861629   -99.033216   -9009.1159    4.3828544    4.3828544    4.3828544   -9009.1159   -38843.213   -12697.469    24513.334   -12472.067   -13612.627   -15341.485    84.192058 
   59100    917.08484   -99.867128   0.82979763    -99.03733    11916.142     4.374213     4.374213     4.374213    11916.142    26369.898   -25252.222    34630.751   -405.94986   -3340.5958    46614.319     83.69505 
   59200    1634.4227   -100.50869      1.47886   -99.029835    -5265.833    4.3741153    4.3741153    4.3741153    -5265.833   -30654.732   -18112.311    32969.544   -22401.346   -7536.7972   -15816.872    83.689445 
   59300    1196.1995   -100.10817    1.0823465   -99.025824    2932.3457    4.3762576    4.3762576    4.3762576    2932.3457    29610.848   -30092.385    9278.5745     9278.928   -3436.1888    43975.456     83.81247 
   59400    1275.1911    -100.1785    1.1538197   -99.024676    6636.8675    4.3735798    4.3735798    4.3735798    6636.8675    12635.129   -11094.471    18369.945   -26195.422     5941.291   -13987.945    83.658713 
   59500    1222.1432   -100.12833    1.1058208   -99.022508    1215.7587    4.3845577    4.3845577    4.3845577    1215.7587    17393.756   -13744.671   -1.8093779    13318.571   -11257.003    20739.367    84.290253 
   59600    1223.4896   -100.12572    1.1070391   -99.018685    5261.7183    4.3750478    4.3750478    4.3750478    5261.7183    5434.4847   -6166.7339    16517.404   -25894.818    13463.097   -2292.8024    83.742981 
   59700    1360.2943   -100.25272    1.2308228     -99.0219    1157.7366    4.3756623    4.3756623    4.3756623    1157.7366    23148.729   -6310.9668   -13364.553    12998.082   -13112.512    5542.5843    83.778271 
   59800    1246.0723   -100.15737    1.1274724   -99.029894    4986.6331     4.369945     4.369945     4.369945    4986.6331     39910.83    -27844.43    2893.4992   -21669.873    14241.371    16367.907    83.450301 
   59900    1404.8281   -100.31076     1.271118   -99.039645   -321.75265    4.3784847    4.3784847    4.3784847   -321.75265    15827.921    5964.1072   -22757.286   -9021.3174   -3360.7186   -14198.833    83.940495 
   60000     1159.762   -100.08009     1.049377   -99.030715   -25595.756    4.3895145    4.3895145    4.3895145   -25595.756   -23302.692   -37297.264    -16187.31   -13628.613    3799.0958    19450.648    84.576451 
   60100    1328.8087   -100.21785    1.2023341   -99.015518     17393.03    4.3666099    4.3666099    4.3666099     17393.03    46847.791     1497.892     3833.406   -22678.743    3648.7276   -13459.873     83.25938 
   60200    1314.0882   -100.21146    1.1890146   -99.022445   -7339.2398    4.3723022    4.3723022    4.3723022   -7339.2398   -9413.9785   -17128.238    4524.4966   -2712.2715   -2121.1271    304.13561    83.585419 
   60300    1157.9037   -100.07712    1.0476956   -99.029426    5645.8165    4.3821019    4.3821019    4.3821019    5645.8165    7657.5346   -2869.3544    12149.269   -31019.191    6297.3267    11889.126    84.148703 
   60400    1535.7265   -100.40987    1.3895576   -99.020316   -23452.172    4.3922187    4.3922187    4.3922187   -23452.172   -41496.367   -19468.662   -9391.4852    601.88588   -5290.7121   -11889.499    84.732858 
   60500     868.3451   -99.814923   0.78569689   -99.029226   -3102.3488      4.36964      4.36964      4.36964   -3102.3488   -1065.9925   -17365.962    9124.9087   -46843.144    10008.562    16529.636     83.43283 
   60600    1666.5885   -100.52848    1.5079643   -99.020516     36300.66    4.3581491    4.3581491    4.3581491     36300.66    1413.9402    74095.542    33392.497    6507.1517   -16013.947   -6716.3116    82.776348 
   60700    1034.0583   -99.989335   0.93563771   -99.053697   -24017.578    4.3797551    4.3797551    4.3797551   -24017.578   -38926.676    -37822.59    4696.5317   -44838.931    15736.289    7051.4491    84.013576 
   60800    1623.5344   -100.49237    1.4690081   -99.023362    18872.615    4.3943377    4.3943377    4.3943377    18872.615    7.1784383    61679.665   -5068.9986    7970.7632   -10683.968    5683.9543    84.855557 
   60900    813.76402   -99.761056   0.73631078   -99.024745   -23749.328    4.3905811    4.3905811    4.3905811   -23749.328   -39063.593   -36998.362    4813.9726   -53934.984    8088.3873    21146.629     84.63812 
   61000    1655.5813   -100.49226    1.4980048   -98.994252    25000.055    4.3624574    4.3624574    4.3624574    25000.055    26779.078    38448.647    9772.4387     19605.37    87.730815    11216.935    83.022077 
   61100    1219.6159    -100.1269    1.1035341   -99.023369   -13921.452    4.3691154    4.3691154    4.3691154   -13921.452   -44217.696   -38657.524    41110.865    -59512.55    2809.8055   -2883.0199    83.402786 
   61200    1274.9218   -100.18012     1.153576   -99.026542     2457.746    4.3882957    4.3882957    4.3882957     2457.746     23757.57   -12111.846   -4272.4855    16847.236    17393.171    13727.627    84.506023 
   61300    1256.2509   -100.15293    1.1366822   -99.016249   -28939.865    4.3982089    4.3982089    4.3982089   -28939.865   -38527.739   -59963.858    11672.002   -44805.646   -3408.1003   -5100.3454    85.080015 
   61400    1216.1305   -100.10952    1.1003804   -99.009136   -468.47575    4.3801265    4.3801265    4.3801265   -468.47575     11938.64   -14375.964    1031.8974    2188.1323    26828.977     11639.88    84.034955 
   61500    1484.0228   -100.34441     1.342775   -99.001631    15897.675    4.3648744    4.3648744    4.3648744    15897.675    30639.933    -24497.32    41550.411    -40075.39   -1051.9454   -4276.3489    83.160149 
   61600    1226.1886   -100.13294    1.1094812   -99.023456   -19484.777    4.3876333    4.3876333    4.3876333   -19484.777   -11733.191   -32420.501   -14300.639    5525.9303    32430.963    19586.458    84.467757 
   61700    1098.3833   -100.00565   0.99384028   -99.011814     25120.99    4.3834254    4.3834254    4.3834254     25120.99     58887.14   -13097.147    29572.978   -28686.149    2133.1252    2883.6426    84.224968 
   61800    1581.5714   -100.43759     1.431039   -99.006551   -9149.0327    4.3891301    4.3891301    4.3891301   -9149.0327   -13952.881   -8741.1775   -4753.0395   -9076.4149    21352.233    9338.3851    84.554234 
   61900    1228.1473   -100.12467    1.1112535   -99.013413   -13129.352    4.3850966    4.3850966    4.3850966   -13129.352   -18425.128   -34930.736    13967.807   -9471.7017     10584.15    10410.006    84.321337 
   62000     1412.625   -100.28522    1.2781728    -99.00705    25430.523    4.3737161    4.3737161    4.3737161    25430.523    66749.582    4425.3827    5116.6052     -21189.5    4258.7159    8665.0806    83.666533 
   62100    1014.6811   -99.942276   0.91810479   -99.024171    -18398.31    4.3842796    4.3842796    4.3842796    -18398.31   -27945.921   -6803.2826   -20445.725   -12357.121    14318.095    18896.516    84.274217 
   62200    1650.1231   -100.50238    1.4930661    -99.00931    19858.782    4.3721147    4.3721147    4.3721147    19858.782   -3604.4633    11875.821    51304.989   -8745.6564   -6478.6599   -4427.7759    83.574665 
   62300    796.00754   -99.750017   0.72024435   -99.029773   -15555.091    4.3893507    4.3893507    4.3893507   -15555.091   -26014.599   -878.23531   -19772.437   -5561.8589    17029.306    34024.643    84.566987 
   62400    1581.8679   -100.44159    1.4313073   -99.010287    921.41508    4.3862108    4.3862108    4.3862108    921.41508   -27050.171   -17043.291    46857.707   -24206.362   -3776.1953    854.40767    84.385628 
   62500    1105.3856    -100.0227    1.0001761   -99.022519   -16682.898    4.3708458    4.3708458    4.3708458   -16682.898   -11044.232    -27191.44   -11813.023    15073.638    20220.173    17574.036    83.501918 
   62600    1491.3546   -100.37456     1.349409   -99.025148    3488.3239    4.3710266    4.3710266    4.3710266    3488.3239    -7712.136   -13270.889    31447.997   -23570.788    1270.2987   -1517.4051     83.51228 
   62700    1042.0224   -99.978068   0.94284378   -99.035225    8039.3004    4.3818785    4.3818785    4.3818785    8039.3004    1750.8866   -9802.3927    32169.407    7346.3404    6197.3057    5343.5436    84.135833 
   62800    1546.5892   -100.41299    1.3993864   -99.013605   -26708.078    4.3987872    4.3987872    4.3987872   -26708.078   -32804.789   -30011.652   -17307.794   -6201.8068     2973.978    10505.398    85.113582 
   62900    1296.8907   -100.18623     1.173454    -99.01278    2510.6034    4.3694365    4.3694365    4.3694365    2510.6034   -17333.378    12431.231    12433.957    1857.6216   -10476.442   -8542.9936    83.421174 
   63000    1603.9679    -100.4683    1.4513038   -99.016996    9568.6221    4.3643536    4.3643536    4.3643536    9568.6221    22324.473   -3559.9849    9941.3783    3155.6696    10698.267    21910.931    83.130386 
   63100    1159.9294   -100.07286    1.0495285   -99.023335   -12458.176    4.3943777    4.3943777    4.3943777   -12458.176    -47791.41   -11273.337    21690.221   -2810.5441   -13710.013   -14535.838    84.857872 
   63200    1317.9074   -100.20776    1.1924703   -99.015292   -5370.1096    4.3952574    4.3952574    4.3952574   -5370.1096   -16862.616   -5431.7719    6184.0588   -5504.5233    6564.8741    28216.293    84.908847 
   63300    1316.4055   -100.20587    1.1911113   -99.014762    16219.979    4.3681838    4.3681838    4.3681838    16219.979   -19549.551    34699.069    33510.418   -3899.7233   -25963.512   -14410.752    83.349447 
   63400    1212.8532   -100.11772     1.097415   -99.020301    29341.603    4.3585748    4.3585748    4.3585748    29341.603    29053.048    14320.365    44651.394    6256.6594    4769.0568    26647.718    82.800604 
   63500    1242.5129   -100.16332    1.1242518   -99.039072    10525.423    4.3904846    4.3904846    4.3904846    10525.423   -28828.189    50831.192    9573.2643   -1345.5735   -30498.429   -1922.5641    84.632538 
   63600    1394.2279   -100.27115    1.2615267   -99.009621   -30682.374    4.4039316    4.4039316    4.4039316   -30682.374   -12253.997    -50471.29   -29321.835    6306.3605    9207.1373    17070.055     85.41255 
   63700    1242.7985   -100.11784    1.1245102   -98.993335    17631.105    4.3686665    4.3686665    4.3686665    17631.105   -2424.2897     51632.85    3684.7546    2290.6023   -35420.351    7606.7937     83.37708 
   63800    1517.7505   -100.36908    1.3732925   -98.995787    21740.738    4.3641814    4.3641814    4.3641814    21740.738    40821.716    13974.811    10425.686   -11141.765    8711.5475    -5011.562    83.120547 
   63900    1055.0354   -99.976654   0.95461817   -99.022036   -32821.607     4.388203     4.388203     4.388203   -32821.607   -26461.992   -11599.859   -60402.968    7179.4999   -46860.103    8478.0873    84.500663 
   64000    1930.4746   -100.74533     1.746734   -98.998593   -21051.793     4.396679     4.396679     4.396679   -21051.793   -32355.023   -11088.028   -19712.326    -6527.801    20321.713   -10819.006    84.991259 
   64100    878.92647   -99.799555   0.79527114   -99.004284   -40110.677    4.3928789    4.3928789    4.3928789   -40110.677   -43272.194   -15915.876    -61143.96   -4511.6595   -50460.739    5432.6502    84.771073 
   64200    1890.1797   -100.69971    1.7102743   -98.989432    18707.502     4.366369     4.366369     4.366369    18707.502    22698.004    12457.061    20967.441   -6441.6591    16111.333   -6103.1891    83.245604 
   64300    917.75025   -99.854356   0.83039971   -99.023957   -9242.4785    4.3743941    4.3743941    4.3743941   -9242.4785   -3035.6328    23402.578    -48094.38    -1483.928   -36627.053    9338.1647    83.705449 
   64400    2020.9584   -100.82831    1.8286057   -98.999708   -22263.667    4.3991041    4.3991041    4.3991041   -22263.667   -14441.334   -17354.598   -34995.071   -22975.491    23575.149   -7593.0766    85.131976 
   64500    828.96311   -99.753425   0.75006324   -99.003362   -3074.2196    4.3917426    4.3917426    4.3917426   -3074.2196    23118.252    4802.4034   -37143.314    3801.1981   -40434.488    8217.1843     84.70531 
   64600    1519.2948   -100.35421    1.3746899   -98.979522    26010.699    4.3758941    4.3758941    4.3758941    26010.699    699.62716     49091.22    28241.251   -12867.745     11521.29   -878.30361    83.791585 
   64700    1006.7956   -99.906604   0.91096984   -98.995634   -19417.487     4.380145     4.380145     4.380145   -19417.487   -36602.501    16406.776   -38056.736   -10765.802   -46157.191    108.49767    84.036016 
   64800    1887.6042   -100.69017    1.7079439   -98.982229   -677.28076    4.3874901    4.3874901    4.3874901   -677.28076    26263.337    -14751.34    -13543.84    2144.1536    12219.292    2094.7001    84.459488 
   64900    632.22685   -99.580721   0.57205214   -99.008669   -1450.9969    4.3877297    4.3877297    4.3877297   -1450.9969   -43683.131    56556.548   -17226.408   -5115.7717    -30344.17   -472.27567    84.473325 
   65000    1856.2007   -100.66763    1.6795294   -98.988096   -6051.1825    4.3837795    4.3837795    4.3837795   -6051.1825    10176.244   -15521.338   -12808.454      7507.79     5799.794    11858.585    84.245382 
   65100    849.32278   -99.783143    0.7684851   -99.014658   -17894.595     4.371197     4.371197     4.371197   -17894.595   -33895.439    17383.076   -37171.423   -21789.514    -23792.16   -8303.2159    83.522049 
   65200    1906.2773   -100.73692    1.7248398   -99.012084   -916.12132    4.3716004    4.3716004    4.3716004   -916.12132    7714.9094    4254.4146   -14717.688    25824.339   -1256.4822    9531.9114    83.545172 
   65300    807.43736   -99.758327   0.73058629   -99.027741   -23826.446    4.3907753    4.3907753    4.3907753   -23826.446   -26979.799   -901.92676   -43597.613   -17618.015   -10605.885    -8956.545    84.649351 
   65400    1690.4169   -100.53267    1.5295248   -99.003148   -7392.2841    4.3893792    4.3893792    4.3893792   -7392.2841    -15511.02    2340.5518    -9006.384     15923.68   -947.85531       4310.8     84.56863 
   65500    1215.3563   -100.10872    1.0996799   -99.009045   -10575.239     4.373508     4.373508     4.373508   -10575.239   -23365.738    22702.293   -31062.271    18753.509   -9658.5076   -6219.4439    83.654593 
   65600    1345.7335   -100.22612    1.2176479   -99.008472    28334.045    4.3694076    4.3694076    4.3694076    28334.045    42046.381    47019.253   -4063.4989    3239.9717   -5991.9138     4281.071    83.419519 
   65700    1167.8107   -100.08596    1.0566596   -99.029297   -11848.184    4.3829287    4.3829287    4.3829287   -11848.184    -32456.03   -924.47393   -2164.0487    21133.226   -16804.877    4420.4967    84.196338 
   65800    1593.9697    -100.4557    1.4422572   -99.013444    8280.8883    4.3843973    4.3843973    4.3843973    8280.8883    29084.181      16496.6   -20738.116   -2828.9989   -15375.078     4131.073    84.281004 
   65900     936.8755   -99.861824   0.84770464    -99.01412    1998.0507    4.3792055    4.3792055    4.3792055    1998.0507    -40467.35     50746.72   -4285.2179    2453.5807   -8087.1747    17895.867    83.981953 
   66000    1866.2829   -100.69226     1.688652   -99.003607    -5597.899    4.3767744    4.3767744    4.3767744    -5597.899   -13983.243    11965.435   -14775.889    6155.4915   -22750.748    1829.6089    83.842162 
   66100    1115.8617   -100.02573    1.0096551   -99.016076    -10024.58    4.3869508    4.3869508    4.3869508    -10024.58   -38938.811     30687.41    -21822.34    -10479.66    1384.5365    13127.324     84.42835 
   66200    1378.4768   -100.25122    1.2472747   -99.003942   -3976.0108    4.3892479    4.3892479    4.3892479   -3976.0108    -31154.46    34620.919   -15394.492    4781.1898   -19770.754    3506.4246    84.561042 
   66300    1538.9973   -100.39485    1.3925171    -99.00233    -8662.504    4.3704563    4.3704563    4.3704563    -8662.504    -32569.38   -5708.0496    12289.918   -12964.083     6148.813    6753.8012    83.479596 
   66400    1071.0124   -99.986716   0.96907449   -99.017641    28251.132    4.3702302    4.3702302    4.3702302    28251.132    -7476.464    78709.221     13520.64    19129.119   -26488.752     3053.243    83.466644 
   66500    1280.2064   -100.17731    1.1583576   -99.018953   -15632.484    4.3823131    4.3823131    4.3823131   -15632.484    -24365.13   -20513.567   -2018.7542   -18406.759    17851.428    2197.7429    84.160867 
   66600    1515.0107   -100.38584    1.3708135   -99.015022   -11334.701    4.3772507    4.3772507    4.3772507   -11334.701   -43938.133    11465.343   -1531.3124    17176.103   -28648.199   -4058.3576    83.869539 
   66700    1061.3417   -99.972566   0.96032427   -99.012242    -2505.722    4.3795958    4.3795958    4.3795958    -2505.722   -467.49676   -5418.0227   -1631.6466   -19435.782    28225.752    126.80777    84.004413 
   66800     1448.226   -100.32339    1.3103853   -99.013006   -10616.027    4.3723225    4.3723225    4.3723225   -10616.027   -19594.607   -15284.661     3031.187   -2488.4935   -28899.008   -5506.3744    83.586579 
   66900    1249.4853   -100.14938    1.1305606   -99.018823    6381.4162    4.3738084    4.3738084    4.3738084    6381.4162   -6911.0852    19982.927    6072.4066   -6881.2119    33481.172   -1459.8652    83.671829 
   67000    1161.0357   -100.07315    1.0505295   -99.022621   -20671.502     4.389411     4.389411     4.389411   -20671.502   -15898.721   -29712.275   -16403.509   -29402.334   -13399.644    3714.9456     84.57047 
   67100    1665.5018   -100.51894     1.506981   -99.011955    7401.3987    4.3720107    4.3720107    4.3720107    7401.3987    -16676.64    38976.304   -95.467866    9246.0046    16128.285   -9665.5321    83.568699 
   67200    894.77454   -99.839505    0.8096108   -99.029894    8049.1856    4.3671751    4.3671751    4.3671751    8049.1856    2493.9327    22319.475   -665.85114   -28905.447    5487.1232   -945.04979    83.291715 
   67300    1723.0994   -100.57526    1.5590965   -99.016159    4407.0813    4.3802703    4.3802703    4.3802703    4407.0813    35.514408    22097.528   -8911.7987     6688.454    2965.4749    -95.93081     84.04323 
   67400    889.30333   -99.830983   0.80466034   -99.026323    169.68905    4.3846949    4.3846949    4.3846949    169.68905   -8144.9585    18695.254   -10041.229   -20032.841    14878.026   -12506.807     84.29817 
   67500    1705.8532   -100.55052    1.5434918   -99.007031    7889.1835    4.3817362    4.3817362    4.3817362    7889.1835    22868.613    4023.2107   -3224.2733    15972.135   -5957.6296    6027.8771    84.127638 
   67600    740.46319   -99.687132   0.66998665   -99.017145    31211.025     4.371194     4.371194     4.371194    31211.025      24106.3    57790.267    11736.509   -12256.643     11670.94   -14768.314    83.521878 
   67700    1726.2384   -100.57061    1.5619368   -99.008669   -8111.0047    4.3846255    4.3846255    4.3846255   -8111.0047    16106.187   -25671.596   -14767.605    15886.733   -4197.3862    7986.5541    84.294168 
   67800    688.81929   -99.639519   0.62325817   -99.016261    14850.274    4.3798171    4.3798171    4.3798171    14850.274      15423.2    36271.773    -7144.152   -1760.2235    8811.0693   -788.70681    84.017147 
   67900    1814.5887   -100.64195     1.641878   -99.000073    8233.2089    4.3761973    4.3761973    4.3761973    8233.2089    25630.527   -995.19844    64.297954    5350.8687   -10461.034    4783.3116    83.809002 
   68000    1043.7029   -99.960968   0.94436436   -99.016604   -18941.364    4.3835547    4.3835547    4.3835547   -18941.364   -24038.428    10068.101   -42853.764    8708.0453    10165.612   -338.99675    84.232424 
   68100    1633.5686   -100.48431    1.4780872    -99.00622    25328.634     4.369948     4.369948     4.369948    25328.634    21153.713    8446.9749    46385.215   -969.23203   -19304.241    1927.0839    83.450474 
   68200    1096.0472   -100.01775   0.99172651   -99.026028   -14413.323    4.3769191    4.3769191    4.3769191   -14413.323   -20216.678   -12487.973   -10535.318      8310.04   -3536.9492   -161.80191    83.850479 
   68300    1424.7109   -100.30203    1.2891083   -99.012919    15359.075    4.3794869    4.3794869    4.3794869    15359.075   -14765.516    14755.586    46087.154   -1366.3053    3477.8649   -3502.2654    83.998147 
   68400     984.4322   -99.916799   0.89073494   -99.026064   -10591.597    4.3831658    4.3831658    4.3831658   -10591.597    19831.929   -47002.341   -4604.3769    2446.6993   -24593.274    14021.379    84.210004 
   68500    1736.0449   -100.57392    1.5708099   -99.003113   -4907.6855    4.3833693    4.3833693    4.3833693   -4907.6855   -17874.531   -21591.731    24743.206    1148.6645    13178.805   -15966.002    84.221738 
   68600    840.90371   -99.787551   0.76086735   -99.026684    -6145.288    4.3716355    4.3716355    4.3716355    -6145.288    23712.381   -23068.974   -19079.271     8098.308   -34031.983    26411.776    83.547186 
   68700    1783.0877   -100.63567    1.6133752   -99.022297   -5114.2365    4.3660262    4.3660262    4.3660262   -5114.2365     1773.129    -26845.84    9730.0015   -290.21723    13045.648   -25833.632    83.225999 
   68800    1077.7214   -100.01473   0.97514502   -99.039581   -16880.027    4.3872781    4.3872781    4.3872781   -16880.027   -9751.3634   -13736.336    -27152.38   -7704.6967   -27033.522    17871.843    84.447246 
   68900    1315.3361   -100.20845    1.1901437   -99.018304   -19194.906     4.392086     4.392086     4.392086   -19194.906    7191.4327   -62236.132   -2540.0197    9096.3983     2776.461   -27357.555    84.725184 
   69000    1388.7537   -100.26753    1.2565735   -99.010956   -8897.9684    4.3693367    4.3693367    4.3693367   -8897.9684   -20737.132    16738.172   -22694.945   -13579.805   -31990.103    12647.014     83.41546 
   69100    1198.8556    -100.1052    1.0847498   -99.020448   -4384.0824    4.3699777    4.3699777    4.3699777   -4384.0824    8628.0208   -20127.033   -1653.2348    7336.1797   -1499.1571    -10924.54    83.452177 
   69200    1421.6221   -100.31167    1.2863136   -99.025359   -5203.6866    4.3803997    4.3803997    4.3803997   -5203.6866   -22027.166    9611.0856   -3194.9799   -16012.398   -14347.496      2532.95    84.050677 
   69300     1066.922   -99.993013   0.96537342    -99.02764   -36214.642    4.3960613    4.3960613    4.3960613   -36214.642   -19071.019   -34895.203   -54677.703    10066.416   -6549.5958   -4372.6695    84.955446 
   69400    1354.1974   -100.23428    1.2253063   -99.008969    13730.174    4.3713322    4.3713322    4.3713322    13730.174    4499.1521    7545.9039    29145.467    -10498.49   -1883.6335    -30733.94      83.5298 
   69500    1273.4079    -100.1682    1.1522062   -99.015996   -5693.6806    4.3687181    4.3687181    4.3687181   -5693.6806   -2403.0524   -6342.0079   -8335.9815    660.69269   -10498.164    21846.076    83.380032 
   69600    1501.2826   -100.36678     1.358392   -99.008391   -2977.1308    4.3862052    4.3862052    4.3862052   -2977.1308    83.281128   -14911.565    5896.8915   -590.63003   -1304.3505   -16021.572    84.385306 
   69700    954.42149   -99.878919   0.86358062   -99.015338    14864.512    4.3835407    4.3835407    4.3835407    14864.512    24521.986    12315.218    7756.3317   -3811.2315   -10470.392    6350.2609    84.231615 
   69800    1557.8725   -100.41443    1.4095958    -99.00483   -14259.973    4.3913063    4.3913063    4.3913063   -14259.973   -4517.3675   -31615.603   -6646.9477    14346.888    5718.4197   -769.15719     84.68007 
   69900    1122.9719   -100.03187    1.0160885   -99.015777   -7459.3735    4.3649184    4.3649184    4.3649184   -7459.3735   -34127.328    36733.479   -24984.271   -12297.142   -13183.877    6379.2978    83.162661 
   70000    1576.6975   -100.44594     1.426629   -99.019311    13129.301    4.3595701    4.3595701    4.3595701    13129.301    29088.617   -4817.3398    15116.626     19462.21    5531.2707    22852.195    82.857344 
   70100     1062.377   -99.993443   0.96126104   -99.032181   -27949.847     4.389687     4.389687     4.389687   -27949.847   -62716.841    30234.058   -51366.759   -3488.4698    8615.6382    1175.5937    84.586426 
   70200    1324.6588   -100.21707    1.1985791   -99.018494   -11129.254    4.3868953    4.3868953    4.3868953   -11129.254   -12037.439   -28661.604    7311.2798    12172.107   -15087.106    32972.224    84.425145 
   70300    1415.9194   -100.29734    1.2811536   -99.016186   -8782.4226    4.3701133    4.3701133    4.3701133   -8782.4226   -22129.681   -7328.1676    3110.5806   -2802.1855    9090.7861   -14446.274    83.459945 
   70400    1208.5498   -100.11281    1.0935212   -99.019288    17689.175    4.3654143    4.3654143    4.3654143    17689.175    6318.4976    11889.885    34859.143    6143.4991   -12419.142    35417.576    83.191011 
   70500    1161.3145   -100.07758    1.0507818   -99.026794    7392.1844    4.3812332    4.3812332    4.3812332    7392.1844    20640.808    4132.0585   -2596.3129    6897.7172   -3255.8777   -12694.195    84.098664 
   70600    1525.2263   -100.39253    1.3800568   -99.012469   -20282.285    4.3908181    4.3908181    4.3908181   -20282.285   -27452.117   -12878.288    -20516.45   -889.93329    4784.6729    9586.0569    84.651825 
   70700    1103.4908   -100.01195   0.99846166   -99.013487    17112.194    4.3719938    4.3719938    4.3719938    17112.194    39254.528   -5903.1496    17985.205    13600.377   -53.076449   -5569.4358     83.56773 
   70800    1236.5489   -100.13341    1.1188554   -99.014558    17149.633    4.3675641    4.3675641    4.3675641    17149.633    32257.269    34074.829   -14883.197   -7982.4188   -5877.0385    2590.4556    83.313974 
   70900    1490.2543   -100.36518    1.3484134   -99.016766   -6286.7315    4.3792525    4.3792525    4.3792525   -6286.7315   -14772.852   -13187.249    9099.9059    16927.244    7058.6449    585.51614    83.984658 
   71000    1072.0442   -99.992904   0.97000811   -99.022896    12614.134    4.3821507    4.3821507    4.3821507    12614.134    27587.136    20889.446   -10634.181   -5075.8706   -13517.546   -6368.6155    84.151515 
   71100     1419.892   -100.30067    1.2847481   -99.015924    6091.9906    4.3743118    4.3743118    4.3743118    6091.9906    120.83256   -21372.096    39527.235    15061.483    6321.9068    11070.486    83.700721 
   71200    1294.3128   -100.19014    1.1711214   -99.019022    15543.408    4.3741219    4.3741219    4.3741219    15543.408    13356.131    46579.888   -13305.793    2192.6054   -19667.284   -10764.319     83.68982 
   71300    1368.1024   -100.25546    1.2378878   -99.017571   -4577.8136     4.379157     4.379157     4.379157   -4577.8136   -10954.008   -34899.894    32120.461    23064.728     -775.552     17669.35    83.979163 
   71400    1112.1458   -100.02299    1.0062929   -99.016698    23865.075     4.375393     4.375393     4.375393    23865.075    -16892.06    38725.164    49762.121   -732.58025   -18585.262   -4725.1002    83.762805 
   71500    1423.4518     -100.305    1.2879691   -99.017029   -15040.708    4.3822451    4.3822451    4.3822451   -15040.708   -17884.268   -19931.766   -7306.0909    31566.678   -14411.537    14257.346    84.156954 
   71600      1144.71   -100.05494    1.0357577   -99.019182    3656.8567    4.3731823    4.3731823    4.3731823    3656.8567   -15157.605   -9815.1923    35943.367   -1270.9583   -9098.8981     10206.57      83.6359 
   71700    1407.8674   -100.28487     1.273868   -99.011001    8133.4057    4.3791399    4.3791399    4.3791399    8133.4057   -8403.5844    30897.825    1905.9769    24731.015   -15956.759    6403.4824    83.978182 
   71800    769.18434   -99.717991   0.69597415   -99.022017   -31597.809     4.384753     4.384753     4.384753   -31597.809   -39814.077   -61445.205    6465.8534    17748.136    7886.8698    16919.248    84.301521 
   71900    1738.9119   -100.57313     1.573404   -98.999725     17032.95    4.3676466    4.3676466    4.3676466     17032.95   -3913.5035    63994.404   -8982.0519    3006.5512   -20887.606   -5600.4123      83.3187 
   72000     702.7925   -99.667771   0.63590142   -99.031869   -28988.243    4.3799847    4.3799847    4.3799847   -28988.243   -45343.246   -45545.129    3923.6464    22495.491    13487.135      10991.3    84.026789 
   72100    1669.9392   -100.53033    1.5109961   -99.019338    16239.886    4.3713787    4.3713787    4.3713787    16239.886    16460.486    34379.464   -2120.2923    498.86902   -2465.6506    3089.1834    83.532467 
   72200    803.83909   -99.763347    0.7273305   -99.036016    6869.6858    4.3794971    4.3794971    4.3794971    6869.6858   -13119.406   -8254.9131    41983.377    19901.011    -2542.597    -7220.009    83.998733 
   72300    1385.0795   -100.26765     1.253249   -99.014404   -7154.8548    4.3851313    4.3851313    4.3851313   -7154.8548   -7484.3786   -12925.435   -1054.7512    -15912.01   -5192.8394    19912.854    84.323341 
   72400    1292.6307   -100.17929    1.1695994   -99.009693    8524.6545    4.3672252    4.3672252    4.3672252    8524.6545     15788.29   -7217.9108    17003.584     31181.57    48.315463   -24347.778    83.294582 
   72500    1152.7813   -100.05855    1.0430607   -99.015487   -7635.6258    4.3794214    4.3794214    4.3794214   -7635.6258   -12697.841   -20831.495    10622.459   -15822.351    5194.4599     18511.46    83.994373 
   72600    1377.0235   -100.25933    1.2459598   -99.013369    -10591.22    4.3762616    4.3762616    4.3762616    -10591.22   -2651.4646   -25897.367     -3224.83    19530.746   -10059.358   -29828.789    83.812701 
   72700     1324.009   -100.21331    1.1979911   -99.015318   -12792.401    4.3772934    4.3772934    4.3772934   -12792.401   -32091.012    -19003.57    12717.377   -7012.4804    18356.047    23967.106    83.871993 
   72800     1148.331   -100.05929    1.0390341   -99.020252   -13337.265    4.3742546    4.3742546    4.3742546   -13337.265   -11613.897    -27393.95   -1003.9465    273.24722   -8317.9056   -39725.451     83.69744 
   72900    1576.3012   -100.44489    1.4262705   -99.018615    2438.6245    4.3706136    4.3706136    4.3706136    2438.6245   -14772.414    20188.157    1900.1303    6456.3075    7375.2595    28032.842     83.48861 
   73000    1126.9264   -100.04622    1.0196667    -99.02655   -24301.548    4.3849683    4.3849683    4.3849683   -24301.548   -29384.085   -19492.911   -24027.648   -6873.5669      8971.74   -38349.125    84.313935 
   73100    1561.1623   -100.42327    1.4125724   -99.010696    6294.8032    4.3757197    4.3757197    4.3757197    6294.8032    7001.4502    124.63009    11758.329    2516.6662    1176.5903    28395.499     83.78157 
   73200    1199.1008   -100.09819    1.0849716   -99.013221   -2720.6461      4.37312      4.37312      4.37312   -2720.6461   -3959.1528    24366.706   -28569.492   -8396.3932    8556.0534   -25256.427    83.632328 
   73300    1430.9378   -100.30286    1.2947426   -99.008116   -5461.6103    4.3779032    4.3779032    4.3779032   -5461.6103    28417.938   -27313.413   -17489.356     6458.293    3787.2168    9018.5912    83.907051 
   73400     1201.345   -100.09855    1.0870022   -99.011546    7289.6431    4.3810013    4.3810013    4.3810013    7289.6431    30547.313      507.825   -9186.2086   -5019.9631    14237.755   -12502.458    84.085315 
   73500    1193.1141    -100.0867    1.0795547   -99.007149   -18133.399     4.390878     4.390878     4.390878   -18133.399    54087.816   -49585.824   -58902.188    10502.083    3906.4842    4367.6114     84.65529 
   73600    1243.1227   -100.12543    1.1248036   -99.000628    7936.6057    4.3768169    4.3768169    4.3768169    7936.6057    56567.146   -22785.026   -9972.3025   -10070.458    21865.219   -4032.9225     83.84461 
   73700    1127.3898   -100.02686     1.020086   -99.006777    6116.4032    4.3815542    4.3815542    4.3815542    6116.4032    44289.462   -46626.671    20686.419    2684.0443    15614.509   -1458.2628    84.117155 
   73800    1128.7403   -100.02332     1.021308   -99.002015   -1472.5968    4.3939106    4.3939106    4.3939106   -1472.5968     7938.747   -51914.322    39557.784    -5648.976    14919.915     16082.19    84.830818 
   73900    1130.2004   -100.01714    1.0226291   -98.994513   -7003.3744    4.3882756    4.3882756    4.3882756   -7003.3744   -3569.5563   -41751.112    24310.545    1128.6838    11650.064    -21419.73    84.504859 
   74000    1511.1716   -100.36193    1.3673399   -98.994589   -2482.4487    4.3802855    4.3802855    4.3802855   -2482.4487   -4998.7289    2606.5478   -5055.1651    5038.7089   -1844.4705    31849.988    84.044106 
   74100     1316.422   -100.19247    1.1911263   -99.001343   -4902.0187    4.3824461    4.3824461    4.3824461   -4902.0187   -17630.545   -11001.449    13925.938    -3634.525    9305.1121   -19742.729    84.168529 
   74200    1414.4007   -100.29059    1.2797795   -99.010807   -14336.443    4.3866784    4.3866784    4.3866784   -14336.443    4625.4165   -5159.1941    -42475.55    5471.4016    1253.6089    22991.614    84.412621 
   74300    1307.1739   -100.18787    1.1827584   -99.005109    17185.706    4.3746062    4.3746062    4.3746062    17185.706    3039.1266     35179.03    13338.961   -12223.886   -5117.8883    -20030.94    83.717626 
   74400    1212.2193   -100.11045    1.0968415   -99.013611    17774.624    4.3750456    4.3750456    4.3750456    17774.624    42790.627     20634.73   -10101.485    11798.777    11564.862    22167.644    83.742851 
   74500    1203.9794   -100.10399    1.0893858   -99.014604     6293.168     4.383179     4.383179     4.383179     6293.168    2992.6117    44628.605   -28741.713   -25742.783   -19114.338   -13391.897    84.210769 
   74600    1125.7392   -100.02792    1.0185925   -99.009331    7810.8385    4.3810982    4.3810982    4.3810982    7810.8385    34267.199    13285.728   -24120.412    6023.8953    20089.306    30030.275    84.090895 
   74700    1233.3664   -100.12605    1.1159759   -99.010073   -4295.8981    4.3814037    4.3814037    4.3814037   -4295.8981    2179.1796    19286.323   -34353.197   -17004.739   -35765.778   -24299.946    84.108484 
   74800    1123.3198   -100.02746    1.0164034   -99.011061    25027.772    4.3682218    4.3682218    4.3682218    25027.772    36880.577    48887.457    -10684.72    2422.7629    24221.364    29359.753    83.351623 
   74900    1100.8581   -100.02188   0.99607956   -99.025799   -1632.6633    4.3790226    4.3790226    4.3790226   -1632.6633   -3553.8144    20601.593   -21945.769   -5734.5352   -44506.427   -14375.697    83.971434 
   75000    1455.4996   -100.33008    1.3169666   -99.013117   -693.93584    4.3875929    4.3875929    4.3875929   -693.93584     19580.31    5866.0819   -27528.199   -9335.6308    14903.866     23328.14    84.465427 
   75100    838.71239   -99.774312    0.7588846   -99.015427    6364.6812    4.3793474    4.3793474    4.3793474    6364.6812   -24727.626    38582.074     5239.596   -2997.2702   -33645.281   -13298.055     83.99012 
   75200     1507.696   -100.36609    1.3641951   -99.001899    11945.345    4.3731451    4.3731451    4.3731451    11945.345    20476.746    5105.1268    10254.163   -6541.3796    6384.2138    8276.0641    83.633768 
   75300    1008.5974   -99.932452   0.91260012   -99.019852   -3114.1074    4.3772364    4.3772364    4.3772364   -3114.1074   -56084.918    65540.421   -18797.825    1053.4248   -14899.646   -29.777358    83.868719 
   75400     1490.167   -100.35427    1.3483344   -99.005935    973.50092    4.3832113    4.3832113    4.3832113    973.50092    875.92708    194.68155    1849.8941    2658.2485      5194.74   -6599.1273    84.212628 
   75500    1112.9104     -100.025    1.0069847   -99.018019   -8523.5309    4.3768151    4.3768151    4.3768151   -8523.5309    -31785.91    22880.739   -16665.422    498.88124   -6887.2829     8708.511    83.844506 
   75600    1807.6366   -100.63993    1.6355876   -99.004344    7252.6739    4.3737897    4.3737897    4.3737897    7252.6739   -15927.853    25082.877    12602.998   -7953.5971    8894.5836   -6879.8791    83.670758 
   75700    908.26697     -99.8448   0.82181904   -99.022981   -937.31976    4.3757302    4.3757302    4.3757302   -937.31976     -22025.4    20729.185   -1515.7445   -2659.1843    -723.4883    14792.648     83.78217 
   75800    1805.5136    -100.6483    1.6336667   -99.014635    1553.5016    4.3783762    4.3783762    4.3783762    1553.5016   -16357.248    866.46328     20151.29   -5326.3867    1632.9435   -4040.7068    83.934251 
   75900    850.24377   -99.798203   0.76931843   -99.028885    17933.915    4.3682355    4.3682355    4.3682355    17933.915    5654.5573    41815.053    6332.1357    232.76474    3048.6991    13373.152    83.352406 
   76000    1677.4088   -100.53247    1.5177547   -99.014716   -835.52917    4.3815246    4.3815246    4.3815246   -835.52917   -14830.373    8650.6777    3673.1081   -4165.8803   -10735.172   -15416.274    84.115448 
   76100    1011.7696   -99.941354   0.91547038   -99.025884   -23874.753    4.3776106    4.3776106    4.3776106   -23874.753    2298.9355   -26304.118   -47619.075    9812.1284    7589.6272    -5222.474    83.890232 
   76200    1721.5695    -100.5708    1.5577122   -99.013086    21135.394    4.3677362    4.3677362    4.3677362    21135.394    12636.881    28999.377    21769.925    545.32804   -14091.317   -6720.1455    83.323826 
   76300    976.39299   -99.914848    0.8834609   -99.031387   -38354.603    4.3810776    4.3810776    4.3810776   -38354.603    9027.2267   -65113.382   -58977.655    3475.1543    4657.8202   -20792.663    84.089706 
   76400    1794.1827   -100.63361    1.6234142   -99.010192    12563.034    4.3714758    4.3714758    4.3714758    12563.034    7470.3299    25317.633    4901.1386    10242.514     -6319.87    12702.556     83.53803 
   76500    610.64488   -99.583126   0.55252432   -99.030601   -2383.6354    4.3801184    4.3801184    4.3801184   -2383.6354    31084.843   -13249.417   -24986.333     721.5011     5782.756   -16217.917    84.034488 
   76600    1524.9325   -100.39303     1.379791   -99.013243    1550.1614    4.3798954    4.3798954    4.3798954    1550.1614   -6695.7923    25662.681   -14316.405    13698.575   -4587.5204    13290.206    84.021654 
   76700    915.12967   -99.850023   0.82802856   -99.021995    4498.1296    4.3831762    4.3831762    4.3831762    4498.1296    5282.2033    42131.438   -33919.252    11072.016    1294.4986   -3537.9054    84.210605 
   76800    965.82411   -99.890059   0.87389795   -99.016161    11485.667     4.381577     4.381577     4.381577    11485.667     31500.71    19889.721   -16933.429    11772.755   -4135.5773     5580.193    84.118465 
   76900    1237.8566    -100.1273    1.1200386   -99.007257    15323.442    4.3840179    4.3840179    4.3840179    15323.442    22228.165    49886.898   -26144.737    14835.764   -14225.654    4808.2747    84.259129 
   77000    1095.2067   -100.00153   0.99096607   -99.010563    1015.7561    4.3893973    4.3893973    4.3893973    1015.7561    72314.428   -10643.615   -58623.545    15704.803    9612.0238   -995.51254    84.569677 
   77100    939.62526   -99.845522   0.85019268   -98.995329    39046.939    4.3767357    4.3767357    4.3767357    39046.939    67202.289    32959.339    16979.189    11309.779   -28984.638    436.80067    83.839939 
   77200    1178.8808   -100.07408    1.0666761   -99.007399    8668.4191    4.3818329    4.3818329    4.3818329    8668.4191    64622.377   -19235.692   -19381.427    4061.5221    2597.8114   -8077.0976    84.133207 
   77300    1239.4462   -100.12862    1.1214769   -99.007148    14541.827    4.3771541    4.3771541    4.3771541    14541.827    39473.974    18033.698   -13882.192    15232.666    -20643.33    7762.0391    83.863985 
   77400    1151.6675    -100.0611     1.042053   -99.019051     20029.13    4.3739002    4.3739002    4.3739002     20029.13     28115.29    12989.286    18982.813   -3691.8527    2291.3476   -21352.184    83.677095 
   77500    1336.0069   -100.22048    1.2088472   -99.011633   -852.43833    4.3879195    4.3879195    4.3879195   -852.43833    31842.174    2321.3061   -36720.795    20902.817   -3380.2821      9457.38    84.484288 
   77600    1364.5566   -100.23822    1.2346795   -99.003537   -2117.9278    4.3833254    4.3833254    4.3833254   -2117.9278    10365.961    4224.6139   -20944.359   -4667.0019   -2882.9925   -12906.588    84.219208 
   77700    1367.2709   -100.23485    1.2371355    -98.99771   -13122.497    4.3871184    4.3871184    4.3871184   -13122.497   -23693.801    31035.255   -46708.946    17414.526    15272.532   -4181.3799    84.438026 
   77800    1313.7501   -100.18799    1.1887087   -98.999281   -9800.4081    4.3873243    4.3873243    4.3873243   -9800.4081     13547.44   -3477.3259   -39471.338   -13213.621   -8120.8658   -12443.708    84.449913 
   77900    1319.7473   -100.19249    1.1941351   -98.998353   -10323.562    4.3808399    4.3808399    4.3808399   -10323.562   -16639.045    13039.761   -27371.403    12228.605    29367.645     5125.674    84.076021 
   78000     1055.628   -99.968683   0.95515444   -99.013529    3425.5578    4.3769731    4.3769731    4.3769731    3425.5578    71155.327   -33729.743    -27148.91   -11905.148   -6917.7623   -28924.956    83.853586 
   78100    1377.7499   -100.26099    1.2466171   -99.014374   -1739.9325    4.3773654    4.3773654    4.3773654   -1739.9325    12061.431    7798.2656   -25079.494    8409.0835    23366.293    7867.0977    83.876135 
   78200    1088.6427   -100.00757   0.98502678   -99.022539   -10170.703    4.3825807    4.3825807    4.3825807   -10170.703    37309.372   -26895.993   -40925.488    958.09954   -18889.591   -23648.457    84.176287 
   78300    1352.8303   -100.24192    1.2240693   -99.017854   -4212.6383    4.3803986    4.3803986    4.3803986   -4212.6383   -14977.922   -2140.8709    4480.8774    9609.6072    24525.619    9978.4264    84.050614 
   78400    1298.2036   -100.18905    1.1746419   -99.014406    -317.2455    4.3817448    4.3817448    4.3817448    -317.2455   -10520.002   -5492.5933    15060.859    14914.098   -11228.576   -16861.108    84.128133 
   78500    1272.1015   -100.16188    1.1510241    -99.01086   -7843.3827     4.385512     4.385512     4.385512   -7843.3827   -3258.3896   -24347.267    4075.5089   -9959.5936    14674.555     24222.61    84.345307 
   78600    1189.5571   -100.09109    1.0763363   -99.014752    3008.5942    4.3714161    4.3714161    4.3714161    3008.5942   -25311.317   -3672.7102     38009.81    26348.573    15987.034   -17994.947    83.534608 
   78700    1387.0919    -100.2727    1.2550699   -99.017632    7541.6221    4.3755158    4.3755158    4.3755158    7541.6221    43961.636   -7301.6772   -14035.092    88.807766    14200.436    19572.225    83.769856 
   78800    828.98914   -99.775063    0.7500868   -99.024976    1292.1279    4.3855893    4.3855893    4.3855893    1292.1279    25210.914    990.69057   -22325.221    24725.361    27766.454   -7053.5056    84.349764 
   78900     1200.189   -100.09739    1.0859563   -99.011439    20001.934    4.3867467    4.3867467    4.3867467    20001.934    68398.348   -15839.679    7447.1318    11137.453     10001.37    20681.355    84.416562 
   79000    1021.2302   -99.928729   0.92403055   -99.004699    3862.9989    4.3918558    4.3918558    4.3918558    3862.9989    13619.259   -4516.3795    2486.1174    16321.733    27147.246   -16322.792     84.71186 
   79100    1121.1432   -100.00045    1.0144339   -98.986018    32439.755    4.3815895    4.3815895    4.3815895    32439.755    54491.024    15836.926    26991.313    11994.429    20976.739    19701.951    84.119186 
   79200    984.03248   -99.886157   0.89037327   -98.995783    9543.4758    4.3871327    4.3871327    4.3871327    9543.4758   -15013.603    13354.608    30289.422   -483.70805    28082.443    -6547.269     84.43885 
   79300    1288.8868    -100.1627    1.1662119   -98.996487    8675.9068    4.3815794    4.3815794    4.3815794    8675.9068     12427.69   -38369.891    51969.922    9862.6973    6769.8111     3283.721    84.118604 
   79400    1095.0821    -100.0072   0.99085334   -99.016347   -11799.712    4.3811118    4.3811118    4.3811118   -11799.712   -33069.545    -2067.236   -262.35438   -12290.543    22397.021    4756.1359    84.091674 
   79500    1526.1702   -100.38724    1.3809108   -99.006328   -3171.8202     4.385584     4.385584     4.385584   -3171.8202    12674.284   -23077.136    887.39206    10365.946   -3804.1588   -7667.0921    84.349459 
   79600    1208.0969   -100.10846    1.0931115   -99.015346   -26633.526     4.383683     4.383683     4.383683   -26633.526   -16717.776   -9342.7708   -53840.032   -16607.314    11619.649    9776.4577    84.239818 
   79700    1923.2008   -100.74608    1.7401525   -99.005924    -10108.83    4.3793256    4.3793256    4.3793256    -10108.83    4282.8593   -16401.639   -18207.709    9785.1758   -9468.6591     4492.264    83.988867 
   79800    1039.2461   -99.962556    0.9403317   -99.022224   -17173.384    4.3831237    4.3831237    4.3831237   -17173.384    20989.405   -34449.122   -38060.435    -17302.36     1268.242    12854.227    84.207577 
   79900    1817.6797   -100.65154    1.6446748    -99.00687   -1521.9788    4.3847902    4.3847902    4.3847902   -1521.9788   -9822.4485   -398.35233    5654.8643    3454.2499   -6482.4845      3363.83    84.303664 
   80000    1029.8429   -99.951205   0.93182345   -99.019382   -21751.444    4.3900366    4.3900366    4.3900366   -21751.444     9637.426   -40867.016   -34024.741   -18724.452   -3485.2194    13709.319    84.606638 
   80100    1911.3809   -100.72039    1.7294576   -98.990927   -852.55265     4.390129     4.390129     4.390129   -852.55265    5648.0168    25113.595    -33319.27   -8177.6159   -8505.6839   -2590.4551     84.61198 
   80200    907.70049   -99.826605   0.82130648   -99.005298   -17727.356    4.3822778    4.3822778    4.3822778   -17727.356    20103.556   -22114.024     -51171.6   -12413.056   -3646.8741    16704.015    84.158838 
   80300    1828.2791   -100.64705    1.6542654   -98.992784    21752.927    4.3767575    4.3767575    4.3767575    21752.927   -10924.947    67427.172    8756.5547    724.08491   -7998.9662   -8964.1384    83.841195 
   80400    722.36744   -99.676528   0.65361324   -99.022915   -27672.438     4.385937     4.385937     4.385937   -27672.438   -3412.2069   -22852.591   -56752.515    -363.0715   -19699.939    10692.964    84.369828 
   80500    2185.0982   -100.97024    1.9771227    -98.99312    1963.3455    4.3817512    4.3817512    4.3817512    1963.3455   -11679.419    11700.777    5868.6785    2967.1665   -1732.4988   -4851.2663    84.128499 
   80600    678.75959   -99.629172   0.61415594   -99.015017   -17835.836    4.3875001    4.3875001    4.3875001   -17835.836   -3669.5774   -19386.492   -30451.438    10064.482   -15886.681    9233.2716    84.460064 
   80700    1999.0839    -100.8027    1.8088132   -98.993884   -829.11275    4.3883569    4.3883569    4.3883569   -829.11275    -12107.37   -7597.3867    17217.418   -3183.6044     5236.717    -8298.858    84.509557 
   80800    906.61203   -99.837106   0.82032162   -99.016784   -12773.185    4.3806496    4.3806496    4.3806496   -12773.185    37340.616    -20648.12    -55012.05    19421.274   -4949.6751     16134.67    84.065065 
   80900    1652.3442   -100.50011    1.4950758   -99.005036    31738.644    4.3714655    4.3714655    4.3714655    31738.644    57474.123    13616.462    24125.348   -5070.9405   -4421.9932    -3682.686    83.537443 
   81000    679.68337   -99.644433    0.6149918   -99.029442    21654.807    4.3712077    4.3712077    4.3712077    21654.807    94387.741   -29568.816    145.49628    11973.591    8406.0694    10001.057    83.522663 
   81100    1554.0865    -100.4108    1.4061701   -99.004629    16673.274    4.3906257    4.3906257    4.3906257    16673.274    53623.111   -5092.9889    1489.6983    6133.1463    -4852.597   -4926.4618    84.640702 
   81200    592.92124   -99.549861    0.5364876   -99.013373    -15754.97    4.3896364    4.3896364    4.3896364    -15754.97    36668.027   -62004.386    -21928.55     570.3244    17463.332    6012.6864    84.583501 
   81300    1966.6838    -100.7671    1.7794968   -98.987602    22742.192    4.3639337    4.3639337    4.3639337    22742.192    40793.785     18272.03    9160.7596    12256.496   -9392.2139   -5544.7781    83.106395 
   81400    820.64317   -99.773274   0.74253519   -99.030739     -17892.5    4.3640387    4.3640387    4.3640387     -17892.5   -8713.6866   -31728.934   -13234.878   -18515.163    11031.855    9670.8598    83.112393 
   81500    2104.8678   -100.91933    1.9045286   -99.014804   -9064.5535    4.3829298    4.3829298    4.3829298   -9064.5535    5800.5831    1333.2164    -34327.46    8752.8034   -13400.156   -1637.8172    84.196404 
   81600    665.66793   -99.625068   0.60231034   -99.022758   -16770.948     4.392234     4.392234     4.392234   -16770.948    21510.624   -30098.945   -41724.521   -28931.021    -1712.627    12376.989    84.733749 
   81700    1798.2224   -100.62502    1.6270695   -98.997946    28470.436    4.3754933    4.3754933    4.3754933    28470.436    78926.964   -4081.7994    10566.143    1502.9175    4103.6179     -6664.75    83.768563 
   81800     486.8921   -99.461747   0.44055021   -99.021197    32978.414    4.3599513    4.3599513    4.3599513    32978.414    117162.26    -2433.569   -15793.451   -24557.718    -17393.38    8661.9823    82.879077 
   81900    1697.1616    -100.5407    1.5356275   -99.005072    12001.349    4.3853911    4.3853911    4.3853911    12001.349    55739.127   -8487.5362   -11247.545   -16604.843   -2047.3591   -6818.8894    84.338327 
   82000    914.32474   -99.832175   0.82730024   -99.004875   -30348.702    4.3956041    4.3956041    4.3956041   -30348.702    25622.122   -59492.745   -57175.482   -11926.284   -16426.821    7643.2512    84.928941 
   82100    1783.6649   -100.59105    1.6138975   -98.977155    6036.8642    4.3762984    4.3762984    4.3762984    6036.8642    18741.827    8263.1743   -8894.4086   -22049.631     14020.78   -2873.6187    83.814815 
   82200    969.31043   -99.884123   0.87705245   -99.007071   -16437.544    4.3652154    4.3652154    4.3652154   -16437.544   -7178.3529   -12910.777   -29223.502    2672.0444   -10671.791     9932.188    83.179641 
   82300     1984.668   -100.80189    1.7957693   -99.006117   -4924.6353    4.3691679    4.3691679    4.3691679   -4924.6353   -14429.386    6904.1431   -7248.6629   -19299.937    7950.4086   -3629.4383    83.405792 
   82400    775.37596   -99.723853   0.70157646   -99.022277   -30742.095    4.3938246    4.3938246    4.3938246   -30742.095   -14367.036   -29309.767   -48549.482    11523.382   -200.17233    6784.1216    84.825834 
   82500    2025.0002   -100.82323    1.8322627   -98.990965   -12132.612    4.3800409    4.3800409    4.3800409   -12132.612   -23570.816   -12201.724   -625.29613    -21670.95   -578.17398    4017.8653    84.030025 
   82600    723.89285   -99.661992   0.65499346   -99.006998    19757.303    4.3580284    4.3580284    4.3580284    19757.303    32799.384    20544.705    5927.8208    5594.8469    18122.837   -6054.5189    82.769472 
   82700    2043.3887   -100.85404     1.848901    -99.00514   -5804.1013    4.3711727    4.3711727    4.3711727   -5804.1013   -14233.803   -11528.058    8349.5578   -13632.487   -4871.8724    16372.665    83.520653 
   82800    675.46219   -99.643978   0.61117238   -99.032806    -27.04092    4.3821347    4.3821347    4.3821347    -27.04092    7384.5397     7266.104   -14731.766   -534.62061    29366.829    -19680.68    84.150591 
   82900    1911.9829   -100.74061    1.7300023   -99.010609    9084.0637    4.3792687    4.3792687    4.3792687    9084.0637    11201.066   -5974.4663    22025.592   -7014.7902   -8385.2706    23434.597    83.985592 
   83000     569.8645   -99.543782   0.51562537   -99.028156    -832.5796    4.3705789    4.3705789    4.3705789    -832.5796   -1072.5268    19074.776   -20499.988   -6517.3929    32415.195   -29604.816    83.486623 
   83100    2059.7676   -100.87113     1.863721   -99.007406    16997.247    4.3690573    4.3690573    4.3690573    16997.247    25124.599    10090.429    15776.712   -12789.764   -4739.2662    19235.449    83.399458 
   83200    538.69096   -99.521251    0.4874189   -99.033832   -4065.6209    4.3725941    4.3725941    4.3725941   -4065.6209    24403.656    5748.6624   -42349.181   -6347.2098    21929.075   -24279.437     83.60216 
   83300    1700.1714   -100.55611    1.5383508   -99.017763    15496.325    4.3763468    4.3763468    4.3763468    15496.325    51163.129    4770.7198   -9444.8749   -11755.545   -345.17881    9121.4867    83.817592 
   83400    1005.8442   -99.937691   0.91010894   -99.027582   -8120.2827    4.3749161    4.3749161    4.3749161   -8120.2827    17867.519   -7829.3267    -34399.04   -4113.1726    6816.6691   -8363.3841    83.735416 
   83500    1524.7214   -100.39359    1.3795999    -99.01399     3737.519    4.3774552    4.3774552    4.3774552     3737.519    34439.728    378.23153   -23605.403   -9342.7611    3209.5021    208.94979    83.881297 
   83600    1214.9359   -100.12242    1.0992995   -99.023118    -12115.71    4.3700788    4.3700788    4.3700788    -12115.71    13435.281    -28851.46   -20930.949   -537.07635   -4333.8641     10894.87    83.457968 
   83700     1549.984   -100.42268    1.4024581   -99.020226    4492.0888    4.3677712    4.3677712    4.3677712    4492.0888     7988.735    14380.991   -8893.4593    -8873.946    11591.148   -11852.106     83.32583 
   83800    1305.7595   -100.20179    1.1814786   -99.020314   -37435.845    4.3855819    4.3855819    4.3855819   -37435.845   -111.53064   -58757.939   -53438.065    3685.0741   -11777.984      16754.9    84.349336 
   83900    1471.7461    -100.3387    1.3316668   -99.007032     9698.267    4.3720817    4.3720817    4.3720817     9698.267    8512.8781    18728.595    1853.3278   -8095.0047    15419.308   -15854.094    83.572771 
   84000     1301.669   -100.18854    1.1777775   -99.010764   -17027.377    4.3747606    4.3747606    4.3747606   -17027.377    24967.907   -22762.275   -53287.761    2977.9912   -7631.8662    19287.222    83.726489 
   84100    1473.3654   -100.34504     1.333132   -99.011911   -7735.7466    4.3700418    4.3700418    4.3700418   -7735.7466    5062.3714    3530.2691    -31799.88   -4427.6725    7491.2309   -30809.325    83.455851 
   84200    1298.8259   -100.19458    1.1752049   -99.019379    6237.2991    4.3702627    4.3702627    4.3702627    6237.2991    55988.897   -9679.2137   -27597.786   -3572.7737   -6095.9571    24416.561    83.468503 
   84300    1281.4554    -100.1906    1.1594877   -99.031115   -24432.569    4.3741875    4.3741875    4.3741875   -24432.569    3384.0213    -33754.06   -42927.668    2947.3482    6313.6691   -37183.999    83.693585 
   84400    1627.7485    -100.4915     1.472821   -99.018679    4535.4461    4.3652627    4.3652627    4.3652627    4535.4461    24100.073    7945.2615   -18438.996   -10638.119    925.42871    21882.536    83.182346 
   84500    878.39478   -99.828123   0.79479005   -99.033333   -23962.096    4.3778136    4.3778136    4.3778136   -23962.096    19589.232   -32959.885   -58515.635    5857.9679    11221.667   -39545.848    83.901901 
   84600     1865.392   -100.70653    1.6878459   -99.018683   -5916.6587    4.3660257    4.3660257    4.3660257   -5916.6587   -30647.173    22442.833   -9545.6362   -3204.7682    13844.922    13613.997    83.225971 
   84700    944.68716   -99.892986    0.8547728   -99.038213    3321.0122    4.3611011    4.3611011    4.3611011    3321.0122    35617.668    485.47644   -26140.108   -3167.7391   -1058.9675   -39083.186    82.944668 
   84800    1423.5909   -100.32078    1.2880949   -99.032681   -11371.003    4.3762858    4.3762858    4.3762858   -11371.003   -24194.403    23438.597   -33357.201    2907.7998    30822.492    6677.5223    83.814086 
   84900    1247.1535   -100.15535    1.1284507     -99.0269   -18576.316    4.3766897    4.3766897    4.3766897   -18576.316    10863.674   -13513.495   -53079.127   -6271.9825   -9119.0424   -37856.708    83.837295 
   85000    1332.9439    -100.2312    1.2060756   -99.025127   -9174.2518    4.3727324    4.3727324    4.3727324   -9174.2518     20122.39    4815.8298   -52460.975   -239.98943    14505.046    12626.041    83.610094 
   85100    1329.4307   -100.22998    1.2028968   -99.027085    13148.725    4.3578078    4.3578078    4.3578078    13148.725    11552.383    43197.551    -15303.76   -7182.2942     5342.219   -32429.526    82.756901 
   85200    1203.3904   -100.13144    1.0888529   -99.042588   -2592.2894    4.3667868    4.3667868    4.3667868   -2592.2894    36071.141   -22555.134   -21292.876   -478.35077    3634.2002    22813.256    83.269502 
   85300    1521.5113   -100.40128    1.3766954   -99.024588   -12853.094    4.3825684    4.3825684    4.3825684   -12853.094   -19426.811    22755.374   -41887.845   -4533.0068   -11475.726   -13211.393    84.175578 
   85400    907.55728   -99.847678    0.8211769   -99.026501    6522.8252    4.3687236    4.3687236    4.3687236    6522.8252    28943.368    10028.466   -19403.358    1348.2122    7079.7733    18415.161     83.38035 
   85500    1697.1604   -100.54831    1.5356264   -99.012679    7870.5361    4.3664542    4.3664542    4.3664542    7870.5361    11000.253    14980.057   -2368.7023   -8460.5578   -4569.3982    2540.0129    83.250477 
   85600    930.80103   -99.875869   0.84220834    -99.03366   -8471.8697    4.3711188    4.3711188    4.3711188   -8471.8697    31485.038   -3998.8525   -52901.794    3840.8656   -17776.139    20917.819    83.517569 
   85700    1474.7494   -100.36224    1.3343842   -99.027858    8968.0218    4.3779498    4.3779498    4.3779498    8968.0218    23806.563     14622.61   -11525.108    -1315.227    17223.894    6720.5898    83.909734 
   85800    1199.4792   -100.11257     1.085314   -99.027256   -31649.824    4.3815916    4.3815916    4.3815916   -31649.824    4256.4315   -18529.137   -80676.767    700.84263   -26465.597    18384.795    84.119308 
   85900    1413.2103   -100.30286    1.2787024   -99.024153   -775.24019    4.3632992    4.3632992    4.3632992   -775.24019    24779.372   -17505.067   -9600.0261   -1247.9712    12561.917    23581.484    83.070146 
   86000    1468.1989   -100.34923    1.3284573   -99.020773   -2896.2661    4.3671236    4.3671236    4.3671236   -2896.2661   -8632.2849     30315.58   -30372.093    3076.0781   -13007.827    5753.7727    83.288768 
   86100    981.72455   -99.921902   0.88828501   -99.033617    -23658.58     4.382845     4.382845     4.382845    -23658.58    28195.891   -44203.331   -54968.299   -2238.8625    741.81937    28063.784    84.191516 
   86200    1538.7139   -100.40574    1.3922607   -99.013479    1714.2557    4.3774343    4.3774343    4.3774343    1714.2557   -21349.453    16055.159     10437.06    7782.6181    455.76642   -6353.7233    83.880094 
   86300    1028.1566   -99.944274   0.93029765   -99.013976     -21436.1    4.3757038    4.3757038    4.3757038     -21436.1    14574.215   -21506.537   -57375.977    1130.1005   -5661.7862    20932.931    83.780657 
   86400    1630.1864   -100.47787    1.4750269    -99.00284   -2871.4925     4.374843     4.374843     4.374843   -2871.4925   -25576.736    32133.832   -15171.574    7180.5629    7600.0933    -11081.76    83.731217 
   86500     1075.866   -99.982182   0.97346618   -99.008716   -8237.9311    4.3799075    4.3799075    4.3799075   -8237.9311    8120.4091   -22465.354   -10368.849   -754.43229   -15907.112     28921.41     84.02235 
   86600    1591.2715   -100.44242    1.4398159   -99.002605   -11429.236    4.3783705    4.3783705    4.3783705   -11429.236   -2500.4871   -1204.8959   -30582.324    5806.0562    18596.527   -21803.646    83.933925 
   86700    1273.2579   -100.16902    1.1520705    -99.01695    3825.7976    4.3637028    4.3637028    4.3637028    3825.7976    26085.791   -2441.6876   -12166.711    7409.2529   -16835.053    34656.314    83.093201 
   86800    1451.6494   -100.32982    1.3134829   -99.016337    7277.0643    4.3680372    4.3680372    4.3680372    7277.0643    21994.421    -2015.112     1851.884     2202.267    15133.336   -15144.821    83.341055 
   86900    1092.5791   -100.01898   0.98858849   -99.030393    -16060.27    4.3774332    4.3774332    4.3774332    -16060.27    30740.292   -44848.032   -34073.069    2616.3922    11078.154    37850.492    83.880031 
   87000    1424.8944    -100.3157    1.2892744   -99.026426    13358.606    4.3709492    4.3709492    4.3709492    13358.606    13128.211   -18799.876    45747.483    7445.0134   -544.25443   -12341.259    83.507845 
   87100    853.40751   -99.808931   0.77218105    -99.03675    8234.6744    4.3660128    4.3660128    4.3660128    8234.6744    64486.026   -27636.151   -12145.851    2710.4266    43137.025    31275.153    83.225233 
   87200    1341.1473   -100.24643    1.2134983   -99.032932    11061.673    4.3713709    4.3713709    4.3713709    11061.673    20922.944   -14098.532    26360.607    4406.1099    -19194.18    -6008.198    83.532015 
   87300    959.61592   -99.902096   0.86828065   -99.033815    13836.794    4.3740607    4.3740607    4.3740607    13836.794    35759.914    17400.952   -11650.485    -4544.992    35483.391    10981.601    83.686307 
   87400    1425.1226    -100.3044    1.2894809    -99.01492    2673.3857     4.382098     4.382098     4.382098    2673.3857    12180.352   -14496.323    10336.128    15080.513   -14276.421    10183.335    84.148477 
   87500    1214.6555   -100.11612    1.0990459   -99.017076   -8118.0279    4.3749225    4.3749225    4.3749225   -8118.0279    3273.7078   -16123.713   -11504.079   -7273.4157    22788.908    6958.7031    83.735783 
   87600    1306.4022    -100.1926    1.1820602   -99.010539    19884.766    4.3595059    4.3595059    4.3595059    19884.766    16930.272    17215.719    25508.306    20534.474   -1649.9487    13825.061    82.853683 
   87700    1443.2525   -100.33033    1.3058852   -99.024447   -18850.506    4.3764424    4.3764424    4.3764424   -18850.506   -19319.213   -12837.998   -24394.308   -6931.5113   -3559.1501    5376.9716    83.823086 
   87800    1230.4455   -100.14191     1.113333   -99.028573   -16289.503    4.3725313    4.3725313    4.3725313   -16289.503   -11556.623   -32488.571   -4823.3139    16407.172    6607.2301    24367.322    83.598556 
   87900    1474.7764   -100.35557    1.3344087   -99.021157   -11517.478    4.3680885    4.3680885    4.3680885   -11517.478   -20475.575    6994.6564   -21071.515    5091.6316    -7282.762   -16543.338    83.343989 
   88000    1170.3417   -100.08077    1.0589498   -99.021817   -17716.019    4.3739055    4.3739055    4.3739055   -17716.019   -24880.143   -4454.2396   -23813.675    4884.5519    12249.825    30048.094    83.677403 
   88100    1504.4426   -100.38229    1.3612513   -99.021041    2870.4635    4.3619309    4.3619309    4.3619309    2870.4635   -19221.717   -2691.8788    30524.986    29834.511   -4787.6056   -14206.277    82.992025 
   88200    1292.5355   -100.19843    1.1695133   -99.028914    -17673.74    4.3740669    4.3740669    4.3740669    -17673.74   -12851.653     1060.413    -41229.98   -4264.4653    17524.543    11425.523    83.686666 
   88300    1161.8899   -100.08686    1.0513024   -99.035559   -15134.497    4.3711893    4.3711893    4.3711893   -15134.497   -5708.6804    -45553.47    5858.6603    51219.115    11051.844   -4862.2329    83.521607 
   88400     1560.281   -100.43503     1.411775   -99.023254    23071.724    4.3688089    4.3688089    4.3688089    23071.724    64453.981   -3250.3114     8011.501   -20595.265    10542.417   -6546.9948    83.385233 
   88500    607.79293   -99.592283   0.54994381   -99.042339    -19103.09    4.3751836    4.3751836    4.3751836    -19103.09    11244.103   -63884.114   -4669.2576    59261.593    17502.787    -4010.264    83.750778 
   88600    2061.8041     -100.873    1.8655637   -99.007435    5101.1025     4.372338     4.372338     4.372338    5101.1025    42811.299   -25682.589   -1825.4025   -22816.485    12137.369   -1895.5374     83.58747 
   88700    769.05729    -99.72227   0.69585919   -99.026411   -34609.286    4.3802294    4.3802294    4.3802294   -34609.286    -42155.45   -76964.398    15291.991     57515.46    13747.849    -5763.212    84.040873 
   88800    1806.9445   -100.64913    1.6349614   -99.014168   -3826.9824    4.3643515    4.3643515    4.3643515   -3826.9824    29051.423   -11942.022   -28590.349   -10861.803    4898.0072    -11436.59    83.130267 
   88900     1186.926   -100.10944    1.0739556   -99.035482    746.13741    4.3603009    4.3603009    4.3603009    746.13741    1793.2318   -32937.905    33383.085    48763.253   -751.13204    5484.2245    82.899015 
   89000    1501.2086   -100.38646    1.3583251   -99.028132   -9214.6994    4.3783089    4.3783089    4.3783089   -9214.6994     15779.87   -27743.605   -15680.363   -5087.9163    1685.5859   -11343.151    83.930379 
   89100     1017.397   -99.946966   0.92056216   -99.026404    3506.0618     4.371145     4.371145     4.371145    3506.0618    30565.685   -13398.353   -6649.1473    38889.443   -10316.034    191.71146     83.51907 
   89200    1596.8986   -100.46737    1.4449074   -99.022465    7314.6298    4.3676004    4.3676004    4.3676004    7314.6298    5740.1251    2836.3687    13367.396   -1252.1882    5134.7605   -851.79099    83.316053 
   89300    1228.1368   -100.14159    1.1112439   -99.030343   -2703.3354    4.3662774    4.3662774    4.3662774   -2703.3354    11966.372   -24816.204    4739.8258    37033.319   -13919.681   -1693.7124    83.240364 
   89400    1252.2914   -100.16616    1.1330995   -99.033064    9041.2016     4.367556     4.367556     4.367556    9041.2016    5011.3171    5867.5642    16244.724    6448.5599    1058.7011    228.24207    83.313514 
   89500    1415.8662   -100.31082    1.2811055   -99.029713   -6862.2437    4.3770036    4.3770036    4.3770036   -6862.2437   -4323.9241   -22935.034    6672.2274    20657.454   -1019.1881    2975.1578    83.855335 
   89600    1018.5259   -99.954716   0.92158365   -99.033132    7873.0154    4.3661809    4.3661809    4.3661809    7873.0154    19697.259   -17285.281    21207.068    19131.629   -5447.7851    9121.5064    83.234844 
   89700    1514.1071    -100.3892    1.3699959   -99.019206    6644.7707    4.3681253    4.3681253    4.3681253    6644.7707   -7871.6631    3839.3999    23966.575    3153.8271    1299.1784    1597.7347    83.346096 
   89800    906.62777   -99.850213   0.82033586   -99.029877   -14479.942    4.3763409    4.3763409    4.3763409   -14479.942   -23060.055   -43837.674    23457.905    40496.814    890.88188    11258.811    83.817253 
   89900    1611.8732   -100.46945    1.4584567    -99.01099    8452.3027    4.3758373    4.3758373    4.3758373    8452.3027    11578.928   -13470.529    27248.509   -15551.692    4782.5097    1984.0481    83.788326 
   90000    924.84451   -99.857744   0.83681875   -99.020925   -19905.764    4.3750983    4.3750983    4.3750983   -19905.764   -55687.181   -35532.532    31502.421    48783.058   -9097.7509     2047.068    83.745879 
   90100    1512.1713   -100.36986    1.3682444   -99.001611    8382.8279    4.3714191    4.3714191    4.3714191    8382.8279    31383.167   -23769.185    17534.502    -6541.734    11327.333    13515.405    83.534779 
   90200    1128.5446   -100.03077    1.0211309   -99.009639   -18152.335    4.3827961    4.3827961    4.3827961   -18152.335   -46964.587   -44798.299    37305.879     37766.21   -18705.202   -885.82289    84.188702 
   90300    1376.6047   -100.24314    1.2455808   -98.997557   -8784.2607    4.3797743    4.3797743    4.3797743   -8784.2607   -20159.518   -3630.4206   -2562.8438   -7288.8112   -2408.2313     5216.474    84.014686 
   90400    1090.9048   -99.992086   0.98707362   -99.005012    14592.768    4.3672673    4.3672673    4.3672673    14592.768   -497.26435   -10245.927    54521.495    43480.445   -6876.7161    13025.774    83.296992 
   90500    1304.7864   -100.18619    1.1805981   -99.005591    5546.0232    4.3734514    4.3734514    4.3734514    5546.0232   -16964.331   -3330.1825    36932.583   -9750.6873   -24044.266   -2205.2655     83.65134 
   90600    1097.0053   -100.00704   0.99259344   -99.014443    9565.1148     4.374641     4.374641     4.374641    9565.1148   -19282.758   -23729.757    71707.859    40379.899    1648.7433    7290.2152    83.719621 
   90700    1266.4402   -100.15417    1.1459017   -99.008268   -9404.5517    4.3897292    4.3897292    4.3897292   -9404.5517   -32913.194   -18884.882     23584.42    6735.5009   -26296.477   -2491.3198    84.588863 
   90800     841.3442   -99.776441   0.76126592   -99.015175   -10577.656    4.3758621    4.3758621    4.3758621   -10577.656   -47891.651   -47243.932    63402.614    44091.635   -4185.8307    9000.0382    83.789748 
   90900    1665.8922   -100.50805    1.5073343   -99.000713    18473.762    4.3558052    4.3558052    4.3558052    18473.762   -25632.173    13909.004    67144.454    7516.4163    1408.3882    3260.8857    82.642863 
   91000    710.21127   -99.675872   0.64261408   -99.033258   -18840.882    4.3728979    4.3728979    4.3728979   -18840.882   -66157.678   -29353.763    38988.794     48848.91   -10103.838     7997.574    83.619587 
   91100    1463.4699   -100.34428    1.3241783   -99.020099    5841.1481    4.3773034    4.3773034    4.3773034    5841.1481   -10372.503    18654.431    9241.5169   -2434.0171    21486.139    3867.3463    83.872569 
   91200    1213.1349   -100.11607    1.0976699   -99.018401   -21397.597    4.3855375    4.3855375    4.3855375   -21397.597   -41050.486   -31697.846    8555.5423     39305.12   -16001.866    16064.308    84.346774 
   91300    1160.6641   -100.06287    1.0501933   -99.012674    10103.612     4.361827     4.361827     4.361827    10103.612   -2878.5697    32911.857    277.55013   -16585.721    7994.5232    5619.2878    82.986089 
   91400    1278.0048   -100.17407    1.1563656   -99.017705    16465.339    4.3539458    4.3539458    4.3539458    16465.339   -5818.0275   -12092.179    67306.225    42833.869    1276.7238    11397.511    82.537071 
   91500     1311.973   -100.21112    1.1871007   -99.024018   -12857.163     4.379656     4.379656     4.379656   -12857.163   -33923.596    18713.983   -23361.875   -19600.893   -12593.937    6661.5679    84.007876 
   91600    1033.5257   -99.952376   0.93515577   -99.017221    20835.243    4.3749826    4.3749826    4.3749826    20835.243    21894.553     7424.115    33187.062    24392.605    4623.9917   -1412.7638    83.739235 
   91700    1450.7573   -100.32632    1.3126757   -99.013639   -6785.8341    4.3708577    4.3708577    4.3708577   -6785.8341   -25461.836   -5167.3218    10271.656   -10272.688   -33457.853    12007.993      83.5026 
   91800     1512.724   -100.38852    1.3687444    -99.01978    20631.914    4.3566512    4.3566512    4.3566512    20631.914    23166.682     21995.71    16733.349    14114.574    32865.809    4494.1253    82.691024 
   91900    953.71912    -99.90517    0.8629451   -99.042225    27884.909    4.3584933    4.3584933    4.3584933    27884.909    4133.8153    38151.543    41369.367   -5606.3938   -61588.388    4424.7617     82.79596 
   92000    1896.8337   -100.74182     1.716295   -99.025526   -13434.601    4.3819323    4.3819323    4.3819323   -13434.601    1919.9302   -29128.505   -13095.229   -5249.1023     27766.04    1200.1333    84.138933 
   92100    764.54769   -99.728251   0.69177882   -99.036473    6443.7581    4.3691451    4.3691451    4.3691451    6443.7581   -6693.6401    29021.016   -2996.1016    10921.485   -58401.933    1386.3349    83.404482 
   92200    1852.1413   -100.69517    1.6758564    -99.01931    16275.051     4.362476     4.362476     4.362476    16275.051    23983.291    2182.9547    22658.909   -10944.804    11815.433   -1572.5555    83.023138 
   92300    875.44709   -99.837197   0.79212292   -99.045074    2637.3429    4.3634624    4.3634624    4.3634624    2637.3429   -11396.468    26259.644   -6951.1476    4458.4317   -52394.327   -3540.5757    83.079468 
   92400    1579.5487   -100.47017    1.4292088   -99.040964    2093.7081    4.3730555    4.3730555    4.3730555    2093.7081    14896.324   -19344.962    10729.762    2434.6756    2320.4943   -7713.5598    83.628626 
   92500    1370.1961   -100.27549    1.2397822   -99.035704   -9896.0546    4.3744252    4.3744252    4.3744252   -9896.0546   -19452.423   -3973.5202   -6262.2203    4845.7826   -37241.725    3702.8805    83.707235 
   92600    1043.2694    -99.97776   0.94397206   -99.033788    11531.636     4.360504     4.360504     4.360504    11531.636   -3300.7251    3072.5519     34823.08   -1429.9633   -5914.3573   -12965.429    82.910604 
   92700    1647.7642   -100.52376    1.4909317   -99.032826    810.58825    4.3612135    4.3612135    4.3612135    810.58825   -3523.4572    19057.447   -13102.225   -1073.2782   -6383.9524   -5747.2788    82.951078 
   92800    1121.5511   -100.06086     1.014803   -99.046061   -1753.0593    4.3668074    4.3668074    4.3668074   -1753.0593   -22101.707   -26722.328    43564.857     6747.742   -20755.264    5753.0565    83.270682 
   92900    1307.5839      -100.22    1.1831294   -99.036875    3241.4055    4.3682286    4.3682286    4.3682286    3241.4055   -2487.2154    10649.695     1561.737    -2176.374    18124.175   -13559.514    83.352007 
   93000    1274.1011   -100.18325    1.1528334   -99.030414    -76.39959    4.3644079    4.3644079    4.3644079    -76.39959   -38325.165   -10309.686    48405.652    -1160.468   -32452.608    7136.7502    83.133485 
   93100    1351.6661   -100.25416    1.2230159   -99.031143   -14190.972    4.3663739    4.3663739    4.3663739   -14190.972    383.24487   -26217.957   -16738.203    1670.2037    29607.545   -3203.8388    83.245881 
   93200     1280.244   -100.18445    1.1583917   -99.026058    6684.6658    4.3613111    4.3613111    4.3613111    6684.6658   -14179.467    20474.082    13759.383    3069.9223   -12909.005   -8820.0407    82.956652 
   93300    1154.4226   -100.07809    1.0445458   -99.033541   -3917.7304    4.3661037    4.3661037    4.3661037   -3917.7304    -15083.54   -2292.0783    5622.4271    -1043.055    14638.869    2518.3155    83.230431 
   93400    1504.3119   -100.38988     1.361133   -99.028745   -10842.925    4.3686312    4.3686312    4.3686312   -10842.925    -28270.93    2282.3488   -6540.1946     5119.352    32942.866    3791.3997     83.37506 
   93500    1196.7359   -100.11197    1.0828318   -99.029137   -3440.6518    4.3617734    4.3617734    4.3617734   -3440.6518    -21279.01   -9368.2555     20325.31   -374.64899   -12062.093   -3021.6686    82.983035 
   93600     1070.222   -100.00885   0.96835939   -99.040486   -8418.8169      4.36331      4.36331      4.36331   -8418.8169     -34573.8    48716.431   -39399.081    3002.2441    79532.361    3890.5846    83.070763 
   93700    1735.1558   -100.59537    1.5700054   -99.025364     2497.552    4.3636917    4.3636917    4.3636917     2497.552    14894.243   -26523.951    19122.364    4149.4943   -17848.457    4412.1917     83.09257 
   93800    700.82741   -99.681697   0.63412337   -99.047574   -40497.809    4.3708249    4.3708249    4.3708249   -40497.809   -48299.263    7504.8959    -80699.06   -752.07521    69905.401    2762.5791    83.500719 
   93900     1936.298   -100.77377    1.7520031   -99.021763    23802.803    4.3631969    4.3631969    4.3631969    23802.803     40949.68    7894.3559    22564.372    4.0700323    -21619.45   -6557.3777    83.064303 
   94000    731.40633   -99.702564   0.66179182   -99.040772   -12894.063    4.3692483    4.3692483    4.3692483   -12894.063   -31536.409    26770.057   -33915.839    1475.5695    60119.783    8459.5272    83.410393 
   94100    1794.9124    -100.6404    1.6240745   -99.016322   -639.94713    4.3688281    4.3688281    4.3688281   -639.94713    14713.505   -3700.2032   -12933.143    2095.1726   -37378.561   -7677.7044     83.38633 
   94200     1071.472   -99.993215   0.96949038   -99.023724    7082.3101    4.3585117    4.3585117    4.3585117    7082.3101   -25770.287    27605.715    19411.502    -7583.716    60498.174    1432.3551    82.797012 
   94300    1399.0267   -100.28598    1.2658688    -99.02011    9246.5335    4.3670179    4.3670179    4.3670179    9246.5335    30020.156    15210.013   -17490.568    1228.1811   -33248.119    6455.7982    83.282723 
   94400    1176.5848   -100.09484    1.0645987   -99.030243   -1299.8835    4.3650467    4.3650467    4.3650467   -1299.8835   -35981.697    26536.981    5545.0658   -9561.7048    45838.248   -9479.9855    83.169999 
   94500    1446.5061   -100.33115    1.3088291   -99.022318    9202.1032    4.3661889    4.3661889    4.3661889    9202.1032    39361.497   -3730.4464   -8024.7406   -2289.8587   -16400.624    17627.733    83.235301 
   94600    929.33506   -99.865781    0.8408819   -99.024899    -8005.424    4.3710368    4.3710368    4.3710368    -8005.424   -31728.832     45534.17   -37821.611   -5761.4585    24443.097    1265.5559    83.512864 
   94700    1772.9893   -100.61718    1.6042379   -99.012946    5797.4862    4.3606067    4.3606067    4.3606067    5797.4862   -8585.8088    16282.042    9696.2253    -12580.77    5096.8144    6372.8999    82.916458 
   94800    854.60461   -99.802151   0.77326421   -99.028887   -7304.2904    4.3637915    4.3637915    4.3637915   -7304.2904   -20380.682     36321.36   -37853.549    4005.5224    5369.0048    164.65189    83.098267 
   94900    1664.8998   -100.52526    1.5064363   -99.018825    5234.7648    4.3671184    4.3671184    4.3671184    5234.7648   -29417.361    36648.352    8473.3038    -12448.47    23870.822    2237.0462    83.288471 
   95000    1011.7834   -99.945156   0.91548286   -99.029673   -4956.6294    4.3708805    4.3708805    4.3708805   -4956.6294   -26863.321    56397.131   -44403.698   -124.62261   -12534.448   -430.59847    83.503908 
   95100    1546.8054   -100.41459    1.3995821   -99.015005    1321.8974    4.3713354    4.3713354    4.3713354    1321.8974   -22538.935    25014.468    1490.1593   -7031.1088    25391.019    497.13659    83.529985 
   95200    1032.0185   -99.961421   0.93379199   -99.027629      5774.33    4.3628561    4.3628561    4.3628561      5774.33   -14788.573    71010.589   -38899.025   -5148.5592   -15928.133   -4480.4712     83.04484 
   95300    1672.1738   -100.53534     1.513018   -99.022318    6581.8245    4.3634355    4.3634355    4.3634355    6581.8245   -9240.8371    31673.276    -2686.965    329.49315    24022.565   -4762.5961    83.077935 
   95400    1065.7887   -99.995281   0.96434804   -99.030933    7631.1815    4.3598982    4.3598982    4.3598982    7631.1815     339.8912    54764.933   -32211.279    -5491.569   -24855.319   -2203.0269     82.87605 
   95500    1442.0784   -100.33527    1.3048229    -99.03045    5665.8255    4.3686128    4.3686128    4.3686128    5665.8255   -10904.319    51654.876   -23753.081    7955.7096    20129.593    421.06756    83.374007 
   95600    1197.4719   -100.11382    1.0834977   -99.030321    2085.0748    4.3683615    4.3683615    4.3683615    2085.0748    15778.914    11527.029   -21050.719   -2894.0195   -25094.407   -11859.727    83.359617 
   95700    1321.7096   -100.21971    1.1959106   -99.023804    6754.6875    4.3607133    4.3607133    4.3607133    6754.6875   -11921.649    55160.838   -22975.127     3943.629    9057.5752    14946.079    82.922544 
   95800    1235.5744   -100.14594    1.1179737   -99.027962    8051.1694    4.3627233    4.3627233    4.3627233    8051.1694     31328.13    10719.308    -17893.93    8353.9601   -15937.787   -19514.095     83.03726 
   95900    1284.6046   -100.19254    1.1623373   -99.030204    4355.5404    4.3665611    4.3665611    4.3665611    4355.5404    4453.9394    31133.121   -22520.439   -3435.1013   -6687.8267     9277.323    83.256591 
   96000    1324.5326   -100.21751    1.1984649   -99.019049   -5416.4553    4.3758929    4.3758929    4.3758929   -5416.4553    5528.4811    123.91878   -21901.766      14578.9   -14147.559    -223.3723    83.791519 
   96100    1088.4101   -100.00995   0.98481633   -99.025131   -3394.5628    4.3674215    4.3674215    4.3674215   -3394.5628    39616.604    1406.9785   -51207.271   -2561.9886   -16078.277   -5185.0151    83.305813 
   96200    1569.8618   -100.43358    1.4204439   -99.013139    -3492.156    4.3602956    4.3602956    4.3602956    -3492.156    -15408.88   -3059.7937    7992.2053   -2825.6475   -3996.9814    5194.4129    82.898714 
   96300    922.11164   -99.867809   0.83434599   -99.033463   -5153.0659    4.3640414    4.3640414    4.3640414   -5153.0659    32299.952   -4660.3442   -43098.805    4721.1966   -23383.142   -7504.6695    83.112544 
   96400    1643.1011   -100.50436    1.4867124   -99.017647    1030.5142    4.3716688    4.3716688    4.3716688    1030.5142   -10004.564     9323.937    3772.1698   -7377.7493    11027.005    4796.4138    83.549098 
   96500    934.30317    -99.86673   0.84537714   -99.021353   -20340.725    4.3729118    4.3729118    4.3729118   -20340.725   -18413.225   -17602.964   -25005.987    374.58259   -34074.458   -7976.0583    83.620381 
   96600    1674.9303   -100.52428    1.5155121   -99.008767    16424.497    4.3601746    4.3601746    4.3601746    16424.497    24879.177    1606.6095    22787.704    3608.0064    23068.479    3333.0217    82.891816 
   96700    1003.3726   -99.932756   0.90787265   -99.024883    6673.8846    4.3611616    4.3611616    4.3611616    6673.8846   -11679.628     41021.16   -9319.8786   -9514.3814   -24886.799   -7321.0167    82.948118 
   96800    1511.6153   -100.38475    1.3677413   -99.017012    2210.9172    4.3700895    4.3700895    4.3700895    2210.9172     17862.97   -22364.482    11134.264    8700.1272    19125.658   -3439.0439     83.45858 
   96900    1107.9952   -100.02956    1.0025374    -99.02702    7718.4451    4.3708342    4.3708342    4.3708342    7718.4451    13187.865    14165.652   -4198.1818   -4459.5311   -2473.5793   -4946.7623    83.501254 
   97000      1493.06   -100.36518     1.350952   -99.014227     4336.049    4.3702026    4.3702026    4.3702026     4336.049    9658.3612    6443.6006   -3093.8147   -3539.6257    10269.368   -5041.4134    83.465061 
   97100    903.51246   -99.847363   0.81751706   -99.029846   -9959.9678    4.3641943    4.3641943    4.3641943   -9959.9678    4217.3935   -29683.049   -4414.2482   -604.09597    8475.2714    -4037.198     83.12128 
   97200    1878.7385   -100.71572    1.6999221   -99.015796    6768.3092     4.363717     4.363717     4.363717    6768.3092    23952.839   -4121.7299    473.81853    875.77114     2281.417   -13045.369     83.09401 
   97300    541.20263   -99.525378   0.48969151   -99.035687   -23660.516    4.3755931    4.3755931    4.3755931   -23660.516   -46837.073   -17934.782   -6209.6925   -16005.403    22743.952    8194.9526    83.774294 
   97400    1784.4677   -100.62225    1.6146239    -99.00763    1873.9661    4.3690119    4.3690119    4.3690119    1873.9661    28206.408    -21552.75   -1031.7594    736.57844   -15346.208   -13893.362    83.396857 
   97500    926.72538   -99.863012    0.8385206   -99.024491   -26523.051      4.36788      4.36788      4.36788   -26523.051   -60749.859   -21795.285    2975.9927    9531.0665    40152.879   -160.32503    83.332054 
   97600    1580.6361   -100.44179    1.4301927   -99.011597     10026.85    4.3661531    4.3661531    4.3661531     10026.85     20526.11   -21282.409     30836.85    -17491.75   -17427.749    4433.4357    83.233258 
   97700    852.47339   -99.805065   0.77133584   -99.033729   -2185.1349    4.3660675    4.3660675    4.3660675   -2185.1349   -26843.396   -199.79405    20487.785    22248.121    20019.152   -1310.9526    83.228362 
   97800    1839.1643   -100.68568    1.6641145   -99.021561    -7769.513    4.3689018    4.3689018    4.3689018    -7769.513    182.82335   -22157.372   -1333.9901   -12430.836    609.48744    5224.5716     83.39055 
   97900    828.96896   -99.786676   0.75006853   -99.036607    5769.2171    4.3632666    4.3632666    4.3632666    5769.2171   -13787.053   -3720.0343    34814.738    22703.784   -2502.9081    -6012.678    83.068285 
   98000    1469.3173   -100.35345    1.3294692   -99.023978    15872.795     4.367977     4.367977     4.367977    15872.795     -4158.25    30518.135    21258.501    1854.8497    14025.681    8312.1132    83.337605 
   98100    1303.3239    -100.2059    1.1792748   -99.026627    -12194.01    4.3685615    4.3685615    4.3685615    -12194.01   -35487.916    17280.664   -18374.777    12011.028   -16112.004   -1037.6674    83.371068 
   98200    1196.0007   -100.10288    1.0821666   -99.020716    13676.296    4.3660715    4.3660715    4.3660715    13676.296   -14068.691    30196.473    24901.108    6273.6035    24192.226    4605.5905    83.228586 
   98300     1315.325   -100.21572    1.1901337   -99.025581   -4346.6867    4.3637364    4.3637364    4.3637364   -4346.6867   -35438.307    35240.768   -12842.521    544.72265   -34178.707     10129.47    83.095119 
   98400    1349.8458   -100.25106    1.2213688   -99.029687   -8697.9383    4.3645455    4.3645455    4.3645455   -8697.9383   -34120.088    21929.088   -13902.815    16241.925    35851.665   -8665.3294    83.141351 
   98500    1320.3722   -100.21988    1.1947005   -99.025177     3604.723    4.3643175    4.3643175    4.3643175     3604.723   -11557.331    19639.251    2732.2496    -6135.873   -29319.126    21105.695    83.128322 
   98600    1198.6508   -100.11644    1.0845645   -99.031874   -7697.2049    4.3672133    4.3672133    4.3672133   -7697.2049   -38619.767    30291.847   -14763.695    23403.143    10469.094   -10294.456    83.293905 
   98700    1414.2526   -100.30853    1.2796455   -99.028881    9689.0679     4.362425     4.362425     4.362425    9689.0679    -6249.803   -15349.223     50666.23   -22342.393   -4879.0355    14689.782    83.020228 
   98800    1208.2259   -100.13059    1.0932282   -99.037365    2943.9133     4.364751     4.364751     4.364751    2943.9133   -28859.555    22906.746    14784.548    27358.056   -14354.372   -10519.145    83.153098 
   98900    1380.2511   -100.27413    1.2488802   -99.025248   -1181.5074    4.3802074    4.3802074    4.3802074   -1181.5074   -863.51042   -28223.218    25542.206   -22442.461    4014.7374     18564.16    84.039611 
   99000    920.58614   -99.856787   0.83296568   -99.023821   -9889.3298    4.3705606    4.3705606    4.3705606   -9889.3298     11349.72   -36807.694    -4210.016    21366.863   -18429.477    1190.4136    83.485576 
   99100    1741.2727   -100.58523    1.5755401   -99.009688    10838.554    4.3543622    4.3543622    4.3543622    10838.554    21392.875   -11242.489    22365.275   -15328.655   -993.50074    4096.1171    82.560755 
   99200    819.98459   -99.782153   0.74193929   -99.040214    3823.0611    4.3633247    4.3633247    4.3633247    3823.0611    40696.058   -27936.621   -1290.2542    3795.5476    -14340.14    11916.165    83.071602 
   99300    1604.4124   -100.47605     1.451706    -99.02434   -224.55407    4.3760442    4.3760442    4.3760442   -224.55407    6711.5943   -3771.8982   -3613.3583     5400.413   -6707.2799    2936.5042    83.800211 
   99400    1147.5045   -100.07218    1.0382862   -99.033895   -21179.039    4.3761081    4.3761081    4.3761081   -21179.039   -19268.403   -29431.302   -14837.412   -17318.369   -4269.0634    10896.895    83.803882 
   99500    1696.2107   -100.55727     1.534767   -99.022499    16960.453    4.3577238    4.3577238    4.3577238    16960.453    28456.509    23865.913   -1441.0625    11347.504   -8409.6056   -6622.0963    82.752114 
   99600     829.8366   -99.794036    0.7508536   -99.043182    16434.239     4.354031     4.354031     4.354031    16434.239     41181.35    19646.584   -11525.219   -19589.658    12144.638    13679.782    82.541919 
   99700    1558.3758   -100.45131    1.4100511   -99.041263    11875.851    4.3721051    4.3721051    4.3721051    11875.851    47595.105    11995.851   -23963.402   -1296.7899   -16990.575   -10717.125    83.574115 
   99800    1047.7357   -99.986382   0.94801329   -99.038369   -21972.124    4.3779449    4.3779449    4.3779449   -21972.124    -4633.578   -3432.9573   -57849.837   -14721.562    29055.814    17432.001    83.909452 
   99900    1194.5388   -100.10332    1.0808438   -99.022479    26693.611    4.3585386    4.3585386    4.3585386    26693.611    52022.401    29869.059   -1810.6272   -9933.0499   -11907.013   -12405.352    82.798542 
  100000    1377.9801   -100.27874    1.2468253   -99.031917    915.50319    4.3591641    4.3591641    4.3591641    915.50319    2469.7701    17419.773   -17143.034   -848.39631     35044.02     17858.82    82.834192 
Loop time of 21.7345 on 1 procs for 100000 steps with 8 atoms

Pair  time (%) = 6.6805 (30.7368)
Kspce time (%) = 5.31857 (24.4706)
Neigh time (%) = 0.0997474 (0.458935)
Comm  time (%) = 0.951588 (4.37823)
Outpt time (%) = 0.0265448 (0.122132)
Other time (%) = 8.65759 (39.8333)

Nlocal:    8 ave 8 max 8 min
Histogram: 1 0 0 0 0 0 0 0 0 0
Nghost:    1978 ave 1978 max 1978 min
Histogram: 1 0 0 0 0 0 0 0 0 0
Neighs:    2125 ave 2125 max 2125 min
Histogram: 1 0 0 0 0 0 0 0 0 0

Total # of neighbors = 2125
Ave neighs/atom = 265.625
Neighbor list builds = 1252
Dangerous builds = 0
unfix 20
unfix 21
print "seeds:761679"
seeds:761679
