LAMMPS (10 Feb 2015)
# ---- initialize simulations
clear
units metal
dimension 3
boundary p p p
atom_style charge
atom_modify map array
# ---- create atoms
read_data /Users/eugeneragasa/pyflamestk_git/pypospack/tests/tests_integration/workflow/WorkflowLammpsThermalExpansion/param_2424/MgO_NaCl_unit.npt.T1700/lammps.structure
  triclinic box = (0 0 0) to (4.2565 4.2565 4.2565) with tilt (0 0 0)
  1 by 1 by 1 MPI processor grid
  reading atoms ...
  8 atoms
# ---- define interatomic potential
include potential.mod
mass 1 24.305
mass 2 15.999

group Mg type 1
4 atoms in group Mg
group O type 2
4 atoms in group O

set group Mg charge 1.67924051174
  4 settings made for charge
set group O charge -1.67924051174
  4 settings made for charge

variable R_cut equal 10.0

pair_style buck/coul/long ${R_cut}
pair_style buck/coul/long 10
pair_coeff 1 1 0.0 0.5 0.0 ${R_cut}
pair_coeff 1 1 0.0 0.5 0.0 10
pair_coeff 1 2 1306.98043044 0.288034123545 0.0 ${R_cut}
pair_coeff 1 2 1306.98043044 0.288034123545 0.0 10
pair_coeff 2 2 2032.48006166 0.252585756474 14.8401495582 ${R_cut}
pair_coeff 2 2 2032.48006166 0.252585756474 14.8401495582 10

kspace_style pppm 1.0e-5

neighbor 1.0 bin
neigh_modify every 1 delay 0 check yes
# ---- define settings
compute eng all pe/atom
compute eatoms all reduce sum c_eng
# ---- run minimization
reset_timestep 0
fix 1 all box/relax iso 0.0 vmax 0.001
thermo 10
thermo_style custom step pe lx ly lz xy xz yz press pxx pyy pzz pxy pxz pyz c_eatoms
min_style cg
minimize 1e-25 1e-25 5000 10000
PPPM initialization ...
  G vector (1/distance) = 0.352997
  grid = 8 8 8
  stencil order = 5
  estimated absolute RMS force accuracy = 4.02799e-05
  estimated relative force accuracy = 2.79728e-06
  using double precision FFTs
  3d grid and FFT values/proc = 3375 512
Neighbor list info ...
  1 neighbor list requests
  update every 1 steps, delay 0 steps, check yes
  master list distance cutoff = 11
Memory usage per processor = 4.06549 Mbytes
Step PotEng Lx Ly Lz Xy Xz Yz Press Pxx Pyy Pzz Pxy Pxz Pyz eatoms 
       0   -114.09861       4.2565       4.2565       4.2565            0            0            0    83013.551    83013.551    83013.551    83013.551 1.023811e-10 -6.100653e-11 -2.0427431e-10   -114.09861 
      10   -114.17745     4.299065     4.299065     4.299065            0            0            0    27173.213    27173.213    27173.213    27173.213 -1.7620305e-11 8.177727e-11 3.0587737e-11   -114.17745 
      19   -114.18814    4.3219883    4.3219883    4.3219883            0            0            0 -0.014642896 -0.014642896 -0.014642896 -0.014642896 -4.2788838e-11 1.5607732e-10 -4.5124802e-11   -114.18814 
Loop time of 0.00848508 on 1 procs for 19 steps with 8 atoms

Minimization stats:
  Stopping criterion = linesearch alpha is zero
  Energy initial, next-to-last, final = 
        -114.098610965     -114.188144107     -114.188144107
  Force two-norm initial, final = 11.9872 7.95763e-05
  Force max component initial, final = 11.9872 1.65313e-05
  Final line search alpha, max atom move = 0.5 8.26564e-06
  Iterations, force evaluations = 19 24

Pair  time (%) = 0.00228381 (26.9156)
Kspce time (%) = 0.00133181 (15.6959)
Neigh time (%) = 0 (0)
Comm  time (%) = 0.000272274 (3.20886)
Outpt time (%) = 1.19209e-05 (0.140493)
Other time (%) = 0.00458527 (54.0392)

Nlocal:    8 ave 8 max 8 min
Histogram: 1 0 0 0 0 0 0 0 0 0
Nghost:    2189 ave 2189 max 2189 min
Histogram: 1 0 0 0 0 0 0 0 0 0
Neighs:    2344 ave 2344 max 2344 min
Histogram: 1 0 0 0 0 0 0 0 0 0

Total # of neighbors = 2344
Ave neighs/atom = 293
Neighbor list builds = 0
Dangerous builds = 0
unfix 1
# ---- define output variables ----
variable natoms equal "count(all)"
variable tot_energy equal "c_eatoms"
variable length_x equal "lx"
variable length_y equal "ly"
variable length_z equal "lz"
variable tilt_xy equal "xy"
variable tilt_xz equal "xz"
variable tilt_yz equal "yz"
variable tot_press equal "press"
variable press_xx equal "pxx"
variable press_yy equal "pyy"
variable press_zz equal "pzz"
variable press_xy equal "pxy"
variable press_xz equal "pxz"
variable press_yz equal "pyz"

# ---- output ----
print "pypospack:output_section:begin"
pypospack:output_section:begin
print "tot_energy = ${tot_energy}"
tot_energy = -114.188144106894
print "num_atoms = ${natoms}"
num_atoms = 8
print "xx = ${length_x}"
xx = 4.32198834005221
print "yy = ${length_y}"
yy = 4.32198834005221
print "zz = ${length_z}"
zz = 4.32198834005221
print "xy = ${tilt_xy}"
xy = 0
print "xz = ${tilt_xz}"
xz = 0
print "yz = ${tilt_yz}"
yz = 0
print "tot_press = ${tot_press}"
tot_press = -0.0146428956780545
print "pxx = ${press_xx}"
pxx = -0.0146428956419126
print "pyy = ${press_yy}"
pyy = -0.0146428958165915
print "pzz = ${press_zz}"
pzz = -0.0146428955756593
print "pxy = ${press_xy}"
pxy = -4.27888380608005e-11
print "pxz = ${press_xz}"
pxz = 1.56077321107314e-10
print "pyz = ${press_yz}"
pyz = -4.51248020389503e-11
print "pypospack:output_section:done"
pypospack:output_section:done
print "pypospack:lammps_sim:done"
pypospack:lammps_sim:done
#------------------------------------------------------------------------------
# RUN THERMOSTAT
# running using an NPT Nose-Hoover style thermostat
#------------------------------------------------------------------------------
variable tempdamp equal 0.1
variable pressdamp equal 1.0
# set initial velocities
velocity all create 1700 2249205 mom yes dist gaussian loop all
# fix for Nose-Hoover style thermostat
fix 20 all npt temp 1700 1700 0.1 aniso 0.0 0.0 1.0 drag 1.0 couple xyz
variable boxx equal lx
variable boxy equal ly
variable boxz equal lz
variable boxp equal press
variable boxt equal temp
# calculate averages every 10000 steps
reset_timestep 0
fix 21 all ave/time 10 10 100 v_boxx v_boxy v_boxz v_boxp v_boxt file lattice.out
thermo_style custom step temp pe ke etotal press lx ly lz press pxx pyy pzz pxy pxz pyz vol
thermo_modify flush yes
thermo 100
run 100000
PPPM initialization ...
  G vector (1/distance) = 0.35233
  grid = 8 8 8
  stencil order = 5
  estimated absolute RMS force accuracy = 4.15437e-05
  estimated relative force accuracy = 2.88505e-06
  using double precision FFTs
  3d grid and FFT values/proc = 3375 512
Memory usage per processor = 3.06549 Mbytes
Step Temp PotEng KinEng TotEng Press Lx Ly Lz Press Pxx Pyy Pzz Pxy Pxz Pyz Volume 
       0         1700   -114.18815    1.5381957   -112.64996    20348.882    4.3219883    4.3219883    4.3219883    20348.882    11684.182    34730.356    14632.108    -3111.394    7835.0521   -1322.6731    80.732941 
     100    950.49962   -113.30944   0.86003203   -112.44941    18467.373    4.3434299    4.3434299    4.3434299    18467.373    946.47317    51467.129     2988.516   -5504.6097   -7848.2211      278.649     81.94047 
     200    1003.4141   -112.94307   0.90791016   -112.03516   -27674.127     4.377312     4.377312     4.377312   -27674.127   -63667.452    24129.834   -43484.763   -3367.9723   -802.46437    13944.916    83.873064 
     300    1862.8406    -113.3351    1.6855373   -111.64956   -14196.695    4.3772662    4.3772662    4.3772662   -14196.695   -19910.653    -3044.771   -19634.662    10636.505    8040.0169    7062.4193    83.870433 
     400     2102.167    -113.2705    1.9020849   -111.36842    14562.252    4.3514938    4.3514938    4.3514938    14562.252    21532.984     2904.839    19248.932   -3495.7548   -7032.1899   -11021.501    82.397706 
     500    996.29444   -112.10347   0.90146814     -111.202    24342.232    4.3547095    4.3547095    4.3547095    24342.232   -2959.7369     32716.46    43269.972   -16591.278   -11153.934    9066.4418    82.580513 
     600    1291.7425   -112.28372    1.1687958   -111.11492   -23083.962    4.3852411    4.3852411    4.3852411   -23083.962   -68058.552    19246.045    -20439.38    22046.424    22463.373   -5570.3398    84.329675 
     700    2366.4399   -113.18595    2.1412045   -111.04474   -17624.479    4.3934111    4.3934111    4.3934111   -17624.479   -27054.164   -4477.4303   -21341.843    14497.257    16138.191    4676.6042    84.801888 
     800    2007.0273   -112.84265    1.8160005   -111.02665    547.61643    4.3811293    4.3811293    4.3811293    547.61643   -21174.086   -730.77905    23547.714    -6505.416   -18947.655    29066.635    84.092684 
     900    1103.2186   -112.04434   0.99821535   -111.04612   -16988.169    4.3768606    4.3768606    4.3768606   -16988.169   -71785.271    20322.337    498.42829    17427.545    12211.666    -13023.96    83.847122 
    1000    1830.7763   -112.71003    1.6565249    -111.0535    1526.6857    4.3771594    4.3771594    4.3771594    1526.6857   -22319.067    43524.593   -16625.469   -3570.7319    3846.1171    61.930404    83.864294 
    1100    1904.8832   -112.78779    1.7235783   -111.06421   -27545.675    4.3894923    4.3894923    4.3894923   -27545.675   -19282.702    3786.3728   -67140.696   -1329.7679   -5630.3541    1899.8951     84.57517 
    1200    1137.1718   -112.10727    1.0289369   -111.07833   -35524.719    4.3819818    4.3819818    4.3819818   -35524.719    -49179.44    10815.263   -68209.978    14225.065    15702.387    4311.7645    84.141785 
    1300    1165.1751   -112.13903    1.0542749   -111.08476    14675.101    4.3577842    4.3577842    4.3577842    14675.101   -10849.416    46642.625    8232.0953   -5464.2143    -949.2437   -29073.808    82.755555 
    1400    2247.6172   -113.12719    2.0336913    -111.0935    13846.767    4.3600509    4.3600509    4.3600509    13846.767    -12155.23    39585.246    14110.287   -11264.825   -8689.5759    -3264.921    82.884759 
    1500    2234.7972   -113.12489    2.0220915    -111.1028     23725.65    4.3719095    4.3719095    4.3719095     23725.65   -830.30603    43124.647    28882.608    2312.0992    -741.0675    18260.724      83.5629 
    1600     1416.747    -112.3958    1.2819025    -111.1139   -18023.456    4.3884107    4.3884107    4.3884107   -18023.456   -31784.597   -37860.498    15574.727   -17517.679   -5973.4246   -7545.0898    84.512663 
    1700    1788.4991   -112.71026    1.6182715   -111.09199   -34183.722    4.3806888    4.3806888    4.3806888   -34183.722   -59904.472   -57224.619    14577.924   -1460.3622   -13986.061    -5312.501    84.067322 
    1800    2006.5267   -112.87813    1.8155475   -111.06259    52280.587    4.3518544    4.3518544    4.3518544    52280.587    18133.003    27525.148    111183.61   -979.17296   -7272.0387    16661.021    82.418189 
    1900    1755.6708   -112.68616    1.5885678   -111.09759   -3551.7311    4.3730106    4.3730106    4.3730106   -3551.7311   -11722.759   -19639.818    20707.383    -20612.57    877.74645   -7190.1974    83.626051 
    2000    1415.2349   -112.35868    1.2805343   -111.07814    -22601.07    4.3902864    4.3902864    4.3902864    -22601.07   -30491.552   -37910.026    598.36796   -5362.8115   -16706.666   -16675.067    84.621081 
    2100    1347.6897   -112.28993     1.219418   -111.07051    37204.514    4.3717827    4.3717827    4.3717827    37204.514    53582.459     45576.25    12454.832    7816.9982   -9398.4678    29624.075    83.555625 
    2200    2271.0925   -113.12926    2.0549322   -111.07433   -5412.6972    4.3706674    4.3706674    4.3706674   -5412.6972   -19009.584    41745.621   -38974.129    6577.8829    9827.8524    2421.9986    83.491697 
    2300    1856.1927    -112.7667    1.6795222   -111.08718    21149.275    4.3728566    4.3728566    4.3728566    21149.275    9348.3732    47294.037    6805.4135    -13691.62    -12240.39   -13924.365    83.617214 
    2400    1697.9511   -112.63042    1.5363419   -111.09407    8680.3394     4.393431     4.393431     4.393431    8680.3394   -4810.3714     43823.41   -12972.021    9926.9072   -14060.723    24616.034    84.803039 
    2500    2017.2367   -112.87051    1.8252381   -111.04527    -1650.804    4.4146087    4.4146087    4.4146087    -1650.804   -13536.869     48152.52   -39568.063    5420.8233    7639.4978    15974.902    86.035295 
    2600    1921.6649   -112.75735    1.7387628   -111.01858   -14206.734    4.3987292    4.3987292    4.3987292   -14206.734   -20651.648    21496.371   -43464.927    -11882.55   -13153.841   -5470.2975    85.110216 
    2700    916.01939    -111.8692    0.8288336   -111.04036   -5769.3025    4.3668733    4.3668733    4.3668733   -5769.3025    31307.306   -38672.852   -9942.3619    19107.605   -5429.4922    14599.291    83.274453 
    2800    1291.2841   -112.23013     1.168381   -111.06175    14540.742    4.3491075    4.3491075    4.3491075    14540.742    7122.9634    42251.001   -5751.7395     6080.331    20616.413    1971.1337     82.26222 
    2900    1663.3209   -112.60826    1.5050077   -111.10325    12813.867    4.3753302    4.3753302    4.3753302    12813.867   -26188.836    77986.144   -13355.706   -11404.646   -12356.998   -10953.382    83.759199 
    3000    1449.7995    -112.4075     1.311809   -111.09569   -24667.367      4.40281      4.40281      4.40281   -24667.367   -37724.523   -7716.9079    -28560.67    17246.423    1316.3949    11705.824    85.347312 
    3100    1030.0848   -111.99703   0.93204242   -111.06499     10460.44    4.3967885    4.3967885    4.3967885     10460.44    45821.449    27282.251    -41722.38    4538.8414    18485.757   -564.40328    84.997613 
    3200    2072.5054   -112.91155    1.8752464    -111.0363    7651.8951    4.3898324    4.3898324    4.3898324    7651.8951   -4679.8049    45039.015   -17403.525    -12227.04   -7493.0092   -15098.025    84.594828 
    3300    2039.6046   -112.88888    1.8454771    -111.0434    786.96908    4.3784603    4.3784603    4.3784603    786.96908   -25940.014    12638.251    15662.671    12739.446    8707.1008    9341.0284     83.93909 
    3400    1504.5354   -112.43234    1.3613353     -111.071    14338.863    4.3795003    4.3795003    4.3795003    14338.863     754.3654    22268.183    19994.039      5124.61    14404.152    17451.779    83.998914 
    3500    2376.1892   -113.20672     2.150026    -111.0567   -8361.9157    4.3959817    4.3959817    4.3959817   -8361.9157   -26453.613   -21877.321    23245.187   -5681.7159   -12160.905    9884.9022    84.950828 
    3600    2059.2659   -112.90235    1.8632671   -111.03909   -14528.165    4.3985785    4.3985785    4.3985785   -14528.165   -24432.379   -17884.641   -1267.4743    11939.836    11204.781    2004.8057    85.101465 
    3700    1801.4086   -112.64878    1.6299524   -111.01883   -8390.8059    4.3867751    4.3867751    4.3867751   -8390.8059    14823.451   -11441.287   -28554.581   -9841.6835   -4693.2949    23353.963    84.418206 
    3800    1459.8617   -112.34025    1.3209136   -111.01934    15761.898     4.379266     4.379266     4.379266    15761.898   -18330.591    38378.789    27237.496   -9088.6237    3278.9234    4497.1927    83.985432 
    3900    1803.3912   -112.66386    1.6317462   -111.03211   -10475.136    4.3859685    4.3859685    4.3859685   -10475.136   -24614.114   -12953.033    6141.7396    7682.0749    20414.406   -2975.3567    84.371646 
    4000    1656.4311   -112.54437    1.4987737   -111.04559     5053.033    4.3720142    4.3720142    4.3720142     5053.033    9714.4096     7798.377   -2353.6877    -12619.58   -5003.8586    19921.114    83.568902 
    4100    989.87915   -111.96917   0.89566345   -111.07351    16127.351    4.3679852    4.3679852    4.3679852    16127.351    28144.243    1554.9538    18682.856   -18276.411   -453.85177   -3210.5886    83.338075 
    4200    2281.1612   -113.12458    2.0640426   -111.06054   -15424.148    4.3816944    4.3816944    4.3816944   -15424.148   -31142.269    163.26031   -15293.436    8279.1317     15284.87     -5462.95    84.125227 
    4300    1768.1835   -112.66398    1.5998896    -111.0641    38153.829    4.3755679    4.3755679    4.3755679    38153.829    84784.772    30886.634   -1209.9199   -14710.767    5940.1596    24347.335    83.772848 
    4400    1773.0436   -112.67788    1.6042871   -111.07359   -15514.364    4.3897279    4.3897279    4.3897279   -15514.364    28203.152   -22000.147   -52746.097    -13378.93    23610.221    6499.1547    84.588789 
    4500    2550.5435   -113.35685    2.3077853   -111.04906   -7914.1264     4.382604     4.382604     4.382604   -7914.1264    9266.3059    24198.766   -57207.451     12069.43    13636.211   -11594.574    84.177631 
    4600    1788.9409   -112.66823    1.6186713   -111.04956     26723.86    4.3547453    4.3547453    4.3547453     26723.86    68590.893    23111.678   -11530.993    7904.8269   -13305.563     13626.24    82.582549 
    4700    1377.6855   -112.32779    1.2465588   -111.08123    5719.4571    4.3727453    4.3727453    4.3727453    5719.4571    40768.531      2670.77    -26280.93   -30603.513    5251.3638    11688.891    83.610833 
    4800    1961.2505   -112.81822    1.7745807   -111.04363   -31714.356    4.4049534    4.4049534    4.4049534   -31714.356   -38827.333   -22578.081   -33737.655    27492.994   -20579.635   -8307.8309    85.472019 
    4900    1021.5663   -111.94688   0.92433465   -111.02254   -22783.278    4.3962011    4.3962011    4.3962011   -22783.278    10106.516   -68250.436   -10205.915    1937.4891    6717.4536    24914.199    84.963552 
    5000    1500.6441   -112.36666    1.3578143   -111.00884    20480.983    4.3763915    4.3763915    4.3763915    20480.983    80421.343   -21740.417    2762.0225   -9367.5715    11779.662    3799.6346     83.82016 
    5100    2184.8444   -113.00606    1.9768931   -111.02917   -6361.2649    4.3555457    4.3555457    4.3555457   -6361.2649    12845.759   -22500.858    -9428.696    17210.414   -20403.955   -22987.342    82.628094 
    5200    1055.5037    -112.0255   0.95504193   -111.07045    47232.021    4.3495288    4.3495288    4.3495288    47232.021    78466.457    62030.623    1198.9843    1104.5791    924.53762    31750.876    82.286129 
    5300    2309.8478   -113.17176    2.0899989   -111.08176   -12659.026     4.390697     4.390697     4.390697   -12659.026    6254.6031     12560.97   -56792.652    12268.572   -5515.9921    4649.1328    84.644821 
    5400    1745.2913   -112.63374    1.5791763   -111.05456    2984.6116    4.3916052    4.3916052    4.3916052    2984.6116    22916.876    57104.474   -71067.516    7472.4934   -8083.2756   -22782.529    84.697358 
    5500    1719.8732   -112.59878    1.5561774    -111.0426    13018.708     4.363262     4.363262     4.363262    13018.708    45229.071   -668.43514   -5504.5118    825.26089    7730.8298    33887.253    83.068021 
    5600    2277.0529   -113.09788    2.0603253   -111.03755     34087.28    4.3600532    4.3600532    4.3600532     34087.28    53871.225    43883.634    4506.9808    13363.893   -1587.2657   -8870.7625    82.884888 
    5700    1697.7653   -112.60211    1.5361738   -111.06594   -14595.419    4.3778312    4.3778312    4.3778312   -14595.419    19723.051   -4869.7995   -58639.509    -1190.085     3403.051   -23537.653    83.902912 
    5800     1589.556   -112.50413    1.4382636   -111.06587   -10846.691    4.3858743    4.3858743    4.3858743   -10846.691    27691.351   -31232.091   -28999.335    17131.066    10853.068    43176.933    84.366209 
    5900    2254.7651   -113.08069    2.0401588   -111.04053    5890.8355    4.3790265    4.3790265    4.3790265    5890.8355   -7765.3587    18244.307    7193.5578   -8398.7071    491.49203   -12344.787    83.971655 
    6000    1284.9708   -112.22343    1.1626686   -111.06076   -4126.3484    4.3793628    4.3793628    4.3793628   -4126.3484   -11189.209    47568.016   -48757.852    11380.271    1518.8122   -10453.689    83.991005 
    6100    1150.2342   -112.11419    1.0407561   -111.07344   -26831.031     4.383778     4.383778     4.383778   -26831.031    21614.264   -14605.616   -87501.741    29889.845   -6974.9437    56014.178    84.245294 
    6200     1798.264   -112.67642     1.627107   -111.04931   -5062.9703    4.3743672    4.3743672    4.3743672   -5062.9703    4347.5804    25907.751   -45444.242   -33875.881   -3561.6211    -15825.01    83.703905 
    6300    1022.8527   -111.99276   0.92549863   -111.06726   -40587.112    4.3749635    4.3749635    4.3749635   -40587.112    6947.8739   -55076.497   -73632.712   -9271.8921    6103.7959    10488.174     83.73814 
    6400    1331.0953   -112.26793     1.204403   -111.06353   -17547.381    4.3683809    4.3683809    4.3683809   -17547.381    12745.176   -9624.4421   -55762.876    25334.645    2627.2742    35015.319    83.360727 
    6500    2030.4769   -112.90241    1.8372182   -111.06519    7408.7996    4.3721654    4.3721654    4.3721654    7408.7996    8801.5027    43072.562   -29647.666   -36515.079    8437.1382   -13397.749    83.577572 
    6600    1259.8368   -112.22334    1.1399268   -111.08342    16335.789    4.3885461    4.3885461    4.3885461    16335.789    42446.671    26643.453   -20082.757   -10558.146   -269.60353    30895.178    84.520487 
    6700    1875.2623   -112.75845    1.6967768   -111.06167    11284.821    4.4129474    4.4129474    4.4129474    11284.821    23146.565     25064.71   -14356.813   -12329.833   -5394.4565   -5695.0541    85.938199 
    6800    1776.8195   -112.62996    1.6077037   -111.02226   -36928.621    4.4250533    4.4250533    4.4250533   -36928.621    -20935.88   -50096.269   -39753.713   -9646.3584   -15258.809    11953.209    86.647399 
    6900    1768.6908   -112.59677    1.6003486   -110.99642   -18818.668    4.3896289    4.3896289    4.3896289   -18818.668    71301.058   -61219.957   -66537.104   -5097.7731     3425.928    38099.094    84.583065 
    7000    2582.2129   -113.32201    2.3364405   -110.98557    8137.9118    4.3714284    4.3714284    4.3714284    8137.9118    15344.419    19626.146    -10556.83    22836.826    -724.2447   -7774.4047    83.535314 
    7100    1477.0051   -112.37794    1.3364253   -111.04151   -9632.8653    4.3940349    4.3940349    4.3940349   -9632.8653    19963.595   -17005.608   -31856.583   -3467.2806    9694.1418     49284.36    84.838015 
    7200    1948.6742   -112.79531    1.7632014    -111.0321   -32206.393    4.4182168    4.4182168    4.4182168   -32206.393   -44453.063    6462.7542   -58628.869    6808.4215   -2494.0891    10983.957    86.246418 
    7300    2093.8262   -112.90914    1.8945379    -111.0146   -27438.495    4.4025902    4.4025902    4.4025902   -27438.495   -2733.3834   -37040.425   -42541.675    11090.778   -10569.868    11876.999    85.334526 
    7400    1464.2284   -112.32822    1.3248646   -111.00336    18543.211    4.3605715    4.3605715    4.3605715    18543.211      37358.2    3030.7166    15240.716   -310.99583   -14798.238    47752.577    82.914453 
    7500    1900.9511   -112.75507    1.7200205   -111.03505    47012.655    4.3630304    4.3630304    4.3630304    47012.655    40564.634    31070.576    69402.757   -12402.112   -11696.481   -35230.835    83.054796 
    7600    1144.6481   -112.09333    1.0357017   -111.05763   -28791.294     4.411691     4.411691     4.411691   -28791.294   -13549.646    -57544.55   -15279.685   -4527.2875   -15685.804    39059.604    85.864817 
    7700    1219.3979    -112.1159    1.1033368   -111.01256   -18394.346    4.4157767    4.4157767    4.4157767   -18394.346   -16010.281   -18449.186   -20723.572   -14688.318    -2506.633    23993.977      86.1036 
    7800    1802.9055   -112.61508    1.6313068   -110.98377    16047.635    4.3810286    4.3810286    4.3810286    16047.635    3465.1006     20821.25    23856.555   -6050.9311    2215.6749    -11954.24    84.086887 
    7900    1041.1342   -111.95348   0.94204014   -111.01144    16364.435    4.3661129    4.3661129    4.3661129    16364.435    66128.967     -35354.2    18318.539    10012.163   -10919.972    54957.851    83.230958 
    8000    1989.8251   -112.84202    1.8004356   -111.04158    297.67424    4.3715872    4.3715872    4.3715872    297.67424     -10667.3     23913.58   -12353.257   -19098.619     10446.87    7396.7375    83.544419 
    8100    1949.4195   -112.81945    1.7638757   -111.05557    19069.241    4.3812362    4.3812362    4.3812362    19069.241    17109.812    6744.1571    33353.753    1387.6973   -5062.1534    5385.3545    84.098839 
    8200    1957.1585   -112.81985    1.7708781   -111.04897    592.69616    4.3884413    4.3884413    4.3884413    592.69616    4744.4976   -31681.551    28715.142    12069.726    9356.7871    53863.483     84.51443 
    8300    2527.3386   -113.31017    2.2867891   -111.02338   -125.57775    4.3875274    4.3875274    4.3875274   -125.57775    -17762.49    17795.503   -409.74639   -14692.972    18765.607    -7129.079    84.461642 
    8400    1564.3278   -112.44435    1.4154366   -111.02891    8557.9506    4.3811013    4.3811013    4.3811013    8557.9506    76564.176   -34245.442   -16644.882    -6390.629   -4182.9094    30100.178    84.091071 
    8500    2002.8754   -112.83949    1.8122438   -111.02725    10888.958    4.3766214    4.3766214    4.3766214    10888.958    12879.265   -14219.387    34006.995   -4101.9089    11845.732     9039.913    83.833373 
    8600    1586.7945   -112.47367     1.435765    -111.0379   -6777.4649    4.3821913    4.3821913    4.3821913   -6777.4649   -1842.3212   -37645.072    19154.999   -3184.1224   -11057.755    555.91506    84.153854 
    8700    919.82307   -111.87306   0.83227525   -111.04079   -10322.862    4.3842075    4.3842075    4.3842075   -10322.862    13158.354   -34353.834   -9773.1051    4326.3063    -4763.784    44871.513    84.270059 
    8800    1388.2767   -112.28259    1.2561419   -111.02645    -1017.559    4.3881369    4.3881369    4.3881369    -1017.559   -62946.457    17678.884    42214.896   -7180.4938   -13808.028   -14621.992    84.496849 
    8900    1274.2636   -112.18036    1.1529805   -111.02738    7271.5569    4.3893319    4.3893319    4.3893319    7271.5569   -2077.9741    5011.0226    18881.622   -10906.211   -4288.5573    2638.9562    84.565896 
    9000    1329.7316   -112.23155    1.2031691   -111.02838    13731.108    4.3909479    4.3909479    4.3909479    13731.108    31034.066     28653.24    -18493.98   -463.94382    2416.0752    22849.336    84.659333 
    9100    2028.9722   -112.86374    1.8358567   -111.02788    5315.1798    4.3901903    4.3901903    4.3901903    5315.1798   -57941.212    66127.149    7759.6021   -3305.4622   -7834.3912   -20400.849    84.615519 
    9200    1881.5795   -112.73658    1.7024927   -111.03409    34674.181    4.3772955    4.3772955    4.3772955    34674.181    25262.888    35723.142    43036.514    -2380.729    7651.7823    6236.4461    83.872114 
    9300    1457.5534   -112.37929     1.318825   -111.06047    6061.4357    4.3858034    4.3858034    4.3858034    6061.4357    17263.663    3747.2324    -2826.588    8869.1821   -1457.0338    31238.128    84.362121 
    9400    2055.4204   -112.90714    1.8597876   -111.04736   -15319.007    4.3913505    4.3913505    4.3913505   -15319.007   -59124.411    18949.809   -5782.4179    3108.1173    -16195.27   -16360.039    84.682626 
    9500    1704.3108   -112.57268    1.5420962   -111.03058    21878.784     4.378356     4.378356     4.378356    21878.784    8471.8912    6786.6717    50377.789   -4244.7281     13616.84    11815.112    83.933092 
    9600    1148.8835   -112.09402    1.0395339   -111.05448   -26461.828     4.387569     4.387569     4.387569   -26461.828    2747.0876   -48563.148   -33569.424    8229.7228   -1752.2841    27727.599    84.464048 
    9700     1826.948   -112.68965    1.6530609   -111.03659   -2196.1016    4.3829603    4.3829603    4.3829603   -2196.1016   -12346.028   -15227.105    20984.828    4848.1507   -125.84569   -13005.178    84.198163 
    9800    1327.3428   -112.23925    1.2010077   -111.03824    29119.459    4.3702005    4.3702005    4.3702005    29119.459    35608.522    6503.5093    45246.345    3103.7246    7516.9851    37851.744    83.464939 
    9900     1224.394   -112.16269    1.1078574   -111.05484   -44148.556    4.3912052    4.3912052    4.3912052   -44148.556   -25792.963   -37496.509   -69156.197    9028.2834   -501.09111   -5418.6778    84.674218 
   10000    2132.6916   -112.96389    1.9297041   -111.03418    3305.1273    4.3720952    4.3720952    4.3720952    3305.1273   -32.482906     384.9555    9562.9092   -8165.4124     3280.392   -17096.649    83.573548 
   10100    1253.5886   -112.18038    1.1342733   -111.04611    41571.841    4.3542405    4.3542405    4.3542405    41571.841    62867.192    50895.125    10953.206    4157.8876   -7118.3131    55882.297     82.55383 
   10200    1857.1153   -112.74254     1.680357   -111.06219   -22925.092    4.3910814    4.3910814    4.3910814   -22925.092    236.22453   -15710.035   -53301.465    -2850.182    501.02906   -14223.616    84.667057 
   10300    1986.2734   -112.83208     1.797222   -111.03485    8923.2162    4.3870862    4.3870862    4.3870862    8923.2162    29322.041    14436.466   -16988.859    1768.7943    13157.233    16134.809    84.436166 
   10400    1325.0599   -112.23889    1.1989421   -111.03995    30413.831    4.3802487    4.3802487    4.3802487    30413.831    38856.847    14661.529    37723.116    8624.9315   -8332.7535     42944.01    84.041985 
   10500    2292.5695   -113.09838    2.0743651   -111.02401   -20960.305    4.3966407    4.3966407    4.3966407   -20960.305   -33350.839    7383.9393   -36914.015    -8201.815    19993.922    -15027.84    84.989039 
   10600    1239.0929   -112.15641    1.1211573   -111.03525    14209.919    4.3705111    4.3705111    4.3705111    14209.919    106161.71    -25076.34   -38455.609    15750.106   -6161.4581    68204.829    83.482735 
   10700    2275.4281   -113.09369    2.0588552   -111.03483    13352.503    4.3655032    4.3655032    4.3655032    13352.503    14902.373    29529.366   -4374.2289   -18672.508     12461.33     4179.486    83.196095 
   10800     1677.829   -112.56246     1.518135   -111.04432   -29250.411    4.3927654    4.3927654    4.3927654   -29250.411    27387.051   -39498.674   -75639.611    1618.1567   -2074.7058    45500.781    84.764503 
   10900    1693.9192   -112.57031    1.5326937   -111.03762    -19143.76    4.3777744    4.3777744    4.3777744    -19143.76    23957.276   -51813.961   -29574.597    -4715.116    6053.9911    64759.034    83.899647 
   11000    2277.2701    -113.0849    2.0605218   -111.02437    2313.4749    4.3712184    4.3712184    4.3712184    2313.4749    12896.882   -9310.6674    3354.2098    3727.9256    -7174.725   -24346.903    83.523277 
   11100    925.62079   -111.89741   0.83752114   -111.05988   -37393.298    4.3816993    4.3816993    4.3816993   -37393.298    28576.715    -69852.09   -70904.519   -6647.4619   -4491.4992    84422.503    84.125512 
   11200    1841.9567   -112.72191    1.6666411   -111.05527     11757.42    4.3680144    4.3680144    4.3680144     11757.42    44830.285    6064.5282   -15622.553    12081.833   -7803.8032    1465.2915    83.339749 
   11300    1363.0936   -112.29939    1.2333557   -111.06603    6820.2355    4.3640432    4.3640432    4.3640432    6820.2355    68270.386   -20410.337   -27399.343    7006.2748    1912.2329    23290.496    83.112649 
   11400    1169.5369   -112.13518    1.0582216   -111.07696   -12779.901    4.3776851    4.3776851    4.3776851   -12779.901    56319.387   -19486.099   -75172.991   -715.74679   -12371.209    46684.298    83.894515 
   11500    2013.0973   -112.86351    1.8214927   -111.04202    7454.1156    4.3904334    4.3904334    4.3904334    7454.1156    42849.721    295.66803   -20783.042    3541.3795    6355.6907   -19591.852    84.629578 
   11600    1203.2948   -112.13195    1.0887664   -111.04319   -13805.021    4.3947194    4.3947194    4.3947194   -13805.021    35665.546   -93480.943    16400.335    3817.8521    16067.638    66913.252    84.877671 
   11700    2242.5402   -113.05211    2.0290975   -111.02301    12191.741    4.3729966    4.3729966    4.3729966    12191.741    49674.683   -37496.295    24396.836    4651.2145    -11844.82    1579.3411    83.625246 
   11800    1832.0591   -112.68598    1.6576856   -111.02829    34726.315    4.3531831    4.3531831    4.3531831    34726.315    61629.364    28980.506    13569.075   -16307.547    -8729.272    37256.359    82.493701 
   11900    1749.4547   -112.65218    1.5829434   -111.06924    5280.6006     4.380683     4.380683     4.380683    5280.6006    66016.742   -50608.053    433.11223    6287.5039   -4989.1576    35595.339    84.066986 
   12000    2429.6904   -113.22998    2.1984349   -111.03155   -25241.182    4.4027678    4.4027678    4.4027678   -25241.182   -6824.0301   -23307.723   -45591.793   -7171.7635    3936.8929   -22322.187    85.344857 
   12100    1042.3766   -111.98882   0.94316428   -111.04565   -33007.366    4.3857663    4.3857663    4.3857663   -33007.366    27982.171    -48391.74   -78612.529    315.04915    268.31852    69499.224     84.35998 
   12200    1994.6386   -112.82931    1.8047909   -111.02452    7377.5019    4.3613157    4.3613157    4.3613157    7377.5019    26679.652    25325.828   -29872.974    4129.0986     22465.24    359.38423    82.956914 
   12300    1517.4096   -112.42066    1.3729841   -111.04767   -4699.6226    4.3650947    4.3650947    4.3650947   -4699.6226    22001.932   -13358.992   -22741.808    14033.182   -17277.309    27179.833    83.172739 
   12400    774.41671   -111.77541   0.70070852    -111.0747   -11052.534    4.3857533    4.3857533    4.3857533   -11052.534    8577.9576    12316.704   -54052.265   -9902.8813    3423.7773    54252.534    84.359229 
   12500    2428.9389   -113.23804     2.197755   -111.04028   -10290.144    4.3910764    4.3910764    4.3910764   -10290.144    495.79883   -14040.026   -17326.206   -4969.0831     20857.73   -16918.602    84.666769 
   12600    1343.7076   -112.26077    1.2158149   -111.04496    6821.2696    4.3741075    4.3741075    4.3741075    6821.2696    36839.917   -3217.3182    -13158.79    2347.0559   -17589.628    62367.616    83.688996 
   12700    2117.7355   -112.95295    1.9161716   -111.03677    10716.129    4.3674181    4.3674181    4.3674181    10716.129   -21225.684    34913.489    18460.582   -14250.522   -105.86476    6446.5111    83.305623 
   12800    2393.8793   -113.20925    2.1660323   -111.04322    -19287.69    4.3820838    4.3820838    4.3820838    -19287.69   -4595.8283   -27420.183   -25847.058    11549.846   -6798.3706    10899.568    84.147659 
   12900    1008.8768    -111.9693   0.91285296   -111.05644   -15503.591    4.3731165    4.3731165    4.3731165   -15503.591    34300.374   -7416.0096   -73395.137   -3388.2649   -11550.956    77220.022    83.632125 
   13000    2223.5947   -113.04345    2.0119552   -111.03149    7525.4705    4.3603075    4.3603075    4.3603075    7525.4705    10812.747      17615.5   -5851.8352   -2165.6137   -7390.0119   -20636.866    82.899393 
   13100    1147.3034   -112.10228    1.0381042   -111.06418   -26905.494    4.3784387    4.3784387    4.3784387   -26905.494    29214.112   -30288.769   -79641.824    -1930.524   -4823.7154    66702.535    83.937848 
   13200    1290.7061   -112.22881     1.167858   -111.06095   -14581.075    4.3773852    4.3773852    4.3773852   -14581.075    5103.2097    27752.076   -76598.512   -11876.008    4674.1824    30824.657    83.877269 
   13300    2084.2174   -112.93934    1.8858437   -111.05349   -1586.3559    4.3737713    4.3737713    4.3737713   -1586.3559   -21759.309    9311.1513      7689.09    6658.8222   -15885.174   -32076.822    83.669698 
   13400    1062.3204    -112.0324   0.96120984   -111.07119    13150.726    4.3738318    4.3738318    4.3738318    13150.726    13145.408    26368.288   -61.517224   -2326.0757   -13949.041    66201.797    83.673174 
   13500    2419.3699     -113.241    2.1890967    -111.0519    1046.6797    4.3799221    4.3799221    4.3799221    1046.6797   -25532.446   -7474.6622    36147.148   -10296.205   -1087.2973    16629.404     84.02319 
   13600    1717.2225   -112.60408     1.553779    -111.0503    12261.826    4.3833865    4.3833865    4.3833865    12261.826   -17697.577    31833.582    22649.474   -3694.1779   -12383.986    14888.151    84.222725 
   13700    1506.5966   -112.40541    1.3632003   -111.04221    219.06193    4.3778579    4.3778579    4.3778579    219.06193    6225.6124   -6675.3363    1106.9096    8155.6567    8094.4114    53531.968    83.904445 
   13800    2196.6341   -113.01716    1.9875607    -111.0296    8839.5626    4.3816798    4.3816798    4.3816798    8839.5626   -20309.477    35891.903    10936.262   -13627.448    11102.168    -19653.72    84.124385 
   13900    939.34077   -111.89329   0.84993527   -111.04335   -9490.9111    4.3935874    4.3935874    4.3935874   -9490.9111    9751.4208     19186.38   -57410.535     112.7162    -10295.83    57319.661    84.812098 
   14000    1649.6556   -112.52178    1.4926431   -111.02914   -21234.974    4.3924455    4.3924455    4.3924455   -21234.974     853.4185   -8563.0691   -55995.273    7169.6073    4712.2871    17568.634    84.745987 
   14100     2099.395   -112.92501    1.8995768   -111.02543    1392.2816     4.372798     4.372798     4.372798    1392.2816    15600.205    8553.0572   -19976.418    3594.2554    -15511.44   -24360.815    83.613854 
   14200     1122.534   -112.06472    1.0156924   -111.04903    26473.551    4.3610888    4.3610888    4.3610888    26473.551    48916.878    8384.0735    22119.702    4819.6592   -15078.548    82115.097    82.943965 
   14300     2533.272   -113.34252    2.2921578   -111.05036    11925.571    4.3788584    4.3788584    4.3788584    11925.571   -3876.5787     17664.43    21988.861   -1946.3997    7427.7441   -5521.7406    83.961987 
   14400    1732.9903   -112.62008    1.5680461   -111.05204    6299.3192    4.3867683    4.3867683    4.3867683    6299.3192    31635.125   -9763.8543   -2973.3129    12984.027   -1464.1734     25565.42    84.417812 
   14500    1875.5146   -112.72629    1.6970051   -111.02929    12963.712    4.3819135    4.3819135    4.3819135    12963.712    32077.656   -3419.1607    10232.641   -11221.023    21945.953    18930.284     84.13785 
   14600    1874.7768   -112.70271    1.6963374   -111.00637   -19319.658    4.3910909    4.3910909    4.3910909   -19319.658   -6299.0241   -12703.967   -38955.983   -7996.6858    11325.648    -2278.327    84.667604 
   14700    934.23569   -111.86828   0.84531609   -111.02296   -37955.072    4.3751015    4.3751015    4.3751015   -37955.072    22853.445   -44933.499   -91785.161    8752.6292   -2893.4283    74750.946    83.746061 
   14800    2172.4994   -112.97779    1.9657231   -111.01207    11263.559    4.3582251    4.3582251    4.3582251    11263.559    3512.4753    21392.215    8885.9876   -3057.1522    7934.2271    -10098.88    82.780677 
   14900    946.31782   -111.91519   0.85624825   -111.05894   -18244.065     4.377288     4.377288     4.377288   -18244.065   -3443.4494    -20032.62   -31256.125   -10740.961   -5625.0738    39933.746    83.871682 
   15000    1041.4049   -112.00245   0.94228499   -111.06016    -3859.172    4.3856573    4.3856573    4.3856573    -3859.172    17288.471    5669.0083   -34534.995   -8613.0722    10567.657    42466.506    84.353688 
   15100    2582.1716   -113.36428    2.3364032   -111.02788    2072.4687    4.3778005    4.3778005    4.3778005    2072.4687   -2405.3885   -3527.3288    12150.124   -4409.9104   -303.78344   -12215.468    83.901145 
   15200    1138.3064   -112.07648    1.0299636   -111.04652    2321.7278    4.3748181    4.3748181    4.3748181    2321.7278    7504.2789   -36780.935     36241.84   -6111.0626   -87.216493     73331.92    83.729787 
   15300    2027.7025   -112.87331    1.8347078    -111.0386   -7218.9212     4.385431     4.385431     4.385431   -7218.9212     -94.0697   -14383.593   -7179.1004   -2964.8058    12470.405     8999.226    84.340631 
   15400     1822.765   -112.67976    1.6492761   -111.03048   -4836.7314    4.3823702    4.3823702    4.3823702   -4836.7314    10210.598    -30765.63    6044.8382    5645.5572    13856.313    16947.114     84.16416 
   15500    1570.8216   -112.46362    1.4213124   -111.04231    3183.8336    4.3816288    4.3816288    4.3816288    3183.8336    46223.618    -52462.56    15790.442   -13284.552   -1333.3176    20145.062    84.121451 
   15600    2040.4953   -112.88716     1.846283   -111.04088   -9356.3489     4.383915     4.383915     4.383915   -9356.3489    49215.934    -20869.68     -56415.3   -4528.9685    6759.4122   -9689.7756    84.253194 
   15700     1336.166   -112.25853    1.2089911   -111.04954   -22990.727     4.368944     4.368944     4.368944   -22990.727    31345.679   -36182.278   -64135.581    16154.263    19121.711    50828.203    83.392968 
   15800    1881.2559   -112.75012    1.7021999   -111.04792    25910.581    4.3773139    4.3773139    4.3773139    25910.581    69780.715   -6647.5434    14598.571    15385.496   -10254.969   -6484.0987    83.873173 
   15900    1236.5337   -112.16516    1.1188417   -111.04631   -30837.983    4.4016201    4.4016201    4.4016201   -30837.983    59595.692   -76401.871   -75707.769   -4673.9843   -4615.9187    49561.545    85.278129 
   16000    1751.0355   -112.60337    1.5843737     -111.019   -11293.131    4.3768791    4.3768791    4.3768791   -11293.131    16088.905    -23951.37   -26016.928   -1029.8894    2639.5148     22441.52    83.848183 
   16100    2507.3338   -113.27506    2.2686883   -111.00637    4722.1106    4.3653521    4.3653521    4.3653521    4722.1106    9675.4856   -19496.448    23987.294    2637.8064   -2753.5438    -12836.06    83.187452 
   16200    918.42933   -111.88053   0.83101415   -111.04951   -36045.087    4.3913885    4.3913885    4.3913885   -36045.087     42749.84   -69307.829   -81577.273    759.87404   -6756.2658    65380.556    84.684822 
   16300    1798.3453   -112.65201    1.6271807   -111.02483    -9707.609     4.379612     4.379612     4.379612    -9707.609   -25790.813    22910.541   -26242.555    -5187.769     11504.57   -17019.827    84.005341 
   16400    1222.7214   -112.15212     1.106344   -111.04578    3663.9938     4.377803     4.377803     4.377803    3663.9938    8210.2948   -15454.843     18236.53    17988.577   -2754.6038    19552.365     83.90129 
   16500    1365.7243    -112.2829    1.2357361   -111.04716   -37432.477     4.392948     4.392948     4.392948   -37432.477    1989.4326   -54539.116   -59747.746     2659.442   -370.98142    47219.595    84.775077 
   16600    1984.8138     -112.823    1.7959012    -111.0271    17132.868    4.3766563    4.3766563    4.3766563    17132.868    33580.776    37046.279   -19228.451   -4821.8075      8455.56   -30456.416    83.835376 
   16700    1323.0273   -112.25134    1.1971029   -111.05424   -21716.371     4.377139     4.377139     4.377139   -21716.371    45198.611   -73190.496   -37157.227    13798.391    5171.5362      54011.8     83.86312 
   16800    2288.7968    -113.1218    2.0709514   -111.05085   -19570.787    4.3872752    4.3872752    4.3872752   -19570.787    21695.772   -48983.586   -31424.547    20472.469    357.85294    12523.077     84.44708 
   16900    2007.4503   -112.86192    1.8163832   -111.04554     1194.854     4.388023     4.388023     4.388023     1194.854     32750.58   -33399.603    4233.5845    -5166.379   -9788.9206     2110.733    84.490269 
   17000    1503.8377   -112.41147    1.3607039   -111.05076   -13911.197    4.3856817    4.3856817    4.3856817   -13911.197    27733.447   -46621.081   -22845.958   -231.79802   -2836.4151    50006.056    84.355099 
   17100     1929.543   -112.78301     1.745891   -111.03712    5946.3264    4.3794398    4.3794398    4.3794398    5946.3264      37957.7    4732.5254   -24851.246    3752.4056    -5872.906   -19924.126    83.995436 
   17200    756.55621   -111.75583   0.68454796   -111.07128     35838.58    4.3774349    4.3774349    4.3774349     35838.58    40357.895    55347.449    11810.396    -654.7229   -3592.9326    42555.371    83.880127 
   17300    1758.4128   -112.65915    1.5910488    -111.0681    1101.7298    4.4008322    4.4008322    4.4008322    1101.7298    50481.804   -4500.5217   -42676.093    1317.3602    1365.7128   -10907.053    85.232341 
   17400    1614.2363   -112.49718     1.460595   -111.03659   -5973.2673    4.4053443    4.4053443    4.4053443   -5973.2673   -19674.657   -4767.2296    6522.0846   -3726.4547    1832.9648   -1782.2133    85.494776 
   17500    1612.9325   -112.48365    1.4594152   -111.02424   -6618.8146     4.390531     4.390531     4.390531   -6618.8146    -1154.346    -21119.83    2417.7323    -3226.313    6594.2067    42542.131    84.635222 
   17600    2404.9536    -113.2022    2.1760525   -111.02615    23688.922    4.3797717    4.3797717    4.3797717    23688.922    54573.484   -659.71391    17152.995    21048.136   -23174.703   -31241.918    84.014535 
   17700    1286.8484   -112.22206    1.1643675   -111.05769    31551.467    4.3722447    4.3722447    4.3722447    31551.467      76556.4    12705.112    5392.8888   -15852.802   -6171.5739    55576.603     83.58212 
   17800    1852.4039   -112.75119     1.676094    -111.0751   -2469.4857    4.3860211    4.3860211    4.3860211   -2469.4857    59658.593   -44209.051       -22858   -479.13886   -19381.368    15431.759    84.374681 
   17900    1845.8109   -112.72774    1.6701285   -111.05762    15262.459    4.3903461    4.3903461    4.3903461    15262.459    64056.219    -49890.66    31621.819    3891.4376    8339.6755   -10180.991    84.624531 
   18000    1578.0075   -112.48201    1.4278143    -111.0542    12742.171     4.377334     4.377334     4.377334    12742.171     48918.09   -5969.4136   -4722.1618   -10902.988   -7630.4095    60901.635     83.87433 
   18100    2423.3435   -113.23576    2.1926921   -111.04307    24267.295    4.3788017    4.3788017    4.3788017    24267.295    56224.035   -10169.724    26747.575    -16521.05    18454.741   -16935.344    83.958727 
   18200    1226.9065   -112.17186    1.1101308   -111.06173    839.30582     4.385336     4.385336     4.385336    839.30582    37969.555   -31296.052   -4155.5851   -1514.2087   -12080.475    50489.753    84.335149 
   18300     1630.458    -112.5326    1.4752726   -111.05732   -9482.7767    4.3925259    4.3925259    4.3925259   -9482.7767    -22831.65    17555.794   -23172.474    -16816.48    8662.5121    7283.9264    84.750639 
   18400    2025.5593   -112.86977    1.8327687     -111.037    -10961.35    4.3927588    4.3927588    4.3927588    -10961.35    7407.2689   -28258.222   -12033.096   -7663.5026     11670.09    1556.0593    84.764122 
   18500    876.19105   -111.83778   0.79279607   -111.04498    29207.151    4.3686804    4.3686804    4.3686804    29207.151    107720.06   -19099.055   -999.55012   -979.43039   -21657.515    52194.052    83.377878 
   18600    1815.1959   -112.69406    1.6424274   -111.05164    14335.911    4.3696138    4.3696138    4.3696138    14335.911   -6979.6827    15756.137    34231.278   -14256.675    23259.298   -22493.874    83.431331 
   18700    1387.6702   -112.32221    1.2555932   -111.06662   -31913.432    4.3986369    4.3986369    4.3986369   -31913.432   -462.75009   -52412.231   -42865.315    1355.2742   -4751.2502    43746.328    85.104853 
   18800     1679.623   -112.56781    1.5197582   -111.04805   -28488.756       4.3924       4.3924       4.3924   -28488.756    13627.325    -55929.41   -43164.184   -12766.651    840.59762    26971.723    84.743357 
   18900    1877.8166   -112.73286    1.6990879   -111.03377    31618.261    4.3812493    4.3812493    4.3812493    31618.261    60632.375    21424.205    12798.203    16020.639    -5094.019   -26527.113    84.099595 
   19000    1428.2264   -112.35151    1.2922893   -111.05922   -22592.256    4.4008898    4.4008898    4.4008898   -22592.256    48704.857   -44736.883   -71744.741   -5901.3816    1661.8793    59533.545    85.235689 
   19100    2222.4812   -113.04377    2.0109477   -111.03282   -23770.748    4.3939513    4.3939513    4.3939513   -23770.748    8799.6507    -23105.69   -57006.204    4953.4367    6379.2152    9250.7338    84.833176 
   19200    2194.2648   -113.00832    1.9854169    -111.0229   -2121.3948    4.3772901    4.3772901    4.3772901   -2121.3948    35122.026   -12203.309   -29282.901    2366.1982    179.39761    1611.7891    83.871807 
   19300     1653.778   -112.55542    1.4963731   -111.05905   -38639.865    4.3920702    4.3920702    4.3920702   -38639.865    26592.132   -83271.614   -59240.112    3705.9995    -3627.324    69043.034    84.724267 
   19400    1911.8283   -112.77579    1.7298624   -111.04593    38648.718    4.3931769    4.3931769    4.3931769    38648.718    99119.307   -4118.6643    20945.512    3164.6245    10715.789   -6416.6114    84.788329 
   19500    1448.2743   -112.37944     1.310429   -111.06901   -14202.174    4.4031812    4.4031812    4.4031812   -14202.174    3161.5141   -56000.441    10232.406    13161.063   -8085.4833    41215.341    85.368895 
   19600    2118.2691   -112.98002    1.9166544   -111.06337    -42805.55     4.408781     4.408781     4.408781    -42805.55    -56626.72   -54277.587   -17512.342   -17873.896    4197.0396    17488.463    85.695021 
   19700    1418.4924   -112.33445    1.2834818   -111.05097    51818.137    4.3832332    4.3832332    4.3832332    51818.137    99350.729   -17493.428    73597.109   -3361.7488    11201.788    5663.9534    84.213891 
   19800    1498.7759   -112.42705    1.3561239   -111.07093   -2650.9809     4.378914     4.378914     4.378914   -2650.9809    11235.528   -14120.697   -5067.7744   -1225.6279     5085.447    66859.178    83.965183 
   19900    1843.9543   -112.73489    1.6684486   -111.06644   -13637.225    4.3946329    4.3946329    4.3946329   -13637.225   -35695.264    16410.621   -21627.033    20861.826   -18024.551   -14316.965     84.87266 
   20000    881.71015   -111.86187   0.79778987   -111.06408    41517.724    4.3889451    4.3889451    4.3889451    41517.724    105798.15   -25373.324    44128.342      -8672.3   -17725.047    37468.834    84.543543 
   20100    1844.7718   -112.74619    1.6691883     -111.077   -5591.9705    4.3942795    4.3942795    4.3942795   -5591.9705    15990.982   -15808.655   -16958.238    8327.5317   -19913.749     18646.61    84.852187 
   20200    1880.4805   -112.77673    1.7014983   -111.07523   -10444.341    4.3964919    4.3964919    4.3964919   -10444.341   -30459.637    13290.886   -14164.273   -12294.348    4720.9529   -2424.9843    84.980411 
   20300    1229.1423   -112.18919    1.1121538   -111.07704    12929.163    4.3891659    4.3891659    4.3891659    12929.163    67506.174   -43274.641    14555.956    4246.6736    15259.112    21006.491    84.556306 
   20400    2257.5167   -113.09688    2.0426485   -111.05423    13108.704    4.3884432    4.3884432    4.3884432    13108.704    18492.925    9445.2368    11387.949   -24687.413   -2117.7992   -22039.477     84.51454 
   20500    1078.7029   -112.04527    0.9760331   -111.06924    9301.1193    4.4096612    4.4096612    4.4096612    9301.1193    29427.961    7632.3375   -9156.9406    9949.1173   -4860.5678    28069.795    85.746357 
   20600    2329.5188   -113.11913    2.1077976   -111.01133   -30430.726    4.4151577    4.4151577    4.4151577   -30430.726    -21865.32    -26924.69   -42502.168    5603.0087    19473.634    21150.494    86.067394 
   20700     1468.328    -112.3381    1.3285741   -111.00953   -14455.192    4.3897507    4.3897507    4.3897507   -14455.192   -42490.367   -28396.139    27520.931    1611.0117     2811.532   -10430.213    84.590104 
   20800    1422.9759   -112.32143    1.2875385   -111.03389    8101.1641    4.3760131    4.3760131    4.3760131    8101.1641    31692.546   -4191.1639   -3197.8903    2690.0498    7003.1422    28253.153    83.798423 
   20900    1885.8532   -112.75332    1.7063596   -111.04696    26554.107    4.3832749    4.3832749    4.3832749    26554.107     4994.898    15683.423        58984     7541.291    4511.6407   -10257.645    84.216294 
   21000    1098.5374   -112.06158   0.99397975    -111.0676   -27769.648    4.3962252    4.3962252    4.3962252   -27769.648   -81838.857   -291.04852   -1179.0374   -1494.0441   -8813.4423    1516.3238    84.964949 
   21100    1626.5363   -112.52164    1.4717242   -111.04991   -17470.381    4.4064842    4.4064842    4.4064842   -17470.381   -23342.384   -23104.423   -5964.3352   -16990.903   -393.83366    19958.429    85.561157 
   21200    1832.2912   -112.68104    1.6578956   -111.02315   -9715.6401    4.4117532    4.4117532    4.4117532   -9715.6401   -39796.852    11518.978     -869.047    19872.098   -3422.6743   -10899.057    85.868452 
   21300    1832.3377   -112.66706    1.6579376   -111.00912    -11908.55    4.4033863    4.4033863    4.4033863    -11908.55   -27814.046    1946.9982   -9858.6022    1618.7414   -8089.3478    29174.446    85.380829 
   21400    2202.6723   -113.00097    1.9930242   -111.00795    1186.6413    4.4041018    4.4041018    4.4041018    1186.6413   -27613.105   -976.74072     32149.77   -9338.3677    4521.4489    7461.2067    85.422457 
   21500    1615.4648   -112.47972    1.4617065   -111.01802   -16996.253    4.4122588    4.4122588    4.4122588   -16996.253   -51818.218    -18507.41     19336.87    4893.4425    296.29622    2098.4128    85.897975 
   21600    1639.2079   -112.49131    1.4831897   -111.00812   -28006.094     4.401142     4.401142     4.401142   -28006.094   -35676.597   -19225.314    -29116.37    1941.1388    13029.878     6692.934    85.250343 
   21700    1699.8664   -112.55149    1.5380749   -111.01341    12697.561    4.3892267    4.3892267    4.3892267    12697.561    21609.831    23625.822   -7142.9711    797.59138    44.143696    18686.374    84.559815 
   21800    1924.9686   -112.77415    1.7417521    -111.0324   -32554.384    4.3968604    4.3968604    4.3968604   -32554.384   -55136.985   -31439.259   -11086.908    4731.3661   -9292.0382    1019.4857    85.001782 
   21900    1633.5105   -112.52155    1.4780346   -111.04352    20554.933    4.3873087    4.3873087    4.3873087    20554.933   -25410.489    13629.189    73446.099   -18185.788    3485.0832    6477.6333    84.449016 
   22000    2474.1406   -113.27717    2.2386545   -111.03851    1181.9334    4.3822995    4.3822995    4.3822995    1181.9334   -8190.1178    27350.123   -15614.204    19444.192    1733.1391    32410.514    84.160083 
   22100    1236.2897   -112.18945    1.1186209   -111.07083   -7014.8802    4.3912424    4.3912424    4.3912424   -7014.8802   -34867.129   -34342.176    48164.664    4275.2962   -12210.348   -6406.4773    84.676373 
   22200    1767.6447   -112.65755    1.5994021   -111.05815   -2998.1167    4.3855788    4.3855788    4.3855788   -2998.1167   -60221.572   -9692.0032    60919.226   -31959.161   -10435.196    13828.199    84.349159 
   22300    2326.3276   -113.15521    2.1049101    -111.0503     9138.066    4.3882583    4.3882583    4.3882583     9138.066     -33796.7    27651.578     33559.32    8973.9568   -8544.8813    3594.7498     84.50386 
   22400    1380.4312   -112.29912    1.2490432   -111.05007   -29816.807    4.4088113    4.4088113    4.4088113   -29816.807   -71908.386   -29014.912    11472.877   -3152.5214   -8589.2749    -13933.09    85.696785 
   22500    1427.1202    -112.3202    1.2912884   -111.02891   -852.61713    4.4010502    4.4010502    4.4010502   -852.61713   -22480.728   -33334.664    53257.541    -16550.11   -5139.6298    9050.2714    85.245008 
   22600    1914.5183   -112.73921    1.7322964   -111.00692    22585.255    4.3808943    4.3808943    4.3808943    22585.255   -6517.8179    27045.885    47227.698    18536.365    1478.7163   -4726.0199    84.079153 
   22700    1545.1028   -112.43583    1.3980415   -111.03779    -47292.17    4.3884898    4.3884898    4.3884898    -47292.17   -81901.105   -66106.077    6130.6732   -23575.635    1456.0893    1979.8953    84.517237 
   22800    2168.6992    -113.0102    1.9622846   -111.04791    -34224.45    4.3965772    4.3965772    4.3965772    -34224.45    -60966.67   -20013.156   -21693.523   -33129.093    10649.425   -27268.308    84.985358 
   22900    1641.3816   -112.53166    1.4851566    -111.0465    2399.3245    4.4022125    4.4022125    4.4022125    2399.3245   -51523.199   -43543.945    102265.12    8844.2458   -518.05923    7324.9318    85.312565 
   23000    1436.7301   -112.35818    1.2999836    -111.0582   -33545.484    4.3923011    4.3923011    4.3923011   -33545.484   -63916.658   -63307.168    26587.374   -29717.837   -4886.5871   -361.35899     84.73763 
   23100    2415.1743   -113.24209    2.1853004   -111.05679    1817.9877    4.3710557    4.3710557    4.3710557    1817.9877    3202.0032    9523.2993   -7271.3393   -133.71797    4462.8657    11136.892    83.513949 
   23200    1394.8107   -112.36271    1.2620541   -111.10065    18590.012    4.3804834    4.3804834    4.3804834    18590.012   -34598.592   -7815.0219    98183.648    -18761.67    -8897.198   -19243.895    84.055497 
   23300    1643.8682   -112.58001    1.4874065    -111.0926   -23769.024    4.3980098    4.3980098    4.3980098   -23769.024   -84104.987   -19422.708    32220.624   -21758.011    7637.4478    24858.934    85.068461 
   23400    2101.8618   -112.95271    1.9018087    -111.0509   -5653.1394    4.4015292    4.4015292    4.4015292   -5653.1394    -52906.37    8811.1546    27135.797    18712.695   -12522.148   -15568.669    85.272846 
   23500    1752.8258   -112.63748    1.5859936   -111.05148   -23675.293    4.3819076    4.3819076    4.3819076   -23675.293   -53200.945   -55119.065     37294.13   -45208.764    5320.8643   -13849.498    84.137508 
   23600    2081.2747    -112.9336    1.8831811   -111.05041    16699.584    4.3703009    4.3703009    4.3703009    16699.584   -15704.689    23273.118    42530.322    13085.645   -6033.5438   -7283.3837    83.470693 
   23700    1987.5323   -112.88519     1.798361   -111.08683   -1427.6202    4.3941797    4.3941797    4.3941797   -1427.6202   -44965.668   -28025.315    68708.122   -6655.0379    382.21959    3568.6712    84.846404 
   23800    1205.9363    -112.1841    1.0911565   -111.09294   -7423.5295    4.3981659    4.3981659    4.3981659   -7423.5295   -43209.423   -28022.369    48961.203   -38476.455   -7290.2734    1718.0474    85.077519 
   23900    1983.3683   -112.85162    1.7945933   -111.05702    14327.657    4.3816857    4.3816857    4.3816857    14327.657   -9732.1412    13693.501     39021.61    35691.243    20902.089    2935.1184    84.124729 
   24000    1360.8877   -112.29186    1.2313598    -111.0605    13546.449    4.3873624    4.3873624    4.3873624    13546.449   -32664.958   -704.00164    74008.308   -19886.401   -2631.4451   -6051.0498    84.452116 
   24100    1539.7844   -112.44634    1.3932293   -111.05311     3511.583    4.3916748    4.3916748    4.3916748     3511.583   -48520.071    9246.7542    49808.066   -13083.615    14837.528   -14490.194    84.701389 
   24200    1990.3275   -112.85734    1.8008902   -111.05645   -25243.833    4.4137298    4.4137298    4.4137298   -25243.833    -56013.29     -23846.3    4128.0917    22884.567   -4555.6365    822.30521    85.983919 
   24300    1734.8573   -112.60827    1.5697353   -111.03853   -38208.857      4.40958      4.40958      4.40958   -38208.857   -56372.916   -61186.322    2932.6663   -45795.349   -720.87267   -7213.1433    85.741619 
   24400    1740.1075   -112.59731    1.5744859   -111.02283    28264.012    4.3689652    4.3689652    4.3689652    28264.012    7992.6095    36960.235     39839.19    2302.3009   -7557.3945   -18073.426    83.394181 
   24500    2226.2532   -113.06233    2.0143607   -111.04796    20512.211    4.3676755    4.3676755    4.3676755    20512.211    15422.432    10857.601      35256.6    7341.7266   -16586.835    9181.5386    83.320352 
   24600    1154.7178   -112.13963     1.044813   -111.09482    10431.678    4.3944722    4.3944722    4.3944722    10431.678   -39296.973    34806.768    35785.239   -19927.136   -32536.907    9818.9092    84.863351 
   24700    1711.9138   -112.60657    1.5489756   -111.05759    174.27892    4.4203551    4.4203551    4.4203551    174.27892    8556.5451     29624.56   -37658.268    23179.327    9839.4397    -12573.97    86.371704 
   24800    1610.4661   -112.47184    1.4571835   -111.01465   -12564.336     4.422473     4.422473     4.422473   -12564.336   -42913.553   -38746.824    43967.368   -14278.866    11619.093   -3182.0093     86.49591 
   24900    1484.8965   -112.34404    1.3435656   -111.00047    6461.9133    4.3830811    4.3830811    4.3830811    6461.9133   -49095.921   -1936.1355    70417.796   -12297.964    6874.1865   -2553.4316    84.205122 
   25000    2472.9767   -113.25302    2.2376013   -111.01542    10657.971    4.3733646    4.3733646    4.3733646    10657.971   -13415.486    6097.6645    39291.735    1447.8588    3749.9129   -16667.074    83.646361 
   25100    1539.7898   -112.46755    1.3932341   -111.07431    1184.0527    4.4060824    4.4060824    4.4060824    1184.0527    -24940.41   -43436.203    71928.771   -26279.413    10856.325    5188.2802    85.537756 
   25200    2023.1966   -112.87911    1.8306308   -111.04848   -42591.396    4.4212173    4.4212173    4.4212173   -42591.396    14855.397   -64948.479   -77681.106   -4693.2454    -9576.707   -6085.4835    86.422255 
   25300    1923.2779   -112.74786    1.7402223   -111.00764   -22317.267    4.4015694    4.4015694    4.4015694   -22317.267    5545.7579   -8626.6999   -63870.859    7912.8017    3824.4786   -2727.1755    85.275184 
   25400    1623.0606   -112.47055    1.4685794   -111.00197    35170.672    4.3807748    4.3807748    4.3807748    35170.672    43513.962   -9506.0656     71504.12   -10876.324    21841.143    2706.5315     84.07227 
   25500    1319.6474   -112.22523    1.1940447   -111.03119    14841.059    4.3956954    4.3956954    4.3956954    14841.059     77618.89   -38544.313    5448.5993   -531.51462    23939.616   -17260.343    84.934236 
   25600    1488.1953   -112.37745    1.3465504    -111.0309   -30279.937    4.3925629    4.3925629    4.3925629   -30279.937   -53583.943    20204.104   -57459.973    344.06285    56769.216    651.01493    84.752785 
   25700    2348.8593   -113.14363    2.1252973   -111.01833    -6367.745     4.378432     4.378432     4.378432    -6367.745   -30346.785    3168.8636    8074.6863   -3938.4713   -10827.284   -7274.5666    83.937462 
   25800    1416.2968   -112.33397    1.2814951   -111.05248   -16913.146    4.4053582    4.4053582    4.4053582   -16913.146    71906.137   -40763.792   -81881.783   -3974.2883    8520.5675   -17695.976    85.495582 
   25900    1531.4997   -112.43694    1.3857331   -111.05121   -33463.898    4.3982386    4.3982386    4.3982386   -33463.898   -33408.137    9860.3698   -76843.927   -6005.0846    44100.045    5135.9966    85.081737 
   26000    1783.1071   -112.66679    1.6133928   -111.05339    24841.822    4.3784306    4.3784306    4.3784306    24841.822    69723.536    31691.025   -26889.095    7897.0583   -14159.919   -6312.8002    83.937378 
   26100    1791.9593   -112.70141    1.6214025   -111.08001   -20454.516    4.4006337    4.4006337    4.4006337   -20454.516   -27319.779   -1179.0727   -32864.696    1412.8282    8998.4609   -6435.7927    85.220809 
   26200    1634.2315   -112.53319     1.478687    -111.0545   -28925.867     4.401016     4.401016     4.401016   -28925.867   -52605.447   -3830.8353   -30341.317    10116.482    21870.353   -1051.8312    85.243026 
   26300    1944.2711   -112.80113    1.7592174   -111.04191    3478.8356    4.3959117    4.3959117    4.3959117    3478.8356   -19178.907   -18791.418    48406.832    -10943.01   -5457.6286    7295.1027    84.946772 
   26400     1389.105   -112.30014    1.2568914   -111.04325   -35745.076    4.4059591    4.4059591    4.4059591   -35745.076   -53939.015    2248.9861     -55545.2   -7627.4147    19918.286   -15977.632    85.530576 
   26500    1634.3352   -112.50842    1.4787808   -111.02964   -7562.8544    4.3751999    4.3751999    4.3751999   -7562.8544   -3981.4662    22140.285   -40847.381    6044.3863    24861.465    -2708.013    83.751712 
   26600    2432.3741   -113.22923    2.2008632   -111.02836    25644.777    4.3672957    4.3672957    4.3672957    25644.777    22921.716    62261.114   -8248.4984    5844.7504   -12934.723   -11078.563    83.298616 
   26700    1839.0357   -112.72297    1.6639981   -111.05897   -29341.617    4.4094222    4.4094222    4.4094222   -29341.617    -69410.88    32897.902   -51511.875   -11060.782    6555.8926   -10838.524    85.732415 
   26800    1142.3578   -112.07577    1.0336294   -111.04214   -278.56709    4.4047997    4.4047997    4.4047997   -278.56709    20387.461    -19216.11   -2007.0526    5541.0654    12946.326    7689.3192    85.463072 
   26900    2243.8577   -113.04341    2.0302896   -111.01312    31834.462    4.3742865    4.3742865    4.3742865    31834.462    37283.619    35664.175    22555.591    26611.488    2217.0316   -1338.2121    83.699268 
   27000    1598.3595   -112.49108    1.4462293   -111.04485    45097.381    4.3747872    4.3747872    4.3747872    45097.381    70729.706    64783.698   -221.26153   -7322.4958   -5451.1634   -8293.0967    83.728017 
   27100    1354.6005   -112.31641     1.225671   -111.09074   -26595.402    4.3982234    4.3982234    4.3982234   -26595.402    -54283.36   -16871.713   -8631.1341    33906.194    9727.0463   -12464.231    85.080858 
   27200    1699.1599   -112.60817    1.5374356   -111.07073     -14106.7    4.4128842    4.4128842    4.4128842     -14106.7   -33484.623    13571.868   -22407.346   -12191.452    8846.4924   -194.58918    85.934507 
   27300    1622.7257    -112.4959    1.4682763   -111.02763   -24167.504    4.4086673    4.4086673    4.4086673   -24167.504    2728.8803   -67122.739   -8108.6528   -738.13668   -9760.0498    5236.7101    85.688391 
   27400    1416.5337   -112.28378    1.2817094   -111.00207   -19457.312    4.3958746    4.3958746    4.3958746   -19457.312    1712.8188   -54800.126   -5284.6277    52769.776    5382.3858    1137.2285     84.94462 
   27500    1494.7839    -112.3635    1.3525119   -111.01099    12105.199     4.382988     4.382988     4.382988    12105.199    68060.524   -26269.335   -5475.5916   -20976.603   -321.65218   -1152.0551    84.199759 
   27600    2137.1325    -112.9753    1.9337224   -111.04158    7401.9461    4.3832308    4.3832308    4.3832308    7401.9461    1911.3981   -7250.4019    27544.842   -6302.5598   -4329.9419     4247.391     84.21375 
   27700    1879.6827   -112.75957    1.7007765   -111.05879   -11141.587    4.4017469    4.4017469    4.4017469   -11141.587   -41703.142   -24348.446    32626.828    22691.997    3985.1565   -2656.5985    85.285499 
   27800    1656.3329   -112.54703    1.4986848   -111.04835   -15609.652    4.3946946    4.3946946    4.3946946   -15609.652   -33974.986   -31554.317    18700.346   -34125.254    7318.0893   -11160.223    84.876235 
   27900    2129.3646    -112.9552    1.9266938    -111.0285    7976.0397     4.399117     4.399117     4.399117    7976.0397    11789.244    5727.8643    6411.0111    15827.029   -12685.979   -12400.835    85.132728 
   28000    1350.9915   -112.24969    1.2224055   -111.02729   -54905.516    4.4196823    4.4196823    4.4196823   -54905.516   -62000.331   -71916.724   -30799.493   -5260.3702    14273.105   -2762.6244    86.332269 
   28100    1293.3227    -112.1934    1.1702255   -111.02317   -27892.481    4.3938659    4.3938659    4.3938659   -27892.481   -7863.4278   -27489.849   -48324.167   -32505.837    1789.4549   -10235.145    84.828231 
   28200    2234.9074   -113.04459    2.0221912    -111.0224    46527.399    4.3608058    4.3608058    4.3608058    46527.399     59338.29    78466.591    1777.3148     13312.34    -14043.28   -11087.978    82.927816 
   28300    2197.0313   -113.05654    1.9879201   -111.06862    3544.7728    4.3693759    4.3693759    4.3693759    3544.7728    15798.979   -11682.657    6517.9969   -20045.263    11433.241   -1865.4028    83.417705 
   28400    1075.4441   -112.08423   0.97308441   -111.11114    17037.682    4.3925689    4.3925689    4.3925689    17037.682    16502.492    47979.786   -13369.234   -10112.132   -2580.0577    5649.2586     84.75313 
   28500    2006.4221   -112.87708    1.8154529   -111.06162   -7491.5048    4.4088075    4.4088075    4.4088075   -7491.5048   -23636.494    27715.842   -26553.862    19194.106   -4951.8412    17328.944    85.696565 
   28600    1809.3465   -112.66802    1.6371347   -111.03088    7870.2202    4.3910647    4.3910647    4.3910647    7870.2202   -8338.8209    34860.671   -2911.1893   -25289.325    16250.346   -3119.2048    84.666089 
   28700    1929.1679   -112.77222    1.7455516   -111.02667   -5221.7418    4.3767806    4.3767806    4.3767806   -5221.7418   -16616.783     13051.11   -12099.552   -13789.923    6499.2023   -10490.956    83.842524 
   28800    1617.3107   -112.51917    1.4633767    -111.0558    10684.822    4.3836201    4.3836201    4.3836201    10684.822   -5805.5571    29954.747    7905.2765    27927.683   -11745.356    4824.1704    84.236195 
   28900    1289.8028    -112.2298    1.1670407   -111.06276    29915.427    4.3918754    4.3918754    4.3918754    29915.427    14175.677    23092.333     52478.27     661.3138    4679.2178    10753.185    84.712996 
   29000    1843.1516   -112.71897    1.6677223   -111.05124   -33049.499      4.39622      4.39622      4.39622   -33049.499   -26323.369   -36998.088    -35827.04   -12728.749    1096.8487   -11207.062    84.964647 
   29100    1535.4462    -112.4362     1.389304    -111.0469    10578.504    4.3776035    4.3776035    4.3776035    10578.504     8130.888    29015.565   -5410.9409    22578.267   -5529.0498   -9890.9304    83.889823 
   29200    1697.0663   -112.59763    1.5355412   -111.06209     17834.47    4.3740277    4.3740277    4.3740277     17834.47    19641.274   -3247.0156    37109.151    16785.793   -4734.8982    18185.751    83.684414 
   29300    1639.1894   -112.56322     1.483173   -111.08005   -10689.395    4.3940468    4.3940468    4.3940468   -10689.395    32567.882    -4136.355   -60499.711   -8084.3384    1813.2741   -3464.9535    84.838709 
   29400    2591.2054   -113.40261    2.3445771   -111.05804   -10673.783    4.3860268    4.3860268    4.3860268   -10673.783   -23625.308    3799.6186    -12195.66    5075.7252   -7020.8931   -1252.8943    84.375013 
   29500    1967.5747   -112.83282    1.7803029   -111.05252    31636.493    4.3725257    4.3725257    4.3725257    31636.493    6241.3034    25995.431    62672.744     13013.04      3234.41    15492.215    83.598237 
   29600    1134.2564   -112.10641     1.026299   -111.08011    -19005.58    4.3824839    4.3824839    4.3824839    -19005.58   -14147.319   -11918.245   -30951.177   -16866.849    9573.7254    -18994.61    84.170712 
   29700      1724.05   -112.63758    1.5599567   -111.07762   -21387.365    4.3918768    4.3918768    4.3918768   -21387.365   -30224.368   -27047.228   -6890.4982   -10318.323    5311.5145   -4926.5183    84.713075 
   29800     1984.742   -112.85991    1.7958363   -111.06408    5855.6692    4.3892135    4.3892135    4.3892135    5855.6692    -31918.29   -17529.467    67014.764     19391.04   -3496.2408    10061.835    84.559055 
   29900    1582.5399   -112.50156    1.4319154   -111.06965   -16564.565    4.3890868    4.3890868    4.3890868   -16564.565   -22164.536   -21897.772   -5631.3876   -19562.437    8741.9418   -6957.2247    84.551731 
   30000     1114.459   -112.07276    1.0083859   -111.06437    24972.955    4.3844461    4.3844461    4.3844461    24972.955    23526.909   -3637.9574    55029.915   -8080.8528    2556.3575    13780.435    84.283821 
   30100    2208.4558   -113.05621    1.9982572   -111.05795    15948.428    4.3786635    4.3786635    4.3786635    15948.428    28939.236    21698.042    -2791.994    9006.8586   -33566.382    8507.0518    83.950776 
   30200    2015.5791   -112.89335    1.8237383   -111.06961    866.22706    4.3920806    4.3920806    4.3920806    866.22706    40671.368    3290.8246   -41363.511   -18615.633    10729.087   -1113.5478     84.72487 
   30300    1250.4868   -112.19549    1.1314668   -111.06402   -8463.6399    4.3964799    4.3964799    4.3964799   -8463.6399    41958.247   -52852.727    -14496.44    9401.5953   -4856.3592    14923.387    84.979714 
   30400    1602.0585   -112.49308    1.4495762    -111.0435    14218.513     4.386729     4.386729     4.386729    14218.513    77842.573   -38404.527    3217.4928    24866.965   -19851.811   -15486.615     84.41554 
   30500    1985.1287   -112.85523    1.7961862   -111.05904   -25896.277    4.3887385    4.3887385    4.3887385   -25896.277    22434.441   -62982.827   -37140.446   -31464.838    8872.7902    19321.384    84.531606 
   30600    1115.1995   -112.08385    1.0090559    -111.0748    4620.5783    4.3804558    4.3804558    4.3804558    4620.5783      75800.9   -43531.117   -18408.048    11543.022   -7561.7344    33804.524    84.053907 
   30700    1918.1007   -112.80312    1.7355378   -111.06759    17204.602    4.3622216    4.3622216    4.3622216    17204.602   -5609.7969     -8215.42    65439.022    18026.452   -9401.3941   -16230.579    83.008613 
   30800    2124.2192   -113.01069    1.9220382   -111.08866   -15659.485     4.380368     4.380368     4.380368   -15659.485    -19454.36   -15011.794     -12512.3   -23469.513   -7013.0422   -380.02691    84.048856 
   30900    1310.0641   -112.26544    1.1853735   -111.08007   -8413.2322    4.3990332    4.3990332    4.3990332   -8413.2322    5923.3512   -28943.028   -2220.0202   -2117.7045   -13471.318    18587.953    85.127861 
   31000    1437.7104    -112.3618    1.3008705   -111.06093    9339.6016    4.3879345    4.3879345    4.3879345    9339.6016   -1534.8239    -14718.41    44272.039    43125.204   -4409.0032   -10939.676    84.485155 
   31100    2561.9802   -113.35758    2.3181335   -111.03944   -20449.648    4.3776035    4.3776035    4.3776035   -20449.648   -6922.5969   -37068.854   -17357.493   -4345.1338    9716.3527     5751.138    83.889822 
   31200    1312.4761   -112.24643    1.1875559   -111.05887    10987.334    4.3750703    4.3750703    4.3750703    10987.334   -5188.9388   -14484.121    52635.062    11083.962    4939.5506    12844.834    83.744271 
   31300    1011.5224   -112.00311    0.9152467   -111.08787   -251.76958    4.3873293    4.3873293    4.3873293   -251.76958     46079.41   -18861.805   -27972.914    10951.735    3509.7478   -14890.632    84.450205 
   31400    1786.4862   -112.68483    1.6164502   -111.06838   -32723.993    4.4040038    4.4040038    4.4040038   -32723.993    6512.7997   -59502.223   -45182.555   -16810.324   -5775.9246   -44723.709    85.416752 
   31500    2109.4212   -112.96573    1.9086486   -111.05709     23411.93    4.3709203    4.3709203    4.3709203     23411.93   -15381.761    59690.146    25927.403    15323.361    20.692382    8789.5697    83.506191 
   31600    1495.6779    -112.4206    1.3533208   -111.06728    22097.159    4.3552494    4.3552494    4.3552494    22097.159   -399.30556    38112.488    28578.295    18209.759    14150.757   -38977.787     82.61123 
   31700    1370.1556   -112.34342    1.2397455   -111.10368    321.36176    4.3913699    4.3913699    4.3913699    321.36176    5034.0373    1062.7181   -5132.6702   -22441.797    462.65412   -35390.684    84.683747 
   31800    2250.2696   -113.10129    2.0360912    -111.0652   -9167.4916    4.4014079    4.4014079    4.4014079   -9167.4916   -33785.312    52532.215   -46249.378   -6572.5147   -7272.0843    22822.174    85.265795 
   31900     1653.624   -112.55467    1.4962338   -111.05843   -14710.577     4.392934     4.392934     4.392934   -14710.577    -34512.01    17175.706   -26795.425   -2980.5907   -60.873304   -38654.249    84.774268 
   32000    819.01323   -111.81104   0.74106038   -111.06998   -5222.6815    4.3752124    4.3752124    4.3752124   -5222.6815    5274.4652    3954.0635   -24896.573   -13136.309    3932.7318   -17715.126    83.752429 
   32100    1524.7867   -112.43911    1.3796591   -111.05945     33274.42      4.35644      4.35644      4.35644     33274.42    30502.596   -1902.5977     71223.26    11271.787    6570.0572    24269.147    82.678997 
   32200    1964.7723   -112.86631    1.7777672   -111.08854   -2566.3525     4.385526     4.385526     4.385526   -2566.3525   -2756.1015     -17271.8    12328.844   -3748.0581   -1740.7144   -28655.478    84.346114 
   32300    1635.8556   -112.54661    1.4801565   -111.06645   -8175.4273     4.395049     4.395049     4.395049   -8175.4273   -17083.159   -5617.6165   -1825.5066   -12178.865    2659.4364   -2696.5383    84.896768 
   32400    1528.9174   -112.42632    1.3833966   -111.04292    48832.854     4.374771     4.374771     4.374771    48832.854    55763.112     71978.04    18757.409    2539.5191    11157.039    28548.817    83.727085 
   32500    2210.2733   -113.03633    1.9999017   -111.03642      23653.8    4.3890112    4.3890112    4.3890112      23653.8   -9352.6252    84501.376   -4187.3494    16936.072    6138.6297   -34888.372    84.547365 
   32600    1579.9292   -112.47023    1.4295532   -111.04068   -20807.135    4.3965067    4.3965067    4.3965067   -20807.135    -43089.86    51968.799   -71300.343    2148.1097    2037.7119    33559.592    84.981269 
   32700    1810.6659   -112.67918    1.6383285   -111.04085   -18620.421    4.3784587    4.3784587    4.3784587   -18620.421   -37236.157    3152.4427   -21777.547    1433.9446    -10136.84    24424.337    83.938998 
   32800    1673.5459   -112.56965    1.5142595   -111.05539    15791.125     4.370434     4.370434     4.370434    15791.125   -38887.546    93975.703   -7714.7815    14006.114    5590.3042   -30897.079    83.478318 
   32900    1229.5387   -112.19523    1.1125124   -111.08272    5001.3173    4.3748989    4.3748989    4.3748989    5001.3173   -11670.856    90531.452   -63856.645    11858.316    1216.0464    47454.794    83.734427 
   33000    1910.6131   -112.81823    1.7287629   -111.08947   -22151.276    4.3818988    4.3818988    4.3818988   -22151.276   -8782.8277   -19584.398   -38086.601   -11304.206    4280.0751    5039.8425    84.137002 
   33100    1358.2948   -112.31986    1.2290137   -111.09085   -39510.425    4.3994674    4.3994674    4.3994674   -39510.425   -62060.033   -45713.907   -10757.335    21972.989    12333.715   -6065.2522     85.15307 
   33200    2256.2253   -113.09849    2.0414801   -111.05701   -9021.6886    4.3798137    4.3798137    4.3798137   -9021.6886   -11132.834    18467.601   -34399.832    17427.498    9477.9255    19244.629    84.016952 
   33300    2069.0783   -112.92477    1.8721455   -111.05263    11178.555    4.3643571    4.3643571    4.3643571    11178.555    16926.976     28901.59   -12292.901   -18934.645   -8190.4138   -20790.562    83.130586 
   33400    1170.1894   -112.14112     1.058812    -111.0823   -19591.871    4.3749145    4.3749145    4.3749145   -19591.871    -42639.39   -21584.934    5448.7104    31105.368    14839.984    -3746.216    83.735323 
   33500    2103.1145   -112.98862    1.9029422   -111.08568   -802.88659    4.3803829    4.3803829    4.3803829   -802.88659   -49688.504    74844.292   -27564.447    2154.3684    3450.0651     820.3378    84.049711 
   33600    2264.0135   -113.13862     2.048527   -111.09009   -30510.317    4.3939191    4.3939191    4.3939191   -30510.317   -33925.469   -6127.2466   -51478.236   -1818.5558   -4963.6102   -13605.228    84.831311 
   33700    1741.5626   -112.65035    1.5758025   -111.07455    545.47558    4.3812041    4.3812041    4.3812041    545.47558    -50553.15    56845.493   -4655.9167    10050.516    5804.2979   -3543.3949    84.096989 
   33800    1462.3809    -112.3986    1.3231929    -111.0754   -11511.008    4.3735655    4.3735655    4.3735655   -11511.008   -31739.948     4336.687   -7129.7637    31823.145   -2331.2709   -5157.1232    83.657887 
   33900    1540.1396   -112.47892    1.3935506   -111.08536   -15526.973    4.3776298    4.3776298    4.3776298   -15526.973   -10451.283    3846.9357   -39976.571   -644.86967   -20994.642    19661.693    83.891331 
   34000    2301.7409   -113.16101    2.0826635   -111.07835    8109.9137    4.3781553    4.3781553    4.3781553    8109.9137    8231.0996    25973.294   -9874.6529    1752.1414    -4178.948    1090.5686    83.921549 
   34100    1313.6421   -112.28845     1.188611   -111.09984   -34498.908    4.3938859    4.3938859    4.3938859   -34498.908   -49546.778   -67906.771    13956.825    31583.424   -4308.6434    7913.6524    84.829384 
   34200    1465.5932   -112.40029    1.3260995    -111.0742   -21418.145    4.3856956    4.3856956    4.3856956   -21418.145   -4831.1135   -4267.8765   -55155.446    3519.4202   -15396.959    13271.251    84.355898 
   34300    2325.8543   -113.15821    2.1044818   -111.05372    16807.623    4.3787546    4.3787546    4.3787546    16807.623   -6366.1303    70440.856   -13651.856   -3643.8775    13266.544    5158.5133    83.956016 
   34400    1302.7628   -112.24553    1.1787672   -111.06677    5114.9714    4.3972533    4.3972533    4.3972533    5114.9714   -39833.418    67774.937   -12596.605    3245.9408   -18641.745     11838.46    85.024573 
   34500    1141.2874   -112.07861    1.0326608   -111.04595   -13330.239    4.4051253    4.4051253    4.4051253   -13330.239   -100512.72    103851.16   -43329.157    6425.5346    3302.9844     2097.519    85.482025 
   34600     1648.192   -112.51675    1.4913187   -111.02544    2098.7653    4.3936485    4.3936485    4.3936485    2098.7653   -49686.739     74849.42   -18866.385    160.23669    15633.267    649.35572    84.815637 
   34700      1264.26   -112.17592    1.1439291   -111.03199    36469.885    4.3707629    4.3707629    4.3707629    36469.885    36582.668    60112.901    12714.087    -13355.49    6.7545704    25393.207     83.49717 
   34800     939.4991   -111.91695   0.85007853   -111.06687   -4807.9261    4.3733074    4.3733074    4.3733074   -4807.9261   -49726.408    42725.423   -7422.7928    15247.739    24614.247    5293.3548    83.643077 
   34900    1822.9481   -112.72186    1.6494417   -111.07242    -13322.88     4.395053     4.395053     4.395053    -13322.88   -82700.655    6198.1419    36533.872   -6328.3242   -4871.0353   -10905.643    84.897003 
   35000    2164.5097   -113.01173    1.9584939   -111.05324    384.80577    4.4032142    4.4032142    4.4032142    384.80577   -25722.812    7853.0888    19024.141   -1439.5884    3718.0377   -142.21989    85.370818 
   35100    1378.2885   -112.30661    1.2471044   -111.05951    4100.0865    4.3809401    4.3809401    4.3809401    4100.0865   -32578.714    38390.264    6488.7094     5101.876    40355.128    13934.329    84.081788 
   35200    1448.9103    -112.3747    1.3110045    -111.0637    12249.747    4.3692492    4.3692492    4.3692492    12249.747   -62823.053   -12237.214    111809.51    1565.3937    2991.4749    -8593.741    83.410445 
   35300    1970.6945   -112.84814    1.7831258   -111.06502    5193.7619    4.3900326    4.3900326    4.3900326    5193.7619   -42452.363    41333.442    16700.207    10549.905   -8752.2698   -18555.273    84.606406 
   35400    1650.5932   -112.55096    1.4934914   -111.05747   -22549.407    4.4075305    4.4075305    4.4075305   -22549.407   -68682.053     11480.24   -10446.409    4020.4357    27149.805    10849.453    85.622119 
   35500    1268.3512   -112.19569    1.1476308   -111.04806   -44342.225    4.4045004    4.4045004    4.4045004   -44342.225   -85494.784   -29476.579   -18055.312    12142.903   -19396.296    9909.5264    85.445653 
   35600    1591.3595   -112.49545    1.4398955   -111.05556    4312.3983    4.3726814    4.3726814    4.3726814    4312.3983    2520.7541    37778.454   -27362.013   -3291.6561   -33064.132    6360.9982    83.607165 
   35700    2765.7321   -113.53959    2.5024925    -111.0371     36690.76    4.3462031    4.3462031    4.3462031     36690.76    19491.852    38159.971    52420.458   -5387.4719    6501.9549    5682.6813    82.097521 
   35800    1462.9352   -112.43703    1.3236946   -111.11333   -4303.6964    4.3809119    4.3809119    4.3809119   -4303.6964   -32273.262    25794.351    -6432.179    12461.463   -38955.594    9620.5052    84.080164 
   35900    1799.0777   -112.69296    1.6278433   -111.06512   -52532.415    4.4288473    4.4288473    4.4288473   -52532.415    -75929.77    -23501.67   -58165.806    -8489.754   -20112.136    1953.6834    86.870461 
   36000    1798.2792   -112.64134    1.6271208   -111.01422   -49215.426    4.4176056    4.4176056    4.4176056   -49215.426   -67268.377   -41863.794   -38514.107    5121.1982    19935.798   -3669.4677    86.210631 
   36100    1486.8459   -112.34138    1.3453294   -110.99605    1369.6097    4.3644553    4.3644553    4.3644553    1369.6097   -44646.361   -9440.8269    58196.017   -17297.345   -36618.479    31643.003    83.136199 
   36200    1502.5575   -112.37155    1.3595456   -111.01201    6989.2099    4.3435537    4.3435537    4.3435537    6989.2099   -7146.8417    48272.326   -20157.854   -18412.802    301.37185   -30356.803    81.947475 
   36300    1596.1587   -112.52752    1.4442379   -111.08329    3039.7029    4.3720216    4.3720216    4.3720216    3039.7029   -32515.522    17021.418    24613.212   -618.97257    12204.755   -15175.232    83.569323 
   36400    1772.3758   -112.68085    1.6036829   -111.07716   -40256.008    4.4147185    4.4147185    4.4147185   -40256.008   -73966.283   -56703.974    9902.2322   -6138.0219   -3771.5852    36446.282    86.041715 
   36500     1156.201   -112.07183    1.0461549   -111.02568   -3524.8131    4.4173353    4.4173353    4.4173353   -3524.8131   -6486.1399   -377.55969   -3710.7396   -3103.1246    7115.1783   -27798.818    86.194809 
   36600    2296.1486   -113.05007    2.0776035   -110.97247    21657.828    4.3914387    4.3914387    4.3914387    21657.828   -35671.452    59082.902    41562.036    6935.8887   -10324.338   -16379.394    84.687726 
   36700    1996.4116   -112.80243    1.8063951   -110.99603   -7317.7559    4.3745099    4.3745099    4.3745099   -7317.7559    625.97939    -21052.72   -1526.5271    -7506.945    5086.8202    22362.649    83.712094 
   36800    1223.4711   -112.16132    1.1070224    -111.0543   -1983.1487    4.3661997    4.3661997    4.3661997   -1983.1487    14614.999    4513.6687   -25078.113    3190.2995    7503.9205   -32963.709    83.235922 
   36900    2068.6331   -112.95044    1.8717427    -111.0787    17744.472     4.368621     4.368621     4.368621    17744.472   -6238.9539    46583.077    12889.293    24038.026   -232.18279   -5562.3189    83.374472 
   37000    1861.2817   -112.77177    1.6841268   -111.08765     9345.004    4.3885931    4.3885931    4.3885931     9345.004    7971.4856   -11300.014    31363.541    8344.7335   -7338.9045    27739.102    84.523204 
   37100    1201.6114    -112.1588    1.0872433   -111.07156   -12847.737    4.4020347    4.4020347    4.4020347   -12847.737   -22535.572      29065.4   -45073.039    2120.7434     4620.215    -16985.54    85.302232 
   37200    1857.9646    -112.7098    1.6811255   -111.02867   -8640.5726    4.3975435    4.3975435    4.3975435   -8640.5726   -86785.437    28546.959    32316.761   -3456.5157   -1073.5639    12736.041    85.041407 
   37300    1820.2287   -112.66368    1.6469812    -111.0167     6779.785    4.3775227    4.3775227    4.3775227     6779.785   -10459.002    37585.998   -6787.6405   -19462.377     1748.438   -4770.3589    83.885178 
   37400    1481.9405   -112.38053    1.3408909   -111.03963     14162.88    4.3733372    4.3733372    4.3733372     14162.88    47680.889    2631.8534   -7824.1016    12831.307    11553.771   -23081.165    83.644788 
   37500    1267.6152   -112.20704    1.1469649   -111.06008    7718.0772    4.3893253    4.3893253    4.3893253    7718.0772   -11223.022    750.70104    33626.552   -14648.814    20533.966    4885.6913    84.565514 
   37600    1776.5185   -112.64723    1.6074313    -111.0398    12672.522    4.3997891    4.3997891    4.3997891    12672.522    15650.446    9378.0739    12989.046   -13822.434    11238.691   -23125.963    85.171749 
   37700    2158.8034    -112.9804    1.9533307   -111.02707    -3214.252     4.400321     4.400321     4.400321    -3214.252    25956.275   -6086.6995   -29512.331    17846.379    15310.724   -5368.0224    85.202644 
   37800    1362.9757   -112.26923     1.233249   -111.03598   -17032.467    4.3911449    4.3911449    4.3911449   -17032.467   -34466.223    -29693.83    13062.651    -32550.01   -1965.8168    4835.2434    84.670733 
   37900    2300.6689   -113.10573    2.0816936   -111.02404   -6775.4537    4.3872162    4.3872162    4.3872162   -6775.4537   -35436.923     21711.14   -6600.5778    737.94562   -3517.3544   -1467.5284    84.443673 
   38000    1640.3022   -112.51589    1.4841799   -111.03171    -32304.01    4.4015491    4.4015491    4.4015491    -32304.01   -70567.957   -38291.556    11947.482   -954.82843   -1623.3691   -13618.028    85.274001 
   38100     1345.015   -112.23675    1.2169978   -111.01975   -28937.595    4.3924791    4.3924791    4.3924791   -28937.595   -92470.408   -19203.827     24861.45   -33045.294   -10762.678    16750.126    84.747934 
   38200    2059.1445    -112.8779    1.8631572   -111.01474    27801.968     4.367547     4.367547     4.367547    27801.968    31633.935    43451.208     8320.762    6132.6059   -2293.6908    13624.801    83.312999 
   38300    2056.5988   -112.90188    1.8608538   -111.04103    14607.545    4.3616605    4.3616605    4.3616605    14607.545   -21443.673    20943.661    44322.649   -2345.3528   -2373.8987   -4716.1105     82.97659 
   38400    1318.7416   -112.27939    1.1932251   -111.08617   -14865.115    4.3762524    4.3762524    4.3762524   -14865.115   -72502.719   -23668.475     51575.85    -9523.248     364.7073    2406.9544    83.812172 
   38500    1603.0996   -112.52953    1.4505182   -111.07901   -13296.306    4.3926142    4.3926142    4.3926142   -13296.306   -6437.8404    13871.224   -47322.301    5855.0509   -1916.1284    26191.383    84.755753 
   38600    2227.9787   -113.06894    2.0159219   -111.05302   -29901.256    4.3811226    4.3811226    4.3811226   -29901.256   -39142.511   -8961.0059   -41600.252   -2924.9318   -6343.5788    16780.447    84.092299 
   38700    1431.9391   -112.35167    1.2956486   -111.05602   -5437.7366    4.3641357    4.3641357    4.3641357   -5437.7366   -47696.943    248.49518    31135.238   -9230.2232    10796.639   -2660.4716    83.117932 
   38800    1875.5811    -112.7649    1.6970652   -111.06783   -31234.515    4.3783028    4.3783028    4.3783028   -31234.515   -33119.355   -14484.881    -46099.31    9175.7704   -6353.1971    27428.148    83.930032 
   38900    1599.4455   -112.50508    1.4472119   -111.05786   -14569.941    4.4002227    4.4002227    4.4002227   -14569.941   -14502.165   -11499.357   -17708.301   -1178.1948   -17063.315    12514.538    85.196934 
   39000    1436.7316   -112.33503     1.299985   -111.03505    10642.507    4.4015159    4.4015159    4.4015159    10642.507   -6921.6549     24927.16    13922.015    19992.505    3288.7387   -3733.0764    85.272071 
   39100    1608.7429    -112.4807    1.4556244   -111.02507   -1177.1431    4.3866823    4.3866823    4.3866823   -1177.1431   -25712.757    36997.074   -14815.747    6701.1658   -26067.961    10000.283    84.412846 
   39200    1815.3234    -112.6704    1.6425428   -111.02786     18642.25    4.3682199    4.3682199    4.3682199     18642.25    33849.088    5534.4014    16543.261    4533.3474   -19813.657   -11215.664    83.351512 
   39300     1253.848   -112.20384     1.134508   -111.06933    33851.572    4.3713857    4.3713857    4.3713857    33851.572   -1274.9463    53557.188    49272.476    30152.367   -4061.2954   -6010.5825    83.532868 
   39400    2093.2515   -112.96752    1.8940179   -111.07351   -25772.575    4.4030316    4.4030316    4.4030316   -25772.575   -17836.767    -14648.41   -44832.546   -16688.477   -3976.7393    -5062.092    85.360196 
   39500    2014.7826   -112.85332    1.8230177    -111.0303   -13698.556    4.4084459    4.4084459    4.4084459   -13698.556   -61036.892    25692.337   -5751.1145    1684.9858    12685.261   -10376.273    85.675481 
   39600    1139.3995   -112.04178    1.0309527   -111.01083   -5232.8714    4.3975255    4.3975255    4.3975255   -5232.8714   -94733.563   -6674.9325    85709.881      6359.81    5066.5931    6672.7995     85.04036 
   39700    2051.8144   -112.85446    1.8565247   -110.99793    8647.1879    4.3794179    4.3794179    4.3794179    8647.1879   -40421.184    24207.484    42155.264   -25867.862   -7853.9217    30553.873    83.994173 
   39800    2067.9372   -112.89476     1.871113   -111.02364    6140.7033    4.3703476    4.3703476    4.3703476    6140.7033   -31133.986    19237.294    30318.803    21236.177   -7672.6419   -4743.8304    83.473366 
   39900    890.07295   -111.88213   0.80535671   -111.07677   -43552.302    4.3906489    4.3906489    4.3906489   -43552.302   -112149.54   -40285.237    21777.869   -29528.182   -7681.1073   -8288.6893    84.642042 
   40000     1660.436   -112.56299    1.5023974   -111.06059   -2801.7895    4.3920419    4.3920419    4.3920419   -2801.7895   -49250.877    48420.823    -7575.314   -40982.431    3333.1099    10510.226    84.722627 
   40100    2032.4544   -112.88871    1.8390074    -111.0497    46783.712    4.3825506    4.3825506    4.3825506    46783.712    6011.7474       130602    3737.3864   -10422.724    10265.799    22082.358    84.174552 
   40200    1575.0854   -112.49589    1.4251703   -111.07072    -10083.81    4.3859961    4.3859961    4.3859961    -10083.81    -42211.06   -25402.587    37362.217   -53834.604    5606.3958    9274.3758    84.373238 
   40300    1684.2731   -112.58359    1.5239657   -111.05962   -19236.012    4.3897996    4.3897996    4.3897996   -19236.012   -55688.206   -29824.948    27805.117     6041.472    4754.9034    7075.7043    84.592932 
   40400    2503.5037   -113.29082    2.2652228    -111.0256   -11369.305    4.3948889    4.3948889    4.3948889   -11369.305   -31157.848    4990.5277   -7940.5938   -6666.8275   -15709.063    8427.2901    84.887492 
   40500    1293.3017   -112.19129    1.1702066   -111.02108   -41489.369    4.4127334    4.4127334    4.4127334   -41489.369   -70341.374   -71148.456    17021.724   -31279.975    20666.551   -5701.9465    85.925696 
   40600    1357.1531    -112.2274    1.2279807   -110.99942   -15035.454    4.3920913    4.3920913    4.3920913   -15035.454   -31203.508   -24957.758    11054.905    27187.245    11577.034    17186.503    84.725489 
   40700    1437.0791   -112.30422    1.3002994   -111.00392    35625.006    4.3674506    4.3674506    4.3674506    35625.006   -632.65621    67966.997    39540.677   -285.16652   -7668.3626   -4702.7291    83.307479 
   40800    1686.1871    -112.5652    1.5256975    -111.0395     19591.76    4.3783168    4.3783168    4.3783168     19591.76   -1897.9736    18559.917    42113.338   -17879.742    24766.993    -22467.78    83.930834 
   40900    1481.9824   -112.39264    1.3409288   -111.05171   -9877.7399    4.3924967    4.3924967    4.3924967   -9877.7399    -22361.82     -396.479   -6874.9204    10109.186    3216.3347    11871.183    84.748951 
   41000     1802.096   -112.68233    1.6305743   -111.05176    1915.7791    4.3983777    4.3983777    4.3983777    1915.7791   -8771.9262     47711.38   -33192.116   -2110.8925   -18099.059    18412.528     85.08981 
   41100    2619.8877   -113.39889    2.3705294   -111.02836    -14249.37    4.3939704    4.3939704    4.3939704    -14249.37   -30840.105    2263.8417   -14171.846    6179.8905    2260.4674   -6353.0449    84.834281 
   41200     1493.678   -112.38279    1.3515112   -111.03128    2259.9468    4.3814214    4.3814214    4.3814214    2259.9468   -14190.426    26433.023   -5462.7567   -612.83082   -11612.173    43085.217    84.109504 
   41300    1930.9494   -112.77965    1.7471636   -111.03249    7753.4498    4.3886141    4.3886141    4.3886141    7753.4498   -15977.454    10350.438    28887.365   -5561.5518    -27125.91   -11272.376    84.524416 
   41400    1591.4664   -112.47364    1.4399923   -111.03365    16481.757    4.3915825    4.3915825    4.3915825    16481.757     32825.25   -11880.915    28500.935   -5661.4617    6698.5171    9254.3958    84.696046 
   41500      908.492   -111.87628   0.82202266   -111.05426   -8583.6282    4.3833242    4.3833242    4.3833242   -8583.6282    54340.793   -8919.6907   -71171.987   -681.59687    904.36927    38548.456    84.219138 
   41600    1437.5664   -112.34324    1.3007403    -111.0425    18185.298    4.3743069    4.3743069    4.3743069    18185.298    3604.3151    42281.585    8669.9942   -4457.2005    -35683.05   -20181.865    83.700442 
   41700    1692.7879   -112.58005    1.5316701   -111.04838    16004.333    4.3869509    4.3869509    4.3869509    16004.333    46743.669   -1743.9478    3013.2787   -2568.8533   -8911.6902    30533.996    84.428356 
   41800     1418.026   -112.31923    1.2830598   -111.03617    1260.0606     4.409551     4.409551     4.409551    1260.0606    57341.009    -30437.02   -23123.807    21862.643   -8337.8768    9607.6301    85.739926 
   41900    1680.3296   -112.53171    1.5203975   -111.01131   -26010.639    4.4053428    4.4053428    4.4053428   -26010.639   -25382.251   -55613.685    2964.0201   -26699.709   -15943.296   -3473.8831    85.494688 
   42000    1888.6989   -112.71343    1.7089344    -111.0045    6624.0094    4.3697541    4.3697541    4.3697541    6624.0094     30424.36   -28093.985    17541.653   -16792.623    9921.8905     40885.61    83.439364 
   42100     2339.377   -113.12963    2.1167174   -111.01291    37020.642    4.3552188    4.3552188    4.3552188    37020.642    6681.7545    14924.303    89455.868    -381.1002    5133.6856   -23356.063     82.60949 
   42200    1427.0919   -112.34993    1.2912627   -111.05867   -11659.467    4.3764606    4.3764606    4.3764606   -11659.467   -30835.062    -27982.44    23839.101    -16391.82   -3070.4405    22904.963    83.824132 
   42300    1412.9317   -112.34829    1.2784503   -111.06984    1163.8136    4.3895698    4.3895698    4.3895698    1163.8136   -557.10909   -20179.379    24227.929   -13436.501    5282.6022     34809.33    84.579647 
   42400    2508.0744   -113.31183    2.2693584   -111.04248   -4374.8651     4.391472     4.391472     4.391472   -4374.8651   -45120.391    47185.829   -15190.033    5041.4669   -2851.3521   -24012.092    84.689654 
   42500    1249.5474   -112.20571    1.1306168    -111.0751   -12582.306      4.36368      4.36368      4.36368   -12582.306   -19374.672    -10480.13   -7892.1176   -16518.365   -5635.0353    43400.219    83.091901 
   42600    1009.4653    -111.9932   0.91338538   -111.07981    37260.358    4.3364004    4.3364004    4.3364004    37260.358     41980.17    20102.673    49698.231   -26645.408    2066.2935    42950.186    81.543272 
   42700    2493.0911   -113.34563    2.2558012   -111.08983    23247.972    4.3592975    4.3592975    4.3592975    23247.972   -5984.1628     10404.59    65323.489    105.20568    15177.603   -16212.204    82.841802 
   42800    1220.4313   -112.20156    1.1042719   -111.09729    23128.094    4.3855538    4.3855538    4.3855538    23128.094     42042.49    18093.811    9247.9825    2311.5574   -3080.9883    37970.394    84.347714 
   42900    1202.7423    -112.1512    1.0882665   -111.06293   -12029.515    4.4040578    4.4040578    4.4040578   -12029.515    1446.7922   -32061.584   -5473.7528   -20070.262    912.91535    8331.9383    85.419894 
   43000    2522.1665   -113.29094    2.2821092   -111.00883   -37195.423    4.4005011    4.4005011    4.4005011   -37195.423    -18531.71   -38182.453   -54872.106    16410.473    4149.0854   -7285.3235    85.213108 
   43100    1125.2937   -112.02818    1.0181894   -111.00999    21912.287    4.3672916    4.3672916    4.3672916    21912.287    83288.033   -24180.841    6629.6701   -16145.168   -2830.9846    57324.159    83.298382 
   43200    2398.1461   -113.17814     2.169893   -111.00825    13448.299    4.3616865    4.3616865    4.3616865    13448.299   -3667.1721    34802.848    9209.2209   -44078.108    8501.1449   -13230.381     82.97807 
   43300    2019.2241   -112.86935    1.8270364   -111.04231   -5250.9975    4.3672245    4.3672245    4.3672245   -5250.9975    28990.394   -22582.034   -22161.353    30368.399   -10104.394    9358.4623    83.294543 
   43400    1375.7591   -112.30735    1.2448157   -111.06254    23953.857    4.3622491    4.3622491    4.3622491    23953.857    17999.732        59968    -6106.162   -14326.726     3136.831     34395.48    83.010183 
   43500    1902.9158   -112.78917    1.7217982   -111.06737    8672.0676    4.3835308    4.3835308    4.3835308    8672.0676   -11642.588    45785.755   -8126.9634   -37595.726   -3546.3702   -8624.7264    84.231042 
   43600    1444.5667     -112.378    1.3070743   -111.07092   -18020.993    4.3760943    4.3760943    4.3760943   -18020.993    24085.917   -37477.215   -40671.681    29852.282   -9288.8613     27494.99    83.803086 
   43700    1348.9884   -112.27185    1.2205931   -111.05126    29337.859    4.3515076    4.3515076    4.3515076    29337.859    32976.132    31698.619    23338.825   -11309.775    11478.327    15097.375    82.398485 
   43800    2351.6255   -113.17887    2.1278002   -111.05107   -398.05788    4.3781485    4.3781485    4.3781485   -398.05788   -7118.4368    16296.423    -10372.16   -8269.0581   -9106.5272   -8430.1967    83.921157 
   43900    1300.6668   -112.22343    1.1768706   -111.04656   -31987.772     4.397763     4.397763     4.397763   -31987.772     30694.75   -56133.743   -70524.323    38738.025    1894.3294    40539.338    85.054139 
   44000     1837.388   -112.69323    1.6625073   -111.03073    15975.152    4.3783537    4.3783537    4.3783537    15975.152    29774.882    20657.915   -2507.3423    -4297.857    4123.4502   -9702.4894    83.932956 
   44100    2844.5908   -113.59726    2.5738456   -111.02342    1108.0613    4.3618174    4.3618174    4.3618174    1108.0613    10434.674    10254.623   -17365.113   -9666.5425   -8883.5713     63.54692    82.985542 
   44200    1132.6535   -112.09522    1.0248487   -111.07038    14830.286    4.3618944    4.3618944    4.3618944    14830.286    54664.156   -21148.965    10975.668    28752.769     10122.81    45046.417     82.98994 
   44300    2294.9548   -113.14881    2.0765233   -111.07229   -18982.563     4.385769     4.385769     4.385769   -18982.563    9527.0759   -37258.331   -29216.433   -1348.9676   -4457.6976   -23440.063    84.360133 
   44400    1875.3959   -112.74642    1.6968976   -111.04952   -39254.294     4.398873     4.398873     4.398873   -39254.294   -24997.729   -64906.109   -27859.045   -7709.9109   -4591.8602   -4617.7686    85.118559 
   44500    702.17715   -111.68082   0.63534464   -111.04547     -11201.6     4.378573     4.378573     4.378573     -11201.6    23329.987   -84368.242    27433.454    22930.806    -922.3382    63582.502    83.945572 
   44600    2415.0375   -113.20939    2.1851767   -111.02421      10676.2    4.3653137    4.3653137    4.3653137      10676.2     37107.43     -43641.5     38562.67   -11139.179    4786.1947   -16954.937    83.185259 
   44700    1722.3464   -112.61727    1.5584152   -111.05886    -5589.767    4.3743665    4.3743665    4.3743665    -5589.767    7618.8722   -62307.511    37919.337     1523.276    -458.0794    10159.531     83.70386 
   44800    1467.4651   -112.39848    1.3277932   -111.07069   -26789.276    4.3816477    4.3816477    4.3816477   -26789.276    196.20047   -62394.578   -18169.449    20232.805   -10694.194    50947.465    84.122536 
   44900    2349.5347   -113.18362    2.1259084   -111.05771   -7276.6048    4.3745464    4.3745464    4.3745464   -7276.6048    3241.1919   -17428.371   -7642.6355   -5684.8574   -836.42875   -46355.339    83.714188 
   45000    1793.5013    -112.6828    1.6227977      -111.06   -7746.6909    4.3689715    4.3689715    4.3689715   -7746.6909   -7839.9898    -4295.045   -11105.038    21417.211   -5810.3694   -120.96116    83.394544 
   45100    1919.5897    -112.8045    1.7368851   -111.06761   -37150.347    4.3739565    4.3739565    4.3739565   -37150.347   -32033.144   -48962.005   -30455.891    29620.202   -10199.639     41686.51    83.680329 
   45200    2088.8806   -112.94676     1.890063    -111.0567    177.87493    4.3733249    4.3733249    4.3733249    177.87493    2458.0878   -16495.238    14570.775   -6511.5086    8139.3762   -52807.231    83.644086 
   45300    1305.5029   -112.24598    1.1812464   -111.06474   -31081.657    4.3964158    4.3964158    4.3964158   -31081.657    -20433.27    -59993.41   -12818.291    17491.046   -8647.4744    2263.9702    84.975997 
   45400    2002.0102   -112.85296    1.8114609   -111.04149   -46606.862    4.3904347    4.3904347    4.3904347   -46606.862   -54257.235   -52868.409   -32694.942   -2199.6876    10526.075    22476.808    84.629654 
   45500     1599.167   -112.48424      1.44696   -111.03728    26134.125    4.3499667    4.3499667    4.3499667    26134.125    27932.663   -11102.936    61572.648    -16513.89    8295.3052   -34820.097    82.310984 
   45600    1657.4698   -112.56953    1.4997135   -111.06982    5720.4109    4.3495882    4.3495882    4.3495882    5720.4109    14725.341    -8788.628     11224.52     27768.96    -18071.09   -21018.967    82.289502 
   45700    1734.5931    -112.6581    1.5694963    -111.0886    6918.9152    4.3720304    4.3720304    4.3720304    6918.9152   -46144.693    34382.512    32518.927   -4472.8544   -2045.8972    15223.334    83.569829 
   45800    1729.6001    -112.6467    1.5649786   -111.08172   -20135.334     4.394088     4.394088     4.394088   -20135.334     -63639.1    12625.265   -9392.1665   -31867.407    13560.319   -4617.4844     84.84109 
   45900    1596.6242   -112.50869    1.4446591   -111.06403   -13341.599    4.3878539    4.3878539    4.3878539   -13341.599   -29170.598    35388.621   -46242.819    10038.321   -23569.592     -47314.5    84.480501 
   46000    1823.7218    -112.6917    1.6501418   -111.04155    37729.774    4.3546429    4.3546429    4.3546429    37729.774   -10997.007     49111.44     75074.89   -12164.739    8812.0806    1129.8872    82.576724 
   46100    1754.1396   -112.65047    1.5871824   -111.06329    19990.825    4.3566545    4.3566545    4.3566545    19990.825   -10786.368    44094.004    26664.839   -27492.852    3424.2903    24106.744    82.691214 
   46200    1047.5566   -112.02833   0.94785123   -111.08048   -4008.3917    4.3854793    4.3854793    4.3854793   -4008.3917   -29630.317    26466.015   -8860.8727    12121.042   -39256.272   -32328.654    84.343417 
   46300    1815.6681   -112.70094    1.6428546   -111.05809    -23418.14    4.3940122    4.3940122    4.3940122    -23418.14   -53414.908   -63847.808    47008.296   -12485.734   -1526.1668   -9979.7722      84.8367 
   46400    2389.9899   -113.20791    2.1625131    -111.0454   -6965.4429     4.370005     4.370005     4.370005   -6965.4429   -6263.9167   -33773.068    19140.656   -15688.209   -2937.8044    14271.436    83.453739 
   46500    1598.4084    -112.5022    1.4462735   -111.05592    24277.635    4.3404118    4.3404118    4.3404118    24277.635    42034.831     6723.838    24074.236     8091.377   -25775.799   -39249.739    81.769775 
   46600    1661.8752   -112.59628    1.5036996   -111.09258    5331.9456    4.3558402    4.3558402    4.3558402    5331.9456   -15848.186   -38024.375    69868.397   -20228.925   -4782.2084   -10912.259    82.644855 
   46700    2184.2658   -113.04589    1.9763696   -111.06952   -461.20913    4.3868188    4.3868188    4.3868188   -461.20913   -15394.692   -16761.568    30772.633    -7788.522    11491.498    18148.909    84.420729 
   46800    1326.2304   -112.25271    1.2000011   -111.05271    10032.911    4.3878301    4.3878301    4.3878301    10032.911     22708.23    20282.464    -12891.96    6450.2557   -11187.231   -39302.573    84.479123 
   46900    1272.7377   -112.19121    1.1515998   -111.03961    11729.043    4.3810067    4.3810067    4.3810067    11729.043   -29763.194    42809.903    22140.421   -9819.7728    5174.2108   -11282.073    84.085621 
   47000    1908.4696   -112.76418    1.7268234   -111.03735    6039.5926    4.3595115    4.3595115    4.3595115    6039.5926   -33958.762    72629.818   -20552.278   -2965.6557     44305.02    23915.299    82.853998 
   47100    1131.9183   -112.08108    1.0241835    -111.0569    46515.786    4.3462869    4.3462869    4.3462869    46515.786    33586.713    68979.844    36980.802    10801.991    -27911.65   -50536.393    82.102272 
   47200    1681.4049    -112.6032    1.5213705   -111.08183    619.92633    4.3784279    4.3784279    4.3784279    619.92633   -16030.578    4799.7389    13090.618    5966.1575     -17411.2   -2932.8415    83.937224 
   47300     2111.973   -112.95857    1.9109576   -111.04761   -14006.165    4.3935282    4.3935282    4.3935282   -14006.165    -38140.69    21269.833   -25147.638    -4984.929    26087.215    9219.7199    84.808671 
   47400     1421.645   -112.33675    1.2863343   -111.05041   -20904.582    4.3763016    4.3763016    4.3763016   -20904.582   -251.17206   -21508.437   -40954.136   -59.837071   -27443.872   -52475.012    83.814997 
   47500    1596.8633   -112.50408    1.4448754   -111.05921   -17490.019    4.3517159    4.3517159    4.3517159   -17490.019    7452.3813   -31101.341   -28821.097   -4758.3357   -9131.3162    10592.684    82.410319 
   47600    1793.6112    -112.7034    1.6228971   -111.08051    29378.487    4.3412905    4.3412905    4.3412905    29378.487   -12616.366    60018.756    40733.069    5712.7572     16848.55    18789.125    81.819445 
   47700    2029.9484   -112.94428    1.8367399   -111.10754   -8606.6011    4.3680449    4.3680449    4.3680449   -8606.6011   -34962.482    20135.491   -10992.812    4798.7471   -19686.265   -37663.949    83.341496 
   47800    1446.8151   -112.39979    1.3091087   -111.09068    12484.663    4.3802167    4.3802167    4.3802167    12484.663   -17909.579    91417.405   -36053.836    2946.0668    3948.6709    11136.455    84.040143 
   47900    1481.4638   -112.40754    1.3404596   -111.06708    -4597.508    4.3771684    4.3771684    4.3771684    -4597.508   -19353.724    15506.909   -9945.7094    2160.0527    13666.209    32587.476    83.864811 
   48000    1845.7526    -112.7181    1.6700758   -111.04802    11703.812     4.370566     4.370566     4.370566    11703.812   -29177.166     38646.78    25641.821    17843.135   -22727.068     -32246.8    83.485882 
   48100    1399.9558   -112.31369    1.2667095   -111.04698    5474.9896    4.3622124    4.3622124    4.3622124    5474.9896    9782.1388    34603.195   -27960.366   -12507.038    26417.985    40556.925    83.008093 
   48200    1392.9495   -112.32298      1.26037   -111.06261   -2584.0106    4.3745218    4.3745218    4.3745218   -2584.0106    1813.0775   -32163.474    22598.364    14182.411    3290.5923    12251.424    83.712776 
   48300    1707.1117   -112.58798    1.5446305   -111.04335   -11354.422     4.390139     4.390139     4.390139   -11354.422    12563.672   -37350.289   -9276.6482    14890.316   -2512.2363   -12933.495    84.612559 
   48400    1138.5714   -112.07003    1.0302034   -111.03983   -7917.1658    4.3847658    4.3847658    4.3847658   -7917.1658    69852.396   -26979.393   -66624.501    -10280.84    30575.215     60112.94    84.302257 
   48500    2294.2077   -113.10235    2.0758473    -111.0265    4316.6709    4.3744491    4.3744491    4.3744491    4316.6709     24594.77   -4989.6694   -6655.0881   -3126.4207   -4750.7087   -14315.994    83.708606 
   48600    1482.1306   -112.39459    1.3410629   -111.05353    2791.4326    4.3659802    4.3659802    4.3659802    2791.4326    53839.836   -24778.011   -20687.526   -17626.748    2222.2113    22275.801    83.223368 
   48700    1255.4839   -112.21204    1.1359882   -111.07605     20829.57    4.3615264    4.3615264    4.3615264     20829.57    37967.974    66983.255   -42462.519   -2199.9413    32383.898    33016.741    82.968937 
   48800     2814.073   -113.60867    2.5462324   -111.06244   -105.47184    4.3811565    4.3811565    4.3811565   -105.47184      23531.8    2050.6608   -25898.877   -4766.8018    1664.8043   -14221.343    84.094249 
   48900    1292.2037   -112.23137     1.169213   -111.06216    138.28076     4.391837     4.391837     4.391837    138.28076    85141.703   -4562.8999   -80163.961   -4683.0235    15377.326    47837.609    84.710775 
   49000    1609.6796   -112.48129     1.456472   -111.02482   -1774.0798     4.395063     4.395063     4.395063   -1774.0798    14811.004    24949.762   -45083.006    2742.1455    17517.204   -12451.561    84.897579 
   49100    1667.7105   -112.51743    1.5089795   -111.00845   -9272.3298    4.3957714    4.3957714    4.3957714   -9272.3298    45017.651   -20080.208   -52754.432    18412.495   -9505.0578    20641.038    84.938639 
   49200    1457.1085   -112.33026    1.3184224   -111.01184    12598.992    4.3714922    4.3714922    4.3714922    12598.992    44795.689    30412.613   -37411.326     684.0219    19309.696    25282.276    83.538973 
   49300    1319.7755   -112.22517    1.1941606   -111.03101    21769.952    4.3559016    4.3559016    4.3559016    21769.952    8184.4987    50786.785    6338.5715    29072.634    24275.011   -17353.027    82.648349 
   49400    1583.1459   -112.49586    1.4324637    -111.0634   -12521.226    4.3653611    4.3653611    4.3653611   -12521.226    27846.105   -29815.486   -35594.298    18748.574   -10110.712    44866.158     83.18797 
   49500    1923.8889   -112.80747    1.7407751   -111.06669    -1440.864    4.3754599    4.3754599    4.3754599    -1440.864    16020.908    24370.698   -44714.199   -4609.5362   -10406.999    7407.2967    83.766645 
   49600     1300.928   -112.24897     1.177107   -111.07187    6523.3746     4.375101     4.375101     4.375101    6523.3746    5925.5067    35379.072   -21734.455    26307.825    42001.493   -7131.3602    83.746033 
   49700    2336.3499   -113.15906    2.1139784   -111.04508    8135.1149    4.3751141    4.3751141    4.3751141    8135.1149    42919.953    7928.2798   -26442.888    12203.599   -12814.549    28680.713    83.746784 
   49800    1812.3797    -112.6928    1.6398792   -111.05292   -26738.346    4.3790401    4.3790401    4.3790401   -26738.346   -15159.426   -1959.8622   -63095.752   -19500.355   -11487.101   -19003.633     83.97244 
   49900    1280.4534   -112.22273    1.1585811   -111.06415    10440.016    4.3658612    4.3658612    4.3658612    10440.016    69315.936    2436.1905    -40432.08    10833.824    33328.573   -9163.0521    83.216563 
   50000    2424.8226   -113.24662    2.1940304   -111.05259   -3669.5049     4.371964     4.371964     4.371964   -3669.5049    19601.962    6615.6228     -37226.1    16033.162   -11085.556    3904.8087    83.566025 
   50100    841.89621    -111.8251   0.76176539   -111.06333   -22006.587    4.3760764    4.3760764    4.3760764   -22006.587    18113.326   -27101.467   -57031.619   -33043.341   -7525.9483    -23155.58    83.802058 
   50200    1729.3379   -112.61794    1.5647412    -111.0532    10552.911    4.3645111    4.3645111    4.3645111    10552.911    60271.167   -5654.1688   -22958.264    9668.6645    37931.729   -3700.0067    83.139384 
   50300    2105.5398   -112.95421    1.9051367   -111.04907    6073.6094    4.3686862    4.3686862    4.3686862    6073.6094     12402.76   -315.96731    6134.0355    -656.6052   -7261.1873    17082.139    83.378208 
   50400    1293.2187   -112.23048    1.1701314   -111.06035   -19881.657     4.377596     4.377596     4.377596   -19881.657   -5144.4719   -27149.274   -27351.225   -21070.462    16029.632   -20727.475    83.889391 
   50500    2138.7396   -112.97539    1.9351765   -111.04021    2335.5195    4.3762494    4.3762494    4.3762494    2335.5195    43889.441   -15181.372    -21701.51    9899.7391    13103.539    7914.7016    83.811997 
   50600    1737.5694   -112.61927    1.5721893   -111.04708    2946.1766     4.375748     4.375748     4.375748    2946.1766   -1012.8402   -2694.4594    12545.829    -14637.09   -2269.5614    48753.262    83.783191 
   50700    2024.9098   -112.87892     1.832181   -111.04674   -14820.286    4.3785958    4.3785958    4.3785958   -14820.286   -7599.0983    -12958.28    -23903.48   -28376.055     11168.42   -16970.794    83.946884 
   50800    1629.0366   -112.52689    1.4739865   -111.05291   -16714.044    4.3720869    4.3720869    4.3720869   -16714.044    4937.6998   -28477.025   -26602.808    11912.552    14673.435    30424.338    83.573072 
   50900    1384.9468   -112.31381     1.253129   -111.06068    656.24725    4.3649339    4.3649339    4.3649339    656.24725    20380.247   -24081.807    5670.3017     14738.66     12352.24    40911.219    83.163551 
   51000    2130.3672   -112.99095     1.927601   -111.06335   -20561.657    4.3793266    4.3793266    4.3793266   -20561.657   -36720.763    -9369.107   -15595.102   -27064.634   -9643.5312   -12991.773    83.988921 
   51100    1263.3181    -112.2044    1.1430768   -111.06132   -57.945743    4.3794666    4.3794666    4.3794666   -57.945743    15732.013   -14798.252   -1107.5982     11151.62     4347.703    35954.229    83.996978 
   51200    1511.9154   -112.41073    1.3680128   -111.04272    41180.796    4.3649297    4.3649297    4.3649297    41180.796    11871.722    73277.862    38392.804    20616.036    6847.3242    15586.966     83.16331 
   51300     2094.797   -112.95053    1.8954163   -111.05511   -18197.815    4.3789676    4.3789676    4.3789676   -18197.815   -43762.507    6819.0158   -17649.952   -17647.178   -37253.714   -6287.7442    83.968268 
   51400    1349.4695   -112.29043    1.2210284    -111.0694   -5667.9702    4.3712884    4.3712884    4.3712884   -5667.9702    986.85127   -1030.3204   -16960.441    3165.9707   -12483.557    36232.656    83.527289 
   51500    2010.2056   -112.87986    1.8188762   -111.06098     17740.19    4.3535336    4.3535336    4.3535336     17740.19    3316.8936    1484.9101    48418.767    30387.322    15431.046    14929.339    82.513632 
   51600    2136.7202   -113.00982    1.9333493   -111.07647   -31747.836    4.3762694    4.3762694    4.3762694   -31747.836   -48552.202   -13792.251   -32899.054   -2093.3322   -21444.143   -8933.7685    83.813146 
   51700    1124.3552   -112.10116    1.0173402   -111.08382   -11555.763     4.368838     4.368838     4.368838   -11555.763    19700.504   -29392.732   -24975.059    -9764.068   -17460.859    33713.041    83.386901 
   51800    1501.4044   -112.42568    1.3585022   -111.06718    17665.389    4.3532876    4.3532876    4.3532876    17665.389    64096.169   -20514.607    9414.6055    18395.919    12401.531    13538.458    82.499645 
   51900    1576.8544   -112.50416     1.426771   -111.07739   -37144.431    4.3777136    4.3777136    4.3777136   -37144.431   -12407.632   -47570.112   -51455.548    3462.2317      1171.74   -38377.318    83.896152 
   52000    1976.7473   -112.85911    1.7886025   -111.07051   -1221.6496    4.3636514    4.3636514    4.3636514   -1221.6496    36987.791   -30045.115   -10607.625    -1378.911   -13522.789    11232.357    83.090265 
   52100    1843.4373    -112.7456    1.6679808   -111.07762    6501.6856    4.3509699    4.3509699    4.3509699    6501.6856    23946.939   -41476.586    37034.704   -5572.4614     6046.803    7458.3397    82.367947 
   52200    1030.3513   -112.03638   0.93228347    -111.1041   -28174.638    4.3663911    4.3663911    4.3663911   -28174.638   -16282.552   -27362.316   -40879.044    15680.023    17361.454    -56821.48    83.246869 
   52300    2223.4351   -113.09412    2.0118108    -111.0823    10118.891    4.3653837    4.3653837    4.3653837    10118.891    12645.537   -7071.1959    24782.331   -5413.3523    1992.0616    8443.2383    83.189262 
   52400    1888.2506   -112.79261    1.7085288   -111.08408    -38060.27    4.3835214    4.3835214    4.3835214    -38060.27   -48666.213   -55924.169   -9590.4287   -29581.487    1376.9349    3853.4045    84.230502 
   52500    1429.8184    -112.3707    1.2937297   -111.07697   -32997.346    4.3724143    4.3724143    4.3724143   -32997.346   -37050.154   -37498.004    -24443.88    17842.167    21418.852   -50563.566    83.591849 
   52600    1857.4415   -112.73187    1.6806521   -111.05122    33406.064    4.3395047    4.3395047    4.3395047    33406.064    34926.828    25928.261    39363.104    1912.5864    23743.243    21375.575    81.718518 
   52700    2002.6558   -112.88869     1.812045   -111.07665   -11051.212    4.3654303    4.3654303    4.3654303   -11051.212    18937.931   -50979.512   -1112.0551   -7043.4785   -9288.4504    21083.612    83.191924 
   52800    1469.9877   -112.39579    1.3300758   -111.06571   -24572.311    4.3795272    4.3795272    4.3795272   -24572.311   -35317.268   -44499.114    6099.4486    19058.592    21279.212   -28431.412    84.000465 
   52900     1043.114   -112.00931   0.94383144   -111.06548    36638.279    4.3701955    4.3701955    4.3701955    36638.279    102012.67     20491.49   -12589.323    -1473.214    32877.785    32316.217    83.464651 
   53000    2574.6741    -113.3859    2.3296192   -111.05628   -3473.6019    4.3705173    4.3705173    4.3705173   -3473.6019    22565.473   -15892.726   -17093.552    1875.9968    -10596.57    4393.9706    83.483095 
   53100    1536.3535   -112.46996    1.3901249   -111.07984    29040.647    4.3465611    4.3465611    4.3465611    29040.647    82060.056   -11555.879    16617.765    2766.7234    16034.342   -30622.395    82.117811 
   53200    1332.9447   -112.31106    1.2060764   -111.10498    5036.7786    4.3548139    4.3548139    4.3548139    5036.7786    20702.227   -6521.5756    929.68438    18616.654    29705.457    23458.449     82.58645 
   53300    1861.5266   -112.75985    1.6843484    -111.0755   -39773.382    4.3873282    4.3873282    4.3873282   -39773.382   -47168.014   -56842.937   -15309.194   -17237.688   -10846.822    4523.0685    84.450139 
   53400    1723.8371    -112.6136    1.5597641   -111.05384    14244.229    4.3702936    4.3702936    4.3702936    14244.229     50517.03    11475.252   -19259.595   -15702.598    15700.895    -12744.31    83.470275 
   53500    1791.9901   -112.66929    1.6214303   -111.04786   -9330.7795    4.3607333    4.3607333    4.3607333   -9330.7795   -4097.0979   -23554.922   -340.31824    13446.535    26491.089     28245.07    82.923684 
   53600    1422.8701   -112.34512    1.2874428   -111.05768   -10480.138    4.3703922    4.3703922    4.3703922   -10480.138   -38698.607   -35282.919     42541.11   -36185.502    -14411.36   -580.32312    83.475927 
   53700    2320.7076   -113.13942     2.099825    -111.0396    5909.6493    4.3628503    4.3628503    4.3628503    5909.6493    1574.4549    -7086.449    23240.942   -7125.8017    23118.332   -880.15723    83.044513 
   53800    1419.9166   -112.35563    1.2847704   -111.07086   -16176.707    4.3737254    4.3737254    4.3737254   -16176.707    4253.0237   -29312.003   -23471.142    6352.5691    24512.451    37236.321    83.667063 
   53900    1537.6607   -112.45907    1.3913077   -111.06776   -29307.687    4.3730259    4.3730259    4.3730259   -29307.687   -32310.058   -71116.904    15503.901   -44670.222   -11179.939    16230.603    83.626928 
   54000    2105.1251   -112.96382    1.9047615   -111.05906    37774.642    4.3515656    4.3515656    4.3515656    37774.642    37928.753    34164.589    41230.585    10392.761    8467.0361   -6632.5483    82.401781 
   54100     1555.391   -112.48765    1.4073504    -111.0803   -1390.2429    4.3625543    4.3625543    4.3625543   -1390.2429    18470.742   -17829.705   -4811.7654   -11167.179     15013.59    41942.091    83.027608 
   54200    1259.4243   -112.21764    1.1395535   -111.07809    -16530.92    4.3802806    4.3802806    4.3802806    -16530.92   -4408.8309   -36835.104    -8348.824   -45250.538   -359.76457    11978.513    84.043821 
   54300    2019.6411   -112.87232    1.8274137    -111.0449    -38170.18    4.3891104    4.3891104    4.3891104    -38170.18   -53101.707   -18884.636   -42524.196    38996.278    342.22852   -10704.196    84.553096 
   54400     1097.023   -112.02232   0.99260945   -111.02971   -26915.998    4.3862573    4.3862573    4.3862573   -26915.998   -33232.727   -29710.102   -17805.165   -35051.001    13780.342    32499.778    84.388317 
   54500    1700.3533   -112.56732    1.5385154    -111.0288      -1490.3    4.3731358    4.3731358    4.3731358      -1490.3   -15171.993    6691.5276     4009.565   -25272.473   -4544.1821   -14592.519    83.633234 
   54600    2073.3771   -112.90406    1.8760352   -111.02803    14197.612    4.3583041    4.3583041    4.3583041    14197.612   -38129.742    94303.996   -13581.419    15489.218    20009.707   -2530.9309    82.785177 
   54700    1369.8977   -112.30436    1.2395122   -111.06485   -19742.262    4.3673983    4.3673983    4.3673983   -19742.262    -36833.92   -22612.389    219.52357   -57476.336    10188.137    23754.442     83.30449 
   54800    2165.6706   -113.02303    1.9595442   -111.06348   -22115.445    4.3812958    4.3812958    4.3812958   -22115.445   -46945.804   -28429.525    9028.9946    283.94212   -12.152819   -3897.1491    84.102273 
   54900    2007.9976   -112.87942    1.8168784   -111.06254   -7308.3412    4.3682699    4.3682699    4.3682699   -7308.3412    -30052.69    32888.317   -24760.651    6132.4936    26725.729   -15089.026    83.354373 
   55000    1610.0224   -112.52503    1.4567821   -111.06825    501.09189    4.3588752    4.3588752    4.3588752    501.09189    1878.2022   -16718.145    16343.219    -38363.69    15283.262    21136.562    82.817726 
   55100    1847.8566   -112.73575    1.6719795   -111.06377   -28534.121      4.37732      4.37732      4.37732   -28534.121   -31498.475   -51840.487   -2263.4016     39820.51   -3238.0163    6684.4218    83.873522 
   55200    1359.2549   -112.27381    1.2298824   -111.04393   -36843.047    4.3870072    4.3870072    4.3870072   -36843.047   -85398.457   -7306.6749   -17824.009    11840.782    35771.014   -20998.108    84.431606 
   55300    1654.7971   -112.52653    1.4972952   -111.02923   -29976.125    4.3846718    4.3846718    4.3846718   -29976.125   -30281.077   -32986.507   -26660.793   -21139.175    17031.905    29496.876    84.296837 
   55400    1782.8472   -112.65794    1.6131576   -111.04478   -21133.884    4.3697669    4.3697669    4.3697669   -21133.884   -23783.702    -45716.71    6098.7611    24905.642   -6022.2699    33875.076    83.440101 
   55500    1913.4233   -112.78434    1.7313056   -111.05304    34221.712    4.3443842    4.3443842    4.3443842    34221.712   -40932.469    34494.079    109103.53    11263.617    27075.499   -34988.852     81.99449 
   55600    1363.4961   -112.33346    1.2337199   -111.09974    4089.3009    4.3625617    4.3625617    4.3625617    4089.3009   -472.37424   -8996.7577    21737.034   -15279.685     14864.76    27079.792    83.028031 
   55700    1385.8198   -112.34062    1.2539189    -111.0867   -17756.546    4.3885466    4.3885466    4.3885466   -17756.546   -25332.258   -53652.676    25715.294    20692.481   -24846.534    29669.703    84.520518 
   55800    2391.4433   -113.21837    2.1638281   -111.05454   -566.95587    4.3816131    4.3816131    4.3816131   -566.95587   -53478.424    19410.124    32367.433   -217.76306    1755.0532   -27202.389    84.120542 
   55900    1753.4809   -112.65338    1.5865863    -111.0668   -13478.042    4.3648644    4.3648644    4.3648644   -13478.042   -22878.337   -7128.4947   -10427.295   -27844.791    26555.593    20932.566    83.159577 
   56000    1125.5478   -112.09968    1.0184193   -111.08126   -772.54331    4.3451627    4.3451627    4.3451627   -772.54331   -5456.7511    2859.0707    280.05051    38941.284   -11172.434    41609.195     82.03858 
   56100    2008.2222   -112.91785    1.8170816   -111.10077     22844.93    4.3554476    4.3554476    4.3554476     22844.93   -27604.953    35719.237    60420.506    19471.485   -19431.396   -34248.779    82.622509 
   56200    1774.8541   -112.69234    1.6059252   -111.08642   -11089.808    4.3899311    4.3899311    4.3899311   -11089.808   -24514.574   -948.04235   -7806.8062   -18948.708    9693.7501    18994.327    84.600537 
   56300     688.9768   -111.69032   0.62340068   -111.06692   -3954.2469    4.3848549    4.3848549    4.3848549   -3954.2469   -47947.874   -45847.618    81932.751    37447.528   -9446.6488    35630.501    84.307394 
   56400    2397.6769   -113.19877    2.1694684    -111.0293    6572.7456    4.3641205    4.3641205    4.3641205    6572.7456   -33116.268    36795.813    16038.692   -9330.3578       5516.1   -21578.757    83.117066 
   56500    1624.8786   -112.52145    1.4702243   -111.05123   -19775.631    4.3650222    4.3650222    4.3650222   -19775.631   -25543.325   -19891.376   -13892.192    14798.255   -1006.0184    60740.532    83.168598 
   56600    1374.3278   -112.31404    1.2435207   -111.07052   -23791.555    4.3719088    4.3719088    4.3719088   -23791.555   -22956.556   -55873.313    7455.2051    49573.087   -2586.9724    29866.423    83.562857 
   56700    2378.9554   -113.21054    2.1525289   -111.05801   -13761.406    4.3820152    4.3820152    4.3820152   -13761.406   -13547.446    1742.5529   -29479.325   -19792.086    13529.753   -17679.701    84.143704 
   56800    1141.9569    -112.1148    1.0332666   -111.08153   -20941.233    4.3752751    4.3752751    4.3752751   -20941.233    26988.165   -49133.251   -40678.613    14648.117    14732.683     47476.82    83.756032 
   56900    1392.7422   -112.33298    1.2601824    -111.0728    9973.7882    4.3524759    4.3524759    4.3524759    9973.7882    22481.433   -24442.146    31882.077    56318.975   -5183.1748    12660.803    82.453504 
   57000    2460.8017   -113.29178    2.2265851    -111.0652   -2789.7474     4.372675     4.372675     4.372675   -2789.7474   -17458.078    16468.089   -7379.2533   -11768.248    8941.3341   -1579.3902    83.606801 
   57100    1156.7652   -112.11684    1.0466655   -111.07018   -10505.846    4.3815983    4.3815983    4.3815983   -10505.846    8784.5589   -5112.2745   -35189.821    19471.338   -1340.4699    62742.597    84.119691 
   57200    1315.5831   -112.24994    1.1903673   -111.05957    39168.854    4.3684221    4.3684221    4.3684221    39168.854    9298.7934    40079.313    68128.455    48036.023    6835.6191    5280.9695    83.363086 
   57300    2631.8164   -113.42377    2.3813228   -111.04244    1396.9532     4.377355     4.377355     4.377355    1396.9532    10847.525   -1865.7704   -4790.8952   -20480.869   -1497.3576    5798.6258    83.875538 
   57400    1432.5934   -112.37087    1.2962406   -111.07463    6388.8341    4.3604832    4.3604832    4.3604832    6388.8341    3054.7686    3363.2082    12748.526    31914.464   -7054.5284     38775.54    82.909414 
   57500    1428.8858   -112.37452    1.2928859   -111.08163    20193.029    4.3421335    4.3421335    4.3421335    20193.029    30908.697   -16414.451     46084.84    57194.709    384.58769    7522.2948    81.867122 
   57600    2541.4242   -113.38697     2.299534   -111.08743   -5591.8161    4.3636728    4.3636728    4.3636728   -5591.8161   -5358.7142    8968.6543   -20385.389   -25324.159    8209.8006    -11007.85    83.091486 
   57700    1302.2641   -112.26621    1.1783159   -111.08789    2418.0113    4.3755527    4.3755527    4.3755527    2418.0113    33035.215   -45956.542    20175.361    25668.198    1299.3186    11606.476    83.771976 
   57800     1138.745   -112.10551    1.0303604   -111.07515    17346.095    4.3787303    4.3787303    4.3787303    17346.095    18606.249   -1108.3439    34540.379     29898.83    8731.3518    9583.2864    83.954618 
   57900     2123.381   -112.96517    1.9212798   -111.04389    12269.318    4.3819833    4.3819833    4.3819833    12269.318    13512.154    3457.0685    19838.731   -11574.616    25000.674    -11811.93    84.141867 
   58000     1368.462   -112.29031    1.2382132    -111.0521    4554.5081    4.3647922    4.3647922    4.3647922    4554.5081   -10387.197   -38297.224    62347.945    64913.623    2049.1419     20529.04     83.15545 
   58100    1432.2153   -112.34292    1.2958985   -111.04702    41791.229    4.3544691    4.3544691    4.3544691    41791.229    47799.825    46931.965    30641.897   -11790.431    12969.245    23315.846    82.566838 
   58200    2091.4433   -112.94436    1.8923819   -111.05198   -8814.0313    4.3767178    4.3767178    4.3767178   -8814.0313   -18929.198    -5849.233   -1663.6625    8466.4086    7258.8578   -17961.461     83.83891 
   58300    1095.7738   -112.04852   0.99147919   -111.05704   -11168.169    4.3814281    4.3814281    4.3814281   -11168.169   -25171.261     -1774.98   -6558.2654    54733.164    1878.0774    25665.681    84.109891 
   58400    1608.6762   -112.50586     1.455564    -111.0503    10560.034    4.3566987    4.3566987    4.3566987    10560.034    29696.838    13211.016   -11227.752   -5811.3423    4171.4865    38416.909    82.693732 
   58500    1930.8946    -112.8021     1.747114   -111.05498    23445.422    4.3469969    4.3469969    4.3469969    23445.422   -9332.6107    20938.556     58730.32   -6160.9227   -813.31017    -29436.18    82.142516 
   58600    1045.5537   -112.03334   0.94603896    -111.0873   -9648.1484    4.3610146    4.3610146    4.3610146   -9648.1484   -2906.5969   -39128.526    13090.677    27097.066    9296.9539    44234.488    82.939733 
   58700    1647.5961   -112.57241    1.4907796   -111.08163   -23572.353    4.3771604    4.3771604    4.3771604   -23572.353   -5023.3264   -80633.281    14939.549    7898.0078   -5672.6459    45843.134    83.864352 
   58800    2022.4113    -112.8819    1.8299202   -111.05197     21008.64    4.3727942    4.3727942    4.3727942     21008.64    18162.174    18700.043    26163.702   -2194.3001    270.03412    -13533.79    83.613638 
   58900    1141.2598   -112.08443    1.0326358    -111.0518    8114.1611    4.3674748    4.3674748    4.3674748    8114.1611    23027.238     -29943.9    31259.145    19468.707    3022.2575    56241.989    83.308865 
   59000    2031.3474   -112.88084    1.8380058   -111.04283    4427.8709    4.3700502    4.3700502    4.3700502    4427.8709    28672.206   -49618.002    34229.408   -2384.6073   -13084.722   -9580.8519    83.456328 
   59100    2391.5336   -113.20321    2.1639099    -111.0393    25131.757    4.3627253    4.3627253    4.3627253    25131.757    1110.6616    20704.996    53579.612    295.55403    2149.4486    -13148.34    83.037376 
   59200    1207.6617    -112.1635    1.0927177   -111.07079   -10425.304    4.3691294    4.3691294    4.3691294   -10425.304   -4965.7288   -21947.507   -4362.6767    17167.135    3729.6909    62217.268    83.403585 
   59300      1942.62   -112.81699    1.7577234   -111.05926   -22480.236    4.3757548    4.3757548    4.3757548   -22480.236    9276.2862   -41064.517   -35652.478    -8998.544   -6844.5254   -4002.7621    83.783585 
   59400    2323.3674   -113.15048    2.1022316   -111.04825   -14820.169    4.3698832    4.3698832    4.3698832   -14820.169   -15536.406   -30059.395    1135.2929    3397.3394    11414.844   -7744.0284     83.44676 
   59500    960.72003   -111.94396   0.86927967   -111.07468   -24199.517     4.365694     4.365694     4.365694   -24199.517    7523.0404   -66809.721   -13311.871    18086.048    14058.635    60913.542    83.207002 
   59600    1853.3491   -112.74654    1.6769492   -111.06959    11756.556    4.3549437    4.3549437    4.3549437    11756.556    344.39966    46692.953   -11767.686   -12966.057    2684.4537   -3908.1256    82.593837 
   59700    2110.2469   -112.97668    1.9093958   -111.06728   -6610.7559    4.3678177    4.3678177    4.3678177   -6610.7559   -46305.642    32211.323   -5737.9486    5448.8752   -15163.306    13137.057    83.328489 
   59800    943.97738   -111.91914   0.85413057   -111.06501   -29602.574    4.3881247    4.3881247    4.3881247   -29602.574   -59340.033   -18740.863   -10726.826    13624.105    5079.9653    45237.385    84.496143 
   59900    2169.8025   -112.99835    1.9632829   -111.03507   -12210.008    4.3782326    4.3782326    4.3782326   -12210.008   -46179.036    23895.931   -14346.918   -5987.7901    4780.3207   -14719.887    83.925995 
   60000     1559.595   -112.45554    1.4111544   -111.04439    6910.7591    4.3527096    4.3527096    4.3527096    6910.7591     8394.934   -10344.351    22681.694    15446.592   -14366.743     8280.959    82.466785 
   60100    1154.8368   -112.11594    1.0449206   -111.07102    20806.994    4.3458607    4.3458607    4.3458607    20806.994    20799.253    7507.5057    34114.222    20908.543   -4297.7685    31699.233    82.078123 
   60200     2449.943   -113.28888    2.2167599   -111.07212    10446.872    4.3658749    4.3658749    4.3658749    10446.872   -15671.868    13264.258    33748.227   -16429.135    16868.899    -10793.07    83.217345 
   60300    1293.8242    -112.2492    1.1706793   -111.07853    7703.3812    4.3843299    4.3843299    4.3843299    7703.3812    -886.2676   -28270.203    52266.614     12807.61   -14904.113    18147.191    84.277118 
   60400    1367.9774   -112.29495    1.2377747   -111.05718   -10505.569    4.3905722    4.3905722    4.3905722   -10505.569   -46994.424   -8745.9742    24223.691     26542.83    16240.585    18266.467    84.637605 
   60500     2705.508   -113.47714    2.4480005   -111.02914    5747.6111    4.3683126    4.3683126    4.3683126    5747.6111   -7756.0748    26465.161   -1466.2532   -6615.1328    18014.493    -5041.002    83.356817 
   60600    1655.2581   -112.54067    1.4977123   -111.04296    11621.427    4.3451914    4.3451914    4.3451914    11621.427     41022.65   -24564.245    18405.876    13926.293   -19520.405    15917.193    82.040203 
   60700    1451.0601   -112.38561    1.3129497   -111.07266   -189.91579    4.3528532    4.3528532    4.3528532   -189.91579   -7974.7063   -12271.196    19676.155    25553.975    29910.774    13088.145    82.474948 
   60800    2122.9753   -112.99437    1.9209127   -111.07346    7443.3134    4.3650061    4.3650061    4.3650061    7443.3134   -23331.788    3627.2039    42034.524   -24826.687    16346.992   -30.430011    83.167674 
   60900    1657.6667   -112.57693    1.4998916   -111.07704    3451.3283    4.3689059    4.3689059    4.3689059    3451.3283   -6986.1082    3882.3091    13457.784    -3617.815    -10037.67    20908.708    83.390787 
   61000    1590.9185   -112.51469    1.4394965   -111.07519   -869.42481    4.3677884    4.3677884    4.3677884   -869.42481   -28357.813   -10500.084    36249.623    37258.909    7953.8996    20833.894    83.326813 
   61100    1590.4015   -112.51076    1.4390287   -111.07173    12506.504    4.3536028    4.3536028    4.3536028    12506.504   -34213.159   -7184.7281    78917.398    -43901.51    4858.7195   -11075.096    82.517569 
   61200    1747.8662   -112.65483    1.5815061   -111.07332    31539.208    4.3585175    4.3585175    4.3585175    31539.208     32896.59    10999.232    50721.803   -17220.959    4816.3555    14926.952    82.797339 
   61300    2243.4115   -113.08623    2.0298859   -111.05634   -8142.1505    4.3819684    4.3819684    4.3819684   -8142.1505    16016.739   -52928.857    12485.667    15412.887   -7765.6028    2238.1459    84.141011 
   61400    827.01737    -111.8122    0.7483027    -111.0639     2998.828    4.3810222    4.3810222    4.3810222     2998.828    8929.4185   -32149.118    32216.184   -62025.263    15977.731   -5832.6523    84.086516 
   61500    2245.6229   -113.06311    2.0318868   -111.03122    4015.2962    4.3753704    4.3753704    4.3753704    4015.2962    27687.215    21155.941   -36797.267    22607.237    4151.3707    1901.8866    83.761507 
   61600    1553.1926   -112.43619    1.4053613   -111.03083    17058.735    4.3653855    4.3653855    4.3653855    17058.735    41706.725    3288.8404    6180.6405   -50100.201   -19313.078    8550.5092    83.189363 
   61700    1512.7374   -112.40685    1.3687566   -111.03809    11040.423    4.3674981    4.3674981    4.3674981    11040.423    4111.9474    29895.061   -885.74065   -34088.776    24300.887    12241.982    83.310199 
   61800    1721.4438   -112.60034    1.5575985   -111.04274    -754.6709    4.3792738    4.3792738    4.3792738    -754.6709   -9559.3419    55659.997   -48364.668    22318.967   -14549.057    722.71115    83.985884 
   61900    1128.8427   -112.06421    1.0214006   -111.04281    4737.0782    4.3787367    4.3787367    4.3787367    4737.0782    13708.487    13010.522   -12507.774   -41613.544   -29171.352    11222.118    83.954984 
   62000    1713.3141   -112.58762    1.5502426   -111.03738    6251.6559    4.3757421    4.3757421    4.3757421    6251.6559   -16111.935    60272.752    -25405.85   -9603.0247    38446.445    8211.7573    83.782854 
   62100    2152.3424   -112.99052    1.9474847   -111.04304   -12284.349    4.3649153    4.3649153    4.3649153   -12284.349   -44647.598    40114.048   -32319.496    13607.366   -8281.5401   -13318.226    83.162486 
   62200    1663.7713    -112.5574    1.5054152   -111.05199    7638.8823    4.3488909    4.3488909    4.3488909    7638.8823   -2261.1439    3570.3856    21607.405   -46373.221   -27051.507    2636.5133    82.249932 
   62300    1862.9179   -112.76303    1.6856072   -111.07742   -11124.946     4.369321     4.369321     4.369321   -11124.946    7714.0074    332.75597     -41421.6    595.36033    35297.677   -321.77251    83.414559 
   62400    1899.1597   -112.76965    1.7183996   -111.05125   -31931.958    4.3908537    4.3908537    4.3908537   -31931.958   -37910.732   -37687.469   -20197.674   -5895.1334    5300.3573    2890.5777    84.653885 
   62500    959.58458   -111.90445   0.86825229   -111.03619    8688.6103    4.3786864    4.3786864    4.3786864    8688.6103    15654.304    2362.8409     8048.686   -53295.687   -31954.237    12315.296    83.952091 
   62600    2253.2583   -113.05989    2.0387955    -111.0211    20773.575    4.3711372    4.3711372    4.3711372    20773.575    18704.022    38729.088    4887.6144    20281.709   -4510.2566    15632.135    83.518618 
   62700    1732.1822   -112.60742    1.5673148   -111.04011    12936.584     4.365791     4.365791     4.365791    12936.584   -23041.732    4950.7446    56900.739   -57772.984    13779.437    3316.6871    83.212549 
   62800    1272.6321   -112.21088    1.1515043   -111.05937    28044.713    4.3651226    4.3651226    4.3651226    28044.713    5007.0697    47571.234    31555.835   -34659.828   -33769.746    11392.977    83.174336 
   62900    2357.6876   -113.17003    2.1332853   -111.03674   -16645.159    4.3906401    4.3906401    4.3906401   -16645.159   -7314.2563   -15479.878   -27141.344    11498.593    3355.9729   -393.02991    84.641531 
   63000     1366.459   -112.26446    1.2364009   -111.02806   -4687.4283    4.3807263    4.3807263    4.3807263   -4687.4283   -46706.248   -41288.355    73932.318   -56181.632    11033.138   -12902.181    84.069479 
   63100    2001.6635   -112.81583    1.8111472   -111.00469    9915.4907    4.3678653    4.3678653    4.3678653    9915.4907    12333.603   -28424.721     45837.59   -2554.4962   -34896.417    4517.8995    83.331213 
   63200    1496.5687   -112.37832    1.3541268   -111.02419   -13273.052    4.3708192    4.3708192    4.3708192   -13273.052   -19706.853   -65942.638    45830.333   -12125.543    24171.488    13535.485    83.500396 
   63300    1044.1629   -111.98814   0.94478055   -111.04336   -15270.132    4.3628501    4.3628501    4.3628501   -15270.132   -55598.785   -73141.107    82929.495   -48556.612    5617.6136    3641.6058    83.044503 
   63400    2121.1305   -112.95641    1.9192434   -111.03716    27343.725    4.3701997    4.3701997    4.3701997    27343.725    29460.567   -7109.0193    59679.626     15536.68   -117.71441    10116.034    83.464894 
   63500    645.02165   -111.63645   0.58362915   -111.05282    15781.978    4.3982755    4.3982755    4.3982755    15781.978   -41037.789   -13098.477     101482.2   -40157.965     15022.56    28170.397    85.083883 
   63600    2727.5976   -113.42717    2.4679876   -110.95918   -26192.728    4.4119627    4.4119627    4.4119627   -26192.728   -40843.007   -20324.536   -17410.643    15154.385   -10553.833    2693.1766    85.880683 
   63700    1209.3722   -112.04166    1.0942654    -110.9474   -19706.211    4.4029505    4.4029505    4.4029505   -19706.211   -33431.651   -35021.796    9334.8145   -36515.101    10184.933    12152.153    85.355483 
   63800    2116.3012   -112.86153    1.9148738   -110.94666   -9323.8303    4.3741602    4.3741602    4.3741602   -9323.8303   -13363.292    -27188.46    12580.261   -15215.237     14357.04   -12974.766    83.692023 
   63900    2186.6841   -112.94934    1.9785578   -110.97079    54417.181    4.3304083    4.3304083    4.3304083    54417.181    76112.014    36804.156    50335.374    1455.5952   -7558.0144    22160.751    81.205704 
   64000    595.10989   -111.61306   0.53846793   -111.07459   -4203.6714    4.3527017    4.3527017    4.3527017   -4203.6714   -8703.5853   -53094.887    49187.458   -54839.621    7076.0164    24899.625     82.46634 
   64100    2157.4891   -113.00655    1.9521415   -111.05441   -27052.334    4.3795344    4.3795344    4.3795344   -27052.334   -14069.093    -36420.83   -30667.078   -495.15823    17739.099   -12987.187    84.000877 
   64200    1880.5659   -112.75916    1.7015755   -111.05759   -587.46019    4.3720578    4.3720578    4.3720578   -587.46019    10855.291   -37226.584    24608.912   -12837.593    434.68778    17827.061    83.571403 
   64300    928.21443    -111.9088   0.83986792   -111.06893   -21614.568    4.3755419    4.3755419    4.3755419   -21614.568   -39241.948    -47872.69    22270.934   -47893.388    9366.0103    37397.486    83.771354 
   64400    2969.3067   -113.71694    2.6866911   -111.03025    25510.179    4.3559784    4.3559784    4.3559784    25510.179     62959.74    13960.716   -389.92007     23867.75    1912.4454   -10405.874    82.652719 
   64500    1496.9986   -112.41955    1.3545158   -111.06503    14080.659    4.3542209    4.3542209    4.3542209    14080.659    8736.7535   -27434.788    60940.011   -44030.437    -8408.366    14693.272    82.552718 
   64600     1675.149   -112.57123      1.51571   -111.05552   -31482.162    4.3797112    4.3797112    4.3797112   -31482.162   -23821.267   -56562.995   -14062.225   -11871.841    570.84402    56134.422     84.01105 
   64700    2210.8236   -113.03128    2.0003997   -111.03088    26664.008    4.3625476    4.3625476    4.3625476    26664.008    49209.621    5896.9101    24885.493    2018.9593    1270.7809   -22205.551     83.02723 
   64800    1133.2588   -112.07707    1.0253964   -111.05168    8969.4597    4.3662744    4.3662744    4.3662744    8969.4597     2841.895   -52723.072    76789.557   -55497.551    12031.181    3089.4891    83.240191 
   64900    2068.1885   -112.90139    1.8713404   -111.03005   -28108.722    4.3780347    4.3780347    4.3780347   -28108.722   -9636.0022   -55573.743    -19116.42    11501.438   -12491.544    30900.616    83.914613 
   65000    1137.8927   -112.07775    1.0295893   -111.04816     20436.68    4.3465209    4.3465209    4.3465209     20436.68    68716.502   -51302.951    43896.491   -23269.539   -14487.814   -39375.348    82.115533 
   65100    1041.0671   -112.01925   0.94197936   -111.07727    10650.107    4.3484545    4.3484545    4.3484545    10650.107   -5001.2779   -48979.344    85930.944   -35046.095   -117.11412    -22399.42    82.225171 
   65200    2585.7846   -113.38926    2.3396722   -111.04958    11874.902    4.3666081    4.3666081    4.3666081    11874.902    8566.0592   -2592.0403    29650.687    28211.758    3949.7184    9722.2864     83.25928 
   65300    946.77642   -111.92753    0.8566632   -111.07086    22454.924    4.3731079    4.3731079    4.3731079    22454.924    35708.779   -272.61118    31928.605   -57995.332   -793.18963   -41774.091    83.631636 
   65400    2158.7365   -112.99285    1.9532701   -111.03958   -7211.4252    4.3839039    4.3839039    4.3839039   -7211.4252   -8723.0453   -23149.886    10238.656    5161.0152    1567.0832   -22730.008    84.252553 
   65500    2159.4849   -112.97743    1.9539473   -111.02349     9325.675    4.3652304    4.3652304    4.3652304     9325.675   -23910.554     52925.77   -1038.1912   -18714.563   -5549.7709    18598.928    83.180496 
   65600    1087.4622   -112.02786   0.98395861    -111.0439   -9312.3668    4.3507521    4.3507521    4.3507521   -9312.3668     35440.68   -68985.015    5607.2346   -62784.125   -2223.1988   -28593.076    82.355579 
   65700     2247.226    -113.0839    2.0333373   -111.05056   -3140.2923    4.3527326    4.3527326    4.3527326   -3140.2923    10256.411   -22190.798    2513.5101    32222.471    3324.0123   -13178.247    82.468098 
   65800    1819.1797   -112.71524     1.646032    -111.0692   -3802.3034    4.3641606    4.3641606    4.3641606   -3802.3034    -24889.83    2971.2005    10511.719    2181.4249   -611.59076    11273.541    83.119356 
   65900    1248.6564   -112.20026    1.1298105   -111.07045   -17510.292    4.3744285    4.3744285    4.3744285   -17510.292   -3537.2667   -47666.979   -1326.6307   -47560.026   -6104.7449   -28065.903    83.707424 
   66000    1453.6031   -112.36837    1.3152506   -111.05312   -8167.1561    4.3686636    4.3686636    4.3686636   -8167.1561    -30394.02    -7381.874    13274.426    52356.115     4588.717   -12910.231    83.376912 
   66100    1933.4567   -112.79219    1.7494323   -111.04276   -673.88917    4.3609018    4.3609018    4.3609018   -673.88917   -25277.963    -2913.555    26169.851    19834.305   -669.41587    12878.569    82.933297 
   66200     1864.089   -112.73499    1.6866669   -111.04832    15340.281    4.3514131    4.3514131    4.3514131    15340.281    30300.574    24382.183    -8661.913   -39493.204   -1441.6065   -37623.374    82.393119 
   66300    1446.1135   -112.38016    1.3084739   -111.07169    2219.7336     4.361448     4.361448     4.361448    2219.7336   -33754.614    14963.208    25450.606    48317.764    8504.7293   -14132.968    82.964464 
   66400    1990.0261   -112.85897    1.8006175   -111.05835   -26947.005    4.3741766    4.3741766    4.3741766   -26947.005   -32618.066   -35383.474   -12839.476    30711.943   -10346.668    35724.256    83.692963 
   66500    1721.6773   -112.61717    1.5578098   -111.05936   -1883.9198    4.3557012    4.3557012    4.3557012   -1883.9198     50483.94   -31763.622   -24372.078   -16973.565    2012.3167   -36982.751    82.636942 
   66600    1768.7585    -112.6597    1.6004099   -111.05929   -576.31604    4.3513181    4.3513181    4.3513181   -576.31604   -18675.539   -45421.901    62368.492     35516.44    15331.148   -23819.467    82.387725 
   66700    1798.2927   -112.69127     1.627133   -111.06414   -6353.7279    4.3596248    4.3596248    4.3596248   -6353.7279   -8521.9062   -52811.414    42272.137    24688.549    -6546.886    30149.023     82.86046 
   66800    1116.8984   -112.08559    1.0105931   -111.07499    521.63984    4.3597194    4.3597194    4.3597194    521.63984    51175.671   -56369.905    6759.1532   -11833.772   -8565.2519   -24548.978    82.865855 
   66900    1715.6786   -112.62098    1.5523821    -111.0686    -6919.557    4.3696297    4.3696297    4.3696297    -6919.557   -29419.185   -45465.696     54126.21    17223.012    8063.1341    -23231.72    83.432241 
   67000    2002.4925   -112.85817    1.8118973   -111.04628   -12479.099    4.3793419    4.3793419    4.3793419   -12479.099   -16046.274   -44765.544    23374.521   -423.32252   -7492.4941     8042.266    83.989801 
   67100    830.52113   -111.79944   0.75147297   -111.04797   -10003.265    4.3714297    4.3714297    4.3714297   -10003.265    82016.306   -84024.201   -28001.899    4323.6983     3816.777   -43851.937    83.535389 
   67200     2578.658   -113.35151    2.3332239   -111.01829    25664.343     4.350978     4.350978     4.350978    25664.343    11969.252   -869.96688    65893.743    20979.185    14.818375    9198.1473    82.368406 
   67300    1847.7788   -112.72063    1.6719091   -111.04872   -21444.051    4.3583641    4.3583641    4.3583641   -21444.051   -6275.8919    -59305.66    1249.3986   -5144.8608    7781.1106   -43654.019      82.7886 
   67400    649.21221   -111.66717   0.58742085   -111.07975   -30764.606    4.3635647    4.3635647    4.3635647   -30764.606    45550.346   -89568.484   -48275.681    -10779.18    4977.4276   -31475.066    83.085311 
   67500    2500.3455   -113.32139    2.2623651   -111.05902    20527.532    4.3519054    4.3519054    4.3519054    20527.532    11116.737    3671.8277    46794.032    1123.4686   -4671.9557    37881.561    82.421086 
   67600    1921.4698   -112.81588    1.7385862    -111.0773   -7557.0962    4.3594943    4.3594943    4.3594943   -7557.0962    14832.765   -60248.024     22743.97   -2939.3079   -3109.1997   -46243.732    82.853022 
   67700    1036.3847   -112.02298   0.93774268   -111.08524    2560.8748    4.3544832    4.3544832    4.3544832    2560.8748    43868.026   -70817.137    34631.735   -15550.496    6691.3101   -4245.4852     82.56764 
   67800    1746.4464   -112.65857    1.5802214   -111.07835    13596.525      4.35181      4.35181      4.35181    13596.525   -9272.1084   -25207.416    75269.098    15432.429   -8237.5255     33130.04    82.415669 
   67900     1931.351   -112.82733    1.7475269    -111.0798   -9199.1812     4.355187     4.355187     4.355187   -9199.1812   -42673.112   -49043.502    64119.071    29622.979   -6803.6197   -18099.361    82.607679 
   68000     1332.109   -112.29155    1.2053202   -111.08623    2474.2538    4.3511088    4.3511088    4.3511088    2474.2538    35689.449   -53933.325    25666.637   -13878.115    2661.4552    4314.3208    82.375837 
   68100    1191.8862   -112.17526    1.0784437   -111.09682   -7819.6862    4.3675842    4.3675842    4.3675842   -7819.6862   -12648.667   -26059.033    15248.642    28250.869     4665.985     27936.44    83.315125 
   68200    2222.1873   -113.08141    2.0106817   -111.07073   -20492.179    4.3723506    4.3723506    4.3723506   -20492.179   -55689.421   -29304.501    23517.385      43077.3    5726.8481    -7707.358    83.588195 
   68300    1813.4265   -112.70745    1.6408264   -111.06662    13983.036    4.3494126    4.3494126    4.3494126    13983.036    55392.372    2118.5998   -15561.864   -8368.7487   -779.78052    24406.559    82.279534 
   68400    1192.9094   -112.16257    1.0793695    -111.0832    17360.738    4.3559124    4.3559124    4.3559124    17360.738    34826.965   -14766.052      32021.3    40329.523    7143.9294    11713.408    82.648965 
   68500    2555.2891   -113.35656    2.3120793   -111.04448   -26705.902    4.3834378    4.3834378    4.3834378   -26705.902   -63289.312   -45212.096    28383.702    14393.468    6989.4419    -7375.385    84.225685 
   68600     1293.972   -112.20651    1.1708131    -111.0357   -20046.297     4.379747     4.379747     4.379747   -20046.297    25435.711   -74040.784   -11533.817   -20470.841   -11009.272    32356.512    84.013113 
   68700    1542.9248    -112.4173    1.3960708   -111.02123    155.36785    4.3672852    4.3672852    4.3672852    155.36785    14894.086   -58350.845    43922.863    7723.2362     5144.132   -19906.643    83.298018 
   68800    2038.6892    -112.8759    1.8446489   -111.03125   -3656.8242    4.3551462    4.3551462    4.3551462   -3656.8242   -29614.136   -11444.851    30088.514   -11485.084   -6457.9994     15217.94    82.605359 
   68900    921.35229   -111.90106   0.83365891    -111.0674    25764.179    4.3325338    4.3325338    4.3325338    25764.179     22037.71   -5970.8368    61225.664   -23644.962   -2609.5037    22368.977    81.325336 
   69000    1641.0534   -112.58523    1.4848596   -111.10037    5224.1097    4.3538655    4.3538655    4.3538655    5224.1097    29351.755   -51757.468    38078.042    2200.8245    6802.7005   -38104.456    82.532507 
   69100     2124.348   -112.99047    1.9221547   -111.06831   -11878.563    4.3757889    4.3757889    4.3757889   -11878.563   -52722.305     10955.37    6131.2453   -10036.008    -1656.567   -2709.2027     83.78554 
   69200    1164.3705    -112.1231    1.0535469   -111.06956    11117.499    4.3619232    4.3619232    4.3619232    11117.499    -27254.58    15425.501    45181.575   -18161.915   -11242.711    27131.801    82.991584 
   69300    2047.7631   -112.90908    1.8528591   -111.05622    554.23855    4.3560429    4.3560429    4.3560429    554.23855    -837.4279    12274.065   -9773.9213    6085.1472    6227.2274    -24156.34    82.656393 
   69400     1697.792   -112.60239    1.5361979   -111.06619      25542.1    4.3467666    4.3467666    4.3467666      25542.1    -47278.22    95852.061    28052.458   -6009.4289    18309.375   -3321.7729     82.12946 
   69500    931.46506   -111.94488   0.84280916   -111.10207    -3046.163    4.3554435    4.3554435    4.3554435    -3046.163   -57004.444   -1402.8109    49268.766   -3455.3514   -2895.5428    30926.121    82.622275 
   69600    2597.0828   -113.42377    2.3498951   -111.07387   -5504.2879     4.366775     4.366775     4.366775   -5504.2879   -25615.443     11547.03   -2444.4514    13090.354   -2482.9789   -7134.1647    83.268826 
   69700    1633.1908   -112.54651    1.4777454   -111.06877    16934.772    4.3675828    4.3675828    4.3675828    16934.772    -35030.29    43409.863    42424.742     -23677.8    2335.8381   -2066.7421    83.315045 
   69800    897.99308   -111.87828   0.81252301   -111.06576   -26022.828    4.3756689    4.3756689    4.3756689   -26022.828   -75918.869    -42670.26    40520.645    5559.0663   -8667.9509    30031.792    83.778653 
   69900    2116.5969   -112.96066    1.9151413   -111.04552    12476.111    4.3529243    4.3529243    4.3529243    12476.111   -26545.149    49360.878    14612.605     13185.04    -5288.639     -22295.8    82.478992 
   70000    1396.9181   -112.32316    1.2639609    -111.0592    15167.718    4.3459907    4.3459907    4.3459907    15167.718    7137.4546     19423.77    18941.929   -7986.8431      5006.33   -16725.229    82.085489 
   70100    1846.1099   -112.74263     1.670399   -111.07223   -4782.5127    4.3624049    4.3624049    4.3624049   -4782.5127   -41412.967   -14476.419    41541.849    4428.1416   -3704.0113    32864.004    83.019078 
   70200    1877.0923   -112.76639    1.6984325   -111.06796    20364.086    4.3652492    4.3652492    4.3652492    20364.086   -12271.863    75585.662   -2221.5429    2924.8354    1667.7331   -52367.755    83.181573 
   70300    1563.5009   -112.49179    1.4146884    -111.0771   -5973.7272    4.3644237    4.3644237    4.3644237   -5973.7272    5814.2541   -23452.532    -282.9034   -7190.6642    506.55266   -51130.258     83.13439 
   70400     2368.941   -113.20689    2.1434676   -111.06343    9438.2275    4.3503151    4.3503151    4.3503151    9438.2275   -21247.903    45851.419    3711.1669    806.01733   -3434.8726    59902.653    82.330766 
   70500    1281.9822   -112.24216    1.1599645   -111.08219    11028.759    4.3407613    4.3407613    4.3407613    11028.759    27993.449    7116.0181   -2023.1888    183.99721    -1532.558   -68199.817    81.789532 
   70600    1756.2151   -112.68483    1.5890603   -111.09577   -15964.322    4.3604011    4.3604011    4.3604011   -15964.322   -6969.7966   -14284.264   -26638.905   -9424.6635    5076.5408   -50528.786    82.904735 
   70700    2181.1665   -113.04412    1.9735653   -111.07056   -873.39745    4.3704961    4.3704961    4.3704961   -873.39745   -24424.101     42238.47   -20434.561   -5408.9918    7319.8499    23609.355     83.48188 
   70800    1068.1177   -112.03974   0.96645535   -111.07328   -431.89631    4.3653604    4.3653604    4.3653604   -431.89631    25500.716    13321.613   -40118.018    9312.4912   -11634.646   -75934.377    83.187928 
   70900    2007.5125   -112.87154    1.8164395    -111.0551   -14404.328    4.3560369    4.3560369    4.3560369   -14404.328   -27897.394   -16527.657    1212.0678    -11097.26    15165.696    4277.4085    82.656048 
   71000    1283.0029   -112.22812     1.160888   -111.06723    -2237.681    4.3523626    4.3523626    4.3523626    -2237.681   -13669.964     26341.41   -19384.489   -9239.4347    31748.749    -23859.54    82.447067 
   71100    1416.0034   -112.35701    1.2812296   -111.07578   -10678.296    4.3634032    4.3634032    4.3634032   -10678.296     9932.914   -22120.176   -19847.625    6949.7896    -20266.97   -71309.639    83.076089 
   71200    2272.1066   -113.10907    2.0558498   -111.05322    -8053.311     4.373001     4.373001     4.373001    -8053.311   -42209.926    33587.963   -15537.971   -15318.981   -13165.564    32826.879      83.6255 
   71300    1538.0677   -112.45487     1.391676   -111.06319   -16065.159    4.3647022    4.3647022    4.3647022   -16065.159   -6853.5245   -18885.663    -22456.29    1517.2176    35559.131   -36524.959    83.150308 
   71400    1285.1886   -112.23536    1.1628657    -111.0725   -4832.5041    4.3531505    4.3531505    4.3531505   -4832.5041    2715.0122    11140.517   -28353.041   -637.91092   -27918.549   -55612.535    82.491848 
   71500     2394.191   -113.24182    2.1663143   -111.07551    12319.416    4.3496881    4.3496881    4.3496881    12319.416   -30702.885    62672.328    4988.8048    3066.0083   -45672.531    30738.825    82.295172 
   71600    2131.7613   -113.01421    1.9288625   -111.08534    13163.413    4.3577728    4.3577728    4.3577728    13163.413    -1259.711    29769.596    10980.355   -4521.3429     27070.59   -33232.175    82.754904 
   71700    903.29339   -111.91934   0.81731884   -111.10202   -14347.396    4.3751077    4.3751077    4.3751077   -14347.396   -37546.357    48451.568   -53947.399   -5879.3163   -31047.515   -42814.674    83.746422 
   71800    2288.5914   -113.12191    2.0707656   -111.05115    849.95826    4.3733333    4.3733333    4.3733333    849.95826   -42480.411    54768.791   -9738.5055    14483.533    -17615.36     23620.25    83.644565 
   71900    1715.9868   -112.59547     1.552661   -111.04281    2974.3803    4.3710747    4.3710747    4.3710747    2974.3803   -3249.5957    7287.0899    4885.6467    3637.2258    4105.7206   -6571.6996    83.515039 
   72000    1343.6451    -112.2633    1.2157583   -111.04754   -28147.464    4.3720696    4.3720696    4.3720696   -28147.464   -51788.972    20621.495   -53274.914   -7579.6552   -61781.087   -29407.944    83.572077 
   72100    2098.2172   -112.93259     1.898511   -111.03408    12909.882    4.3560185    4.3560185    4.3560185    12909.882   -3324.5805    10627.555    31426.672    13287.972   -2837.9177    24267.516    82.655002 
   72200    1729.1581   -112.61678    1.5645786    -111.0522   -11018.104    4.3609016    4.3609016    4.3609016   -11018.104    15254.074   -8541.2586   -39767.127    1597.9636    645.78426    1818.3648    82.933285 
   72300    1510.2862   -112.42178    1.3665387   -111.05524   -32349.755    4.3757074    4.3757074    4.3757074   -32349.755   -44177.733    29418.049   -82289.579    -11318.93   -55786.988    -30453.47    83.780859 
   72400    1688.4511   -112.57125    1.5277461    -111.0435   -4377.1952    4.3675336    4.3675336    4.3675336   -4377.1952   -18696.946    3706.1519    1859.2083    25914.273    3734.1817     24241.97    83.312231 
   72500    1503.5496   -112.40227    1.3604433   -111.04183    8554.8447    4.3617095    4.3617095    4.3617095    8554.8447    47559.584   -6710.0883   -15184.962   -10804.069    1276.2788   -23840.323    82.979385 
   72600    1848.2415   -112.71252    1.6723278   -111.04019   -8299.6603     4.369382     4.369382     4.369382   -8299.6603   -12776.471     34225.14    -46347.65    5791.4537   -29909.806   -25830.207    83.418055 
   72700     1336.854   -112.25995    1.2096136   -111.05034    13460.652    4.3611794    4.3611794    4.3611794    13460.652    18359.117     5163.591    16859.249    50823.403    12855.433    20202.283    82.949131 
   72800    1790.8874   -112.67507    1.6204325   -111.05464     20565.37    4.3655647    4.3655647    4.3655647     20565.37    46793.285    8601.3329    6301.4909   -21353.741    2657.8252    1902.4256    83.199611 
   72900    2153.6747   -112.99066    1.9486902   -111.04197    -4012.115    4.3750542    4.3750542    4.3750542    -4012.115   -9221.7524   -9978.4949    7163.9023    42220.468    -6171.398    -10707.01    83.743349 
   73000    1388.1575   -112.31605    1.2560341   -111.06001    5698.3724    4.3563631    4.3563631    4.3563631    5698.3724    11855.927   -2519.0268    7758.2169    59154.793    21154.492    14428.541    82.674619 
   73100     1870.639   -112.74551    1.6925935   -111.05292    15699.665    4.3496232    4.3496232    4.3496232    15699.665    15340.526    40081.388    -8322.921   -26092.407    14722.531    12182.367    82.291485 
   73200    1218.9262   -112.17368    1.1029101   -111.07077   -5736.2867    4.3645079    4.3645079    4.3645079   -5736.2867   -26992.135   -11190.894     20974.17    58551.073   -11264.528   -10845.006    83.139204 
   73300    1804.2219   -112.69065    1.6324979   -111.05815   -6841.1518    4.3729181    4.3729181    4.3729181   -6841.1518   -8423.7914    4994.7207   -17094.385    26505.297     12826.94    7589.0281    83.620743 
   73400    1802.3771   -112.67348    1.6308287   -111.04265   -246.69636     4.373215     4.373215     4.373215   -246.69636   -29805.661    16505.756    12559.816   -4081.8671    33624.602     9267.216    83.637777 
   73500    1231.9688   -112.16528    1.1147113   -111.05057   -5785.5847      4.36685      4.36685      4.36685   -5785.5847   -26388.555   -20526.072    29557.873    70402.911   -16822.218    7060.3589    83.273119 
   73600    1955.2996   -112.81463    1.7691961   -111.04543   -87.888262    4.3590691    4.3590691    4.3590691   -87.888262   -22154.309    44498.827   -22608.183   -7885.8637    7783.9706   -2814.8323    82.828781 
   73700    1961.4074   -112.82406    1.7747227   -111.04934    1221.0713    4.3541383    4.3541383    4.3541383    1221.0713     -18673.7    8472.3645     13864.55    11463.898    30530.729   -983.02209    82.548017 
   73800    1467.1477   -112.39122    1.3275061   -111.06372    13489.248    4.3678833    4.3678833    4.3678833    13489.248    -5046.134   -25139.223    70653.101    54221.096   -2197.6705    27442.987    83.332242 
   73900    2321.8737   -113.13257    2.1008801   -111.03169   -4868.7104    4.3829348    4.3829348    4.3829348   -4868.7104   -26540.318    29046.106    -17111.92   -22244.575    10444.936   -4097.6658    84.196693 
   74000    1210.4596   -112.13473    1.0952493   -111.03948     2084.229    4.3703875    4.3703875    4.3703875     2084.229    22127.139   -43728.435    27853.983    40862.715    15960.604    11398.475    83.475658 
   74100     1767.776    -112.6274    1.5995209   -111.02788    6172.5785    4.3575675    4.3575675    4.3575675    6172.5785    30153.184   -25512.249      13876.8    21066.303   -5218.9787    22646.944    82.743212 
   74200    2087.2685   -112.92172    1.8886044   -111.03311     2868.903    4.3572053    4.3572053    4.3572053     2868.903    3978.5728    15525.603   -10897.467   -12114.386   -27443.243   -24821.638    82.722582 
   74300    1320.0625   -112.25191    1.1944203   -111.05749   -3136.8733     4.366046     4.366046     4.366046   -3136.8733   -13772.015   -36192.735    40554.131    50186.736    19093.462    7677.3428    83.227129 
   74400    2014.2669   -112.86745     1.822551   -111.04489      -5749.2    4.3787317    4.3787317    4.3787317      -5749.2   -17827.309    10129.627   -9549.9174     2869.008    -11736.06     7014.347    83.954697 
   74500     1440.255   -112.34402     1.303173   -111.04084    -22211.59    4.3799649    4.3799649    4.3799649    -22211.59   -72443.106   -8446.0246    14254.359    16402.571   -38415.714   -4184.2862    84.025649 
   74600    1508.8968   -112.40274    1.3652815   -111.03746   -5312.5724    4.3591489    4.3591489    4.3591489   -5312.5724   -22144.254   -50671.663      56878.2    59050.873    19677.839    1292.7365    82.833326 
   74700    1961.4631   -112.79845     1.774773   -111.02368    22288.411    4.3472169    4.3472169    4.3472169    22288.411    9544.7543    44391.391    12929.087   -24348.564   -25962.177    11356.279    82.154988 
   74800    949.12586   -111.92113   0.85878902   -111.06234    9003.2588     4.361629     4.361629     4.361629    9003.2588   -24708.087    12029.857    39688.006    25180.132   -29417.834     2089.947    82.974792 
   74900    2016.9744   -112.86558    1.8250008   -111.04057   -8259.1208    4.3851581    4.3851581    4.3851581   -8259.1208    21325.295   -56478.125    10375.467    23595.496    28699.441   -9281.7998    84.324888 
   75000    1545.7797   -112.42891    1.3986539   -111.03025    1019.9452    4.3767106    4.3767106    4.3767106    1019.9452    19623.537   -10337.933   -6225.7683    -18037.69   -43782.729   -3728.3685    83.838496 
   75100    1351.4058   -112.25234    1.2227804   -111.02956    31255.601    4.3613941    4.3613941    4.3613941    31255.601    12995.337   -17745.958    98517.423    34558.765   -11061.342    7686.7563    82.961385 
   75200    2539.0587   -113.31672    2.2973936   -111.01932   -2270.6729    4.3648199    4.3648199    4.3648199   -2270.6729   -4543.0027   -13845.778    11576.762    14224.137    5135.3694    2850.4398    83.157036 
   75300    1243.3219   -112.18179    1.1249838    -111.0568    4640.5829    4.3538344    4.3538344    4.3538344    4640.5829   -52680.225     36754.04    29847.934   -10084.323   -64465.825   -2818.8788    82.530738 
   75400    1914.1958   -112.79798    1.7320045   -111.06597   -15246.545    4.3598518    4.3598518    4.3598518   -15246.545   -28174.513     -55558.7    37993.579    28797.065    8576.7537    10725.633    82.873405 
   75500    1827.8415   -112.71413    1.6538694   -111.06026   -30289.827    4.3749238    4.3749238    4.3749238   -30289.827   -23321.972    -34528.13   -33019.378    11914.084   -34737.803   -217.81562    83.735856 
   75600    1119.4735   -112.07223    1.0129231   -111.05931    -5501.821    4.3702154    4.3702154    4.3702154    -5501.821   -9547.0163    19430.201   -26388.648   -13657.529   -50496.292   -4196.8497    83.465793 
   75700     2098.177   -112.93395    1.8984746   -111.03548    35072.685    4.3544633    4.3544633    4.3544633    35072.685    43209.881    11460.374      50547.8    18659.481    38252.833    16494.845    82.566506 
   75800    940.46953   -111.91494   0.85095659   -111.06399   -687.54177    4.3533503    4.3533503    4.3533503   -687.54177    6480.6313    39766.119   -48309.376    8558.5719   -94330.229   -6359.5427     82.50321 
   75900    2089.6029   -112.95153    1.8907166   -111.06081    5177.3367    4.3636945    4.3636945    4.3636945    5177.3367    9481.0542    6373.1899   -322.23393   -1473.0954   -13723.943   -14039.451     83.09273 
   76000    2280.7872    -113.1163    2.0637042   -111.05259    -14661.56    4.3767696    4.3767696    4.3767696    -14661.56    164.66024    5089.9911    -49239.33    6552.9901   -9372.7299    9209.6541    83.841887 
   76100    870.33928   -111.84949   0.78750127   -111.06199    -26138.49    4.3726844    4.3726844    4.3726844    -26138.49   -85240.321    60623.686   -53798.836    5140.3259   -87683.103    1487.7502     83.60734 
   76200    2677.1405   -113.45534     2.422333     -111.033    15911.789    4.3472381    4.3472381    4.3472381    15911.789    41167.517   -16820.747    23388.597      4439.91    37723.305   -1024.6305    82.156186 
   76300    1484.3958   -112.40342    1.3431125    -111.0603   -1823.7663    4.3482545    4.3482545    4.3482545   -1823.7663   -18658.923    54549.971   -41362.347   -14402.246   -82871.784   -4753.4285    82.213829 
   76400      1835.08   -112.71522     1.660419    -111.0548    12598.162     4.357572     4.357572     4.357572    12598.162   -9872.0615    41171.959    6494.5896    8853.4286   -34788.327    1239.6688    82.743466 
   76500    1474.9454   -112.39545    1.3345616   -111.06089    10086.374    4.3734722    4.3734722    4.3734722    10086.374    49990.642   -29146.417    9414.8959   -9001.4444    14691.109   -10259.639    83.652538 
   76600    1528.6608   -112.43176    1.3831644   -111.04859   -40343.777    4.3840691    4.3840691    4.3840691   -40343.777   -49961.735   -27832.803   -43236.793   -24412.209   -55183.795   -533.98493     84.26208 
   76700    1972.4677   -112.82143    1.7847302    -111.0367     23262.04    4.3428641    4.3428641    4.3428641     23262.04    68554.142   -2214.9945    3446.9723    29823.742    12453.832    16548.207    81.908452 
   76800    1051.9645   -112.00944   0.95183963    -111.0576    19066.755    4.3350576    4.3350576    4.3350576    19066.755   -1861.4912    16706.228    42355.528   -22257.653    20216.438   -8259.9067    81.467543 
   76900    2560.7227   -113.36323    2.3169957   -111.04623   -9210.6871     4.368824     4.368824     4.368824   -9210.6871     1079.388   -18850.025   -9861.4247   -25014.979   -14725.056    4494.3152    83.386098 
   77000    1063.8847   -112.01766    0.9626252   -111.05503    17883.684    4.3827615    4.3827615    4.3827615    17883.684     53121.02    36159.312   -35629.279    12848.193    16532.998    12053.154    84.186707 
   77100    1892.1687   -112.73256     1.712074   -111.02048   -5236.1781    4.3935435    4.3935435    4.3935435   -5236.1781   -22734.491    5153.0673     1872.889    -11929.94    8097.5948   -7026.8043    84.809556 
   77200    1831.9215   -112.66618     1.657561   -111.00861     15366.33    4.3693915    4.3693915    4.3693915     15366.33    8326.6587    67956.836   -30184.506    1756.3037   -14406.488    19004.531    83.418598 
   77300    1381.0989   -112.27724    1.2496473   -111.02759   -17915.135    4.3466433    4.3466433    4.3466433   -17915.135   -25030.612   -10979.238   -17735.553    15227.787    32980.552    11404.115    82.122473 
   77400    2360.4555   -113.16809    2.1357897    -111.0323    8837.7973    4.3439209    4.3439209    4.3439209    8837.7973   -34193.126    43928.029    16778.489    6717.2078     -24534.5   -365.10516    81.968261 
   77500    1387.7744   -112.32938    1.2556874    -111.0737   -31315.046    4.3733519    4.3733519    4.3733519   -31315.046   -44544.255    5868.8794   -55269.763    -12032.67   -43465.934     4426.415    83.645635 
   77600    1981.3062   -112.82415    1.7927275   -111.03142   -36278.614    4.3944308    4.3944308    4.3944308   -36278.614   -30481.873   -38424.408   -39929.561    7398.5544    19577.338    22629.028    84.860948 
   77700    1617.1119   -112.47347    1.4631968   -111.01027       472.44     4.378915     4.378915     4.378915       472.44   -42751.042    29856.086    14312.276    326.49453   -61043.317   -5788.4221    83.965241 
   77800    1973.2645   -112.79388    1.7854512   -111.00843    8628.8213    4.3505402    4.3505402    4.3505402    8628.8213    43645.749   -11455.028   -6304.2571   -2654.7221    7442.8919     14918.97    82.343547 
   77900    1583.6094   -112.46076     1.432883   -111.02788    12311.408    4.3373073    4.3373073    4.3373073    12311.408    3446.0614    55982.793   -22494.632   -2263.2469   -30969.398    15157.649    81.594441 
   78000    1409.2183    -112.3479    1.2750903   -111.07281    1353.0543    4.3587145    4.3587145    4.3587145    1353.0543   -30805.873    65027.856    -30162.82    11578.616   -78345.758   -297.21151    82.808565 
   78100    2777.2988   -113.54985    2.5129584   -111.03689   -17559.493    4.3876981    4.3876981    4.3876981   -17559.493   -5259.4991   -19779.607   -27639.372    1740.8405    26535.696   -4816.1849    84.471504 
   78200    1044.7402   -112.00216   0.94530285   -111.05686   -21446.024    4.3775991    4.3775991    4.3775991   -21446.024   -63393.718    48380.381   -49324.734   -1918.4487   -96122.503   -1152.8229    83.889568 
   78300    2034.0619   -112.85477    1.8404619   -111.01431    17375.937    4.3504392    4.3504392    4.3504392    17375.937    10440.374    56084.392   -14396.956    2525.8945    32176.823   -2233.2043     82.33781 
   78400    1553.3377    -112.4387    1.4054926   -111.03321    16498.803     4.350316     4.350316     4.350316    16498.803   -43702.747    100023.65   -6824.4937   -1148.3618   -32443.343   -16852.001    82.330817 
   78500    1852.4336   -112.71282    1.6761209    -111.0367    3982.1019    4.3671192    4.3671192    4.3671192    3982.1019   -24561.341    39707.903   -3200.2567    2380.2757   -49461.638     10566.53    83.288518 
   78600    1514.0528   -112.40864    1.3699468    -111.0387   -469.67931    4.3742096    4.3742096    4.3742096   -469.67931   -973.78504    51801.813   -52237.066   -5229.6908    31192.576    15569.181    83.694857 
   78700    1582.7204   -112.47192    1.4320787   -111.03984    6507.4003    4.3707405    4.3707405    4.3707405    6507.4003   -45575.218    88937.361   -23839.943    10370.674   -23425.359   -29670.728    83.495887 
   78800    2240.7811   -113.06577    2.0275058   -111.03826    21678.779    4.3482968    4.3482968    4.3482968    21678.779    32198.311     17227.51    15610.516    749.84403   -5002.5092    37901.415    82.216227 
   78900     1072.018   -112.03162    0.9699844   -111.06164    45561.644    4.3382663    4.3382663    4.3382663    45561.644    48780.103    99903.161    -11998.33   -5463.0083     19556.62    36065.533    81.648575 
   79000    2483.7133   -113.30214     2.247316   -111.05482   -7061.7487    4.3687706    4.3687706    4.3687706   -7061.7487   -25171.001     2047.067    1938.6873    9315.0053    2593.8448   -57188.776     83.38304 
   79100    1269.0391   -112.20129    1.1482533   -111.05304    16248.421    4.3724264    4.3724264    4.3724264    16248.421    28570.506    4098.6673    16076.091    6067.3435   -7132.3143      77599.1    83.592538 
   79200    1823.2886   -112.68463    1.6497498   -111.03488    26107.236    4.3648883    4.3648883    4.3648883    26107.236    35530.097     22481.31      20310.3   -4044.0976    14383.316    13613.349    83.160942 
   79300    1998.9079    -112.8319    1.8086539   -111.02324   -13329.104    4.3675792    4.3675792    4.3675792   -13329.104    43228.145   -55513.174   -27702.283    337.79604    6432.3879    20093.494    83.314842 
   79400    1311.4514   -112.22143    1.1866287    -111.0348      11207.3    4.3504845    4.3504845    4.3504845      11207.3    75381.992   -37663.824   -4096.2683   -6053.7994   -8436.3759    71534.515    82.340385 
   79500    1966.1516    -112.8164    1.7790153   -111.03738    29819.105    4.3552091    4.3552091    4.3552091    29819.105    47492.017      2685.89    39279.408   -5559.5932    12456.736   -18324.368    82.608939 
   79600    1050.9783   -112.00984   0.95094723   -111.05889   -26657.878    4.3770478    4.3770478    4.3770478   -26657.878    53492.659   -77959.668   -55506.626    5166.9825    751.56653    88253.442     83.85788 
   79700    2429.4054   -113.23159    2.1981771   -111.03341   -10901.944    4.3690682    4.3690682    4.3690682   -10901.944    15991.303   -16376.869   -32320.268    5271.7238   -20223.461    5239.0986     83.40008 
   79800    1929.0698   -112.78762    1.7454629   -111.04216   -5810.4033     4.357802     4.357802     4.357802   -5810.4033     11611.55   -36772.154    7729.3942     420.2275    17514.089    7417.6758    82.756573 
   79900    865.58131   -111.85335   0.78319616   -111.07016   -13994.251    4.3559465    4.3559465    4.3559465   -13994.251    43831.917   -65763.465   -20051.204   -2408.9891    12719.122    79177.506    82.650905 
   80000    2234.1793    -113.0777    2.0215324   -111.05617    20255.417    4.3518337    4.3518337    4.3518337    20255.417    45260.496    11930.936    3574.8186    8725.3662   -38893.155   -16746.238    82.417011 
   80100    1972.9826   -112.85619    1.7851961   -111.07099   -12396.115    4.3696895    4.3696895    4.3696895   -12396.115    26272.895   -33759.115   -29702.126   -3105.1114    30264.443    33797.285    83.435666 
   80200    1312.7721   -112.25927    1.1878238   -111.07144    -12793.94    4.3710944    4.3710944    4.3710944    -12793.94    53343.306   -40247.803   -51477.324    2882.2032    1244.5795    44616.786    83.516168 
   80300    1460.0539   -112.37447    1.3210874   -111.05338    41782.025    4.3462745    4.3462745    4.3462745    41782.025    67218.315    51267.613    6860.1459   -4309.1023    -41332.55   -22047.944    82.101569 
   80400    1467.2157   -112.39639    1.3275676   -111.06882    4034.9589    4.3519745    4.3519745    4.3519745    4034.9589     52795.67   -22306.471   -18384.322    2533.7851      8856.18    63312.005    82.425014 
   80500    2272.2841   -113.10934    2.0560104   -111.05333   -5282.3162    4.3678424    4.3678424    4.3678424   -5282.3162    42699.702   -14158.141    -44388.51   -638.76113   -49.541816    8897.4347    83.329905 
   80600    1436.2257   -112.36322    1.2995272    -111.0637    2306.1575    4.3644917    4.3644917    4.3644917    2306.1575   -14821.084    51200.775   -29461.218   -7734.6068   -28336.611   -498.19954    83.138278 
   80700     1243.608   -112.19262    1.1252426   -111.06738   -2628.3893    4.3668629    4.3668629    4.3668629   -2628.3893    1739.4162   -7349.7663   -2274.8179    7317.5105   -937.39728    62045.742    83.273855 
   80800    2556.7791   -113.35637    2.3134275   -111.04294   -15774.329     4.361313     4.361313     4.361313   -15774.329    -19626.62    7965.4864   -35661.853   -14340.617     28579.59   -23409.887    82.956758 
   80900    1418.0286   -112.33905    1.2830621   -111.05599    1820.2896    4.3569563    4.3569563    4.3569563    1820.2896   -9689.0096     5668.931    9480.9474   -3947.2474   -34451.943    13537.071    82.708399 
   81000     1820.819   -112.69682    1.6475153    -111.0493   -17459.534    4.3693259    4.3693259    4.3693259   -17459.534   -15968.452    5413.9633   -41824.113   -5480.7459    8086.5107    30122.602    83.414838 
   81100    1732.7948   -112.60962    1.5678692   -111.04175   -18870.875    4.3683128    4.3683128    4.3683128   -18870.875    -20971.53    8801.2629   -44442.356    4843.2588    73790.607   -11013.456    83.356829 
   81200    2100.6437   -112.93386    1.9007066   -111.03315   -7186.1714    4.3623657    4.3623657    4.3623657   -7186.1714    37246.238   -46557.882    -12246.87   -3299.9134   -41021.853    12502.752    83.016842 
   81300     964.6665   -111.92051   0.87285052   -111.04765   -12351.225    4.3679728    4.3679728    4.3679728   -12351.225   -7921.8883    40505.009   -69636.797   -12515.026    62605.691    13017.303    83.337369 
   81400    1793.4091    -112.6571    1.6227143   -111.03439   -10480.402    4.3678901    4.3678901    4.3678901   -10480.402     3667.655     29063.35   -64172.211    10575.984    48919.638   -5958.9433    83.332635 
   81500     1629.825   -112.49979    1.4746999   -111.02509   -2948.8831     4.370145     4.370145     4.370145   -2948.8831    43171.117    -12138.35   -39879.416   -7630.0624    8586.5794    13306.956    83.461759 
   81600     762.3257   -111.72556   0.68976832   -111.03579   -8425.3658    4.3742475    4.3742475    4.3742475   -8425.3658    25124.777    46002.518   -96403.393   -2029.5297    77003.975    1910.3509     83.69703 
   81700    2683.6276   -113.43882    2.4282026   -111.01062    11731.054    4.3632097    4.3632097    4.3632097    11731.054    34687.364   -1709.4926    2215.2912    2353.6639    -40915.95   -444.70614    83.065036 
   81800    1367.1888    -112.2831    1.2370612   -111.04604    1197.1708    4.3530763    4.3530763    4.3530763    1197.1708   -1684.1128    11578.158   -6302.5326   -13678.767    70730.572    24405.969    82.487633 
   81900     1944.958   -112.81665    1.7598389   -111.05681   -18595.708    4.3616419    4.3616419    4.3616419   -18595.708   -15577.734   -3613.7687   -36595.621   -5611.9431    37107.038    6199.6274    82.975524 
   82000    2482.1332   -113.29122    2.2458863   -111.04533    10248.394    4.3662503    4.3662503    4.3662503    10248.394   -1975.4771    10256.628    22464.031    12592.779   -16727.609   -1122.0143    83.238813 
   82100    679.92433   -111.67847   0.61520982   -111.06326   -22242.616    4.3721128    4.3721128    4.3721128   -22242.616   -48219.845    60609.457   -79117.459    -4345.214    78746.262    24173.197    83.574557 
   82200    2211.9303    -113.0355     2.001401    -111.0341   -9394.9372    4.3655003    4.3655003    4.3655003   -9394.9372    18767.322   -30474.669   -16477.464       16.529   -17331.481   -14805.615    83.195929 
   82300    1635.7403    -112.5193    1.4800522   -111.03925    2915.2696    4.3569812    4.3569812    4.3569812    2915.2696   -20183.578     48024.65   -19095.263     3691.414    51507.578   -14013.215    82.709814 
   82400     1097.086   -112.04584    0.9926665   -111.05317     6751.787    4.3592327    4.3592327    4.3592327     6751.787   -7854.9289    60199.389   -32089.099   -530.55918    50032.602    18654.537    82.838106 
   82500    2219.1608   -113.04733    2.0079433   -111.03939    12753.043    4.3657844    4.3657844    4.3657844    12753.043    28839.002   -4977.3416    14397.468   -917.17845   -32450.979     6005.012     83.21217 
   82600    1474.3103   -112.38839    1.3339869   -111.05441    11953.616    4.3679206    4.3679206    4.3679206    11953.616    7128.5076    27294.119    1438.2209   -1707.8112    51877.513   -24656.284    83.334381 
   82700    1625.8592   -112.51422    1.4711116   -111.04311    12557.428    4.3692879    4.3692879    4.3692879    12557.428    32151.882    9241.7485   -3721.3474    8934.9387    7799.1595    24073.853    83.412662 
   82800    1863.9762   -112.72556    1.6865649   -111.03899   -2070.5756    4.3623022    4.3623022    4.3623022   -2070.5756    30517.312   -6523.3979   -30205.641    9815.9403    6177.2401    23295.737    83.013216 
   82900    1619.5562   -112.50793    1.4654085   -111.04252    29246.197    4.3480825    4.3480825    4.3480825    29246.197    47593.877    64770.977   -24626.263    -7370.583     57542.34    -17748.59    82.204068 
   83000    1441.8347   -112.36143    1.3046023   -111.05682    13750.482       4.3532       4.3532       4.3532    13750.482    76455.777    12633.093   -47837.426    12269.989     -7192.44    59170.495    82.494663 
   83100    1846.5499   -112.72276    1.6707971   -111.05196   -12454.517    4.3658376    4.3658376    4.3658376   -12454.517    22267.907   -77.939004    -59553.52    3064.4289    15620.352    24657.677    83.215211 
   83200    1730.0253    -112.6163    1.5653633   -111.05094    6303.9395    4.3576945    4.3576945    4.3576945    6303.9395    23967.683    61444.437   -66500.301   -11678.715    57237.885   -9469.8062    82.750446 
   83300    1568.6805   -112.47696    1.4193751   -111.05759    4713.3039    4.3553106    4.3553106    4.3553106    4713.3039    70763.698    -8651.945   -47971.842    1796.2755   -7476.7848    77774.979    82.614712 
   83400     2026.757   -112.88391    1.8338523   -111.05006   -8980.4078    4.3648927    4.3648927    4.3648927   -8980.4078   -1433.8625    -6465.581    -19041.78   -5100.9745    22347.553   -7875.4227    83.161193 
   83500    1406.3098   -112.33091    1.2724587   -111.05846    16495.744    4.3525543    4.3525543    4.3525543    16495.744    30884.132     36920.46    -18317.36     7163.867    37778.788    11542.956     82.45796 
   83600    1799.8526   -112.69192    1.6285444   -111.06338    24499.353    4.3596751    4.3596751    4.3596751    24499.353    23249.202   -6407.0647    56655.922   -5648.0584   -8972.3452    63877.771    82.863328 
   83700    2361.1751   -113.18524    2.1364408    -111.0488   -1294.8785    4.3700937    4.3700937    4.3700937   -1294.8785   -11771.814   -14813.829    22701.008   -9276.8509   -2601.9415   -20456.159    83.458824 
   83800    1187.7117   -112.13253    1.0746665   -111.05786    41461.835    4.3477793    4.3477793    4.3477793    41461.835     66648.71    4235.0109    53501.784    14944.294    37577.279     47316.06    82.186876 
   83900    1961.0814   -112.83332    1.7744277   -111.05889   -1327.5341    4.3604589    4.3604589    4.3604589   -1327.5341    8124.3625   -12996.869    889.90424   -14634.632   -4018.4232    28437.692     82.90803 
   84000    1766.4878    -112.6517    1.5983553   -111.05335   -14019.423     4.365996     4.365996     4.365996   -14019.423    -19991.45   -12419.092   -9647.7257    -28396.97   -26386.912   -15332.522    83.224271 
   84100    1192.2861    -112.1369    1.0788055    -111.0581     16631.45    4.3528688    4.3528688    4.3528688     16631.45    93287.953    13577.093   -56970.695     8620.223    20276.657    58601.996    82.475835 
   84200    2085.8972   -112.94146    1.8873636   -111.05409   -22920.578    4.3718526    4.3718526    4.3718526   -22920.578   -17911.945   -6828.2668   -44021.522   -11964.754    1581.4926    1464.5676    83.559634 
   84300    1557.8042   -112.46217     1.409534   -111.05263   -7637.4977    4.3687275    4.3687275    4.3687275   -7637.4977    14871.379   -14581.023   -23202.849   -28071.346   -9204.7409    -7059.966    83.380574 
   84400    2119.4628   -112.95743    1.9177345    -111.0397    22110.952    4.3474657    4.3474657    4.3474657    22110.952    68525.758    25914.021   -28106.924    11453.097    2943.0554    45344.724    82.169095 
   84500    1497.0867   -112.41925    1.3545955   -111.06465   -25497.709    4.3590997    4.3590997    4.3590997   -25497.709       -28523    -46046.27    -1923.857   -43357.812    2975.4849   -26666.771    82.830524 
   84600    919.51062   -111.91086   0.83199253   -111.07887   -367.16177    4.3601779    4.3601779    4.3601779   -367.16177     8589.415   -26826.403    17135.503   -33490.222    -5589.031   -21298.151    82.892003 
   84700    2779.0988   -113.56916     2.514587   -111.05457     5687.179    4.3603334    4.3603334    4.3603334     5687.179   -5752.2234    26881.876   -4068.1152    24774.229   -1463.1257    16348.271     82.90087 
   84800     862.8096   -111.85813   0.78068825   -111.07745   -33389.994    4.3732326    4.3732326    4.3732326   -33389.994   -44088.309    -68907.52    12825.846   -80487.102   -1729.6428   -26942.408    83.638791 
   84900    1680.9403   -112.57533    1.5209501   -111.05438   -7559.4112    4.3620075    4.3620075    4.3620075   -7559.4112   -945.32006   -37611.876    15878.963   -12990.388   -3897.0544   -25987.834    82.996394 
   85000    2451.7475   -113.25986    2.2183927   -111.04147    2284.8451    4.3565709    4.3565709    4.3565709    2284.8451    -27112.56    5551.1961      28415.9    14.181509    4414.0036    21204.116    82.686453 
   85100    801.35157   -111.79662   0.72507974   -111.07154   -31023.711    4.3693109    4.3693109    4.3693109   -31023.711   -43696.925   -78326.665    28952.455   -80541.287   -5269.6161   -37499.649    83.413978 
   85200    2406.1343   -113.22022    2.1771209    -111.0431    15756.113     4.363319     4.363319     4.363319    15756.113     7873.815   -10904.164    50298.687    14958.103    11175.175   -14703.794    83.071279 
   85300     1949.025   -112.81425    1.7635188   -111.05073    6022.9336    4.3624725    4.3624725    4.3624725    6022.9336   -18871.917   -2912.7797    39853.498   -40317.783   -4348.1833     2358.976    83.022941 
   85400    909.00686   -111.88013   0.82248851   -111.05764   -7805.0735    4.3721905    4.3721905    4.3721905   -7805.0735    22359.616   -64524.276     18749.44    -32560.78   -4649.9625   -43858.413    83.579012 
   85500    2477.4334   -113.26301    2.2416338   -111.02137    6881.3854    4.3700073    4.3700073    4.3700073    6881.3854    5276.5169    15685.367   -317.72798    7767.6697    13085.023    1170.6718    83.453872 
   85600    1330.1993   -112.24756    1.2035923   -111.04397   -22911.176    4.3649382    4.3649382    4.3649382   -22911.176   -46321.322   -72991.095    50578.891   -74743.094    -10593.79   -2239.9234    83.163793 
   85700    1527.2958   -112.42736    1.3819293   -111.04543    3829.1362    4.3530917    4.3530917    4.3530917    3829.1362    31701.547   -25737.242    5523.1033     6625.978    3229.0782   -49314.312    82.488509 
   85800    1742.7524   -112.62536     1.576879   -111.04849    18754.132    4.3583097    4.3583097    4.3583097    18754.132    11592.973     41097.07    3572.3549   -27522.129    19088.877     6532.279    82.785495 
   85900    1688.8275   -112.57981    1.5280866   -111.05172   -14708.449    4.3709982    4.3709982    4.3709982   -14708.449   -47069.483   -4112.2533    7056.3902   -61470.246   -7939.8032    2241.3814    83.510653 
   86000    1688.7798   -112.57323    1.5280434   -111.04519    5761.5824    4.3675872    4.3675872    4.3675872    5761.5824     1165.738    46945.128   -30826.119    27559.303   -3070.8677   -41871.402    83.315296 
   86100    1493.8922   -112.39945     1.351705   -111.04775   -15541.435    4.3643102    4.3643102    4.3643102   -15541.435   -54341.509    8776.1983   -1058.9959   -53741.461    20210.852    7308.4045    83.127906 
   86200    1624.5908   -112.51787    1.4699639   -111.04791    10133.229    4.3570405    4.3570405    4.3570405    10133.229   -10349.579    26784.983    13964.282   -46666.537   -4940.1282     -2387.25    82.713195 
   86300    2010.0825   -112.87118    1.8187649   -111.05242   -1462.4093    4.3572578    4.3572578    4.3572578   -1462.4093    21511.171    7083.4544   -32981.853    33272.237   -17064.213   -34486.507    82.725568 
   86400    1625.9765   -112.53438    1.4712177   -111.06316   -16368.244     4.365132     4.365132     4.365132   -16368.244   -23741.046    -15025.14   -10338.544   -34927.372    28797.219    12232.269     83.17487 
   86500     1693.495   -112.59258    1.5323098   -111.06027      5887.36    4.3654307    4.3654307    4.3654307      5887.36    4744.2941    19895.295    -6977.509   -20139.959   -18075.174   -6010.5304     83.19195 
   86600    1945.8463   -112.80704    1.7606426    -111.0464   -9945.2278    4.3721786    4.3721786    4.3721786   -9945.2278    29189.629   -17426.029   -41599.283    9197.2129   -20352.662   -24263.261     83.57833 
   86700    1579.3138    -112.4634    1.4289963    -111.0344   -18373.497    4.3812137    4.3812137    4.3812137   -18373.497    7896.4212    -53977.13   -9039.7823   -48140.597    35948.593    4898.2587    84.097542 
   86800    1478.2166   -112.36221    1.3375214   -111.02468   -17067.534    4.3780368    4.3780368    4.3780368   -17067.534   -91.251858    9076.7118   -60188.062    7197.2273   -55899.327   -1079.4795    83.914732 
   86900    1807.1444   -112.65703    1.6351422   -111.02189    5393.6421    4.3606542    4.3606542    4.3606542    5393.6421    43775.213    3277.9067   -30872.193    1407.6254   -854.69267   -5181.7164    82.919172 
   87000    1515.8153   -112.40854    1.3715415   -111.03699    4599.8415    4.3466072    4.3466072    4.3466072    4599.8415   -7199.6342     20254.54    744.61843   -36267.371    9208.6637   -5877.3471    82.120427 
   87100    1300.1155   -112.24609    1.1763718   -111.06972   -18578.285    4.3567147    4.3567147    4.3567147   -18578.285   -48036.351    52336.217    -60034.72   -4751.7592   -85658.067    5952.5864    82.694641 
   87200    2472.4536   -113.28378     2.237128   -111.04665    7655.7875    4.3693849    4.3693849    4.3693849    7655.7875    26697.115    36117.484   -39847.237    1793.9484    22142.379   -6446.9325    83.418218 
   87300    760.04455   -111.75402   0.68770428   -111.06632    -4080.178    4.3792118    4.3792118    4.3792118    -4080.178   -6679.5251    58659.681   -64220.689   -15111.444   -47582.025   -1880.2627    83.982319 
   87400     2296.643   -113.11391    2.0780508   -111.03586   -22799.142    4.3831236    4.3831236    4.3831236   -22799.142   -8336.5535     839.0859   -60899.959   -16600.418   -19413.145    11316.263    84.207575 
   87500    2418.9379   -113.20271    2.1887058   -111.01401   -322.92271    4.3660578    4.3660578    4.3660578   -322.92271   -8554.6288    34561.889   -26976.028   -6686.9457    -21800.53    1867.2759    83.227806 
   87600    898.67402   -111.84436   0.81313914   -111.03122     20424.89    4.3579205    4.3579205    4.3579205     20424.89    27305.321      72964.4   -38995.051   -24870.194    -57880.81   -6554.6581    82.763319 
   87700    2606.7662   -113.38415    2.3586568   -111.02549    11008.083    4.3660752    4.3660752    4.3660752    11008.083    54704.018    10044.023   -31723.792    1508.6746    28741.003     21054.16    83.228802 
   87800    1166.0016   -112.10707    1.0550228   -111.05205    12950.181     4.367279     4.367279     4.367279    12950.181   -2775.0787    87511.738   -45886.115   -2300.8263   -54754.022    2333.4111    83.297659 
   87900    1255.4185   -112.19394     1.135929   -111.05801   -12797.106    4.3719558    4.3719558    4.3719558   -12797.106   -38821.131    18560.202   -18130.388   -51313.259   -15277.765    -10146.75    83.565551 
   88000    2411.2538   -113.21755    2.1817531    -111.0358    16520.928    4.3591668    4.3591668    4.3591668    16520.928     -5469.09    66784.225   -11752.352    7938.1786   -158.32563    15042.218    82.834348 
   88100    895.10017   -111.87083   0.80990545   -111.06093   -8953.5095    4.3611447    4.3611447    4.3611447   -8953.5095   -50578.042    72006.566   -48289.052   -5140.3086   -78706.304    -4687.866    82.947152 
   88200    1983.8084   -112.83521    1.7949916   -111.04022   -23437.957    4.3708106    4.3708106    4.3708106   -23437.957    -24109.04   -43855.064    -2349.766   -32339.982    22546.793   -4455.4576    83.499903 
   88300    1729.5736   -112.60656    1.5649545   -111.04161     8936.014    4.3629443    4.3629443    4.3629443     8936.014    -12483.13    57121.506   -17830.334    7891.1422   -49157.427   -4922.5441    83.049882 
   88400    1820.8051   -112.69246    1.6475027   -111.04495   -18029.838    4.3711636    4.3711636    4.3711636   -18029.838   -34096.661    29244.143   -49236.996   -8032.1835   -33667.474   -8981.8169    83.520133 
   88500     2179.446   -112.99923    1.9720085   -111.02722   -11781.916    4.3771543    4.3771543    4.3771543   -11781.916    -21083.86   -33489.214    19227.324   -21950.528    5690.8804    1241.9841    83.863999 
   88600    1239.0454   -112.15048    1.1211143   -111.02937    6909.7023     4.367989     4.367989     4.367989    6909.7023   -11508.211    45816.873   -13579.556    1152.5031   -89210.864   -10034.797    83.338296 
   88700    2490.9703   -113.26312    2.2538823   -111.00924    23104.419    4.3692477    4.3692477    4.3692477    23104.419     10461.16    17863.228    40988.869    15715.056    23055.588    12938.194     83.41036 
   88800    660.22968   -111.63704   0.59738969   -111.03965     18725.15    4.3777531    4.3777531    4.3777531     18725.15   -16459.412    46216.969    26417.892     -8558.86   -85935.126   -2633.4227     83.89842 
   88900    1595.6219   -112.46522    1.4437522   -111.02147   -4989.8929    4.3869809    4.3869809    4.3869809   -4989.8929   -5178.9115   -8488.4139   -1302.3534   -467.46782   -24392.203   -10023.411    84.430087 
   89000    1889.6265   -112.70966    1.7097738   -110.99989    6494.7297     4.382177     4.382177     4.382177    6494.7297   -6933.2484    23322.574    3094.8633   -7020.3509   -23653.387   -7309.3027    84.153026 
   89100      1547.57   -112.40818    1.4002738    -111.0079    6891.7685    4.3763718    4.3763718    4.3763718    6891.7685    -4338.161    21622.015    3391.4516   -17522.183   -68478.512   -13491.858    83.819032 
   89200    2258.9127    -113.0467    2.0439117   -111.00279   -1296.7653    4.3697261    4.3697261    4.3697261   -1296.7653    35616.328   -30225.375   -9281.2493   -5408.9424    38582.927   -32848.786    83.437761 
   89300    1410.4734   -112.30288     1.276226   -111.02665    27627.605    4.3615646    4.3615646    4.3615646    27627.605    53395.524    24509.375    4977.9153    1080.7851   -35752.966   -6112.8142    82.971113 
   89400    2484.6737    -113.2728     2.248185   -111.02462   -15050.379    4.3770514    4.3770514    4.3770514   -15050.379   -4779.9886   -31524.675   -8846.4727    353.82629   -14994.191    1356.6289    83.858085 
   89500    1488.8172   -112.36438    1.3471131   -111.01727   -10754.231     4.381571     4.381571     4.381571   -10754.231     16812.24   -49125.081    50.147062   -2804.7091    2253.5488   -29616.579    84.118119 
   89600     1612.123   -112.46125    1.4586828   -111.00256    10535.201    4.3799513    4.3799513    4.3799513    10535.201    11847.986    20224.104   -466.48738    1317.4045   -21027.343    8385.3394    84.024872 
   89700    1910.0749   -112.73302    1.7282759   -111.00474    -20018.84     4.380525     4.380525     4.380525    -20018.84    21590.706    -47215.53   -34431.695   -15571.677    11069.595   -22944.712    84.057891 
   89800    1148.5338   -112.07078    1.0392175   -111.03156   -9233.7955     4.355498     4.355498     4.355498   -9233.7955    2217.4328   -8129.0418   -21789.777   -9828.1269   -19855.524   -29601.734     82.62538 
   89900    1731.8276   -112.60217     1.566994   -111.03518    26034.669     4.342783     4.342783     4.342783    26034.669   -13444.493    37105.655    54442.844     11588.69   -36764.688    16434.299    81.903864 
   90000    1641.6484   -112.54506     1.485398   -111.05967   -20444.588    4.3689265    4.3689265    4.3689265   -20444.588    42351.525   -84392.103   -19293.185    4032.0553     11604.25   -62216.191    83.391967 
   90100    1312.4831   -112.23208    1.1875623   -111.04451   -11238.774    4.3856473    4.3856473    4.3856473   -11238.774   -5194.3525   -37962.364     9440.394   -4388.9642   -25459.722    -6023.797     84.35311 
   90200    2345.7147   -113.13231     2.122452   -111.00986    1254.6488    4.3825425    4.3825425    4.3825425    1254.6488   -31184.777   -4562.3785    39511.102    9656.7435   -14983.682    9150.4505    84.174087 
   90300    1401.9356   -112.29087    1.2685008   -111.02237    -3861.652    4.3667425    4.3667425    4.3667425    -3861.652    55644.361   -65918.868   -1310.4497     8174.706    10568.623   -48922.106    83.266967 
   90400    1666.9406   -112.53905    1.5082829   -111.03077    14456.861    4.3536692    4.3536692    4.3536692    14456.861    32064.031   -8836.3669    20142.919    -5894.352   -28558.547    27303.571    82.521341 
   90500    2444.0976   -113.25239    2.2114708   -111.04092    15355.688    4.3618551    4.3618551    4.3618551    15355.688    21205.348    7982.8031    16878.913   -3340.6323    1212.0858   -13198.952    82.987693 
   90600    1250.6437   -112.19663    1.1316087   -111.06502   -10247.523    4.3743884    4.3743884    4.3743884   -10247.523    63122.695    -48098.19   -45767.075   -4765.8838    20414.247   -33634.935    83.705122 
   90700    1754.4976   -112.63908    1.5875063   -111.05157    8361.3369     4.368666     4.368666     4.368666    8361.3369    34615.952   -43477.877    33945.936   -9184.2231   -18856.582    39537.908    83.377051 
   90800    2085.2427   -112.92942    1.8867714   -111.04265    14338.647    4.3610985    4.3610985    4.3610985    14338.647    12799.412    -15793.36    46009.889   -6164.0817    24389.909   -23061.395     82.94452 
   90900    1035.0371   -111.99885   0.93652333   -111.06232    14075.556    4.3588823    4.3588823    4.3588823    14075.556    72077.648   -37930.083    8079.1037    3103.1621     708.6013   -7158.6072    82.818131 
   91000    2177.7115   -113.02318    1.9704391   -111.05274   -11031.224    4.3658109    4.3658109    4.3658109   -11031.224     9514.884   -57606.642    14998.087    2207.2405   -8403.4788    41555.703    83.213687 
   91100    1517.2949     -112.436    1.3728803   -111.06312    18820.551    4.3599841    4.3599841    4.3599841    18820.551    15152.429    11852.466    29456.758   -1022.7216    18515.872   -24329.555    82.880948 
   91200    916.32211   -111.90552    0.8291075   -111.07642     12989.68     4.366922     4.366922     4.366922     12989.68      38489.3   -24885.272    25365.011   -1333.6934    2416.8781    668.25982    83.277238 
   91300    2626.9846   -113.40735    2.3769509    -111.0304   -24722.283    4.3813896    4.3813896    4.3813896   -24722.283    14458.897   -56532.941   -32092.804   -7585.7245    2489.9659    27509.506    84.107676 
   91400    962.24362    -111.9148   0.87065825   -111.04414    32931.281    4.3636965    4.3636965    4.3636965    32931.281    51621.147    43628.839    3543.8581   -1053.8561    32164.424   -18163.386    83.092839 
   91500    1815.3081    -112.6912    1.6425289   -111.04867   -1263.6338    4.3645003    4.3645003    4.3645003   -1263.6338    57611.453   -17137.597   -44264.757   -716.48212   -30525.483   -16562.944     83.13877 
   91600    2494.0629   -113.29536    2.2566805   -111.03868    16633.972    4.3575503    4.3575503    4.3575503    16633.972    45443.474   -9164.0733    13622.515   -7871.2652    22042.908    5235.2313    82.742232 
   91700    1034.5199   -112.00703   0.93605539   -111.07098     15190.49     4.357599     4.357599     4.357599     15190.49    9595.3482    38460.423   -2484.3028    4395.6859    39178.316   -17677.685    82.745004 
   91800    1720.5618   -112.61699    1.5568005   -111.06019   -19195.606    4.3797982    4.3797982    4.3797982   -19195.606    34718.479   -26026.879   -66278.417    7242.8813   -44568.479   -25693.603    84.016061 
   91900    1927.0304   -112.78888    1.7436176   -111.04526    4689.8957     4.364009     4.364009     4.364009    4689.8957   -8131.2055    -5187.206    27388.099   -1801.5473    43300.606    23040.436    83.110694 
   92000    1432.2193   -112.35091    1.2959022   -111.05501    483.58784    4.3479261    4.3479261    4.3479261    483.58784    10715.003    12556.597   -21820.836    4782.7074      24173.9   -25070.557      82.1952 
   92100    1628.0684   -112.53643    1.4731105   -111.06332    9261.1733    4.3527861    4.3527861    4.3527861    9261.1733    31707.841     1135.005   -5059.3258   -4353.0176   -37159.668   -30088.484    82.471134 
   92200    1940.4888   -112.82857     1.755795   -111.07277   -7770.8442     4.364339     4.364339     4.364339   -7770.8442   -17482.143   -882.82855   -4947.5614    9488.1487    24878.084    44000.032     83.12955 
   92300    1637.9529   -112.55096    1.4820542   -111.06891   -25323.399     4.378105     4.378105     4.378105   -25323.399    8424.6601   -14293.186   -70101.669   -1311.8073     13090.82   -35774.971    83.918653 
   92400    1664.7889   -112.56385     1.506336   -111.05751    1847.5812    4.3617959    4.3617959    4.3617959    1847.5812    30940.338    3421.6361    -28819.23   -8551.0505   -8678.3984   -22973.982    82.984318 
   92500    1556.7573   -112.46887    1.4085867   -111.06028    3570.6658    4.3499381    4.3499381    4.3499381    3570.6658    15370.002   -2742.2934   -1915.7111    16953.882    1997.0745    69490.313    82.309364 
   92600    2057.0686   -112.92213    1.8612789   -111.06085   -4019.3802    4.3569331    4.3569331    4.3569331   -4019.3802   -14528.318    16883.217    -14413.04   -18906.663    16409.147   -37182.943    82.707075 
   92700    1466.9898   -112.39777    1.3273632   -111.07041   -15882.204    4.3687677    4.3687677    4.3687677   -15882.204    17309.314   -21226.126   -43729.799   -2316.6631    11154.942    2488.3574    83.382873 
   92800    1287.3191    -112.2333    1.1647933   -111.06851    -5449.232    4.3723113    4.3723113    4.3723113    -5449.232    29149.468   -28127.914    -17369.25    14784.422   -17392.743    59190.426    83.585938 
   92900    2301.3142   -113.12939    2.0822775   -111.04711    4839.0133    4.3597786    4.3597786    4.3597786    4839.0133   -1299.1376    32234.139   -16417.962   -31894.389   -14783.603   -22076.019    82.869228 
   93000    1246.8069   -112.18575    1.1281371   -111.05761   -7374.4892    4.3578692    4.3578692    4.3578692   -7374.4892    56180.933   -12187.918   -66116.483    4344.7359     4859.553    56286.793    82.760401 
   93100    1991.6731   -112.85248    1.8021077   -111.05037   -18592.439    4.3673953    4.3673953    4.3673953   -18592.439    14537.858   -14180.549   -56134.626   -5692.1045   -4688.7183    6558.5406    83.304314 
   93200    1771.1758   -112.65545    1.6025971   -111.05285    9319.7436    4.3625949    4.3625949    4.3625949    9319.7436    44710.324    19700.753   -36451.846   -18798.662   -26831.774    4768.9201    83.029927 
   93300    1247.1854   -112.20146    1.1284796   -111.07298   -14571.422    4.3605957    4.3605957    4.3605957   -14571.422    56088.321   -44387.801   -55414.787   -9179.7928    6706.8098      74099.7    82.915833 
   93400    2531.8467   -113.34782    2.2908681   -111.05696   -5133.7732    4.3659115    4.3659115    4.3659115   -5133.7732    23504.748   -16235.585   -22670.482   -7530.8062   -1153.1114   -25997.183    83.219441 
   93500    1435.3841   -112.37415    1.2987657   -111.07538   -10682.902    4.3625165    4.3625165    4.3625165   -10682.902      46734.8   -20407.775   -58375.732   -529.94198    -25281.19    46892.311    83.025452 
   93600    1083.7326   -112.05851   0.98058403   -111.07793   -533.15201    4.3615715    4.3615715    4.3615715   -533.15201    18232.039   -5695.3802   -14136.115    -20977.84   -8752.1914    52782.802     82.97151 
   93700    2499.8329   -113.30879    2.2619013   -111.04689   -3564.9627    4.3771544    4.3771544    4.3771544   -3564.9627    13833.588    -36596.69    12068.214   -1292.5215   -704.21213    -18903.31    83.864003 
   93800    840.26745   -111.80034   0.76029164   -111.04005   -4990.1902    4.3912537    4.3912537    4.3912537   -4990.1902    65096.414   -58697.564   -21369.421    1581.9459   -8163.5165    75350.746    84.677025 
   93900      1999.38   -112.79356     1.809081   -110.98448   -9304.5596      4.39268      4.39268      4.39268   -9304.5596   -40153.804   -44119.601    56359.726   -26775.838    -16448.83   -27229.133     84.75956 
   94000    1363.6074   -112.22631    1.2338206   -110.99249   -15422.011    4.3794155    4.3794155    4.3794155   -15422.011    7777.2593   -58750.205    4706.9128    2300.1997    18797.031    56718.811    83.994035 
   94100     1613.464   -112.47095    1.4598962   -111.01105    11460.581    4.3554848    4.3554848    4.3554848    11460.581    20597.826   -5326.5221     19110.44    -5573.212    19744.725    29746.185    82.624624 
   94200    2325.5581   -113.12876    2.1042138   -111.02454    9491.0523    4.3619159    4.3619159    4.3619159    9491.0523    20309.603   -9701.8615    17865.415   -14428.693   -4058.7364    367.76389    82.991168 
   94300    871.40763   -111.84342   0.78846793   -111.05495   -42260.505    4.3815233    4.3815233    4.3815233   -42260.505    34033.549   -52542.362    -108272.7    13275.759    12021.279    94383.756    84.115375 
   94400    1953.7438   -112.79255    1.7677884   -111.02477    4610.1908    4.3627799    4.3627799    4.3627799    4610.1908   -13334.913    18379.145    8786.3411    1819.9834    23469.531   -22017.376    83.040492 
   94500     1498.457   -112.39029    1.3558354   -111.03446   -10165.844    4.3583277    4.3583277    4.3583277   -10165.844    59513.926   -54935.443   -35076.014   -6884.5191   -2853.4274    59067.029    82.786525 
   94600    1355.8802   -112.26881    1.2268289   -111.04198   -20703.483     4.367982     4.367982     4.367982   -20703.483    47922.303   -54756.231   -55276.522    7943.0954   -13312.334    57137.141    83.337894 
   94700    2170.3052   -112.99193    1.9637378    -111.0282    11177.038    4.3594877    4.3594877    4.3594877    11177.038    -22360.78    658.41107    55233.482    9.3572674    17822.027    -17010.77    82.852646 
   94800    1189.8457   -112.13231    1.0765974   -111.05571   -7802.7255    4.3706032    4.3706032    4.3706032   -7802.7255    22350.033   -21776.949   -23981.261    5149.7362   -8856.2708    77034.956    83.488013 
   94900    2338.4757   -113.14471    2.1159019   -111.02881   -18060.896    4.3753801    4.3753801    4.3753801   -18060.896   -13062.583   -7778.7289   -33341.375   -3009.1463    -22605.99    1088.4641    83.762062 
   95000     1468.548   -112.36316    1.3287731   -111.03438    4687.3427    4.3604394    4.3604394    4.3604394    4687.3427    -11221.49   -6727.7797    32011.297    8628.1981    6870.7566    32581.487    82.906915 
   95100    1448.7299   -112.36065    1.3108412   -111.04981    4868.0914    4.3662173    4.3662173    4.3662173    4868.0914    50343.834   -29013.829    -6725.731    8377.5641   -10886.602    57997.121    83.236925 
   95200     2218.836   -113.04942    2.0076495   -111.04177   -3895.6518    4.3641829    4.3641829    4.3641829   -3895.6518   -14879.699    7717.9402   -4525.1965   -12036.293   -13003.651   -45876.535     83.12063 
   95300    1216.9695   -112.16011    1.1011395   -111.05897   -3401.9475    4.3608037    4.3608037    4.3608037   -3401.9475     7982.821   -8476.7049   -9711.9586    20205.384   -162.36866    53471.156    82.927697 
   95400    1988.3388   -112.85284    1.7990907   -111.05374   -30578.601    4.3710149    4.3710149    4.3710149   -30578.601    992.16622    -62655.53    -30072.44     6044.312    7088.7401    18979.844    83.511613 
   95500    1223.5717   -112.15845    1.1071134   -111.05133    915.99006    4.3692952    4.3692952    4.3692952    915.99006    23529.458   -3579.5368   -17201.951    -4535.545   -12470.707   -53658.043    83.413079 
   95600    1706.8086    -112.5814    1.5443563   -111.03704    1922.9607    4.3736652    4.3736652    4.3736652    1922.9607   -44.823967    6138.3788   -324.67283   -10413.176    -4408.693    47755.125     83.66361 
   95700    1801.5268   -112.65729    1.6300593   -111.02723   -9687.7171    4.3768106    4.3768106    4.3768106   -9687.7171    32179.565   -46090.702   -15152.014    6573.4829    1003.0901   -34695.384    83.844247 
   95800    1356.2651    -112.2598    1.2271772   -111.03262    11320.715    4.3677939    4.3677939    4.3677939    11320.715    18275.052    6239.6476     9447.444     2795.148   -25048.622   -25052.902     83.32713 
   95900    2227.2874   -113.03975    2.0152964   -111.02446    29501.804    4.3679838    4.3679838    4.3679838    29501.804    33579.728    23414.008    31511.676   -4238.2015    390.26361    21231.426    83.337994 
   96000    1459.2323   -112.36455     1.320344   -111.04421    276.20878     4.371039     4.371039     4.371039    276.20878    44954.681   -54384.636    10258.581    7215.6768   -4858.2382   -78305.126    83.512991 
   96100    2221.5352   -113.03509    2.0100917     -111.025    691.26642    4.3704125    4.3704125    4.3704125    691.26642   -15261.198    3191.1694    14143.828    4947.7961   -17851.245    15633.377    83.477088 
   96200    1042.4078   -111.97748   0.94319249   -111.03429    213.98208    4.3723699    4.3723699    4.3723699    213.98208    25408.325   -56227.181    31460.802   -205.18967    20874.392   -56891.029    83.589299 
   96300    1452.8024   -112.34965    1.3145261   -111.03513   -12392.563    4.3716412    4.3716412    4.3716412   -12392.563    32464.616   -70232.647    590.34263   -2939.5013    8013.8117   -48439.792    83.547511 
   96400    2426.2255   -113.21336    2.1952998   -111.01806    22745.015    4.3579421    4.3579421    4.3579421    22745.015    18158.498   -5443.5931    55520.139    8231.5297   -17524.469    5774.2719    82.764552 
   96500    983.38369    -111.9468   0.88978623   -111.05702   -17292.795    4.3685062    4.3685062    4.3685062   -17292.795    49605.622   -33603.962   -67880.045   -4107.8485    21395.241   -100275.61      83.3679 
   96600    2224.9978   -113.04185    2.0132248   -111.02862   -14317.404    4.3692197    4.3692197    4.3692197   -14317.404   -17067.526    17600.228   -43484.913   -19774.334    9862.5793        45301    83.408755 
   96700     1299.803    -112.2199    1.1760891   -111.04381    2691.1449    4.3538018    4.3538018    4.3538018    2691.1449    56849.328   -8239.0091   -40536.884    13453.818   -3683.9949    -45308.82    82.528883 
   96800    2077.4128   -112.93265    1.8796868   -111.05296   -22465.479    4.3662778    4.3662778    4.3662778   -22465.479    736.82269   -4100.7661   -64032.493     -1361.36     521.9868   -49382.566    83.240389 
   96900    1831.9912   -112.70138    1.6576241   -111.04375    4494.6219    4.3679388    4.3679388    4.3679388    4494.6219   -10168.728    74601.288   -50948.694   -656.36969    23703.675    10600.385     83.33542 
   97000    1220.1322    -112.1529    1.1040013    -111.0489     11449.57     4.365517     4.365517     4.365517     11449.57    55268.548    33250.224   -54170.062     1155.854    9362.4019   -35025.067    83.196884 
   97100    2267.7747    -113.0811    2.0519302   -111.02917   -9949.3974    4.3746676    4.3746676    4.3746676   -9949.3974   -33312.568    26901.078   -23436.702   -14117.749   -11210.296    2217.4035     83.72115 
   97200    1265.4201    -112.1871    1.1449787   -111.04212    14543.372    4.3650063    4.3650063    4.3650063    14543.372    12879.263    51273.068   -20522.216   -4820.9087    5452.9716   -15854.334     83.16769 
   97300    1607.3568   -112.49763    1.4543702   -111.04326    15969.278    4.3645338    4.3645338    4.3645338    15969.278    38730.764    8987.9654    189.10498   -8837.7969    5805.5592   -36785.187    83.140682 
   97400    2100.9785   -112.93498    1.9010095   -111.03397    4140.9949    4.3703891    4.3703891    4.3703891    4140.9949   -33506.802    15124.573    30805.213    8105.5479    5858.2055    22615.125    83.475747 
   97500    703.26106   -111.69498   0.63632539   -111.05866     11147.46    4.3660299    4.3660299    4.3660299     11147.46   -14512.248    66171.037   -18216.409   -2101.8808   -441.34345   -38620.248    83.226209 
   97600    2125.7911   -112.96289    1.9234605   -111.03943    29067.959    4.3686905    4.3686905    4.3686905    29067.959    33342.113    13045.627    40816.138   -8135.2122    6167.9411   -6382.7307    83.378453 
   97700    1767.2431   -112.64453    1.5990387   -111.04549   -1896.0946    4.3749607    4.3749607    4.3749607   -1896.0946    11199.926   -25536.931    8648.7211    3711.4386    13991.147    11443.082    83.737978 
   97800    1325.4238   -112.25038    1.1992713   -111.05111    4506.9159    4.3729717    4.3729717    4.3729717    4506.9159    33474.641    4875.0893   -24828.982   -676.22761     1332.427   -56623.201    83.623822 
   97900    2333.6008   -113.13677    2.1114911   -111.02528   -11905.408    4.3747982    4.3747982    4.3747982   -11905.408    22839.126   -39649.147   -18906.203   -13066.332   -2445.9478    56703.963    83.728648 
   98000    1264.0246   -112.18212     1.143716   -111.03841   -13860.777    4.3669564    4.3669564    4.3669564   -13860.777    64096.009   -42588.821    -63089.52   -2260.6748    12701.195    -29967.29    83.279202 
   98100    2088.3878    -112.9206    1.8896172   -111.03098    5998.6098    4.3638145    4.3638145    4.3638145    5998.6098    31803.619    10237.338   -24045.127   -6720.8644   -2354.1046   -39068.928    83.099583 
   98200    1928.1061   -112.78637     1.744591   -111.04178   -26694.007     4.366263     4.366263     4.366263   -26694.007    20948.271   -52758.149   -48272.141     1950.966    1614.1894    75581.024    83.239544 
   98300    1063.6246   -112.02177   0.96238989   -111.05938    98.659481    4.3568086    4.3568086    4.3568086    98.659481    74239.746   -28722.829   -45220.938   -4079.3207    11319.739   -49587.231    82.699989 
   98400    2436.6456   -113.26047    2.2047281   -111.05574   -1211.6896    4.3667482    4.3667482    4.3667482   -1211.6896    3871.8152    16374.444   -23881.328    2131.1448    7843.9409   -19196.729    83.267293 
   98500    1285.0569   -112.22253    1.1627465   -111.05979    -22317.43    4.3795816    4.3795816    4.3795816    -22317.43   -8000.6717   -5645.8097   -53305.809   -9540.8177   -16854.054    25768.316    84.003593 
   98600     1317.539   -112.24162     1.192137   -111.04948   -6800.1088    4.3648466    4.3648466    4.3648466   -6800.1088    41564.655    4649.4821   -66614.464    3430.9526   -3316.5547   -51379.951    83.158562 
   98700    2682.3537   -113.45992      2.42705   -111.03287   -16834.286    4.3659284    4.3659284    4.3659284   -16834.286   -22893.319   -2936.5793    -24672.96    16963.112   -8176.2588    8547.4857    83.220406 
   98800    856.71737    -111.8292   0.77517588   -111.05402   -41037.723    4.3765699    4.3765699    4.3765699   -41037.723   -25364.756   -46668.204   -51080.209    9738.9321   -16618.099   -4839.0342    83.830416 
   98900    2249.8169   -113.06177    2.0356816   -111.02608    4242.5806    4.3631385    4.3631385    4.3631385    4242.5806    19110.905    37868.628    -44251.79   -12874.331    8999.8182   -34734.923     83.06097 
   99000     1541.207   -112.43657    1.3945165   -111.04205   -23719.373    4.3723697    4.3723697    4.3723697   -23719.373   -35064.527   -45472.583    9378.9914    28780.647    3276.0124    10429.505     83.58929 
   99100    1469.1555   -112.36239    1.3293228   -111.03307   -2715.9602    4.3698315    4.3698315    4.3698315   -2715.9602   -3260.3217    2434.5126   -7322.0715      5083.47   -20333.898    4216.0723    83.443799 
   99200    2202.5343    -113.0139    1.9928993     -111.021    22368.112    4.3585048    4.3585048    4.3585048    22368.112    42684.623    25418.743   -999.03098    11384.724    28706.948   -3023.0798    82.796618 
   99300    844.14115   -111.81948   0.76379665   -111.05569   -19016.882    4.3750651    4.3750651    4.3750651   -19016.882   -22147.755   -49495.475    14592.583    55188.039    8617.8359     9772.505    83.743973 
   99400    2293.3563   -113.09826    2.0750769   -111.02318    1377.8463    4.3740776    4.3740776    4.3740776    1377.8463    27703.007   -14186.795   -9382.6736   -17340.679   -9403.5634    9418.1049    83.687279 
   99500    1342.4039   -112.25422    1.2146353   -111.03958    17272.088    4.3613651    4.3613651    4.3613651    17272.088   -21427.966    49637.627    23606.603    47254.331    12668.173   -5181.7033    82.959729 
   99600    1151.6296    -112.1025    1.0420187   -111.06048   -9797.6803    4.3717829    4.3717829    4.3717829   -9797.6803   -26890.702   -7066.8158    4564.4771    48577.966   -298.41519    1564.2026    83.555637 
   99700    2391.1897   -113.19755    2.1635987   -111.03395    41742.234    4.3622695    4.3622695    4.3622695    41742.234    45954.287    41364.229    37908.186   -15509.439   -4552.5712   -541.08291     83.01135 
   99800    882.52059   -111.86435   0.79852318   -111.06583    20759.635    4.3745815    4.3745815    4.3745815    20759.635    10991.726    23676.468    27610.711    66975.408    5680.8631   -3793.7275    83.716208 
   99900    1979.0646   -112.80643    1.7906992   -111.01573   -13657.793    4.3987635    4.3987635    4.3987635   -13657.793    41121.813   -26386.311    -55708.88    6660.9722   -2311.3233    9959.3046    85.112206 
  100000    1378.7865   -112.26294     1.247555   -111.01539    2159.8376    4.3747093    4.3747093    4.3747093    2159.8376    8541.0286   -72857.208    70795.692     14351.72   -13496.284    14533.636     83.72354 
Loop time of 22.1315 on 1 procs for 100000 steps with 8 atoms

Pair  time (%) = 6.77137 (30.596)
Kspce time (%) = 5.31356 (24.009)
Neigh time (%) = 0.198642 (0.897554)
Comm  time (%) = 0.986219 (4.45618)
Outpt time (%) = 0.0236104 (0.106682)
Other time (%) = 8.83811 (39.9345)

Nlocal:    8 ave 8 max 8 min
Histogram: 1 0 0 0 0 0 0 0 0 0
Nghost:    1828 ave 1828 max 1828 min
Histogram: 1 0 0 0 0 0 0 0 0 0
Neighs:    2093 ave 2093 max 2093 min
Histogram: 1 0 0 0 0 0 0 0 0 0

Total # of neighbors = 2093
Ave neighs/atom = 261.625
Neighbor list builds = 2481
Dangerous builds = 0
unfix 20
unfix 21
print "seeds:2249205"
seeds:2249205
